
units lj                  # Use reduced LJ style units
atom_style atomic         # Uncharged point particles
atom_modify map hash      # Needed for indexing of clusters etc
                          # Used to be able to find where atoms are in relation to each other.

lattice fcc 1.0 spacing 1 1 1
Lattice spacing in x,y,z = 1.5874011 1.5874011 1.5874011
region box block 0 10 0 10 0 10 units lattice
create_box 2 box
Created orthogonal box = (0.0000000 0.0000000 0.0000000) to (15.874011 15.874011 15.874011)
  3 by 4 by 4 MPI processor grid
create_atoms 1 box
Created 4000 atoms
  using lattice units in orthogonal box = (0.0000000 0.0000000 0.0000000) to (15.874011 15.874011 15.874011)
  create_atoms CPU = 0.002 seconds
set type 1 type/fraction 2 0.94 78393
Setting atom values ...
  3760 settings made for type/fraction
mass 1 1.0
mass 2 1.0
pair_style lj/cut  3.5
pair_modify tail  yes
pair_coeff 1  1  1.0  1.0   # Intearaction between 1 and 1 set with epsilon = 1 and sigma = 1
pair_coeff 1  2  1.5  0.8
pair_coeff 2  2  0.5  0.88

write_data data.0
System init for write_data ...
Neighbor list info ...
  update every 1 steps, delay 10 steps, check yes
  max neighbors/atom: 2000, page size: 100000
  master list distance cutoff = 3.8
  ghost atom cutoff = 3.8
  binsize = 1.9, bins = 9 9 9
  1 neighbor lists, perpetual/occasional/extra = 1 0 0
  (1) pair lj/cut, perpetual
      attributes: half, newton on
      pair build: half/bin/atomonly/newton
      stencil: half/bin/3d
      bin: standard
WARNING: Not all mixed pair coeffs generated from mixing. Use write_data with 'pair ij' option to store all pair coeffs. (../write_data.cpp:312)


#############################
#   M E L T   S Y S T E M   #
#############################

velocity all create 2.4 9622624 mom yes dist gaussian # Assign velocities
                                                    # Temperature 2.4, random number seed, zero linear momentum
                                                                                # Gaussian distribution

timestep 0.002   # simulation timestep
thermo 1000       # output thermodynamic data every 1000 steps bf 100

# Define a fix  in this case with index 1 applied to all
# particles in the simulation. This fix is for simulations
# in the anisotropic NPT ensemble. Note that we use the MTK
# correction.
fix 1 all npt temp 2.4 2.4 0.1 iso 5.68 5.68 0.5 mtk yes tchain 5 pchain 5 # Use NPT ensemble
                                                                         # Set temperature and pressure and damping
                                                                         # Numbers of thermostats in chain and in barostat
run 10000          # run for 10000 steps
Per MPI rank memory allocation (min/avg/max) = 3.642 | 3.644 | 3.648 Mbytes
Step Temp E_pair E_mol TotEng Press Volume 
       0          2.4   -2.9877486            0    0.6113514   -2.2401145         4000 
    1000     2.425934   -1.8923674            0    1.7456238    5.9251719    4075.1523 
    2000    2.3813658    -1.870471            0    1.7006847    5.8075368    4105.9907 
    3000    2.4201277    -1.916743            0    1.7125411    5.6758464    4098.3315 
    4000    2.3680641   -1.9372544            0    1.6139538    5.3835634    4134.2757 
    5000    2.3557904   -1.9035907            0    1.6292116     5.896059    4053.1837 
    6000     2.362096   -1.8626433            0    1.6796148     5.636236     4138.452 
    7000    2.3915382   -1.8692376            0    1.7171728     5.739343     4125.144 
    8000     2.427246   -1.9086604            0    1.7312984    5.7670456    4093.0088 
    9000    2.3769987    -1.893114            0    1.6714927    5.6538195    4114.4324 
   10000    2.4025979   -1.8471941            0    1.7558018    6.0219106    4092.6196 
Loop time of 2.44782 on 48 procs for 10000 steps with 4000 atoms

Performance: 705933.706 tau/day, 4085.265 timesteps/s
99.6% CPU use with 48 MPI tasks x no OpenMP threads

MPI task timing breakdown:
Section |  min time  |  avg time  |  max time  |%varavg| %total
---------------------------------------------------------------
Pair    | 1.0647     | 1.1303     | 1.2174     |   3.1 | 46.17
Neigh   | 0.20528    | 0.21397    | 0.22793    |   1.0 |  8.74
Comm    | 0.76021    | 0.84151    | 0.91803    |   4.4 | 34.38
Output  | 0.00024656 | 0.00025258 | 0.0003333  |   0.0 |  0.01
Modify  | 0.21275    | 0.24692    | 0.275      |   3.1 | 10.09
Other   |            | 0.0149     |            |       |  0.61

Nlocal:        83.3333 ave          90 max          75 min
Histogram: 4 0 4 1 10 5 10 6 4 4
Nghost:        1614.50 ave        1645 max        1576 min
Histogram: 1 0 5 6 5 11 8 8 0 4
Neighs:        9316.54 ave       10311 max        7874 min
Histogram: 2 1 3 4 4 6 8 12 7 1

Total # of neighbors = 447194
Ave neighs/atom = 111.79850
Neighbor list builds = 911
Dangerous builds = 235

# Equilibrate just above the melting temperature to avoid step fn in T

fix 1 all npt temp 1.25 1.25 0.1 iso 5.68 5.68 0.5 mtk yes tchain 5 pchain 5
run 2000
Per MPI rank memory allocation (min/avg/max) = 3.643 | 3.645 | 3.649 Mbytes
Step Temp E_pair E_mol TotEng Press Volume 
   10000    2.4025979   -1.8471941            0    1.7558018    6.0219106    4092.6196 
   11000    1.2457894   -2.8669503            0  -0.99873332    5.4903387    3212.2298 
   12000    1.2555448   -2.8607263            0  -0.97787997    5.6429844    3209.3992 
Loop time of 0.604536 on 48 procs for 2000 steps with 4000 atoms

Performance: 571678.291 tau/day, 3308.323 timesteps/s
99.6% CPU use with 48 MPI tasks x no OpenMP threads

MPI task timing breakdown:
Section |  min time  |  avg time  |  max time  |%varavg| %total
---------------------------------------------------------------
Pair    | 0.26359    | 0.28779    | 0.3355     |   2.7 | 47.60
Neigh   | 0.037739   | 0.040277   | 0.047033   |   0.8 |  6.66
Comm    | 0.17395    | 0.22602    | 0.25263    |   3.6 | 37.39
Output  | 5.3344e-05 | 5.4388e-05 | 7.2931e-05 |   0.0 |  0.01
Modify  | 0.039742   | 0.045491   | 0.051435   |   1.6 |  7.52
Other   |            | 0.004911   |            |       |  0.81

Nlocal:        83.3333 ave          95 max          75 min
Histogram: 1 3 11 7 9 7 5 4 0 1
Nghost:        1904.06 ave        1930 max        1871 min
Histogram: 2 1 1 5 7 11 12 4 3 2
Neighs:        11897.6 ave       13526 max       10401 min
Histogram: 2 2 7 11 8 4 6 1 2 5

Total # of neighbors = 571083
Ave neighs/atom = 142.77075
Neighbor list builds = 140
Dangerous builds = 12

#############################
# L I N E A R  Q U E N C H  #
#############################

# Define solid atoms. This closely follows ten Wolde  Ruiz-Montero and Frenkel  Faraday Discuss  1996  104  93-110
# Compute components of the per-atom q6 vector
compute q6 all orientorder/atom degrees 1 6 components 6 nnn NULL cutoff 1.3 # compute the Q6 parameter.
                                                                             # Use all neighbours within 1.3 unit cell.

# get number of connections
compute coord_number all coord/atom orientorder q6 0.5

# An atom is solid if it has 8 or more connections (of a possible 14)
variable is_solid atom c_coord_number>=8
group solid dynamic all var is_solid    # Must be dynamic to update
dynamic group solid defined

# do clustering
compute cluster solid cluster/atom 1.3 # Create a cluster where all atoms within are solid and max 1.3 units from another member

# define chunks one chunk per cluster
compute clus_chunks solid chunk/atom c_cluster nchunk every compress yes  # Says which atoms are in which chunk

# count the size of each chunk
compute size_chunks solid property/chunk clus_chunks count


# Find the maximum entry in the vector of chunk sizes
variable max_n equal max(c_size_chunks)


# Thermo style which includes this variable
# thermo_style custom step temp pe vol v_max_n

thermo ${N}  # Print the thermo information every 100 steps
thermo 1000  

# Reset the npt fix at a lower temperature (below freezing)
fix 1  all npt temp  ${temp} ${temp}  0.1  iso  5.68  5.68  0.5  mtk yes tchain  5  pchain  5
fix 1  all npt temp  0.45 ${temp}  0.1  iso  5.68  5.68  0.5  mtk yes tchain  5  pchain  5
fix 1  all npt temp  0.45 0.45  0.1  iso  5.68  5.68  0.5  mtk yes tchain  5  pchain  5

dump dmp2 all dcd ${N} traj.dcd
dump dmp2 all dcd 1000 traj.dcd


compute msd all msd com yes
variable twopoint equal c_msd[4]/6/(step*dt+1.0e-6)
fix 9 all vector 10 c_msd[4]
variable fit equal slope(f_9)/6/(10*dt)
thermo_style custom step temp pe c_msd[4] v_twopoint v_fit v_max_n

fix 1 all npt temp 1.25 ${temp} 0.1 iso 5.68 5.68 0.5 mtk yes tchain 5 pchain 5
fix 1 all npt temp 1.25 0.45 0.1 iso 5.68 5.68 0.5 mtk yes tchain 5 pchain 5
run 5000000 # 5000000  # Run for this many steps
Neighbor list info ...
  update every 1 steps, delay 10 steps, check yes
  max neighbors/atom: 2000, page size: 100000
  master list distance cutoff = 3.8
  ghost atom cutoff = 3.8
  binsize = 1.9, bins = 8 8 8
  4 neighbor lists, perpetual/occasional/extra = 1 3 0
  (1) pair lj/cut, perpetual
      attributes: half, newton on
      pair build: half/bin/atomonly/newton
      stencil: half/bin/3d
      bin: standard
  (2) compute orientorder/atom, occasional
      attributes: full, newton on
      pair build: full/bin/atomonly
      stencil: full/bin/3d
      bin: standard
  (3) compute coord/atom, occasional
      attributes: full, newton on
      pair build: full/bin/atomonly
      stencil: full/bin/3d
      bin: standard
  (4) compute cluster/atom, occasional
      attributes: full, newton on
      pair build: full/bin/atomonly
      stencil: full/bin/3d
      bin: standard
Per MPI rank memory allocation (min/avg/max) = 9.816 | 9.822 | 9.828 Mbytes
Step Temp PotEng c_msd[4] v_twopoint v_fit v_max_n 
   12000    1.2555448   -2.8607263 1.9262011e-30 1.3376396e-32 8.3333333e+20            2 
   13000    1.2165344   -2.8719519    1.0713428  0.006867582  0.090744002            1 
   14000     1.225516    -2.891701    2.2406084  0.013336954  0.094969357            4 
   15000     1.246966    -2.834342    3.4388144  0.019104524  0.096622017            1 
   16000    1.2684885   -2.8732384    4.6515161  0.024226645  0.098200079            1 
   17000    1.2708304   -2.8433123    5.8064337   0.02846291  0.098965715            1 
   18000    1.2557952     -2.88245    7.0695351  0.032729328  0.099020166            2 
   19000    1.2517869   -2.8821539    8.2902951  0.036360943  0.099631863            1 
   20000    1.2674146   -2.8734806    9.4341802  0.039309083  0.099568519            2 
   21000    1.2533839   -2.8810893     10.63982  0.042221507  0.099549824            2 
   22000    1.2191998   -2.8634507    12.049042   0.04564031   0.10017768            1 
   23000      1.22978   -2.8831749    13.187421  0.047780509   0.10061437            2 
   24000    1.2609054   -2.8861942    14.314657   0.04970367   0.10071985            1 
   25000    1.2507289   -2.8763947    15.356899  0.051189662   0.10051505            1 
   26000    1.2383707   -2.8765767    16.419636  0.052627038   0.09997919            2 
   27000    1.2256191   -2.8568099    17.657232  0.054497627  0.099603376            1 
   28000    1.2508926   -2.8750074    18.843902  0.056083041  0.099326837            4 
   29000    1.2336407   -2.9145551    19.875808   0.05711439  0.098985209            2 
   30000    1.2491781   -2.9006432    20.955945  0.058210959  0.098571148            2 
   31000    1.2762569   -2.9111484    22.127173  0.059481647  0.098116526            2 
   32000    1.2745839   -2.8679269    23.464682  0.061105942  0.097884829            1 
   33000    1.2552191   -2.8589478    24.758396    0.0625212  0.097842385            2 
   34000    1.2220341   -2.8368127    25.987922  0.063695887  0.097913265            1 
   35000    1.2413468   -2.8773191    27.105649  0.064537257  0.098007292            1 
   36000      1.25584   -2.8746592    28.049189  0.064928677   0.09798773            1 
   37000    1.2740066   -2.8797869     29.65151  0.066782678  0.098037388            1 
   38000    1.2092012   -2.8934993     30.55659  0.067010066  0.098114619            1 
   39000    1.2565649    -2.863282    31.916004  0.068196589  0.098176921            1 
   40000    1.2323214   -2.8454387      33.3341  0.069446042  0.098343361            2 
   41000    1.2405963   -2.8614291    34.715625  0.070560213  0.098586627            1 
   42000    1.2294731   -2.8764383     36.10421  0.071635337  0.098812154            4 
   43000    1.2369939   -2.8668608    37.264101   0.07221725  0.099015141            1 
   44000    1.2529317   -2.8568844    38.605764  0.073116977  0.099265686            1 
   45000      1.25028   -2.8706427    39.439915  0.073036879  0.099472565            1 
   46000    1.2640749   -2.8873366     40.63481  0.073613785  0.099585948            1 
   47000    1.2241135   -2.8883458    41.975133  0.074423994  0.099695273            1 
   48000    1.2913428   -2.8970791    42.705531  0.074141546  0.099707607            2 
   49000    1.2368161   -2.8601763    44.007456  0.074842611  0.099673049            1 
   50000    1.2237863   -2.8928562    45.117482  0.075195802  0.099638128            4 
   51000    1.2698594   -2.8537475    46.560604  0.076079418  0.099642374            1 
   52000    1.2442887   -2.8719258    47.978659  0.076888876  0.099692996            2 
   53000    1.2567029   -2.8709403     49.40033  0.077673474  0.099788383            1 
   54000    1.2292437   -2.8696684    50.430371  0.077824646  0.099873092            1 
   55000      1.23865    -2.853279      51.8264  0.078524848  0.099948763            1 
   56000     1.268395   -2.8821586    53.194922   0.07915911   0.10008873            2 
   57000    1.2281457   -2.8535616    54.921742  0.080294944   0.10028351            2 
   58000    1.2602339   -2.8815318     55.46909  0.079696968    0.1004504            1 
   59000    1.2469296   -2.8597561    56.759081  0.080168193   0.10054216            1 
   60000    1.2379907   -2.9137256    57.992928  0.080545733   0.10063218            2 
   61000    1.2591598   -2.8612079    59.038592  0.080653813   0.10069947            2 
   62000    1.2296027   -2.8724276    60.670276   0.08154607   0.10077292            1 
   63000    1.2539645   -2.9008647    61.344979  0.081144151   0.10085143            6 
   64000    1.2452515   -2.8911643    63.028223  0.082067998   0.10092597            2 
   65000    1.2724507   -2.8675368    64.714693  0.082967554   0.10101609            3 
   66000    1.2530422   -2.8912538    65.365433  0.082532112   0.10110052            1 
   67000    1.2293389   -2.8584883    66.234724  0.082381497   0.10113264            3 
   68000    1.2593321   -2.8769224    67.486148  0.082703612   0.10114605            1 
   69000    1.2274151    -2.847932    68.992957  0.083324827   0.10117103            2 
   70000    1.2306698   -2.8814545    70.195567  0.083566151   0.10119003            2 
   71000    1.2869721   -2.9049269    71.110395  0.083462904   0.10120734            4 
   72000    1.2299835   -2.8747055    72.539845  0.083958153    0.1012239            2 
   73000    1.2397318   -2.8639023    73.410717  0.083802188   0.10122608            2 
   74000    1.2449952   -2.8818641    74.862438  0.084304547   0.10122556            2 
   75000     1.237442   -2.8915527    75.899039  0.084332265   0.10123397            3 
   76000     1.237218   -2.8771151    77.200782   0.08464998   0.10122194            2 
   77000    1.2645808   -2.8935826    78.383744  0.084830891   0.10121335            2 
   78000     1.245545   -2.8682369    79.730644  0.085182311   0.10121125            1 
   79000    1.2540495   -2.8612574    81.033547  0.085478425   0.10121003            1 
   80000    1.2405338   -2.8796612    82.286221  0.085714813   0.10120097            1 
   81000    1.2516018   -2.8647472    83.489995  0.085895056   0.10118944            1 
   82000    1.2320174   -2.8862199    84.318018  0.085689042   0.10120148            2 
   83000    1.2396555   -2.8866194     85.64706  0.085991024   0.10122548            1 
   84000    1.2386955   -2.8785107    87.201324   0.08650925   0.10125011            4 
   85000    1.2330644   -2.8758967    88.682974  0.086944092   0.10127128            3 
   86000    1.2350337   -2.8928628    89.527226  0.086751188   0.10130933            2 
   87000    1.2616768   -2.8995965    91.371439  0.087520535   0.10134577            1 
   88000    1.2265592   -2.8390179     93.00325  0.088071259   0.10140477            2 
   89000    1.2261622   -2.8909863    93.625157  0.087664004   0.10146575            1 
   90000    1.2355326   -2.8750827     94.79903  0.087776879   0.10151462            3 
   91000    1.2445819   -2.8982088    95.648504  0.087590205   0.10153342       -1e+20 
   92000    1.2405488   -2.8317643    97.022388  0.087882598    0.1015406            1 
   93000    1.2341941   -2.8762474    97.876561  0.087703011   0.10154593            1 
   94000    1.2472068   -2.8628434    99.524155  0.088230633   0.10154473            1 
   95000    1.2424658   -2.8795739     100.5181   0.08817377   0.10153247            1 
   96000    1.2472281   -2.8896152    101.62868  0.088219343   0.10150868            3 
   97000    1.2446199    -2.898744    102.97985  0.088470661   0.10150438            2 
   98000    1.2289244   -2.8557274     104.3466  0.088730099   0.10151972            3 
   99000    1.2422503   -2.9198353    105.09103  0.088460462    0.1015158            2 
  100000     1.221457   -2.8841818    105.85351  0.088211254   0.10151118            2 
  101000     1.243992   -2.8821955    107.29281  0.088525417   0.10148846            3 
  102000    1.2446032   -2.8877648    107.63547  0.087937476   0.10145298            4 
  103000    1.2498173   -2.8855294    109.14522  0.088305195   0.10138973            1 
  104000    1.2370436   -2.8561702    110.44095  0.088494352   0.10133299            3 
  105000    1.2155127   -2.9133663    111.76349  0.088701182   0.10127551            1 
  106000    1.2509963   -2.8610796    113.36522  0.089123602   0.10123315            1 
  107000    1.2353379   -2.9075959    114.29003  0.089010925    0.1011979            4 
  108000    1.2378925   -2.8569813    115.72225  0.089291859    0.1011711            2 
  109000    1.2274306   -2.8661384    116.57476  0.089124431   0.10113734            2 
  110000    1.2480072   -2.8738739    118.14343  0.089502597   0.10110819            2 
  111000    1.2348658   -2.9013872    118.95001  0.089301809   0.10107242            1 
  112000    1.2430654   -2.8850414    120.38791  0.089574341   0.10103609            1 
  113000    1.2813583   -2.8682527    121.61447  0.089686184   0.10100552            2 
  114000    1.2253158   -2.9008873    122.40868   0.08948003   0.10098011            2 
  115000    1.2358921   -2.9259879    123.85916  0.089753013   0.10096639            2 
  116000    1.2161395   -2.8643456    125.61549  0.090241009     0.100957            1 
  117000    1.2146138   -2.8867191    126.62037  0.090185449   0.10095178            2 
  118000    1.2209546   -2.8928226     127.2163  0.089842021   0.10092599            2 
  119000    1.2090401   -2.8954535    128.62703  0.090074953   0.10090405            2 
  120000    1.2368761   -2.8705711    131.28457  0.091169838    0.1008841            1 
  121000    1.2087763   -2.8942974    131.53919  0.090591729   0.10088414            2 
  122000    1.2584059   -2.9091497    131.92579  0.090113241   0.10085801            1 
  123000    1.2267458   -2.8730583    132.67881  0.089890791   0.10083075            2 
  124000    1.2228852    -2.877865    134.51417  0.090399306   0.10080068            2 
  125000    1.2356967   -2.9067706    136.61527  0.091076844   0.10077784            1 
  126000    1.2252729   -2.9139577    136.92606  0.090559563   0.10076958            2 
  127000     1.253112   -2.8726577    137.89887  0.090484824   0.10074534            2 
  128000     1.232416   -2.8917512    139.40387  0.090757725   0.10071826            3 
  129000    1.2337413   -2.8847412    141.04162  0.091112157   0.10069792            2 
  130000    1.2410071    -2.884533    142.72961   0.09149334   0.10069232            3 
  131000    1.2343642   -2.9025813    144.26001  0.091768452   0.10070429            2 
  132000    1.2162278   -2.9345407    144.79634  0.091411833   0.10070972            3 
  133000    1.2333558   -2.8648343    146.55331  0.091825379   0.10071845            1 
  134000    1.2451776   -2.8934045    147.26909  0.091585252   0.10071891            2 
  135000     1.241171    -2.896893    147.98665  0.091349786   0.10071037            1 
  136000    1.2384867   -2.8856522    150.36283  0.092134084    0.1007013            3 
  137000    1.2406032   -2.8687095    151.44219  0.092118123   0.10070736            2 
  138000    1.2105411   -2.8851301    151.33722   0.09138721   0.10070819            2 
  139000    1.2474981   -2.8856685    152.33164  0.091325922    0.1007031            1 
  140000    1.2442331     -2.85499    154.80722  0.092147151   0.10069106            1 
  141000    1.2708602   -2.8871396    155.07384  0.091651205   0.10068144            1 
  142000    1.2391052   -2.8986565    156.03167  0.091567883   0.10068022            2 
  143000    1.2249737   -2.8845218    157.85908  0.091992473   0.10067358            1 
  144000    1.2151724   -2.8660281    159.84392  0.092502267   0.10067865       -1e+20 
  145000    1.2386603   -2.9010594    160.22476  0.092083196   0.10068414            1 
  146000    1.2156474   -2.8887638    162.54582  0.092777294   0.10069607            1 
  147000    1.2288976   -2.9071007    163.29174  0.092569012   0.10070242            2 
  148000    1.1983154    -2.912207    163.94078  0.092308999   0.10070669            1 
  149000    1.2223132   -2.8880314     165.0407  0.092304641   0.10071175            2 
  150000    1.2687528   -2.8894063    166.01548  0.092230823   0.10071439            2 
  151000    1.2067366   -2.9093161    167.85171  0.092633395   0.10071752            1 
  152000     1.245249   -2.8997517    169.57895  0.092970916   0.10072303            2 
  153000    1.2251782   -2.9397999    169.66364  0.092409391   0.10072393            1 
  154000    1.2314953   -2.9073524    171.83887  0.092986402   0.10072904            2 
  155000    1.2200692    -2.878842    173.22147  0.093129824   0.10074516            2 
  156000    1.2446645   -2.9036674    175.18172   0.09357998   0.10076305            2 
  157000     1.193964   -2.9081058    174.58477  0.092667075   0.10077249            2 
  158000    1.2160029   -2.9045786    176.56246  0.093123659   0.10077802            1 
  159000    1.2215149   -2.8923129    178.15669  0.093373527   0.10078552            1 
  160000    1.2272567   -2.8964889    178.61567  0.093028997   0.10078431            2 
  161000    1.2098554   -2.9044023    179.90372  0.093117866   0.10077264            1 
  162000    1.2554266   -2.9334418    179.88686  0.092534395   0.10076287            2 
  163000    1.2131632   -2.8726704    181.99757  0.093045794   0.10075922            3 
  164000     1.242754   -2.9259331    182.67164  0.092820957   0.10075028            2 
  165000    1.2337532   -2.8938034    184.03864  0.092948809   0.10074045            3 
  166000    1.2348687   -2.8833135    185.42413  0.093084403   0.10071593            2 
  167000    1.2029033   -2.9039208    185.51073  0.092570226   0.10069401            1 
  168000    1.2332289   -2.8872075    187.29286  0.092903206   0.10066858            3 
  169000    1.2415602   -2.9072605    188.45785  0.092927936   0.10064597            1 
  170000    1.2197982   -2.8989805    189.12851  0.092710056   0.10061373            1 
  171000      1.23853   -2.8712701    190.31884  0.092747973   0.10057875            3 
  172000    1.2352503   -2.8734905    191.93517  0.092991844   0.10055104            2 
  173000    1.1921732   -2.9171003    192.27418  0.092617621   0.10052083            1 
  174000    1.2212468   -2.9206328    193.10968  0.092485476   0.10048715            1 
  175000    1.2294036   -2.8961025    194.55519   0.09264533   0.10044174            4 
  176000     1.243394   -2.9025824    194.38864  0.092040075   0.10039422            2 
  177000    1.2355675   -2.8697252    195.88265   0.09222347   0.10034667            1 
  178000    1.2289309   -2.8917118    197.38562     0.092409   0.10030155            3 
  179000    1.1974515   -2.8775406    198.35417  0.092343656    0.1002545            1 
  180000    1.2176982   -2.8831014    199.58874  0.092402195   0.10020471            1 
  181000    1.2256878   -2.8952807    199.70061  0.091943192   0.10015499            1 
  182000    1.2169166   -2.8935621      201.484  0.092254578   0.10009541            1 
  183000    1.2332568   -2.8718318    202.75689  0.092330093   0.10004024            2 
  184000    1.2087595   -2.9198629    202.46989  0.091698318  0.099981733            2 
  185000    1.2250037   -2.9237684     204.5623   0.09214518  0.099919576            1 
  186000    1.2303757   -2.9171052     204.6775  0.091701387  0.099857833            3 
  187000    1.2364968   -2.9278573    205.72103  0.091676038  0.099795382            2 
  188000    1.2323239   -2.9023217    207.24145  0.091862345  0.099736042            3 
  189000    1.2062164   -2.9024726    209.28488  0.092277284  0.099677205            1 
  190000    1.2146118   -2.8462951    208.94738  0.091643585  0.099622824            3 
  191000    1.2148349   -2.9220312    210.74982  0.091950185  0.099563829            2 
  192000    1.2104761   -2.9186481    212.00649  0.092016707  0.099508453            1 
  193000    1.1999351   -2.8972796    213.66191  0.092254712   0.09945345            1 
  194000    1.1749504   -2.9286227    213.46088   0.09169282  0.099397795            3 
  195000      1.23319   -2.8897339    215.86365  0.092249423  0.099342223            2 
  196000        1.233   -2.8924686    217.09681  0.092303067  0.099289854            1 
  197000    1.2267432   -2.9120475    217.20144  0.091878781  0.099227684            1 
  198000    1.2174773   -2.9109237    217.60054  0.091582718  0.099162287            2 
  199000    1.2126766   -2.9036336    219.84247  0.092061334  0.099100129            2 
  200000    1.2350039   -2.9135466    220.20514  0.091752142  0.099043526            3 
  201000    1.2385908   -2.9364873    220.97083  0.091613112  0.098986666            2 
  202000    1.2285271   -2.8792359    222.29528  0.091705973   0.09892845            1 
  203000    1.2080804   -2.8969677    224.17182  0.092024556  0.098868497            6 
  204000    1.2179673   -2.9372597    223.78894   0.09141705  0.098814932            1 
  205000    1.2018131   -2.9143635    226.38635   0.09202697  0.098764306            2 
  206000    1.2201278   -2.8626201    226.52656  0.091636959  0.098715918            3 
  207000     1.210371   -2.9197198    227.82709  0.091717831  0.098655778            2 
  208000    1.2276385   -2.9133935    227.63993  0.091201893  0.098597756            2 
  209000    1.2237514   -2.9033185    230.06614  0.091732911  0.098538339            6 
  210000    1.2120476    -2.899818    231.87197  0.092012687  0.098485041            1 
  211000    1.2265643   -2.9188107    232.63423  0.091877656  0.098429109            1 
  212000     1.222278   -2.8622075    233.91095  0.091946127  0.098382305            1 
  213000    1.2383839    -2.913672    235.51115  0.092140512   0.09834485            2 
  214000    1.2283896   -2.8861221    237.72415   0.09257171  0.098303713            1 
  215000    1.2185999   -2.9062267    236.88871  0.091817331  0.098266845            3 
  216000    1.1990075   -2.8898539    238.50367  0.092015305   0.09821793            1 
  217000    1.1907334   -2.8999074     239.3103  0.091901039  0.098174937            1 
  218000    1.2208018   -2.9355063     240.8798  0.092079434  0.098136842            1 
  219000    1.2073384   -2.8837169    243.09463  0.092501762  0.098097332            3 
  220000    1.2241787   -2.9142932    243.33203  0.092171222  0.098062911            2 
  221000      1.21074   -2.8960928     244.1126   0.09204849  0.098030823            1 
  222000    1.2119653   -2.8842932    246.59461  0.092565544  0.098002434            1 
  223000    1.2079945   -2.9336892    247.58666  0.092521172  0.097976398            2 
  224000    1.2401422   -2.9002581    248.75453  0.092542608  0.097947904            2 
  225000    1.2257528   -2.9047708    249.30134  0.092333828  0.097921444            2 
  226000    1.1858519    -2.902698    250.48177  0.092360536  0.097891314            1 
  227000    1.2385515   -2.9272809    251.42811  0.092301067  0.097859175            2 
  228000    1.2143769   -2.9284289    252.27632  0.092206256  0.097826228            2 
  229000    1.2047648   -2.9006361       252.22  0.091783114  0.097786123            3 
  230000    1.1978799   -2.9508497    253.62539  0.091893258  0.097746898            1 
  231000    1.2466358   -2.9024429    255.13786  0.092041076  0.097709955            1 
  232000     1.212665   -2.9168078    255.62596   0.09181967  0.097669684            3 
  233000    1.2394399   -2.8883583    257.56383  0.092118679  0.097629713            2 
  234000    1.2288392   -2.9125084    255.88151  0.091125892   0.09758362            2 
  235000    1.2016857   -2.9078654    258.92381  0.091816955   0.09753403            2 
  236000    1.2229881   -2.9337979    258.26827  0.091196423   0.09748617            2 
  237000    1.2120751   -2.9007642    260.61319  0.091636141  0.097436641            2 
  238000    1.1953925   -2.9170739    262.04968   0.09175409  0.097386382            1 
  239000    1.2198398   -2.9336095    262.28322   0.09145161  0.097338155            2 
  240000    1.2274733   -2.9305831     262.5342  0.091157708   0.09729168            2 
  241000    1.2275541   -2.8984517    262.76757  0.090860154  0.097240188            3 
  242000    1.2061774   -2.9374835    264.82089  0.091191765  0.097185339            1 
  243000    1.2108673   -2.8994629     266.2339  0.091301064  0.097132647            2 
  244000    1.2087511    -2.960558    267.68547  0.091422632  0.097082033            1 
  245000    1.2078976   -2.9217695    268.71205  0.091398657  0.097034508            2 
  246000    1.2577049   -2.9233259    268.58515  0.090984128  0.096988043            1 
  247000    1.1857401   -2.9123936    270.42417  0.091236225  0.096938035            1 
  248000    1.2073132   -2.9214599    272.53672    0.0915782  0.096892974            1 
  249000    1.2254898   -2.9202625    273.44524  0.091514471  0.096847186            2 
  250000    1.2055797   -2.9177869     274.5783    0.0915261  0.096803504            2 
  251000    1.2405028   -2.9424922     274.7356  0.091213678  0.096755275            2 
  252000    1.2268352   -2.8876439    276.12418  0.091310906   0.09671147            4 
  253000    1.2133652   -2.9415695     277.6665  0.091458004  0.096674367            2 
  254000    1.2220913   -2.8914769    279.44128  0.091680209  0.096637462            1 
  255000    1.2203448   -2.9091068    279.49678  0.091338817  0.096607294            2 
  256000    1.1978998    -2.906948    281.26384  0.091557241  0.096569364            3 
  257000    1.2135831    -2.891481    284.40519  0.092219581  0.096536974            1 
  258000    1.2058156   -2.8854303    282.47117  0.091237459  0.096502326            1 
  259000    1.2047858   -2.9090945    284.63966  0.091582904  0.096469679            2 
  260000    1.1835601   -2.8968332    286.84093  0.091936194   0.09644026            1 
  261000    1.2238077   -2.9224828    287.78222  0.091884488   0.09641286            1 
  262000    1.2211808   -2.9648773    288.03537  0.091614305  0.096387189            4 
  263000     1.192354   -2.8911947    291.92539  0.092498538  0.096368744            2 
  264000    1.2013383   -2.9244063    290.84996  0.091808701  0.096345721            2 
  265000    1.2242774   -2.8997992     294.1832  0.092510441  0.096325286            1 
  266000    1.1822437   -2.9082669    295.50882  0.092577951  0.096310369            1 
  267000    1.1783953   -2.9072036    296.47609  0.092533113  0.096295473            1 
  268000    1.1784726   -2.9021047    296.70287  0.092258353  0.096280892            1 
  269000    1.2111176   -2.8954817    298.44201  0.092454154  0.096266151            1 
  270000    1.1990829   -2.9274885    299.00446  0.092285328  0.096253321            2 
  271000    1.2280365   -2.8836573    301.09858  0.092588738   0.09624176            3 
  272000     1.208962   -2.9072219    300.25074  0.091988583  0.096230238            2 
  273000    1.1933201   -2.9107521    303.21429  0.092556255  0.096219092            1 
  274000    1.1973555   -2.9282087    303.73426    0.0923766  0.096208574            2 
  275000    1.2114368   -2.9344858    304.15458  0.092168055   0.09619553            2 
  276000    1.1952205   -2.9199012    306.44244  0.092524892  0.096180635            3 
  277000    1.2136054   -2.9165898    306.65807  0.092255737  0.096165703            2 
  278000    1.1893346   -2.9112475    308.61076  0.092509221  0.096148563            2 
  279000    1.2046467   -2.9260478    308.96771  0.092284263   0.09613151            1 
  280000    1.2188547   -2.9608898    309.28397  0.092048801  0.096112513            3 
  281000    1.2012898   -2.9285036     312.9113  0.092796946  0.096097108            1 
  282000    1.2400758   -2.9289186    313.42531  0.092619772  0.096091531            1 
  283000    1.2016836    -2.912797    317.11821  0.093379919  0.096089419            2 
  284000    1.1901917   -2.9185795    317.03583  0.093026944  0.096083973            1 
  285000    1.2256886   -2.9317595    316.67775  0.092595832  0.096076587            1 
  286000    1.1877985   -2.9251464    317.82072  0.092605105  0.096070324            2 
  287000    1.2205052   -2.9116931    318.68282  0.092532757  0.096067412            1 
  288000    1.2235853   -2.9372915    319.46874  0.092438871  0.096064085            1 
  289000    1.1989685   -2.9403093    322.19897  0.092906277  0.096058212            1 
  290000     1.212604   -2.8902855    323.87854  0.093068545  0.096055457            2 
  291000    1.2267126   -2.9326214    324.37599  0.092891176  0.096052489            5 
  292000    1.1825545   -2.9303381    325.95031  0.093022349  0.096048063            4 
  293000    1.2021338   -2.9326258    326.72364  0.092924812   0.09604411            1 
  294000     1.196506   -2.9339553    327.78721  0.092910208   0.09604443            1 
  295000     1.223329   -2.9280213    328.97082   0.09292961  0.096041761            1 
  296000    1.1976728   -2.9335371    329.62338  0.092799374  0.096037269            1 
  297000    1.2112666    -2.943644    330.61897  0.092766264   0.09603481            1 
  298000    1.1772632   -2.9446503    331.21991  0.092623017   0.09602784            1 
  299000    1.2330626   -2.9227154    333.53849  0.092959446  0.096021238            1 
  300000    1.2113868   -2.9412437    333.43646  0.092621238  0.096011744            2 
  301000    1.2369904   -2.9278921    335.08271  0.092769301    0.0960003            1 
  302000    1.2521345   -2.9371783    335.71203   0.09263577  0.095988204       -1e+20 
  303000    1.1902924   -2.9378504    336.56344  0.092564203  0.095968885            1 
  304000    1.2175096   -2.9377297    336.62136  0.092275591  0.095946949            1 
  305000    1.1904895   -2.9292644    336.35621  0.091900603  0.095926264            1 
  306000    1.1990726   -2.9089816    340.01031    0.0925954  0.095904636            3 
  307000    1.2078684   -2.9039872    340.10161  0.092318568  0.095886833            1 
  308000    1.1746767   -2.9098926      341.774   0.09247132  0.095866009            1 
  309000    1.2056404   -2.8976964    342.68817  0.092418599  0.095842955       -1e+20 
  310000    1.2193096   -2.9451347    342.14764  0.091975172  0.095819971            1 
  311000    1.1934638   -2.8942366    343.88544  0.092145079  0.095792798            2 
  312000    1.2080515   -2.9293252    343.19928  0.091666474  0.095764217            1 
  313000    1.1977264   -2.9610449    344.85333  0.091813984  0.095738857            2 
  314000    1.1849975   -2.9148605    345.55416  0.091707579  0.095710928            1 
  315000     1.211662   -2.9581743    345.57699  0.091422483  0.095683865            2 
  316000    1.1947619   -2.9367826    346.71354  0.091432895   0.09565128            2 
  317000    1.1715923   -2.9198576    349.12208  0.091777624  0.095623998            2 
  318000    1.2029303   -2.9386432     349.4784  0.091582389  0.095597818            1 
  319000    1.2073988   -2.9597252      351.788  0.091898641  0.095570878            2 
  320000    1.1886767   -2.9438992    353.89076  0.092159051  0.095547148            2 
  321000    1.1769626    -2.904855    353.66103  0.091812312  0.095518506            1 
  322000    1.2019239   -2.9233145    355.49557  0.092001958  0.095494776            1 
  323000    1.1847467    -2.929306    355.02561  0.091595874  0.095466029            2 
  324000    1.1813301   -2.9165526     356.8802  0.091790176  0.095436807            1 
  325000    1.2213246   -2.9277092    356.18847  0.091330377  0.095406716            2 
  326000    1.2186961   -2.9055457     358.0591  0.091528399  0.095379412            2 
  327000    1.1986462   -2.9313462    360.35864  0.091834515  0.095353836            2 
  328000    1.1972226   -2.9290596    358.17868  0.091000681  0.095324533            1 
  329000    1.1904056   -2.9135137     360.5324  0.091320264  0.095291422            2 
  330000    1.1991738   -2.9560991    360.82887  0.091118403  0.095252659            3 
  331000    1.2012538   -2.9325053    361.17035  0.090929091   0.09521751            1 
  332000    1.2023035   -2.9264179    363.25322  0.091178016   0.09518341            1 
  333000    1.1980876   -2.9355321    361.85263  0.090553712  0.095147111            1 
  334000     1.210394   -2.9398589    365.46025  0.091182698   0.09510958            1 
  335000    1.1739229   -2.8987548    364.62712  0.090703263  0.095073216            2 
  336000    1.1776778   -2.9345544    366.52801  0.090904764  0.095038463            3 
  337000    1.2257183   -2.9034106    370.36076  0.091582779  0.095006552            1 
  338000    1.2051904   -2.9175183    369.52855  0.091106644  0.094974553            1 
  339000    1.1759304    -2.904244     370.3434  0.091038201  0.094941176            1 
  340000      1.17605   -2.9257886    372.15116  0.091213518  0.094910726            1 
  341000    1.1750994   -2.9470756     372.0577  0.090923191  0.094880747            1 
  342000    1.1868151    -2.964588    374.66977  0.091293803  0.094846483            2 
  343000    1.1817568   -2.9362696     376.3773  0.091442492  0.094816817            1 
  344000    1.1934947   -2.9352716    376.39285  0.091180438  0.094787239            2 
  345000    1.2030086     -2.94405    375.20526  0.090629289  0.094758945            2 
  346000    1.1767193   -2.9362228    378.09209  0.091062641  0.094722866            3 
  347000    1.2021852   -2.9518923    378.77277  0.090963682  0.094694726            2 
  348000    1.2266243   -2.9302062    379.70098  0.090924564  0.094665927            1 
  349000    1.1779885   -2.9093148    381.36799  0.091062079  0.094635807            1 
  350000    1.1945065   -2.9345571    383.54624  0.091320533  0.094607553            1 
  351000     1.189669   -2.9223422    383.61938  0.091077725  0.094577755            1 
  352000     1.190031   -2.9521333    383.71568  0.090841779  0.094546074            2 
  353000    1.2007646   -2.9162188    385.32128  0.090963474  0.094514375            1 
  354000    1.2087213   -2.9115053    386.07766  0.090884572  0.094478673            1 
  355000    1.1895633   -2.9170262    384.22805  0.090194377  0.094445697            1 
  356000    1.1574467   -2.9317638    387.50274  0.090707571   0.09440882            2 
  357000     1.199275   -2.8968792    389.10379  0.090827214  0.094375013            1 
  358000    1.2210979   -2.9589351    387.75965  0.090260626  0.094341249            3 
  359000    1.2046654   -2.9577269    389.93986  0.090515288  0.094306112            1 
  360000     1.197227   -2.9452618    390.32588  0.090353214    0.0942676            3 
  361000    1.1898355   -2.9148637    391.52464  0.090379649  0.094228161            1 
  362000    1.2025306   -2.9503169    392.13742  0.090271044  0.094189757            3 
  363000    1.1900676   -2.9593191    391.97041  0.089984025  0.094151334            2 
  364000    1.2014491   -2.9029965    393.85456  0.090168168  0.094111915            2 
  365000    1.1962795   -2.9270766    395.47037  0.090290039  0.094071707            1 
  366000    1.2038467   -2.9209291    393.94371  0.089695745  0.094032122            1 
  367000    1.1824364   -2.9565306    398.09814  0.090394673  0.093993348            2 
  368000    1.1780898    -2.909811    397.23778  0.089954208  0.093953084            1 
  369000    1.1632448   -2.9367057    398.95354  0.090097908  0.093913938            1 
  370000    1.1901234   -2.9274583     400.7145  0.090251013    0.0938755            1 
  371000    1.2053981   -2.9340631    401.45564  0.090174222  0.093838921            1 
  372000    1.1857825   -2.9392934    404.64237  0.090645692  0.093804522            1 
  373000    1.1853333   -2.9283322    405.02592  0.090488364  0.093770529            2 
  374000    1.1734367   -2.9065839    404.62065  0.090156117  0.093736208            3 
  375000    1.2094377    -2.972426    406.91607  0.090425792  0.093700073            2 
  376000      1.20332    -2.924019    407.53348  0.090322135   0.09366439            1 
  377000    1.1809564    -2.956616    408.09467  0.090206603  0.093631737            1 
  378000    1.1966226   -2.9308621    410.10393  0.090410918  0.093596577            1 
  379000    1.2239539   -2.9170595    409.68519  0.090080297   0.09356365            2 
  380000    1.1835865   -2.9321531    410.97688  0.090126509  0.093529605            3 
  381000    1.1941199    -2.923962    410.22026  0.089724465  0.093494456            1 
  382000    1.1954865   -2.9504429    412.60866  0.090010616  0.093459094            3 
  383000      1.19235   -2.9304996    414.40034  0.090165436  0.093424263            2 
  384000    1.1654225   -2.9609049    415.78842  0.090231863  0.093391719            4 
  385000     1.202531   -2.9501886    415.86284  0.090013601  0.093359576            3 
  386000    1.1861022   -2.9556071    415.84031  0.089775542   0.09332488            1 
  387000    1.1940419   -2.9565589    417.42782  0.089885405  0.093291305            1 
  388000    1.1898736   -2.9182037    419.23786  0.090042495  0.093256995            1 
  389000    1.1952874   -2.9196653    421.50866  0.090297485  0.093222789            1 
  390000    1.1782375    -2.928726      421.577  0.090080556  0.093189197            3 
  391000    1.1939112   -2.9346919    422.20469  0.089983949  0.093159218            3 
  392000    1.1785925   -2.9018342    423.83499  0.090100975  0.093128047            2 
  393000    1.1810952   -2.9418394    423.71121  0.089845465  0.093094131            1 
  394000    1.1766646   -2.9420788    425.19247  0.089930725  0.093057733            2 
  395000    1.1928854   -2.9332524    425.22886  0.089710729  0.093022843            2 
  396000    1.2045259   -2.9365423    424.66123  0.089364737  0.092988046            2 
  397000    1.1690753     -2.94192    424.60544  0.089127926  0.092949852            1 
  398000    1.1903063   -2.9365287    425.42654  0.089075909  0.092912188            1 
  399000    1.1747808   -2.9267637     428.1568   0.08942289  0.092874589            1 
  400000    1.1914671   -2.9323043    429.38434   0.08945507  0.092838918            2 
  401000    1.1737229   -2.9398552    429.59063   0.08927486  0.092801245            3 
  402000    1.1900109   -2.9592486    428.27508  0.088780074  0.092763601            1 
  403000    1.1927074    -2.926944     431.0204   0.08912746  0.092725274            2 
  404000    1.1800454   -2.9489196     432.8092  0.089275824  0.092689773            1 
  405000    1.1871275   -2.9466561    432.58165  0.089008569  0.092654449            3 
  406000    1.2087952   -2.9611054    432.79036  0.088832177  0.092616196            1 
  407000    1.1972301   -2.9066863    436.43906  0.089360986  0.092581038            1 
  408000    1.2062757   -2.9115282    439.38075  0.089742801  0.092544233            1 
  409000    1.2022856   -2.9311732    439.17383  0.089481221  0.092505877            1 
  410000    1.2011741   -2.9469731    437.69496  0.088962389  0.092470077            2 
  411000    1.1827583   -2.9469942    440.45976  0.089306521  0.092436065            2 
  412000    1.1876134    -2.954801    439.25162  0.088845392  0.092401107            2 
  413000    1.1871611   -2.9725328    441.70928  0.089126166  0.092365105            2 
  414000     1.143626   -2.9555677    442.46749  0.089063505  0.092327446            2 
  415000    1.1816673   -2.9569564    443.00659  0.088957147  0.092289014            2 
  416000    1.1842811   -2.9520985    444.64393  0.089071299  0.092251528            2 
  417000    1.1756429   -2.9254844    443.52859  0.088634809  0.092210276            1 
  418000    1.1710401   -2.9605111    446.06543  0.088928514  0.092171362            1 
  419000    1.1865377   -2.9419172    448.23702  0.089148175  0.092132798            4 
  420000    1.1718183   -2.9596976    447.29133  0.088748279  0.092093841            3 
  421000     1.209451   -2.9367098    449.17419  0.088910171  0.092056189            1 
  422000    1.2130305   -2.9147898    450.58885   0.08897884  0.092019459            3 
  423000    1.1785725   -2.9263157    450.85098  0.088820129  0.091979958            1 
  424000     1.202684   -2.9337576    452.65636   0.08896548  0.091943991            1 
  425000    1.1730489   -2.9500573    451.56403  0.088541967  0.091906306            2 
  426000    1.1970494   -2.9385762    453.68771  0.088749552  0.091870788            3 
  427000    1.2005739   -2.9583093    453.68732  0.088541631  0.091836436            1 
  428000    1.1897038   -2.9509988    454.72413   0.08853663  0.091800063            3 
  429000    1.1922294   -2.9498693    457.02039  0.088776299  0.091765372            2 
  430000    1.1888033   -2.9087758    458.37331  0.088832037  0.091732008            1 
  431000    1.2246611     -2.94288    461.31347  0.089194405  0.091701468            1 
  432000    1.1836213   -2.9878402    458.83478  0.088509795  0.091670238            2 
  433000    1.1841544   -2.9756452    460.11193   0.08855118  0.091635285            2 
  434000    1.1810609   -2.9336624     462.0845  0.088725903  0.091603088            3 
  435000    1.1900254   -2.9379448     461.4478  0.088399962  0.091570413            1 
  436000    1.1878244     -2.97758     465.2447  0.088922917  0.091539342            1 
  437000    1.1738794   -2.9493797    466.12691  0.088887663  0.091508859            3 
  438000    1.1788381   -2.9545982    467.36637  0.088920543  0.091479214            2 
  439000    1.1817556   -2.9474947    466.69298  0.088590164  0.091450025            3 
  440000    1.1968599   -2.9564323    469.11269    0.0888471  0.091421457            3 
  441000    1.1840825   -2.9197728    471.58889  0.089113547  0.091393046            4 
  442000    1.1849377    -2.939973    473.76492  0.089322195   0.09136627            3 
  443000      1.19787   -2.9279953    472.63203  0.088907456  0.091339028            1 
  444000    1.1670878   -2.9696344    475.13945  0.089177825  0.091312036            1 
  445000    1.1762613   -2.9119354    475.97997  0.089134825  0.091285981            1 
  446000    1.1760594   -2.9454973    475.85481  0.088911587  0.091259337            1 
  447000    1.1843032   -2.9443259    476.19475  0.088776053  0.091232149            2 
  448000    1.1818253   -2.8989922    478.80469  0.089063372   0.09120848            2 
  449000    1.1885828    -2.926543    480.50928  0.089181381  0.091182599            2 
  450000     1.176059   -2.9437562    479.16611  0.088734465   0.09115647            2 
  451000    1.1714453   -2.9592468    481.93072  0.089048543  0.091130962            2 
  452000    1.1657133   -2.9306477    482.74538   0.08900173  0.091106181            1 
  453000     1.169883   -2.9323134    484.99744  0.089219543  0.091082806            2 
  454000    1.1789968   -2.9710537    482.21059  0.088511488  0.091057121            1 
  455000    1.1636364   -2.9164965    487.34533  0.089257386  0.091031976            2 
  456000    1.1597318   -2.9508508    486.44291  0.088896731  0.091007955            1 
  457000     1.205809   -2.9463327    485.71943  0.088570282  0.090979116            3 
  458000    1.1677682   -2.9416851    488.85718  0.088947814  0.090950275            1 
  459000    1.1589456    -2.960467    487.35605   0.08848149   0.09092244            2 
  460000    1.1943472   -2.9273501    489.44329  0.088667262  0.090896021            3 
  461000     1.171799   -2.9513432    488.68414  0.088337697  0.090869729            3 
  462000    1.1572115   -2.9410098    491.69178  0.088688994   0.09084235            1 
  463000    1.1801362   -2.9403605    496.06997  0.089285451  0.090817256            3 
  464000    1.1781365   -2.9615283    492.50767  0.088453246  0.090790942            3 
  465000    1.1908575   -2.9481875    490.17302  0.087844628  0.090761263            4 
  466000    1.1568899   -2.9943718    492.78618  0.088123423  0.090732082            3 
  467000    1.1768911   -2.9708743    495.53628  0.088425461  0.090703139            2 
  468000    1.2133857    -2.942077    496.85433  0.088471213  0.090674172            2 
  469000    1.2190965   -2.9536968    497.93679  0.088474908  0.090646135            1 
  470000    1.1493141   -2.9895793    495.37704  0.087832809  0.090618135            1 
  471000    1.1740358   -2.9407699    497.44332  0.088011911  0.090587651            2 
  472000    1.1572423   -2.9625692    496.78262  0.087708796  0.090557739            1 
  473000    1.1684421   -2.9461939     499.2916  0.087965399  0.090528716            2 
  474000    1.1976005   -2.9620618    501.32067  0.088136545  0.090502185            2 
  475000     1.173284   -2.9710607    502.35929  0.088133209  0.090473794            1 
  476000    1.1854619   -2.9740262    504.29244  0.088286491  0.090447965            7 
  477000    1.1926236   -2.9219064    506.43768  0.088476185  0.090420921            2 
  478000    1.1298227   -2.9586174    503.21206  0.087728742  0.090393495            2 
  479000    1.1841272    -2.953302    504.50034  0.087769718   0.09036523            1 
  480000    1.1646728   -2.9632719    506.70247  0.087969179  0.090336502            3 
  481000    1.2032032   -2.9759157    507.13993   0.08786208  0.090307697            2 
  482000    1.1749323   -3.0175697    508.21985  0.087866503  0.090278956            1 
  483000    1.1896372   -2.9473143    512.72747  0.088462296  0.090255058            1 
  484000     1.193869   -2.9569826    512.07713  0.088167549  0.090230221            1 
  485000    1.1781608   -2.9288337    513.02855  0.088149234  0.090202688            1 
  486000    1.1582152   -2.9352559    513.81932   0.08810345    0.0901785            2 
  487000    1.1933255   -2.9607964    516.93684  0.088455996  0.090153368            1 
  488000     1.161548   -2.9731599    517.17637  0.088315637  0.090128568            2 
  489000    1.1642348   -2.9196493    517.64273  0.088214507  0.090104772            2 
  490000     1.174229   -2.9674734    516.45917  0.087833192  0.090079122            1 
  491000    1.1850135   -2.9531592     519.7045  0.088205109  0.090053765            1 
  492000    1.1819949    -2.957667    518.05773  0.087746905  0.090028954            3 
  493000    1.1595005   -2.9627219    521.21345  0.088102341  0.090003202            6 
  494000    1.1792103   -2.9504933    521.94718  0.088047771  0.089977802            2 
  495000    1.1600194   -2.9665777     519.9375  0.087531565  0.089951341            2 
  496000    1.1662125   -2.9469042     523.8663  0.088015172  0.089926155            1 
  497000    1.1711783   -2.9494877    526.00937  0.088197413  0.089901557            1 
  498000    1.1773193    -2.960605    526.21317  0.088054413  0.089875126            2 
  499000    1.1647497   -2.9577036    526.36346   0.08790305  0.089850616            1 
  500000    1.1413953   -2.9767041    526.33822  0.087723036  0.089825887            2 
  501000    1.1825021   -2.9658239    526.69581   0.08760742  0.089801576            2 
  502000     1.169953   -2.9641924    529.29442  0.087864279  0.089778534            1 
  503000    1.1573552    -2.980433    531.75952  0.088097998  0.089755878            3 
  504000     1.176751   -2.9800735    531.58092  0.087893671  0.089734252            1 
  505000    1.1624358   -2.9926973    534.42995   0.08818976  0.089711987            2 
  506000    1.2016578   -2.9372289    536.38977  0.088338236  0.089692408            2 
  507000    1.1683444   -2.9627978    534.72691  0.087890682  0.089673703            3 
  508000    1.1809466    -2.977739    538.11785  0.088273926  0.089657069            7 
  509000    1.1949847   -2.9805686    536.31102  0.087804686  0.089639582            1 
  510000    1.1831923    -2.955118    539.42912  0.088142013  0.089623108            1 
  511000    1.1571604   -2.9780747    543.36418   0.08861125  0.089605955            3 
  512000      1.17708   -2.9602671    543.99635  0.088541072  0.089588806            1 
  513000    1.1861853   -2.9688811    546.94927  0.088848159  0.089571824            2 
  514000    1.1670298   -2.9655677    541.86551  0.087851088  0.089556721            2 
  515000    1.1480709   -2.9620712    544.07419  0.088037895  0.089541112            1 
  516000    1.1764116   -2.9578469    544.71745  0.087971164  0.089525351            1 
  517000    1.1733183    -2.958855    547.79076  0.088296383  0.089509945            1 
  518000    1.1966953   -2.9867274     547.2407  0.088037436   0.08949288            2 
  519000    1.1590016   -2.9838124    550.20173  0.088343244  0.089477098            1 
  520000    1.1723812   -2.9553734     550.9702  0.088296507  0.089461537            1 
  521000    1.1818345   -2.9474481    554.64134  0.088714226    0.0894473            4 
  522000    1.1686972   -2.9505102    554.86604  0.088580146   0.08943303            1 
  523000    1.1802051   -2.9908344    555.72628  0.088547845   0.08941979            1 
  524000    1.1854339   -2.9569106    554.80788  0.088232806   0.08940611            3 
  525000    1.1587949   -2.9476451    557.70595  0.088524754   0.08939277            2 
  526000    1.1506131    -2.978576    561.37654  0.088937982  0.089381309            2 
  527000    1.1991971   -2.9517966    563.29927  0.089073256  0.089369557            2 
  528000    1.1663442   -2.9622292     563.3567  0.088913621   0.08936028            3 
  529000    1.1787149   -2.9687547    564.70964   0.08895867  0.089352173            3 
  530000    1.1985849   -2.9648973    564.70444  0.088790007  0.089342567            1 
  531000    1.1746189   -2.9786426    564.23995  0.088549898  0.089334282            1 
  532000    1.1676719   -2.9741342      567.495  0.088893327  0.089322483            1 
  533000    1.1976804   -2.9494332    568.19168  0.088835473  0.089310894            1 
  534000    1.1880562   -2.9725463    565.93286  0.088316613  0.089299934            3 
  535000    1.1709805   -2.9337825       570.44  0.088853582  0.089290313            2 
  536000    1.1363993   -2.9478186    571.54394  0.088859443  0.089281128            1 
  537000    1.1742589   -2.9914912    569.51719  0.088379453  0.089270576            2 
  538000    1.1818477   -2.9624195     571.0044  0.088445539  0.089260334            2 
  539000    1.1606554   -2.9570828    573.81958  0.088716695  0.089247883            1 
  540000    1.1709957   -2.9768472    573.18324  0.088454204  0.089236038            2 
  541000    1.1535154   -2.9914887    573.95452  0.088409507  0.089224247            2 
  542000     1.150159   -2.9468591    574.36441   0.08830941  0.089210348            1 
  543000     1.180636   -2.9550975    574.48804  0.088165752  0.089197489            2 
  544000    1.1799454   -3.0090546    576.86377  0.088367611   0.08918519            2 
  545000    1.1289108   -3.0005319    576.40563  0.088135418  0.089171456            8 
  546000    1.1499187   -2.9788419    577.04611  0.088071751  0.089157344            2 
  547000    1.1531844   -2.9652618    578.57152  0.088143132  0.089142711            1 
  548000    1.1696432   -2.9682608    578.94936  0.088039744  0.089128625            2 
  549000    1.1949288   -2.9785385    580.54721   0.08812192  0.089114814            3 
  550000     1.153787   -2.9672552    583.63909  0.088430164  0.089099298            2 
  551000    1.1610337   -2.9739332    581.30551  0.087916743   0.08908388            3 
  552000    1.1237445    -2.980697    578.28724  0.087301818  0.089065444            1 
  553000    1.1640858   -2.9643789    583.79029  0.087973221   0.08904581            4 
  554000    1.1786227   -2.9746343    583.23743  0.087731262   0.08902494            1 
  555000    1.1630996   -2.9685126    583.51603   0.08761502   0.08900536            1 
  556000    1.1684857    -2.988544    584.82952  0.087654304  0.088986883            2 
  557000     1.150189   -2.9790492    585.97111  0.087667731  0.088969583            1 
  558000     1.162016   -2.9759493    585.71457  0.087472307  0.088950719            3 
  559000    1.1510169   -2.9699112    586.01661  0.087360854  0.088930878            1 
  560000     1.170098   -2.9630232    589.23519  0.087683808  0.088911709            2 
  561000    1.1686463   -2.9630921    589.53438  0.087571953  0.088892974            2 
  562000     1.198168   -2.9565261    592.38949  0.087839486  0.088874111            3 
  563000     1.159538   -2.9492928    589.66353  0.087279978  0.088854942            2 
  564000      1.17805   -2.9614519    591.84677  0.087447808  0.088834637            4 
  565000    1.1708608   -2.9325632    592.11723  0.087332925  0.088813636            1 
  566000    1.1617922   -2.9849159    596.17702  0.087776357  0.088794456            4 
  567000    1.1680881   -2.9920708    594.89902  0.087433718  0.088775482            3 
  568000    1.1457602   -2.9772404    593.34495  0.087051783  0.088755597            1 
  569000    1.1667078   -2.9718778    597.40459   0.08749335  0.088735779            2 
  570000    1.1748522   -2.9903168    599.28048  0.087614105  0.088716892            1 
  571000    1.1801584   -2.9706114    598.88837   0.08740344  0.088697979            1 
  572000    1.1760652   -2.9960468    600.43225  0.087475561  0.088681208            1 
  573000    1.1385117   -2.9918295    603.11951  0.087713716  0.088663963            2 
  574000    1.1493124   -2.9340032    605.36402  0.087886763  0.088647679            2 
  575000    1.1612713    -2.981575    607.25318  0.088007706  0.088632041            1 
  576000    1.1405414   -2.9715882    603.01809    0.0872422  0.088616486            4 
  577000    1.1556898   -3.0036608    606.34228  0.087571097  0.088601071            2 
  578000    1.1696858   -2.9631436    609.07301  0.087813295  0.088586559            2 
  579000    1.1504379   -2.9628983    608.31315  0.087552267  0.088571795            1 
  580000     1.157926   -2.9881491    609.58621  0.087584226  0.088555915            1 
  581000    1.1781714    -2.956938    608.41453  0.087265423  0.088539739            1 
  582000    1.1564998   -2.9761408    610.30052  0.087385527  0.088522583            1 
  583000    1.1691999    -2.938535    612.46767  0.087545408  0.088506187            1 
  584000    1.1743354   -2.9666638    614.09351  0.087627499  0.088490771            3 
  585000    1.1441955   -2.9847415    616.23945  0.087783398  0.088474964            1 
  586000    1.1524079   -2.9580797    616.85158  0.087720646  0.088459855            4 
  587000    1.1516803   -2.9625232    616.99915  0.087592157  0.088445523            4 
  588000    1.1531087   -2.9846894    618.47323  0.087652101  0.088431874            1 
  589000    1.1951824   -3.0004367    617.18201  0.087320601  0.088419023            2 
  590000    1.1630943   -2.9658349    620.23008  0.087603118  0.088406668            1 
  591000    1.1443412   -2.9659011    623.86398  0.087967284   0.08839451            1 
  592000    1.1568117   -2.9966439    620.86849  0.087397028  0.088383475            1 
  593000     1.176858   -2.9645164    623.29044  0.087590001   0.08837067            2 
  594000    1.1740171   -2.9927148    625.40035  0.087738545  0.088357985            1 
  595000    1.1864396   -2.9686777    626.46603   0.08774034  0.088345031            1 
  596000     1.162877   -2.9861715    623.72392  0.087209721  0.088332209            1 
  597000    1.1450214   -2.9938252    628.85345  0.087779654  0.088319737            1 
  598000       1.1062   -2.9570675    629.01436  0.087655289  0.088307986            2 
  599000    1.1693581   -2.9531286    630.20851  0.087675085  0.088295185            1 
  600000    1.1540965   -2.9980592    630.31062  0.087543141  0.088282211            3 
  601000    1.1553777   -2.9838633    630.75899  0.087459649     0.088269            3 
  602000     1.160788   -2.9543531    631.58103  0.087428161  0.088256488            1 
  603000    1.1579745   -2.9861081    635.36171  0.087805654  0.088244541            1 
  604000    1.1054922   -2.9910911    636.23152  0.087780287  0.088232434            2 
  605000    1.1695629   -2.9511245    636.02725  0.087607059  0.088220569            2 
  606000    1.1562317    -3.009428     636.6387  0.087546575  0.088209659            2 
  607000    1.1309149   -2.9787735     637.3271  0.087496856  0.088197006            1 
  608000    1.1646615   -2.9630712     639.0769  0.087592777  0.088185296            1 
  609000    1.1383249   -2.9662692    638.03992   0.08730705  0.088172214            1 
  610000    1.1505437   -2.9714345    637.05167  0.087028917   0.08815934            1 
  611000    1.1552789   -2.9725708    643.09592  0.087710846  0.088146242            1 
  612000    1.1615512   -2.9847111    643.56545  0.087631461  0.088133229            2 
  613000    1.1638432   -2.9379499    641.97461  0.087272241  0.088120092            1 
  614000     1.151213   -2.9686251    644.26835  0.087441415  0.088106242            1 
  615000      1.14781   -2.9870618     643.7358  0.087227073  0.088093081            2 
  616000    1.1310483   -2.9802243    644.58428  0.087200254  0.088079639            2 
  617000    1.1434072   -2.9720278    646.17544   0.08727383  0.088064601            1 
  618000    1.1754737   -2.9960865    646.41919  0.087165478  0.088050227            2 
  619000    1.1481154    -2.953792    649.50245  0.087439749  0.088035307            4 
  620000     1.132716   -3.0035911    644.90621  0.086680943  0.088019314            2 
  621000    1.1455661   -3.0024084    648.21824  0.086985807  0.088003268            3 
  622000    1.1440338   -2.9614503    648.29425  0.086856143  0.087985866            2 
  623000    1.1410292   -3.0181408    646.48783  0.086475097  0.087967624            2 
  624000     1.166503   -2.9324628    653.12128  0.087222394  0.087952633            1 
  625000    1.1678993   -2.9841876    651.58291  0.086877721   0.08793744            2 
  626000    1.1631564   -2.9671347    653.74537  0.087026806  0.087921936            2 
  627000    1.1278885   -2.9850849    652.49662  0.086722039  0.087905274            3 
  628000    1.1425248   -3.0098516    651.97874  0.086515225  0.087887309            2 
  629000    1.1739981   -3.0011298    653.59036  0.086591197  0.087869225            2 
  630000    1.1577684   -3.0259179    657.37911  0.086954909  0.087852549            2 
  631000     1.140039   -2.9495098    657.28982  0.086805312  0.087834384            4 
  632000    1.1657861   -3.0315043    658.56234  0.086835752  0.087817484            7 
  633000    1.1231363   -3.0343485    657.07891  0.086503279  0.087800089            2 
  634000    1.1346903    -2.969436    661.91379  0.087002338  0.087783939            2 
  635000    1.1733415   -2.9794083    664.19314  0.087164454  0.087768805            1 
  636000    1.1405254   -2.9971361    663.21273  0.086898942  0.087753996            2 
  637000    1.1518894   -3.0025816    661.62335  0.086554599  0.087739592            1 
  638000    1.1477005   -2.9592199    663.34132  0.086643328  0.087725175            2 
  639000    1.1522581   -2.9790622    666.09654   0.08686705  0.087709826            2 
  640000    1.1348514    -3.002918    667.73781  0.086945028  0.087696067            2 
  641000    1.1316353   -2.9861739    670.33478  0.087147007  0.087681804            1 
  642000    1.1617181   -3.0035493    671.66558  0.087184006   0.08766832            5 
  643000    1.1463761    -3.003746    670.19336  0.086857615  0.087655705            2 
  644000     1.143044   -2.9861181    671.21943  0.086855516  0.087641814            2 
  645000    1.1379422   -2.9829868    674.17126   0.08710223  0.087629188            3 
  646000    1.1068649   -3.0090607      676.109  0.087217363  0.087615422            2 
  647000    1.1539902   -2.9720694    675.92304  0.087058609  0.087601772            1 
  648000    1.1331119   -3.0025452    671.74933  0.086387517  0.087588236            2 
  649000     1.148355   -2.9837691    679.92397  0.087304053  0.087575057            3 
  650000    1.1414056   -2.9976376    675.65707  0.086622701  0.087561779            3 
  651000    1.1277614   -3.0022779      679.748  0.087013313  0.087548309            4 
  652000    1.1550318   -2.9957934    680.17594  0.086934553  0.087535848            2 
  653000    1.1531666   -2.9729368    681.40025  0.086957663  0.087523582            2 
  654000    1.1330706   -2.9872996    682.01609  0.086903171  0.087511274            1 
  655000    1.1507775   -2.9947389    683.66935  0.086980833  0.087498106            2 
  656000    1.1573039   -2.9803485    683.02934  0.086766938  0.087484496            3 
  657000    1.1584735   -2.9898086    684.42155   0.08681146  0.087471554            1 
  658000    1.1278949   -2.9967023    684.36012  0.086671748  0.087459012            2 
  659000    1.1484348   -2.9791269    688.36334  0.087046451  0.087448159            1 
  660000    1.1332446   -3.0132879    688.61693  0.086946582  0.087435416            1 
  661000    1.1591064   -2.9845747    689.15753  0.086883199  0.087422267            1 
  662000    1.1693175   -2.9901116    689.85661  0.086839956  0.087409195            2 
  663000    1.1318287    -2.997134    690.53261  0.086793943  0.087397838            1 
  664000    1.1660985   -3.0080645    691.41543  0.086774025   0.08738508            5 
  665000    1.1384582   -3.0026736    693.84485  0.086947976  0.087372882            2 
  666000    1.1547544   -2.9999606     694.2465   0.08686768  0.087362813            2 
  667000    1.1712812   -2.9797887    697.28579  0.087117165  0.087351168            1 
  668000    1.1701891   -2.9878281    695.83858   0.08680621  0.087338999            4 
  669000     1.140469   -2.9882485    696.37164  0.086742855     0.087328            2 
  670000    1.1466874   -2.9939449    698.61143  0.086891968  0.087316405            2 
  671000    1.1025888    -2.984041    698.90088  0.086798421  0.087304057            1 
  672000    1.1483562    -3.025053    698.99758  0.086681248  0.087293809            5 
  673000    1.1489943   -3.0355775    700.28144  0.086711422  0.087282986            4 
  674000     1.142917    -2.984231    705.20002  0.087190902  0.087271252            1 
  675000    1.1297564    -2.983929    705.06233  0.087044732  0.087260882            3 
  676000    1.1452244   -2.9662879    704.82195  0.086886334  0.087250998            1 
  677000    1.1672518   -2.9903266    707.54522  0.087093207  0.087241768            5 
  678000    1.1574411   -2.9797826    706.85991   0.08688052  0.087232764            2 
  679000    1.1235305    -3.002545    709.33086  0.087055824  0.087223575            2 
  680000    1.1516747   -2.9820973    711.35836  0.087176269   0.08721299            2 
  681000    1.1459119   -2.9880387    708.38168  0.086684004  0.087202987            1 
  682000    1.1548549    -2.988446    711.04768  0.086882659  0.087191382            2 
  683000    1.1310231   -2.9849009    711.22438   0.08677701  0.087180667            2 
  684000    1.1292351   -2.9968155    713.49861  0.086927219   0.08716928            2 
  685000    1.1542895   -3.0279684    712.06821  0.086626303  0.087157437            2 
  686000    1.1379508   -3.0131189    711.98893  0.086490395  0.087144733            2 
  687000    1.1649946   -2.9814649    716.13198  0.086867052  0.087132097            1 
  688000    1.1404396   -2.9983368    716.56712  0.086793498  0.087122003            2 
  689000    1.1369296   -2.9927812    717.37732   0.08676552  0.087110597            2 
  690000    1.1542492    -2.968873    719.19476  0.086859271  0.087098573            3 
  691000    1.1442747   -2.9805907    717.14887  0.086486839  0.087085896            3 
  692000    1.1360325   -3.0162289    720.47669  0.086762607  0.087073231            2 
  693000    1.1548469   -2.9625532    720.96121  0.086695672  0.087061124            2 
  694000     1.158112   -3.0082194    716.98251  0.086093001  0.087048792            2 
  695000    1.1269385    -2.989529    722.85059  0.086672733  0.087035235            2 
  696000    1.1260957   -3.0052476    720.59202   0.08627778   0.08702204            1 
  697000     1.149822   -3.0156388    722.14557  0.086339738  0.087008619            2 
  698000    1.1241491   -2.9883549    722.69476   0.08628161  0.086996262            1 
  699000    1.1240643     -3.02957    724.80875  0.086410199  0.086983354            2 
  700000    1.1376933   -3.0122555    722.21244  0.085977672  0.086969994            4 
  701000    1.1376364    -3.019514    728.19226  0.086565889  0.086958311            3 
  702000    1.1677684   -2.9966706    725.75789  0.086153595  0.086947658            5 
  703000    1.1527953   -3.0026525     730.3318  0.086573234  0.086934746            1 
  704000    1.1473369   -2.9608231    728.30761  0.086210654  0.086922221            2 
  705000    1.1321348   -2.9797611    728.67216  0.086131461  0.086909753            2 
  706000    1.1403188   -2.9842364    733.92076  0.086628985  0.086896132            1 
  707000    1.1554767   -2.9670961    729.88381  0.086030623  0.086882994            1 
  708000    1.1231675   -2.9694795     731.1752  0.086061111  0.086870377            1 
  709000    1.1577981   -2.9807576    734.29364  0.086306257  0.086857955            2 
  710000    1.1476993   -2.9872619    735.12393  0.086282151   0.08684537            3 
  711000    1.1438473   -2.9872341     734.8236  0.086125598  0.086832879            2 
  712000    1.1513667   -3.0285263    734.91776  0.086015655  0.086819849            3 
  713000    1.1294051   -2.9807761    739.30806  0.086408142  0.086807823            3 
  714000    1.1289838   -3.0379886     738.7566   0.08622276  0.086796379            1 
  715000    1.1275178    -2.993293    740.95596  0.086358504  0.086785159            2 
  716000    1.1338046   -3.0428496    740.66998  0.086204607  0.086773335            1 
  717000    1.1140761   -3.0295192    742.38033  0.086283162   0.08676191            2 
  718000    1.1326422   -3.0105175    739.59457  0.085839666  0.086750383            2 
  719000    1.1284422   -2.9835087    748.87075  0.086795405  0.086739388            3 
  720000    1.1281072   -2.9925785    749.07703  0.086698731  0.086729585            2 
  721000    1.1135148   -2.9993842    748.10738   0.08646641  0.086719834            2 
  722000    1.1746942    -2.990768    748.36579  0.086376477  0.086710249            4 
  723000    1.1371352   -2.9980576    749.70185  0.086411002  0.086700665            1 
  724000    1.1171458   -2.9922126      752.808  0.086649171  0.086690023            2 
  725000    1.1353363   -2.9903136    753.65559  0.086627079  0.086680208            2 
  726000    1.1178194   -3.0033938    753.19844  0.086455285  0.086670913            2 
  727000    1.1268838   -3.0298611    754.82889  0.086523256  0.086660514            3 
  728000    1.1274975   -3.0064455    755.29609  0.086457886  0.086650701            1 
  729000    1.1233322   -2.9880393    756.69466  0.086499161   0.08664154            2 
  730000    1.1598912   -2.9943824    757.25412  0.086444534  0.086633089            2 
  731000    1.1328732   -3.0154198      760.888  0.086740538  0.086624001            1 
  732000    1.1384199   -3.0033928    758.97027  0.086403719  0.086615869            2 
  733000     1.136689   -2.9994676    761.53813  0.086577777  0.086608766            2 
  734000     1.113865   -3.0038594    763.51719  0.086684513  0.086601793            2 
  735000    1.1492009   -3.0256703    763.32877  0.086545212  0.086595191            1 
  736000    1.1357926   -2.9992377    764.25657  0.086532673  0.086587316            2 
  737000    1.1345104   -2.9746697    768.69751  0.086917403  0.086581344            2 
  738000    1.1492185   -2.9892732    768.69201  0.086799008  0.086573793            2 
  739000    1.1494311   -2.9700674    771.18209  0.086962347  0.086566316            3 
  740000    1.1454757   -2.9767394    774.56156  0.087225401  0.086560367            1 
  741000    1.1233311   -3.0344619    770.54709  0.086656218  0.086553689            2 
  742000    1.1358298   -3.0170009    770.14214  0.086493952  0.086546792            3 
  743000    1.1417254   -3.0154352     773.2807  0.086729554  0.086540011            2 
  744000    1.1231852   -3.0362831     771.8725  0.086455253  0.086533484            1 
  745000    1.1444578   -3.0026175    775.32428  0.086725311  0.086527173            2 
  746000    1.1078766   -3.0007374    775.04567  0.086577935  0.086520546            1 
  747000    1.1518399    -2.988428    778.33832  0.086829353  0.086513233            2 
  748000    1.1330914   -2.9998597    779.24095  0.086813831  0.086506346            4 
  749000    1.1094373   -2.9832231    779.09213  0.086681367  0.086498767            2 
  750000    1.1290994   -3.0099406      779.479  0.086608777  0.086492754            4 
  751000    1.1324856   -2.9868786    781.19291  0.086683634   0.08648722            1 
  752000    1.1250938   -3.0217105    779.44696  0.086374885  0.086479858            4 
  753000    1.1245245   -3.0025502    783.97077   0.08676082  0.086473786            2 
  754000    1.1205404   -2.9699988    786.49618  0.086924865  0.086466334            4 
  755000     1.131713   -3.0023573    783.56295  0.086485977  0.086458748            1 
  756000    1.1276934   -3.0082149      784.419  0.086465939  0.086451643            2 
  757000    1.1545347   -3.0109576    784.45611  0.086355802  0.086443548            2 
  758000    1.1068195    -2.993207    786.04388  0.086416434  0.086434582            1 
  759000    1.1287112   -3.0430901    787.23918  0.086433814  0.086426504            1 
  760000    1.1030941   -3.0110378      783.318  0.085890131  0.086417329            3 
  761000    1.1263609   -3.0045664    789.40204    0.0864435   0.08640738            1 
  762000    1.1394961   -3.0046196    786.25767  0.085986185  0.086398257            2 
  763000    1.1274771   -2.9863362     789.4018  0.086216885  0.086389808            3 
  764000    1.1038403   -3.0023812      792.595  0.086452334  0.086379673            2 
  765000    1.1143918   -2.9873709    788.50544  0.085893839    0.0863699            2 
  766000    1.1118251   -3.0218541    789.47001  0.085886642   0.08636043            1 
  767000    1.1241533   -3.0197642    788.48796  0.085667966   0.08635087            3 
  768000    1.1329755   -3.0003057    790.57311  0.085782673  0.086339795            1 
  769000    1.1052401   -2.9905145    794.36058  0.086081553  0.086328213            2 
  770000    1.1329845   -3.0002759    796.65358   0.08621792  0.086316541            2 
  771000    1.1278764   -3.0130328    792.78974  0.085688472  0.086305279            2 
  772000    1.1370598    -3.019061    796.04359  0.085928712  0.086294439            3 
  773000    1.1249089   -2.9984976    792.74501  0.085461946  0.086282718            1 
  774000    1.1225896   -2.9996179    797.35324  0.085847679  0.086271559            5 
  775000    1.1506088   -3.0159118     799.0248  0.085916645  0.086259808            2 
  776000      1.12617   -3.0099643    797.10931  0.085600227  0.086247977            2 
  777000    1.1536639   -2.9976525    799.80173  0.085778821  0.086235967            3 
  778000    1.1333643   -3.0172456    801.19021  0.085817289  0.086223854            4 
  779000    1.1059138   -2.9949965    800.42853  0.085625645   0.08621159            2 
  780000    1.1204867   -3.0324102    802.50142  0.085737331  0.086199403            2 
  781000    1.1213587   -3.0268205    800.16351  0.085378096  0.086186433            2 
  782000    1.1459151   -3.0517537    802.33949  0.085500798  0.086173926            1 
  783000    1.1402323   -3.0223479    800.08591  0.085151757    0.0861606            2 
  784000    1.1430894   -2.9944886    804.42276   0.08550412  0.086146766            3 
  785000    1.1176937    -3.014679      805.976  0.085560085  0.086133229            2 
  786000    1.1150947   -3.0117134     806.5078  0.085507613  0.086120122            3 
  787000    1.1348512    -3.021745    805.97952  0.085343024  0.086106831            2 
  788000     1.153444   -3.0133154    809.03352  0.085557691  0.086093382            1 
  789000    1.1264778   -3.0276987    805.81654  0.085109478  0.086080258            2 
  790000    1.1411265   -3.0073281    807.91766  0.085223382  0.086066277            1 
  791000    1.1303804   -3.0143179     808.5589  0.085183197   0.08605271            1 
  792000    1.1234611   -3.0222296    814.76115  0.085728236  0.086039437            2 
  793000    1.1150569   -3.0245091    808.84596  0.084998525  0.086026265            2 
  794000    1.1198972   -3.0201453    814.29911  0.085463802  0.086011231            2 
  795000    1.1159155   -3.0149531     814.2978  0.085356164  0.085997181            3 
  796000    1.1580287   -3.0243279    812.09813  0.085018649   0.08598238            1 
  797000    1.1398443   -3.0078888    814.56133  0.085169524  0.085968029            2 
  798000    1.1440102   -2.9919762    813.38397  0.084939847  0.085952985            3 
  799000    1.1210777   -2.9974774    816.83861  0.085193847  0.085939639            1 
  800000    1.0976774   -3.0222901    823.02007  0.085731257  0.085925994            2 
  801000    1.1069508   -3.0127177    820.35742  0.085347214  0.085911397            4 
  802000    1.1137735   -3.0283644    817.51638  0.084945592  0.085896962            3 
  803000    1.1052387   -3.0013469    820.53922   0.08515351  0.085881952            2 
  804000    1.1303415   -3.0211257    818.31931  0.084817507  0.085866597            2 
  805000    1.1333575   -3.0402715    821.94278  0.085087245  0.085852127            1 
  806000    1.1434082   -3.0118706    819.44595  0.084723527  0.085837079            2 
  807000    1.1187202    -3.036949    823.10046  0.084995917  0.085822416            2 
  808000    1.1483431   -3.0165479    822.52614  0.084831491  0.085808075            1 
  809000    1.1125582   -3.0262765    822.84936  0.084759925  0.085792984            2 
  810000    1.1359172   -3.0297754    826.00341  0.084979774  0.085778912            2 
  811000    1.0981418   -3.0575303    825.17806  0.084790182  0.085764601            1 
  812000    1.1089949   -2.9942773    831.42105  0.085326462  0.085750058            2 
  813000    1.1225998   -3.0150805    826.49772  0.084716864  0.085736119            1 
  814000    1.1044592   -2.9825513    833.85626   0.08536612  0.085723737            2 
  815000    1.1206837   -3.0241302    835.96446  0.085476939  0.085711029            4 
  816000    1.1149355   -3.0391729    832.87344   0.08505652  0.085698061            1 
  817000    1.1245535   -3.0483104    832.80037  0.084944959  0.085684144            1 
  818000    1.1227803   -3.0252701    831.22806  0.084680935  0.085670656            3 
  819000    1.1200209   -3.0470842    831.64392  0.084619853  0.085657696            4 
  820000    1.1142087   -3.0483449    835.66003    0.0849248  0.085645984            2 
  821000    1.0993591   -3.0197218     839.6866  0.085230065  0.085634314            2 
  822000    1.1080341    -3.029407    838.96733   0.08505346  0.085622649            2 
  823000    1.1247031   -3.0127987    839.24392   0.08497812  0.085610433            2 
  824000    1.1248344    -3.042024    840.90815  0.085043299  0.085598807            4 
  825000    1.1208901   -3.0114041    846.56663  0.085511781  0.085586828            1 
  826000    1.1306668   -3.0182016    844.75156  0.085225138  0.085575364            3 
  827000    1.1163111   -3.0482796    842.38668  0.084883785  0.085563519            2 
  828000    1.1239334   -3.0272301    842.71342  0.084814153  0.085552937            1 
  829000     1.120731   -3.0594922    846.64803  0.085107361  0.085541602            3 
  830000    1.1107225   -3.0319488    846.26391  0.084966256   0.08553009            5 
  831000    1.1192918    -3.018557    846.07143  0.084844708  0.085519002            1 
  832000    1.1168776    -3.001403    848.30519  0.084966465  0.085507201            2 
  833000    1.1600813   -3.0150862    851.07792  0.085141848  0.085495554            2 
  834000    1.1311815   -3.0397488    851.14577   0.08504654  0.085483721            1 
  835000    1.1233643   -3.0204881    851.52975  0.084983008  0.085473095            2 
  836000    1.1121387   -3.0105823    855.56221  0.085283314  0.085461336            3 
  837000    1.1206356   -3.0197592    853.76112  0.085002103  0.085449745            3 
  838000    1.1155597   -2.9966229    857.76576  0.085298902  0.085438579            2 
  839000    1.1181438   -3.0091164    860.01608  0.085420746   0.08542909            2 
  840000    1.1114006   -3.0415988    854.99666  0.084821098  0.085418575            2 
  841000    1.1316246   -3.0310491    860.49891  0.085265449  0.085407488            2 
  842000    1.1019847   -3.0286762    864.05413  0.085516046  0.085397013            6 
  843000    1.1158944   -3.0060873    860.08175   0.08502192  0.085386677            1 
  844000    1.1137523   -3.0421203    860.78992  0.084991106    0.0853761            1 
  845000    1.0817476   -3.0404246    863.51884  0.085159649  0.085365226            4 
  846000    1.1313276   -2.9929761    865.08912  0.085213664  0.085355206            2 
  847000    1.1109898   -3.0428682    861.92071  0.084801329  0.085343786            2 
  848000    1.1265278   -3.0283406    870.71411  0.085565459  0.085332457            5 
  849000    1.1075994   -3.0290476    857.19507  0.084137718   0.08532152            2 
  850000    1.1487502   -3.0344778    866.07748  0.084909557  0.085310124            2 
  851000    1.1028077   -3.0102783    868.96429  0.085092468  0.085299036            1 
  852000    1.0981316   -2.9934583    870.64349  0.085156836  0.085287629            2 
  853000    1.1397157   -3.0263826    871.73275  0.085163418   0.08527672            4 
  854000    1.1134376   -3.0062112    874.00533  0.085285454  0.085265659            1 
  855000    1.1148821   -3.0015783    873.30599  0.085117543  0.085254797            4 
  856000    1.1020795   -3.0143559    874.19707  0.085104855  0.085245112            1 
  857000    1.1082731   -3.0051733    877.93231  0.085368758  0.085235019            5 
  858000    1.0903558   -3.0464501    875.81209  0.085063334  0.085225436            4 
  859000    1.1131292   -3.0308123    874.36987  0.084824395  0.085214884            4 
  860000    1.1105053   -3.0473646     877.6518  0.085043779  0.085205506            2 
  861000    1.1354988   -3.0408166    880.65398  0.085235577  0.085195859            1 
  862000    1.0942596   -3.0494159    876.37864   0.08472338  0.085185594            3 
  863000    1.1301158   -3.0538771    877.31636  0.084715755   0.08517579            2 
  864000    1.1098513   -3.0562309    881.38389  0.085010021  0.085165117            1 
  865000    1.1217124   -3.0425114    878.81233  0.084664001  0.085154475            4 
  866000    1.1170699   -3.0440714    879.38083  0.084620942  0.085144382            2 
  867000    1.0958699    -3.063632    882.40668  0.084814175  0.085134869            2 
  868000    1.1064251   -3.0270598    885.21597  0.084986172  0.085124723            1 
  869000    1.1121694   -3.0233458    885.64426  0.084929445  0.085115699            2 
  870000    1.1121591   -3.0214724     888.3824    0.0850941  0.085106491            2 
  871000    1.1385169   -3.0210279    891.12961  0.085259243  0.085096383            2 
  872000     1.106744    -3.013445    893.39054  0.085377537   0.08508737            2 
  873000    1.1305292   -3.0490911    890.56008  0.085009553  0.085078188            2 
  874000    1.0996339   -3.0286268    890.34728  0.084891999  0.085068613            6 
  875000    1.0765584   -3.0514948    891.09895  0.084866567  0.085058883            2 
  876000    1.0983236   -3.0355142    896.17644  0.085252706   0.08504966            1 
  877000    1.1108931   -3.0483508    892.67418  0.084822708   0.08503919            2 
  878000    1.1180203   -3.0568818    894.06325   0.08485794  0.085029532            2 
  879000    1.1274305   -3.0262107    896.09951  0.084954447  0.085019203            1 
  880000    1.1269203    -3.048875    893.06002  0.084570078  0.085010233            2 
  881000    1.1025093   -3.0199532    899.11196  0.085046535  0.084999891            2 
  882000    1.1090291   -3.0093306    900.33601  0.085065761  0.084989213            2 
  883000    1.1201888   -3.0205019    901.39416  0.085069286  0.084979984            1 
  884000    1.1126817   -3.0020074    901.28453   0.08496272  0.084970474            1 
  885000    1.1040873   -2.9939174    903.28811  0.085055378  0.084960819            1 
  886000    1.0944025   -3.0530721     898.0312  0.084464936  0.084950234            3 
  887000    1.1255342   -3.0247434    903.99859  0.084930345  0.084939397            2 
  888000    1.1152092   -3.0149971    904.99348  0.084928067  0.084928663            1 
  889000    1.1063452   -3.0552674    903.03175  0.084648646   0.08491835            3 
  890000      1.08735   -3.0485264    903.45024  0.084592719  0.084906271            3 
  891000    1.0940503   -3.0247376    902.73141  0.084430548  0.084894348            5 
  892000    1.0963471   -3.0326645    904.64035  0.084514233  0.084882765            2 
  893000     1.104355   -3.0316302    906.00059  0.084546528  0.084870719            2 
  894000     1.104585   -3.0317395    908.66113  0.084699956  0.084858863            1 
  895000    1.1337597    -3.004703    905.56661  0.084317189  0.084846062            3 
  896000    1.1336259   -3.0457466    907.49168  0.084402128  0.084834113            2 
  897000    1.0984092    -3.043409    906.89636  0.084252728  0.084821937            1 
  898000    1.1090029    -3.038269    908.75507  0.084331391  0.084809738            1 
  899000     1.132642   -3.0314862    913.51411  0.084678727  0.084797404            2 
  900000    1.1029705   -3.0326423    909.77536  0.084238459  0.084786101            3 
  901000    1.1403532   -3.0642286    911.40984  0.084296138  0.084774489            2 
  902000    1.1216776   -3.0298409    909.33189  0.084010707  0.084762106            1 
  903000    1.1321791   -3.0451307    912.85958  0.084243224  0.084750246            2 
  904000    1.0880256   -3.0447859    919.80713   0.08479048  0.084738615            1 
  905000    1.0941768   -3.0393441    919.92302   0.08470746  0.084727866            4 
  906000    1.1116861   -3.0317825    916.64298  0.084312268   0.08471654            1 
  907000    1.1109098   -3.0621443    921.22716  0.084640496  0.084705436            1 
  908000    1.1026982   -3.0095959    918.49812  0.084296817  0.084693672            2 
  909000    1.1021156   -3.0387331    919.46005  0.084292267  0.084682204            1 
  910000     1.119003   -3.0540101    920.43366  0.084288797  0.084671703            2 
  911000    1.1105504   -3.0339644    926.30888  0.084733706  0.084660861            1 
  912000    1.0770776   -3.0098816    926.11864  0.084623414  0.084650282            2 
  913000    1.1231526   -3.0503563    921.58389  0.084116821  0.084639033            2 
  914000    1.1005713    -3.043355    920.90613  0.083962995  0.084626727            1 
  915000    1.1046803   -3.0505393     921.0494   0.08388428  0.084614951            3 
  916000    1.0918096   -3.0702763     928.7415  0.084492495  0.084603029            1 
  917000     1.126505   -3.0310854    928.27587   0.08435804  0.084591369            2 
  918000    1.0996968   -3.0471341    926.01308  0.084060737  0.084579251            2 
  919000     1.113448   -3.0264439    928.28198  0.084175007  0.084568253            1 
  920000    1.0623391   -3.0229206    932.28384     0.084446  0.084556601            1 
  921000    1.0986963   -3.0195987     932.7483  0.084396336   0.08454521            3 
  922000     1.096979   -3.0294883    935.29814  0.084535262  0.084533534            2 
  923000    1.1407825   -3.0349043    936.84079  0.084582953  0.084523458            2 
  924000    1.0918104   -3.0414761    937.25233  0.084528529  0.084512797            2 
  925000    1.1028734   -3.0448821    934.48367  0.084187718  0.084502026            1 
  926000    1.0889646   -3.0265297    939.40958  0.084540099  0.084490365            2 
  927000    1.1136725   -3.0518279    937.24617   0.08425442  0.084480072            5 
  928000    1.1088077   -3.0325736    940.87342  0.084489351  0.084470007            3 
  929000    1.1135078   -3.0151304    939.42721  0.084268677  0.084460177            3 
  930000    1.0617179   -3.0331444    942.89553  0.084488847  0.084449906            1 
  931000    1.1123601    -3.038639    938.15879  0.083974113  0.084439572            3 
  932000    1.1253752   -3.0829667    941.21373  0.084157165  0.084429675            4 
  933000    1.0874651    -3.028708    943.22737  0.084246818  0.084419437            4 
  934000    1.0950686   -3.0622456    945.21283  0.084333765   0.08441002            3 
  935000    1.1122566   -3.0408317    945.13228  0.084236389  0.084400276            2 
  936000    1.1069069   -3.0489137    942.65673  0.083925991  0.084389138            6 
  937000    1.1063578   -3.0275505    949.98096  0.084487812  0.084378396            1 
  938000    1.0969094   -3.0326122    948.69671  0.084283645  0.084368311            3 
  939000    1.1060641   -3.0480079    948.86616  0.084208924  0.084358078            3 
  940000    1.0990508   -3.0518056     948.7375  0.084107934  0.084347441            1 
  941000    1.1008265   -3.0516012    953.31084   0.08442356  0.084337182            1 
  942000    1.1214064   -3.0778021    949.71563  0.084015891   0.08432679            2 
  943000    1.0837328   -3.0586708    953.33348  0.084246507  0.084317004            1 
  944000    1.0958982    -3.028633    951.99427  0.084039042  0.084306743            3 
  945000    1.1069275   -3.0676643     953.5638  0.084088518   0.08429624            2 
  946000    1.0742578   -3.0271008     954.3957  0.084072912  0.084285911            2 
  947000    1.1051956   -3.0357708    954.29613  0.083975373  0.084275587            3 
  948000    1.0957221    -3.046804    961.96663  0.084561061  0.084265364            2 
  949000    1.1048969   -3.0334196    961.84814  0.084461551  0.084255679            4 
  950000    1.1123854   -3.0278593    959.42744  0.084160302  0.084246124            1 
  951000    1.0952948   -3.0688936    957.08385  0.083866443  0.084235559            3 
  952000     1.091058   -3.0305878    961.59906  0.084173587  0.084225815            4 
  953000    1.0984782   -3.0523586    959.60193  0.083910627  0.084214982            2 
  954000    1.1068637   -3.0392406    961.47498  0.083986284  0.084205465            5 
  955000    1.1068822   -3.0525063    963.82859  0.084103716   0.08419518            2 
  956000    1.0846876   -3.0278839    961.76722  0.083836055  0.084184811            3 
  957000    1.0986104   -3.0497404     965.1676  0.084044549  0.084174499            2 
  958000    1.0888864   -3.0540468    970.33875  0.084406641  0.084164339            2 
  959000    1.1060092   -3.0543949    962.30335  0.083620382  0.084153602            2 
  960000    1.1043009   -3.0343305    967.75032  0.084006104  0.084142492            2 
  961000    1.0752299   -3.0631133    967.06161  0.083858967  0.084131972            1 
  962000    1.1239567   -3.0635537    965.13409  0.083604824  0.084121553            2 
  963000     1.104555   -3.0321319    975.41139  0.084407354   0.08411096            2 
  964000    1.1166128    -3.057663    967.72818  0.083655617  0.084100199            2 
  965000    1.0931826    -3.014905    976.49235  0.084325764  0.084089284            1 
  966000    1.0985118   -3.0313391    974.09182  0.084031385  0.084079035            2 
  967000     1.127104    -3.065766    969.20316  0.083523196  0.084067662            2 
  968000    1.0997305   -3.0535409    973.94928  0.083845496  0.084055964            1 
  969000    1.1149868   -3.0328947    975.28093  0.083873489  0.084044647            2 
  970000    1.0724291   -3.0570457    975.91414  0.083841421  0.084033838            3 
  971000    1.0795429   -3.0754539    977.98426  0.083932738  0.084023948            3 
  972000    1.0909018   -3.0402655    977.66197  0.083818756  0.084014111            5 
  973000    1.0785502    -3.070869    979.63875  0.083901915  0.084004473            2 
  974000    1.1005337   -3.0474538    984.62523  0.084242405  0.083995104            2 
  975000    1.0977315    -3.081405    980.49075  0.083802628  0.083985996            1 
  976000    1.0855731   -3.0652021    987.79292  0.084340242   0.08397695            3 
  977000     1.105485   -3.0610356    983.49002    0.0838869  0.083967353            2 
  978000    1.1202955   -3.0620774    987.30091  0.084125845  0.083957778            2 
  979000    1.0934009   -3.0424449     987.3473  0.084043863  0.083949045            1 
  980000    1.0940048   -3.0557757     993.3569  0.084469124  0.083940176            3 
  981000    1.1003957   -3.0235705    989.14246  0.084025013  0.083930695            1 
  982000    1.0995969   -3.0714459    986.97812  0.083755781  0.083921834            1 
  983000    1.0654097   -3.0499288    989.11645  0.083851852  0.083913185            3 
  984000    1.0897867   -3.0646699    990.74396  0.083904468  0.083903865            4 
  985000    1.1140492   -3.0462955    995.50159  0.084221793  0.083895358            1 
  986000    1.0966773   -3.0689156    995.66479  0.084150168  0.083886999            1 
  987000    1.0873286   -3.0644082    994.72361  0.083985445  0.083878059            1 
  988000    1.0929486    -3.032574    998.35664  0.084206869  0.083870189            1 
  989000    1.0846382   -3.0492434     996.2574  0.083944843  0.083861662            4 
  990000    1.0786568    -3.059582    1000.1055  0.084183964  0.083852668            2 
  991000    1.0978699   -3.0616862    996.72441    0.0838147  0.083844497            2 
  992000     1.062364   -3.0691182    995.37059  0.083616481  0.083835318            2 
  993000    1.1023789   -3.0598767    997.69823  0.083727613  0.083825974            2 
  994000    1.1113426   -3.0803153    1002.9068  0.084080048  0.083816401            1 
  995000    1.0887883   -3.0744356    997.22089  0.083519338  0.083807056            1 
  996000    1.0827726   -3.0362629    1004.6489  0.084056971  0.083798588            2 
  997000    1.0716027   -3.0478307    1003.8764   0.08390809  0.083789562            1 
  998000    1.0932613   -3.0459997    1005.4895  0.083958712  0.083781184            2 
  999000    1.0700674   -3.0662171    1005.0939  0.083841664  0.083772419            2 
 1000000    1.0992038   -3.0771875    1003.5871  0.083632255  0.083763603            2 
 1001000    1.0937773   -3.0374452    1007.8527   0.08390382  0.083754354            2 
 1002000    1.0782132    -3.060425     1008.753  0.083894958  0.083745042            2 
 1003000    1.0930625   -3.0633555    1007.1908  0.083681522  0.083736333            1 
 1004000    1.0943733   -3.0318687    1010.2743  0.083854109  0.083727847            2 
 1005000    1.1010005   -3.0755866    1009.2226  0.083683463  0.083718411            2 
 1006000     1.091157   -3.0655962    1009.7029  0.083640068  0.083708569            3 
 1007000    1.0776879   -3.0594508    1014.0575  0.083917373  0.083699392            1 
 1008000    1.0851456   -3.0628069    1015.4092   0.08394587  0.083691129            2 
 1009000    1.0989128   -3.0558794    1016.7755  0.083975513  0.083682942            1 
 1010000    1.0857773   -3.0980589    1012.9727  0.083578604  0.083675003            2 
 1011000    1.0928728   -3.0432082    1016.1223  0.083755548   0.08366606            4 
 1012000    1.0873629   -3.0292817    1018.3733  0.083858145  0.083657343            2 
 1013000    1.0836652   -3.0630688     1015.687  0.083554375  0.083648665            2 
 1014000    1.1118474   -3.0731101      1019.81  0.083810816   0.08363975            4 
 1015000    1.1046653   -3.0482497    1019.5367  0.083705803  0.083630647            4 
 1016000    1.0753135   -3.0493307    1016.4265  0.083368316  0.083621893            4 
 1017000    1.1064732   -3.0734766    1018.4377  0.083451136   0.08361234            2 
 1018000    1.0762436   -3.0673567    1023.3438  0.083770776  0.083602781            3 
 1019000    1.0813237   -3.0645364    1023.4879  0.083700352  0.083594405            2 
 1020000    1.0863877   -3.0314307    1023.8951   0.08365156  0.083585677            3 
 1021000    1.1030434   -3.0509658     1026.693  0.083797995  0.083577437            2 
 1022000    1.0828412    -3.090223     1027.867  0.083811723  0.083569426            1 
 1023000       1.0887   -3.0594111    1030.0653   0.08390887  0.083560857            1 
 1024000    1.1009663    -3.044402    1031.7571  0.083964605   0.08355191            1 
 1025000    1.1120064   -3.0384016    1033.3694  0.084013771  0.083543867            3 
 1026000    1.0835626   -3.0562966    1029.7944  0.083641524  0.083536045            2 
 1027000    1.0821745   -3.0872107    1027.4692  0.083371407   0.08352747            1 
 1028000    1.0828962   -3.0762478    1030.6336  0.083546826  0.083518878            1 
 1029000    1.0667792   -3.0586064    1031.2971  0.083519363   0.08350998            2 
 1030000     1.090014   -3.0679487    1030.4174  0.083367101  0.083501073            3 
 1031000    1.0847969   -3.0517461      1035.47  0.083694636   0.08349237            2 
 1032000    1.0411684   -3.1032926     1032.186  0.083348353  0.083483401            3 
 1033000    1.0869266   -3.0455673    1037.4712  0.083694031  0.083474269            2 
 1034000    1.0640131   -3.0694671    1038.7757  0.083718226  0.083465151            1 
 1035000    1.0830858   -3.0556571    1039.6688   0.08370924  0.083456194            1 
 1036000    1.0821379   -3.0696899    1037.0339  0.083416496  0.083447669            1 
 1037000    1.0685257   -3.0773573    1038.6849  0.083468729  0.083439014            1 
 1038000    1.0514225   -3.0856309    1041.2488  0.083594152  0.083431255            4 
 1039000    1.1198835   -3.0821774    1041.2041   0.08351011  0.083423041            3 
 1040000    1.1033647   -3.0542667    1044.2208  0.083671541  0.083414867            1 
 1041000    1.0934826   -3.0711807    1042.5088  0.083454117  0.083406674            2 
 1042000    1.0603532   -3.0852389     1045.453  0.083609484   0.08339822            1 
 1043000    1.0952666   -3.0817421    1043.5841  0.083380004  0.083389637            2 
 1044000    1.0733097   -3.0780923    1045.0181  0.083414603  0.083381142            2 
 1045000    1.1140835   -3.0786291    1051.2302   0.08383016  0.083373224            3 
 1046000    1.0650913   -3.0838661    1045.1953  0.083269227   0.08336458            4 
 1047000    1.1101611   -3.0800725    1050.1048  0.083580452  0.083355736            4 
 1048000    1.1010265   -3.0831381    1050.0684  0.083497806  0.083347126            1 
 1049000    1.0649461   -3.0959227    1048.1411  0.083265098  0.083338573            3 
 1050000    1.1048802    -3.071589    1054.7873  0.083713281  0.083330043            2 
 1051000    1.0986467   -3.0434584    1052.4136  0.083445416  0.083322474            2 
 1052000    1.1178006   -3.0910647    1056.4957   0.08368946  0.083314094            4 
 1053000    1.0877669   -3.0892679    1052.7679  0.083314968  0.083305097            2 
 1054000    1.0819339   -3.0565232    1058.5438  0.083692585  0.083296882            1 
 1055000    1.1116765   -3.0566428    1056.5324  0.083454378  0.083288826            5 
 1056000    1.0786836   -3.0673894    1061.1855  0.083742542  0.083280148            3 
 1057000    1.0922779   -3.0820656    1056.2985  0.083278029  0.083271139            2 
 1058000    1.0718399   -3.0930851    1051.1826  0.082796361  0.083261973            2 
 1059000    1.0862151   -3.0517214    1059.8509   0.08340029  0.083252712            1 
 1060000    1.0783368    -3.081881     1060.279  0.083355266  0.083244079            2 
 1061000    1.0839066   -3.0583877     1060.319  0.083279842  0.083235035            4 
 1062000    1.0604075   -3.0766665    1059.8643  0.083165745  0.083226628            2 
 1063000    1.0722538   -3.0812414    1063.5026  0.083372733   0.08321747            3 
 1064000    1.0982474   -3.0624939     1062.517  0.083217187  0.083208151            3 
 1065000    1.0983644   -3.0329993    1063.0026  0.083177044  0.083199046            3 
 1066000    1.0701929   -3.0479996    1065.3853  0.083285282   0.08319029            2 
 1067000    1.0684583   -3.0498565    1067.1254  0.083343128   0.08318235            2 
 1068000    1.0414421   -3.0583192    1069.9483  0.083485354  0.083173841            2 
 1069000    1.0864368   -3.0824161    1071.6631  0.083540933  0.083165971            1 
 1070000    1.0831768   -3.1104347    1067.9232  0.083171588  0.083157466            3 
 1071000    1.0836196   -3.0707989    1073.1308  0.083499132   0.08314886            3 
 1072000      1.09438    -3.064198    1072.0915  0.083340446  0.083141093            1 
 1073000    1.0610727   -3.0997657    1071.3957  0.083208738  0.083132493            3 
 1074000    1.0866178   -3.0776009    1068.9109   0.08293846  0.083123227            4 
 1075000    1.0676529   -3.0652043    1071.9991  0.083100704  0.083113492            2 
 1076000    1.0705826   -3.0895688    1068.9228  0.082785219  0.083103506            1 
 1077000    1.1034219   -3.0860901    1069.9034  0.082784228  0.083094189            3 
 1078000    1.0666748   -3.0833211    1070.3074   0.08273867  0.083084603            2 
 1079000    1.1037429   -3.0739142    1072.7527  0.082850841  0.083074589            2 
 1080000    1.0832962   -3.0867844    1075.3374  0.082973562  0.083063973            2 
 1081000    1.0579942   -3.0342085    1080.3148  0.083280509   0.08305422            2 
 1082000    1.0934847   -3.0761064     1078.416    0.0830573  0.083044799            4 
 1083000    1.0938615   -3.0681483    1082.9309  0.083328013  0.083035483            2 
 1084000    1.0872495   -3.0691817    1074.7768  0.082624293  0.083025502            2 
 1085000    1.0575406   -3.1165518    1078.5717  0.082839612  0.083016061            2 
 1086000    1.0987138   -3.0929006    1083.3279  0.083128288  0.083006436            2 
 1087000    1.0624463   -3.0798811    1081.1711   0.08288647  0.082996177            3 
 1088000    1.0759782   -3.0695242    1082.7623  0.082932164  0.082986341            4 
 1089000     1.089207   -3.0831361    1082.2292  0.082815212  0.082976927            3 
 1090000    1.0856886   -3.0626639     1083.884  0.082865746  0.082966946            1 
 1091000    1.0680647   -3.0695944    1087.6391  0.083076619  0.082957407            1 
 1092000    1.0764515   -3.0630696    1087.1155  0.082960581  0.082947958            2 
 1093000    1.0859999   -3.0996304    1084.8273  0.082710228  0.082938139            3 
 1094000    1.0693195   -3.0918456    1086.0793  0.082729987  0.082927998            2 
 1095000      1.06883   -3.0698198    1088.0565  0.082804908  0.082916999            1 
 1096000    1.0679303   -3.0761512     1088.374  0.082753499  0.082906222            5 
 1097000    1.0836788   -3.0812528    1089.6654  0.082776162  0.082896072            5 
 1098000    1.0716735   -3.0775024    1087.5764  0.082542225  0.082885533            4 
 1099000    1.0877447   -3.0288473    1095.3091  0.083053463  0.082875135            2 
 1100000    1.0978694   -3.0715035    1090.4209  0.082607644  0.082865335            5 
 1101000    1.0887687   -3.0694621    1088.9924  0.082424496  0.082855645            3 
 1102000    1.0894026   -3.0808205    1090.2718  0.082446445  0.082845323            2 
 1103000    1.0613987   -3.1100828    1097.0747   0.08288567  0.082834715            4 
 1104000    1.0757671   -3.0448425    1093.7615  0.082560502   0.08282418            1 
 1105000     1.063421   -3.0678214    1097.6542  0.082779354  0.082814382            2 
 1106000    1.0363602   -3.1154894    1092.5248  0.082318027  0.082804361            2 
 1107000    1.0704514   -3.0817728    1100.9554  0.082878307   0.08279439            4 
 1108000    1.0711335   -3.1136325    1096.9846  0.082504859   0.08278441            2 
 1109000    1.0762575   -3.0713047    1098.8424  0.082570062  0.082773957            3 
 1110000    1.0669623    -3.061686    1098.2007  0.082447501  0.082763496            1 
 1111000    1.1105215   -3.0695274    1099.7601  0.082490258   0.08275331            2 
 1112000     1.066414   -3.0954958    1103.9883  0.082732936  0.082742904            2 
 1113000    1.0748918   -3.0308405    1102.7566  0.082566383  0.082732566            5 
 1114000    1.0796876   -3.0940234    1100.9557  0.082357545  0.082722444            3 
 1115000    1.0541089   -3.0958017    1103.8751   0.08250188  0.082711427            2 
 1116000    1.0624253   -3.0869305    1104.8085  0.082497651   0.08270069            1 
 1117000    1.0820543   -3.0797811    1106.5795  0.082555913  0.082690078            2 
 1118000    1.0876684   -3.0733076     1113.757  0.083017072  0.082679538            1 
 1119000     1.075208   -3.0919082    1104.3482  0.082242197  0.082669383            2 
 1120000    1.0688625   -3.0721669    1106.6198  0.082337781  0.082658365            3 
 1121000    1.0821559   -3.0655769    1107.3178  0.082316221  0.082648312            3 
 1122000    1.0704598   -3.0750827    1112.0354  0.082593243  0.082637808            3 
 1123000    1.0632992   -3.0543376     1112.604  0.082561887  0.082627513            1 
 1124000    1.0580297   -3.0449024    1113.8588  0.082581466   0.08261775            1 
 1125000    1.0705695   -3.0968312    1114.2959  0.082540439  0.082608021            4 
 1126000    1.0691612   -3.0842028    1113.3129  0.082394382  0.082597858            2 
 1127000    1.0797632   -3.0889195    1117.0711  0.082599166  0.082587463            2 
 1128000    1.0772617   -3.0859438    1116.4975  0.082483564  0.082577625            2 
 1129000    1.0857363   -3.1054642    1116.0525  0.082377654  0.082566941            2 
 1130000     1.084973   -3.0986158    1114.9886    0.0822263   0.08255677            2 
 1131000    1.0618041   -3.0816286    1116.1186  0.082236852  0.082546241            1 
 1132000    1.0762633   -3.0677933    1119.2223   0.08239269  0.082535873            3 
 1133000    1.0821063   -3.0782928    1114.1122  0.081944118   0.08252455            3 
 1134000    1.0859268   -3.0745304     1117.077  0.082089727  0.082513848            3 
 1135000    1.0541214   -3.0971744     1120.059  0.082236346  0.082502975            1 
 1136000    1.0648949   -3.0971409    1117.4683  0.081973909  0.082491485            4 
 1137000    1.0758418   -3.0886051    1121.4504  0.082193665  0.082480504            3 
 1138000    1.0826853   -3.0979312    1120.9893  0.082087674  0.082469746            1 
 1139000    1.0773114   -3.0663649    1122.8332  0.082150509  0.082458258            2 
 1140000    1.0724272   -3.0848086    1122.1285  0.082026938  0.082447029            2 
 1141000    1.0839746   -3.0713025    1124.5858  0.082134515  0.082435629            3 
 1142000    1.0428177   -3.0551169    1129.8109  0.082443881  0.082424326            3 
 1143000    1.0809853   -3.1008933    1123.4845  0.081910504   0.08241298            1 
 1144000    1.0647062   -3.0665305    1126.3082  0.082044597  0.082401964            2 
 1145000    1.0669832    -3.073827    1124.1956  0.081819184   0.08239026            2 
 1146000    1.0559621   -3.0884245    1127.2765  0.081971824  0.082378424            2 
 1147000    1.0544387   -3.0805703    1131.1536  0.082182036  0.082366578            2 
 1148000    1.0890654   -3.0959796    1133.8733  0.082307874  0.082355146            2 
 1149000    1.0600325   -3.0810383    1130.1491  0.081966134  0.082343834            3 
 1150000    1.0724773   -3.0933725    1130.0907  0.081890629  0.082332426            2 
 1151000    1.0559342   -3.1107242     1130.382  0.081840576  0.082320657            5 
 1152000    1.1015233   -3.0982282    1134.7162  0.082083056  0.082308682            2 
 1153000    1.0664067   -3.0854309    1134.7728  0.082015959  0.082296907            1 
 1154000     1.068233   -3.0886631    1135.9373  0.082028982  0.082285854            2 
 1155000    1.0410468   -3.0763401    1136.2328  0.081979277  0.082274486            1 
 1156000    1.0887968     -3.12142    1135.1634   0.08183127  0.082262876            3 
 1157000    1.0605489   -3.0811089    1132.2502  0.081550723  0.082251742            2 
 1158000    1.0742922   -3.0902101    1137.2442  0.081839681  0.082240391            1 
 1159000    1.0611809   -3.0953081     1136.434  0.081710814  0.082228653            1 
 1160000    1.0653226   -3.0897001    1137.6897  0.081730583  0.082217555            3 
 1161000    1.0752002   -3.0707975    1141.9293  0.081964495  0.082206097            2 
 1162000    1.0591285    -3.073259    1140.3501  0.081780703  0.082194773            1 
 1163000    1.0717106    -3.062475    1139.6299  0.081658775  0.082182778            2 
 1164000    1.0839325   -3.0981888    1143.5623  0.081870156   0.08217079            1 
 1165000    1.0727935   -3.1113687    1143.2346  0.081776439  0.082158408            3 
 1166000    1.0784713   -3.0992132    1138.2325  0.081348809  0.082145751            3 
 1167000    1.0672279   -3.0988304    1144.3866   0.08171855  0.082132586            4 
 1168000    1.0475269   -3.0630969    1144.3635  0.081646939  0.082119442            5 
 1169000    1.0633184   -3.0670289     1149.165  0.081919375  0.082106594            3 
 1170000    1.0716265   -3.1039704    1141.1819   0.08128076  0.082093119            4 
 1171000    1.0701725   -3.0768777    1143.1056  0.081348246  0.082079706            4 
 1172000    1.0872339   -3.1128026    1142.2299  0.081216574  0.082066174            2 
 1173000    1.0524943    -3.084929    1145.4384  0.081375278  0.082053048            2 
 1174000    1.0461274   -3.0972678    1143.2504  0.081150653  0.082039507            3 
 1175000    1.0515073   -3.0911159    1142.8793  0.081055269  0.082025713            3 
 1176000    1.0650076   -3.0967187    1145.8972  0.081200197  0.082011855            3 
 1177000     1.070449   -3.0880979    1148.0935  0.081286712  0.081998198            1 
 1178000    1.0597529   -3.0939672    1142.4172  0.080816159  0.081984084            2 
 1179000    1.0454537   -3.0895626    1151.0218  0.081355794  0.081969804            1 
 1180000     1.075371   -3.0973973    1148.9395  0.081139797   0.08195645            1 
 1181000    1.0453086   -3.0941433    1153.1095  0.081365332  0.081942982            1 
 1182000    1.0628833   -3.0967271    1146.9901  0.080865066  0.081929021            3 
 1183000    1.0708753   -3.0951844    1152.3062   0.08117119  0.081914887            1 
 1184000    1.0447756   -3.0918795    1153.7302  0.081202858  0.081900564            3 
 1185000    1.0527897   -3.0959531    1148.7489  0.080784031  0.081886294            3 
 1186000    1.0795578   -3.0974236    1155.3313  0.081178424  0.081872552            2 
 1187000    1.0628413   -3.1146946    1149.1274  0.080674486  0.081858307            2 
 1188000    1.0541571   -3.0734478    1154.0225  0.080949951  0.081844611            2 
 1189000    1.0499817   -3.0926717    1155.9508  0.081017018  0.081830848            3 
 1190000    1.0685097   -3.0985338    1150.4797  0.080565805  0.081816567            1 
 1191000    1.0735437   -3.1099886    1157.4396  0.080985137  0.081802524            4 
 1192000     1.041391   -3.1132826    1158.7527  0.081008999   0.08178854            1 
 1193000    1.0578925   -3.1008118     1164.232  0.081323831  0.081774949            2 
 1194000    1.0349059   -3.0805421    1162.5149  0.081135879    0.0817618            3 
 1195000    1.0657695   -3.1150337    1160.6442  0.080937535  0.081748403            2 
 1196000    1.0681401   -3.0906459    1164.3837  0.081130411  0.081735139            2 
 1197000    1.0643836    -3.074542    1166.2717  0.081194078  0.081721809            5 
 1198000    1.0817086   -3.0852874    1168.7411  0.081298071  0.081708184            6 
 1199000    1.0468912   -3.0969206     1162.461  0.080793786  0.081694713            2 
 1200000    1.0633186   -3.0932249    1167.3267  0.081064356  0.081681369            2 
 1201000     1.080314   -3.0853273    1163.4586  0.080728466  0.081667713            2 
 1202000    1.0510161   -3.0821921    1171.0202  0.081185537  0.081654714            2 
 1203000    1.0601046   -3.1241486    1166.5438  0.080807969  0.081641755            3 
 1204000     1.068979   -3.0627129    1171.0861  0.081055242  0.081628807            2 
 1205000    1.0577878   -3.0871056    1173.7208  0.081170182  0.081615789            2 
 1206000    1.0680759    -3.110589     1169.998  0.080845633  0.081602238            3 
 1207000    1.0597547   -3.1428468    1168.4538  0.080672039  0.081588346            3 
 1208000    1.0743765   -3.1031523    1175.2364  0.081073153  0.081575643            2 
 1209000    1.0502929   -3.0949909     1172.529  0.080819481  0.081563397            2 
 1210000     1.041044    -3.084763    1177.3105  0.081081991  0.081551492            1 
 1211000    1.0642503   -3.1142279    1174.0813  0.080792822   0.08153934            2 
 1212000    1.0450511   -3.0957252    1181.3683  0.081227195  0.081527336            2 
 1213000    1.0454321   -3.1260337    1179.4613  0.081029217  0.081515611            1 
 1214000     1.061697   -3.0861149    1181.8609  0.081127188  0.081503422            3 
 1215000    1.0514854   -3.1083321    1180.3879   0.08095939  0.081491793            7 
 1216000    1.0547758   -3.0915224    1186.0604   0.08128155  0.081480407            2 
 1217000    1.0324199   -3.1007465    1183.7921   0.08105944  0.081468809            4 
 1218000    1.0495604   -3.0898692    1183.7258  0.080988355  0.081456707            1 
 1219000    1.0519864   -3.0964594     1187.532  0.081182117  0.081444734            2 
 1220000    1.0695253   -3.0935609    1186.4831  0.081043924  0.081433214            2 
 1221000     1.065426   -3.1131551    1189.3411  0.081172609  0.081421635            2 
 1222000    1.0687243   -3.1128311    1180.7045  0.080517217  0.081409499            2 
 1223000    1.0312057   -3.0793235    1190.2762  0.081103583  0.081396717            2 
 1224000    1.0389001   -3.0978085    1190.4889  0.081051802  0.081385193            2 
 1225000    1.0430532   -3.0999088    1188.6181  0.080858376  0.081373263            3 
 1226000    1.0627522    -3.107426    1191.7866  0.081007791  0.081360912            2 
 1227000    1.0722464   -3.1167751    1187.5947  0.080657073  0.081348668            3 
 1228000    1.0725753   -3.1069178    1193.5837  0.080997808  0.081335925            3 
 1229000    1.0737121   -3.0789197    1190.8968  0.080749716   0.08132383            2 
 1230000    1.0485132   -3.1325106    1191.0196  0.080692388  0.081311531            3 
 1231000    1.0599717   -3.0921246     1196.508  0.080998378  0.081299066            3 
 1232000    1.0588616   -3.0891634    1193.1606  0.080706209  0.081286431            2 
 1233000    1.0647081   -3.0618669    1193.3483   0.08065344  0.081274214            2 
 1234000    1.0714802    -3.069008    1197.6035   0.08087544   0.08126153            3 
 1235000    1.0634352   -3.1074038    1195.8597   0.08069229  0.081248848            6 
 1236000    1.0510125   -3.0978495    1199.3401  0.080861657  0.081236445            3 
 1237000    1.0523288   -3.0997231    1200.8076  0.080895149  0.081224121            3 
 1238000    1.0578949   -3.0702042    1201.1376  0.080852017  0.081212187            2 
 1239000     1.061081   -3.1463612    1197.8801  0.080567666  0.081199818            3 
 1240000     1.071024   -3.0982312    1205.6874   0.08102738  0.081187532            2 
 1241000    1.0543883   -3.1295787    1201.7882  0.080700255  0.081175304            4 
 1242000    1.0384659   -3.0926617    1200.4499  0.080545487  0.081162633            1 
 1243000    1.0764455   -3.0846614    1205.4591  0.080816509  0.081150709            2 
 1244000    1.0536459   -3.0848772    1203.3471  0.080610068   0.08113861            2 
 1245000    1.0522925   -3.0973483    1208.3163  0.080877933  0.081126711            4 
 1246000    1.0460389   -3.0998055    1202.3133  0.080411534  0.081114097            1 
 1247000    1.0731025   -3.0929312    1207.5451  0.080696677  0.081101109            1 
 1248000    1.0515115   -3.0817865    1209.8537  0.080786169  0.081088244            2 
 1249000    1.0732105   -3.1322534    1205.5445  0.080433983  0.081075822            2 
 1250000    1.0692522   -3.1103582    1207.9905  0.080532703  0.081063245            2 
 1251000     1.058958   -3.0892095     1211.046  0.080671864  0.081050716            2 
 1252000    1.0458093   -3.1112809    1208.8258  0.080459653  0.081038399            2 
 1253000    1.0403232   -3.1145704     1210.812  0.080527533  0.081026182            2 
 1254000    1.0416763   -3.1028195    1217.6372  0.080916882  0.081014008            1 
 1255000    1.0561042   -3.1296719    1214.7248   0.08065902  0.081001705            1 
 1256000    1.0422932   -3.1209478    1212.0764  0.080419079   0.08098893            7 
 1257000    1.0683764   -3.0710111    1210.4937  0.080250179  0.080976254            1 
 1258000     1.046211   -3.1331914     1215.059  0.080488806  0.080963702            3 
 1259000    1.0351918   -3.0907635    1218.2584  0.080636642  0.080951105            2 
 1260000     1.068459   -3.1049338    1216.8752  0.080481166   0.08093823            3 
 1261000    1.0507399   -3.0991315    1219.3597  0.080581532   0.08092626            4 
 1262000    1.0425894   -3.1090983     1222.293  0.080711368  0.080913679            3 
 1263000    1.0596528   -3.1114199    1216.4263  0.080260382   0.08090124            4 
 1264000    1.0450372   -3.1047118    1222.9179  0.080624858  0.080889211            3 
 1265000    1.0719885   -3.1321324    1219.2634   0.08032038   0.08087688            2 
 1266000    1.0592359   -3.0800438    1225.4403  0.080663528  0.080864434            1 
 1267000    1.0783298   -3.1017903    1223.2522  0.080455945   0.08085239            1 
 1268000    1.0578225   -3.1404279    1224.0462  0.080444678  0.080839884            2 
 1269000    1.0304394   -3.1074758    1223.5723  0.080350166   0.08082767            3 
 1270000    1.0516344   -3.0936647    1227.7931   0.08056385  0.080815132            2 
 1271000    1.0646431   -3.1317358     1223.366  0.080210204  0.080802619            1 
 1272000     1.050854   -3.1066149    1230.4455  0.080610949  0.080790068            3 
 1273000    1.0502141   -3.1476939    1219.9509  0.079860625  0.080777599            3 
 1274000    1.0470863   -3.1095856    1226.7394  0.080241978  0.080764713            1 
 1275000    1.0319667   -3.0944293    1228.2995  0.080281011  0.080752227            2 
 1276000    1.0330207   -3.0813925    1225.1074  0.080009624  0.080739353            3 
 1277000    1.0570331   -3.1148066    1228.5376  0.080170815  0.080726829            2 
 1278000    1.0629074   -3.1112387    1230.0659  0.080207738   0.08071444            2 
 1279000    1.0396704   -3.1264724    1234.8661  0.080457785  0.080702812            1 
 1280000     1.081344   -3.1355083    1231.0145  0.080144175  0.080690542            3 
 1281000    1.0616976   -3.1041149    1237.6657  0.080514295  0.080678787            3 
 1282000    1.0394399   -3.1364165    1234.5272  0.080247478  0.080667491            2 
 1283000    1.0336699   -3.1294611    1235.0772  0.080220656  0.080655545            1 
 1284000    1.0559897   -3.1069019    1235.1121  0.080160441  0.080643228            3 
 1285000    1.0542121   -3.1108171    1235.6014  0.080129792  0.080630672            2 
 1286000    1.0595208   -3.0995106    1237.0329  0.080160242  0.080618253            2 
 1287000    1.0523575   -3.1297672    1235.5566  0.080002368  0.080605291            4 
 1288000    1.0627309   -3.1104107     1235.426  0.079931807   0.08059196            3 
 1289000    1.0313021   -3.1334611    1238.7314  0.080083491  0.080578855            2 
 1290000    1.0485503   -3.1396497    1234.4498  0.079744819  0.080565917            2 
 1291000    1.0447007   -3.1279538    1234.3821  0.079678679  0.080552237            2 
 1292000    1.0386326   -3.1096131    1234.8149  0.079644922  0.080538557            2 
 1293000    1.0576755   -3.1170505    1235.3189  0.079615809  0.080525429            3 
 1294000    1.0362888   -3.0871948    1246.4451   0.08027081   0.08051214            2 
 1295000    1.0521253   -3.0939879    1251.3816  0.080526489  0.080499501            2 
 1296000    1.0431137   -3.1179114    1241.6635  0.079839475  0.080486757            8 
 1297000    1.0396231   -3.1646417    1240.8724  0.079727089  0.080474171            4 
 1298000    1.0572422   -3.1197643    1245.4208  0.079957676   0.08046109            3 
 1299000    1.0534795   -3.1171102     1246.894  0.079990634  0.080448374            1 
 1300000    1.0483817   -3.1157256    1250.1075  0.080135096  0.080436028            3 
 1301000    1.0617078   -3.1088349    1251.1129  0.080137898  0.080423536            3 
 1302000    1.0491981   -3.1320865    1251.9787  0.080131766  0.080411456            2 
 1303000     1.039131   -3.1502379    1251.3778  0.080031836  0.080399451            3 
 1304000    1.0315066   -3.0883572    1251.9718  0.080008422  0.080387577            3 
 1305000    1.0354299    -3.142502    1252.7355   0.07999588  0.080375476            3 
 1306000    1.0506873   -3.1415722    1247.4716  0.079598752  0.080363298            3 
 1307000    1.0454913    -3.121753     1254.609  0.079992923  0.080351167            3 
 1308000     1.053193   -3.1319711    1252.5271  0.079799126  0.080339736            3 
 1309000    1.0425047   -3.1571615    1254.8262  0.079884528  0.080327705            4 
 1310000    1.0074759   -3.1103606    1255.9998  0.079898204  0.080315569            3 
 1311000    1.0631837   -3.1453519    1255.3512  0.079796034  0.080303429            1 
 1312000    1.0358142    -3.127541    1256.7417  0.079823532  0.080291227            4 
 1313000    1.0437704   -3.1112933    1256.2683  0.079732694   0.08027902            1 
 1314000     1.023649   -3.0978953    1260.0181  0.079909823  0.080266411            3 
 1315000    1.0501683   -3.1195779    1257.2067  0.079670895  0.080254303            3 
 1316000    1.0359234   -3.1770616    1259.3089  0.079743468  0.080241256            1 
 1317000    1.0489102   -3.1112053    1260.5172  0.079759379  0.080228561            5 
 1318000    1.0268894   -3.1146683    1262.8677   0.07984748  0.080216289            5 
 1319000      1.03381   -3.1378834    1259.2235  0.079556703  0.080204308            3 
 1320000    1.0528271   -3.1186115    1261.5535  0.079643532  0.080192398            4 
 1321000    1.0477807   -3.1312147    1266.8656  0.079918347  0.080180284            2 
 1322000      1.02024   -3.1458113    1269.0783  0.079997372  0.080168328            3 
 1323000    1.0189343   -3.1099469    1268.1677  0.079879546  0.080156588            1 
 1324000    1.0533995   -3.1278496    1269.5227  0.079904502  0.080144765            1 
 1325000    1.0426035   -3.1397022    1271.1782  0.079948312  0.080132791            3 
 1326000    1.0226947    -3.148765    1266.0001  0.079562599  0.080120947            1 
 1327000    1.0571319   -3.1194252    1265.3943  0.079464601  0.080109046            3 
 1328000    1.0344677   -3.1046422    1267.8789  0.079560675  0.080096952            2 
 1329000    1.0449328     -3.12159    1271.0193  0.079697724  0.080084892            3 
 1330000    1.0514985   -3.1201389    1269.2084  0.079524338  0.080071991            1 
 1331000    1.0618628   -3.1309984    1276.0359  0.079892056  0.080059467            2 
 1332000    1.0309466   -3.1299023    1274.3308    0.0797254  0.080047048            2 
 1333000     1.035125   -3.1141178    1274.9726  0.079705715  0.080034724            1 
 1334000    1.0294716   -3.1224946    1277.2062  0.079785497  0.080021933            2 
 1335000    1.0521689   -3.1025684    1274.4937  0.079556408  0.080009556            1 
 1336000    1.0453458   -3.1126575    1278.6153  0.079753951  0.079997215            4 
 1337000    1.0577701   -3.1235807    1284.0237  0.080031395  0.079985438            3 
 1338000    1.0455938   -3.1185862    1274.1451   0.07935632  0.079973201            2 
 1339000    1.0337832   -3.1400593    1281.2308   0.07973804  0.079961204            2 
 1340000    1.0382828   -3.1245663    1278.3457  0.079499111  0.079948895            1 
 1341000    1.0460469   -3.1286267    1280.8852  0.079597642  0.079936701            3 
 1342000    1.0292374   -3.1153682    1281.8985   0.07960125  0.079924528            1 
 1343000    1.0286872   -3.1412235    1280.2643  0.079440576  0.079912457            3 
 1344000    1.0532265    -3.125551    1281.2478  0.079442449  0.079899803            3 
 1345000    1.0298052   -3.1444372    1283.2444  0.079507085   0.07988773            1 
 1346000    1.0131739   -3.1187529    1288.6999  0.079785781  0.079875699            3 
 1347000       1.0395   -3.1254547    1282.8102  0.079362174  0.079863246            5 
 1348000    1.0673602   -3.1253115    1287.7507  0.079608723  0.079851671            2 
 1349000    1.0382656   -3.1210434    1284.2414  0.079332926  0.079839195            2 
 1350000    1.0218573   -3.1251741    1286.0854  0.079387985  0.079826443            1 
 1351000     1.053035   -3.1208417    1294.4959   0.07984801  0.079813814            4 
 1352000     1.055755   -3.1451439    1284.2207  0.079155614  0.079801254            4 
 1353000    1.0514103   -3.1261882    1287.6149  0.079306163  0.079788347            2 
 1354000    1.0301521   -3.1379944    1295.0561  0.079705571    0.0797761            2 
 1355000    1.0530751   -3.1420845    1289.4423  0.079301495  0.079763859            3 
 1356000    1.0584301   -3.1317245    1290.4947   0.07930769  0.079750829            2 
 1357000    1.0299893   -3.1338193     1289.669  0.079198538  0.079738144            2 
 1358000    1.0208117   -3.1154368    1297.7108  0.079633704  0.079725881            2 
 1359000    1.0145378   -3.1296179    1283.9749  0.078732825  0.079713389            4 
 1360000    1.0369073   -3.1130024    1293.2086  0.079240722  0.079700168            1 
 1361000    1.0330691   -3.1411174    1289.6123    0.0789623  0.079687383            3 
 1362000    1.0491106   -3.1097658    1295.5538  0.079267856  0.079674249            2 
 1363000    1.0212667    -3.129989    1288.8833  0.078801863  0.079661346            4 
 1364000    1.0286171   -3.1321774    1293.0152   0.07899653  0.079648389            1 
 1365000    1.0357403   -3.1412037      1300.07  0.079369356  0.079635509            1 
 1366000    1.0427167     -3.14521    1298.0695  0.079189211  0.079622666            3 
 1367000    1.0267691   -3.1248354    1296.2559  0.079020722  0.079609993            3 
 1368000     1.041669   -3.1197002    1301.1002  0.079258053  0.079597247            2 
 1369000    1.0313534   -3.1079454    1300.0058  0.079133541  0.079584644            2 
 1370000    1.0302966   -3.1395245    1299.7596  0.079060802   0.07957209            2 
 1371000    1.0333179   -3.1197471    1305.6185  0.079359254  0.079559769            3 
 1372000      1.03832   -3.1132848    1306.3578  0.079346322  0.079547098            2 
 1373000    1.0397336   -3.1168287     1300.903  0.078957455  0.079534967            2 
 1374000    1.0074476    -3.136922    1307.5424   0.07930267  0.079522375            6 
 1375000    1.0450446   -3.1288153    1300.6269  0.078825875  0.079509707            2 
 1376000    1.0303171   -3.1324084     1304.599  0.079009146  0.079497099            2 
 1377000    1.0250067    -3.164993    1305.8052  0.079024762  0.079484681            2 
 1378000    1.0330273   -3.1480666    1306.4672  0.079007449  0.079472271            3 
 1379000    1.0411734   -3.1447445    1305.0128  0.078862267  0.079459998            3 
 1380000    1.0273519   -3.1437418    1311.2132  0.079179542  0.079447868            2 
 1381000     1.035001   -3.1407432    1309.3779  0.079011461  0.079435916            2 
 1382000    1.0313451    -3.124246    1304.2426  0.078644635  0.079423232            2 
 1383000    1.0257934   -3.1298837    1317.1189  0.079363636  0.079411092            1 
 1384000    1.0273692   -3.1214143    1310.6855  0.078918927  0.079399084            1 
 1385000    1.0488549   -3.1361998    1308.4562   0.07872781  0.079387154            3 
 1386000    1.0392173   -3.1169919    1314.8155  0.079053364  0.079374978            3 
 1387000      1.03592    -3.136471     1323.891  0.079541638  0.079362986            2 
 1388000    1.0404229   -3.1447452    1321.2351  0.079324875  0.079351816            2 
 1389000    1.0438824   -3.1339246    1318.2843  0.079090729  0.079340403            3 
 1390000    1.0283629     -3.12524    1316.2336  0.078910887  0.079328565            2 
 1391000    1.0263702   -3.1460243    1319.4965  0.079049634  0.079316984            2 
 1392000    1.0384859    -3.146495    1323.1638   0.07921239  0.079305501            3 
 1393000   0.99405093     -3.14251     1324.687  0.079246648  0.079294117            2 
 1394000    1.0215138   -3.1573678    1320.4581     0.078937  0.079283009            2 
 1395000    1.0151908    -3.156658    1325.1427  0.079160256  0.079272087            1 
 1396000    1.0321823   -3.1417971    1319.5231  0.078768094  0.079260975            4 
 1397000    1.0470766   -3.1477061    1327.4716  0.079185853  0.079249865            5 
 1398000    1.0293734   -3.2043966    1327.8877  0.079154014  0.079238901            3 
 1399000    1.0341749    -3.161992    1327.9897  0.079103508  0.079227863            5 
 1400000    1.0415667   -3.1597015    1329.8929  0.079160291  0.079217039            1 
 1401000    1.0138456    -3.180804    1333.5324   0.07932027  0.079205955            3 
 1402000   0.99316215   -3.1455618    1328.1563  0.078944143   0.07919523            2 
 1403000    1.0140566   -3.1574725    1338.5343  0.079504295  0.079184387            2 
 1404000    1.0348151   -3.1221616    1332.5043  0.079089762  0.079173784            2 
 1405000     1.003617   -3.1317463    1329.1285  0.078833245  0.079162933            2 
 1406000     1.031473   -3.1304798    1331.9742  0.078945841  0.079152098            2 
 1407000    1.0471964   -3.1306339    1338.7157  0.079289012   0.07914102            1 
 1408000    1.0133102   -3.1453551    1331.3792  0.078798484  0.079130027            2 
 1409000     1.027014   -3.1308249    1337.2204  0.079088031  0.079119102            1 
 1410000    1.0211932   -3.1424215     1340.992  0.079254844  0.079108216            1 
 1411000    1.0354927   -3.1244664    1343.7186  0.079359709  0.079097753            3 
 1412000     1.027718   -3.1549521    1340.5669  0.079117498  0.079086945            3 
 1413000    1.0217869   -3.1493651    1340.7945  0.079074927  0.079076167            2 
 1414000   0.99297563   -3.1787914    1337.0006  0.078795417  0.079065278            2 
 1415000     1.007719    -3.132501    1347.7285  0.079371528  0.079054803            4 
 1416000    1.0133039    -3.166157    1333.0037    0.0784489  0.079044351            2 
 1417000    1.0428095   -3.1463728    1342.6118  0.078958585  0.079033327            3 
 1418000    1.0255913   -3.1342162    1349.2387  0.079292357  0.079022729            3 
 1419000    1.0448374   -3.1563281    1350.7083  0.079322779  0.079012468            3 
 1420000    1.0297397   -3.1280974    1350.6559  0.079263846  0.079002366            1 
 1421000    1.0170998   -3.1377873    1348.0451  0.079054954  0.078992062            1 
 1422000    1.0335877   -3.1363024    1351.8987  0.079225193  0.078981888            2 
 1423000    1.0153938   -3.1706691    1350.9385  0.079113288  0.078971675            1 
 1424000    1.0206982   -3.1726878    1344.7852  0.078697634  0.078961412            2 
 1425000    1.0398396    -3.125351    1353.3753  0.079144753  0.078951128            1 
 1426000    1.0288491   -3.1588164    1353.1994  0.079078974  0.078941918            2 
 1427000     1.021939   -3.1582097    1351.0943  0.078900623  0.078932088            3 
 1428000    1.0244734   -3.1309532     1359.881  0.079358133  0.078921763            2 
 1429000    1.0263947   -3.1607477    1356.1257   0.07908361  0.078911407            2 
 1430000    1.0279837   -3.1571733     1353.721  0.078888171  0.078900696            7 
 1431000    1.0120904   -3.1145165    1353.2167  0.078803673  0.078890205            3 
 1432000    1.0489263   -3.1689138    1352.4387  0.078703369  0.078879565            2 
 1433000     1.014342   -3.1606847    1352.5781  0.078656554  0.078868781            3 
 1434000     1.020589   -3.1389478    1351.1768  0.078520271  0.078858072            4 
 1435000    1.0098549   -3.1249089    1355.9641  0.078743558  0.078847008            2 
 1436000    1.0023208    -3.090122    1362.0623   0.07904261  0.078836429            3 
 1437000    1.0094717   -3.1459595    1356.1121  0.078642548  0.078825417            2 
 1438000    1.0238133   -3.1729037    1357.4325   0.07866438  0.078814198            2 
 1439000     1.022062   -3.1330957    1362.5059  0.078903513  0.078803109            2 
 1440000    1.0436542    -3.143814    1357.8517  0.078579383    0.0787926            7 
 1441000    1.0342409   -3.1447517     1360.145  0.078657471   0.07878178            2 
 1442000    1.0038848   -3.1474353    1362.9331  0.078764047  0.078770775            4 
 1443000   0.99627287   -3.1242593    1367.4014   0.07896751  0.078759242            3 
 1444000    1.0067994    -3.181299    1356.7178  0.078296272  0.078748181            4 
 1445000    1.0182153   -3.1282561    1362.0436  0.078549225  0.078736832            2 
 1446000    1.0399029   -3.1112563    1364.3237   0.07862631  0.078726173            5 
 1447000    1.0349685   -3.1619146    1365.7652  0.078654985  0.078715508            3 
 1448000   0.99762097   -3.1703706    1365.4745  0.078583938  0.078704417            4 
 1449000    1.0405223   -3.1447335    1363.0697  0.078391404  0.078693278            1 
 1450000     1.035748   -3.1435683      1366.06  0.078509196  0.078681942            3 
 1451000    1.0158349   -3.1590384    1372.4732  0.078823412  0.078670743            3 
 1452000     1.030977   -3.1579378    1369.3625  0.078590596  0.078659664            4 
 1453000    1.0243531   -3.1527027    1371.9689  0.078685988   0.07864904            4 
 1454000    1.0444821   -3.1641493    1373.8732  0.078741011  0.078638558            2 
 1455000   0.99952662    -3.187731    1369.4052  0.078430997  0.078627928            2 
 1456000    1.0267794   -3.1786377    1370.5313  0.078441581  0.078616802            2 
 1457000     1.024461   -3.1749444    1373.1203   0.07853582  0.078605899            3 
 1458000    1.0311926   -3.1315824    1380.8634  0.078924521  0.078595027            1 
 1459000     1.024669   -3.1609015     1374.222  0.078491092  0.078584296            2 
 1460000    1.0176729   -3.1292586    1379.0893  0.078715144  0.078573354            3 
 1461000    1.0520373   -3.1761849    1374.7537  0.078413969  0.078562885            3 
 1462000    1.0087139   -3.1547422    1373.5218  0.078290114  0.078552237            1 
 1463000   0.97661695   -3.1457343    1373.3162  0.078224892  0.078541384            1 
 1464000    1.0131455   -3.1437463    1378.2882  0.078454474  0.078530597            2 
 1465000    1.0137162   -3.1458957    1377.5521  0.078359053  0.078519819            4 
 1466000    1.0381663   -3.1643702    1387.6686  0.078880663  0.078509371            2 
 1467000    1.0199524   -3.1311513    1381.8409  0.078495848  0.078498703            2 
 1468000    1.0484949   -3.1748658     1379.081  0.078285707   0.07848831            2 
 1469000    1.0124518   -3.1586371    1379.3064  0.078245202  0.078477672            1 
 1470000   0.99853635   -3.1531804    1387.4849  0.078655604  0.078467279            3 
 1471000    1.0156071   -3.1210681    1384.5933  0.078438322  0.078456212            2 
 1472000    1.0443904   -3.1530007    1387.6739  0.078559438  0.078445753            1 
 1473000    1.0016155   -3.1622977    1388.3447  0.078544053  0.078434875            2 
 1474000    1.0161238   -3.1758308    1387.2779  0.078430455  0.078424292            4 
 1475000   0.99405835   -3.1726296     1386.817  0.078351243  0.078413464            1 
 1476000    1.0321148    -3.171363    1387.6515  0.078345273   0.07840264            4 
 1477000    1.0045971   -3.1486516    1391.7584  0.078523946  0.078391746            2 
 1478000    1.0234788   -3.1407933    1388.4521  0.078284397  0.078380572            2 
 1479000    1.0126833   -3.1430113    1390.1758  0.078328592  0.078369417            2 
 1480000    1.0344422    -3.158597    1390.0931  0.078271006  0.078358241            2 
 1481000     1.013372    -3.154231    1386.4532  0.078013349  0.078346674            2 
 1482000    1.0151114   -3.1391822    1390.1807  0.078170303  0.078335422            3 
 1483000    1.0257966   -3.1448371    1398.1827  0.078567247  0.078324156            1 
 1484000    1.0170853   -3.1469126    1388.5882  0.077975526  0.078313063            2 
 1485000    1.0083974   -3.1543315    1393.4644  0.078196653  0.078302449            2 
 1486000    1.0176416   -3.1663598     1402.887  0.078672444  0.078291913            1 
 1487000   0.98598441    -3.146006     1402.837  0.078616734  0.078281386            3 
 1488000    1.0285651   -3.1534879    1400.5628  0.078436539   0.07827054            2 
 1489000    1.0116518   -3.1412403     1395.836  0.078119318  0.078259583            3 
 1490000    1.0162437   -3.1773706    1396.0412  0.078078368  0.078248608            4 
 1491000    1.0124901   -3.1550955    1398.3389  0.078154423  0.078237833            2 
 1492000    1.0019577   -3.1636708    1400.0823  0.078199412  0.078226762            2 
 1493000    1.0100328   -3.1568144     1399.817  0.078132231  0.078215768            2 
 1494000    1.0034542   -3.1668089    1397.2795  0.077938392   0.07820496            5 
 1495000    1.0044724   -3.1667931    1401.5989  0.078127027  0.078194128            4 
 1496000    1.0154498    -3.171515    1402.8227  0.078142976  0.078182636            4 
 1497000    1.0120558   -3.1802769    1401.1324  0.077996682  0.078171031            5 
 1498000    1.0039079   -3.1442825    1402.8051  0.078037667  0.078159448            2 
 1499000   0.98495179   -3.1475009    1406.1461  0.078171342  0.078147891            3 
 1500000    1.0019412   -3.1700592    1405.7757  0.078098651  0.078136442            1 
 1501000   0.99751287   -3.1613347    1403.7513  0.077934229  0.078125098            2 
 1502000    1.0228694   -3.1690174    1406.1664  0.078016333  0.078114094            5 
 1503000    1.0046988   -3.1654498    1405.4926  0.077927067  0.078102703            2 
 1504000   0.98883283   -3.1354766    1408.0532  0.078017132  0.078091177            2 
 1505000    1.0127347   -3.1578869    1401.7195  0.077614591  0.078079308            6 
 1506000    1.0252554   -3.1649402    1405.0075  0.077744991  0.078067868            5 
 1507000    1.0380004   -3.1336207    1410.6608  0.078006015   0.07805582            2 
 1508000   0.99746645    -3.170897     1412.274  0.078043433  0.078044231            2 
 1509000    1.0089924   -3.1562404    1404.2364  0.077547844  0.078032244            3 
 1510000    1.0196077   -3.1450401     1413.003  0.077980298  0.078020611            3 
 1511000    1.0023773   -3.1262606    1408.2916  0.077668853   0.07800929            5 
 1512000    1.0011297   -3.1310155    1415.3998  0.078009247  0.077997706            2 
 1513000    1.0226795   -3.1841385    1414.3023  0.077897238  0.077986299            2 
 1514000    1.0253316   -3.1616482    1412.5303  0.077748253  0.077974625            3 
 1515000    1.0125762   -3.1491664    1416.5284  0.077916855  0.077962974            2 
 1516000    1.0085871   -3.1421252    1415.8502  0.077828177  0.077951561            3 
 1517000    1.0173434   -3.1744562    1416.7482  0.077826202  0.077940365            5 
 1518000    1.0062998   -3.1600654    1418.8251  0.077888949  0.077929414            4 
 1519000    1.0327872   -3.1811828    1417.0448  0.077740002  0.077918221            2 
 1520000   0.99903421   -3.1680378    1418.2277  0.077753714  0.077906844            1 
 1521000    1.0161967   -3.1954928    1418.8339  0.077735805  0.077895582            2 
 1522000    1.0246364    -3.153117    1424.6995  0.078005886  0.077884422            2 
 1523000    1.0193098   -3.1650798    1420.0726  0.077701501   0.07787378            2 
 1524000    1.0006287   -3.1864361     1418.913  0.077587106  0.077862537            2 
 1525000    1.0211406   -3.1802124    1418.9354  0.077537453  0.077851021            4 
 1526000   0.99676185   -3.1551562    1425.3591  0.077837434   0.07784003            1 
 1527000    1.0050973   -3.1664328    1433.3749  0.078223911  0.077829216            3 
 1528000    1.0018645   -3.2054301    1426.5337  0.077799613  0.077818252            3 
 1529000     1.018597   -3.1744033    1426.6078  0.077752768  0.077807412            3 
 1530000    1.0190575   -3.1787996    1430.0445  0.077889134  0.077796516            2 
 1531000    1.0062219   -3.1806195    1424.2626  0.077523548  0.077785671            2 
 1532000    1.0102588   -3.1881547     1430.627  0.077819135  0.077774666            4 
 1533000     1.019605    -3.189409    1434.8794   0.07799953   0.07776384            3 
 1534000   0.99838097   -3.1742049    1430.2721  0.077698399  0.077752999            6 
 1535000    1.0319323   -3.1836788    1434.7457  0.077890644  0.077742634            4 
 1536000    1.0023822   -3.1802423    1426.6702  0.077401811  0.077732281            4 
 1537000    1.0130113   -3.1616494     1437.964  0.077963782  0.077721494            2 
 1538000    1.0120948   -3.1526053    1435.3903  0.077773639  0.077710569            2 
 1539000    1.0003453   -3.1707275    1433.3457  0.077612396  0.077699659            2 
 1540000    1.0064182   -3.1735367    1440.5503  0.077951855  0.077688702            3 
 1541000    1.0098356   -3.1742688    1430.6959  0.077368371  0.077678269            2 
 1542000    1.0092332   -3.1783262    1440.7912  0.077863771  0.077667507            1 
 1543000    1.0272682    -3.170125    1437.8019  0.077651866  0.077656661            3 
 1544000    1.0121606    -3.170189    1437.0432  0.077560624  0.077645674            8 
 1545000    1.0164001   -3.1614282    1437.3587  0.077527438  0.077635131            3 
 1546000    1.0020107   -3.1689002    1435.3224  0.077367529  0.077624527            3 
 1547000   0.98599205   -3.2096949    1438.8104  0.077505408  0.077613431            4 
 1548000    1.0027456   -3.1690546    1441.2118  0.077584615  0.077602554            5 
 1549000   0.99320709   -3.1774012     1436.614  0.077287175  0.077591856            7 
 1550000   0.99562526   -3.1684061    1441.0118  0.077473753  0.077580859            3 
 1551000    1.0210228   -3.1406144    1445.8292  0.077682637  0.077570034            5 
 1552000    1.0075674   -3.2010773    1446.6691  0.077677677  0.077559434            5 
 1553000    1.0053557   -3.1464255    1451.2486  0.077873398   0.07754876            2 
 1554000    1.0068114   -3.1755346     1447.157  0.077603874  0.077538227            2 
 1555000    1.0067929   -3.1678952    1450.5538  0.077736001  0.077527532            2 
 1556000    1.0219623   -3.1403423    1452.2592   0.07777738  0.077516896            2 
 1557000   0.99316149   -3.1709352    1450.6045   0.07763886  0.077506764            1 
 1558000   0.99622925   -3.1834178    1452.9573  0.077714873  0.077496133            2 
 1559000    1.0167133   -3.1818963    1447.8551  0.077392299   0.07748588            2 
 1560000    1.0021648   -3.1739356    1456.0129  0.077778466  0.077475253            2 
 1561000    1.0179327   -3.1766163    1451.8914  0.077508617  0.077465315            2 
 1562000   0.98962733   -3.1731127    1459.0926   0.07784318  0.077455056            2 
 1563000    1.0239201   -3.1628271    1453.6588  0.077503665  0.077445133            2 
 1564000   0.98781376   -3.1504336    1461.5081  0.077872339   0.07743465            1 
 1565000    1.0110292   -3.1709167    1463.5642  0.077932063  0.077424562            3 
 1566000   0.99288746   -3.1734392    1456.8394  0.077524448  0.077414226            2 
 1567000    1.0033636   -3.1656598    1453.8703  0.077317076  0.077403794            3 
 1568000   0.99013572   -3.1809087     1455.099  0.077333068  0.077393205            2 
 1569000   0.97867982   -3.1961094    1453.7614  0.077212736  0.077382459            4 
 1570000    1.0021732   -3.1697207    1459.0381  0.077443636  0.077371917            3 
 1571000   0.96985261   -3.2013002    1457.0686   0.07728987  0.077361489            2 
 1572000   0.96554617   -3.1477277    1464.3046  0.077624289  0.077351146            3 
 1573000   0.99303685   -3.1725136    1457.7767  0.077229113  0.077340776            3 
 1574000   0.98778744   -3.1749721    1458.5517  0.077221076  0.077330548            3 
 1575000    1.0156481   -3.1604732    1458.6357  0.077176492  0.077320126            3 
 1576000   0.99669375   -3.1753001    1466.1391  0.077524278  0.077309771            2 
 1577000   0.99314354    -3.178454    1466.1982  0.077478239  0.077299549            3 
 1578000   0.98969977   -3.1763731    1461.7443  0.077193933  0.077288956            2 
 1579000   0.99676283    -3.187811    1460.4247  0.077075402   0.07727836            2 
 1580000     1.009172   -3.1692177    1469.4354  0.077501867  0.077267692            2 
 1581000   0.98811195   -3.1800536    1465.7403  0.077258081   0.07725691            2 
 1582000   0.98787918   -3.1848261    1464.4095  0.077139143   0.07724637            4 
 1583000   0.99729535    -3.184077     1468.611   0.07731159  0.077235428            2 
 1584000    0.9993358   -3.1873112    1462.9962  0.076967391  0.077224785            3 
 1585000    1.0193377   -3.2028909    1464.9309  0.077020552  0.077213994            1 
 1586000    0.9692998   -3.1897972     1466.523  0.077055644  0.077203029            3 
 1587000    0.9837992   -3.1722777    1468.2131  0.077095836  0.077192124            3 
 1588000    1.0013713   -3.1724921    1470.5879  0.077171909  0.077181799            3 
 1589000     1.007356   -3.2039505    1468.1197  0.076993903  0.077171203            5 
 1590000   0.98019351   -3.1745806    1478.9594  0.077513596  0.077160372            3 
 1591000   0.97953605   -3.1942845    1469.9573  0.076993362  0.077149444            3 
 1592000   0.98339059   -3.1534001     1479.322  0.077435198   0.07713848            1 
 1593000   0.99542412   -3.1660361    1475.9856  0.077212053  0.077127622            2 
 1594000   0.99958058   -3.2079682      1473.75  0.077046738  0.077116599            3 
 1595000    1.0194931   -3.1846046    1473.2751  0.076973621  0.077105434            2 
 1596000    1.0065732   -3.1727001      1476.61  0.077099519  0.077094673            2 
 1597000   0.99232298   -3.1951573    1478.2719  0.077137961  0.077084134            2 
 1598000   0.95941485   -3.1774659    1484.4627  0.077412529   0.07707314            3 
 1599000   0.98726103   -3.1634249    1478.9064  0.077074545  0.077062458            5 
 1600000      0.99551   -3.2005584    1475.6787  0.076858266   0.07705143            4 
 1601000   0.99511329   -3.1743213    1479.2608   0.07699671   0.07704034            2 
 1602000   0.99197011   -3.1561203     1477.472  0.076855596  0.077029504            2 
 1603000   0.97914399   -3.1947428    1477.3404  0.076800811  0.077018168            3 
 1604000   0.97935714   -3.1933928    1471.0808   0.07642772  0.077006678            3 
 1605000    1.0003351   -3.1634126    1478.3202  0.076755982  0.076995421            1 
 1606000   0.98564542   -3.1874704    1482.5318   0.07692672  0.076984404            4 
 1607000   0.99494074   -3.1871359     1481.386  0.076819436  0.076973251            3 
 1608000    1.0071811   -3.1721012    1480.4523  0.076723272   0.07696192            3 
 1609000   0.99490669   -3.1931638    1484.3377  0.076876821  0.076951066            3 
 1610000   0.95881352   -3.1771681    1489.6691  0.077105027  0.076939793            2 
 1611000   0.97984584   -3.2161921    1484.4621  0.076787819  0.076928726            3 
 1612000   0.98630311   -3.2057388    1487.3748  0.076890759  0.076917351            2 
 1613000   0.98822385   -3.2109911    1489.1892  0.076936826  0.076906139            3 
 1614000   0.97906572   -3.2166361    1483.6077  0.076600973  0.076894882            3 
 1615000    1.0226321   -3.1953031    1487.8536  0.076772631  0.076883966            1 
 1616000   0.99178731   -3.1652623    1492.4078  0.076959974  0.076873229            4 
 1617000   0.99329933   -3.2060574    1487.7248  0.076671035  0.076861989            3 
 1618000   0.98543359   -3.2083498     1492.689  0.076879327  0.076851422            4 
 1619000   0.97974147   -3.2203598    1483.4663  0.076357131  0.076840495            2 
 1620000   0.99707988   -3.1789637    1496.0516  0.076957389  0.076829523            2 
 1621000    1.0012215   -3.1573413    1494.6555  0.076838142  0.076818836            4 
 1622000   0.99508092   -3.1600532    1496.5437   0.07688778  0.076807948            2 
 1623000   0.98878814   -3.1758486    1497.9249  0.076911323  0.076797055            1 
 1624000    0.9967855   -3.1637594    1496.3809  0.076784732  0.076785784            2 
 1625000   0.99545649   -3.1759846    1488.8835     0.076353  0.076775001            5 
 1626000   0.97966857   -3.1888103    1501.4769  0.076951462   0.07676411            2 
 1627000   0.98805219   -3.1821784    1491.7762  0.076407303  0.076752892            2 
 1628000   0.99384076   -3.1612625     1496.427  0.076598436  0.076742277            2 
 1629000   0.99656799   -3.1789873    1502.7892  0.076876875  0.076731411            2 
 1630000    0.9959876   -3.1712516    1509.6838  0.077182199  0.076720494            2 
 1631000   0.98790018   -3.2073872    1496.0222  0.076436858  0.076709644            4 
 1632000   0.95607313   -3.1433732     1503.054  0.076749079  0.076698933            2 
 1633000   0.98720596   -3.2068426    1502.1197  0.076654406  0.076687862            5 
 1634000    1.0100778   -3.1823511    1499.7678  0.076487545  0.076677006            3 
 1635000    0.9753895   -3.1991423    1499.8092  0.076442873  0.076665765            3 
 1636000   0.98083207   -3.1905624    1498.0299  0.076305517  0.076654429            5 
 1637000   0.98941554   -3.2081799    1501.5056  0.076435838  0.076642766            4 
 1638000   0.97751719   -3.2043482    1507.5751  0.076697962  0.076631284            2 
 1639000    0.9951106   -3.2042979     1503.274  0.076432479  0.076620098            2 
 1640000    1.0041645   -3.2002524    1508.3846  0.076645558  0.076609176            3 
 1641000    1.0046703   -3.1824217    1504.8445  0.076419079  0.076598023            5 
 1642000   0.98180394   -3.1880103    1510.8776  0.076678725  0.076586928            3 
 1643000   0.98401207    -3.200712    1507.2081  0.076445937  0.076575696            2 
 1644000    1.0091778   -3.1967215    1503.8372  0.076228568  0.076564356            5 
 1645000     1.002193   -3.1696554    1509.3797  0.076463004     0.076553            3 
 1646000   0.99134018   -3.1802155    1510.0663  0.076451309   0.07654175            1 
 1647000   0.99871711   -3.2139526    1511.2691  0.076465749  0.076530043            2 
 1648000   0.97147951   -3.1876501    1506.9482  0.076200858  0.076518632            6 
 1649000   0.98609259   -3.1904859    1508.1359  0.076214671  0.076507278            2 
 1650000   0.98361795   -3.1859946    1515.1218  0.076521301  0.076495967            4 
 1651000   0.98542837   -3.1936864    1515.9996  0.076519263  0.076484453            2 
 1652000   0.99227633   -3.2156656    1509.5667  0.076148443  0.076472392            4 
 1653000    0.9856632   -3.1929364    1513.5982  0.076305616  0.076460735            2 
 1654000   0.97662919   -3.2139566    1516.8539  0.076423515  0.076449343            3 
 1655000   0.98017798   -3.2362832    1509.1601  0.075989934  0.076437855            2 
 1656000   0.99905828   -3.1906702    1519.2403  0.076451302   0.07642615            3 
 1657000    0.9673983   -3.2014615    1518.5776  0.076371837  0.076414529            3 
 1658000   0.97711753   -3.2053655    1517.8194  0.076287664  0.076403209            4 
 1659000   0.99632351   -3.2196168    1519.4007  0.076321111  0.076391548            3 
 1660000   0.97932999   -3.2041445    1516.6485  0.076136973  0.076380403            2 
 1661000   0.98433505    -3.200466    1517.0505  0.076111303  0.076368788            3 
 1662000   0.99582258   -3.1758998    1519.3191  0.076179256  0.076357514            2 
 1663000    0.9776851   -3.1905901    1518.2407  0.076079412  0.076346018            1 
 1664000    0.9780049   -3.1919365     1522.944  0.076269232   0.07633426            4 
 1665000    0.9882332   -3.2078489    1517.2735  0.075939616  0.076322777            2 
 1666000   0.96455095   -3.2150083    1518.6832  0.075964545  0.076311286            2 
 1667000   0.99350411   -3.1906848    1527.0873  0.076339097  0.076299947            2 
 1668000   0.98958109    -3.196568    1524.7701  0.076177564  0.076288519            3 
 1669000     0.968458   -3.2000126    1524.6877  0.076127804  0.076277303            4 
 1670000   0.98500315   -3.2042436    1523.7755  0.076036703  0.076266276            4 
 1671000   0.95591965   -3.1886999    1529.4959  0.076276477  0.076255046            3 
 1672000   0.97354721   -3.1950413    1525.4156  0.076027492  0.076243799            9 
 1673000    0.9818904   -3.1736658     1526.081  0.076015192  0.076232389            1 
 1674000    0.9861285   -3.2130274    1527.0746  0.076019245  0.076220865            1 
 1675000   0.99706462   -3.2074659    1525.1905  0.075880125  0.076209304            5 
 1676000   0.99387491   -3.1940712    1527.0474  0.075927176  0.076197364            2 
 1677000   0.97153049   -3.1907914     1529.772  0.076017294  0.076185692            4 
 1678000   0.99973878   -3.1945765    1531.3467  0.076050191  0.076174034            2 
 1679000    1.0044152   -3.2036588    1525.1368  0.075696683  0.076162284            2 
 1680000    0.9792012   -3.1925646    1532.3288  0.076008371  0.076150916            2 
 1681000    1.0102504   -3.2013351    1535.5244  0.076121574  0.076139493            3 
 1682000    0.9630334   -3.1722692    1529.8125  0.075793325  0.076128097            3 
 1683000   0.98872576   -3.2219636    1526.5864  0.075588554  0.076116404            2 
 1684000   0.99596958   -3.2176046    1531.2017  0.075772056   0.07610452            3 
 1685000    1.0083381       -3.189    1533.9628  0.075863641    0.0760927            4 
 1686000   0.97988109   -3.1917669    1533.9286  0.075816953  0.076080931            3 
 1687000   0.99154183   -3.2202144    1528.6912  0.075513296  0.076068789            6 
 1688000   0.96579314   -3.2092335    1533.8858  0.075725012  0.076057175            2 
 1689000   0.98514389   -3.1832925    1533.9688   0.07568427  0.076045311            4 
 1690000   0.98587505    -3.202621    1534.5946  0.075670347  0.076033373            3 
 1691000   0.97257195   -3.2114991    1538.5279  0.075819431  0.076021605            4 
 1692000   0.99384274   -3.2102507     1538.662  0.075781224   0.07600953            1 
 1693000   0.97560298   -3.1802597    1543.1182  0.075955807  0.075998215            3 
 1694000    0.9920896   -3.2133472    1540.9374   0.07580369  0.075986519            3 
 1695000    1.0002142   -3.2118248     1541.813  0.075802016  0.075975136            4 
 1696000   0.97580831   -3.1854575    1541.7405  0.075753758  0.075963896            3 
 1697000   0.98196243   -3.1797168    1543.3628  0.075788784  0.075952738            2 
 1698000   0.98847103   -3.2112199    1542.5346  0.075703505  0.075941217            4 
 1699000   0.96999956   -3.2249535    1544.3336  0.075747187  0.075929796            3 
 1700000   0.98412822   -3.2217538    1545.7159  0.075770385  0.075918708            2 
 1701000   0.97425779   -3.1820454    1551.3225  0.076000513  0.075907973            2 
 1702000   0.97955673   -3.1999452    1546.2189  0.075705978  0.075897344            2 
 1703000   0.96770786   -3.2019617    1553.1086  0.075998659  0.075886459            7 
 1704000   0.97924157   -3.1987694    1556.1532  0.076102953  0.075875707            2 
 1705000    0.9885784   -3.2509438    1542.8978  0.075410448   0.07586469            3 
 1706000   0.97886741   -3.1955999    1552.0305  0.075812354  0.075853378            5 
 1707000   0.98403177   -3.1971818    1548.5527  0.075598159  0.075842257            2 
 1708000   0.97174503   -3.2163478    1554.4259  0.075840453  0.075831287            4 
 1709000   0.98911677   -3.2129814     1559.158  0.076026816  0.075820313            3 
 1710000    0.9968613    -3.191292    1557.5058  0.075901841  0.075809449            3 
 1711000   0.96091746   -3.2114793    1559.2593  0.075942886  0.075798825            3 
 1712000   0.96929941   -3.2018282    1563.5914  0.076109396  0.075787853            4 
 1713000   0.97682106     -3.22645    1554.9151  0.075642881  0.075777289            2 
 1714000   0.99070848   -3.2005639    1556.4771  0.075674692  0.075766441            3 
 1715000   0.99641144   -3.2257737    1562.4963  0.075923048  0.075755436            2 
 1716000    0.9936381   -3.2054855    1564.3046  0.075966617  0.075744582            2 
 1717000   0.95839612    -3.199192    1562.2828  0.075824249  0.075733655            3 
 1718000   0.97221281   -3.2215783     1560.742  0.075705376  0.075722579            2 
 1719000   0.96937245   -3.2130875    1560.0065  0.075625679  0.075711481            2 
 1720000    0.9565822   -3.2056696    1566.9225  0.075916787  0.075700589            2 
 1721000   0.97182409   -3.2369734    1555.6969  0.075329116  0.075689618            3 
 1722000   0.97433621   -3.2174471    1561.3849  0.075560632  0.075678377            2 
 1723000   0.97291573    -3.197337    1568.5064  0.075861213  0.075667531            2 
 1724000   0.98394097   -3.2013273    1569.2481   0.07585306  0.075656893            3 
 1725000   0.96862604    -3.213129    1564.1339  0.075562023  0.075645991            2 
 1726000   0.97762243   -3.2237996    1565.7184  0.075594748  0.075635154            3 
 1727000   0.97508334   -3.2263481    1564.0485  0.075470396  0.075624471            4 
 1728000   0.96699856    -3.191144    1567.3713  0.075586966  0.075613351            1 
 1729000   0.98117663   -3.1793064    1575.3858  0.075929526  0.075603028            1 
 1730000    0.9882893    -3.204622    1563.9149  0.075333088  0.075592377            4 
 1731000   0.98106482   -3.2118703    1574.7285  0.075810151   0.07558171            2 
 1732000   0.95740227    -3.213214    1566.6092  0.075375729  0.075571062            2 
 1733000   0.96473211   -3.2126983    1571.9956   0.07559125  0.075560661            2 
 1734000   0.97324185   -3.1835496    1569.1516  0.075410978  0.075550085            4 
 1735000   0.95845226   -3.2092021    1576.4841  0.075719695  0.075539299            3 
 1736000   0.98288888   -3.2325197    1570.7081  0.075398816  0.075528648            2 
 1737000   0.96740427    -3.185269    1576.1043  0.075614293   0.07551757            3 
 1738000   0.94864586    -3.213517    1572.9261  0.075418399  0.075506512            2 
 1739000   0.97255022   -3.1977377    1579.2384  0.075677514  0.075495615            5 
 1740000   0.96009935   -3.1887105    1575.5676   0.07545822  0.075484611            4 
 1741000   0.96887176    -3.232222     1572.965  0.075290304  0.075473371            2 
 1742000   0.98053245   -3.2089045    1574.0899  0.075300893  0.075462042            3 
 1743000   0.97328217   -3.2437857    1573.8687  0.075247116  0.075450901            2 
 1744000    0.9826132   -3.2196854    1576.0191  0.075306725  0.075439687            3 
 1745000   0.96624536   -3.2052506    1576.9998  0.075310403  0.075428469            4 
 1746000   0.97855317   -3.2039506    1577.4739  0.075289896  0.075417982            5 
 1747000   0.97874005   -3.2243958    1578.9742  0.075318366  0.075406972            3 
 1748000   0.96316379   -3.2130991    1579.7323   0.07531142  0.075396108            3 
 1749000   0.97280956   -3.2170475    1575.6604  0.075074347   0.07538515            2 
 1750000   0.95978858   -3.2398298    1578.1672  0.075150821  0.075373919            2 
 1751000   0.99749697   -3.2169721      1584.38  0.075403577  0.075362768            2 
 1752000   0.97050308   -3.2048669    1584.3487  0.075359052  0.075351792            2 
 1753000   0.98130365   -3.2065036    1582.5503  0.075230574  0.075340378            2 
 1754000   0.95099831   -3.2197201     1577.142  0.074930731  0.075329322            3 
 1755000   0.97365791   -3.2043735    1587.9659   0.07540199  0.075317939            2 
 1756000    0.9647194   -3.2306166    1577.1858  0.074847466   0.07530635            2 
 1757000   0.96098635   -3.2102786    1582.2603  0.075045545  0.075295023            1 
 1758000   0.98397954   -3.2223256     1581.444  0.074964166  0.075283629            2 
 1759000   0.95723121   -3.2135103    1584.9924  0.075089652  0.075272118            6 
 1760000   0.95737656   -3.2131021    1588.6248  0.075218975   0.07526063            3 
 1761000   0.97855642   -3.2284906    1577.1484   0.07463318  0.075249173            2 
 1762000   0.95811521   -3.2309306    1580.2123   0.07473573  0.075237235            7 
 1763000   0.97447655   -3.2041279    1591.5732  0.075230348  0.075225464            1 
 1764000   0.97974634   -3.2276124     1582.266  0.074748017  0.075213661            5 
 1765000   0.97710955   -3.2153837    1586.8346  0.074921371  0.075201909            2 
 1766000    0.9509537    -3.208965    1582.7436  0.074685899  0.075190327            5 
 1767000   0.97920326   -3.2256774     1583.486  0.074678646  0.075178579            2 
 1768000   0.96988801   -3.1973373      1591.99  0.075037234  0.075166839            4 
 1769000   0.96426702   -3.2383212    1587.3868  0.074777973  0.075155043            3 
 1770000   0.96898419   -3.2124134     1590.558  0.074885026  0.075143143            5 
 1771000   0.94835173   -3.2164927    1591.6725  0.074895188  0.075131411            3 
 1772000   0.96576887   -3.2333969    1588.9017  0.074722614  0.075119656            3 
 1773000    0.9543551   -3.2274483    1587.6514  0.074621707  0.075108055            3 
 1774000   0.98132699   -3.1856694    1594.4597  0.074899462  0.075096339            3 
 1775000   0.96949183   -3.2324281    1592.9161  0.074784794  0.075084595            1 
 1776000   0.96391941   -3.2051315    1590.3389  0.074621758  0.075072987            4 
 1777000   0.98621562   -3.2308728    1597.2697   0.07490479  0.075061021            2 
 1778000   0.94633115   -3.2222265    1596.4892  0.074826079  0.075049353            2 
 1779000   0.96725654   -3.2176042    1595.6535  0.074744869  0.075037322            2 
 1780000   0.97728993   -3.2546763    1605.6789  0.075172232  0.075025437            2 
 1781000   0.97693612   -3.2265927    1599.7241  0.074851398  0.075013921            2 
 1782000   0.96436639   -3.1825172     1608.415  0.075215816  0.075001996            3 
 1783000   0.96825263   -3.2301774    1596.3498  0.074609731  0.074990307            4 
 1784000   0.95337736   -3.2072901    1597.7768  0.074634566  0.074978622            3 
 1785000   0.97224506   -3.1781926    1606.8964  0.075018506  0.074967057            3 
 1786000   0.95580245    -3.196531    1603.7556  0.074829955  0.074955427            1 
 1787000     0.995175   -3.2259438    1604.5684  0.074825986  0.074943636            1 
 1788000   0.94723116   -3.2251092    1607.1049  0.074902354   0.07493204            3 
 1789000    0.9759515   -3.2216065    1604.1736  0.074723945  0.074920571            4 
 1790000   0.96313917   -3.2330919    1606.2793  0.074780226  0.074908713            2 
 1791000    0.9935113   -3.2048596    1597.4226  0.074326383  0.074896749            2 
 1792000   0.98763531    -3.239247    1601.7642  0.074486802  0.074884776            2 
 1793000   0.95286031   -3.2299933    1602.3363  0.074471851  0.074873041            1 
 1794000   0.94361227   -3.1942636    1606.2322  0.074611304  0.074860854            2 
 1795000   0.97537408   -3.2253083     1611.337  0.074806733  0.074848717            4 
 1796000    0.9678297   -3.2108811    1607.3717  0.074581093  0.074836485            2 
 1797000   0.95187054   -3.2139226     1602.618  0.074319144  0.074824971            2 
 1798000   0.96174652   -3.1995797     1606.182   0.07444299  0.074812746            2 
 1799000   0.96875927   -3.2106925    1608.8266  0.074524116  0.074800929            4 
 1800000   0.95731933   -3.2491789     1600.392  0.074092223   0.07478841            3 
 1801000   0.95848584   -3.2125164     1602.088  0.074129557  0.074775986            3 
 1802000   0.95606786   -3.2529614    1610.6333  0.074483597  0.074763585            6 
 1803000   0.96028374   -3.2159918    1614.0853  0.074601835  0.074751351            3 
 1804000   0.97530292   -3.2290511    1604.1903  0.074103396  0.074739005            1 
 1805000   0.96294782   -3.2107489    1612.0086  0.074423296  0.074726231            1 
 1806000   0.95579226   -3.2103698    1608.4907  0.074219761  0.074713579            2 
 1807000   0.96602307   -3.2289911    1613.7812  0.074422673  0.074701071            3 
 1808000    0.9793034   -3.2298937    1605.9947  0.074022618  0.074688366            2 
 1809000   0.95686515   -3.2133704    1613.9085  0.074346257  0.074675848            2 
 1810000   0.94778207    -3.253801    1608.1321  0.074039233  0.074663052            2 
 1811000   0.95339995     -3.21367     1609.515  0.074061982  0.074650316            3 
 1812000    0.9531792   -3.2165605    1612.2834  0.074148426  0.074637551            1 
 1813000    0.9755338   -3.2255819    1614.2618  0.074198464  0.074624892            2 
 1814000   0.94740788    -3.258701    1610.0607  0.073964568  0.074612177            8 
 1815000   0.93553439    -3.213696     1619.029  0.074335585  0.074599236            2 
 1816000    0.9488038   -3.2373261    1611.4562  0.073947147  0.074586177            4 
 1817000   0.99772373   -3.2232975    1612.6069  0.073959225   0.07457285            2 
 1818000   0.94858188   -3.2186625    1614.3877  0.074000168  0.074559712            3 
 1819000   0.95645541   -3.2439343     1618.377  0.074142249  0.074546387            3 
 1820000   0.96392556   -3.2406472    1614.3887  0.073918895   0.07453299            4 
 1821000   0.93855935   -3.2499762    1605.0306  0.073450055  0.074519453            3 
 1822000   0.94393251   -3.2162359    1619.4355  0.074068583  0.074506441            2 
 1823000   0.95927161   -3.2127419     1617.855  0.073955703  0.074493723            2 
 1824000   0.95563853   -3.2216881    1619.1304  0.073973429  0.074480951            7 
 1825000   0.95814524   -3.2299167    1616.0441  0.073791969  0.074468311            2 
 1826000   0.95541584   -3.2470489    1614.8423  0.073696709  0.074455216            2 
 1827000    0.9727915   -3.2232997    1621.1713  0.073945052  0.074442461            3 
 1828000   0.96640603    -3.220926    1622.5273  0.073966417  0.074429542            4 
 1829000   0.96392068   -3.2030671    1625.5719  0.074064694  0.074416782            2 
 1830000   0.97034153    -3.234191    1622.9652  0.073905519  0.074403852            3 
 1831000   0.95444085   -3.2284216    1622.6142  0.073849181  0.074390872            4 
 1832000   0.96969835    -3.236761    1622.1404   0.07378732  0.074377811            2 
 1833000   0.98143897   -3.2161174    1622.2703  0.073752969  0.074364656            3 
 1834000    0.9730724   -3.2521397    1619.1788  0.073572283  0.074351575            3 
 1835000   0.96453486   -3.2170095    1627.5415  0.073911968  0.074338506            2 
 1836000   0.97192547    -3.247068    1626.2371  0.073812505  0.074325409            3 
 1837000   0.92157634   -3.2135583    1630.8725  0.073982603  0.074312495            3 
 1838000   0.94827369   -3.2271048    1625.4636  0.073697118  0.074299693            6 
 1839000    0.9788462   -3.2739452    1626.6554  0.073711048  0.074286848            3 
 1840000   0.95909651    -3.241507    1624.4337  0.073570367  0.074273647            2 
 1841000   0.93552034    -3.255599    1626.1997  0.073610343  0.074260642            1 
 1842000   0.96968438   -3.2315776    1623.7473  0.073459431  0.074247485            3 
 1843000   0.96053319   -3.2591421    1632.6242  0.073820952  0.074234379            2 
 1844000   0.93593428   -3.2482406      1628.85  0.073610358  0.074221439            2 
 1845000   0.96119002   -3.2179017    1629.1781   0.07358528  0.074208284            2 
 1846000   0.97099119   -3.2274542    1638.3789  0.073960766  0.074195666            2 
 1847000   0.95306858   -3.2169054    1631.9729  0.073631695  0.074182788            3 
 1848000   0.96090515   -3.2326329    1633.2992  0.073651658  0.074170199            4 
 1849000   0.97517466    -3.229477    1627.8935  0.073368195  0.074157385            3 
 1850000    0.9539734    -3.220952    1636.8545  0.073732185  0.074144497            2 
 1851000   0.96394873   -3.2071261    1633.8255  0.073555983  0.074131634            6 
 1852000   0.96144937   -3.2268602    1633.1773  0.073487098  0.074119229            2 
 1853000   0.95024975   -3.2499262    1634.9441  0.073526898  0.074106484            1 
 1854000   0.96123631   -3.2310527    1637.9521   0.07362244  0.074094266            2 
 1855000   0.95896498   -3.2297819    1637.4732  0.073561239  0.074081767            1 
 1856000   0.96349649   -3.2585818    1640.0551  0.073637533  0.074069431            1 
 1857000   0.95407404   -3.2603016    1634.1771  0.073334102  0.074056818            6 
 1858000   0.93554605   -3.2236294    1635.6169  0.073359207  0.074044046            3 
 1859000   0.94492708   -3.2420083    1636.2972  0.073350241  0.074031103            4 
 1860000   0.96838717   -3.2475445    1642.6565  0.073595722  0.074018475            2 
 1861000   0.93794842   -3.2240322    1639.5632   0.07341766  0.074005843            5 
 1862000   0.93889325   -3.2424864    1636.7857  0.073253926  0.073993114            2 
 1863000   0.94882131    -3.233863     1641.571  0.073428654  0.073980217            2 
 1864000   0.94374519   -3.2285366    1644.7554  0.073531625  0.073967587            4 
 1865000    0.9543734   -3.2299702    1646.8566  0.073586084  0.073954763            2 
 1866000   0.96238139   -3.2426687    1647.4474  0.073573037  0.073942126            5 
 1867000   0.94745582   -3.2253552    1643.9034  0.073375442   0.07392954            3 
 1868000   0.96577692   -3.2290429    1649.7177  0.073595544  0.073916839            2 
 1869000   0.93714569   -3.2340679    1640.8223  0.073159545  0.073904233            3 
 1870000   0.96339399   -3.2643305    1646.9761  0.073394655   0.07389138            5 
 1871000   0.95438848   -3.2487949    1650.1024  0.073494674  0.073878894            2 
 1872000    0.9741483   -3.2500851    1646.5254   0.07329618   0.07386637            2 
 1873000   0.97674118   -3.2653991      1651.33  0.073470815  0.073853533            4 
 1874000   0.94766248   -3.2324705     1653.002   0.07350596  0.073841006            2 
 1875000   0.96136037   -3.2203811    1647.3927  0.073217455  0.073828637            2 
 1876000   0.92213498   -3.2690072    1650.0695  0.073297329  0.073815906            3 
 1877000   0.96322763   -3.2425348    1645.7702  0.073067404   0.07380325            2 
 1878000   0.95159861   -3.2246565    1652.7724  0.073339206  0.073790787            2 
 1879000   0.96601885   -3.2449622    1659.7152  0.073608089  0.073778554            3 
 1880000   0.95578514   -3.2307022    1657.5921  0.073474828  0.073765988            5 
 1881000   0.94111753   -3.2257953    1662.5107  0.073653674  0.073753559            2 
 1882000   0.95203101   -3.2530575    1656.6708  0.073355952  0.073741092            4 
 1883000   0.94282077   -3.2183393    1661.2078   0.07351778  0.073728881            4 
 1884000   0.93638876   -3.2252205    1661.1967   0.07347827  0.073716758            2 
 1885000   0.93082278   -3.2650973    1654.7819  0.073155699  0.073704395            3 
 1886000   0.93504967    -3.247775    1654.4395   0.07310178  0.073692057            2 
 1887000    0.9616952   -3.2523056    1661.5313  0.073376226  0.073679636            3 
 1888000    0.9393668    -3.242049    1656.9241   0.07313401  0.073667307            3 
 1889000   0.93379165   -3.2534246    1667.3165  0.073553755  0.073655025            2 
 1890000   0.94763093   -3.2511737    1666.0768  0.073460176  0.073643043            3 
 1891000   0.96135192   -3.2653743    1665.4314  0.073392887  0.073630668            5 
 1892000   0.95693122   -3.2321994    1665.2347  0.073345431   0.07361878            1 
 1893000    0.9691611   -3.2436837    1664.2191  0.073261977  0.073606685            3 
 1894000   0.95751918     -3.25853    1660.3287  0.073052126  0.073594381            3 
 1895000    0.9255019   -3.2432837    1665.1977  0.073227691  0.073581914            3 
 1896000   0.95464385   -3.2241317    1666.5995  0.073250681  0.073569882            4 
 1897000   0.95755272   -3.2330451    1674.7552   0.07357034  0.073557858            5 
 1898000   0.95413445   -3.2449108    1673.9266  0.073495197  0.073546028            5 
 1899000    0.9535656   -3.2630245    1666.7073  0.073139691  0.073533996            3 
 1900000   0.94085244   -3.2366144     1667.473   0.07313478  0.073521973            4 
 1901000   0.96380863    -3.237349    1676.8928   0.07350924  0.073510188            1 
 1902000   0.94693159   -3.2626577    1665.3624  0.072965404  0.073498545            2 
 1903000   0.93817052   -3.2396659    1677.2446  0.073447388   0.07348667            5 
 1904000      0.95375   -3.2552741    1678.5874  0.073467587  0.073474724            2 
 1905000   0.95067513   -3.2258816    1671.6885   0.07312723   0.07346317            2 
 1906000   0.94605742    -3.239849    1677.1103  0.073325912  0.073451446            2 
 1907000   0.95742297   -3.2768075    1673.2912  0.073120571  0.073439806            6 
 1908000   0.94569375   -3.2390862    1675.2389  0.073167317  0.073428152            3 
 1909000   0.94688529   -3.2451892    1680.2326  0.073346981  0.073416674            4 
 1910000   0.93103593   -3.2369743    1673.4209  0.073011384  0.073405108            2 
 1911000   0.95324164   -3.2443255    1677.1259  0.073134744  0.073393351            2 
 1912000   0.95446105   -3.2544865     1681.687  0.073295285   0.07338162            3 
 1913000   0.94264212   -3.2536153     1674.639  0.072949948  0.073369934            2 
 1914000   0.95585372   -3.2440105    1680.9612  0.073187096  0.073357813            4 
 1915000    0.9252424   -3.2295814    1686.1822  0.073376075  0.073346367            2 
 1916000   0.94060062   -3.2539573    1676.3361  0.072909537  0.073334478            2 
 1917000   0.93165985   -3.2480626    1684.9442  0.073245705  0.073322383            4 
 1918000   0.94934707    -3.242254    1678.1927  0.072914178  0.073310522            1 
 1919000   0.92623193   -3.2336394    1686.1095  0.073219969  0.073298681            2 
 1920000   0.94165961   -3.2440023    1688.9896   0.07330684  0.073287028            6 
 1921000   0.93241432    -3.247795    1688.8917  0.073264433  0.073275623            2 
 1922000    0.9457144   -3.2462632    1692.7993  0.073395739  0.073264066            2 
 1923000   0.94385661   -3.2562973    1700.2023  0.073678382  0.073253102            2 
 1924000   0.93872532   -3.2568924     1692.179  0.073292577  0.073241892            5 
 1925000   0.94376946   -3.2548771    1692.8647  0.073284185  0.073230745            4 
 1926000   0.93580569   -3.2235584    1696.9054  0.073420966  0.073219625            3 
 1927000    0.9439832   -3.2167429    1696.3683  0.073359639  0.073208621            3 
 1928000   0.92325345   -3.2400086    1695.1406  0.073268524  0.073197492            1 
 1929000   0.93923963   -3.2436058    1700.0519  0.073442713  0.073186841            3 
 1930000   0.95552011   -3.2446387    1702.7577   0.07352149  0.073175971            2 
 1931000   0.93538062   -3.2271364    1697.4336  0.073253653   0.07316515            2 
 1932000   0.92281451    -3.270301    1695.0418  0.073112571  0.073154212            2 
 1933000   0.93370744   -3.2398781    1698.8283  0.073237985  0.073143376            6 
 1934000   0.92925805   -3.2509433    1698.4047  0.073181864   0.07313257            2 
 1935000   0.93668712    -3.279789    1705.9613  0.073469477  0.073121589            1 
 1936000   0.93165458   -3.2458599     1698.541  0.073112129  0.073110835            4 
 1937000   0.94358072   -3.2706291    1692.8137  0.072827987   0.07309993            2 
 1938000   0.93455031   -3.2545542    1697.7047  0.073000719  0.073089043            4 
 1939000   0.92494985   -3.2556939    1701.8418  0.073140872  0.073077902           11 
 1940000   0.92280747   -3.2542782    1703.7927  0.073186971  0.073066869            5 
 1941000   0.94328616   -3.2517649    1696.7245  0.072845806  0.073055842            4 
 1942000   0.92890984   -3.2720708    1696.9889  0.072819641  0.073044669            2 
 1943000   0.95554755   -3.2733383    1697.9771  0.072824546   0.07303328            4 
 1944000   0.93725815   -3.2284277     1704.757  0.073077717  0.073022153            2 
 1945000   0.95242648   -3.2852299    1701.2947  0.072891804  0.073011325            3 
 1946000   0.93693127    -3.272925    1704.7763  0.073003439  0.073000283            2 
 1947000   0.94515365   -3.2308738     1707.791  0.073094977  0.072989504            3 
 1948000   0.94524601   -3.2736164     1706.897  0.073019206  0.072978694            4 
 1949000   0.95572952   -3.2815764    1706.0379   0.07294501  0.072967834            7 
 1950000   0.96450714   -3.2342472    1708.4959  0.073012645  0.072956833            4 
 1951000   0.92234723   -3.2456361    1711.3277  0.073096179  0.072945637            2 
 1952000   0.95134764   -3.2454427     1708.156  0.072923328  0.072934079            3 
 1953000   0.94060529   -3.2554082    1707.5277  0.072859176  0.072922906            1 
 1954000   0.92806334   -3.2483632    1708.9586  0.072882914  0.072911528            5 
 1955000   0.94715413   -3.2480297    1709.6693  0.072875931  0.072900096            3 
 1956000    0.9407894   -3.2609835    1705.6092  0.072665693  0.072888503            4 
 1957000   0.94625871   -3.2672314    1707.1595   0.07269458  0.072877139            2 
 1958000   0.94767811   -3.2501609    1708.1556  0.072699847  0.072865529            1 
 1959000   0.93452638    -3.267822    1713.3093  0.072881967  0.072853739            2 
 1960000   0.93019833   -3.2816784    1705.7853  0.072524887  0.072841864            3 
 1961000   0.96707749   -3.2767092    1706.3915  0.072513663  0.072829995            5 
 1962000   0.92500421   -3.2479515    1716.1509  0.072891219  0.072818278            3 
 1963000   0.95086742   -3.2597257    1709.0934  0.072554484   0.07280644            5 
 1964000   0.95274753   -3.2711793    1708.2547  0.072481956  0.072794655            4 
 1965000   0.94292501   -3.2446539    1712.0398  0.072605588   0.07278295            2 
 1966000   0.94491651   -3.2651026    1706.8272   0.07234771   0.07277118            2 
 1967000   0.94003465   -3.2467882    1710.8302  0.072480521  0.072759258            4 
 1968000   0.94601358   -3.2729363    1715.3247  0.072634005  0.072747129            2 
 1969000   0.93073943   -3.2746265     1710.604  0.072397323  0.072734861            4 
 1970000   0.93137475   -3.2564499    1712.8789  0.072456804  0.072722882            3 
 1971000   0.94860564   -3.2493733    1711.2195  0.072349885  0.072710594            2 
 1972000   0.92573583    -3.259306    1712.4723  0.072366138  0.072698671            2 
 1973000   0.94081182   -3.2639547     1720.403  0.072664427   0.07268659            3 
 1974000   0.95782103   -3.2548452    1716.0206  0.072442611   0.07267462            3 
 1975000   0.93038843   -3.2601976    1712.0667  0.072239101  0.072662525            3 
 1976000   0.92810321    -3.240876    1712.4656  0.072219365  0.072650413            6 
 1977000   0.94421892   -3.2585361    1722.8825  0.072621923  0.072638346            4 
 1978000   0.93074036   -3.2451628    1717.4823  0.072357696  0.072626349            5 
 1979000   0.95399036   -3.2607273    1712.3536   0.07210517  0.072614258            5 
 1980000   0.91356837   -3.2525702    1716.9775  0.072263363  0.072601974            2 
 1981000   0.94807385   -3.2622903    1715.5092  0.072165118  0.072589435            2 
 1982000   0.93339454   -3.2384832    1714.0927   0.07206915  0.072577271            2 
 1983000   0.93257594   -3.2666311    1720.9908  0.072322692  0.072564957            2 
 1984000   0.94741018   -3.2368587    1719.0008  0.072202656  0.072552854            3 
 1985000   0.92603093    -3.254556    1717.2073  0.072090988  0.072540739            5 
 1986000    0.9193949   -3.2845543    1720.6616  0.072199631  0.072528571            3 
 1987000   0.91359365   -3.2500645    1722.6445  0.072246456  0.072516338            6 
 1988000   0.92826557     -3.26013    1729.0317  0.072477854   0.07250421            6 
 1989000   0.93307537   -3.2378484    1727.7627  0.072388247  0.072492184            1 
 1990000   0.92517045    -3.282215    1722.6718  0.072138686   0.07248002            3 
 1991000   0.92115299   -3.2683738    1720.6864  0.072019352  0.072467721            5 
 1992000    0.9357839   -3.2532193    1727.2581  0.072258118  0.072455163            3 
 1993000   0.93130877   -3.2650881    1728.0122  0.072253394  0.072442868            2 
 1994000   0.93281656   -3.2662128     1723.039   0.07200932  0.072430708            2 
 1995000   0.95152348   -3.2577972    1723.7327    0.0720022  0.072418623            4 
 1996000   0.93198189   -3.2490318    1724.2951  0.071989609  0.072406164            3 
 1997000   0.92907143   -3.2684141    1723.6331  0.071925933  0.072393934            2 
 1998000   0.93420331   -3.2515843    1724.6455  0.071932161  0.072381536            3 
 1999000   0.91749355   -3.2812184    1727.1051   0.07199871   0.07236918            4 
 2000000   0.92608481   -3.3041348    1725.6075  0.071900313  0.072357097            2 
 2001000   0.94661825   -3.2499864    1730.3224  0.072060735  0.072345119            3 
 2002000   0.93917465   -3.2613438    1733.3234  0.072149657  0.072332967            1 
 2003000   0.92325261   -3.2516004    1727.7597  0.071882163  0.072320836            3 
 2004000    0.9215879   -3.2600273    1732.1061  0.072027033   0.07230884            2 
 2005000   0.94237038    -3.290517    1737.3422  0.072208738   0.07229713            1 
 2006000   0.90766046   -3.2743816    1737.9329  0.072197281  0.072285357            3 
 2007000   0.92402424   -3.2844808    1733.3379  0.071970516  0.072273643            5 
 2008000   0.92647723   -3.2867752    1737.6393  0.072113185  0.072261582            2 
 2009000   0.96406455   -3.2464433    1744.5121  0.072362373  0.072250084            2 
 2010000   0.92464964   -3.2691636    1734.2536  0.071901063   0.07223842            2 
 2011000   0.94097514   -3.2661498    1739.1246  0.072067155  0.072226958            3 
 2012000   0.93959888   -3.2804299    1736.3478  0.071916326  0.072215152            3 
 2013000   0.93879608   -3.2757678    1739.6541  0.072017473  0.072203376            2 
 2014000    0.9320824   -3.2735925    1739.8389  0.071989363  0.072191846            6 
 2015000   0.94288694   -3.2653047    1740.7123  0.071989754  0.072179858            2 
 2016000   0.91997324   -3.2631296    1746.6124  0.072197935  0.072168152            4 
 2017000   0.95541902   -3.2718514    1747.0296  0.072179375  0.072156602            5 
 2018000   0.93474221   -3.2831533    1739.6117  0.071837286  0.072144538            3 
 2019000   0.92535142    -3.260283     1743.056  0.071943868  0.072132864            2 
 2020000   0.92467218   -3.2867908    1743.0638  0.071908572  0.072121091            2 
 2021000   0.91847115   -3.2664155    1750.1773  0.072166309  0.072109633            2 
 2022000   0.94389645   -3.2713069    1741.8905  0.071789092  0.072097892            3 
 2023000   0.92995947   -3.2660325    1740.8631  0.071711284  0.072086134            3 
 2024000   0.89833633   -3.2804554    1742.7161  0.071752145  0.072074379            2 
 2025000   0.93321608   -3.2849643    1748.1975  0.071942285  0.072062571            3 
 2026000   0.91545357   -3.2631326    1752.9308  0.072101466  0.072050796            5 
 2027000   0.92838567   -3.2730855    1748.9352  0.071901629  0.072039177            2 
 2028000   0.96385162   -3.2814535     1751.389  0.071967003  0.072027414            4 
 2029000   0.90229639   -3.2611898    1747.5428  0.071773565  0.072015672            2 
 2030000   0.92329364   -3.2912321     1748.072  0.071759933  0.072003847            7 
 2031000   0.89842081   -3.2734619    1748.7333  0.071751737  0.071991758            2 
 2032000   0.91986261   -3.2659266    1741.9728  0.071439173   0.07197976            2 
 2033000    0.8928047   -3.2664568    1749.4419  0.071710196   0.07196774            2 
 2034000   0.93560401   -3.2836849    1744.0665  0.071454706  0.071955884            3 
 2035000     0.934608   -3.2711895    1752.3361  0.071758235  0.071943981            3 
 2036000   0.89767827   -3.2510841    1757.8951  0.071950518  0.071932185            2 
 2037000   0.93857856   -3.2596793    1752.5243  0.071695481  0.071920221            2 
 2038000   0.90374504   -3.2902386    1751.1038  0.071602218   0.07190835            2 
 2039000   0.95582817   -3.2845861    1755.2103  0.071734932  0.071896272            3 
 2040000   0.91534859    -3.259401    1758.1743  0.071820844  0.071884418            2 
 2041000   0.92427837   -3.2795161    1752.7887  0.071565763  0.071872625           10 
 2042000   0.93206015   -3.2765694    1753.8465  0.071573888  0.071860844            2 
 2043000   0.91968924   -3.2685377    1758.4797  0.071727839  0.071848856            2 
 2044000   0.92910673   -3.2779521    1760.5424  0.071776841  0.071836892            4 
 2045000   0.93345886   -3.2669646     1751.037  0.071354402   0.07182499            6 
 2046000   0.91586879     -3.25582     1758.886  0.071639213  0.071813025            4 
 2047000   0.92699244   -3.3005167    1758.2803   0.07157956  0.071800911            3 
 2048000    0.9250373   -3.2895207     1756.954  0.071490642  0.071788636            3 
 2049000   0.94319812   -3.2702702    1758.7721  0.071529693   0.07177657            2 
 2050000   0.90260332   -3.2879877    1755.4599   0.07136016  0.071764572            1 
 2051000   0.91816134   -3.2867732     1753.758  0.071256218  0.071752707            2 
 2052000   0.92318338   -3.2580877    1756.4806  0.071332059  0.071740656            2 
 2053000   0.92536552   -3.2867152    1756.9302  0.071315561  0.071728537            2 
 2054000   0.93552953   -3.2399602    1764.3775  0.071582987  0.071716579            1 
 2055000       0.9229   -3.2865341    1766.5979  0.071638197  0.071704659            5 
 2056000   0.91402483   -3.2730454    1766.1166  0.071583845  0.071692958            4 
 2057000   0.91826169   -3.2790227    1769.3782  0.071681178  0.071681007            2 
 2058000   0.93641239   -3.2917825    1766.0067  0.071509828  0.071669371            2 
 2059000   0.93336317    -3.272622    1770.5767  0.071660057  0.071657641            2 
 2060000   0.90510951   -3.2618957     1773.905  0.071759913  0.071646072            2 
 2061000   0.93510087   -3.2810072    1770.1417  0.071572931  0.071634584            2 
 2062000   0.91614605   -3.2871272    1765.5668  0.071353331  0.071622872            4 
 2063000   0.92267987   -3.2622636    1771.5251  0.071559426  0.071611315            1 
 2064000   0.93753644   -3.3039446    1771.6446  0.071529579  0.071599677            4 
 2065000   0.92077059   -3.3053038    1772.5793  0.071532659  0.071588117            3 
 2066000   0.91448702   -3.2593558    1768.8608  0.071348046  0.071576532            4 
 2067000   0.92412092    -3.288965    1772.1802  0.071447354  0.071565004            4 
 2068000   0.91065044   -3.3078786    1771.7409  0.071395104  0.071553166            3 
 2069000   0.93493125   -3.2644745    1779.4396  0.071670678  0.071541554            4 
 2070000   0.91098213   -3.2707179    1776.6255  0.071522766  0.071530094            3 
 2071000   0.92952642    -3.300987    1777.0784  0.071506455  0.071518759            2 
 2072000   0.92280125   -3.3125266    1768.1354  0.071112266  0.071507095            3 
 2073000   0.92188827   -3.2946565    1774.0446   0.07131551  0.071495787            3 
 2074000    0.9364164   -3.3024677    1770.3944  0.071134458  0.071484406            2 
 2075000   0.91815971   -3.2770215    1772.3482  0.071178644  0.071472975            7 
 2076000   0.91457086   -3.2686072     1781.221  0.071500522   0.07146152            4 
 2077000   0.89906289   -3.2863034    1784.7417  0.071607355  0.071450262            2 
 2078000   0.91720179   -3.2975949    1780.1499  0.071388752  0.071438846            3 
 2079000   0.92408425   -3.3101493    1782.2193  0.071437363   0.07142749            4 
 2080000   0.91308381    -3.272064    1786.4474  0.071572411  0.071415762            3 
 2081000   0.90599344   -3.2815703    1776.5001   0.07113968  0.071404423            5 
 2082000   0.92649604   -3.3011987    1780.3694  0.071260381  0.071392752            3 
 2083000   0.94011546   -3.3020347    1779.2183  0.071180123  0.071381109            2 
 2084000   0.91083451   -3.2853959     1785.178  0.071384278  0.071369589            2 
 2085000   0.93413597     -3.27648    1784.5591  0.071325303  0.071357863            4 
 2086000   0.93911814   -3.2804033    1782.0059  0.071189113  0.071346657            3 
 2087000   0.93049836   -3.2889953    1785.2663  0.071285189  0.071335072            3 
 2088000   0.91643881   -3.3090775    1778.3548  0.070975209  0.071323419            4 
 2089000   0.91444676   -3.3120313    1785.5671  0.071228941  0.071311643            5 
 2090000   0.89005032   -3.3039061     1787.057  0.071254265  0.071299902            4 
 2091000   0.90688652   -3.2941658    1784.4334  0.071115631  0.071288436            5 
 2092000   0.92578088   -3.2884102    1785.6554  0.071130315  0.071276762            7 
 2093000   0.90956342   -3.3231446    1777.2454  0.070761481   0.07126507            4 
 2094000   0.91159363   -3.2715654    1794.9524  0.071432364  0.071253504            6 
 2095000   0.90773118   -3.2932108    1786.9056  0.071078187  0.071241895            2 
 2096000   0.93021775   -3.3001138    1782.3273  0.070862251  0.071230009            3 
 2097000   0.91792682   -3.2997185    1786.3235  0.070987263  0.071218424            6 
 2098000   0.92457429   -3.2700681    1793.2101  0.071226965   0.07120682            2 
 2099000   0.90728989   -3.2946517     1790.679  0.071092544  0.071195541            3 
 2100000   0.92199019    -3.293991    1790.5829  0.071054877  0.071184088            2 
 2101000    0.9145656   -3.2962132    1787.6901   0.07090632  0.071172295            3 
 2102000   0.91755193   -3.2973477    1794.9213  0.071159264  0.071161033            4 
 2103000   0.89496145   -3.2969933    1789.0628  0.070893281  0.071149464            4 
 2104000    0.9176813   -3.2953006      1788.21  0.070825808  0.071137866            2 
 2105000   0.89173257   -3.3186734     1794.369  0.071035984  0.071126244            4 
 2106000   0.92243491   -3.3061907    1794.6582  0.071013698  0.071114517            2 
 2107000   0.92227024   -3.3024484    1793.2999  0.070926274  0.071102724            3 
 2108000   0.91313765   -3.2719451    1801.0283  0.071198148  0.071091205            3 
 2109000   0.92333028   -3.2816872    1795.2991  0.070938009  0.071079719            4 
 2110000   0.91980281   -3.2950032    1791.9656  0.070772731  0.071067954            3 
 2111000   0.91552522   -3.3320636    1795.8513  0.070892597  0.071056295            4 
 2112000   0.89539445   -3.2913533     1802.931  0.071138377  0.071044637            3 
 2113000   0.90091421   -3.2907269    1794.0816  0.070755704  0.071033028            2 
 2114000   0.90503409   -3.2799499    1801.2388  0.071004368  0.071021497            4 
 2115000   0.90660103   -3.3195769    1810.4919  0.071335379  0.071009968            3 
 2116000   0.92033075   -3.2785444    1803.0221  0.071007486  0.070998569            3 
 2117000   0.91825618   -3.3361429    1798.9105  0.070812098  0.070986921            3 
 2118000   0.91775589    -3.309534    1802.2582   0.07091038  0.070975195            2 
 2119000   0.89457855   -3.2955599    1797.2811  0.070681183  0.070963662            3 
 2120000   0.92145653   -3.3215844    1802.5282  0.070854098  0.070952094            4 
 2121000   0.93114727   -3.3148279    1794.6385  0.070510708  0.070940246            4 
 2122000   0.91273445   -3.3132771    1802.0983  0.070770432  0.070928488            4 
 2123000   0.90266993   -3.3167285     1797.226  0.070545847  0.070916638            4 
 2124000   0.91503332   -3.2984447    1804.3093  0.070790539  0.070904823            4 
 2125000   0.91186904   -3.3014279    1809.8805  0.070975706  0.070893333            6 
 2126000   0.90316161   -3.3038778    1799.1275  0.070520833  0.070881677            3 
 2127000   0.91626284   -3.2976237    1804.5024  0.070698262  0.070870013            2 
 2128000   0.92663643   -3.2950444    1803.9128  0.070641948  0.070858628            4 
 2129000   0.91460804   -3.2991335    1806.4516  0.070708141  0.070847117            3 
 2130000   0.90846879   -3.2898063    1802.8482  0.070533966   0.07083565            4 
 2131000   0.91351929   -3.2868189    1808.5066  0.070722142  0.070824044            2 
 2132000    0.9054829   -3.2955829    1805.1622  0.070558246  0.070812351            5 
 2133000   0.89876321   -3.2941885    1806.0869  0.070561295  0.070800842            4 
 2134000   0.91304952   -3.2957128    1818.0366   0.07099487  0.070789504            3 
 2135000   0.90763177   -3.2959334    1819.0216  0.071000063  0.070777974            1 
 2136000   0.90588417   -3.3000616    1817.4399  0.070905115  0.070766761            2 
 2137000   0.90037293   -3.2889899    1812.2816  0.070670784   0.07075516            3 
 2138000   0.89597894   -3.2946194    1815.5362  0.070764586  0.070743475            3 
 2139000    0.9520761   -3.2998203     1812.221  0.070602344  0.070731804            2 
 2140000   0.89893019   -3.2886715     1815.001  0.070677608  0.070720049            3 
 2141000     0.900493   -3.2923583     1808.802  0.070403316  0.070708316            4 
 2142000    0.9250526   -3.3299523    1814.1935  0.070580202   0.07069648            6 
 2143000   0.89258628   -3.3111512    1808.5684  0.070328528  0.070684752            3 
 2144000   0.93171775   -3.3101435    1817.1744  0.070630225  0.070672994            3 
 2145000   0.89651305   -3.2709037    1816.1978  0.070559356  0.070661441            4 
 2146000   0.90031445   -3.3046346    1809.2515  0.070256739  0.070649493            6 
 2147000   0.88921884   -3.3151427    1815.4758  0.070465602  0.070637381            2 
 2148000   0.89595958   -3.2681673    1821.8896  0.070681625  0.070625542            2 
 2149000   0.91319701   -3.2995988    1816.9785  0.070458295  0.070613807            2 
 2150000   0.92328355   -3.3029845    1818.2762  0.070475822  0.070602039            4 
 2151000   0.93682936   -3.3073001    1811.8763  0.070195116  0.070590147            3 
 2152000   0.90550494   -3.3164987    1818.7074   0.07042702  0.070578125            4 
 2153000   0.87979589   -3.3004765    1817.0583   0.07033048  0.070566174            2 
 2154000   0.89782088   -3.3175277    1820.8694  0.070445272  0.070554101            4 
 2155000    0.9172559   -3.2998907    1823.3645  0.070509068   0.07054216            4 
 2156000    0.8933963   -3.3005161    1817.8974  0.070265051  0.070530345            3 
 2157000   0.93135419   -3.2646718    1823.2785   0.07044037  0.070518635            2 
 2158000   0.90886719   -3.2966171    1812.7918  0.070002771  0.070506725            2 
 2159000   0.90620574    -3.305781    1817.8458  0.070165425  0.070494791            2 
 2160000   0.93237262   -3.3213969    1819.4819  0.070196062  0.070482899            3 
 2161000   0.92583559   -3.2755511    1827.3074  0.070465349  0.070471106            2 
 2162000   0.91091143   -3.3302134    1823.0094   0.07026709  0.070459173            7 
 2163000   0.90601605    -3.316314    1818.7587  0.070070841  0.070447122            4 
 2164000   0.91663235   -3.3136297    1822.5345  0.070183862  0.070435266            4 
 2165000   0.90861162   -3.3092851    1828.5508  0.070383016   0.07042335            2 
 2166000   0.90924297   -3.3238356    1825.4576  0.070231516  0.070411351            4 
 2167000   0.90896498   -3.3134628    1822.8846  0.070100161  0.070399231            2 
 2168000   0.91115249   -3.3090273    1819.2631  0.069928625  0.070387396            7 
 2169000   0.89807185   -3.3439404    1823.2402  0.070049184  0.070375413            3 
 2170000   0.91193681   -3.2761864    1826.8752  0.070156499  0.070363577            4 
 2171000   0.91443908   -3.2822578    1831.1185  0.070287061  0.070351815            7 
 2172000   0.90391214   -3.3008388    1827.4456  0.070113781  0.070339923            3 
 2173000    0.8884285   -3.3293123    1827.6791  0.070090469  0.070328364            3 
 2174000   0.89840484   -3.2972116    1832.0666   0.07022641  0.070316468            3 
 2175000    0.9017765    -3.292372    1833.3589  0.070243637  0.070304978            2 
 2176000   0.91537706   -3.3243722    1827.7359  0.069996012  0.070293424            4 
 2177000   0.89925218   -3.3103247    1825.5645  0.069880741    0.0702817            2 
 2178000   0.89714961   -3.3067128    1836.7732  0.070277517   0.07027001            2 
 2179000   0.89843577   -3.3052782     1833.325  0.070113392  0.070258617            3 
 2180000    0.8818046   -3.3166036    1830.2562  0.069963921  0.070247134            3 
 2181000   0.89067553   -3.2934707    1840.2178  0.070312464  0.070235411            3 
 2182000   0.92712887   -3.3022743     1832.079  0.069969407  0.070223798            2 
 2183000   0.90529155   -3.2933138    1835.6642  0.070074216  0.070212153            2 
 2184000   0.90248873   -3.2780052    1839.8572  0.070202122  0.070200662            3 
 2185000   0.89994323   -3.3016025    1840.9625  0.070212146  0.070189181            4 
 2186000    0.9089212   -3.2873749    1848.2089   0.07045627  0.070177846            4 
 2187000    0.8817642   -3.3078049    1846.7679  0.070369147  0.070166552            3 
 2188000   0.90866799   -3.2994262    1845.1008  0.070273492  0.070155119            8 
 2189000   0.91740296   -3.3135098    1839.0254  0.070010103  0.070143773            2 
 2190000   0.90205967   -3.2812273    1835.6348  0.069849115   0.07013244            6 
 2191000   0.88308208   -3.3177351    1838.2184  0.069915502  0.070120999            3 
 2192000   0.90988997   -3.3214951    1840.7248  0.069978892  0.070109637            3 
 2193000   0.90053187   -3.3057004    1843.7802  0.070063087  0.070098322            3 
 2194000   0.91549233   -3.2847735    1851.3121  0.070317231  0.070087043            2 
 2195000   0.91189315   -3.3290261    1842.9822  0.069968952  0.070075928            5 
 2196000   0.88589447   -3.3404625    1853.2944  0.070328417  0.070064805            2 
 2197000   0.91517639   -3.3025683    1843.3585   0.06991953  0.070053766            3 
 2198000   0.86894661   -3.3419132     1850.782  0.070169168  0.070042767            4 
 2199000   0.90052539   -3.3210764    1847.5725  0.070015632  0.070031612            9 
 2200000   0.89870689   -3.3238916    1854.0933  0.070230805  0.070020574            3 
 2201000   0.90643974   -3.3276508    1840.0714  0.069668006  0.070009551            2 
 2202000   0.89954795   -3.3110567    1856.5406  0.070259634   0.06999831            3 
 2203000   0.91454275   -3.3145611    1854.4211  0.070147568  0.069987322            3 
 2204000    0.8928253   -3.3116032    1849.9507  0.069946715  0.069976293            5 
 2205000   0.90003201   -3.3240859    1854.0803  0.070071063  0.069965376            4 
 2206000   0.90428415   -3.3133336    1855.7453  0.070102195  0.069954138            2 
 2207000   0.91926371   -3.2955962    1855.9941  0.070079827  0.069943083            4 
 2208000   0.91607605   -3.3519019    1849.6557  0.069808867  0.069932201            3 
 2209000   0.90706931   -3.3046884    1855.7536  0.070007304  0.069921152            4 
 2210000   0.90171628   -3.3182888    1861.5393  0.070193788  0.069910051            2 
 2211000   0.91061246   -3.2996071    1859.5195  0.070085915  0.069899105            4 
 2212000   0.91069239   -3.3273721    1856.7244   0.06994893  0.069887872            2 
 2213000   0.91474093    -3.316514    1859.9671   0.07003943  0.069876896            9 
 2214000   0.88486526   -3.3303182    1856.1511  0.069864163   0.06986577            2 
 2215000   0.88995662   -3.3358587    1855.7616   0.06981797   0.06985438            3 
 2216000   0.89115205   -3.3038619    1857.6023  0.069855683   0.06984321            3 
 2217000   0.91334633   -3.2982441    1857.1156  0.069805877  0.069832157            2 
 2218000   0.91098662   -3.3076166    1861.2207  0.069928639   0.06982108            2 
 2219000   0.88642396   -3.3135682    1871.4841  0.070282562  0.069809942            3 
 2220000   0.89282164   -3.3072439    1862.0452   0.06989659  0.069798995            3 
 2221000   0.89153626   -3.3132893    1857.7117  0.069702527  0.069787828            2 
 2222000   0.89280544      -3.3142    1861.1491   0.06980007  0.069776652            3 
 2223000   0.88631665   -3.3029232    1871.0002  0.070137959  0.069765441            4 
 2224000   0.89792642   -3.3272905    1862.6578  0.069793834  0.069754243            6 
 2225000   0.90668661   -3.3437418    1861.9086  0.069734403  0.069743115            2 
 2226000   0.88476537   -3.3133469    1862.8652   0.06973889  0.069732041            6 
 2227000   0.89803705   -3.3372605    1861.3085  0.069649321  0.069720752            4 
 2228000    0.8844058   -3.3262161    1868.9651   0.06990444  0.069709402            4 
 2229000   0.89402236   -3.3255709    1861.8319  0.069606398  0.069698264            6 
 2230000   0.89401813   -3.3406849    1856.4002  0.069372204  0.069686789            4 
 2231000   0.89218274   -3.3122374    1863.6206  0.069610811  0.069675143            3 
 2232000   0.90305458   -3.3210737    1858.1303  0.069374638   0.06966365            3 
 2233000   0.88632842   -3.3236485    1865.6551  0.069624388  0.069652082            3 
 2234000   0.89963506   -3.3186017    1865.4756  0.069586527  0.069640347            2 
 2235000    0.8966193   -3.3097657     1866.967     0.069611  0.069628804            2 
 2236000    0.8834999   -3.3472247    1863.8081  0.069462138  0.069617323            4 
 2237000   0.91701707   -3.3157391    1861.9193  0.069360723  0.069605893            1 
 2238000   0.90335666   -3.3385832    1858.7762  0.069212698  0.069594618            4 
 2239000   0.88238909   -3.3234071    1865.1276  0.069418179  0.069583012            5 
 2240000    0.9106277   -3.3192719    1865.9174   0.06941657  0.069571606            4 
 2241000   0.89809323   -3.2963986       1871.3  0.069585751  0.069560125            2 
 2242000   0.87692564    -3.316462    1867.0636  0.069397248  0.069548636            3 
 2243000   0.87303313   -3.3432133    1874.8607  0.069655993  0.069537333            5 
 2244000   0.89156601   -3.3440442    1871.7295  0.069508671    0.0695262            3 
 2245000   0.88942061   -3.3148397    1882.2453   0.06986805  0.069515214            2 
 2246000    0.8987357   -3.2918982    1881.1974  0.069798064  0.069504221            3 
 2247000   0.90903008    -3.336869    1875.2612  0.069546847  0.069493043            5 
 2248000    0.8979946   -3.3129392    1876.8154  0.069573524  0.069481913            4 
 2249000   0.88563237   -3.3377526    1875.6804  0.069500532  0.069470832            3 
 2250000    0.8873453   -3.3383996      1872.82  0.069363703  0.069459761            5 
 2251000    0.8867578   -3.3067802    1878.6937  0.069550337  0.069448657            3 
 2252000    0.8913466   -3.3300745    1887.2719  0.069836881  0.069437672            2 
 2253000   0.89637716   -3.3282079    1874.1561  0.069320761  0.069426415            8 
 2254000   0.87561132   -3.3372468    1882.2901   0.06959073  0.069415293            3 
 2255000   0.90241056   -3.3398831    1876.8497   0.06935882  0.069404192            2 
 2256000   0.88540163   -3.2948228    1891.6215  0.069873727  0.069393157            7 
 2257000   0.90852697   -3.3091404    1882.1535  0.069493187  0.069382179            1 
 2258000   0.90527733   -3.3619712    1879.1699    0.0693523  0.069371021            5 
 2259000   0.91573843   -3.3234328    1874.4308  0.069146777  0.069359833            5 
 2260000   0.88937471   -3.3174897     1885.369  0.069519508  0.069348679            4 
 2261000   0.88730042   -3.3511155    1887.0936  0.069552324  0.069337529            4 
 2262000    0.8940292   -3.3486277    1876.5249  0.069132215    0.0693262            2 
 2263000   0.85607166   -3.3110894    1884.9921  0.069413468  0.069314798            4 
 2264000   0.88102428   -3.3172113    1883.0524  0.069311411   0.06930341            2 
 2265000     0.870441   -3.3140429    1878.3293  0.069107036  0.069292239            3 
 2266000   0.88629483   -3.3401146    1882.3111  0.069222973  0.069280697            3 
 2267000    0.8903749   -3.3099984    1880.3495  0.069120331  0.069269382            1 
 2268000   0.88543973   -3.3004169    1889.5952  0.069429571  0.069258005            4 
 2269000   0.87491801     -3.31747     1890.588  0.069435434  0.069246646            4 
 2270000   0.88314008   -3.3208803    1885.1382  0.069204781  0.069235368            3 
 2271000   0.90560249    -3.315236    1884.2534  0.069141841  0.069223967            4 
 2272000    0.8888345   -3.3196773    1882.6983  0.069054367  0.069212705            2 
 2273000   0.87557236   -3.3277492    1883.1126  0.069039179  0.069201283            4 
 2274000   0.87921459   -3.3234347      1882.83  0.068998462  0.069189768            6 
 2275000   0.89402784   -3.2910952    1891.0271   0.06926839  0.069178539            4 
 2276000    0.8847534   -3.3048445     1889.737  0.069190722  0.069167199            4 
 2277000   0.89741906   -3.3549623    1891.4219  0.069221999  0.069155718            2 
 2278000   0.87582771   -3.3066866    1884.2763  0.068930213  0.069144367            3 
 2279000   0.91031639    -3.318822    1896.6262  0.069351549  0.069133035            3 
 2280000   0.87624693   -3.3498488    1892.3633  0.069165325  0.069121669            4 
 2281000   0.89058696   -3.3146618    1899.0183  0.069378134  0.069110582            2 
 2282000   0.87182326   -3.3193321    1889.3836  0.068995897  0.069099583            2 
 2283000   0.87510936   -3.3350947    1889.6559  0.068975611  0.069088336            3 
 2284000   0.86713749   -3.3442822    1891.7169  0.069020611  0.069076841            6 
 2285000   0.86097737   -3.3228805    1893.8414  0.069067884  0.069065297            6 
 2286000   0.88413748   -3.3072991    1897.0253  0.069153736  0.069053939            3 
 2287000   0.87858488   -3.3370922     1897.208  0.069130155  0.069042692            3 
 2288000   0.89528341   -3.3405106    1895.0428   0.06902108  0.069031474            3 
 2289000   0.90585806   -3.3246953    1899.4927  0.069152931  0.069020156            2 
 2290000   0.86996816   -3.3390509     1895.871  0.068990939  0.069008855            1 
 2291000   0.87907385   -3.3327301    1895.0391  0.068930564  0.068997345            4 
 2292000   0.86425943   -3.3710522    1897.4939  0.068989744  0.068986169            3 
 2293000   0.87348577   -3.3485595    1897.1224  0.068946156  0.068974784            1 
 2294000   0.88765288   -3.3123181    1899.1016  0.068987999  0.068963325            2 
 2295000   0.88447872    -3.320415    1900.9525  0.069025147  0.068951868            4 
 2296000    0.8739167   -3.3529144     1895.295  0.068789743  0.068940457            4 
 2297000   0.87927899   -3.3313719    1895.9601  0.068783926  0.068929037            4 
 2298000   0.89888366    -3.303366    1901.4065  0.068951496  0.068917788            5 
 2299000   0.89498389   -3.3463551    1900.3778  0.068884219  0.068906614            3 
 2300000   0.88649728   -3.3265136    1903.9458  0.068983542  0.068895275            3 
 2301000   0.89125077   -3.3381714    1895.4922  0.068647407  0.068883984            5 
 2302000    0.8816471   -3.3633724    1900.6593  0.068804636   0.06887255            2 
 2303000   0.89117151    -3.343841    1896.5519  0.068626138  0.068861257            3 
 2304000   0.87020648    -3.323982    1907.5866  0.068995465  0.068849848            2 
 2305000   0.88774678   -3.3672183    1902.8273  0.068793468  0.068838669            3 
 2306000   0.88641516   -3.3404614    1907.6016  0.068936168  0.068827356            3 
 2307000   0.88978594    -3.341352     1906.184  0.068855078  0.068816246            4 
 2308000    0.8676616   -3.3402805    1908.1289  0.068895468  0.068805056            3 
 2309000   0.85593945   -3.3214388    1908.8121  0.068890289  0.068793707            3 
 2310000   0.88180214   -3.3425647    1898.4666   0.06848725  0.068782523            2 
 2311000   0.88374921   -3.3330491    1910.7761   0.06890149   0.06877168            5 
 2312000   0.89416735   -3.3375192    1908.2403  0.068780287  0.068761082            4 
 2313000   0.88429945   -3.3486618    1916.9169  0.069063155  0.068750235            4 
 2314000   0.87836046   -3.3528387    1918.0976  0.069075827  0.068739353            3 
 2315000   0.89181172   -3.3383173    1917.4513  0.069022726  0.068728607            4 
 2316000   0.88122217   -3.3103557    1919.5846  0.069069681  0.068717824            6 
 2317000   0.90362621   -3.3639553    1918.2014  0.068990124  0.068707264            2 
 2318000   0.87213086   -3.3387148     1917.972  0.068952115  0.068696606            4 
 2319000    0.8691018   -3.3493953    1919.7116  0.068984894  0.068685891            3 
 2320000   0.87190307   -3.3489191    1920.9421  0.068999357  0.068675097            4 
 2321000   0.88661434   -3.3387514    1922.7718  0.069035324  0.068664388            2 
 2322000   0.89637326   -3.3521866    1924.4032  0.069064142   0.06865391           13 
 2323000   0.89224766   -3.3445373    1916.6504  0.068756293  0.068643299            4 
 2324000    0.8826539   -3.3777479    1924.7124  0.069015793  0.068632663            2 
 2325000   0.88373113   -3.3436707    1926.2479  0.069041144  0.068621887            4 
 2326000   0.87975582   -3.3254469    1918.5555  0.068735867  0.068611168            2 
 2327000   0.88541794   -3.3639045     1922.107  0.068833513  0.068600441            4 
 2328000   0.88162803   -3.3080304    1925.6661  0.068931346  0.068589742            2 
 2329000   0.91636565   -3.3660528    1923.9336   0.06883976  0.068579086            2 
 2330000   0.88818459   -3.3641196    1920.3708   0.06868279  0.068568214            4 
 2331000   0.86233937   -3.3450494    1927.0521  0.068892183  0.068557833            3 
 2332000    0.8784962   -3.3478519    1921.0378  0.068647721  0.068547085            2 
 2333000   0.89883003   -3.3276366    1931.4991  0.068991965  0.068536312            4 
 2334000   0.88408085     -3.36892    1927.0354  0.068803036   0.06852559            3 
 2335000   0.89103462   -3.3188491    1922.8361  0.068623699  0.068514975            3 
 2336000   0.86502771   -3.3371287    1929.8497  0.068844525  0.068504386            2 
 2337000   0.88036654   -3.3319316    1923.1402  0.068575817  0.068493838            3 
 2338000   0.89197354   -3.3445595    1938.4518  0.069092238  0.068483169            4 
 2339000   0.88327703   -3.3329989    1925.7715  0.068610927  0.068472554            3 
 2340000   0.86956402   -3.3574423    1926.7442  0.068616246  0.068461715            3 
 2341000   0.87887468   -3.3154578    1927.1988  0.068603119  0.068451078            9 
 2342000   0.88593535   -3.3425365     1933.847  0.068810384  0.068440286            4 
 2343000   0.87890744   -3.3694258    1927.5015  0.068555323  0.068429717            5 
 2344000   0.89200008   -3.3637904    1933.3093  0.068732555  0.068419028            4 
 2345000   0.87401099   -3.3398416    1931.4137   0.06863588  0.068408242            5 
 2346000   0.90470866   -3.3293248    1924.6672  0.068366978  0.068397485            4 
 2347000   0.87542875     -3.32337    1927.2735   0.06843039  0.068386713            5 
 2348000   0.87649879   -3.3483299    1930.4697  0.068514684   0.06837588            4 
 2349000   0.85698053   -3.3496974    1930.6958  0.068493535  0.068365021            2 
 2350000   0.88424641   -3.3156755    1942.2032  0.068872452  0.068354413            3 
 2351000   0.86609177    -3.332727    1937.4775  0.068675653  0.068343848            2 
 2352000   0.87074996   -3.3414207    1933.2616  0.068497081  0.068333182            3 
 2353000   0.86344482    -3.331159    1932.5555  0.068442961  0.068322517            1 
 2354000   0.84272814   -3.3383504    1939.0262  0.068642954  0.068311851            5 
 2355000   0.85377735   -3.3466757     1943.305  0.068765216  0.068301172            2 
 2356000   0.90846968   -3.3915966    1936.4504  0.068493578  0.068290543            4 
 2357000   0.87892703   -3.3525506    1936.2803  0.068458502  0.068279861            6 
 2358000   0.86552183   -3.3316988    1940.6174  0.068582748  0.068269211            4 
 2359000   0.87154588    -3.363987    1938.8137  0.068489956  0.068258487            2 
 2360000   0.88823207    -3.349931    1938.4302  0.068447394  0.068247541            3 
 2361000   0.86193656   -3.3652889    1941.5246  0.068527621  0.068236599            4 
 2362000   0.88715633   -3.3497236    1938.2557  0.068383279  0.068225551            1 
 2363000   0.88323416   -3.3557454    1937.2526  0.068318964  0.068214679           10 
 2364000    0.8849786   -3.3519434    1939.5759  0.068371965  0.068203925            2 
 2365000   0.86751006   -3.3436668    1942.5867  0.068449145  0.068192709            2 
 2366000   0.88971806   -3.3393759    1940.8936  0.068360579  0.068181532            3 
 2367000   0.85695853    -3.368297    1938.8425  0.068259487  0.068170616            4 
 2368000   0.87692411   -3.3804301    1942.3895  0.068355487  0.068159672            2 
 2369000   0.86956192   -3.3446032    1942.7812   0.06834041  0.068148792            5 
 2370000   0.85282317   -3.3564953    1940.9407   0.06824686  0.068137697            3 
 2371000   0.89250984   -3.3791726    1942.0047  0.068255473  0.068126835            4 
 2372000   0.86640294   -3.3286723    1946.7747  0.068394276  0.068115902            3 
 2373000   0.87363213   -3.3451216    1941.2994  0.068173179  0.068105025            4 
 2374000   0.83686148     -3.36225    1943.2547  0.068213098  0.068094143            3 
 2375000   0.87350235   -3.3338604    1951.3996  0.068470162  0.068083064            4 
 2376000    0.8731643   -3.3528621    1942.9292  0.068144261  0.068071979            4 
 2377000   0.88780779   -3.3590997    1951.1543  0.068403952  0.068060905           15 
 2378000   0.87888267   -3.3463915    1946.2308   0.06820265  0.068050161            3 
 2379000   0.86160951   -3.3577349     1949.882  0.068301879  0.068039357            3 
 2380000   0.84984577   -3.3763672     1946.004  0.068137396  0.068028543            6 
 2381000   0.87726691   -3.3467803    1952.0474  0.068320291  0.068017804            2 
 2382000   0.85068905    -3.366954    1948.0491  0.068151733  0.068007042            5 
 2383000   0.87083284   -3.3655861    1951.5191  0.068244479  0.067996125            2 
 2384000   0.88793549   -3.3528198    1950.5229  0.068181031  0.067985279            2 
 2385000   0.86441054   -3.3826946    1954.3012  0.068284458  0.067974555            8 
 2386000   0.86168203   -3.3712249     1958.465  0.068401265  0.067963598            4 
 2387000   0.85661024   -3.3554908    1952.5651  0.068166636  0.067952627            3 
 2388000   0.85331828   -3.3738992    1949.4997  0.068031118  0.067941803            3 
 2389000   0.88186188   -3.3742616    1949.0195  0.067985892  0.067930919            7 
 2390000   0.87010055   -3.3675036    1960.9836  0.068374603  0.067919732            4 
 2391000   0.87087157   -3.3521778    1957.2841  0.068217067  0.067908932            3 
 2392000   0.88082299   -3.3775323    1955.2591  0.068117999  0.067898309            4 
 2393000   0.87627613   -3.3650383    1958.4041  0.068199057  0.067887438            8 
 2394000   0.82945403    -3.357693    1952.2058  0.067954811  0.067876585            3 
 2395000   0.85700127   -3.3611078    1951.5494  0.067903599  0.067865651            4 
 2396000   0.84578226   -3.3355034    1956.8648   0.06806013  0.067854792            2 
 2397000   0.86030826   -3.3444784    1958.8884  0.068102086  0.067843979            2 
 2398000   0.87532945   -3.3856435    1958.6847  0.068066606  0.067833056            3 
 2399000   0.85969921   -3.3312894    1969.1345  0.068401227  0.067822399            3 
 2400000   0.86648703   -3.3672811    1958.7362  0.068011674   0.06781175            5 
 2401000   0.85982284   -3.3535926    1953.7363  0.067809813  0.067800929            2 
 2402000   0.87873789   -3.3632037    1957.7579  0.067921103  0.067790302            4 
 2403000   0.86204166   -3.3606328    1957.8974  0.067897678  0.067779465            3 
 2404000   0.85589263    -3.357017    1958.7023  0.067897334   0.06776874            5 
 2405000   0.87572715   -3.3766798    1961.0923  0.067951918  0.067757957            7 
 2406000   0.84328686   -3.3796305    1959.8348  0.067880119  0.067747221            4 
 2407000   0.86460785   -3.3660738    1959.5921  0.067843515  0.067736777            2 
 2408000   0.89239357   -3.3648457    1966.1409  0.068041974  0.067726229            3 
 2409000   0.87607628   -3.3344818    1969.6309  0.068134458  0.067715708            4 
 2410000   0.87585513   -3.3779927    1963.0026  0.067876993  0.067705247            4 
 2411000    0.8920238   -3.3561609    1963.0751  0.067851345  0.067694694            3 
 2412000   0.85772182   -3.3420857     1967.917  0.067990498  0.067684061            2 
 2413000   0.87963218   -3.3820663    1964.2705  0.067836389  0.067673698            2 
 2414000   0.88714806   -3.3631171    1970.8386  0.068035026  0.067663367            6 
 2415000    0.8531657   -3.3720106    1966.8941  0.067870742  0.067652911            3 
 2416000   0.83989009   -3.3612118    1970.2093  0.067956998  0.067642246            3 
 2417000   0.86668526   -3.3797746    1973.9957  0.068059428  0.067631808            3 
 2418000    0.8625355    -3.379987    1966.7223  0.067780614  0.067621344            2 
 2419000   0.86175129   -3.3560526    1978.8604  0.068170745  0.067611087            4 
 2420000   0.87485217   -3.3530192    1976.9421  0.068076519  0.067600771            5 
 2421000   0.85610021   -3.3719458    1973.1042  0.067916296  0.067590345            4 
 2422000   0.87420826   -3.3561805    1971.0626  0.067818007  0.067579668            2 
 2423000   0.84790216   -3.3824932    1974.2199  0.067898608  0.067569156            5 
 2424000   0.87776881   -3.3778816    1977.7267  0.067991155  0.067558545            4 
 2425000   0.84813558   -3.3730507    1971.6816  0.067755382  0.067547919            2 
 2426000   0.86379288     -3.39286    1965.6965  0.067521864  0.067537041            3 
 2427000   0.83820301   -3.3749253    1973.7888  0.067771899  0.067526308            4 
 2428000   0.86096174   -3.3768149    1970.4658  0.067629936  0.067515599            4 
 2429000   0.86184235   -3.3975025    1975.0837  0.067760523  0.067504846            5 
 2430000   0.86684307   -3.3915714    1978.0402  0.067834026  0.067494304            3 
 2431000   0.86096354   -3.3758101    1976.4981  0.067753261  0.067483615            6 
 2432000    0.8616712   -3.3617639    1975.9783   0.06770759  0.067472846            3 
 2433000   0.85097847   -3.4081113    1977.4323  0.067729562  0.067462184            2 
 2434000   0.85299332   -3.3634922    1981.1034  0.067827424  0.067451727            9 
 2435000   0.87211368   -3.3669891    1977.1945  0.067665794  0.067441069            3 
 2436000   0.86628868   -3.3713603    1984.7761  0.067897375  0.067430438            6 
 2437000   0.86550931    -3.377039    1980.4728  0.067722363  0.067419889            4 
 2438000   0.84418924   -3.3649104    1982.7351  0.067771914  0.067409474            6 
 2439000   0.85293109   -3.4004712    1980.4978  0.067667686  0.067398808            3 
 2440000   0.86333718   -3.3779539    1980.8014  0.067650323  0.067388063            3 
 2441000    0.8680141   -3.3579891    1986.1679  0.067805815  0.067377484            7 
 2442000   0.84548223   -3.3804209    1985.1058  0.067741805  0.067366866            6 
 2443000   0.85680887   -3.3788134    1986.7413  0.067769861   0.06735636            4 
 2444000    0.8266711   -3.3680528    1984.4011   0.06766234  0.067345719            5 
 2445000    0.8652976   -3.3973993    1987.2435  0.067731543  0.067335195            3 
 2446000   0.85612256   -3.3627837    1981.4207  0.067505476  0.067324677            2 
 2447000   0.85780565   -3.3482274    1983.3473  0.067543498    0.0673145            4 
 2448000   0.86275627   -3.3752767    1984.8619  0.067567465  0.067304191            9 
 2449000    0.8557636   -3.3656945    1986.3987  0.067592171  0.067293668            3 
 2450000    0.8467796   -3.3868065    1986.1241  0.067555242  0.067283182            3 
 2451000   0.85877582   -3.3914845     1988.042  0.067592886   0.06727267            3 
 2452000   0.86309365   -3.3663642    1996.1461  0.067840746  0.067262324            7 
 2453000   0.85194724   -3.3911386    1987.5927  0.067522515  0.067251665            3 
 2454000   0.87296554   -3.3779279    1981.5784  0.067290765  0.067241063            3 
 2455000    0.8564829   -3.3678959    1988.3028  0.067491609  0.067230402            4 
 2456000   0.84325064   -3.3574073    1993.0904  0.067626576  0.067219888            3 
 2457000   0.85708763   -3.3927087    1995.8456  0.067692499  0.067209168            2 
 2458000   0.85741188   -3.4100128    1989.2876  0.067442623  0.067198424            3 
 2459000    0.8438185   -3.3816832    1990.2313  0.067447178  0.067187742            5 
 2460000   0.86936294   -3.3731859    1992.3123  0.067490254  0.067177382            4 
 2461000   0.84378319   -3.3763629    1987.8591  0.067312039  0.067166812            2 
 2462000   0.84791676   -3.3889809    1991.9953  0.067424698  0.067156211            3 
 2463000   0.85723068   -3.3913223    1988.0674  0.067264426  0.067145643            5 
 2464000   0.86263707   -3.3722067    1992.8308  0.067398226  0.067134991            3 
 2465000   0.88099997   -3.3866817     1997.971  0.067544657  0.067124406            5 
 2466000   0.84363499   -3.3802903    1989.5714  0.067233422  0.067113776            2 
 2467000   0.87215598   -3.3712327    1992.2483  0.067296591  0.067103231            3 
 2468000   0.85112024   -3.3821571    1988.0183  0.067126495  0.067092411            4 
 2469000   0.86145069    -3.377458    1989.0238  0.067133247  0.067081467            5 
 2470000   0.86004584   -3.3919728    1991.7184  0.067196977  0.067070518            2 
 2471000   0.85896019   -3.3801941    1995.1534  0.067285628  0.067059686            5 
 2472000   0.85004107   -3.3952884    1990.7275  0.067109207  0.067048808            3 
 2473000   0.84692903   -3.3792548    1983.0971  0.066824945  0.067037727            2 
 2474000   0.86487432   -3.4188508    1988.5326  0.066981021  0.067026881            4 
 2475000   0.84541272   -3.3832116    1999.6315  0.067327659  0.067015815            4 
 2476000   0.84573211   -3.3734925    1995.0705  0.067146962  0.067004592            7 
 2477000   0.86097732   -3.3889943    1999.4957  0.067268731  0.066993733            3 
 2478000   0.86290195   -3.3872735    1995.6319  0.067111647  0.066982791            4 
 2479000   0.85553087   -3.3637838    1989.2791  0.066871019  0.066971723            3 
 2480000    0.8634504   -3.4148418    1992.8991  0.066965697  0.066960549            4 
 2481000   0.86507989   -3.4052422    1991.3107  0.066885352  0.066949389            5 
 2482000   0.85615544   -3.3838678    1996.3568  0.067027828  0.066938293            2 
 2483000   0.83401892   -3.3754979    1999.9387  0.067121045  0.066927336            6 
 2484000   0.84530635   -3.3734215    1995.1506  0.066933394  0.066916266            4 
 2485000   0.86203912   -3.3870872    1999.2605  0.067044283  0.066905065            2 
 2486000   0.85774611   -3.3671439    1999.8645  0.067037562  0.066893983            3 
 2487000   0.85201201     -3.38165    1998.2529  0.066956605  0.066882858            4 
 2488000    0.8460043    -3.367503    1995.2434  0.066828892  0.066871485            5 
 2489000   0.86198529   -3.3933604    2000.5296  0.066979027  0.066860219            3 
 2490000   0.85952484   -3.3929923    1996.6941  0.066823764  0.066848981            4 
 2491000    0.8503972   -3.3817143    2003.7416  0.067032704  0.066837811            3 
 2492000   0.86111637   -3.3942965     2004.588   0.06703411  0.066826675            2 
 2493000   0.85745004   -3.3689943    2004.8778  0.067016906  0.066815639            4 
 2494000   0.84022126   -3.3504348    2003.9425  0.066958785  0.066804744            4 
 2495000   0.86373505   -3.3819667    2007.3637  0.067046217  0.066793845            3 
 2496000   0.85778881   -3.3880772    2005.2074  0.066947362  0.066782784            5 
 2497000   0.86663571   -3.3979101    2001.7075  0.066803746  0.066771619            4 
 2498000   0.85376729   -3.3822456    2002.9237  0.066817576  0.066760528            1 
 2499000   0.85030986   -3.3936038    2007.2568  0.066935334  0.066749501            5 
 2500000   0.85217411   -3.3954166    2003.1039  0.066770129  0.066738484            3 
 2501000   0.85157362   -3.3966627     2002.583  0.066726076  0.066727124            3 
 2502000   0.86401987   -3.3909814    2009.3483  0.066924736  0.066715899            4 
 2503000   0.85715723   -3.3932213    2006.0192  0.066787161  0.066704961            4 
 2504000   0.84545178   -3.3749614    2002.5972  0.066646605  0.066693727            3 
 2505000   0.84291471   -3.3849767    2008.7231  0.066823789  0.066682665            5 
 2506000   0.83241038     -3.38221    2000.0431  0.066508483    0.0666716            4 
 2507000   0.84648365   -3.3969541    2004.4219  0.066627506  0.066660314            6 
 2508000   0.85983748   -3.4067853    2003.7441  0.066578418  0.066649133            2 
 2509000   0.84778354   -3.3910965    2004.6564  0.066582184   0.06663796            3 
 2510000   0.85628097   -3.3888293    2003.5907  0.066520276  0.066626749            3 
 2511000   0.84571062   -3.4041277    2005.2761  0.066549716   0.06661555            5 
 2512000    0.8613122   -3.4004867    2006.2279  0.066554802   0.06660425            3 
 2513000   0.87696505   -3.3769416    2008.4844  0.066603143  0.066592933            2 
 2514000   0.87186692    -3.395723    2005.5717    0.0664801   0.06658171            4 
 2515000   0.85273027   -3.3946182    2000.8039  0.066295688  0.066570402            3 
 2516000   0.83695324   -3.3827157    2009.8062  0.066567509  0.066559032            3 
 2517000   0.84285566   -3.3857008    2005.4044  0.066395325  0.066547749            1 
 2518000   0.84888903    -3.408607    2011.1643  0.066559583   0.06653651            3 
 2519000   0.82034855   -3.4104765     2004.059    0.0662981  0.066525208            2 
 2520000   0.83531685   -3.3817969     2020.351   0.06681055  0.066513959            4 
 2521000   0.84841529   -3.3944598    2018.0926  0.066709395  0.066502653            6 
 2522000   0.85662019   -3.4164091    2007.0787  0.066319017  0.066491325            2 
 2523000   0.85245841   -3.4014978    2009.5614  0.066374733  0.066480112            4 
 2524000   0.85563689   -3.4062109    2002.0306  0.066099796  0.066468818            2 
 2525000   0.85389705   -3.3796251    2015.6723  0.066523837  0.066457625            5 
 2526000   0.84770089    -3.373248    2017.5532  0.066559555  0.066446234            2 
 2527000   0.84605666   -3.4050676    2021.1828  0.066652908   0.06643509            2 
 2528000   0.83222774   -3.3850922    2013.6642  0.066378697  0.066423693            3 
 2529000   0.84749233   -3.4139261    2013.4195  0.066344387  0.066412387            5 
 2530000   0.84821367   -3.3959699    2014.7983  0.066363579  0.066401207            3 
 2531000   0.85285476   -3.4049004    2020.9578  0.066540163  0.066389902            2 
 2532000   0.85275507   -3.4212432    2015.2814  0.066327059  0.066378664           10 
 2533000   0.86439838   -3.3842665    2023.1257  0.066558944  0.066367489            5 
 2534000   0.85875813   -3.3971964    2019.7651  0.066422161   0.06635636           10 
 2535000   0.83771737   -3.3930257    2025.1622  0.066573379  0.066345232            3 
 2536000   0.85424677   -3.3808836    2016.6234  0.066266541  0.066334264            4 
 2537000   0.83084669   -3.3782329     2024.298   0.06649251  0.066322982            6 
 2538000   0.84728267   -3.3911117    2025.5473  0.066507332  0.066311874            4 
 2539000    0.8617157    -3.395465    2020.0254  0.066299903   0.06630066            2 
 2540000   0.84499054   -3.3967198    2022.9347  0.066369249  0.066289539            4 
 2541000   0.84193107   -3.3918835    2028.3606  0.066521075  0.066278611            2 
 2542000    0.8435012   -3.4015735    2028.8285  0.066510246  0.066267784            4 
 2543000   0.84838294   -3.4155876    2024.1696  0.066331419  0.066256966            4 
 2544000   0.85534091   -3.3863716    2030.5874  0.066515572     0.066246            4 
 2545000    0.8462061   -3.3741649    2027.8828  0.066400876  0.066235131            4 
 2546000   0.85209783   -3.3889207    2027.8303  0.066373078  0.066224191            6 
 2547000   0.85733413   -3.4146836    2026.5062  0.066303697  0.066213275            5 
 2548000   0.83535309    -3.371206    2026.7566  0.066285866  0.066202179            2 
 2549000   0.84883869   -3.4148466     2030.026  0.066366744  0.066191057            3 
 2550000   0.83957784   -3.4134658    2030.3935  0.066352729  0.066179902            3 
 2551000   0.84345017   -3.4192952    2032.6012  0.066398837   0.06616884            2 
 2552000   0.83294719   -3.4194927    2032.7395  0.066377336  0.066157625            4 
 2553000   0.85959646   -3.4294175    2026.1594  0.066136553  0.066146615            2 
 2554000   0.83222815   -3.4040899      2027.59  0.066157335  0.066135494            5 
 2555000   0.85176185   -3.3937805    2030.1376  0.066214533  0.066124319            2 
 2556000    0.8649111   -3.4434379     2029.813  0.066178044  0.066113095            4 
 2557000   0.85013133   -3.4031321    2026.5076   0.06604444  0.066101935            3 
 2558000   0.84108184   -3.4008335    2025.6772  0.065991569  0.066090682            2 
 2559000   0.82034718   -3.4081916    2024.3319  0.065921972  0.066079496            1 
 2560000   0.85098884   -3.4008465    2028.2587  0.066024047  0.066068232            3 
 2561000   0.85559304   -3.3901296    2033.7106  0.066175666  0.066057085            6 
 2562000    0.8313544   -3.3919318    2035.8465   0.06621931   0.06604588            2 
 2563000   0.83178725   -3.4296527    2037.1738   0.06623663  0.066034685            4 
 2564000   0.85494173   -3.3894654    2029.7211  0.065968576  0.066023351            4 
 2565000   0.83578899   -3.3851982    2032.5597  0.066035078   0.06601207            2 
 2566000   0.83494737   -3.3978764    2032.7681  0.066016112  0.066000785            2 
 2567000   0.84114996   -3.4129262    2028.2385  0.065843347  0.065989535            3 
 2568000   0.83020076   -3.4058198    2033.6207  0.065992364  0.065978154            5 
 2569000   0.84874761   -3.4216293    2029.5604  0.065834968  0.065966959            3 
 2570000   0.83851918   -3.3947578    2041.8728  0.066208587   0.06595567            5 
 2571000   0.84557629   -3.4172165    2040.8167  0.066148603  0.065944552            3 
 2572000   0.83656353   -3.3614977    2043.4408  0.066207907  0.065933624            6 
 2573000   0.84723176   -3.3741926    2034.5355  0.065893752  0.065922521            3 
 2574000   0.82825923    -3.430364    2032.6511  0.065807146  0.065911299            2 
 2575000     0.839145   -3.3875295    2037.3503  0.065933665  0.065899983            4 
 2576000   0.84910379   -3.4137136    2033.3171  0.065777597  0.065888819            3 
 2577000   0.83997651     -3.42814    2031.7101  0.065700106  0.065877725            4 
 2578000   0.81521739   -3.4176747    2038.6866  0.065900135  0.065866661            6 
 2579000   0.82541831   -3.4258615    2051.2302  0.066279896  0.065855626            7 
 2580000   0.83692928   -3.4145713     2039.493  0.065875096  0.065844613            3 
 2581000    0.8538295    -3.426238    2044.5889  0.066014105   0.06583332            3 
 2582000   0.84093564   -3.4068755    2044.7614  0.065994106  0.065822506            2 
 2583000   0.85200489   -3.4125783    2040.7725  0.065839867  0.065811527            4 
 2584000   0.83490483   -3.4047561    2042.6335  0.065874403   0.06580057            2 
 2585000   0.82726469   -3.3961288    2041.6906  0.065818524  0.065789459            4 
 2586000   0.82589288   -3.3964777    2047.0407  0.065965477  0.065778437            4 
 2587000   0.84901804   -3.4067661    2047.8718  0.065966749  0.065767542            5 
 2588000   0.84272806   -3.3864595    2047.0064  0.065913395  0.065756738            6 
 2589000   0.83612562   -3.3970769    2046.6903  0.065877762  0.065745861            4 
 2590000   0.83854333   -3.4141906     2046.439  0.065844239  0.065734963            4 
 2591000   0.86285298   -3.4116348    2049.1708  0.065906689  0.065723972            3 
 2592000   0.83411829   -3.4170933    2046.7005  0.065801841  0.065712923            2 
 2593000   0.84222888   -3.3790305    2043.8068  0.065683467  0.065701728            4 
 2594000   0.84119389   -3.4094298     2054.191  0.065991743  0.065690734            2 
 2595000    0.8404323   -3.4174244    2041.9456  0.065573077  0.065679706            3 
 2596000   0.84133539   -3.3976336    2051.5301  0.065855487   0.06566848            5 
 2597000    0.8205127   -3.3935814    2048.4143  0.065730148  0.065657348            3 
 2598000   0.81599216   -3.3689722    2051.1155   0.06579149   0.06564637            5 
 2599000   0.84042023   -3.4270895    2048.0168  0.065666821  0.065635273            8 
 2600000   0.82940882   -3.4183136    2053.7951  0.065826765   0.06562431            2 
 2601000   0.84902577   -3.4052114    2051.7748   0.06573673  0.065613225            1 
 2602000    0.8437236   -3.4122913     2052.271  0.065727357  0.065602164            5 
 2603000   0.83853598   -3.3786435    2057.2894  0.065862768  0.065591178            4 
 2604000    0.8299591   -3.4143191    2051.1044  0.065639541  0.065580373            2 
 2605000   0.84430541   -3.4273631    2048.6537  0.065535947  0.065569378            5 
 2606000   0.83178518   -3.3967563    2050.9535  0.065584342  0.065558518            3 
 2607000     0.851957   -3.4200195    2051.1111  0.065564222  0.065547688            4 
 2608000   0.83485375    -3.410981    2060.4293  0.065836825  0.065536816            3 
 2609000   0.85500359   -3.4063991    2058.0163  0.065734518  0.065525952            8 
 2610000   0.84317406   -3.4111057    2058.2916  0.065718124  0.065515128            5 
 2611000   0.86249376   -3.3959513    2054.5197  0.065572568  0.065504319            2 
 2612000   0.83078592    -3.391461    2060.6402  0.065742731  0.065493487            5 
 2613000   0.83511176    -3.416452     2057.881  0.065629576  0.065482812            4 
 2614000   0.84388275   -3.4085352    2066.8728  0.065891123  0.065472029            2 
 2615000   0.82860476   -3.4040447    2064.6649  0.065795568  0.065461222            3 
 2616000   0.81351708   -3.4114081    2063.9643  0.065748097  0.065450588            2 
 2617000   0.82519154   -3.4061446    2058.8527  0.065560206  0.065439699            3 
 2618000   0.83378547   -3.4284895    2061.0867  0.065606275  0.065428785            3 
 2619000   0.81892368   -3.4223731    2052.7936  0.065317349  0.065417753            6 
 2620000   0.82301141   -3.3999452    2065.0852  0.065683372  0.065406907            4 
 2621000   0.82678206   -3.3997563    2064.3524  0.065635014  0.065396047            5 
 2622000   0.79269847   -3.4150023    2059.0594  0.065441756  0.065385222            4 
 2623000   0.82065042   -3.4384667    2055.7248  0.065310865   0.06537406            7 
 2624000   0.82146508   -3.4194651    2066.2009  0.065618678  0.065363055            6 
 2625000   0.83044475   -3.3895827    2061.1569  0.065433553   0.06535222            5 
 2626000   0.82166256   -3.4327667    2056.9626  0.065275533  0.065341074            3 
 2627000   0.81572793   -3.4107129     2056.434  0.065233916  0.065330027            3 
 2628000   0.83265184   -3.4190873    2064.9663  0.065479651  0.065318984            4 
 2629000   0.83820278   -3.4390734    2062.2037  0.065367176  0.065307842            4 
 2630000    0.8306684   -3.4261233    2058.8021  0.065234542  0.065296529            2 
 2631000   0.82610917   -3.4237794    2064.0847  0.065377064  0.065285335            5 
 2632000    0.8380041   -3.4182083    2065.9162  0.065410214  0.065274234            3 
 2633000   0.82577487   -3.4150205    2070.1953  0.065520802  0.065263045            1 
 2634000   0.83792979   -3.4464339    2064.0439  0.065301312  0.065251799            5 
 2635000   0.80450987   -3.4262971     2064.181  0.065280867  0.065240656            1 
 2636000   0.82561244   -3.4409569    2064.2462  0.065258162  0.065229157            3 
 2637000   0.83862372   -3.4186047    2063.4773  0.065209116  0.065217876            7 
 2638000   0.81639736   -3.3958417    2071.3046  0.065431661  0.065206807            2 
 2639000   0.83882307   -3.4119136    2065.3939  0.065220219  0.065195755            3 
 2640000   0.82251664   -3.4068784    2058.5645   0.06497994  0.065184663            2 
 2641000    0.8288983   -3.4264283    2064.2853  0.065135847  0.065173472            3 
 2642000   0.82100417   -3.4147112    2073.4595  0.065400564  0.065162262            3 
 2643000   0.84127805   -3.4106618    2064.4297  0.065091111  0.065151254            4 
 2644000    0.8122752   -3.4059408    2069.2221  0.065217538  0.065140161            4 
 2645000   0.82404312    -3.403044    2071.5557  0.065266406  0.065129293            3 
 2646000     0.824239   -3.4014562    2072.5617  0.065273423  0.065118385            2 
 2647000   0.82716154   -3.4264121    2067.2649  0.065082009  0.065107273            3 
 2648000    0.8301317   -3.4276132    2062.7149  0.064914242  0.065096181            2 
 2649000   0.82369216   -3.4136698     2064.027  0.064931013   0.06508494            5 
 2650000   0.82177328   -3.4107292    2070.3713  0.065106015  0.065073742            5 
 2651000   0.83228742   -3.4205431    2067.9629  0.065005751  0.065062362            4 
 2652000   0.83224613   -3.4220446    2066.3458  0.064930424   0.06505109            4 
 2653000   0.82534699   -3.4236191    2064.8319  0.064858396  0.065039814            5 
 2654000   0.81329107   -3.4255588    2067.6405  0.064922144  0.065028427            2 
 2655000   0.84816515   -3.4430763    2072.2962  0.065043822  0.065016859            4 
 2656000   0.85472213   -3.4334541    2065.2221   0.06479738  0.065005384            3 
 2657000   0.82736002   -3.4177027    2058.8194   0.06457218  0.064993862            4 
 2658000    0.8268529   -3.4273966    2068.0032  0.064835815  0.064982383            2 
 2659000   0.83765905   -3.4103468    2058.7626  0.064521832  0.064970783            4 
 2660000   0.83687407   -3.4105609    2069.0406  0.064819569  0.064959144            5 
 2661000   0.84720229   -3.4304243    2068.7843  0.064787182  0.064947499            6 
 2662000   0.82430905    -3.431742    2071.1473  0.064836816  0.064935936            3 
 2663000   0.81226854   -3.4242152    2068.6909  0.064735603  0.064924464            4 
 2664000   0.82521891   -3.4388612    2068.5873  0.064708061  0.064912929            5 
 2665000   0.82687497   -3.4198122    2072.7735  0.064814683  0.064901422            3 
 2666000   0.83327936   -3.4237444    2083.3887  0.065122178  0.064890053            4 
 2667000   0.80399383   -3.4420042    2069.2783  0.064656863  0.064878496            3 
 2668000   0.82829783   -3.4374733       2070.2   0.06466142  0.064867029            4 
 2669000   0.83043085   -3.4205398    2078.3613  0.064892011  0.064855587            5 
 2670000   0.82807333   -3.4189571    2072.0872  0.064671886  0.064844317            5 
 2671000   0.82718463   -3.4012004    2076.7535  0.064793257   0.06483326            3 
 2672000   0.83892629   -3.4562641    2071.4149  0.064602511  0.064822021            6 
 2673000   0.82086081    -3.417891    2084.2025  0.064977008  0.064810623            2 
 2674000   0.81817439   -3.3859793     2081.516  0.064868985  0.064799293            2 
 2675000   0.81125425   -3.4217957    2077.2473  0.064711753  0.064788033            8 
 2676000   0.82518537   -3.4291348    2079.8668  0.064769144  0.064776685            9 
 2677000   0.81795401   -3.4292453    2078.8467  0.064713195  0.064765307            4 
 2678000   0.83230095   -3.4158888    2084.8139  0.064874718  0.064753972            6 
 2679000   0.79879536   -3.4234196    2076.7898  0.064600902   0.06474268            3 
 2680000   0.80912432   -3.4228393    2084.7565  0.064824518  0.064731187            2 
 2681000   0.82176579   -3.4418203    2083.0045  0.064745881  0.064719908            3 
 2682000   0.81711429    -3.437283    2073.6222  0.064430221  0.064708335            5 
 2683000   0.82469914   -3.4260757    2073.6532  0.064407169  0.064696814            3 
 2684000   0.81262641   -3.4181912    2073.8985  0.064390788  0.064685305            3 
 2685000   0.82516991   -3.4194274    2086.2222  0.064749292  0.064673995            5 
 2686000   0.82430843   -3.4423052    2086.8993  0.064746192  0.064662626            7 
 2687000   0.82319354     -3.41967    2073.1116  0.064294491  0.064651148            5 
 2688000   0.83333342   -3.4021876    2081.6209  0.064534379  0.064639651            9 
 2689000    0.8118136   -3.4214758    2078.6944  0.064419687  0.064628203            4 
 2690000   0.84414105     -3.42826    2080.3251  0.064446254  0.064616699            3 
 2691000   0.81542383   -3.4285867    2079.3069  0.064390775   0.06460521            4 
 2692000   0.82680164    -3.427929    2079.6192  0.064376523  0.064593857            3 
 2693000   0.82407861   -3.4529147    2089.1786  0.064648427  0.064582356            3 
 2694000   0.81967702   -3.4401433    2083.7322  0.064455957  0.064570636            3 
 2695000   0.82866249   -3.4348783    2086.1822  0.064507799  0.064558947            3 
 2696000   0.82258827   -3.4136559    2085.7335  0.064470002  0.064547482            4 
 2697000   0.82846103   -3.4187099    2094.7251  0.064723925  0.064535989            3 
 2698000   0.80277462   -3.4303941    2083.9445  0.064366954  0.064524414            3 
 2699000   0.82037463   -3.4173575    2092.1565  0.064596657  0.064512854            2 
 2700000   0.81251838   -3.4431035    2081.6612  0.064248801   0.06450139            7 
 2701000   0.83001367   -3.4229274    2083.0455  0.064267726  0.064489831            8 
 2702000   0.82687736   -3.4250919    2096.4755  0.064658139    0.0644784            5 
 2703000   0.83951319   -3.4268139    2087.1869  0.064347852  0.064466986            3 
 2704000    0.8075527   -3.4457631    2084.6431  0.064245657  0.064455434            3 
 2705000   0.82978409   -3.4334477    2090.6348  0.064406494  0.064444102            2 
 2706000   0.81074146    -3.422375    2091.1318  0.064397998  0.064432636            3 
 2707000   0.81959351   -3.4184969    2095.1208  0.064497008  0.064421384            6 
 2708000   0.82128473    -3.451604    2096.4031  0.064512651   0.06441005            8 
 2709000   0.80513409   -3.4140713     2093.263  0.064392243  0.064398726            5 
 2710000   0.79457953   -3.4409586    2088.8085  0.064231503  0.064387202            3 
 2711000   0.83088841   -3.4276826    2092.8376  0.064331662   0.06437578            2 
 2712000   0.80934957   -3.4588576    2098.3224  0.064476474  0.064364212            6 
 2713000   0.82780166   -3.4366786     2094.465  0.064334225  0.064352785            5 
 2714000   0.81079825   -3.4252021    2091.5745  0.064221766  0.064341491            8 
 2715000   0.83477261   -3.4516865    2082.3868  0.063916108  0.064330114            5 
 2716000   0.81544534   -3.4236175    2096.9986  0.064340899  0.064318768            4 
 2717000   0.81744044   -3.4207653    2091.3671  0.064144493  0.064307436            4 
 2718000   0.82070211   -3.4180133    2093.7219  0.064193091  0.064296033            3 
 2719000   0.81661343   -3.4585828    2096.0475  0.064240759  0.064284601            6 
 2720000   0.82589589   -3.4162456    2096.1089  0.064219023  0.064273181            4 
 2721000    0.8189286   -3.4537946    2093.4729   0.06411469  0.064261796            5 
 2722000   0.80791462   -3.4240842    2094.8956  0.064134691  0.064250327            4 
 2723000   0.82654358   -3.4447744    2097.5164  0.064191346  0.064239008            5 
 2724000   0.81055057   -3.4490558    2100.4281  0.064256855  0.064227592            2 
 2725000   0.83035159   -3.4531541    2096.7651  0.064121257  0.064216131            8 
 2726000   0.81062919   -3.4223064    2099.0527  0.064167666  0.064204673            5 
 2727000   0.82714362   -3.4347512    2102.5135  0.064249893  0.064193231            4 
 2728000   0.79136802   -3.4685598    2101.1127   0.06418355  0.064181526            6 
 2729000   0.81221818   -3.4225247    2104.5821  0.064265973  0.064170216            5 
 2730000   0.79950623   -3.4326519    2100.6373  0.064122019  0.064158902            5 
 2731000   0.81340793    -3.442042    2093.5697  0.063882879  0.064147508            8 
 2732000   0.80204763   -3.4402289     2098.586  0.064012507   0.06413596            5 
 2733000   0.81554891   -3.4765835    2106.1244  0.064218943  0.064124426            3 
 2734000    0.8306776   -3.4406874    2097.7584  0.063940453  0.064112857            5 
 2735000     0.806341   -3.4302793    2101.0431  0.064017159  0.064101469            3 
 2736000   0.82655339   -3.4544333    2100.7446  0.063984669   0.06408994            3 
 2737000   0.82874861   -3.4341003    2099.4641  0.063922301  0.064078388            3 
 2738000   0.82024354   -3.4682021    2099.9432  0.063913538  0.064066801            9 
 2739000   0.81687929   -3.4387594    2100.1029  0.063895061  0.064055238            6 
 2740000   0.82148025   -3.4527355     2098.776  0.063831387  0.064043645            3 
 2741000   0.80557099    -3.422038    2111.0478  0.064181194  0.064032065            4 
 2742000   0.83461412   -3.4548722    2105.4799  0.063988568  0.064020694            4 
 2743000   0.80159451   -3.4377765    2107.2445   0.06401885  0.064009172            4 
 2744000   0.80945385   -3.4558496    2111.7626  0.064132731  0.063997817            4 
 2745000   0.80146389   -3.4180836    2109.1441  0.064029875   0.06398662            4 
 2746000   0.81115938   -3.4359807    2101.4911   0.06377431   0.06397518            2 
 2747000    0.8009606   -3.4415002    2094.6006  0.063542066  0.063963728            4 
 2748000   0.80856668   -3.4398091    2106.7902  0.063888592  0.063952304            3 
 2749000   0.80097995   -3.4570316    2106.4226  0.063854208  0.063940755            8 
 2750000   0.82357392   -3.4642924    2103.5253  0.063743191  0.063929105            2 
 2751000   0.81077669   -3.4501944    2106.6321  0.063814131  0.063917556            8 
 2752000   0.81691921    -3.468577    2102.4962  0.063665705  0.063905988            4 
 2753000    0.8052824   -3.4431507    2104.0543   0.06368974  0.063894356            5 
 2754000   0.81689967   -3.4882104    2110.4173  0.063859152  0.063882912            2 
 2755000   0.81237279   -3.4485478    2107.6699  0.063752869  0.063871335            5 
 2756000   0.82514224   -3.4484917    2098.7123  0.063458887   0.06385995            4 
 2757000   0.81911204    -3.429494     2112.783  0.063861172  0.063848277            5 
 2758000   0.80756887   -3.4418745     2110.603  0.063772148  0.063836793            4 
 2759000   0.81624556   -3.4460526    2106.8991   0.06363716  0.063825161            3 
 2760000   0.80495437   -3.4304219    2112.7007  0.063789272  0.063813614            3 
 2761000   0.81128421   -3.4636694    2111.7503  0.063737484  0.063802229            2 
 2762000   0.79614075   -3.4483947    2110.6023  0.063679771  0.063790703            4 
 2763000   0.81123269   -3.4645545    2106.8387  0.063543211  0.063779065            8 
 2764000   0.81525062    -3.443128    2110.2099  0.063621863  0.063767543            2 
 2765000   0.79605075   -3.4512183     2111.889  0.063649457  0.063755873            4 
 2766000   0.80967391   -3.4234866    2112.0078  0.063630024  0.063744225            4 
 2767000   0.78607343   -3.4001552    2116.7758  0.063750626  0.063732737            2 
 2768000   0.80721725   -3.4359344    2112.8408  0.063609127  0.063721235            4 
 2769000   0.80514703   -3.4473139    2104.9093  0.063347458  0.063709509            4 
 2770000   0.83234226    -3.467056    2114.7546  0.063620775  0.063697783            3 
 2771000   0.81730479   -3.4569196    2114.4741  0.063589381  0.063686084           11 
 2772000   0.82933194   -3.4361424    2114.8526  0.063577819  0.063674364            4 
 2773000   0.80656371   -3.4414376    2110.8635  0.063435014  0.063662606            4 
 2774000   0.78672872   -3.4536568    2110.5421  0.063402491  0.063650794            2 
 2775000   0.81674279   -3.4352891    2118.6701  0.063623727  0.063639057            3 
 2776000   0.81427404   -3.4350882    2109.0775  0.063312846  0.063627384           10 
 2777000   0.81253074   -3.4470876    2108.3612  0.063268551  0.063615422            4 
 2778000   0.81338655   -3.4409847    2106.3799  0.063186342  0.063603603            8 
 2779000   0.81244946   -3.4308807    2116.6057  0.063470243  0.063591954            2 
 2780000   0.80541822   -3.4506092     2113.621  0.063357945  0.063580199            3 
 2781000   0.80047016   -3.4498937    2118.9353  0.063494406  0.063568406            4 
 2782000   0.80207841   -3.4395618    2115.5848   0.06337122   0.06355666            9 
 2783000   0.81479957   -3.4499577    2115.3115  0.063340265  0.063544905            6 
 2784000   0.81187704   -3.4657361    2108.1459  0.063103026  0.063533082            5 
 2785000   0.78759373   -3.4621016    2117.4851  0.063359818  0.063521367            6 
 2786000   0.81670595   -3.4157349    2125.7518  0.063584343  0.063509754            4 
 2787000   0.80379339   -3.4653102    2119.1689  0.063364696  0.063498134            4 
 2788000   0.82523844   -3.4848539    2113.6941  0.063178328  0.063486498            6 
 2789000   0.81652503   -3.4529612      2122.37  0.063414903  0.063474795            7 
 2790000   0.80914931   -3.4504686    2121.7308  0.063373082  0.063462997            4 
 2791000   0.81288856   -3.4408764     2119.486   0.06328335  0.063451475            5 
 2792000     0.786039   -3.4425065      2118.93  0.063244091  0.063439748            4 
 2793000   0.80849707     -3.46638     2116.263  0.063141872  0.063427983            4 
 2794000   0.80971213   -3.4367391    2120.5293  0.063246519  0.063416262            3 
 2795000   0.80610518   -3.4660911    2118.3584  0.063159166  0.063404639            4 
 2796000   0.80007912    -3.473482    2123.8416  0.063300001  0.063392926            5 
 2797000   0.79900225   -3.4421743    2126.0831  0.063344151  0.063381163            3 
 2798000   0.78222574   -3.4566687    2133.0767  0.063529804  0.063369388            4 
 2799000   0.81273627   -3.4596996    2126.5955  0.063314145  0.063357789            5 
 2800000   0.80647973   -3.4543126      2122.14  0.063158929  0.063346328            3 
 2801000   0.80138046   -3.4540765    2118.0874  0.063015809  0.063334585            5 
 2802000   0.79476308   -3.4714434    2130.0045  0.063347744  0.063322851            3 
 2803000    0.7933281   -3.4542646    2120.8923  0.063054237   0.06331121            5 
 2804000   0.81009258   -3.4383163    2122.7792  0.063087828  0.063299668           11 
 2805000   0.81221109    -3.454177    2119.5688   0.06296996  0.063288062            2 
 2806000   0.81350194   -3.4431473    2131.8513  0.063312287   0.06327644            3 
 2807000   0.79917962   -3.4560621    2121.2701  0.062975601  0.063264796            3 
 2808000   0.80671341   -3.4590652    2128.0547  0.063154521  0.063253185            5 
 2809000   0.79862672   -3.4803185    2125.2231  0.063048034  0.063241576            5 
 2810000   0.82325679   -3.4430354    2130.3561  0.063177821  0.063229877            6 
 2811000   0.79290482   -3.4549169     2128.365  0.063096317  0.063218453            5 
 2812000   0.79530784   -3.4468955    2120.9679  0.062854668  0.063206856            4 
 2813000    0.8005163   -3.4444659    2127.1442  0.063015292  0.063195197            6 
 2814000   0.80348403   -3.4628174    2131.9981  0.063136641  0.063183562            9 
 2815000   0.80220244   -3.4292384    2129.1905  0.063031097  0.063171902            4 
 2816000   0.79505352   -3.4598278    2127.0112  0.062944224  0.063160281            6 
 2817000   0.79966678   -3.4674082    2126.5631  0.062908624  0.063148744            2 
 2818000   0.79624936   -3.4522088    2132.2637  0.063054876  0.063137155            2 
 2819000   0.77988711   -3.4712448    2131.1512  0.062999622  0.063125548            5 
 2820000   0.80529486   -3.4700788    2130.7864    0.0629665  0.063113921            3 
 2821000    0.7875898   -3.4813333    2129.6264  0.062909914  0.063102179            6 
 2822000   0.80168032   -3.4787368    2133.5434  0.063003288  0.063090605            4 
 2823000   0.78977815   -3.4821181    2122.7052  0.062661033  0.063078852           19 
 2824000   0.79601263   -3.4690446    2134.4115  0.062984286  0.063067089            3 
 2825000   0.80582086   -3.4531707    2136.1571  0.063013483  0.063055568            5 
 2826000    0.7996263    -3.470555    2135.5421  0.062973052  0.063043756            6 
 2827000   0.80842863   -3.4727001     2131.853  0.062842029  0.063031955            2 
 2828000    0.7838438   -3.4827201    2128.4305  0.062718956  0.063020186            2 
 2829000   0.80801599   -3.4648391    2139.2786  0.063016337  0.063008443            5 
 2830000   0.80648965    -3.473505    2134.3596  0.062849224  0.062996555            4 
 2831000   0.80590158   -3.4494253    2135.9613  0.062874169  0.062984731            2 
 2832000   0.78490219   -3.4485979    2136.4977  0.062867751  0.062972908            2 
 2833000   0.80316107   -3.4598958    2130.9194  0.062681474  0.062960996            7 
 2834000   0.79155874   -3.4546475    2127.4555  0.062557501   0.06294911            5 
 2835000   0.80778975   -3.4535726    2128.3314  0.062561182   0.06293713            6 
 2836000   0.79941816   -3.4699089    2131.6844  0.062637647  0.062925277            4 
 2837000     0.791665   -3.4560068    2133.5624  0.062670733  0.062913496            5 
 2838000   0.79006009   -3.4443669    2131.2988  0.062582181  0.062901541            4 
 2839000   0.77423993   -3.4792263    2127.7008  0.062454525  0.062889635            6 
 2840000    0.8170402    -3.461905    2134.6457  0.062636318    0.0628778           11 
 2841000   0.80783689    -3.450882    2135.8207  0.062648735  0.062865975            3 
 2842000   0.77820089   -3.4466209    2130.7351  0.062477572  0.062854021            3 
 2843000   0.79416386   -3.4401751    2131.9777  0.062492019  0.062842006            2 
 2844000   0.80246038    -3.479756    2141.7378  0.062756031  0.062830186            3 
 2845000   0.79603365   -3.4409559    2135.8149  0.062560483   0.06281843            5 
 2846000   0.77362456   -3.4726155     2130.388  0.062379597  0.062806558            4 
 2847000   0.78270714   -3.4663087    2135.7902  0.062515813  0.062794687            5 
 2848000    0.7925655   -3.4783321    2130.8254  0.062348589  0.062782844            6 
 2849000   0.79920113   -3.4853966    2134.3664   0.06243028   0.06277096            4 
 2850000   0.80360348     -3.45916    2142.7464  0.062653403  0.062759162            3 
 2851000   0.78483546   -3.4840776    2137.3636   0.06247409  0.062747243            7 
 2852000   0.78091948   -3.4634437    2141.3572  0.062568875  0.062735447            3 
 2853000   0.79402399   -3.4806985    2138.6503   0.06246788  0.062723485            8 
 2854000   0.79733143   -3.4439475     2135.995  0.062368459  0.062711584            4 
 2855000   0.78648553   -3.4911618    2136.2008  0.062352621  0.062699657            5 
 2856000    0.8103561   -3.4742239    2139.2397   0.06241946  0.062687473           10 
 2857000   0.79003431   -3.4747069    2137.3873  0.062343579   0.06267556            6 
 2858000   0.79248223   -3.4542295    2139.3742  0.062379699  0.062663634            6 
 2859000   0.78688369   -3.4744669    2133.6627  0.062191403  0.062651583            6 
 2860000   0.77711785   -3.4893197    2143.8736  0.062467179  0.062639597            4 
 2861000   0.77720744    -3.464187    2145.1513  0.062482562  0.062627714            5 
 2862000   0.77530307   -3.4794843      2139.09   0.06228424  0.062615779            5 
 2863000   0.80148542   -3.4844359    2140.2232  0.062295471  0.062603874            5 
 2864000   0.81025392   -3.4734562    2141.9143  0.062322924  0.062591882            5 
 2865000   0.81335877   -3.4585885    2147.2213  0.062455536  0.062579875            3 
 2866000   0.78227825    -3.476461    2144.9516  0.062367748  0.062567921            2 
 2867000   0.79323858   -3.4892905    2139.3343  0.062182721   0.06255593            3 
 2868000   0.79270984   -3.4824271    2139.3311  0.062160946  0.062543925            5 
 2869000    0.7671197   -3.4448015    2148.5563  0.062407235  0.062531938            4 
 2870000    0.7753644   -3.4781512    2136.6634  0.062040167  0.062519935            7 
 2871000   0.80338718   -3.4617998     2145.542  0.062276269   0.06250798            3 
 2872000   0.79730069   -3.4759399     2145.133  0.062242718  0.062495938            5 
 2873000   0.79822287   -3.4869482    2142.9564   0.06215792  0.062483876            5 
 2874000   0.79057457   -3.4859884    2135.1684  0.061910474  0.062471743            3 
 2875000   0.77520572   -3.4834611    2135.6405  0.061902624  0.062459565            3 
 2876000   0.81458841   -3.4927911     2142.057  0.062067022  0.062447286           11 
 2877000   0.79381813   -3.4840615    2140.2273  0.061992448  0.062435122            7 
 2878000    0.7745599   -3.4874464    2152.6813  0.062331517   0.06242301            5 
 2879000   0.80049215   -3.4800004    2143.4768   0.06204344  0.062410905            5 
 2880000   0.78118068   -3.4717088    2144.9664  0.062064999  0.062398822            7 
 2881000   0.78798201   -3.4913535    2132.4764  0.061682182  0.062386632            7 
 2882000   0.80806344   -3.4896403     2143.115  0.061968396  0.062374469            5 
 2883000   0.77909036   -3.4626623    2145.2206  0.062007764  0.062362252            3 
 2884000   0.78705026   -3.4846072    2137.3221  0.061758035  0.062350064            3 
 2885000   0.78718811   -3.5000288    2140.9459  0.061841304   0.06233781            4 
 2886000    0.7978473   -3.4858889    2139.1455  0.061767887   0.06232538            6 
 2887000      0.80566   -3.4760352    2141.6475  0.061818713  0.062313059            6 
 2888000   0.76988717   -3.4643205    2147.1262  0.061955397  0.062300935            4 
 2889000   0.77738373   -3.4695675    2147.5548  0.061946313  0.062288725            4 
 2890000   0.79592029   -3.4704026    2141.6608  0.061754926  0.062276478            6 
 2891000   0.78993174   -3.4821882      2150.04  0.061975095  0.062264277           16 
 2892000   0.80741442   -3.4952208    2145.0622  0.061810228  0.062252245            5 
 2893000   0.78535798   -3.4612848    2145.3973  0.061798518  0.062240059            2 
 2894000   0.78058744   -3.4792886    2146.9073  0.061820642  0.062228046            3 
 2895000   0.77251121   -3.4619696    2154.8463  0.062027816  0.062215874            2 
 2896000   0.77908067   -3.4768316    2146.7763   0.06177418  0.062203636            2 
 2897000   0.79135425   -3.4565359    2153.3272  0.061941297   0.06219139            3 
 2898000   0.80438825   -3.4687635    2152.6181   0.06189953  0.062179114            4 
 2899000   0.78091512   -3.4948602    2147.3573  0.061726954   0.06216687            3 
 2900000   0.80639647   -3.4674554    2147.5897  0.061712349  0.062154612            3 
 2901000   0.77810003   -3.4771483    2154.8624  0.061899987  0.062142409            3 
 2902000   0.77856106   -3.4742069    2152.0998  0.061799328  0.062130192            8 
 2903000   0.78379938   -3.4865061    2150.4898  0.061731825  0.062117911            5 
 2904000   0.78747694   -3.4828383     2140.312  0.061418503  0.062105713            3 
 2905000   0.78263769   -3.4630899    2146.6877  0.061580256  0.062093457            6 
 2906000   0.79111531   -3.4876585    2158.2096  0.061889469   0.06208134            7 
 2907000   0.78636223   -3.4944755    2152.8218  0.061713732  0.062069108            4 
 2908000   0.79989596    -3.482049     2150.296  0.061620129  0.062056731            7 
 2909000   0.79252801   -3.4790937    2148.4816  0.061546968  0.062044487            4 
 2910000   0.80158171   -3.5030632    2152.3026   0.06163524  0.062032288            5 
 2911000   0.81497423   -3.4964789    2151.2671  0.061584423   0.06201997            7 
 2912000   0.78673902   -3.5056626     2156.958  0.061726134  0.062007603            2 
 2913000   0.79580403   -3.4915168    2149.5097  0.061491868  0.061995179            7 
 2914000   0.79082264   -3.4869686    2153.7662  0.061592489  0.061982753           10 
 2915000   0.78176901   -3.5238186    2149.9229   0.06146149  0.061970496            2 
 2916000   0.79635057   -3.4956767    2150.5371  0.061457964  0.061958223            3 
 2917000   0.79015865   -3.4910279    2147.8692   0.06136068  0.061945849            4 
 2918000   0.79057106   -3.4800476    2148.0909  0.061345983  0.061933535            4 
 2919000    0.7678176    -3.498106    2152.3362  0.061446163  0.061921206            6 
 2920000    0.7829591   -3.5021149    2153.6066  0.061461377  0.061908922            5 
 2921000   0.80569317   -3.4811971     2152.997  0.061422942  0.061896658            3 
 2922000   0.78519357    -3.478942    2162.1272  0.061662309  0.061884401            5 
 2923000   0.79729829   -3.5055517    2158.4511   0.06153641  0.061872167            2 
 2924000   0.79282244   -3.4977381    2158.9134   0.06152854  0.061859901            4 
 2925000   0.77999598   -3.4954672    2149.7077  0.061245235  0.061847684            5 
 2926000   0.78956991   -3.4980482    2155.4901  0.061388988  0.061835476            5 
 2927000   0.79341943   -3.4822452    2153.9008  0.061322765  0.061823211            2 
 2928000   0.77942439   -3.4728461    2149.7567  0.061183877  0.061810986            3 
 2929000   0.81259947   -3.4947231    2158.9232  0.061423786  0.061798634            3 
 2930000   0.78180529   -3.4862695    2158.2739  0.061384354  0.061786453            4 
 2931000   0.79069882    -3.503268    2167.0108  0.061611818  0.061774271            4 
 2932000   0.77313766   -3.4983171     2156.579  0.061294309  0.061761967            7 
 2933000   0.77941924   -3.5014148    2163.7822  0.061478072  0.061749704            6 
 2934000   0.78273951   -3.4873465    2152.1999   0.06112815  0.061737452            4 
 2935000   0.78414167   -3.5105305    2155.1808  0.061191959  0.061725153            9 
 2936000   0.78550827   -3.4842656     2162.791   0.06138712   0.06171302            3 
 2937000   0.75691745   -3.5061513    2165.0048  0.061429033  0.061700763            4 
 2938000   0.77090119   -3.4872554    2161.4997  0.061308706  0.061688551            4 
 2939000   0.76450675   -3.4878625    2162.6317  0.061319942  0.061676274            5 
 2940000   0.77130456   -3.5038678    2159.9604  0.061223367  0.061664104            4 
 2941000   0.78852516   -3.5034432    2162.1374  0.061264234  0.061651944            6 
 2942000   0.78728975   -3.4882313    2164.5863  0.061312777  0.061639783            2 
 2943000   0.76075948   -3.4945208    2157.4048  0.061088595  0.061627603            4 
 2944000   0.76287083   -3.5097982    2169.0191  0.061396601   0.06161538            2 
 2945000   0.77266781   -3.5035769       2161.8  0.061171477  0.061603136            5 
 2946000   0.77128249   -3.5215184    2166.9813  0.061297276  0.061590873            3 
 2947000   0.79079546   -3.4932686    2160.3361  0.061088567  0.061578627            5 
 2948000   0.79744864   -3.4946587    2166.2828  0.061235945  0.061566399            3 
 2949000   0.79548684   -3.5057294    2167.1094   0.06123854  0.061554005            6 
 2950000   0.78434561   -3.5033229    2163.2794  0.061109588    0.0615416            3 
 2951000   0.78099113   -3.4915985    2168.8647  0.061246604  0.061529313            4 
 2952000   0.78994236   -3.4902116    2161.3903  0.061014858  0.061517009            4 
 2953000   0.77568687    -3.487051    2161.0582  0.060984824  0.061504744            7 
 2954000   0.78119806   -3.4988518    2178.3935  0.061453212  0.061492575            5 
 2955000   0.78240985   -3.4826107    2165.5101  0.061069094  0.061480297            4 
 2956000    0.7840158   -3.4870564    2168.5249  0.061133426  0.061468074            4 
 2957000   0.78415192   -3.4875631    2162.0176  0.060929365  0.061455886            9 
 2958000   0.77929742   -3.5065461    2166.2833  0.061028941  0.061443676            6 
 2959000   0.79111737   -3.4788948    2164.5807  0.060960367  0.061431424            4 
 2960000   0.79772921   -3.5058769    2170.0047  0.061092475  0.061419209            6 
 2961000   0.79780305   -3.5047988    2171.2154  0.061105915  0.061407012            4 
 2962000   0.78541591   -3.4888781    2175.3581  0.061201838  0.061394951            5 
 2963000   0.77393527   -3.4886182    2166.9937  0.060945936  0.061382899            3 
 2964000    0.7808226   -3.4632408    2172.9884  0.061093916   0.06137076            3 
 2965000   0.78886516   -3.5000997    2166.8881  0.060901858  0.061358576           10 
 2966000   0.76702493   -3.5107228    2171.4582  0.061009727  0.061346302            4 
 2967000   0.77975938   -3.4809779    2175.3845  0.061099442   0.06133428            5 
 2968000   0.77434691   -3.4988229     2164.683  0.060778386   0.06132212            4 
 2969000   0.77940625   -3.4785555    2173.4338   0.06100353  0.061310034            5 
 2970000   0.78202774   -3.5100088    2174.1237  0.061002348  0.061298031            5 
 2971000    0.7821955   -3.5145814    2164.5584   0.06071352  0.061285884            4 
 2972000   0.75847559   -3.5135987    2173.0787  0.060931997  0.061273665            3 
 2973000   0.77944458   -3.4869601    2181.1984  0.061139095   0.06126164            4 
 2974000   0.78732144   -3.5150238     2170.837  0.060828206  0.061249546            5 
 2975000    0.7719111   -3.4794381    2172.7086  0.060860184  0.061237503            9 
 2976000   0.75894194    -3.498331    2176.1783  0.060936892  0.061225542            4 
 2977000   0.76702865   -3.4906795    2179.4685  0.061008524  0.061213451           10 
 2978000   0.76502586   -3.4830928    2169.6868  0.060714316  0.061201466            8 
 2979000   0.81326597    -3.511747    2175.5711   0.06085854  0.061189465            5 
 2980000   0.77910146   -3.4944102    2175.0269  0.060822901  0.061177428            7 
 2981000   0.76165572   -3.5088579    2173.9858  0.060773393  0.061165303            5 
 2982000   0.73460994   -3.5061227    2185.4772  0.061074145  0.061153276            8 
 2983000   0.78314106   -3.5025314    2178.0295  0.060845612  0.061141209            2 
 2984000   0.78796394   -3.5121273    2173.5931  0.060701325  0.061129222            4 
 2985000   0.76167733   -3.5232194     2174.767  0.060713764   0.06111697            3 
 2986000   0.77927309   -3.4978654    2180.9908  0.060867123  0.061104841            5 
 2987000   0.77222587   -3.5300499     2176.529  0.060722269  0.061092838            2 
 2988000   0.78882153   -3.5202754    2182.5772  0.060870627  0.061080786            6 
 2989000   0.74925337   -3.5160147    2181.0721    0.0608083  0.061068725            4 
 2990000   0.76650032   -3.5124542    2177.7388  0.060695062   0.06105657            3 
 2991000   0.77862459   -3.5370823    2179.3964  0.060720952  0.061044449            4 
 2992000   0.78320873   -3.4901903    2186.9999  0.060912432   0.06103244            5 
 2993000   0.78745051   -3.5140538    2174.1967  0.060535603   0.06102047            4 
 2994000   0.79275133   -3.5135293    2187.7427  0.060892416  0.061008456            4 
 2995000   0.75936189   -3.4994635    2184.7949  0.060790063  0.060996377            7 
 2996000   0.77370353   -3.5214542    2182.5495  0.060707318  0.060984382            5 
 2997000   0.77197516   -3.4920706    2184.9312  0.060753288  0.060972509            8 
 2998000    0.7705692   -3.5011464    2190.2933  0.060882069  0.060960471            3 
 2999000   0.75836636   -3.5340145     2180.675  0.060594504  0.060948602            6 
 3000000   0.77804168   -3.5030189    2186.3886  0.060733016  0.060936511            7 
 3001000    0.7558198   -3.5318481     2178.842  0.060503221  0.060924423            2 
 3002000   0.77284148   -3.5073239    2184.9994  0.060653992  0.060912308            6 
 3003000   0.77882509   -3.5141551    2189.0037  0.060744914  0.060900418            5 
 3004000   0.76013508   -3.5199824    2187.6086  0.060685991  0.060888489            4 
 3005000    0.7555258   -3.5040233     2183.821   0.06056076  0.060876502            6 
 3006000   0.77541725   -3.5037119    2184.1797  0.060550558  0.060864455            5 
 3007000   0.79199851   -3.4946774    2185.4218  0.060564842  0.060852572            6 
 3008000   0.78409728   -3.5080327    2182.8817  0.060474338  0.060840631            4 
 3009000   0.75897034   -3.4909314    2188.3498  0.060605677  0.060828749            4 
 3010000   0.75209282   -3.5347566    2188.9072  0.060600973  0.060816817            4 
 3011000   0.78256899   -3.5147191    2188.4112  0.060567119  0.060804914            4 
 3012000   0.77602047   -3.5010832    2198.1446  0.060816306  0.060793028            3 
 3013000   0.76681362   -3.5083851    2189.7743  0.060564616  0.060781014            5 
 3014000    0.7641469   -3.4995282    2188.2409  0.060502126  0.060769101            5 
 3015000   0.76360199   -3.4836621    2193.9665  0.060640312  0.060757231            4 
 3016000   0.77408354   -3.4971555    2193.0612  0.060595192  0.060745288            7 
 3017000   0.76875095   -3.5203445    2192.9897  0.060573131  0.060733336            4 
 3018000   0.75808003   -3.4931507     2195.848  0.060631987  0.060721393            6 
 3019000   0.76026074   -3.5066889    2182.6325  0.060247115  0.060709398            4 
 3020000   0.78356785     -3.51763    2184.4418  0.060277092  0.060697265            3 
 3021000   0.76401714   -3.5108505    2187.3239  0.060336641  0.060685426            5 
 3022000   0.76477709   -3.5187078    2191.8749  0.060442172   0.06067348            5 
 3023000   0.77553365   -3.4777387    2192.1766  0.060430494  0.060661487            8 
 3024000   0.78318214   -3.4927026    2192.7095  0.060425195  0.060649542            5 
 3025000   0.75438874   -3.5151458      2190.52  0.060344903  0.060637598            4 
 3026000   0.78093407     -3.50702    2191.5746  0.060354003  0.060625565            9 
 3027000   0.78572248   -3.5437642    2181.4511  0.060055364  0.060613477            4 
 3028000   0.77017441   -3.5107192     2184.756  0.060126485   0.06060145            4 
 3029000   0.77678407    -3.511167    2195.0929  0.060391024  0.060589363            5 
 3030000   0.76096021   -3.5130194    2194.0521  0.060342466  0.060577288            4 
 3031000   0.77231322   -3.5197521    2188.5273  0.060170662  0.060565259            3 
 3032000   0.77817852   -3.5373095    2187.0232  0.060109476  0.060553235           10 
 3033000   0.77925028   -3.5130459    2189.9221  0.060169306   0.06054101            5 
 3034000   0.77157246   -3.5333036    2188.1553  0.060100947   0.06052896            7 
 3035000   0.76667548   -3.4946991    2198.3636  0.060361439  0.060517027            8 
 3036000   0.75381455   -3.5115061    2198.3022  0.060339873  0.060505094            5 
 3037000   0.76602773   -3.5279558    2185.9604  0.059981351  0.060493146            6 
 3038000   0.78109352   -3.5128519    2194.1488  0.060186218  0.060481127            4 
 3039000   0.76970418   -3.5180602    2192.5123  0.060121541  0.060469169            4 
 3040000   0.75364511   -3.5318141    2195.4622  0.060182625  0.060457152            5 
 3041000   0.76694668   -3.5113642     2204.919  0.060421982  0.060445254            4 
 3042000   0.77384297   -3.5082033    2203.8157  0.060371897  0.060433249            4 
 3043000   0.76738119   -3.5329852    2193.5688  0.060071441  0.060421266            3 
 3044000   0.75086609   -3.5059862    2188.6661  0.059917491  0.060409194            6 
 3045000   0.76305219   -3.5037235    2196.5291  0.060113002  0.060397097           11 
 3046000   0.75633109   -3.5206228    2195.0646    0.0600532  0.060385142            6 
 3047000   0.76809916   -3.5175794    2192.9649  0.059976067  0.060373031            5 
 3048000   0.75771651   -3.5321613    2189.5641  0.059863412  0.060360818            5 
 3049000   0.77917802     -3.52567    2195.6152  0.060009161  0.060348671            7 
 3050000   0.75587279   -3.5144259     2191.167   0.05986795  0.060336563            5 
 3051000   0.78993352   -3.5258529    2195.4432  0.059965127  0.060324599            3 
 3052000    0.7501834   -3.5079867     2197.728  0.060007863  0.060312725            4 
 3053000   0.76179113   -3.5029699    2203.9597  0.060158306  0.060300757            3 
 3054000   0.75723787   -3.5369501    2198.7101  0.059995364  0.060288754            5 
 3055000   0.75275706    -3.516891    2202.2732  0.060072918  0.060276838            3 
 3056000   0.73890315   -3.5334111    2205.4378  0.060139555  0.060264938            9 
 3057000   0.75546613   -3.5488552     2200.681  0.059990213   0.06025296            6 
 3058000   0.75732655   -3.5212643     2201.807  0.060001281  0.060241023            8 
 3059000   0.74400734   -3.5092045    2200.0079  0.059932655   0.06022915            3 
 3060000   0.74778448   -3.5308322    2203.2244  0.060000663  0.060217195            7 
 3061000   0.76914421   -3.5328792    2198.5687  0.059854314  0.060205337           10 
 3062000   0.76176501   -3.5048534    2207.0618   0.06006591  0.060193517            4 
 3063000   0.75847966    -3.555323    2203.5491  0.059950732  0.060181729            4 
 3064000   0.76561275   -3.5171674    2207.4867   0.06003826  0.060169802            8 
 3065000   0.76500019    -3.514929     2207.033  0.060006335  0.060157979            2 
 3066000   0.76214924    -3.519712    2206.9347  0.059984092   0.06014614            2 
 3067000   0.77316329   -3.5160047    2206.9208  0.059964155  0.060134265            2 
 3068000   0.76055933   -3.5197317    2206.8697  0.059943222  0.060122345            4 
 3069000   0.74704816   -3.5445846    2203.0448  0.059819832  0.060110397           12 
 3070000   0.75576549   -3.5291873    2202.3649  0.059781892  0.060098474            2 
 3071000   0.75178274   -3.5111989    2206.9233  0.059886121  0.060086585            5 
 3072000   0.76992477   -3.5249069    2203.5292  0.059774555  0.060074507            5 
 3073000   0.75792519   -3.5374896    2206.5747  0.059837692  0.060062519            2 
 3074000   0.74686009   -3.5383054    2205.5097  0.059789355    0.0600505            5 
 3075000   0.76336387   -3.5353627    2208.2295  0.059843618  0.060038569            9 
 3076000   0.76936725   -3.5551854    2204.0815  0.059711787  0.060026597            4 
 3077000   0.75115363   -3.5318092    2210.9026  0.059877114  0.060014719            2 
 3078000   0.76545018   -3.5407734    2209.0325  0.059807032  0.060002839            9 
 3079000   0.77171301   -3.5481057     2206.215  0.059711351  0.059990901            3 
 3080000   0.76426001   -3.5215767    2211.7726  0.059842331  0.059978973            6 
 3081000   0.77834312   -3.5241295       2208.9  0.059745214  0.059967206            4 
 3082000   0.74020389   -3.5421467    2208.8241  0.059723775  0.059955318            3 
 3083000   0.76267199   -3.4998831    2213.8914  0.059841372  0.059943417            7 
 3084000   0.77913055   -3.5365647    2211.9382   0.05976919  0.059931679            4 
 3085000   0.75975839   -3.5324095    2214.2527  0.059812338  0.059919887            6 
 3086000   0.75771877   -3.5318023    2211.9375  0.059730435   0.05990812            5 
 3087000   0.76138422   -3.5424995     2204.683  0.059515252  0.059896103            4 
 3088000   0.76739796   -3.5239729    2212.0479  0.059694731  0.059884206            3 
 3089000   0.76162717   -3.5407099    2214.1826  0.059732994  0.059872288            3 
 3090000   0.77068166   -3.5237874    2207.1052  0.059522793  0.059860428            5 
 3091000   0.75278035   -3.5257101     2207.205  0.059506229  0.059848428           11 
 3092000   0.75709845   -3.5228827    2213.1249  0.059646531  0.059836637            7 
 3093000   0.78040953   -3.5438686     2220.446  0.059824496  0.059824776            3 
 3094000   0.76140187   -3.5381948    2217.2887  0.059720123  0.059813015            3 
 3095000   0.74776618   -3.5364375    2207.7964  0.059445245   0.05980114            4 
 3096000   0.76895657   -3.5281787     2214.769  0.059613722  0.059789242            5 
 3097000   0.75360883   -3.5579699    2213.3119  0.059555265  0.059777366           14 
 3098000   0.76631118   -3.5252884    2211.4021   0.05948467   0.05976548            3 
 3099000   0.75635957   -3.5341635    2215.8163  0.059584174  0.059753639            4 
 3100000   0.75290858   -3.5367234    2215.7144  0.059562216  0.059741855            5 
 3101000   0.75314163   -3.5133227    2220.5316   0.05967246  0.059730066            4 
 3102000   0.75174216   -3.5458333    2217.6656  0.059576229  0.059718241           11 
 3103000   0.75869367   -3.5489134    2211.8627  0.059401189  0.059706547           10 
 3104000   0.74259524   -3.5255487    2219.0768   0.05957573  0.059694718            5 
 3105000    0.7436489   -3.5220928    2221.4596  0.059620493  0.059682933            8 
 3106000   0.73121663   -3.5303389    2217.9694  0.059507656  0.059671225            8 
 3107000   0.74784082   -3.5539964    2218.4121  0.059500378  0.059659477            5 
 3108000   0.76025233   -3.5267695    2223.3028  0.059612365  0.059647822            6 
 3109000   0.76601067   -3.5277507    2221.3083  0.059539731  0.059636047           12 
 3110000   0.75374494   -3.4990002    2215.9323  0.059376535   0.05962422            4 
 3111000   0.73998022   -3.5504853    2215.2723  0.059339771   0.05961248            4 
 3112000   0.75223399   -3.5378254    2215.4088  0.059324358  0.059600682            5 
 3113000   0.75458259   -3.5309466    2220.2735  0.059435527  0.059588872            6 
 3114000   0.73904398   -3.5304695    2226.1477  0.059573637   0.05957727            5 
 3115000   0.76276163   -3.5349968    2229.2268  0.059636886  0.059565636            4 
 3116000   0.75391859   -3.5422389    2229.8923  0.059635546  0.059554013            9 
 3117000    0.7536541   -3.5336077    2231.0806  0.059648182  0.059542313           11 
 3118000   0.74410744   -3.5606798    2225.2831  0.059474104  0.059530731            3 
 3119000   0.76418103   -3.5435154    2231.8995  0.059631814  0.059519205            4 
 3120000   0.74812406   -3.5489881    2226.9379  0.059480179  0.059507772            2 
 3121000   0.73802086   -3.5475075    2228.8778  0.059512918  0.059496199            5 
 3122000   0.75925513   -3.5716977    2225.0242  0.059390993  0.059484635           11 
 3123000   0.76276849   -3.5332342    2232.7722  0.059578722  0.059473084            4 
 3124000   0.75728439   -3.5460755    2229.8523  0.059481761  0.059461576            6 
 3125000   0.74482582   -3.5560175    2218.4906   0.05915975  0.059450137            4 
 3126000   0.74339495    -3.530724    2223.8798   0.05928449  0.059438631            2 
 3127000   0.74989524   -3.5347834    2231.6417  0.059472383  0.059427266            7 
 3128000   0.75424409   -3.5362736     2230.502  0.059423008  0.059415855            7 
 3129000   0.74720355   -3.5495418     2225.196  0.059262704   0.05940432            7 
 3130000   0.75680271   -3.5414552    2240.2423  0.059644364  0.059392965            6 
 3131000   0.76024681   -3.5212376    2233.1563  0.059436715  0.059381595            5 
 3132000   0.75076139   -3.5449307    2233.1518   0.05941762  0.059370188            6 
 3133000   0.74316244   -3.5405759    2225.5769  0.059197173  0.059358684            5 
 3134000   0.75788856   -3.5491688    2232.9474  0.059374265  0.059347177            3 
 3135000   0.76723813   -3.5413575    2229.6409  0.059267434  0.059335612            7 
 3136000   0.76213808   -3.5551331    2228.6068  0.059221055   0.05932404            2 
 3137000   0.73713259   -3.5320026     2236.289  0.059406254   0.05931259            5 
 3138000   0.75626718    -3.572325    2229.5197  0.059207555  0.059300995            7 
 3139000   0.74261562   -3.5389979     2235.088   0.05933652  0.059289537            4 
 3140000   0.74389366   -3.5518214    2233.4778  0.059274888   0.05927812           10 
 3141000   0.75969092   -3.5439351    2236.4049  0.059333677  0.059266742            6 
 3142000   0.75729424   -3.5545397    2233.2131  0.059230138  0.059255192            9 
 3143000   0.74114688   -3.5400317    2234.2218  0.059238037  0.059243704            4 
 3144000   0.73114593   -3.5538073    2235.0346  0.059240739  0.059232294            4 
 3145000   0.73608226   -3.5384231      2235.55   0.05923556  0.059220846            4 
 3146000   0.75190655     -3.54266    2232.5486  0.059137228  0.059209456            3 
 3147000   0.74088742   -3.5531405    2231.4199  0.059088548  0.059198094            6 
 3148000   0.74430428   -3.5263076    2241.3698  0.059333168  0.059186794            7 
 3149000   0.75018453   -3.5299117    2245.8601  0.059433156  0.059175395            6 
 3150000   0.75571039   -3.5580862    2237.2753  0.059187177  0.059164054           17 
 3151000   0.75262935   -3.5657061     2241.779  0.059287502  0.059152717            3 
 3152000   0.73580425   -3.5618034    2239.6993  0.059213709  0.059141347            3 
 3153000   0.75899856   -3.5366705    2236.4333  0.059108608  0.059129917            5 
 3154000   0.75679627   -3.5267875    2242.7814  0.059257595  0.059118486            5 
 3155000   0.74848211   -3.5723824    2233.7496  0.059000252  0.059107179            5 
 3156000   0.73162326   -3.5218119    2248.6508   0.05937502  0.059095857            3 
 3157000   0.75111191   -3.5574644    2242.5713  0.059195738  0.059084528           15 
 3158000   0.75707992   -3.5509602    2240.0203  0.059109677  0.059073237            7 
 3159000    0.7607373   -3.5347824     2241.685  0.059134878  0.059061916            5 
 3160000   0.72787776   -3.5410017    2245.0197  0.059204107   0.05905047            5 
 3161000   0.76036855    -3.549543    2238.3311  0.059009044  0.059039082            7 
 3162000   0.73963286   -3.5797126    2238.3763  0.058991573  0.059027659            4 
 3163000   0.75792443   -3.5607468    2249.3729  0.059262642  0.059016298            4 
 3164000   0.75015388    -3.533181    2242.9211  0.059073985  0.059004932            7 
 3165000    0.7346804    -3.562638    2236.4402  0.058884682  0.058993542           10 
 3166000   0.74839974   -3.5399894    2246.6711  0.059135374  0.058982173            5 
 3167000   0.74233904   -3.5434617    2244.0699  0.059048255  0.058970787            5 
 3168000   0.74472388   -3.5337855    2231.8827  0.058709035  0.058959335            8 
 3169000   0.75095472    -3.552358    2244.8508  0.059031523  0.058947949            9 
 3170000   0.75004859   -3.5326558    2249.7214  0.059140941  0.058936444            4 
 3171000   0.75994542   -3.5546358     2241.748  0.058912752  0.058925099            9 
 3172000   0.75135042   -3.5413491    2249.2806  0.059092072   0.05891361            6 
 3173000   0.73098641   -3.5477228    2238.4994  0.058790298  0.058902104            5 
 3174000   0.74349763   -3.5546817     2236.485  0.058718888  0.058890647            7 
 3175000   0.75538135   -3.5250506    2246.2413  0.058956466  0.058879189            6 
 3176000   0.73154904   -3.5489884     2243.785  0.058873451  0.058867743            7 
 3177000   0.73657414   -3.5469132    2247.4722  0.058951638  0.058856364            4 
 3178000   0.76168369   -3.5369546    2247.1112  0.058923621  0.058844912           10 
 3179000   0.75675251   -3.5619899    2240.5656  0.058733502  0.058833526            9 
 3180000    0.7380145   -3.5782571    2241.9394  0.058751032  0.058822046            5 
 3181000    0.7524792   -3.5405364    2244.4953   0.05879952  0.058810524            5 
 3182000   0.74120781   -3.5572182    2240.7293  0.058682415  0.058799029            5 
 3183000   0.73098437   -3.5562256    2241.5055    0.0586843  0.058787569            4 
 3184000    0.7350554     -3.55859    2244.1819  0.058735917  0.058776101            5 
 3185000   0.75532068   -3.5554697    2242.1611  0.058664603   0.05876461           13 
 3186000   0.72450291    -3.546044     2240.941  0.058614275  0.058753092            5 
 3187000   0.73797106       -3.566    2241.6389  0.058614133  0.058741581            5 
 3188000   0.73460034    -3.538669    2245.4831  0.058696232  0.058730111            4 
 3189000    0.7520005   -3.5564227    2248.1005  0.058746225  0.058718625            5 
 3190000   0.74867637   -3.5697089    2246.7892  0.058693552  0.058707133            7 
 3191000   0.73828881   -3.5708559    2249.0279  0.058733622  0.058695672            4 
 3192000   0.73016538     -3.54577    2257.7916  0.058944017  0.058684282            4 
 3193000   0.73035168   -3.5681608    2243.4385  0.058550959  0.058672817            7 
 3194000     0.750948   -3.5711641    2250.6123  0.058719795  0.058661284            6 
 3195000   0.75044736   -3.5596491    2253.2764  0.058770902  0.058649756            8 
 3196000   0.72767024   -3.5612794    2250.0627   0.05866872  0.058638285            9 
 3197000   0.73278877   -3.5643588    2252.6153  0.058716903  0.058626804            6 
 3198000   0.75728622    -3.537136    2255.1719  0.058765164  0.058615429            2 
 3199000   0.72336306   -3.5654868    2245.8593  0.058504202  0.058603996            6 
 3200000   0.74688959   -3.5564412    2249.1677  0.058572076  0.058592435            4 
 3201000    0.7465437   -3.5491167    2255.4465  0.058717238  0.058581078            6 
 3202000   0.73481714   -3.5821773    2246.5301  0.058466846  0.058569549            5 
 3203000   0.75071424   -3.5663794     2254.611  0.058658835  0.058558215            8 
 3204000   0.74725658   -3.5447061    2253.6172  0.058614679  0.058546791            3 
 3205000   0.75612502   -3.5827407    2253.0456  0.058581528  0.058535381            5 
 3206000   0.74262688   -3.5600437    2247.3205  0.058414443  0.058523992            5 
 3207000   0.74658442   -3.5686502    2256.1895  0.058626689  0.058512572            2 
 3208000   0.74949758   -3.5452934    2256.2589  0.058610216  0.058501267           10 
 3209000   0.75026331   -3.5720716    2250.2551  0.058436043  0.058489779            3 
 3210000    0.7287644   -3.5611168    2256.9077  0.058590543  0.058478382            5 
 3211000   0.74773665   -3.5669314    2251.3015    0.0584268  0.058466995            6 
 3212000    0.7415542   -3.5695192    2265.7359  0.058783101  0.058455664            5 
 3213000   0.73101539   -3.5564106    2256.3765  0.058522058   0.05844438            5 
 3214000   0.74147922    -3.547721     2256.913   0.05851776  0.058433068            5 
 3215000   0.74180871   -3.5654837    2260.0963  0.058582072  0.058421805            6 
 3216000   0.74722379   -3.5561987    2253.1698  0.058384375  0.058410651           10 
 3217000    0.7274763   -3.5572272    2258.1099  0.058494195   0.05839936            6 
 3218000     0.737894   -3.5636806    2264.0279  0.058629271  0.058388082            6 
 3219000   0.72836934   -3.5439094    2267.7476  0.058707352  0.058376773            4 
 3220000   0.70699263   -3.5516782    2251.7333  0.058274671  0.058365489            3 
 3221000    0.7403162   -3.5505333    2258.8983  0.058441951  0.058354228            4 
 3222000    0.7376799   -3.5717358    2263.1539  0.058533878  0.058342874            3 
 3223000   0.74679893   -3.5584874    2259.1727  0.058412781  0.058331551            6 
 3224000   0.74257287   -3.5679985    2255.6448  0.058303474  0.058320381            4 
 3225000   0.71827067   -3.5683471    2257.2469  0.058326793  0.058308985            8 
 3226000    0.7340465   -3.5738348    2257.6357  0.058318757  0.058297586            7 
 3227000   0.74042533    -3.550646    2259.3761  0.058345627  0.058286266            8 
 3228000   0.72890457   -3.5535444    2265.9668  0.058497698  0.058275003            8 
 3229000   0.75756024   -3.5674487    2261.0576  0.058352884  0.058263785            5 
 3230000    0.7403557   -3.5830541    2262.8084  0.058379989   0.05825263            8 
 3231000   0.73431247    -3.549913     2265.407  0.058428944  0.058241326            5 
 3232000   0.72538496   -3.5734957     2257.879  0.058216764  0.058230059            5 
 3233000   0.72362327   -3.5720317    2257.0858  0.058178311  0.058218765           10 
 3234000   0.72007651   -3.5471731    2273.2084  0.058575767  0.058207518            2 
 3235000   0.73123012   -3.5351269    2268.7325  0.058442361  0.058196352            4 
 3236000   0.71932511   -3.5918935    2263.2745  0.058283749  0.058185113            4 
 3237000   0.72411017   -3.5739706    2261.7705  0.058227025  0.058173902            6 
 3238000   0.74200109   -3.5536223     2264.919  0.058290072  0.058162577            2 
 3239000   0.73563564   -3.5676325    2265.3242  0.058282499  0.058151347            7 
 3240000   0.72912709   -3.5771275    2262.9974  0.058204667  0.058140126            5 
 3241000    0.7482518   -3.5733883    2266.4991  0.058276743  0.058128891            5 
 3242000   0.73390912   -3.5651269    2275.6818  0.058494802  0.058117743           11 
 3243000   0.72677715   -3.5564659    2270.4441  0.058342175  0.058106623            7 
 3244000   0.71614839   -3.5789004    2267.7478  0.058254927  0.058095439            5 
 3245000    0.7367114   -3.5875921     2263.951  0.058139472  0.058084149            6 
 3246000   0.74933209   -3.5570876    2272.3553   0.05833732  0.058072947            4 
 3247000   0.70950361   -3.5632527    2268.7906  0.058227867   0.05806182            4 
 3248000   0.74093463   -3.5496878    2265.9485   0.05813702  0.058050626            3 
 3249000   0.74873183   -3.5686391    2268.4024  0.058182066  0.058039458            5 
 3250000   0.72568511   -3.5762943    2272.8283   0.05827765  0.058028269            4 
 3251000   0.73192092   -3.5687155    2266.9457  0.058108933  0.058017115            4 
 3252000   0.72102842   -3.5845706    2266.9747  0.058091809  0.058005694            3 
 3253000   0.71798343   -3.5617641     2267.999  0.058100191  0.057994427            6 
 3254000   0.71697485   -3.5647089    2272.1809   0.05818943  0.057983269            5 
 3255000   0.73063123   -3.5712953    2268.8159  0.058085403  0.057971966            8 
 3256000    0.7236813   -3.5889063     2271.934  0.058147368  0.057960679            6 
 3257000   0.72003582   -3.5678144    2270.3046  0.058087825  0.057949405            4 
 3258000   0.74312408    -3.563503    2278.9974  0.058292342  0.057938158            5 
 3259000   0.73078139    -3.560901    2275.5663  0.058186723   0.05792718            4 
 3260000   0.71960089   -3.5713471    2277.3927  0.058215561  0.057916095            5 
 3261000   0.72086181   -3.5978038    2269.1492  0.057987049  0.057904974           10 
 3262000   0.72457555   -3.5827895    2268.4694  0.057951907  0.057893685            7 
 3263000   0.72370613   -3.5777489    2270.8039  0.057993766  0.057882416            7 
 3264000   0.72590287    -3.579206    2267.9088  0.057902085  0.057871288            9 
 3265000   0.72500574   -3.5866063    2275.8693  0.058087528  0.057860082            6 
 3266000   0.72716377    -3.574463    2278.2207  0.058129739  0.057848845            3 
 3267000   0.72920308   -3.5732803    2277.7551   0.05810007  0.057837686            8 
 3268000   0.73238897   -3.5720863    2269.5936  0.057874174  0.057826621            4 
 3269000   0.73031106   -3.5932685    2275.3783  0.058003933  0.057815532            5 
 3270000     0.728286    -3.565778    2279.1335  0.058081894  0.057804419            4 
 3271000    0.7276775    -3.572867    2279.9772  0.058085632  0.057793316            4 
 3272000   0.73449789   -3.6073742    2277.2921  0.057999493  0.057782269            6 
 3273000   0.73285763   -3.5730556    2275.1625  0.057927552  0.057771202            6 
 3274000   0.74022124   -3.5684868    2272.6523  0.057845966  0.057760128            3 
 3275000   0.72073533   -3.5779758    2277.3624  0.057948153  0.057749001            5 
 3276000   0.71713751   -3.5647758    2283.0759  0.058075801  0.057737856           10 
 3277000   0.72186733   -3.5497527    2283.5739  0.058070743  0.057726816            4 
 3278000     0.725126   -3.5848757    2281.4303  0.057998534  0.057715642            3 
 3279000   0.70554801   -3.5997665    2271.4223  0.057726499   0.05770449            6 
 3280000   0.72013998   -3.5751418    2280.9554  0.057951104  0.057693273            3 
 3281000   0.73408987   -3.5799578    2272.1078  0.057708721  0.057681991            3 
 3282000   0.73215243   -3.6059852    2268.3297   0.05759521  0.057670747            3 
 3283000   0.72370168   -3.5732957    2272.0477  0.057672041  0.057659526            3 
 3284000   0.73249435   -3.5511306    2281.4203  0.057892314  0.057648294            3 
 3285000   0.71617924   -3.5925312    2275.9911  0.057736963  0.057637093           20 
 3286000   0.72420767   -3.5740886    2280.3135   0.05782901  0.057625837            4 
 3287000   0.72867826   -3.5794287    2272.0393  0.057601646  0.057614596            9 
 3288000   0.73703402    -3.604123    2271.2879  0.057565082  0.057603284            8 
 3289000   0.73186824   -3.5896759    2274.8286  0.057637292  0.057591946            9 
 3290000   0.72387262   -3.5752683    2275.7888  0.057644093  0.057580594            4 
 3291000   0.74335396   -3.5905239    2273.1796  0.057560509  0.057569327            3 
 3292000   0.72169601   -3.5746141    2278.7912  0.057685075  0.057558044            5 
 3293000   0.71251999   -3.5798102    2275.9037  0.057594485  0.057546718            7 
 3294000   0.73118269   -3.6086453    2278.2295   0.05763584  0.057535544            6 
 3295000   0.71956987   -3.6115368    2282.8717  0.057735753  0.057524332            5 
 3296000   0.72728059   -3.5895643    2278.9235  0.057618415  0.057513167            5 
 3297000   0.72630293   -3.5697181    2279.2335  0.057608773  0.057501901            5 
 3298000   0.72247856     -3.59823    2275.8409  0.057505582  0.057490615            8 
 3299000   0.71366605   -3.6069777    2276.9574  0.057516352  0.057479426            9 
 3300000   0.72112119   -3.5886804    2282.1374  0.057629731  0.057468196            4 
 3301000   0.73209515   -3.5786685    2286.1889  0.057714553  0.057457017            6 
 3302000   0.72183177   -3.5775626    2281.8254  0.057586953  0.057445909           20 
 3303000   0.72504455   -3.5841213    2283.0923  0.057601481  0.057434575            5 
 3304000   0.72734177   -3.5792628    2279.1468  0.057484534  0.057423457            3 
 3305000   0.71630542   -3.5950992    2286.0119  0.057640239  0.057412357            5 
 3306000   0.73333616   -3.6116512    2284.7741  0.057591605  0.057401191            5 
 3307000   0.72762342   -3.5850687    2282.4733  0.057516211  0.057390026            4 
 3308000   0.73936815   -3.6005751    2286.4088  0.057597965  0.057378957            5 
 3309000   0.71380143   -3.5684167     2287.907  0.057618289  0.057367882            8 
 3310000   0.73467349   -3.5796812    2286.6336  0.057568822  0.057356875            4 
 3311000   0.72173959   -3.5940276    2282.4199  0.057445381  0.057345706           11 
 3312000   0.70990076   -3.6013036    2277.4721  0.057303546  0.057334476            4 
 3313000   0.73150296   -3.5957474    2282.4215  0.057410742  0.057323263            6 
 3314000   0.71489115   -3.5637749    2290.4011  0.057594072  0.057312092            6 
 3315000    0.7145284   -3.5813072     2290.099  0.057569106  0.057300924            5 
 3316000   0.72116453    -3.574396    2288.4507  0.057510322  0.057289794            7 
 3317000   0.71501498   -3.5814216     2282.707  0.057348684  0.057278574            6 
 3318000   0.72154666   -3.5972187    2281.5181  0.057301539  0.057267374           12 
 3319000   0.73385197   -3.5764248    2288.5986  0.057462051  0.057256285            5 
 3320000   0.72630768   -3.5679667    2293.1468  0.057558905  0.057245117            3 
 3321000   0.71733402   -3.5802986    2289.4308   0.05744833  0.057234018            3 
 3322000   0.74341147   -3.6126782    2290.0484  0.057446528  0.057222882            3 
 3323000   0.71261465   -3.5870398    2289.0346  0.057403818  0.057211852            2 
 3324000    0.7205875   -3.6009067    2287.6773  0.057352519  0.057200744            7 
 3325000   0.70884543   -3.5890546    2293.0248  0.057469293  0.057189715            4 
 3326000   0.72175119   -3.6084171     2291.131  0.057404566  0.057178637           14 
 3327000   0.72331377   -3.5918447    2291.3271  0.057392222   0.05716742            3 
 3328000   0.72655883   -3.5942997    2289.4483  0.057327933  0.057156292            5 
 3329000   0.72638495    -3.592695    2285.1437  0.057202956  0.057145192            9 
 3330000   0.72360891   -3.5921041    2289.6274  0.057297984  0.057134121            4 
 3331000   0.71474452   -3.5961803    2291.3286  0.057323342  0.057123006            6 
 3332000   0.72746587   -3.6079921    2290.0107  0.057273176  0.057111898            3 
 3333000   0.71555011   -3.5754885    2298.9783  0.057480205  0.057100823            3 
 3334000   0.72296832   -3.6111374     2287.286  0.057170717  0.057089639            8 
 3335000   0.70458044    -3.600854    2293.7575  0.057315281  0.057078541            7 
 3336000   0.72793334   -3.5869496    2287.1874  0.057133979  0.057067479            4 
 3337000   0.71645687   -3.5724765      2298.34  0.057395366  0.057056368            4 
 3338000   0.71010193   -3.6149697    2289.7703  0.057164229  0.057045313            5 
 3339000   0.72269774    -3.593626    2294.4032  0.057262734  0.057034131            7 
 3340000   0.70353982    -3.614098    2285.9043  0.057033541  0.057023012            6 
 3341000   0.73660053   -3.5876015    2296.9709  0.057292499   0.05701188            7 
 3342000   0.72412557   -3.5956055    2294.9496  0.057224955  0.057000705            4 
 3343000   0.71184442   -3.6145073    2281.2658  0.056866732  0.056989381            6 
 3344000   0.71363079   -3.6053063    2291.9149  0.057115104  0.056978058            5 
 3345000   0.71798019    -3.593215    2294.9102  0.057172652  0.056966919            3 
 3346000   0.73991886   -3.5707183    2293.9535  0.057131737  0.056955813            5 
 3347000   0.71230407   -3.6081369    2295.9103  0.057163387  0.056944651            8 
 3348000   0.70758636   -3.5951956     2300.634   0.05726389  0.056933531            4 
 3349000   0.72149234   -3.5856175     2294.506  0.057094308   0.05692245            6 
 3350000   0.72787198   -3.6042874    2295.3964  0.057099412  0.056911269            8 
 3351000   0.71598249   -3.5872081    2287.9785  0.056897903  0.056899998            8 
 3352000    0.7151594   -3.5736351    2304.8558  0.057300512  0.056888892            8 
 3353000   0.70897683   -3.5891733    2299.6563  0.057154198  0.056877796            5 
 3354000   0.72491014   -3.6146023    2294.2232  0.057002166  0.056866597            8 
 3355000   0.71992941   -3.5784417    2297.5986  0.057069017  0.056855349            7 
 3356000   0.71445124   -3.5872454    2297.0389  0.057038113  0.056844284            5 
 3357000   0.71084199   -3.6082982    2298.4338  0.057055749  0.056833154           11 
 3358000   0.73177378   -3.5840351    2303.3701  0.057161258  0.056822012            4 
 3359000   0.71036766   -3.5921561    2297.9879  0.057010715  0.056810865            7 
 3360000   0.71328967   -3.6305979    2294.8686  0.056916384  0.056799757            7 
 3361000   0.69729335   -3.5979078    2298.8303  0.056997676  0.056788593            8 
 3362000   0.72605291   -3.5826921    2298.1334   0.05696345  0.056777554            3 
 3363000   0.72258208   -3.6097941    2303.8702  0.057088665  0.056766476            5 
 3364000   0.72960391   -3.5946911     2305.675  0.057116403  0.056755368           10 
 3365000   0.72553522   -3.6031101    2301.6488  0.056999723  0.056744344            8 
 3366000   0.71630617   -3.6169728    2300.5586  0.056955798   0.05673329            3 
 3367000   0.71016456   -3.6015416    2300.2182  0.056930456  0.056722184           10 
 3368000    0.7182159   -3.6230838     2301.085  0.056935001  0.056711078            6 
 3369000   0.70987467   -3.5811558    2308.4279   0.05709973  0.056700037            7 
 3370000   0.70758023   -3.5824011    2309.3064  0.057104511  0.056689098            6 
 3371000   0.70576181   -3.5952297    2302.8619  0.056928259  0.056677914            8 
 3372000   0.70974183   -3.5973791    2303.0496  0.056916014  0.056666853            6 
 3373000   0.70205444   -3.6142624    2297.3325  0.056757893  0.056655727            7 
 3374000   0.71446879   -3.6156987    2299.5281    0.0567953  0.056644582            6 
 3375000   0.71234574   -3.5935957    2303.5016  0.056876582  0.056633441            4 
 3376000   0.70253783   -3.6142776    2301.4592   0.05680932  0.056622329            8 
 3377000   0.71107051   -3.6062476    2302.0588  0.056807295  0.056611206            3 
 3378000   0.70686131   -3.6212374    2299.4789  0.056726833  0.056600186            9 
 3379000   0.70179744   -3.6110169     2309.795  0.056964463  0.056589118            5 
 3380000   0.72111557    -3.602774    2302.2137  0.056760692  0.056578105            5 
 3381000   0.71906777   -3.6126855    2298.6254  0.056655463  0.056567094            6 
 3382000   0.72879321   -3.6011608    2311.6891  0.056960603  0.056556065            5 
 3383000   0.73345629     -3.61724    2299.8375  0.056651826  0.056545004            3 
 3384000   0.72441486    -3.621753    2299.0032   0.05661454  0.056533885           13 
 3385000    0.7180516   -3.5926064     2301.818  0.056667109  0.056522729            4 
 3386000    0.7194598   -3.6192236    2307.7973  0.056797533   0.05651167            2 
 3387000   0.72106377   -3.6034414    2304.1008  0.056689814  0.056500576            5 
 3388000   0.70616911   -3.6240106    2300.0286  0.056572919  0.056489503            9 
 3389000   0.70660008   -3.6070561    2305.6792   0.05669517  0.056478388            4 
 3390000   0.70097386   -3.6039269     2308.071  0.056737243  0.056467337           10 
 3391000   0.70351498    -3.606126    2312.5588  0.056830798  0.056456328            6 
 3392000   0.71501482   -3.6079075    2305.9187  0.056650912  0.056445296            5 
 3393000   0.70693656   -3.6151583    2312.2828  0.056790519  0.056434314            6 
 3394000   0.71148998   -3.6185951    2303.2086  0.056550987   0.05642324            5 
 3395000   0.71161922   -3.6201785    2308.8372  0.056672489  0.056412176           10 
 3396000   0.70002216   -3.5969267     2312.446  0.056744356  0.056401163            4 
 3397000   0.71442124    -3.617664    2307.2953  0.056601298  0.056390135            4 
 3398000   0.71805345   -3.6130821    2310.8952  0.056672924  0.056379057            6 
 3399000   0.73433449   -3.6155906    2306.8624  0.056557379  0.056368067            7 
 3400000   0.71523585   -3.6309314     2304.819  0.056490663  0.056357056            7 
 3401000   0.71928807   -3.6320993    2302.2719  0.056411642  0.056346019            6 
 3402000   0.70204103   -3.6220151    2313.1577  0.056661711  0.056334932            6 
 3403000   0.70846447   -3.6224101    2313.7919  0.056660591  0.056323842            5 
 3404000   0.70878761   -3.6396664    2305.6465  0.056444538  0.056312748           11 
 3405000   0.70571354   -3.6264424    2308.2259  0.056491089  0.056301653            3 
 3406000   0.70436294   -3.6206613    2307.9986  0.056468941   0.05629052            5 
 3407000   0.69858314   -3.6135157    2309.1001   0.05647931  0.056279498            7 
 3408000   0.70892992   -3.6343469    2305.2662   0.05636899  0.056268405            4 
 3409000   0.70475165   -3.6165342    2312.5277  0.056529961  0.056257396            8 
 3410000   0.70156296   -3.6119151    2320.5301  0.056708946  0.056246375            9 
 3411000   0.70753056   -3.6013597    2311.6021  0.056474203  0.056235362            6 
 3412000   0.70313007    -3.611067    2306.3056  0.056328293  0.056224232            3 
 3413000   0.70748696   -3.6359523    2308.7309  0.056371006  0.056213142            3 
 3414000    0.6986526   -3.6448915    2305.4829  0.056275212  0.056201954            5 
 3415000   0.72779075   -3.6469754    2314.5889  0.056480941  0.056190859           10 
 3416000    0.6975288   -3.6309698    2319.4936  0.056584054  0.056179691            5 
 3417000   0.69886483   -3.6340733    2316.9387  0.056505187   0.05616872            8 
 3418000   0.70687423   -3.6266345    2311.0783  0.056345776  0.056157755            4 
 3419000   0.70406201   -3.6248951    2313.2683  0.056382672  0.056146675            5 
 3420000   0.71631518   -3.6377662    2307.7118  0.056230794  0.056135667           11 
 3421000   0.68192624   -3.5891304    2314.2415  0.056373418  0.056124659            7 
 3422000   0.69650385    -3.602623    2322.4732  0.056557402  0.056113667            5 
 3423000   0.70671086   -3.6312619     2313.302  0.056317608   0.05610277            3 
 3424000   0.71184519   -3.6193745    2309.0593    0.0561979  0.056091832           16 
 3425000   0.70429406   -3.6017081    2323.1725  0.056524879  0.056080889            6 
 3426000   0.69844458   -3.6253811    2316.9611  0.056357294  0.056069993            5 
 3427000   0.70341804   -3.6113587    2317.4658  0.056353121  0.056058972            4 
 3428000   0.71484892   -3.6054776    2316.4435  0.056311831   0.05604797           11 
 3429000   0.69811748   -3.6271593    2316.2794  0.056291422  0.056036974            4 
 3430000   0.69157172   -3.6148927    2323.1398  0.056441687  0.056025991            6 
 3431000   0.70531877   -3.6249748    2321.3129  0.056380862  0.056015173            8 
 3432000    0.7381868   -3.6132094    2318.1517  0.056287676  0.056004271            5 
 3433000   0.70077631   -3.6370998    2317.5842  0.056257506  0.055993301           10 
 3434000   0.69479982   -3.6188341    2318.4283  0.056261608  0.055982343            9 
 3435000   0.68912517   -3.6252305    2317.5566  0.056224081  0.055971322            8 
 3436000    0.6923445   -3.6210818    2320.3307  0.056274999  0.055960281            5 
 3437000   0.70390777   -3.6108356    2319.8495  0.056246958  0.055949237            7 
 3438000   0.69441792   -3.6391005    2320.9793  0.056257981  0.055938255           11 
 3439000   0.69023865     -3.63956    2319.6406  0.056209183   0.05592726            7 
 3440000   0.69649677   -3.6040567    2321.9113   0.05624785  0.055916279            6 
 3441000   0.71766602   -3.6392248     2316.465  0.056099608  0.055905389            4 
 3442000   0.68828738   -3.6231042    2319.1417  0.056148114   0.05589434            4 
 3443000   0.70639519   -3.6287547    2318.8857  0.056125609  0.055883385            7 
 3444000   0.70723433   -3.6425885    2321.0338   0.05616129  0.055872325            5 
 3445000   0.69850822   -3.6082499    2318.6755  0.056087941   0.05586134            5 
 3446000   0.72015102   -3.6400316    2320.4878  0.056115492  0.055850314            6 
 3447000   0.69527788   -3.6278671    2316.0817  0.055992693  0.055839237            7 
 3448000   0.71176721   -3.6098927    2322.9042  0.056141342  0.055828272            6 
 3449000   0.69345884   -3.6283273    2321.0235  0.056079626  0.055817202            4 
 3450000   0.69374036   -3.6349372    2315.7049    0.0559349  0.055806094            5 
 3451000   0.70021352    -3.629958    2322.0308  0.056071448  0.055795079            6 
 3452000   0.69093174   -3.6234298    2318.0835  0.055959915   0.05578403            6 
 3453000   0.69313297   -3.6272461    2316.4953  0.055905379  0.055773033            7 
 3454000   0.69928524    -3.631611    2313.8118   0.05582445  0.055762009            6 
 3455000   0.68389233   -3.6497666    2314.8144  0.055832474   0.05575098            4 
 3456000   0.70505901   -3.6107689    2319.9717  0.055940676  0.055740019            7 
 3457000   0.68469798   -3.6333414    2332.2798  0.056221188  0.055729009           13 
 3458000   0.70789201   -3.6494368    2317.5709  0.055850465  0.055717954            5 
 3459000   0.68270345   -3.6360079    2326.2779  0.056044086  0.055706845            8 
 3460000     0.692614   -3.6338354    2317.2738  0.055811027  0.055695717            5 
 3461000   0.67735872   -3.6114443    2317.7332  0.055805962  0.055684657            2 
 3462000   0.69676197   -3.6537169    2325.2623  0.055971073  0.055673592            6 
 3463000   0.68414412   -3.6185827    2323.8958  0.055922028  0.055662566           10 
 3464000   0.69604621   -3.6192544     2332.021  0.056101352  0.055651614            6 
 3465000     0.707668   -3.6261311    2329.0467  0.056013628  0.055640726            5 
 3466000   0.70045488   -3.6497219    2321.3651   0.05581278  0.055629675            3 
 3467000   0.69784152   -3.6329894    2315.5071  0.055655876  0.055618597            5 
 3468000   0.70283172   -3.6300884    2322.9089  0.055817689  0.055607526           16 
 3469000   0.69180606   -3.6417933    2316.9351  0.055658092  0.055596471            4 
 3470000   0.67412715   -3.6294596    2324.3092  0.055819144  0.055585465            5 
 3471000   0.69976666   -3.6341087    2315.9891  0.055603311  0.055574454            8 
 3472000   0.70122526   -3.6294294    2323.2345  0.055761197  0.055563431            9 
 3473000   0.69342779   -3.6439288    2320.9076  0.055689308  0.055552422            7 
 3474000   0.70016447   -3.6212509    2325.4933  0.055783277  0.055541367            6 
 3475000    0.7105823   -3.6348871    2326.3094  0.055786796  0.055530382            4 
 3476000   0.69127525   -3.6363927    2325.7707  0.055757833  0.055519362            4 
 3477000   0.69131964   -3.6339666    2322.7054  0.055668331  0.055508373            4 
 3478000   0.69718595   -3.6250475    2318.5305  0.055552293  0.055497393            5 
 3479000   0.71524363   -3.6249475    2326.8075  0.055734587  0.055486408            8 
 3480000   0.69241698   -3.6399842     2320.767  0.055573922  0.055475309            7 
 3481000   0.70308839   -3.6421146    2329.3251  0.055762835  0.055464313            8 
 3482000   0.67849822   -3.6620027    2326.1832  0.055671625  0.055453285            4 
 3483000   0.69712518   -3.6530968    2321.7447  0.055549446  0.055442178            4 
 3484000   0.69796593   -3.6598136     2323.738   0.05558118  0.055431174            6 
 3485000   0.67816492   -3.6283008    2328.2327  0.055672708  0.055420154            3 
 3486000   0.70953984   -3.6323466     2328.939  0.055673624  0.055409186            5 
 3487000   0.68960517   -3.6446133    2331.0936  0.055709149  0.055398247           10 
 3488000   0.69701753   -3.6228581    2330.8741  0.055687932  0.055387253            5 
 3489000   0.69514001   -3.6454367    2325.8546  0.055552083  0.055376288            2 
 3490000   0.69110404   -3.6347869    2330.0951  0.055637418  0.055365309            5 
 3491000   0.69199832   -3.6245372    2338.7509  0.055828104  0.055354308            5 
 3492000   0.69590814   -3.6580747    2327.3583  0.055540243  0.055343258            6 
 3493000   0.68329417   -3.6220514    2326.9235  0.055513969  0.055332205            5 
 3494000   0.67563852   -3.6462621    2336.0777   0.05571641  0.055321275            6 
 3495000    0.6802175    -3.636839    2326.0792  0.055462069  0.055310254            4 
 3496000   0.70072416   -3.6092904    2328.1791  0.055496261  0.055299264            4 
 3497000   0.70416057   -3.6226536     2337.222  0.055695881  0.055288349            4 
 3498000   0.69251516   -3.6280148    2330.7337  0.055525388  0.055277336            4 
 3499000   0.69625815   -3.6308311    2327.7513   0.05543849  0.055266217            7 
 3500000   0.69955464   -3.6462907    2326.9617  0.055403851  0.055255148            6 
 3501000   0.68795344   -3.6213679     2335.344  0.055587546  0.055244139            7 
 3502000   0.70490021   -3.6320882    2339.3555  0.055667131  0.055233131            3 
 3503000   0.70621844   -3.6330041    2332.1036  0.055478724  0.055222161            9 
 3504000   0.68976077   -3.6695663    2332.0081  0.055460619  0.055211206            7 
 3505000   0.69580605   -3.6472928    2336.6221  0.055554496  0.055200251            4 
 3506000   0.68651998    -3.644967     2334.662  0.055492061  0.055189259            5 
 3507000   0.67967412   -3.6539005    2332.2378  0.055418635  0.055178278            5 
 3508000   0.68493733    -3.641518    2334.5243  0.055457152  0.055167324            3 
 3509000   0.68910882   -3.6538954    2331.0852  0.055359675  0.055156249           10 
 3510000   0.67978132   -3.6261519     2334.273  0.055419587  0.055145228           10 
 3511000   0.69462788   -3.6513199    2338.7311  0.055509615   0.05513417            4 
 3512000   0.68322454   -3.6524201    2332.8688  0.055354707  0.055123158            7 
 3513000   0.68293024   -3.6298459    2333.3504  0.055350375  0.055112205            5 
 3514000   0.69724893   -3.6741184    2333.6125  0.055340838  0.055101165            8 
 3515000   0.68237546   -3.6244546    2334.6438  0.055349544  0.055090137            3 
 3516000   0.68975823   -3.6646482    2335.8714  0.055362899  0.055079131            4 
 3517000   0.69388279   -3.6544553    2330.2642  0.055214298  0.055068045            6 
 3518000    0.6853347   -3.6578322    2333.2044  0.055268249  0.055056947            9 
 3519000    0.6913293   -3.6533598    2331.1388  0.055203627  0.055045868            7 
 3520000   0.69846866   -3.6537709    2329.4668  0.055148362  0.055034763           10 
 3521000   0.68000888   -3.6401632    2336.2658  0.055293614  0.055023645           16 
 3522000   0.69107445   -3.6388071    2328.1663  0.055086275  0.055012649            5 
 3523000    0.6762716   -3.6411738     2334.916  0.055230297  0.055001555            7 
 3524000   0.70202853   -3.6409418    2336.6123  0.055254736  0.054990494            5 
 3525000   0.68787392    -3.652379    2341.8638   0.05536321  0.054979438            5 
 3526000   0.68735184   -3.6531165     2337.602  0.055246786   0.05496838            7 
 3527000   0.68677639   -3.6444896    2343.5155  0.055370841  0.054957331            6 
 3528000   0.67911602   -3.6459875    2330.5692  0.055049349  0.054946177           10 
 3529000   0.69956433   -3.6220631    2334.5415  0.055127549   0.05493512           13 
 3530000   0.67666298    -3.642189    2340.5578  0.055253962   0.05492407            4 
 3531000   0.68985834   -3.6485297    2334.5263  0.055095966   0.05491287            7 
 3532000    0.6847379   -3.6564469    2336.6634   0.05513079  0.054901712            9 
 3533000     0.696902   -3.6420999    2332.2245  0.055010486  0.054890501            4 
 3534000   0.67948265   -3.6350989    2333.2345  0.055018734  0.054879392            5 
 3535000   0.66400498   -3.6305321    2334.5275  0.055033651  0.054868402            4 
 3536000   0.69460883   -3.6585247    2332.0804  0.054960417  0.054857274            6 
 3537000   0.69401482   -3.6541302    2337.4432  0.055071228   0.05484618            8 
 3538000   0.67965849   -3.6442304    2343.4563  0.055197294  0.054835097            6 
 3539000   0.68140219   -3.6169428    2339.4168  0.055086578  0.054824119            5 
 3540000   0.67763162   -3.6403723     2338.741  0.055055108  0.054813097            7 
 3541000   0.67669357   -3.6534141    2338.1467  0.055025575  0.054802012            6 
 3542000   0.69168099    -3.671608    2337.2186  0.054988203  0.054790956            7 
 3543000   0.68078136   -3.6536567    2334.9279  0.054918806  0.054779956            6 
 3544000   0.69857971    -3.655639    2336.2066  0.054933375  0.054768841            9 
 3545000   0.68593643   -3.6426351    2332.6771  0.054834911  0.054757822            6 
 3546000   0.69135851   -3.6541364    2343.4813  0.055073354  0.054746783           12 
 3547000   0.67858224   -3.6508561    2340.8264  0.054995452  0.054735741            3 
 3548000   0.67202116   -3.6257831    2333.7566  0.054813901  0.054724686            8 
 3549000   0.69007986   -3.6649245    2339.5847  0.054935304  0.054713537            6 
 3550000   0.68955968   -3.6477982    2340.9953  0.054952942  0.054702457            4 
 3551000   0.67808141   -3.6477488    2340.5981  0.054928144  0.054691307            4 
 3552000    0.6819216   -3.6576702    2338.5272  0.054864095   0.05468023           14 
 3553000   0.66719145   -3.6600149    2344.8987  0.054998094  0.054669136            4 
 3554000    0.6771389   -3.6644458    2338.1578   0.05482456   0.05465791            5 
 3555000   0.67732314    -3.658536    2333.9059  0.054709468  0.054646632           13 
 3556000   0.70164899    -3.643321    2340.6649  0.054852477  0.054635552           12 
 3557000   0.69280105   -3.6499319    2337.9389  0.054773192  0.054624404           17 
 3558000   0.68225845   -3.6394853    2337.1909  0.054740278  0.054613316            5 
 3559000   0.68456903   -3.6447078     2341.246  0.054819847    0.0546022            4 
 3560000   0.68596352   -3.6504874    2335.3679  0.054666852   0.05459101            3 
 3561000   0.69101455   -3.6542458    2337.9364  0.054711608  0.054579764            6 
 3562000   0.67409474   -3.6701767     2338.189  0.054702158  0.054568673            4 
 3563000   0.67209562   -3.6453223    2331.5231  0.054530898  0.054557475            4 
 3564000   0.67032607    -3.668328    2340.2671  0.054720051  0.054546274            5 
 3565000   0.67164725   -3.6841897    2334.7254  0.054575161  0.054534992            8 
 3566000   0.68235091   -3.6421192    2337.3328  0.054620788  0.054523669            6 
 3567000    0.6871973   -3.6530258     2339.495  0.054655989  0.054512493            9 
 3568000   0.67342695   -3.6395544    2346.9277  0.054814267  0.054501317            9 
 3569000   0.69777388    -3.648303    2342.1597  0.054687581  0.054490089            7 
 3570000   0.66887985   -3.6684438     2332.739  0.054452358   0.05447884            6 
 3571000   0.68429217   -3.6669866    2340.1699  0.054610518   0.05446763            7 
 3572000    0.6881566    -3.669717    2336.6104  0.054512187  0.054456475            8 
 3573000   0.68366977   -3.6814294    2337.3303   0.05451372  0.054445194            3 
 3574000   0.67428874   -3.6788179    2339.3401  0.054545329  0.054434011            7 
 3575000   0.68906384   -3.6773353    2330.6576  0.054327684  0.054422741            6 
 3576000   0.67117314   -3.6764639    2344.7825   0.05464165  0.054411527           11 
 3577000   0.68487384   -3.6489604    2344.1968  0.054612729  0.054400322            5 
 3578000   0.67607494   -3.6729562    2339.1531  0.054479997  0.054389038            6 
 3579000   0.69255899   -3.6490686      2337.02  0.054415106  0.054377801            5 
 3580000   0.68191563   -3.6823426    2344.0287  0.054563052  0.054366567            9 
 3581000   0.69285962   -3.6575254    2337.0398  0.054385177  0.054355204           11 
 3582000   0.66887475   -3.6589276    2341.2009  0.054466799   0.05434394            3 
 3583000   0.67954412   -3.6714752    2338.5117  0.054389053  0.054332689            6 
 3584000   0.67597316   -3.6349804    2338.1466  0.054365387  0.054321431            4 
 3585000   0.67515292   -3.6655395    2341.7892  0.054434895  0.054310187            6 
 3586000   0.67978725   -3.6548509    2339.1352  0.054358042  0.054298927            4 
 3587000    0.6783835   -3.6612029    2341.9495  0.054408268  0.054287779            5 
 3588000   0.66957534   -3.6654695    2340.0755  0.054349579  0.054276581            3 
 3589000   0.67022142   -3.6613576    2344.7431  0.054442814  0.054265314            4 
 3590000   0.68099013   -3.6690225    2342.9451  0.054385912  0.054254005           12 
 3591000   0.67571234    -3.659947    2342.5098  0.054360666  0.054242642            2 
 3592000   0.66574885   -3.6783566    2335.8173  0.054190267   0.05423131            6 
 3593000   0.67123535   -3.6549066    2335.1272  0.054159181  0.054219995            9 
 3594000   0.68156687   -3.6678633    2344.3483  0.054357917  0.054208632           10 
 3595000   0.66665225   -3.6643176     2340.688  0.054257952  0.054197365            8 
 3596000   0.67068165   -3.6801033    2341.3383  0.054257932  0.054186082            6 
 3597000   0.67460198   -3.6331089    2346.6775  0.054366543  0.054174792            7 
 3598000   0.65767038    -3.683311    2344.2776  0.054295849  0.054163546            8 
 3599000   0.67147266   -3.6500611    2347.6373  0.054358556  0.054152292            5 
 3600000   0.67352809   -3.6758866    2342.6308  0.054227565  0.054140971            4 
 3601000   0.67647069   -3.6550109    2337.9059  0.054103163  0.054129733            7 
 3602000    0.6725071   -3.6774408    2340.8459   0.05415616  0.054118576            8 
 3603000   0.68030157   -3.6742872    2343.8311  0.054210175  0.054107355            6 
 3604000   0.68272763   -3.6728542    2346.8054  0.054263905  0.054096205            8 
 3605000   0.67269423   -3.6575885    2341.4672  0.054125455  0.054085053            7 
 3606000   0.67461195   -3.6642587    2344.5282  0.054181183  0.054073878            9 
 3607000    0.6749947   -3.6681401    2346.8348  0.054219453  0.054062741           13 
 3608000   0.67864708   -3.6743755     2341.979  0.054092272  0.054051505           13 
 3609000   0.66496602   -3.6836394    2344.4755   0.05413493  0.054040218            4 
 3610000   0.67472096   -3.6800952    2338.5614  0.053983413  0.054028898            7 
 3611000   0.67336031   -3.6626101    2345.5285  0.054129246  0.054017553           10 
 3612000   0.68420099   -3.6683427    2349.6707  0.054209826  0.054006272            5 
 3613000   0.66544439   -3.6648559    2346.6103  0.054124233  0.053994953            9 
 3614000   0.66731301   -3.6657628    2335.8472  0.053861077   0.05398368           10 
 3615000   0.67570771   -3.6808646    2346.5643  0.054093229  0.053972358            8 
 3616000   0.68194971   -3.6647431    2342.3036   0.05398008  0.053961063            6 
 3617000   0.66068097   -3.6605899    2350.3445  0.054150413  0.053949758            6 
 3618000   0.68579895    -3.692312    2348.0211   0.05408193  0.053938445            4 
 3619000   0.66869668   -3.6830256    2341.7176  0.053921838   0.05392704            5 
 3620000   0.67308725   -3.6553991     2345.891  0.054003016   0.05391569            8 
 3621000   0.66029713   -3.6689875    2347.3739  0.054022229  0.053904433            8 
 3622000   0.68064582   -3.6717252    2339.9239  0.053835909  0.053893095            5 
 3623000   0.67856665   -3.6815164    2344.8895  0.053935264  0.053881691            9 
 3624000   0.67680053   -3.6858221    2347.9563  0.053990902  0.053870316           12 
 3625000   0.65620518   -3.6909487    2347.9408   0.05397565  0.053859042            7 
 3626000   0.67285319   -3.6838868    2342.0116  0.053824499  0.053847727            4 
 3627000   0.65077137   -3.6694396     2347.935  0.053945753  0.053836353            4 
 3628000   0.67508505   -3.6668674    2345.5415  0.053875907  0.053825101            6 
 3629000   0.68865972   -3.6639084     2344.265  0.053831749  0.053813774            5 
 3630000    0.6523644   -3.6661695    2350.0241   0.05394913  0.053802455            4 
 3631000   0.66876323   -3.6958601    2343.6137  0.053787149  0.053791117            7 
 3632000   0.65883294   -3.6733051    2346.3862  0.053835954  0.053779799            5 
 3633000   0.67652114   -3.6706843    2353.6186   0.05398703  0.053768493            6 
 3634000   0.67096554   -3.6664535    2346.5572  0.053810246  0.053757194            6 
 3635000   0.66557277   -3.6827286    2346.1915   0.05378706  0.053745904            5 
 3636000   0.68134082   -3.6645057    2344.5269  0.053734116  0.053734616           10 
 3637000    0.6657503   -3.6501312    2346.8196  0.053771873  0.053723264            9 
 3638000   0.66697203   -3.7112151    2353.2626  0.053904678  0.053712028            5 
 3639000   0.67335155     -3.69256    2350.8012  0.053833499  0.053700712            7 
 3640000   0.66552022   -3.6755398     2356.396  0.053946794  0.053689555           11 
 3641000   0.67373095   -3.6913749    2357.2976  0.053952614  0.053678304            9 
 3642000   0.64729777   -3.6704929     2345.689  0.053672182  0.053667043           16 
 3643000    0.6650232   -3.6488427    2347.9817  0.053709893  0.053655836           11 
 3644000   0.67101096   -3.6711935    2344.9343  0.053625464  0.053644591           14 
 3645000   0.67710737   -3.6679958    2352.4831  0.053783335  0.053633329           11 
 3646000   0.67063927   -3.6808386    2346.3771  0.053629025  0.053622073            4 
 3647000   0.67130127   -3.7003023    2351.7564  0.053737236  0.053610852            9 
 3648000   0.65677831   -3.6877685    2348.3786  0.053645344  0.053599662            7 
 3649000   0.66829297   -3.6595874    2352.9708  0.053735517  0.053588461           11 
 3650000   0.67261935   -3.6557861    2353.9322  0.053742744  0.053577312            3 
 3651000   0.67223699   -3.6771894    2349.6469  0.053630213  0.053566111           11 
 3652000   0.65040317   -3.6548673    2356.3097  0.053767564  0.053554862            5 
 3653000   0.66615492   -3.6721445    2355.3999  0.053732089  0.053543703            5 
 3654000    0.6554721   -3.6795223    2347.2467  0.053531443  0.053532457            4 
 3655000   0.66479242   -3.6808259    2350.7199  0.053595984  0.053521171            3 
 3656000   0.66207277   -3.6909616    2350.7751  0.053582583  0.053509891            8 
 3657000   0.67287449   -3.6797092    2351.3564  0.053581178    0.0534987            7 
 3658000   0.66647113   -3.6883659     2347.509  0.053478883  0.053487453            6 
 3659000   0.66626814   -3.6523489    2357.2116  0.053685242  0.053476196            7 
 3660000   0.67301147   -3.6748886    2350.0893  0.053508408  0.053465025           10 
 3661000   0.67689992   -3.6837518    2352.2315  0.053542555  0.053453934            5 
 3662000   0.68127457   -3.6980485    2353.4748  0.053556226  0.053442654            9 
 3663000   0.64535891   -3.6766135    2352.6883  0.053523712  0.053431381            5 
 3664000   0.66704491     -3.68047    2355.0814  0.053563533  0.053419984            6 
 3665000   0.65856141   -3.6880107    2353.5124  0.053513243  0.053408799            6 
 3666000   0.66224449   -3.7023075    2348.2279  0.053378521  0.053397493            7 
 3667000   0.65698744   -3.6856973    2349.8208  0.053400163  0.053386203            5 
 3668000   0.66616677   -3.6719318    2353.5744  0.053470884  0.053374889            5 
 3669000   0.65044333   -3.6743474    2355.5547  0.053501289  0.053363748            5 
 3670000   0.66942736   -3.6705708    2359.0709  0.053566552  0.053352553            7 
 3671000   0.66050949   -3.7048658    2356.3729  0.053490713  0.053341329            5 
 3672000   0.68075854   -3.6966576    2358.5709  0.053526028  0.053330093            7 
 3673000   0.67757676   -3.6856717    2355.6697  0.053445632  0.053318891            9 
 3674000   0.66081573   -3.6873645    2349.6621  0.053294821   0.05330758            6 
 3675000   0.67511859   -3.6979701    2352.3736  0.053341805  0.053296268            5 
 3676000   0.65212981   -3.6667855     2356.177  0.053413516  0.053285007            3 
 3677000   0.68279224   -3.6729512    2357.5394  0.053429865  0.053273755            5 
 3678000   0.66969037   -3.6855762    2359.6938  0.053464152  0.053262522            4 
 3679000   0.66232154   -3.6862548    2351.9604   0.05327445  0.053251214           18 
 3680000   0.66254716   -3.6877071     2354.889  0.053326291  0.053239887            4 
 3681000   0.67745547   -3.6781254    2363.0664   0.05349693  0.053228648            8 
 3682000   0.67054661   -3.6836373    2356.9345  0.053343621  0.053217447            5 
 3683000    0.6672162   -3.7050205    2354.6654  0.053277795  0.053206172            7 
 3684000   0.66152097   -3.6906185     2357.091  0.053318201  0.053194982            4 
 3685000   0.66402399   -3.6798172     2355.992  0.053278879  0.053183657            5 
 3686000   0.65783057   -3.6912372    2361.7036  0.053393553  0.053172435            6 
 3687000   0.65888251   -3.7130277    2359.5302  0.053329947  0.053161254            5 
 3688000   0.65560088   -3.7015277    2358.8834  0.053300872  0.053149987            8 
 3689000   0.65658027   -3.7035774    2362.9748  0.053378846  0.053138847            6 
 3690000   0.65204832    -3.699338    2359.4938  0.053285768  0.053127598           12 
 3691000   0.66323817   -3.6877698    2356.5468  0.053204794  0.053116442           24 
 3692000   0.65388583   -3.6865804    2354.6873  0.053148414  0.053105285            8 
 3693000    0.6539066   -3.6792488      2355.99  0.053163418  0.053094024            7 
 3694000   0.66669867   -3.6678252    2361.4797  0.053272869  0.053082858            9 
 3695000   0.67101299   -3.6913526     2358.091  0.053182025  0.053071658            8 
 3696000   0.67630739   -3.6904871     2358.323  0.053172868  0.053060541            4 
 3697000   0.66469658   -3.7047015    2354.4612  0.053071437   0.05304934           12 
 3698000    0.6426196   -3.6798729    2357.0226  0.053114805  0.053038152           15 
 3699000   0.64814663    -3.701108    2356.2097  0.053082132  0.053026908            9 
 3700000   0.65732635   -3.7087904    2356.2315  0.053068277  0.053015626           12 
 3701000   0.66183563   -3.6905889    2355.3618  0.053034357  0.053004373            7 
 3702000   0.66233989   -3.6859273     2365.377  0.053245476  0.052993142            9 
 3703000   0.66628289   -3.7017767    2355.7269  0.053013929  0.052982007            6 
 3704000   0.66840749   -3.6919008    2361.0979  0.053120453  0.052970755            7 
 3705000    0.6514493   -3.6910386    2361.9551  0.053125396  0.052959578            4 
 3706000   0.65783993   -3.6868092    2361.8262  0.053108163  0.052948428            3 
 3707000   0.65719587   -3.7187674     2359.358  0.053038351  0.052937244            4 
 3708000   0.66105464   -3.6901929    2366.0442  0.053174313  0.052926092            9 
 3709000   0.66978335   -3.7022367    2354.8702   0.05290892  0.052914915            4 
 3710000   0.65837558   -3.6908902    2364.8096  0.053117915  0.052903736            9 
 3711000   0.65901153   -3.6901101    2359.7047  0.052988967  0.052892562            3 
 3712000   0.65463434   -3.6950226     2367.117  0.053141096  0.052881381           14 
 3713000   0.67331103   -3.6960324    2364.8441  0.053075773   0.05287023           11 
 3714000   0.66748856   -3.6772329    2360.3661  0.052961005  0.052859021           15 
 3715000   0.65918099   -3.6980852    2366.9363  0.053094129   0.05284784            8 
 3716000   0.66770259   -3.6967977    2365.3074  0.053043313  0.052836667            5 
 3717000   0.65236608   -3.6906092    2360.9196   0.05293067  0.052825511            7 
 3718000   0.64170299   -3.6873902    2368.4532  0.053085287  0.052814341            4 
 3719000    0.6605936   -3.6902599    2366.5223  0.053027746   0.05280308            5 
 3720000   0.64643957   -3.6980727    2363.6773   0.05294976  0.052791839            5 
 3721000   0.66317657   -3.6970734    2368.1097  0.053034796  0.052780652            3 
 3722000   0.64347233   -3.7146538    2369.4302  0.053050112  0.052769476            7 
 3723000   0.66744956   -3.6617122    2366.8282  0.052977621  0.052758422            8 
 3724000   0.65132874   -3.6914568    2370.3803  0.053042883  0.052747345            7 
 3725000   0.65681901   -3.6880448    2367.0361  0.052953828  0.052736261            8 
 3726000   0.65577194   -3.7066139    2364.8333  0.052890349  0.052725108            5 
 3727000     0.648925   -3.7098745    2357.3166   0.05270809  0.052713893           12 
 3728000   0.64284214   -3.7205393    2361.6814  0.052791519  0.052702619            4 
 3729000   0.64636743   -3.7087322    2363.4751  0.052817446  0.052691451            4 
 3730000   0.66399817   -3.6931217    2370.7934  0.052966787  0.052680282            7 
 3731000   0.65206825   -3.6869597    2367.0412  0.052868785  0.052669163            4 
 3732000    0.6538882    -3.698485    2358.8521   0.05267176  0.052657918            4 
 3733000   0.65398807   -3.6924677    2362.8903  0.052747797  0.052646769            4 
 3734000   0.64369027   -3.7104373     2361.433  0.052701147  0.052635645            8 
 3735000   0.65839738    -3.712741    2363.5797  0.052734933  0.052624432            4 
 3736000    0.6546226   -3.7005116    2365.9633  0.052773986  0.052613242            9 
 3737000   0.66825488   -3.7232928    2364.3491  0.052723868  0.052602088            4 
 3738000   0.65872044   -3.7058754    2369.4757  0.052824053   0.05259099           11 
 3739000   0.63724004   -3.6940432    2363.7761  0.052682893  0.052579773            4 
 3740000   0.66573693   -3.7185068    2370.4717  0.052817997  0.052568664            7 
 3741000   0.65099275   -3.6913182    2364.7013  0.052675338  0.052557534            5 
 3742000   0.64387906   -3.7178953    2367.5911  0.052725618   0.05254636            8 
 3743000   0.65517699   -3.7022982    2365.9531  0.052675061  0.052535088            5 
 3744000   0.65347179   -3.7247997    2364.1328  0.052620476  0.052523907           10 
 3745000   0.64222084   -3.7077656    2364.2069  0.052608076  0.052512678            8 
 3746000   0.65476175   -3.7024059    2366.1585  0.052637448  0.052501514           10 
 3747000   0.65619804    -3.696963     2367.729  0.052658327  0.052490281            4 
 3748000   0.64380318   -3.7220415    2363.0254  0.052539698  0.052478946            5 
 3749000   0.65960171   -3.6939866    2367.8372   0.05263264  0.052467635           13 
 3750000   0.65718906    -3.710671    2363.8608   0.05253024  0.052456392            7 
 3751000   0.65594062   -3.7059358    2366.6479  0.052578154  0.052445216            6 
 3752000   0.65464713   -3.7100486    2367.4049  0.052580955   0.05243397            6 
 3753000   0.65521839   -3.7169465    2365.1117  0.052516026  0.052422749            2 
 3754000   0.65303799   -3.7129229    2365.4732   0.05251006  0.052411591            4 
 3755000   0.64253408   -3.7255745    2366.8383  0.052526371  0.052400359            8 
 3756000   0.66969281   -3.7236143    2369.5513   0.05257258  0.052389047            9 
 3757000   0.63018389   -3.7136238    2362.6246  0.052404946  0.052377745            4 
 3758000   0.65418816    -3.724302    2362.5671  0.052389726  0.052366492            5 
 3759000   0.64900878   -3.7174537    2375.0731  0.052653035  0.052355255            4 
 3760000   0.65701968   -3.7084025     2371.961  0.052570058  0.052344019            8 
 3761000   0.65492151   -3.7120867    2364.2146  0.052384441  0.052332828            7 
 3762000    0.6393755   -3.7031551    2367.1506  0.052435553  0.052321669            3 
 3763000   0.65523114   -3.6878687      2364.85  0.052370671   0.05231045           10 
 3764000   0.64842614   -3.7090151    2365.4526  0.052370098  0.052299089           10 
 3765000   0.65513268   -3.7151979    2363.0715  0.052303486  0.052287788            7 
 3766000   0.64835799   -3.7080164    2366.5556  0.052366693  0.052276559            5 
 3767000   0.64648483   -3.7138221    2359.5354  0.052197492  0.052265263           10 
 3768000   0.64761589   -3.7285876    2368.9436   0.05239171  0.052253958           10 
 3769000    0.6505706   -3.7192126    2363.5291  0.052258095  0.052242621            9 
 3770000   0.63341069    -3.717529    2372.1776  0.052435403  0.052231294            9 
 3771000   0.65638197   -3.7198934    2365.2934  0.052269367  0.052219978            4 
 3772000   0.64637815   -3.7050715    2367.5699  0.052305804  0.052208686            7 
 3773000   0.65349596   -3.7183334    2371.1183  0.052370314   0.05219739           16 
 3774000   0.64173221   -3.7086261    2369.9244  0.052330074  0.052186069           13 
 3775000   0.65833369   -3.7060156    2367.7422   0.05226804  0.052174739            4 
 3776000   0.64394705   -3.7068605    2370.4118  0.052313113  0.052163441           19 
 3777000   0.63808738   -3.7020637    2370.6697  0.052304953  0.052152268            4 
 3778000    0.6436444   -3.7368806    2369.9435   0.05227509  0.052140993            6 
 3779000   0.64915593   -3.7086974    2366.0517  0.052175436  0.052129797            7 
 3780000   0.64702061    -3.718525    2366.3016  0.052167144  0.052118569            6 
 3781000   0.65322843   -3.6973963    2372.0777  0.052280652  0.052107349            8 
 3782000   0.64121443   -3.7172283    2374.7685  0.052326116  0.052096173            5 
 3783000    0.6323179   -3.7039338    2367.8204   0.05215923  0.052084913           10 
 3784000   0.65152017   -3.7054949    2373.1498  0.052262812  0.052073731            7 
 3785000    0.6451202   -3.7209751    2373.9909  0.052267524  0.052062508           10 
 3786000   0.65489349   -3.7335228      2373.77  0.052248856  0.052051331            3 
 3787000   0.64186518   -3.6994913    2371.8301  0.052192371  0.052040174            7 
 3788000   0.65012996   -3.7133173    2369.5613  0.052128681  0.052029015            6 
 3789000    0.6398878   -3.7031435    2379.1289  0.052325346  0.052017908            5 
 3790000   0.64877779   -3.7157118    2368.7099  0.052082451  0.052006708            5 
 3791000   0.64779991   -3.7299714    2366.2945  0.052015619  0.051995541            4 
 3792000   0.64573773   -3.7284152    2374.9601  0.052192336  0.051984431            6 
 3793000   0.62805307   -3.6916524    2377.0287  0.052224025  0.051973307            8 
 3794000   0.64610675   -3.7161263    2372.0846  0.052101665  0.051962148           10 
 3795000   0.64115809   -3.6991945    2376.0922  0.052175938  0.051950962            7 
 3796000   0.63902777   -3.7072667    2371.4018  0.052059224  0.051939807            5 
 3797000   0.64857255   -3.7227321    2378.1592  0.052193819  0.051928679            5 
 3798000   0.65219657   -3.7289467    2374.2806  0.052094975  0.051917433            4 
 3799000   0.64340558    -3.703308    2380.4893  0.052217454  0.051906325            6 
 3800000   0.64511895   -3.7192107    2375.6654  0.052097925  0.051895232           12 
 3801000   0.62918873    -3.711974    2372.0541  0.052005045  0.051884051            7 
 3802000   0.63609726    -3.720669    2374.6593  0.052048468  0.051872905            9 
 3803000   0.63370405   -3.7340036    2376.8786  0.052083412  0.051861731            6 
 3804000   0.64432089   -3.7195524    2370.9702  0.051940287  0.051850586           10 
 3805000   0.64734731   -3.7232798    2372.4758  0.051959611   0.05183943            8 
 3806000   0.63721613   -3.6955545     2379.275  0.052094829  0.051828346            6 
 3807000   0.64486539    -3.698712    2371.7858  0.051917209   0.05181714            6 
 3808000   0.64130643   -3.7213079     2372.144  0.051911415  0.051806006            7 
 3809000   0.65053856   -3.7123089    2372.2113  0.051899258  0.051794802            6 
 3810000   0.64273167    -3.697573    2378.8264  0.052030324  0.051783709            7 
 3811000   0.64658974   -3.7183256    2376.0032  0.051954937  0.051772544            8 
 3812000   0.64369754   -3.7135566    2373.2247  0.051880568  0.051761325            8 
 3813000   0.63724999   -3.7411714    2368.9999  0.051774629  0.051750075            8 
 3814000   0.65171512   -3.7188185    2377.6613    0.0519503  0.051738863            5 
 3815000   0.64444384   -3.7327211    2375.5915   0.05189147  0.051727623            7 
 3816000   0.64503709   -3.6964682    2379.1008  0.051954507  0.051716394            9 
 3817000   0.64050182   -3.6985299    2369.8849  0.051739692  0.051705203            9 
 3818000   0.63868657   -3.7108577    2373.7062  0.051809546  0.051693919            6 
 3819000   0.64060598   -3.7337671    2368.9512  0.051692223  0.051682616           12 
 3820000   0.63494008   -3.7311734    2383.3634  0.051993093  0.051671414            6 
 3821000   0.63528882   -3.7242609    2369.4986  0.051677105  0.051660174           11 
 3822000   0.65341322   -3.7149332    2374.0684  0.051763222  0.051648898            6 
 3823000   0.63449526   -3.7307583    2375.8774  0.051789115   0.05163768            5 
 3824000   0.63893115   -3.7049643    2378.7822  0.051838874  0.051626485            7 
 3825000   0.63105999    -3.719643    2376.8839  0.051783963  0.051615319            6 
 3826000   0.63762083   -3.7234508    2371.3737  0.051650413  0.051604122            4 
 3827000    0.6496806   -3.7283824    2373.0645  0.051673732  0.051592902            8 
 3828000   0.64270301   -3.7403146    2375.0555  0.051703576   0.05158164            5 
 3829000   0.64481618   -3.7342881    2377.3373  0.051739734  0.051570375            8 
 3830000   0.62798228   -3.7289765    2373.0439   0.05163281  0.051559142            8 
 3831000   0.63469307    -3.713899    2375.0821  0.051663667  0.051547886            5 
 3832000   0.63324589   -3.7384122    2368.9821  0.051517529  0.051536611            6 
 3833000   0.63718352   -3.7322413    2371.1302  0.051550792  0.051525408           12 
 3834000   0.64003448   -3.7305098    2379.1718  0.051712132  0.051514223            9 
 3835000   0.64865905   -3.7201949    2379.1779  0.051698781  0.051503054            9 
 3836000   0.63885812   -3.7310794    2371.3212  0.051514624  0.051491827           18 
 3837000   0.64560104   -3.7404094    2373.3485  0.051545229   0.05148066            9 
 3838000   0.63705054   -3.7261093    2379.4958  0.051665273   0.05146947           12 
 3839000   0.63803338    -3.735939    2379.0735  0.051642649  0.051458266            7 
 3840000    0.6407428   -3.7415374    2378.2691  0.051611744  0.051447053           12 
 3841000   0.64390529   -3.7332075    2376.1003  0.051551252  0.051435896            4 
 3842000   0.63711992   -3.7204611    2377.3553  0.051565055  0.051424686            8 
 3843000   0.65095121   -3.7289232    2383.6623  0.051688402   0.05141348            4 
 3844000   0.62581984   -3.7416904    2373.4714  0.051454029  0.051402315           13 
 3845000   0.64082399   -3.7236084    2376.1649  0.051499022  0.051391037           18 
 3846000   0.64130656   -3.7224117    2369.9194  0.051350307  0.051379769            7 
 3847000   0.65244078   -3.7469012    2374.9839  0.051446666  0.051368492            9 
 3848000   0.65675153    -3.752119    2381.3044  0.051570176  0.051357232           11 
 3849000   0.63404084   -3.7289873    2376.4748  0.051452212  0.051346078            5 
 3850000   0.64856722   -3.7322256    2384.4145  0.051610703  0.051334914            2 
 3851000   0.62803131   -3.7203347    2378.1303  0.051461316  0.051323798            4 
 3852000   0.63964125   -3.7416836     2380.862  0.051507054   0.05131261            9 
 3853000   0.64028203    -3.724847    2373.3669   0.05133158  0.051301428           14 
 3854000   0.64199596   -3.7524546    2375.7022  0.051368755  0.051290201            6 
 3855000   0.62731945    -3.730724    2382.6265  0.051505112  0.051279025           10 
 3856000   0.63256283   -3.7218535    2383.2762  0.051505796  0.051267885            7 
 3857000   0.64155368   -3.7553178    2373.1285  0.051273195  0.051256722            8 
 3858000    0.6353224   -3.7681486    2373.4283  0.051266379   0.05124548           12 
 3859000   0.64190939   -3.7284886    2383.8097  0.051477276  0.051234252            4 
 3860000   0.63962904   -3.7238697    2378.7581   0.05135488  0.051223078            9 
 3861000   0.62864402    -3.717572     2378.864  0.051343867   0.05121194            8 
 3862000   0.63236392   -3.7259757    2378.1647  0.051315482  0.051200738            8 
 3863000   0.63797785   -3.7259634    2377.8562  0.051295543  0.051189536            9 
 3864000   0.64155619    -3.732551    2376.6042  0.051255267   0.05117832            7 
 3865000   0.63526856   -3.7444012    2376.3639  0.051236825  0.051167129           12 
 3866000   0.63557904   -3.7542929    2378.2189  0.051263555  0.051155951            5 
 3867000   0.61800351   -3.7399335    2382.1913  0.051335905  0.051144796            6 
 3868000   0.61913208   -3.7323384    2380.8938   0.05129468  0.051133664            6 
 3869000   0.64179977   -3.7440374    2386.8017   0.05140867  0.051122554            8 
 3870000   0.63578975    -3.754824    2381.6733  0.051284956  0.051111377           29 
 3871000    0.6312312   -3.7377812    2384.8594  0.051340294  0.051100183            6 
 3872000   0.61823255   -3.7299242     2383.945  0.051307357  0.051089046            7 
 3873000   0.63708246   -3.7548238    2380.7298  0.051224929  0.051077919           12 
 3874000   0.63547607   -3.7384944    2381.3911  0.051225931  0.051066788            7 
 3875000    0.6114977    -3.761075    2382.4596  0.051235691  0.051055675            8 
 3876000   0.62395574   -3.7188314    2377.5636  0.051117209  0.051044533           12 
 3877000   0.63195183   -3.7354935     2381.158  0.051181282  0.051033398            6 
 3878000   0.63866438   -3.7453602    2377.6117  0.051091879  0.051022267            7 
 3879000   0.63358266   -3.7489315    2386.2307  0.051263872  0.051011142            7 
 3880000   0.60751974    -3.750284     2382.182  0.051163702  0.050999979            8 
 3881000   0.62062277   -3.7551882    2380.5684  0.051115873  0.050988764            8 
 3882000   0.63597032   -3.7517069    2380.7054  0.051105646  0.050977583           19 
 3883000   0.61998049   -3.7441894    2378.8853  0.051053423  0.050966419            7 
 3884000     0.628029   -3.7068969    2390.6267  0.051292197  0.050955235            8 
 3885000   0.63807536   -3.7508839    2386.6315  0.051193297  0.050944089            6 
 3886000   0.61987718   -3.7352552    2377.9735  0.050994457  0.050932927           16 
 3887000    0.6301719   -3.7513587    2375.9724  0.050938436  0.050921701            9 
 3888000   0.63310067    -3.740352    2386.4351  0.051149586  0.050910522           10 
 3889000   0.62499968   -3.7621507    2384.2917  0.051090505   0.05089941            9 
 3890000    0.6318928    -3.756947    2381.8435  0.051024926  0.050888169           13 
 3891000   0.62852209   -3.7242214    2380.9933  0.050993602  0.050876975           11 
 3892000    0.6324268   -3.7402884    2381.8816  0.050999521  0.050865837            6 
 3893000   0.61953338   -3.7557398    2380.8154  0.050963597  0.050854697           10 
 3894000   0.63537314   -3.7411518     2386.278  0.051067411   0.05084349            4 
 3895000    0.6246886   -3.7346879    2387.8113  0.051087104  0.050832339            7 
 3896000   0.62979848   -3.7256231    2387.0901  0.051058566  0.050821218            9 
 3897000   0.62675068   -3.7429732    2387.1764  0.051047309  0.050810082           12 
 3898000   0.61970179   -3.7492533    2383.6817  0.050959502  0.050798909            6 
 3899000   0.62695258    -3.738271    2386.7169  0.051011305  0.050787727            5 
 3900000   0.62275603   -3.7485108     2387.451  0.051013911  0.050776561            5 
 3901000   0.61876881   -3.7316122    2381.1149  0.050865481  0.050765408            7 
 3902000   0.63086072   -3.7329214    2384.6454  0.050927845  0.050754258            5 
 3903000   0.62778684   -3.7524139    2384.1955   0.05090519  0.050742981            8 
 3904000   0.61831748   -3.7506781    2381.3464  0.050831335  0.050731801            4 
 3905000   0.62629331    -3.753394    2376.5922  0.050716863  0.050720567            5 
 3906000   0.63133308    -3.759439     2389.805   0.05098577  0.050709398           15 
 3907000   0.63674448   -3.7355256    2387.5248  0.050924085  0.050698294            6 
 3908000   0.62038275   -3.7539217    2378.3902   0.05071627  0.050687095           21 
 3909000   0.63630798   -3.7505567    2383.2191  0.050806241  0.050675949            8 
 3910000   0.62578393   -3.7375105    2386.0838  0.050854301  0.050664792           11 
 3911000   0.61579977   -3.7671871    2384.5808  0.050809273  0.050653539            5 
 3912000   0.61649328   -3.7513773    2386.1835  0.050830426  0.050642359            8 
 3913000   0.62631623   -3.7579559    2383.4937  0.050760153  0.050631294            8 
 3914000    0.6231862   -3.7433467    2381.7157  0.050709329  0.050620133           13 
 3915000   0.62577214   -3.7415687    2379.8159  0.050655936  0.050608968           11 
 3916000   0.62390922   -3.7532596    2383.9309   0.05073057  0.050597779           13 
 3917000   0.62610452   -3.7675464    2378.9758  0.050612199  0.050586576            7 
 3918000   0.62276219   -3.7734493    2381.8591  0.050660606    0.0505754            9 
 3919000   0.62175201   -3.7476565    2385.7305  0.050730001  0.050564237            4 
 3920000   0.61106807   -3.7408125     2387.802  0.050761096  0.050553152           12 
 3921000   0.61654243   -3.7475142    2389.1124  0.050776002  0.050542086            8 
 3922000   0.62417048   -3.7655914    2383.3019  0.050639595  0.050530987            6 
 3923000   0.62264327   -3.7483409    2398.8502  0.050956967  0.050519869            5 
 3924000   0.59206709    -3.760301    2393.1126  0.050822133  0.050508789            8 
 3925000   0.61944144   -3.7495449    2385.8102  0.050654145  0.050497734            5 
 3926000     0.632539   -3.7534124    2383.8015  0.050598605  0.050486617            9 
 3927000   0.61239027   -3.7541352    2383.8297   0.05058632  0.050475533           11 
 3928000    0.6280433   -3.7424274    2391.8876   0.05074439  0.050464474            3 
 3929000   0.63425703   -3.7416521    2381.7787  0.050517067    0.0504534            6 
 3930000   0.62788397    -3.753986    2392.1334  0.050723778  0.050442265            6 
 3931000   0.60874306   -3.7610126    2391.8926  0.050705771  0.050431124           12 
 3932000   0.63298686   -3.7620334    2388.5195  0.050621386  0.050419976           13 
 3933000   0.61790503   -3.7541275    2394.7059  0.050739596  0.050408901            8 
 3934000   0.62689046    -3.765437    2387.2211  0.050568147  0.050397768            5 
 3935000    0.6265346   -3.7682309    2384.8355  0.050504775  0.050386659            8 
 3936000   0.63081729   -3.7789297    2391.4958  0.050632956  0.050375556            7 
 3937000   0.60685138   -3.7464462    2388.4023  0.050554616   0.05036445            5 
 3938000   0.63350806   -3.7585344    2391.3609  0.050604386  0.050353366            9 
 3939000   0.61574156    -3.758818    2386.4367  0.050487364  0.050342271            6 
 3940000   0.62948355   -3.7248471    2389.3585  0.050536347  0.050331132            5 
 3941000   0.60068457   -3.7466686    2381.4592  0.050356491  0.050319985            3 
 3942000   0.62093436   -3.7651882    2396.6234  0.050664286  0.050308881            4 
 3943000   0.63229269   -3.7671952    2389.2902  0.050496455   0.05029778            9 
 3944000   0.61963138   -3.7460564    2387.6346  0.050448669  0.050286738            5 
 3945000   0.62679848   -3.7839078    2387.7018    0.0504373  0.050275669           14 
 3946000   0.62970907   -3.7478657    2388.0869   0.05043265  0.050264534           13 
 3947000   0.61118967   -3.7784494    2392.8016  0.050519416  0.050253441           13 
 3948000   0.62380545   -3.7582956    2393.5903  0.050523267  0.050242351            6 
 3949000   0.60426598   -3.7604716    2393.3703   0.05050583  0.050231323            5 
 3950000   0.61076115   -3.7673346    2391.8742   0.05046148  0.050220227            8 
 3951000   0.61678028    -3.769252    2392.6933  0.050465986  0.050209129            7 
 3952000   0.61989368   -3.7542735    2390.1458  0.050399498  0.050198035            7 
 3953000   0.61605117   -3.7613276    2386.5435  0.050310809   0.05018702            5 
 3954000   0.63216453   -3.7617166    2387.1538  0.050310946  0.050175948            5 
 3955000   0.61337417   -3.7670061    2394.1065  0.050444721  0.050164881            7 
 3956000   0.63359891   -3.7777231    2393.9233  0.050428112   0.05015369           17 
 3957000   0.60527339   -3.7696371    2388.4796  0.050300723  0.050142544           13 
 3958000   0.62499771   -3.7815082    2390.1626   0.05032345  0.050131394            5 
 3959000   0.61719264   -3.7653375    2390.7228   0.05032253  0.050120324            7 
 3960000   0.61831982   -3.7788612      2385.24  0.050194444  0.050109221            7 
 3961000   0.61412649   -3.7537251    2395.3245  0.050393935  0.050098104            7 
 3962000   0.62293836   -3.7748581    2385.5923  0.050176516  0.050087019            6 
 3963000   0.61001418   -3.7409029    2393.3615  0.050327224  0.050075919           10 
 3964000   0.61733308   -3.7736605    2390.0683  0.050245298   0.05006482            8 
 3965000   0.61983096   -3.7554045    2391.1773  0.050255933  0.050053705            7 
 3966000   0.60541069   -3.7900987    2384.8631  0.050110588  0.050042559            5 
 3967000    0.6155607   -3.7759443    2389.8521  0.050202757  0.050031406           11 
 3968000   0.60398062   -3.7458655    2389.9754  0.050192696  0.050020353           10 
 3969000   0.61540275   -3.7608496    2391.5001  0.050212063  0.050009231           10 
 3970000   0.61736047   -3.7597934    2388.7426  0.050141532  0.049998121            5 
 3971000   0.61853414   -3.7862985    2394.5815  0.050251437  0.049986986            3 
 3972000   0.60921384   -3.7663353    2389.8117  0.050138715  0.049975851           11 
 3973000    0.6124677   -3.7783387     2397.716  0.050291887  0.049964729            4 
 3974000   0.61198412   -3.7603055    2405.5084  0.050442636  0.049953583            6 
 3975000    0.6203108   -3.7735659    2390.1651  0.050108283  0.049942511            6 
 3976000   0.61501366   -3.7892938    2389.6921  0.050085766  0.049931374            5 
 3977000   0.61817793    -3.768425    2389.7205  0.050073769  0.049920305           11 
 3978000   0.62690548   -3.8072651    2392.5949  0.050121395  0.049909137            6 
 3979000   0.61939644   -3.7668447    2394.1087  0.050140502  0.049897934            9 
 3980000   0.62590395   -3.7697526    2389.1037  0.050023108  0.049886872           10 
 3981000    0.6082968    -3.797402    2382.4017  0.049870252   0.04987576            9 
 3982000   0.60961313    -3.777292    2387.3592  0.049961476    0.0498646            5 
 3983000    0.6075362   -3.7615018      2384.67  0.049892668  0.049853493            9 
 3984000   0.62189231   -3.7454435    2385.4171  0.049895773  0.049842308            5 
 3985000   0.62029981   -3.7637814    2390.2466  0.049984244  0.049831155           14 
 3986000   0.61895109   -3.7877473    2392.1106  0.050010675   0.04981994            6 
 3987000   0.61706884   -3.8053387    2388.7389  0.049927659  0.049808746           16 
 3988000   0.60814291   -3.8009756      2389.05   0.04992164  0.049797475            8 
 3989000   0.61593934   -3.7900607    2391.8204  0.049967001  0.049786232           19 
 3990000   0.60849565   -3.7979012    2389.1565  0.049898841  0.049775086           13 
 3991000   0.60989199   -3.7664725    2389.9715  0.049903355  0.049763915           15 
 3992000   0.61320161   -3.7920572    2388.2341  0.049854587  0.049752714           10 
 3993000    0.6236749   -3.7610629    2394.4718   0.04997228  0.049741558           15 
 3994000   0.62527853    -3.772606    2394.1144  0.049952311   0.04973044            9 
 3995000    0.6042732    -3.781198    2394.3902   0.04994556  0.049719318            6 
 3996000   0.62210161    -3.768903    2397.3409  0.049994596  0.049708178           10 
 3997000   0.59880358   -3.7617958    2387.9288  0.049785855  0.049697074           11 
 3998000   0.62291136   -3.7674629    2393.5168  0.049889878  0.049685969            7 
 3999000   0.61827191   -3.7762595    2386.7644  0.049736693  0.049674771            8 
 4000000   0.62807303   -3.7744553    2394.0652  0.049876358   0.04966359           12 
 4001000   0.60073064   -3.7717668    2390.4185  0.049787939  0.049652424            7 
 4002000   0.61248283   -3.7735307    2399.0606  0.049955451  0.049641339            6 
 4003000   0.60113865   -3.7733254    2395.0811  0.049860127  0.049630257            9 
 4004000   0.60785147   -3.7858517    2387.7244  0.049694564  0.049619151            3 
 4005000   0.60800238   -3.7935781    2399.2864  0.049922729  0.049608046           10 
 4006000   0.61469623   -3.7999334    2395.0015  0.049821133  0.049596941            4 
 4007000   0.60015625   -3.7625157    2392.3004  0.049752526  0.049585811            8 
 4008000   0.60731937   -3.7948876    2389.1815  0.049675264  0.049574654            7 
 4009000   0.62255197   -3.7958942    2395.8826  0.049802166  0.049563505           13 
 4010000   0.61000238   -3.7843402     2392.456  0.049718537  0.049552389            9 
 4011000   0.60966683   -3.7942757    2391.7071  0.049690582  0.049541252            5 
 4012000    0.6207891   -3.7673983    2397.4668   0.04979783  0.049530227            6 
 4013000   0.62147324   -3.7606585    2401.7503  0.049874372  0.049519207           16 
 4014000   0.60416981   -3.7755369    2402.8195  0.049884144  0.049508178            8 
 4015000   0.61672034   -3.7926061    2402.1843  0.049858538   0.04949715           10 
 4016000   0.61633768   -3.8039776    2392.7648  0.049650663  0.049486051           17 
 4017000   0.62624999   -3.7691678     2394.411  0.049672454  0.049474972            4 
 4018000   0.61478417   -3.7675659     2400.647  0.049789427  0.049463885            7 
 4019000   0.62721112   -3.7936692    2392.1994  0.049601879  0.049452832            7 
 4020000   0.61008783   -3.7784977     2395.759  0.049663329  0.049441707            7 
 4021000   0.59819356   -3.7785166    2394.9811  0.049634856  0.049430535            4 
 4022000   0.61076934   -3.7904011    2395.8699  0.049640931  0.049419428            6 
 4023000   0.61533857   -3.7861636    2393.3167  0.049575704  0.049408309            6 
 4024000   0.60633716   -3.7771306    2394.1856  0.049581379   0.04939713           11 
 4025000   0.60946399    -3.781081    2396.9743  0.049626797  0.049385978           11 
 4026000   0.60716388   -3.7962487    2389.1836  0.049453212  0.049374902           11 
 4027000   0.61164746   -3.7990195     2389.674   0.04945108  0.049363683            8 
 4028000   0.62231696   -3.8007026    2391.8657  0.049484147  0.049352484            5 
 4029000   0.61727054   -3.7908514    2388.0422  0.049392781  0.049341259           16 
 4030000   0.60723864   -3.7835748    2391.2696  0.049447262  0.049330076           18 
 4031000    0.5988949   -3.8079162    2389.2154  0.049392529  0.049318919            7 
 4032000   0.59961543   -3.8005857    2390.5685  0.049408245  0.049307694            7 
 4033000   0.60281084   -3.7994271    2391.4892  0.049415017  0.049296461            8 
 4034000   0.60426326   -3.8012756    2395.6841  0.049489426  0.049285206            8 
 4035000   0.60702684   -3.7831285    2390.7919  0.049376124  0.049273962            6 
 4036000   0.60493363   -3.7762089     2394.984  0.049450446  0.049262768            6 
 4037000   0.61448524   -3.7783538    2389.9035  0.049333323  0.049251561           11 
 4038000   0.61709737   -3.7908838    2391.2938  0.049349798  0.049240373            8 
 4039000   0.60765067   -3.7732199    2394.9806  0.049413647  0.049229168           16 
 4040000   0.62489066   -3.7779867    2394.7278  0.049396201  0.049218061            6 
 4041000   0.60728485   -3.7837083    2389.3669  0.049273424  0.049206968            5 
 4042000   0.58890197   -3.8131491    2393.8807  0.049354294  0.049195813           11 
 4043000   0.61250095    -3.799887    2390.1581  0.049265357  0.049184614           14 
 4044000   0.60954609   -3.8107046    2397.4651  0.049403749  0.049173504            3 
 4045000   0.60385467   -3.8059572    2393.9992  0.049320131   0.04916234           12 
 4046000   0.60834085   -3.8020148    2398.1331  0.049393086  0.049151153           10 
 4047000   0.61604339   -3.7983379    2390.8897  0.049231728   0.04913996           13 
 4048000   0.60915805   -3.8014487    2396.9111  0.049343527   0.04912876            7 
 4049000   0.60599644   -3.7834981    2395.8344   0.04930918  0.049117606           13 
 4050000   0.59910779   -3.7964157    2392.0993   0.04922015  0.049106466            9 
 4051000    0.5986639   -3.8008689    2394.0277  0.049247669  0.049095337            7 
 4052000   0.58186075   -3.7944316    2396.5453  0.049287293  0.049084149           17 
 4053000   0.60519468   -3.7959658    2398.9736   0.04932506  0.049073102            8 
 4054000   0.61182996   -3.8046908    2400.3774  0.049341749  0.049061977           15 
 4055000   0.59156661   -3.8108201    2393.7437  0.049193253  0.049050895           19 
 4056000   0.59677378   -3.7850422    2399.2852  0.049294979  0.049039838            4 
 4057000   0.59687257   -3.7956415    2392.4609  0.049142652  0.049028735           18 
 4058000   0.59660841   -3.7972632    2391.0995  0.049102586  0.049017661           14 
 4059000   0.61179851   -3.7818169     2404.596  0.049367578  0.049006586            9 
 4060000   0.60574947    -3.794638    2396.8336  0.049196092  0.048995515            5 
 4061000   0.58834085   -3.7980456    2400.8061  0.049265495  0.048984474            4 
 4062000   0.60719417   -3.7963438    2395.8269  0.049151217  0.048973389           10 
 4063000    0.5948156   -3.8070864    2397.6654  0.049176827  0.048962286            4 
 4064000    0.6084082   -3.8083195    2397.2782  0.049156788  0.048951142           11 
 4065000    0.6044483   -3.8008744    2395.5978  0.049110245   0.04894001            9 
 4066000   0.59877242    -3.807147    2394.9487  0.049084864  0.048928932            8 
 4067000   0.59253457    -3.799096    2399.4215  0.049164444  0.048917867           13 
 4068000   0.60741685   -3.8058994    2395.1607  0.049065075  0.048906806           10 
 4069000   0.60754061   -3.7954445    2396.2942  0.049076231  0.048895746            7 
 4070000    0.6022416   -3.7758279    2404.1841  0.049225719  0.048884748            7 
 4071000   0.61484365   -3.8020038    2396.9329  0.049065195  0.048873709            6 
 4072000   0.59871784   -3.7816775    2397.4857  0.049064458  0.048862694            8 
 4073000   0.60919328   -3.7996475    2394.8489  0.048998464  0.048851636            6 
 4074000   0.59027462   -3.7956257    2402.0366   0.04913346  0.048840555            8 
 4075000   0.60224973    -3.801843    2398.1029  0.049040958  0.048829584           16 
 4076000    0.6005073   -3.7897274    2405.3189  0.049176458  0.048818608            7 
 4077000    0.6007329   -3.7806773    2400.6089  0.049068124  0.048807599           12 
 4078000   0.59236102   -3.7982666    2399.1714  0.049026717  0.048796614           12 
 4079000   0.58613132   -3.7958505    2405.0158  0.049134098  0.048785554           21 
 4080000   0.60705362   -3.7959013    2404.1206   0.04910377  0.048774555            9 
 4081000    0.5963712   -3.8047221    2405.3964   0.04911779  0.048763524            6 
 4082000   0.60027155   -3.8077448    2404.9576  0.049096799  0.048752487            9 
 4083000    0.6004512   -3.8168021    2399.4733   0.04897284  0.048741505           20 
 4084000   0.60279454   -3.8377806    2400.6146  0.048984138  0.048730495           10 
 4085000   0.58508413   -3.7905776    2399.0779  0.048940798  0.048719483           14 
 4086000   0.59627008   -3.8173631    2405.3988  0.049057733  0.048708486            8 
 4087000   0.58810733   -3.8075396    2403.1891  0.049000676  0.048697521            4 
 4088000   0.60611077   -3.8138072    2398.5754  0.048894638   0.04868656            5 
 4089000   0.58916995   -3.8267609    2395.9583  0.048829345  0.048675548            9 
 4090000   0.59556634   -3.7915166    2405.1605    0.0490049  0.048664514           11 
 4091000   0.60499769   -3.7885707    2404.6538    0.0489826  0.048653489            8 
 4092000   0.59375562   -3.7791186    2398.7246  0.048849882  0.048642459            8 
 4093000   0.61773673   -3.8062361    2405.1982  0.048969748  0.048631481            8 
 4094000   0.57850813   -3.8014633    2401.2133  0.048876674  0.048620506            7 
 4095000   0.59681804   -3.8067229    2401.3316  0.048867147  0.048609473           22 
 4096000   0.59157575   -3.7956334    2409.8582   0.04902869  0.048598423            9 
 4097000   0.59514802   -3.8161619     2397.229  0.048759845  0.048587391           13 
 4098000   0.59675888   -3.8239964    2401.4496  0.048833773  0.048576318           11 
 4099000   0.59560049   -3.8188032    2403.3155  0.048859793  0.048565224           26 
 4100000   0.58628892   -3.8073459    2402.9168  0.048839771  0.048554171            4 
 4101000   0.59458008   -3.8232598    2399.9702  0.048767987  0.048543117           15 
 4102000   0.59466166   -3.7910505    2406.7483  0.048893797  0.048532086            8 
 4103000   0.59524168   -3.7890405    2408.4917   0.04891729  0.048521102           14 
 4104000   0.57500397   -3.8268542    2401.1421  0.048756135  0.048510064           17 
 4105000    0.5827407   -3.7900295    2407.5206  0.048873744  0.048499061           13 
 4106000   0.59682927   -3.8295739    2402.0553   0.04875092  0.048488103           12 
 4107000   0.58633746   -3.8190247    2396.9208  0.048634868  0.048477084           13 
 4108000   0.60207576   -3.8254509    2402.3287  0.048732732  0.048466036            9 
 4109000   0.59160787   -3.8113282    2403.2141  0.048738827  0.048455024           11 
 4110000   0.60044022   -3.8128361    2404.6825  0.048756741  0.048443988            3 
 4111000    0.5954694   -3.8113188    2399.5973    0.0486418  0.048432964            8 
 4112000   0.59740308   -3.8059091    2403.7972  0.048715086  0.048421934            6 
 4113000   0.59826955   -3.7976445    2402.7197   0.04868141  0.048410963            5 
 4114000   0.59717505   -3.8174367    2394.5112  0.048503306  0.048399904            4 
 4115000   0.58939108   -3.8205109    2393.0676  0.048462284  0.048388852            5 
 4116000   0.58762135   -3.8075726    2396.3509  0.048516984  0.048377775            9 
 4117000   0.59192341   -3.8063855     2399.971  0.048578476   0.04836674           10 
 4118000   0.58932595   -3.8141582    2399.8369  0.048563964  0.048355706           11 
 4119000   0.58953913   -3.8103022    2402.6189   0.04860846  0.048344682            9 
 4120000   0.60041335   -3.8037615    2406.7565   0.04868035   0.04833367           12 
 4121000   0.58763745   -3.8046658    2406.5773  0.048664914  0.048322722           12 
 4122000   0.60343076   -3.8028165    2407.4556  0.048670863  0.048311739            9 
 4123000   0.58503962   -3.8219679    2396.4165  0.048435938  0.048300729            5 
 4124000   0.60101243   -3.8129652    2402.2404  0.048541876  0.048289687           14 
 4125000   0.59848624   -3.8019215    2404.6458  0.048578703  0.048278691           12 
 4126000   0.60114434   -3.8263801    2399.4081  0.048461143  0.048267612           21 
 4127000   0.59106521   -3.8124022    2397.5105  0.048411084  0.048256547            4 
 4128000   0.58173691   -3.7991333    2404.2793  0.048536001  0.048245555           10 
 4129000   0.58514799   -3.8082222    2404.7421  0.048533585  0.048234546           10 
 4130000   0.58682156    -3.816719     2399.407  0.048414186  0.048223541            5 
 4131000   0.58322158   -3.8206348    2408.9707  0.048595391  0.048212483            9 
 4132000     0.598362   -3.8374931    2402.3976  0.048451065   0.04820141            8 
 4133000   0.59226236   -3.8097813     2398.686  0.048364505  0.048190326            9 
 4134000   0.59022061   -3.8099604    2396.6835  0.048312439  0.048179256           10 
 4135000   0.59265139    -3.818506    2404.2613  0.048453472  0.048168184           11 
 4136000   0.57806371   -3.8259295    2399.7621  0.048351107   0.04815712           11 
 4137000    0.5856114   -3.8162361    2398.8679  0.048321406  0.048146022            4 
 4138000   0.58668873   -3.8257473    2399.7814  0.048328126  0.048134938           13 
 4139000   0.58336573   -3.8345877    2400.4187  0.048329281  0.048123831           14 
 4140000    0.5877442   -3.8184735    2406.5009  0.048440035  0.048112788            6 
 4141000   0.60229037   -3.8215437    2406.5105  0.048428529  0.048101795            8 
 4142000   0.59292886    -3.834383    2404.2857  0.048372077  0.048090789            7 
 4143000   0.59052961   -3.8076388    2401.5975   0.04830633  0.048079775            7 
 4144000   0.57191381   -3.8145054    2405.2156  0.048367431  0.048068788            7 
 4145000   0.58560185   -3.8229953    2398.3611  0.048217955  0.048057766            6 
 4146000   0.57745379   -3.8164432    2402.4863  0.048289241  0.048046771           10 
 4147000   0.58230301   -3.8095503    2410.7101  0.048442851  0.048035726            5 
 4148000   0.60087769   -3.8312931    2398.3062   0.04818198  0.048024699            7 
 4149000   0.61387512   -3.8177068    2412.2332  0.048450092  0.048013671            7 
 4150000   0.58926069   -3.8336577    2399.1248  0.048175196  0.048002705           12 
 4151000   0.58252857    -3.822323    2403.1737  0.048244875  0.047991656            8 
 4152000   0.56818617   -3.8264308    2402.4798  0.048219328  0.047980604           17 
 4153000   0.57799483   -3.8135928    2408.2091   0.04832268  0.047969603            7 
 4154000   0.59218106   -3.7931777    2403.4445  0.048215465  0.047958577           10 
 4155000   0.58471504   -3.8290323    2397.1177  0.048076969   0.04794759           11 
 4156000   0.58408984   -3.8412933    2401.4597  0.048152465  0.047936549           16 
 4157000   0.56971711   -3.8354845    2406.1158  0.048234219  0.047925537           20 
 4158000   0.57323582   -3.8187236     2409.225  0.048284933  0.047914561            9 
 4159000   0.58405704   -3.8218832    2409.8071  0.048284986  0.047903542            9 
 4160000   0.57598483   -3.8087255    2410.1924  0.048281098  0.047892573           13 
 4161000   0.58367458   -3.8199057    2410.7067  0.048279795  0.047881638           12 
 4162000   0.59988675   -3.8284603     2405.883  0.048171612  0.047870706           12 
 4163000   0.58586353   -3.8186026    2406.1022  0.048164428    0.0478597           15 
 4164000   0.58831285   -3.8322837    2405.2628  0.048136064  0.047848716            4 
 4165000   0.59132806   -3.8178371    2403.8184  0.048095606  0.047837743            9 
 4166000   0.58549058   -3.8219389    2402.6677  0.048061045   0.04782676            5 
 4167000   0.58753699   -3.8126995    2397.3536  0.047943237  0.047815758           18 
 4168000   0.57661851    -3.812429    2401.9396  0.048023424  0.047804797           19 
 4169000   0.58409196   -3.8420208    2399.5674  0.047964488  0.047793799            7 
 4170000   0.59505098   -3.8168516    2407.3596  0.048108706  0.047782831           13 
 4171000   0.58999667   -3.8349684    2403.9305  0.048028659  0.047771927            9 
 4172000   0.57056513   -3.8103544     2412.238  0.048183086  0.047760947            9 
 4173000   0.58384546   -3.8160739    2406.6182  0.048059315  0.047749965           15 
 4174000   0.57761455   -3.8174739    2405.1141   0.04801777  0.047739009           10 
 4175000   0.58945173   -3.8232276    2413.7301  0.048178246  0.047728104            7 
 4176000   0.58143379   -3.8225209    2405.1772  0.047996034  0.047717165            8 
 4177000   0.57346337   -3.8158341    2406.1424  0.048003798  0.047706237           28 
 4178000   0.57182566   -3.8316014    2399.8612  0.047867025  0.047695217           28 
 4179000   0.59055457   -3.8383037    2406.4965  0.047987885  0.047684146            9 
 4180000   0.58438665   -3.8480737    2402.7886  0.047902483    0.0476731           12 
 4181000   0.59515204   -3.8340164    2400.3091  0.047841607  0.047662078           20 
 4182000   0.58683003   -3.8157004    2403.8858  0.047901439  0.047651053           10 
 4183000    0.5771699   -3.8213736    2405.1097   0.04791437  0.047640024           15 
 4184000   0.59180265   -3.8328486    2403.0785  0.047862463  0.047629034           15 
 4185000    0.5769438   -3.8299051    2405.3497  0.047896251  0.047617983           16 
 4186000   0.58230066   -3.8474819    2406.4537  0.047906787  0.047606963           18 
 4187000   0.57855354   -3.8225603    2403.2409  0.047831401  0.047595916           14 
 4188000   0.58001858    -3.838857    2409.2684  0.047939916  0.047584915           21 
 4189000   0.59161469    -3.834237    2401.0732  0.047765441  0.047573839           15 
 4190000   0.57906971   -3.8395981     2400.641  0.047745445  0.047562777            7 
 4191000   0.56912498   -3.8400316    2400.8981  0.047739165  0.047551703            7 
 4192000   0.59822381   -3.8388603    2404.2722  0.047794851  0.047540658            8 
 4193000   0.58315472   -3.8474199    2408.4421  0.047866328  0.047529616           12 
 4194000   0.58900756   -3.8366451    2402.6365  0.047739558  0.047518579            6 
 4195000   0.58430414   -3.8597667    2400.5105  0.047685946  0.047507552            6 
 4196000   0.58037639   -3.8260208    2405.1598  0.047766917  0.047496616            7 
 4197000   0.58600418   -3.8272742    2401.8536   0.04768989  0.047485632           15 
 4198000   0.57763351    -3.842121    2396.0177  0.047562683  0.047474611            6 
 4199000   0.57968245   -3.8283138    2405.3222  0.047736013  0.047463628            7 
 4200000   0.57535491    -3.852268    2405.2031  0.047722284  0.047452646           19 
 4201000   0.55605328   -3.8378742    2402.3309   0.04765395  0.047441588            9 
 4202000    0.5872683   -3.8589181    2408.1901  0.047758807  0.047430602            8 
 4203000   0.57506326   -3.8453518    2402.6088  0.047636783  0.047419559            5 
 4204000   0.57352957   -3.8452839    2399.3265  0.047560389  0.047408547           16 
 4205000   0.57606354   -3.8522503    2409.5788  0.047752255  0.047397489           22 
 4206000   0.56945007   -3.8246185      2408.93  0.047728048  0.047386536           18 
 4207000   0.57048861   -3.8158511    2411.7458  0.047772479  0.047375605            9 
 4208000   0.57570111   -3.8241867    2402.2493  0.047573061  0.047364642           22 
 4209000   0.58117802   -3.8211981    2409.3074  0.047701501  0.047353679            8 
 4210000   0.57062526    -3.831442    2399.9851  0.047505643  0.047342672            6 
 4211000   0.57326197    -3.850156    2399.0697  0.047476246  0.047331682            9 
 4212000    0.5719997   -3.8431413     2399.122   0.04746601  0.047320668            6 
 4213000   0.57706775   -3.8451135    2404.0703  0.047552621  0.047309697            8 
 4214000   0.56705242   -3.8627249    2398.9085   0.04743926  0.047298669            7 
 4215000   0.59390347   -3.8356524    2406.6704  0.047581464  0.047287626            8 
 4216000    0.5711746   -3.8371226    2403.8232    0.0475139  0.047276652            7 
 4217000   0.57287454   -3.8419331    2409.9513  0.047623732  0.047265626            7 
 4218000   0.58189287   -3.8409009     2402.001   0.04745537  0.047254684            9 
 4219000   0.56867579   -3.8424118    2408.5711  0.047573894  0.047243734            7 
 4220000     0.584606   -3.8424666    2409.5236   0.04758143  0.047232828           14 
 4221000    0.5767457   -3.8725395    2400.1809  0.047385708  0.047221848            8 
 4222000   0.58415189   -3.8613733    2409.5749  0.047559902  0.047210899           18 
 4223000   0.57306012   -3.8398372    2404.0609  0.047439831   0.04719991           23 
 4224000   0.57055066   -3.8360862    2407.5232  0.047496906  0.047188969           16 
 4225000   0.56725595   -3.8480962    2407.2087  0.047479461  0.047178021            8 
 4226000   0.57742454    -3.842886     2407.418  0.047472355  0.047167113           19 
 4227000   0.57388432   -3.8446842     2406.086  0.047434863  0.047156169           12 
 4228000   0.57571478   -3.8277444    2402.8782  0.047360419  0.047145279           23 
 4229000   0.57963857     -3.83702    2412.2363  0.047533622  0.047134367           10 
 4230000   0.57762402   -3.8611996    2402.8379  0.047337232  0.047123501           15 
 4231000   0.57519957   -3.8301784    2410.7968  0.047482802  0.047112566            7 
 4232000   0.58022822    -3.845723    2408.0985  0.047418449   0.04710166           12 
 4233000   0.57037164   -3.8532558    2405.8516  0.047363013  0.047090771            7 
 4234000   0.58065432   -3.8259061    2409.4142  0.047421945    0.0470799            7 
 4235000   0.58534614   -3.8409894    2406.1357  0.047346236  0.047069052            7 
 4236000   0.57304895   -3.8368459    2410.0642  0.047412343  0.047058207           11 
 4237000   0.56978534   -3.8402114    2406.6502  0.047334007  0.047047336           16 
 4238000   0.58040054   -3.8467742    2403.6447  0.047263738  0.047036472           10 
 4239000   0.56898134   -3.8581501    2407.7642  0.047333572  0.047025534           35 
 4240000   0.57691602   -3.8443983    2413.2134  0.047429508  0.047014674           14 
 4241000   0.58490283   -3.8461989    2410.4778  0.047364573  0.047003812           15 
 4242000   0.57346431    -3.831722    2410.6123  0.047356049  0.046992958           15 
 4243000   0.58615124   -3.8386833    2406.6819  0.047267694  0.046982095            6 
 4244000   0.57380763    -3.849279    2409.3341  0.047308634  0.046971246           13 
 4245000   0.57938393   -3.8476908    2405.6236  0.047224649  0.046960396           19 
 4246000   0.56266719   -3.8396102      2413.08  0.047359869  0.046949555            9 
 4247000   0.57553024    -3.849173    2410.5011  0.047298115  0.046938683           18 
 4248000   0.57440253   -3.8267182    2408.7063  0.047251771  0.046927783            9 
 4249000   0.56696008   -3.8558439    2411.0319  0.047286262  0.046916924            5 
 4250000   0.57436916   -3.8342853    2407.2568  0.047201113  0.046906076            4 
 4251000   0.54986657   -3.8580729    2412.4698  0.047292201  0.046895185            5 
 4252000   0.57773918   -3.8519338    2409.8537  0.047229808  0.046884272            8 
 4253000   0.56663361   -3.8384709    2411.0378  0.047241903   0.04687333            5 
 4254000   0.57781145   -3.8487975    2405.6398  0.047125054  0.046862389            5 
 4255000   0.55995912   -3.8543477    2403.1378  0.047064978  0.046851398            9 
 4256000   0.58105458    -3.865969    2409.6522  0.047181473  0.046840459            8 
 4257000   0.56352609   -3.8539251    2406.3275  0.047105306  0.046829568            9 
 4258000   0.57463396   -3.8533111    2413.6133  0.047236835  0.046818657            6 
 4259000   0.56256619    -3.858679    2411.5311  0.047185003  0.046807789            7 
 4260000   0.57102889   -3.8244854    2409.9076  0.047142167  0.046796904            6 
 4261000   0.57405012   -3.8670527    2407.6256  0.047086474  0.046785998            7 
 4262000   0.56728489   -3.8429742     2406.052  0.047044658  0.046775114           15 
 4263000   0.58055381   -3.8667671    2409.5805  0.047102598  0.046764226            4 
 4264000   0.55892316   -3.8407224    2408.5676  0.047071755  0.046753381           10 
 4265000   0.58408217    -3.858416    2408.5143  0.047059677  0.046742563           10 
 4266000   0.57234596    -3.852888    2410.0039  0.047077744  0.046731722           11 
 4267000     0.582218   -3.8557683    2414.2971  0.047150556  0.046720806           14 
 4268000   0.56949661   -3.8651217    2409.0564  0.047037183  0.046709906            5 
 4269000   0.56542131   -3.8671299    2412.8279  0.047099787  0.046699031           12 
 4270000    0.5663912   -3.8630312    2408.7059  0.047008311  0.046688208            9 
 4271000   0.57046605   -3.8598548    2412.7601  0.047076409   0.04667737            9 
 4272000   0.57406033   -3.8660736    2410.8187  0.047027519  0.046666533           19 
 4273000   0.55550692   -3.8556475      2414.02  0.047078946  0.046655712            6 
 4274000   0.56025191   -3.8478854    2413.3027  0.047053945  0.046644895            7 
 4275000   0.55761314   -3.8670129    2412.9301  0.047035674     0.046634            7 
 4276000   0.57421559    -3.856273    2415.2131  0.047069167  0.046623146           11 
 4277000   0.56428703   -3.8530139    2414.5397   0.04704504  0.046612305           21 
 4278000   0.56830576   -3.8563202    2411.3492  0.046971895  0.046601533           11 
 4279000   0.56035523    -3.870633    2410.8885  0.046951945  0.046590708           12 
 4280000   0.57275089   -3.8559001    2411.6505  0.046955813  0.046579861           16 
 4281000   0.56386614   -3.8660288    2409.9822  0.046912368   0.04656903           12 
 4282000   0.56688742    -3.857496     2408.126  0.046865288  0.046558118           17 
 4283000   0.57931655   -3.8614829    2405.2887  0.046799141   0.04654723           17 
 4284000   0.57211211   -3.8367668    2412.9095   0.04693646  0.046536379            8 
 4285000   0.56460177   -3.8576273    2412.8081  0.046923533  0.046525583           11 
 4286000   0.55733386   -3.8660203    2415.5744  0.046966372  0.046514771            9 
 4287000    0.5565683   -3.8750143    2409.7168  0.046841552  0.046503968           20 
 4288000   0.56142474    -3.866395    2406.2864  0.046763962  0.046493095           12 
 4289000   0.55825834   -3.8664655    2410.1625  0.046828368  0.046482268           12 
 4290000   0.55086884   -3.8648027    2402.6824  0.046672152   0.04647148           15 
 4291000   0.56424958   -3.8744145    2409.3351  0.046790474  0.046460679           16 
 4292000   0.57504177    -3.847372    2417.5354  0.046938789  0.046449912            8 
 4293000   0.56105336   -3.8603007    2414.7662  0.046874101  0.046439122           10 
 4294000    0.5549457    -3.861576    2414.1897  0.046851997  0.046428331           20 
 4295000   0.56351775   -3.8767797    2413.0343  0.046818671  0.046417581            7 
 4296000   0.55955403   -3.8677926     2413.378   0.04681444  0.046406818            9 
 4297000   0.57751895   -3.8549431    2417.7429  0.046888196  0.046396028           11 
 4298000   0.57567188   -3.8550973    2413.8704  0.046802202  0.046385293            6 
 4299000   0.56781081   -3.8651764    2423.8925  0.046985588  0.046374603           12 
 4300000   0.57093111   -3.8823422    2411.4889  0.046734281  0.046363875            8 
 4301000    0.5635603   -3.8655784    2414.7599  0.046786792  0.046353096           10 
 4302000   0.56049038   -3.8648326    2415.6001  0.046792191  0.046342382           12 
 4303000    0.5686867   -3.8605578     2409.954  0.046671973  0.046331716            8 
 4304000    0.5670575   -3.8391723    2417.3763  0.046804838  0.046321089           17 
 4305000   0.56430447    -3.855807    2414.5263  0.046738799  0.046310445            8 
 4306000   0.54817323   -3.8534584    2420.0785  0.046835395  0.046299733           28 
 4307000   0.57134331   -3.8565847    2418.6614  0.046797102  0.046289057           17 
 4308000   0.55580811   -3.8726885     2409.499  0.046609004  0.046278366           18 
 4309000   0.57399326   -3.8607109    2415.5747  0.046715686  0.046267657           10 
 4310000   0.55735141   -3.8457458    2420.5212  0.046800487  0.046256963            8 
 4311000   0.56268234   -3.8597088    2418.4188  0.046748991  0.046246247           10 
 4312000   0.56194195   -3.8471499    2412.5516   0.04662476  0.046235567           10 
 4313000   0.55330052   -3.8841416    2419.5408  0.046748992   0.04622488           12 
 4314000   0.56402107   -3.8865261    2413.8857  0.046628916  0.046214172           12 
 4315000   0.56343707   -3.8775867    2416.3307  0.046665329  0.046203403            9 
 4316000   0.55822333    -3.878875    2416.4604   0.04665702  0.046192647           13 
 4317000   0.56989946   -3.8792206    2419.8825  0.046712272  0.046181892           11 
 4318000   0.56092413   -3.8619451    2413.3477  0.046575337  0.046171227           13 
 4319000   0.55656469   -3.8599499    2415.5027  0.046606133  0.046160588           17 
 4320000   0.55258083   -3.8697325    2411.7968  0.046523858  0.046149895            6 
 4321000   0.57016985   -3.8717604    2418.5861  0.046644027  0.046139237           12 
 4322000   0.56061087   -3.8478397    2418.3258  0.046628216  0.046128628           11 
 4323000   0.57797401   -3.8689166    2415.2346  0.046557842  0.046118016           13 
 4324000   0.56193224   -3.8783251    2410.8175  0.046461947  0.046107348            7 
 4325000   0.55793349   -3.8792285    2424.9836  0.046724155  0.046096685           12 
 4326000   0.55281262   -3.8721448     2423.141  0.046677858  0.046086055           12 
 4327000   0.56388471   -3.8756994    2411.1055  0.046435281  0.046075363           10 
 4328000   0.55250943   -3.8535714    2414.1233  0.046482657  0.046064674           16 
 4329000   0.55654403    -3.872476     2411.345  0.046418437  0.046053948           10 
 4330000   0.56599912   -3.8814278      2411.65  0.046413587  0.046043225            7 
 4331000   0.55865575   -3.8725133     2421.311  0.046588758  0.046032481           16 
 4332000   0.56475328   -3.8774793    2415.4253  0.046464783  0.046021707            8 
 4333000    0.5578633   -3.8884946    2414.1967  0.046430431  0.046010931           11 
 4334000   0.56083242   -3.8684422    2410.2202  0.046343259  0.046000167            9 
 4335000   0.57119469   -3.8652078    2414.9795  0.046424057   0.04598945           25 
 4336000   0.56359156   -3.8751925    2415.1577  0.046416776  0.045978673           12 
 4337000   0.56207055   -3.8574443    2410.8238  0.046322799  0.045967936           11 
 4338000   0.55079532   -3.8861244    2418.0496   0.04645093  0.045957174           19 
 4339000   0.56422615   -3.8362953    2423.1741  0.046538643  0.045946452            8 
 4340000   0.56176533   -3.8695261    2415.7163  0.046384721  0.045935771            9 
 4341000   0.55258307   -3.8571682    2421.3009  0.046481243  0.045925052            7 
 4342000   0.55488893   -3.8911465    2417.2671  0.046393119  0.045914309            7 
 4343000   0.54470712    -3.868318    2416.3165  0.046364198  0.045903534           10 
 4344000   0.56944241   -3.8718679    2420.1581  0.046427219  0.045892768           25 
 4345000    0.5607341   -3.8657234    2423.8275  0.046486911  0.045882064           12 
 4346000   0.56595859   -3.8770036    2421.7534  0.046436444  0.045871357            5 
 4347000   0.55153657   -3.8544587    2417.3429  0.046341211  0.045860652            8 
 4348000    0.5578741   -3.8933975    2412.8383  0.046244219  0.045849897            6 
 4349000   0.57479177   -3.8705079    2418.3862  0.046339891  0.045839158           18 
 4350000   0.56568184   -3.8951849    2417.5239  0.046312718  0.045828487           14 
 4351000   0.57072082   -3.8798197    2418.3094  0.046317119  0.045817729           11 
 4352000   0.54392064   -3.8703573    2414.8162  0.046239587  0.045807052           20 
 4353000   0.54707415   -3.8743482    2422.2329  0.046370949  0.045796377           13 
 4354000   0.55416647     -3.88582    2415.4199  0.046229902  0.045785577            7 
 4355000    0.5508812   -3.8917319    2409.3452  0.046103047  0.045774846           14 
 4356000   0.54599506   -3.8805226    2419.8343  0.046293126  0.045764142           23 
 4357000   0.56976565   -3.8865913    2412.0993  0.046134559  0.045753437           11 
 4358000   0.53584892   -3.8870565    2409.0586  0.046065828  0.045742724           12 
 4359000     0.533465   -3.8530058    2411.8443  0.046108517  0.045732001            7 
 4360000   0.55026373   -3.8815444     2413.923  0.046137671  0.045721255           10 
 4361000   0.56209541   -3.8871904    2411.0651  0.046072482  0.045710481            9 
 4362000    0.5424513   -3.8736733      2418.98  0.046213129  0.045699748           10 
 4363000   0.55526443   -3.9029592    2417.2199  0.046168919  0.045689046           17 
 4364000   0.54878924   -3.8817185    2408.0729  0.045983672  0.045678354            9 
 4365000   0.56446295   -3.8719211    2411.2592  0.046033967  0.045667639           20 
 4366000   0.54377465   -3.8614788    2417.4025   0.04614068  0.045656966            4 
 4367000   0.54794351   -3.8993536    2412.0344  0.046027678  0.045646275           16 
 4368000   0.54006311   -3.8748744     2422.841  0.046223309  0.045635611           27 
 4369000   0.54624745   -3.8793091    2415.7008  0.046076538  0.045624871           14 
 4370000   0.55616868   -3.8888248    2418.1751  0.046113179  0.045614123            9 
 4371000   0.54583251   -3.8873563    2417.0675  0.046081513  0.045603353           13 
 4372000   0.55287159   -3.8838992    2417.9432  0.046087665  0.045592634           13 
 4373000   0.55078518   -3.8854334     2414.503  0.046011567  0.045581938           13 
 4374000   0.55150834   -3.9083775    2409.9057  0.045913459  0.045571184            9 
 4375000     0.547627   -3.8895713    2413.4936  0.045971307  0.045560462           16 
 4376000   0.55743678   -3.8959578    2419.8138  0.046081158  0.045549728           11 
 4377000   0.56678888   -3.8726016    2419.1209  0.046057439  0.045539026           11 
 4378000   0.54967889   -3.8872139    2414.1632   0.04595255  0.045528296           14 
 4379000   0.55473327   -3.8845171    2412.8383  0.045916844  0.045517596            9 
 4380000   0.54301567   -3.8846065    2417.1237  0.045987894  0.045506928            9 
 4381000   0.55126965   -3.8890864    2421.5678  0.046061931  0.045496292            8 
 4382000   0.55456753    -3.873509    2417.8082  0.045979922  0.045485643            9 
 4383000   0.55052201   -3.8983765    2416.6258  0.045946951  0.045474943           17 
 4384000   0.55340006   -3.8767909    2420.4364  0.046008904   0.04546427           12 
 4385000   0.53702419    -3.882432    2412.8448  0.045854139  0.045453603            8 
 4386000   0.54947369   -3.8836028    2419.3073  0.045966472  0.045442927           10 
 4387000   0.53876762   -3.8861773    2418.5014  0.045940684  0.045432239           19 
 4388000   0.55128084   -3.9009378    2409.4029  0.045757424  0.045421534           18 
 4389000   0.54753213   -3.8836525    2414.0183  0.045834631  0.045410771           17 
 4390000   0.54680619   -3.8938277    2411.5393  0.045777132  0.045400059           22 
 4391000   0.55915815    -3.878035    2417.4067  0.045878059  0.045389339           17 
 4392000   0.53627641   -3.8963085    2411.0838  0.045747644  0.045378636            9 
 4393000   0.53258938   -3.8862125    2416.8959  0.045847483  0.045367922           14 
 4394000   0.56051881    -3.873649    2412.1363  0.045746781   0.04535728           11 
 4395000   0.55694697   -3.8953161    2416.6178  0.045821347  0.045346624            5 
 4396000   0.54711104   -3.9181446    2414.5822  0.045772335  0.045335962           20 
 4397000     0.554615   -3.8866818    2418.8173  0.045842189  0.045325327           11 
 4398000   0.53811954   -3.8781334    2419.7753  0.045849919  0.045314716           12 
 4399000   0.54978838   -3.9071528    2417.5222  0.045796814  0.045304054           11 
 4400000   0.54042795   -3.9029702    2422.4993  0.045880668   0.04529333            8 
 4401000   0.54852529   -3.9006039    2414.3406  0.045715758  0.045282682           13 
 4402000   0.54301579   -3.8925782    2412.6275  0.045672943   0.04527198           11 
 4403000    0.5393889   -3.9121955    2415.3908  0.045714869  0.045261252            9 
 4404000    0.5407897    -3.904916    2413.7524  0.045673485  0.045250569           11 
 4405000   0.55721996   -3.9033246    2414.9059   0.04568494  0.045239911           21 
 4406000   0.54148498   -3.8929071     2412.675  0.045632377  0.045229268            9 
 4407000   0.55089845    -3.868318    2420.9944  0.045779336  0.045218619           13 
 4408000   0.55283957   -3.8864313    2419.3588   0.04573803  0.045208047            4 
 4409000   0.55782197   -3.8850036    2422.7571  0.045791886  0.045197429            7 
 4410000   0.53115441     -3.88465    2412.0419  0.045579024  0.045186797           13 
 4411000   0.54531078    -3.906945    2416.9855  0.045662084   0.04517617            8 
 4412000   0.53463453   -3.8879528    2418.5738  0.045681735  0.045165552           13 
 4413000    0.5495406   -3.9055573    2420.0144  0.045698588  0.045154971            5 
 4414000   0.55173563   -3.9025064    2416.7795  0.045627161  0.045144344           12 
 4415000    0.5528075   -3.8958532    2414.1943  0.045568032  0.045133667            9 
 4416000   0.54947694   -3.9067595    2414.5613  0.045564637  0.045122975           19 
 4417000   0.54217424   -3.8858997    2426.6155  0.045781743  0.045112349            9 
 4418000   0.54602177   -3.8884929    2421.7729  0.045680038  0.045101776            7 
 4419000   0.53445681   -3.8920059    2416.3554  0.045567537  0.045091189           11 
 4420000   0.54893392   -3.9052794    2416.7631  0.045564916  0.045080596           13 
 4421000   0.54637667   -3.8985033    2419.3998  0.045604308  0.045069989           12 
 4422000   0.53263342   -3.9267276    2411.4455  0.045444096  0.045059321           14 
 4423000   0.55282108   -3.8976223    2416.3702  0.045526608  0.045048605           11 
 4424000   0.54611941   -3.8965997    2417.4028  0.045535767  0.045037978           14 
 4425000   0.54921073   -3.8983596      2412.97  0.045441996  0.045027365            9 
 4426000   0.55292875   -3.9136085    2417.0806  0.045509124  0.045016699           11 
 4427000   0.53834638   -3.8943882    2422.6957  0.045604542  0.045006062           11 
 4428000   0.55209722   -3.9093922    2416.5733  0.045479023  0.044995408           14 
 4429000   0.53730858   -3.9094343    2414.1675  0.045423488  0.044984782           26 
 4430000    0.5477995   -3.9089959    2414.6026  0.045421418  0.044974144           12 
 4431000   0.53961369    -3.891903    2418.9107  0.045492189   0.04496354           10 
 4432000    0.5455702   -3.9142571    2420.1387  0.045505016  0.044952956            8 
 4433000   0.54079619   -3.8783086    2422.5821  0.045540682  0.044942348           13 
 4434000   0.52779175    -3.886466    2420.2421  0.045486432  0.044931841           16 
 4435000   0.54289105   -3.9001758    2422.2303  0.045513534  0.044921278           25 
 4436000   0.53315954    -3.886569    2422.6336   0.04551085  0.044910691           17 
 4437000   0.55213838   -3.8965965    2417.5481   0.04540508  0.044900136           23 
 4438000   0.53821446   -3.9077725    2421.7188  0.045473164  0.044889517            8 
 4439000   0.52628782   -3.8988996    2417.6431  0.045386406  0.044878926           15 
 4440000   0.53577041   -3.8956364    2418.1734  0.045386137  0.044868359           12 
 4441000   0.54230135   -3.9103987    2419.0872  0.045393064  0.044857815           10 
 4442000   0.54979104   -3.8970856    2423.9492  0.045474059  0.044847296           11 
 4443000   0.53027896    -3.913297    2418.7751  0.045366777  0.044836716           29 
 4444000   0.54152917   -3.9159182    2414.4992  0.045276388  0.044826126           16 
 4445000    0.5388852   -3.9195308    2422.4153  0.045414611  0.044815515           25 
 4446000   0.54930365   -3.9106182    2422.6112  0.045408067  0.044804966           12 
 4447000   0.54209899    -3.911249    2419.6628  0.045342605  0.044794436           17 
 4448000   0.54481679   -3.8998305     2423.004  0.045395009   0.04478385           12 
 4449000   0.54623135   -3.8974941    2424.9032  0.045420378  0.044773282           12 
 4450000   0.54341654   -3.9067663    2417.7639  0.045276477  0.044762717           41 
 4451000   0.54409214   -3.9145533    2417.0679  0.045253275  0.044752104           10 
 4452000   0.54934547   -3.9002577    2417.4058  0.045249434   0.04474152           16 
 4453000   0.52432036   -3.8968776    2417.9279  0.045249043   0.04473097            8 
 4454000   0.53948278   -3.9098481     2418.907  0.045257202  0.044720366           23 
 4455000   0.54013921   -3.9193081    2418.4247  0.045238023  0.044709791           24 
 4456000   0.53271286   -3.9026448    2420.8086  0.045272454  0.044699235           18 
 4457000   0.53828069   -3.8848205    2423.1714  0.045306474  0.044688715           10 
 4458000   0.53335404   -3.8939846    2419.1023  0.045220247  0.044678193           15 
 4459000   0.53124528    -3.922778      2416.24  0.045156613  0.044667566           18 
 4460000   0.52703396   -3.9032776    2418.8866  0.045195937  0.044656953           10 
 4461000   0.54422033   -3.8983914    2424.8705  0.045297589  0.044646366            7 
 4462000     0.531736   -3.9210364    2416.1157   0.04512393  0.044635818           18 
 4463000   0.52935709   -3.9174197    2421.0138  0.045205277  0.044625236           12 
 4464000   0.54449236   -3.9061405    2423.6631  0.045244607  0.044614684            8 
 4465000   0.54459766   -3.9135867    2415.8494  0.045088641   0.04460413            6 
 4466000    0.5424954   -3.9178378    2416.4705  0.045090134  0.044593561           10 
 4467000   0.54271198   -3.9083109    2416.8654  0.045087408  0.044582982            7 
 4468000   0.53746186   -3.9154465    2420.7435  0.045149647  0.044572449            9 
 4469000   0.52332774     -3.90486    2419.8382  0.045122663  0.044561958           20 
 4470000   0.54401076   -3.9074184    2422.7408  0.045166681  0.044551426            7 
 4471000   0.54132387   -3.9314829    2419.4831  0.045095861  0.044540836           31 
 4472000   0.52541029   -3.9144533    2421.1815  0.045117426   0.04453029           16 
 4473000   0.54426997   -3.9119198    2416.3987  0.045018233  0.044519755           11 
 4474000   0.54186253   -3.9213924    2420.1753  0.045078515   0.04450924           12 
 4475000   0.53677555   -3.9158178    2420.5096  0.045074667  0.044498664            6 
 4476000    0.5403374   -3.9268099    2420.7811  0.045069651  0.044488079           25 
 4477000   0.53713886   -3.9222448    2416.6764   0.04498318  0.044477532           24 
 4478000   0.54341226   -3.9133947    2416.0525  0.044961525  0.044466953            6 
 4479000   0.54248877   -3.9216811    2417.6123  0.044980507  0.044456373           32 
 4480000    0.5363597   -3.9051418    2414.3415  0.044909627  0.044445776           17 
 4481000   0.52918578   -3.9268609    2415.5149  0.044921425  0.044435189            7 
 4482000   0.54432663   -3.9385011    2416.8533  0.044936287   0.04442458           10 
 4483000   0.53653662   -3.9120191    2428.5525  0.045143737   0.04441407           14 
 4484000   0.52939037    -3.930038    2417.9818  0.044937217  0.044403555           14 
 4485000   0.53948898   -3.9281378    2419.5628  0.044956573  0.044393017           11 
 4486000   0.54377743   -3.9274284    2423.5054  0.045019792  0.044382448            8 
 4487000   0.53570008   -3.9266347    2425.1907  0.045041058  0.044371961           14 
 4488000   0.53333685   -3.9171998    2422.0248  0.044972236   0.04436142           10 
 4489000       0.5315   -3.9114099    2419.7029  0.044919116  0.044350912           19 
 4490000   0.53526147   -3.9213509    2426.2826  0.045031228   0.04434042           11 
 4491000   0.52939321   -3.9244313    2420.1887  0.044908126  0.044329898           11 
 4492000    0.5287622   -3.9328282    2420.8466  0.044910332  0.044319419            6 
 4493000   0.51954169   -3.9125654    2422.0455  0.044922574  0.044308906           10 
 4494000   0.52665916   -3.9272467    2417.8777  0.044835293   0.04429838           10 
 4495000   0.53083118   -3.9320928    2424.9784  0.044956959  0.044287859            9 
 4496000   0.53074079   -3.9233823    2416.7478  0.044794406  0.044277325           10 
 4497000    0.5354634   -3.9031172    2416.1767  0.044773861  0.044266781           12 
 4498000   0.53385932   -3.9217181    2422.9106  0.044888665  0.044256247           16 
 4499000     0.541871   -3.9222364    2425.8338  0.044932834  0.044245763           14 
 4500000   0.52747308   -3.9302857    2419.4046  0.044803789  0.044235269            6 
 4501000   0.53492413   -3.9150125    2423.7868  0.044874968  0.044224792           18 
 4502000   0.52576416   -3.9347967    2418.6875  0.044770612  0.044214272            7 
 4503000   0.52888242   -3.9141898    2417.3721  0.044736326  0.044203725           13 
 4504000   0.52232261   -3.9390666    2418.4769  0.044746834  0.044193191           12 
 4505000   0.53049963   -3.9331556    2418.6769  0.044740601  0.044182626            7 
 4506000    0.5303444   -3.9169174    2421.7241  0.044787026  0.044172117            5 
 4507000   0.53219898   -3.9132902    2420.1327  0.044747664   0.04416165            8 
 4508000   0.52196878   -3.9065239    2424.0206   0.04480961  0.044151169           18 
 4509000   0.53146154   -3.9097126    2423.0537  0.044781801  0.044140659           11 
 4510000   0.52834453   -3.9029496    2429.2455  0.044886281  0.044130185           18 
 4511000   0.53794308   -3.9383961    2422.4195  0.044750231  0.044119736            8 
 4512000   0.53309012    -3.917089     2422.601  0.044743665  0.044109251           11 
 4513000   0.52251016   -3.9328685    2423.6678  0.044753449   0.04409875            9 
 4514000   0.53076334   -3.9351776    2419.7683  0.044671545   0.04408823           17 
 4515000    0.5322738    -3.951147    2418.1053  0.044630958  0.044077667           15 
 4516000   0.53328234   -3.9346885    2423.7451  0.044725146  0.044067109           15 
 4517000   0.53934134   -3.9148072    2420.2741  0.044651209  0.044056564           30 
 4518000   0.52958314   -3.9263132    2417.8485  0.044596586   0.04404601           11 
 4519000   0.53654196   -3.9281869    2421.2925  0.044650227  0.044035475           15 
 4520000   0.51229312   -3.9108545    2418.6044   0.04459079  0.044024987           13 
 4521000   0.52420288   -3.9426533    2420.0786    0.0446081  0.044014471           10 
 4522000   0.52536888   -3.9383774    2416.6928   0.04453584  0.044003971           14 
 4523000   0.52124705   -3.9175669    2426.4789  0.044706296  0.043993429            8 
 4524000   0.53461182   -3.9334632    2422.0282   0.04461443  0.043982907           23 
 4525000   0.53490651   -3.9366852    2414.6262  0.044468255  0.043972418           18 
 4526000   0.53919976   -3.9212687    2420.6971  0.044570206  0.043961943            7 
 4527000   0.52451859   -3.9289416    2419.7311   0.04454258  0.043951464           15 
 4528000   0.53092068   -3.9508338     2419.834  0.044534636  0.043941004            7 
 4529000   0.52106796   -3.9432872    2419.1941  0.044513029   0.04393045           11 
 4530000    0.5344296   -3.9501806    2419.6367  0.044511345  0.043919889            7 
 4531000   0.53245027    -3.939566    2417.0891  0.044454665  0.043909369            5 
 4532000    0.5284211    -3.920838    2417.5792  0.044453868  0.043898849           18 
 4533000   0.53835877   -3.9314298    2425.2976  0.044585956  0.043888391           38 
 4534000   0.52314395    -3.947048    2417.2647  0.044428479  0.043877906           37 
 4535000   0.52241112   -3.9284256    2421.5324  0.044497104   0.04386744           11 
 4536000    0.5318722   -3.9411951    2421.4257  0.044485334   0.04385701            8 
 4537000   0.52512031   -3.9312629    2421.8658  0.044483612  0.043846599            9 
 4538000   0.52200574   -3.9418895    2423.4078  0.044502126  0.043836138           13 
 4539000   0.52224641   -3.9368644    2421.9579  0.044465702  0.043825711            9 
 4540000   0.53136373   -3.9453708    2421.2299  0.044442547  0.043815272           16 
 4541000   0.52845353   -3.9530799     2423.991  0.044483428  0.043804862            7 
 4542000   0.52884641    -3.925627    2427.6852  0.044541414  0.043794457           25 
 4543000   0.52998281    -3.939971    2421.3803  0.044415957  0.043784058            4 
 4544000   0.52877959    -3.932376    2420.3964  0.044388138   0.04377362           17 
 4545000   0.51698146   -3.9383749    2422.7167  0.044420914  0.043763158           10 
 4546000   0.52052472   -3.9400128    2426.8022  0.044486036  0.043752731           13 
 4547000    0.5203618   -3.9398976    2421.0073  0.044370049  0.043742314            9 
 4548000   0.52002705    -3.911625    2424.5726  0.044425619  0.043731921           11 
 4549000   0.53144061   -3.9369701     2424.015  0.044405638  0.043721477            9 
 4550000    0.5251141   -3.9451589    2428.6208  0.044480234   0.04371101           22 
 4551000   0.52302478    -3.919404     2421.131  0.044333314  0.043700538           28 
 4552000    0.5286606   -3.9423742    2416.8106  0.044244482  0.043690067           32 
 4553000   0.53897189   -3.9446989    2418.1333  0.044258973  0.043679592            7 
 4554000     0.530381    -3.934978    2423.3589  0.044344878  0.043669168           12 
 4555000    0.5244413   -3.9420887    2424.2852  0.044352089  0.043658717           17 
 4556000   0.52487056   -3.9550494    2420.2523  0.044268588  0.043648245           13 
 4557000   0.53130566   -3.9721154    2417.0338  0.044200018  0.043637743           15 
 4558000   0.50777676   -3.9352554    2424.5023  0.044326867  0.043627307           18 
 4559000    0.5258933   -3.9271933    2418.3556  0.044204789  0.043616873           20 
 4560000   0.52034477   -3.9339197     2420.556  0.044235308   0.04360647           28 
 4561000   0.51683261    -3.949421    2418.8728  0.044194855   0.04359604           21 
 4562000   0.52772049   -3.9396571    2424.9516  0.044296207   0.04358562           11 
 4563000   0.51036343   -3.9463333    2417.8933  0.044157595  0.043575183            9 
 4564000   0.52350513   -3.9367087    2422.0798  0.044224362  0.043564769            9 
 4565000   0.52975312   -3.9304611    2423.1431  0.044234083  0.043554367            9 
 4566000   0.52009713    -3.936974    2417.7829  0.044126567  0.043543942           11 
 4567000   0.52662562   -3.9426004    2420.7907  0.044171788  0.043533498           13 
 4568000   0.51398338   -3.9384265    2426.1844  0.044260516  0.043523049           12 
 4569000   0.53062021   -3.9321254    2423.7367  0.044206185  0.043512621           30 
 4570000   0.52560331   -3.9642788    2414.6613  0.044031023  0.043502198           26 
 4571000   0.52068201   -3.9260798    2419.0774    0.0441019  0.043491757           19 
 4572000   0.52505982   -3.9506577    2420.4944  0.044118081  0.043481335           27 
 4573000   0.52622491   -3.9358863    2419.7464  0.044094802  0.043470915            9 
 4574000   0.53277629   -3.9439157    2418.0244   0.04405379   0.04346052           10 
 4575000   0.50942776   -3.9321792    2421.4414    0.0441064  0.043450119           18 
 4576000   0.51556254   -3.9642367    2416.3992  0.044004939  0.043439716           13 
 4577000   0.53331312   -3.9486873    2416.4252  0.043995798  0.043429309           26 
 4578000   0.52965748   -3.9614123    2419.4392  0.044041052   0.04341894           16 
 4579000   0.52392114   -3.9433068    2418.6059  0.044016269  0.043408569           22 
 4580000   0.51731097   -3.9459156    2419.3362  0.044019945   0.04339819           23 
 4581000   0.51449904   -3.9330713    2420.2178  0.044026373  0.043387834           11 
 4582000   0.51838048   -3.9435897    2425.9601    0.0441212   0.04337748           24 
 4583000   0.50992672   -3.9306982    2428.9177  0.044165352  0.043367126           12 
 4584000   0.52484982    -3.965437    2426.5723   0.04411308  0.043356774            8 
 4585000   0.51782597   -3.9675742    2427.0244  0.044111676  0.043346422           16 
 4586000   0.51893923   -3.9452525    2423.2282  0.044033075  0.043336005            9 
 4587000   0.53860568   -3.9451987    2417.8922  0.043926535  0.043325645           25 
 4588000   0.52190484   -3.9390716    2422.4587  0.043999905  0.043315274           10 
 4589000   0.51409589   -3.9617769     2423.185  0.044003504  0.043304891           27 
 4590000   0.51394387    -3.941844    2421.5962  0.043965072  0.043294469           13 
 4591000   0.52791014   -3.9525684    2418.7684  0.043904167  0.043284063           28 
 4592000   0.52377422    -3.954539    2423.4343   0.04397928  0.043273711           17 
 4593000   0.51232357   -3.9628895    2419.0452  0.043890073  0.043263358           10 
 4594000   0.50142211    -3.955811    2418.0745   0.04386291  0.043252986            9 
 4595000   0.52091152   -3.9392183    2423.3367  0.043948797  0.043242634           12 
 4596000   0.51561077   -3.9407454    2422.0967  0.043916751  0.043232344            7 
 4597000     0.509017   -3.9519323    2421.8813  0.043903294  0.043222014           11 
 4598000   0.51773123   -3.9487081    2427.1767  0.043989719  0.043211698            8 
 4599000   0.50245108   -3.9519881    2421.4079  0.043875623  0.043201384           10 
 4600000   0.51616088    -3.951622    2426.3986  0.043956497  0.043191021           10 
 4601000   0.51883653   -3.9506829    2428.3406  0.043982116    0.0431807            9 
 4602000   0.51144579   -3.9558811    2421.5573  0.043849726  0.043170336            9 
 4603000   0.51889369   -3.9622593    2423.5567  0.043876397  0.043159983           15 
 4604000   0.51548844   -3.9534718    2419.9385  0.043801378  0.043149672            9 
 4605000   0.53467317   -3.9481325    2426.8612   0.04391714  0.043139345           17 
 4606000   0.51457072     -3.95001    2423.3831  0.043844679  0.043129028           11 
 4607000   0.52910419   -3.9653282    2426.3561  0.043888939  0.043118667           20 
 4608000   0.51399116   -3.9455995     2420.241  0.043768826  0.043108345           14 
 4609000   0.51571518    -3.937822    2424.9313  0.043844133  0.043098009           14 
 4610000   0.50343464   -3.9468883    2418.9877  0.043727183  0.043087663           18 
 4611000   0.52353675   -3.9672889    2421.5453  0.043763921  0.043077269           18 
 4612000   0.50661924   -3.9751053    2420.0381  0.043727199  0.043066867            7 
 4613000   0.50614898   -3.9707448    2421.5826  0.043745621  0.043056486           21 
 4614000   0.50115604   -3.9490704    2423.6216  0.043772966  0.043046158           42 
 4615000   0.51992275   -3.9713714    2424.1172  0.043772431  0.043035766            5 
 4616000   0.51533742   -3.9444629    2421.2009    0.0437103  0.043025424           16 
 4617000   0.50977663   -3.9687015    2421.2157    0.0437011  0.043015079           13 
 4618000   0.50650024   -3.9692138    2422.2499  0.043710299  0.043004734           13 
 4619000   0.51552197   -3.9557831    2428.9646  0.043821978   0.04299442           12 
 4620000   0.51409078   -3.9695453    2427.4353  0.043784908  0.042984099           26 
 4621000   0.51533158   -3.9604957    2419.4784  0.043631941  0.042973736           33 
 4622000   0.50150718   -3.9677201    2424.8694    0.0437197  0.042963393           12 
 4623000   0.52188267   -3.9519276    2421.2337  0.043644706  0.042953065           11 
 4624000   0.50855934   -3.9754385    2418.7411  0.043590345   0.04294273           11 
 4625000   0.51247641   -3.9468043    2425.0221  0.043694092  0.042932426            8 
 4626000   0.49749206   -3.9731155    2416.4807  0.043530781   0.04292211           13 
 4627000   0.51625929   -3.9644952    2424.0092  0.043656964  0.042911774           22 
 4628000   0.50589403   -3.9852031    2426.0499  0.043684274  0.042901404           25 
 4629000   0.51677704    -3.977825    2422.3236  0.043607755   0.04289105           10 
 4630000   0.51295022   -3.9675771     2418.614   0.04353157  0.042880733           12 
 4631000   0.51135684   -3.9710049     2422.183  0.043586393  0.042870469           16 
 4632000   0.50493111   -3.9852368    2428.9353  0.043698462  0.042860193           19 
 4633000   0.50275408   -3.9489253    2428.7622  0.043685916  0.042849935           14 
 4634000   0.50663832   -3.9630177    2424.3903   0.04359787  0.042839685           10 
 4635000   0.49973796   -3.9602335    2423.4607   0.04357175  0.042829401           22 
 4636000   0.50456223   -3.9635422    2422.8979  0.043552234  0.042819124           11 
 4637000   0.51254773   -3.9567434    2427.7405   0.04362987  0.042808863           15 
 4638000   0.51032861    -3.980293    2422.5541  0.043527276  0.042798602           26 
 4639000   0.50815558   -3.9545259     2430.365  0.043658206  0.042788319           22 
 4640000   0.49707793    -3.957905    2429.2107  0.043628066  0.042778106            7 
 4641000    0.4977765   -3.9737272    2424.3512  0.043531408  0.042767852           23 
 4642000   0.51587016   -3.9626722    2425.3295  0.043539594  0.042757611            8 
 4643000   0.50941843    -3.955196    2425.0657   0.04352548  0.042747342           13 
 4644000   0.51019823   -3.9722512    2419.0977  0.043409017  0.042737068           13 
 4645000   0.50785566   -3.9754206    2416.4428  0.043352041  0.042726831           21 
 4646000    0.5109134   -3.9764611     2426.021  0.043514511  0.042716555           15 
 4647000   0.52517486   -3.9766208     2421.757  0.043428681  0.042706271           25 
 4648000   0.50279699    -3.989838    2421.3261  0.043411612  0.042696007           19 
 4649000    0.5196529   -3.9942107    2427.3605  0.043510441   0.04268575           14 
 4650000   0.49993686   -3.9785196    2421.9134  0.043403465  0.042675519           10 
 4651000   0.50586729   -3.9673338    2423.5932  0.043424231  0.042665281           11 
 4652000   0.51493778   -3.9545905     2427.452  0.043484021  0.042655087           18 
 4653000   0.50809468   -3.9767103     2423.775  0.043408823   0.04264487           12 
 4654000   0.51568559   -3.9786902     2430.045  0.043511763  0.042634627           22 
 4655000   0.50676586   -3.9718656    2424.0728  0.043395502   0.04262442            9 
 4656000   0.50879969   -3.9739421    2420.7027  0.043325864  0.042614215           11 
 4657000   0.50576407   -3.9638011    2426.5169  0.043420601  0.042603987            6 
 4658000   0.51491659   -3.9793832    2426.0719  0.043403319  0.042593786            6 
 4659000   0.51618403   -3.9762478    2420.1076  0.043287322  0.042583556           18 
 4660000   0.49697288   -3.9767182    2427.0118  0.043401498  0.042573325           12 
 4661000    0.5167548   -3.9791158    2421.5348  0.043294264  0.042563077           19 
 4662000   0.50315288    -3.992275    2422.6845   0.04330553  0.042552791           10 
 4663000   0.52121281   -3.9720594    2422.0521  0.043284939  0.042542541           46 
 4664000   0.49709684   -3.9647286    2424.6764  0.043322548  0.042532306           26 
 4665000   0.50030604   -3.9700345    2430.0347   0.04340898  0.042522077           31 
 4666000   0.50778994   -3.9768457    2423.9666  0.043291301  0.042511883           16 
 4667000   0.50283176   -3.9645465    2424.1179  0.043284727  0.042501662           14 
 4668000   0.51659959    -3.969731    2426.1003  0.043310846  0.042491448           16 
 4669000   0.50342029   -3.9505142    2421.4303  0.043218218  0.042481229           11 
 4670000   0.49632932   -3.9732284     2425.247  0.043277069  0.042471035           18 
 4671000   0.50348363   -3.9677216      2428.35  0.043323165  0.042460827           16 
 4672000   0.50886064   -3.9718339    2422.3673  0.043207179  0.042450581           14 
 4673000   0.49255256   -3.9799177    2422.3753  0.043198076  0.042440348           18 
 4674000   0.50821522   -3.9771209     2426.922  0.043269897  0.042430102            9 
 4675000   0.49963491   -3.9899349    2425.6629  0.043238199  0.042419837           13 
 4676000   0.50121124   -3.9782154     2418.821  0.043107018  0.042409568            8 
 4677000   0.51098441   -3.9811158    2427.5493  0.043253319  0.042399349           28 
 4678000   0.51335649    -3.981687    2425.5735  0.043208877  0.042389111           16 
 4679000   0.50689678   -3.9753215    2421.5513  0.043128006  0.042378855           38 
 4680000   0.51109576   -3.9899319    2422.3684   0.04313334  0.042368605           21 
 4681000    0.5054466   -3.9964599    2418.0531  0.043047304  0.042358359            7 
 4682000   0.50198793   -4.0046472    2421.6371  0.043101899  0.042348106            7 
 4683000   0.50620107   -3.9903987    2423.9289  0.043133477  0.042337852           18 
 4684000   0.49951534   -3.9829661    2427.3286  0.043184753  0.042327639            8 
 4685000   0.49742799   -3.9773522    2422.7952  0.043094899   0.04231741           12 
 4686000   0.49976963   -3.9831154    2427.0405  0.043161199  0.042307163           11 
 4687000   0.49378579   -3.9787208    2428.6777  0.043181098  0.042296967           17 
 4688000   0.49413945   -3.9711962    2427.0056  0.043142165  0.042286767            8 
 4689000   0.50503022   -3.9806283    2420.9221  0.043024846  0.042276575           15 
 4690000    0.4994127   -3.9900622    2420.9747  0.043016608  0.042266356           16 
 4691000   0.50329212   -3.9871911    2423.4617  0.043051619  0.042256178           14 
 4692000   0.49507419   -3.9721951    2420.7556   0.04299438  0.042245964           11 
 4693000    0.5054863   -3.9959758     2420.507  0.042980805  0.042235757           14 
 4694000   0.50342498   -3.9836473    2423.7825  0.043029798  0.042225498           29 
 4695000   0.50484446   -3.9873926    2426.2732  0.043064842  0.042215283           27 
 4696000   0.49670136   -3.9744488    2423.2954  0.043002829  0.042205093           11 
 4697000   0.50286256   -4.0068145    2422.5141  0.042979811  0.042194848           18 
 4698000    0.4940642   -3.9889906    2419.4727  0.042916714  0.042184607           12 
 4699000   0.49952492   -3.9814272    2418.1821  0.042884694  0.042174369           18 
 4700000     0.506982   -3.9858317     2426.691  0.043026436  0.042164125           22 
 4701000   0.50390204   -3.9904864    2420.4322  0.042906335  0.042153898           11 
 4702000   0.49700307    -3.975599    2422.0169  0.042925297  0.042143716            7 
 4703000   0.50882521   -3.9921607    2418.4018  0.042852112  0.042133458           10 
 4704000   0.49950488   -3.9888127    2423.0027   0.04292451  0.042123216            9 
 4705000   0.49791444   -4.0039285    2418.3826  0.042833557  0.042112964            8 
 4706000   0.49657899   -3.9903225    2425.0533  0.042942578  0.042102722           10 
 4707000   0.49727955   -3.9947772     2423.274  0.042901954    0.0420925           12 
 4708000   0.50100024    -3.997397     2425.151  0.042926066  0.042082268           13 
 4709000   0.50252197   -4.0040744    2422.1807  0.042864385  0.042072054           25 
 4710000   0.49246442   -4.0092635    2425.4974  0.042913968  0.042061797           12 
 4711000   0.48911049   -3.9775884     2421.547  0.042834978  0.042051576           13 
 4712000    0.5090367   -3.9940475     2423.148  0.042854202  0.042041359           25 
 4713000   0.48201519   -3.9777322    2425.3228  0.042883563  0.042031196           15 
 4714000    0.4876537   -3.9971838    2428.0631  0.042922908  0.042021002           19 
 4715000    0.4975639   -3.9739376    2426.8286  0.042891987  0.042010841           22 
 4716000     0.498725   -3.9971482    2420.8596  0.042777417  0.042000669           20 
 4717000   0.49025488   -3.9862987    2417.9582  0.042717091  0.041990486           31 
 4718000   0.49584556    -3.988513    2424.0602  0.042815815  0.041980278           15 
 4719000   0.48931555   -3.9972567    2420.4321  0.042742673  0.041970087           22 
 4720000   0.49452006   -4.0002906    2415.7269  0.042650546  0.041959892           15 
 4721000   0.50402867   -3.9971405    2429.2914  0.042880947  0.041949686           24 
 4722000    0.4906627   -3.9931971    2429.1494  0.042869359  0.041939522           15 
 4723000    0.4926644   -3.9853249    2423.3783  0.042758456  0.041929356           16 
 4724000   0.49721525   -3.9995739     2430.424  0.042873695  0.041919187           14 
 4725000   0.48716909   -4.0058675    2424.0929  0.042752961  0.041908996           13 
 4726000     0.491106    -4.003539    2428.4388  0.042820546  0.041898851           28 
 4727000   0.49656912   -3.9842779    2426.6799   0.04278048  0.041888716           15 
 4728000    0.4936015   -4.0014668    2421.8868   0.04268695  0.041878562           32 
 4729000    0.4849626   -3.9765734      2427.06  0.042769085  0.041868436           14 
 4730000   0.49336859   -4.0124609    2427.7228   0.04277172  0.041858297           14 
 4731000   0.49575708   -4.0243008    2421.6968  0.042656534  0.041848126           17 
 4732000   0.48922067    -3.988849    2423.1833  0.042673698  0.041837946            9 
 4733000   0.49955402   -3.9954131    2424.5642  0.042688995  0.041827806           38 
 4734000    0.5048866   -3.9695398    2426.6132  0.042716048  0.041817679           21 
 4735000   0.48956012   -3.9944064    2429.6905  0.042761184  0.041807556           14 
 4736000   0.49532118   -3.9848915    2424.5468  0.042661648  0.041797421           12 
 4737000   0.50041927   -3.9875483    2425.5347  0.042670022  0.041787302           13 
 4738000   0.49702102   -4.0063207    2425.5384   0.04266108  0.041777156           14 
 4739000   0.48216415   -4.0211268    2419.2188  0.042540951  0.041766995           13 
 4740000   0.48907674   -3.9913312      2422.82  0.042595289  0.041756823           12 
 4741000   0.50001417   -4.0134706    2422.1959  0.042575333  0.041746687           10 
 4742000   0.48650888     -4.01233    2422.9645  0.042579863  0.041736528           21 
 4743000   0.49043673   -3.9893978    2423.0041   0.04257158  0.041726404           15 
 4744000   0.48893802   -3.9956597    2421.0262  0.042527863  0.041716276           27 
 4745000   0.49073246   -4.0083491    2420.9924  0.042518307  0.041706153           21 
 4746000   0.49268559   -3.9969444    2419.8074  0.042488541  0.041696019           14 
 4747000   0.50601147    -3.998871    2424.8378    0.0425679  0.041685899           14 
 4748000    0.4994032    -4.003826     2420.246  0.042478342  0.041675768           15 
 4749000   0.50232326   -4.0039589    2426.1565  0.042573113  0.041665633           31 
 4750000   0.48860668   -4.0069963    2421.8949  0.042489385  0.041655525           36 
 4751000   0.48977064   -3.9992062    2418.8824  0.042427601  0.041645368            7 
 4752000   0.49358427   -4.0108626    2417.8323  0.042400258   0.04163522           27 
 4753000    0.4880865   -4.0158536    2422.8404  0.042479143  0.041625079           18 
 4754000   0.47672983    -4.001322    2427.3287  0.042548883  0.041614948            9 
 4755000   0.48607961   -3.9985672    2422.7312  0.042459361  0.041604835           25 
 4756000   0.49414627   -4.0153674    2416.7406  0.042345468    0.0415947           28 
 4757000   0.49111049   -4.0152015    2427.8023  0.042530347  0.041584548           13 
 4758000   0.49898036   -4.0029891    2422.3812  0.042426461   0.04157443            8 
 4759000   0.48572652   -3.9999735    2423.2073  0.042432012  0.041564307            9 
 4760000   0.48805986   -4.0062055      2422.62  0.042412815  0.041554177           16 
 4761000   0.50445731   -4.0183938    2422.4714  0.042401306  0.041544038           11 
 4762000   0.48727469   -4.0137578    2422.0553   0.04238512  0.041533892           16 
 4763000   0.47729388   -4.0192141    2424.8878  0.042425778  0.041523735           14 
 4764000   0.49407831   -4.0019997    2419.8862  0.042329383  0.041513638           10 
 4765000    0.4974961   -3.9851836     2423.254  0.042379398  0.041503528           21 
 4766000   0.49941497   -4.0094767    2416.0477  0.042244505  0.041493388           22 
 4767000   0.48420501   -4.0116453    2415.4942  0.042225966  0.041483237           39 
 4768000   0.48269671   -4.0075194    2416.3112  0.042231389  0.041473099           22 
 4769000    0.4781502   -4.0184029     2423.826  0.042353849  0.041462985           27 
 4770000    0.4846017   -4.0074013    2424.1754  0.042351072  0.041452877           12 
 4771000   0.49060651   -4.0140944    2416.4086  0.042206535  0.041442765           13 
 4772000   0.48743227   -4.0005066    2421.8949  0.042293498   0.04143267           25 
 4773000   0.48642345   -4.0156858    2419.9355  0.042250428  0.041422574           13 
 4774000   0.48638768   -4.0131627    2424.7957  0.042326415  0.041412462           23 
 4775000   0.48751636   -4.0123042    2428.3073  0.042378836  0.041402359           14 
 4776000   0.48908984    -4.010963    2424.9549  0.042311468  0.041392284           20 
 4777000   0.49180695   -3.9996824    2421.1135  0.042235599  0.041382173           15 
 4778000   0.48579453   -4.0044003    2426.7337  0.042324782  0.041372098           16 
 4779000   0.48068959   -4.0174417    2424.3294     0.042274  0.041362031           61 
 4780000    0.4884493   -3.9996188    2421.8431  0.042221812  0.041351973           16 
 4781000   0.49101406   -3.9999166    2420.3345  0.042186686  0.041341873           26 
 4782000   0.48358901   -4.0353821    2423.4528  0.042232205  0.041331751           29 
 4783000   0.48445935   -4.0105609    2418.5426  0.042137825  0.041321654           45 
 4784000   0.49008265   -4.0104398     2424.256  0.042228539  0.041311559           51 
 4785000   0.47636509    -4.001299    2424.6964  0.042227384  0.041301486           35 
 4786000    0.4843986   -4.0054459    2429.3035  0.042298779  0.041291408           13 
 4787000   0.48487631   -4.0001984    2424.6871   0.04220958  0.041281344           21 
 4788000   0.48516044   -4.0159031    2423.8748  0.042186626  0.041271286           31 
 4789000   0.49431713   -4.0231944     2419.945  0.042109435  0.041261213           10 
 4790000   0.49184077   -4.0016257    2418.5778  0.042076858  0.041251142           26 
 4791000   0.47482734   -4.0178092    2420.6918  0.042104846  0.041241075           15 
 4792000   0.48620918   -4.0255943    2429.1924  0.042243886  0.041231015            8 
 4793000   0.48019227   -4.0162708    2422.4191  0.042117308  0.041220949           11 
 4794000   0.48945382   -4.0211649    2425.8895  0.042168847  0.041210936           22 
 4795000   0.48628599   -4.0060888    2421.9135  0.042090955  0.041200907           34 
 4796000   0.49038085   -4.0157072    2424.5142  0.042127366  0.041190857           16 
 4797000   0.48524272   -4.0149182    2426.0444  0.042145166  0.041180836           14 
 4798000   0.48963827   -4.0066352    2420.7333  0.042044139  0.041170828           31 
 4799000   0.47895243   -4.0101574    2420.8254  0.042036977  0.041160812           11 
 4800000   0.48327513   -4.0182179    2425.2038  0.042104232    0.0411508           11 
 4801000   0.48629914   -4.0136399    2424.7247  0.042087146  0.041140758           45 
 4802000   0.48038047   -4.0177197    2428.6379  0.042146291  0.041130762           16 
 4803000   0.49070411   -4.0251667    2425.7901  0.042088107   0.04112071           20 
 4804000   0.48179423   -4.0078438    2421.4444  0.042003962   0.04111064           23 
 4805000   0.48451813   -4.0123418    2425.2853  0.042061834    0.0411006           26 
 4806000   0.48602073   -4.0285661     2415.008  0.041874879  0.041090565           53 
 4807000   0.47168742   -4.0052849    2419.7571  0.041948498  0.041080509            7 
 4808000   0.48661089   -4.0220482    2425.4932  0.042039191   0.04107046           15 
 4809000   0.48581441   -4.0444662    2421.9316  0.041968732  0.041060413           14 
 4810000   0.47748904   -3.9966375     2426.038   0.04203115   0.04105039           21 
 4811000   0.46834604   -4.0289129    2423.1437   0.04197228  0.041040361           17 
 4812000   0.47849116   -4.0210995     2421.066  0.041927577  0.041030315           26 
 4813000   0.48080241   -4.0330589    2421.1442   0.04192022  0.041020287           22 
 4814000   0.48799125   -4.0198854    2415.1249  0.041807313  0.041010224           22 
 4815000   0.48535554   -4.0242895    2421.8569  0.041915143  0.041000181           65 
 4816000   0.48564438   -4.0185037    2424.9549  0.041960044  0.040990139           15 
 4817000   0.48713984   -4.0116103    2425.3971  0.041958984  0.040980126           17 
 4818000   0.48626118   -4.0284698    2421.1386  0.041876619  0.040970094           27 
 4819000   0.48598224   -4.0267439    2423.6845  0.041911955  0.040960057           13 
 4820000      0.47818   -4.0230274    2417.9289   0.04180375  0.040950048           12 
 4821000   0.48939795   -4.0317864    2421.7634  0.041861361  0.040940034           15 
 4822000   0.49041869   -4.0457534    2418.3704  0.041794041  0.040929994           34 
 4823000   0.48317696   -4.0344586    2421.4356  0.041838337  0.040920001           16 
 4824000   0.49313772   -4.0357102    2420.5214  0.041813872  0.040909989           20 
 4825000   0.48833313   -4.0162215    2419.0564  0.041779903  0.040899965           20 
 4826000   0.48124591   -4.0366903    2416.6081  0.041728969  0.040889958           14 
 4827000    0.4752861   -4.0384599    2424.4779  0.041856189  0.040879959           24 
 4828000   0.48478458    -4.036227    2422.9331  0.041820857  0.040869951           21 
 4829000   0.48361541   -4.0260037    2420.8184  0.041775702  0.040859937           12 
 4830000   0.48114804   -4.0279608    2419.2875  0.041740639  0.040849918           33 
 4831000   0.48563247   -4.0254174    2424.2047   0.04181682  0.040839914           16 
 4832000   0.47815001   -4.0347779    2424.2212  0.041808451  0.040829929            8 
 4833000   0.49072245   -4.0074513    2415.8344  0.041655191  0.040819918           35 
 4834000   0.47735446   -4.0441924    2424.5907  0.041797522  0.040809895           16 
 4835000   0.47793349   -4.0523252    2425.7943  0.041809622  0.040799889           40 
 4836000   0.48262369    -4.027007    2416.7741  0.041645542  0.040789888           33 
 4837000   0.48332576   -4.0250716    2420.7896  0.041706113  0.040779872           48 
 4838000   0.47745338   -4.0137536    2422.2239  0.041722198  0.040769857           44 
 4839000   0.47931171   -4.0272395    2424.0524  0.041745064   0.04075987           28 
 4840000   0.47838858   -4.0361796    2416.9386  0.041613956  0.040749893           52 
 4841000   0.47944998   -4.0208949    2418.8001  0.041637404  0.040739879           39 
 4842000   0.48269465   -4.0425385    2422.8131  0.041697871  0.040729881           16 
 4843000   0.47402839   -4.0320184    2428.7262  0.041791007  0.040719915           28 
 4844000   0.47182917   -4.0238934    2424.1148  0.041703049  0.040709969           10 
 4845000   0.46977713   -4.0437014    2429.0396  0.041779147  0.040700028           13 
 4846000   0.46393924   -4.0436185    2422.6738  0.041661056  0.040690069           47 
 4847000   0.47365917   -4.0363053    2422.6867  0.041652684  0.040680084            7 
 4848000   0.48056729   -4.0300934     2423.616  0.041660065  0.040670099           22 
 4849000   0.48416029   -4.0478985    2423.5225  0.041649868  0.040660093           19 
 4850000   0.48172837   -4.0347926    2424.3875  0.041656143  0.040650109           21 
 4851000   0.47087902   -4.0295173    2423.5823  0.041633723  0.040640116           30 
 4852000   0.47560935   -4.0341986    2426.0961  0.041668317  0.040630129           23 
 4853000   0.47821793   -4.0506778    2418.9409  0.041536866  0.040620163           14 
 4854000   0.47345066   -4.0346669    2417.4111  0.041502045  0.040610204           21 
 4855000   0.47887597     -4.02778    2424.1704  0.041609516  0.040600253            8 
 4856000   0.47411347   -4.0261186    2423.8212  0.041594955  0.040590326           19 
 4857000    0.4717752   -4.0371229    2421.4283  0.041545335  0.040580406           14 
 4858000    0.4788109   -4.0278098    2423.1594  0.041566478  0.040570439           13 
 4859000   0.47257325   -4.0435272    2424.8258  0.041586503  0.040560497           11 
 4860000   0.47143585   -4.0159188    2423.4541  0.041554426  0.040550582           27 
 4861000   0.46804892   -4.0236959    2421.9845  0.041520683   0.04054066           18 
 4862000   0.47797708   -4.0364894    2421.6958  0.041507195  0.040530763           14 
 4863000   0.49276343   -4.0204678    2424.4822  0.041546408  0.040520872           22 
 4864000   0.48027625   -4.0391158    2422.7517  0.041508219  0.040510977           20 
 4865000   0.48098172   -4.0163225    2422.7898  0.041500339  0.040501084           36 
 4866000   0.48242106   -4.0320468    2419.6084  0.041437327  0.040491187           30 
 4867000   0.47172009   -4.0165805    2425.8814   0.04153622  0.040481283           29 
 4868000   0.46970855   -4.0308855    2427.5266  0.041555852  0.040471415           27 
 4869000    0.4713218   -4.0354444    2424.6455  0.041498006  0.040461543           32 
 4870000   0.47336307   -4.0604826    2423.3733  0.041467715  0.040451641           16 
 4871000   0.47503639   -4.0260003    2424.1849  0.041473087  0.040441736           52 
 4872000   0.46707221   -4.0434646    2423.3174  0.041449736  0.040431823           30 
 4873000   0.46913289   -4.0450012    2423.1667  0.041438653  0.040421893           22 
 4874000   0.47145462   -4.0444501    2424.2053  0.041447908   0.04041197           35 
 4875000   0.46613558   -4.0480916    2420.6663  0.041378911  0.040402033           14 
 4876000   0.46703738   -4.0530093    2418.7898  0.041338355  0.040392082           36 
 4877000   0.47505644     -4.04263    2428.1882  0.041490468  0.040382143           50 
 4878000   0.47729365   -4.0489526    2421.0143  0.041359408   0.04037226           24 
 4879000   0.46391917   -4.0371228    2429.8591  0.041501999  0.040362367           36 
 4880000   0.46757773   -4.0579477    2420.5721  0.041334906  0.040352457           43 
 4881000    0.4728516   -4.0304973    2421.1041   0.04133552   0.04034253           16 
 4882000   0.46478776   -4.0322859    2427.6483   0.04143876   0.04033265           14 
 4883000   0.47306654   -4.0406709    2427.1659  0.041422041    0.0403228           25 
 4884000   0.46834062   -4.0282709    2420.0291  0.041291787  0.040312925           11 
 4885000   0.47370202   -4.0290271    2423.3359  0.041339746   0.04030302           12 
 4886000   0.47045616   -4.0379411    2424.8554  0.041357201  0.040293137           14 
 4887000   0.47894974   -4.0404812    2424.3021  0.041339303  0.040283249           17 
 4888000   0.46161761   -4.0468579    2417.6482  0.041217406  0.040273346           11 
 4889000   0.46635224   -4.0542334     2417.672  0.041209382  0.040263438           25 
 4890000   0.47422394   -4.0462434     2422.544  0.041283981  0.040253546           22 
 4891000   0.46376899    -4.033929     2426.569  0.041344118  0.040243674           17 
 4892000   0.47618526   -4.0305251    2422.4423   0.04126537  0.040233831           20 
 4893000   0.47006356   -4.0334926    2415.9312  0.041146046  0.040223952           17 
 4894000    0.4708638   -4.0464332    2428.4257  0.041350391  0.040214066           20 
 4895000   0.46738821   -4.0635742    2421.0661  0.041216652  0.040204203           40 
 4896000   0.46064508    -4.055355    2417.5741  0.041148797  0.040194332           22 
 4897000   0.46683237   -4.0622376    2419.7189  0.041176893  0.040184435           16 
 4898000   0.46471139   -4.0399823    2421.8871  0.041205375  0.040174579           10 
 4899000   0.48139832   -4.0512255    2421.5853   0.04119183  0.040164684           32 
 4900000   0.45476326   -4.0592693    2423.2394  0.041211554  0.040154796           37 
 4901000   0.46640374   -4.0497254    2420.9033  0.041163425  0.040144942           13 
 4902000   0.45669339    -4.055303    2420.2046  0.041143148  0.040135088           13 
 4903000   0.47699593   -4.0478532    2420.1705  0.041134178  0.040125229           22 
 4904000   0.47359321   -4.0556492    2424.3379  0.041196606  0.040115371           45 
 4905000    0.4694919   -4.0488843    2417.2325   0.04106749  0.040105511           12 
 4906000   0.47978142   -4.0399522    2420.7976  0.041119677  0.040095652           21 
 4907000   0.47170965   -4.0419483    2422.4806  0.041139878  0.040085797           30 
 4908000   0.45602533   -4.0534538     2415.147  0.041006979  0.040075927           29 
 4909000   0.46545069   -4.0345842      2417.66  0.041041284   0.04006604           24 
 4910000   0.47150761   -4.0455753    2417.0988  0.041023401  0.040056136           19 
 4911000   0.46592565   -4.0429255    2420.8288  0.041078341  0.040046259           26 
 4912000   0.46496457   -4.0569378    2423.3135  0.041112132  0.040036396           44 
 4913000   0.46958659   -4.0354537    2423.9908  0.041115252  0.040026555           38 
 4914000   0.45432999   -4.0432434     2426.169  0.041143823  0.040016711           29 
 4915000   0.46476067   -4.0627149    2423.1606  0.041084445  0.040006856           40 
 4916000   0.46740474   -4.0550645     2414.829  0.040934856  0.039996959           41 
 4917000   0.45617074   -4.0463833    2423.8373  0.041079202  0.039987076           26 
 4918000   0.47096404   -4.0630143    2423.4848  0.041064877  0.039977212           16 
 4919000   0.45426884    -4.048511     2419.279  0.040985277  0.039967344           11 
 4920000   0.46088928   -4.0449011    2416.5477  0.040930686  0.039957466           19 
 4921000   0.46263545   -4.0429176    2420.8219  0.040994748  0.039947598           17 
 4922000   0.46259155   -4.0457792    2422.0322  0.041006911  0.039937726           21 
 4923000   0.45401197   -4.0606637    2412.1996  0.040832142  0.039927856           27 
 4924000   0.47132146   -4.0560197    2420.0221  0.040956237   0.03991797           20 
 4925000   0.46250612   -4.0561436     2421.083  0.040965872  0.039908088           19 
 4926000   0.45917352   -4.0516579    2423.5407  0.040999132  0.039898236           23 
 4927000   0.45951516   -4.0512009    2427.3497  0.041055235    0.0398884           14 
 4928000   0.46234128   -4.0620691    2416.8167  0.040868789  0.039878531           29 
 4929000   0.46733269   -4.0359681    2419.3442  0.040903229  0.039868699           12 
 4930000   0.46719216   -4.0522022    2418.9086  0.040887569  0.039858891           18 
 4931000    0.4595337   -4.0481129    2421.7356  0.040927054  0.039849035           11 
 4932000   0.46071671   -4.0581007    2417.2308  0.040842641  0.039839174            9 
 4933000   0.45705305   -4.0684494    2420.1328  0.040883384  0.039829329           15 
 4934000   0.46269867   -4.0395447    2419.1477   0.04085846  0.039819508           14 
 4935000   0.47014069   -4.0474265     2418.754  0.040843533  0.039809722           14 
 4936000   0.46682889   -4.0335399     2420.476   0.04086433   0.03979991           28 
 4937000   0.45746228   -4.0580649    2419.8663  0.040845762  0.039790091           19 
 4938000   0.46147927    -4.076725    2424.5054  0.040915778  0.039780254           21 
 4939000   0.46513296   -4.0445646    2420.8003  0.040844981   0.03977042           21 
 4940000   0.45961515   -4.0387245    2415.0824  0.040740257  0.039760581           32 
 4941000   0.46844082   -4.0600566    2417.6305  0.040774987  0.039750757           57 
 4942000    0.4610377   -4.0546912    2419.8662  0.040804435   0.03974092           30 
 4943000   0.46853316   -4.0718435     2419.521  0.040790359  0.039731056           32 
 4944000   0.45430207   -4.0725242    2412.5417  0.040664471  0.039721207           29 
 4945000   0.45861585   -4.0475364    2419.3774  0.040771442  0.039711374           21 
 4946000   0.46013498   -4.0579398    2418.9348  0.040755743   0.03970154           23 
 4947000   0.46605863   -4.0628112    2413.0069  0.040647646  0.039691704           39 
 4948000   0.46173121   -4.0646011    2419.9739  0.040756768  0.039681856           22 
 4949000   0.46729361   -4.0631021    2420.7426  0.040761477   0.03967204           17 
 4950000   0.45983231   -4.0659829    2415.4709  0.040664493  0.039662246           28 
 4951000    0.4654352   -4.0414181    2422.2344  0.040770121  0.039652439           23 
 4952000   0.46425062   -4.0578999    2424.0754  0.040792868  0.039642649           40 
 4953000   0.45993195   -4.0634329    2423.1008  0.040768234  0.039632867           38 
 4954000   0.46367647    -4.068068    2423.1389  0.040760646  0.039623067           19 
 4955000   0.45917868   -4.0675069    2420.9736  0.040716003  0.039613278           27 
 4956000   0.45763334   -4.0619489    2424.1215   0.04076072  0.039603481           29 
 4957000    0.4595522   -4.0769598    2422.0008  0.040716845  0.039593668           26 
 4958000   0.45819679   -4.0666381    2423.0878  0.040726903  0.039583891           29 
 4959000   0.46758124   -4.0540579    2424.1157  0.040735963  0.039574154           25 
 4960000   0.46354122   -4.0474615    2424.7927  0.040739125  0.039564461           30 
 4961000   0.45417395   -4.0675188    2422.1407  0.040686365  0.039554719            7 
 4962000   0.45532192   -4.0609906    2420.9222  0.040657701  0.039544979           26 
 4963000   0.45603599   -4.0676403    2421.3829  0.040657245  0.039535207           13 
 4964000   0.45571966   -4.0678425    2422.6553  0.040670416  0.039525447           21 
 4965000   0.45519757   -4.0642176    2420.8027  0.040631129  0.039515668           67 
 4966000    0.4520411   -4.0601555    2425.3537  0.040699317   0.03950592           44 
 4967000   0.46153994   -4.0779972    2422.8295  0.040648773   0.03949618           27 
 4968000   0.45406424   -4.0673401    2422.2032  0.040630086    0.0394864           50 
 4969000   0.45171622   -4.0561363    2421.3844  0.040608178  0.039476625           76 
 4970000    0.4715043   -4.0737535     2419.283  0.040564772  0.039466846           18 
 4971000   0.45544557   -4.0370186    2421.0186  0.040585707  0.039457108          103 
 4972000   0.45130328    -4.078745    2420.4119  0.040567375  0.039447358           17 
 4973000    0.4582431   -4.0666746    2416.2018  0.040488669  0.039437614           21 
 4974000   0.45342031   -4.0768382    2419.8972  0.040542441  0.039427834           29 
 4975000   0.44888773   -4.0611843    2421.0605  0.040553778  0.039418047           18 
 4976000   0.45527579   -4.0432119    2418.7713  0.040507289   0.03940829           17 
 4977000   0.45533797   -4.0772968    2416.8939  0.040467717  0.039398543           11 
 4978000    0.4547428   -4.0641897    2424.3214  0.040583926  0.039388831           22 
 4979000    0.4587607   -4.0882276    2419.9005  0.040501783   0.03937907           23 
 4980000   0.45572274   -4.0743174    2415.6247    0.0404221   0.03936933           37 
 4981000   0.45535735   -4.0550785    2419.1769  0.040473414  0.039359566           36 
 4982000    0.4472665   -4.0675304    2418.8194  0.040459311   0.03934981           26 
 4983000   0.45176136   -4.0801175    2411.9594  0.040336468   0.03934004           57 
 4984000   0.44924447   -4.0778634    2416.1218   0.04039797   0.03933024           39 
 4985000   0.44854054   -4.0770913    2415.8753  0.040385745  0.039320448           59 
 4986000   0.45230087   -4.0559114    2416.7284  0.040391904  0.039310684           35 
 4987000   0.44539214   -4.0869884    2418.7172  0.040417038  0.039300932           39 
 4988000   0.44202771   -4.0686293    2416.3923  0.040370093  0.039291139           25 
 4989000   0.45921013   -4.0744617    2420.8347  0.040436205   0.03928137           23 
 4990000   0.45671464   -4.0814091    2417.9246  0.040379503  0.039271629           42 
 4991000   0.45904568   -4.0528434    2419.0706  0.040390547   0.03926192           36 
 4992000   0.45477098   -4.0639755      2421.47   0.04042251  0.039252206           29 
 4993000   0.44535105   -4.0747143    2425.2881  0.040478139  0.039242493            8 
 4994000   0.44988921     -4.09186    2421.5094  0.040406979  0.039232753           10 
 4995000   0.44389377   -4.0600557    2422.1397  0.040409404  0.039222988           24 
 4996000   0.45016405   -4.0674807    2416.0061  0.040299008  0.039213224           18 
 4997000   0.45519445   -4.0732571    2412.6434  0.040234864  0.039203476           14 
 4998000   0.44405368   -4.0704475    2408.8513  0.040163588  0.039193718            8 
 4999000   0.45951857   -4.0882728    2416.3412   0.04028041  0.039183962           20 
 5000000   0.44623062   -4.0844989    2416.1038  0.040268397  0.039174184           18 
 5001000   0.44218748   -4.0840344    2416.2769  0.040263229  0.039164414           24 
 5002000   0.45323469   -4.0907964    2419.2787   0.04030519  0.039154659           37 
 5003000   0.45632013   -4.0907644    2415.9095  0.040241014  0.039144873           39 
 5004000    0.4462852   -4.1027899    2415.5957  0.040227747  0.039135114           24 
 5005000   0.44530891   -4.0703196    2413.6797  0.040187807  0.039125366           22 
 5006000   0.45318544   -4.0944687    2415.4214  0.040208773  0.039115628           61 
 5007000   0.45472322   -4.0753751    2416.3165   0.04021564  0.039105882           24 
 5008000    0.4523443   -4.0766784    2420.9855  0.040285302  0.039096161           39 
 5009000   0.45436341    -4.068224    2420.3101  0.040266023  0.039086466           54 
 5010000   0.45353119   -4.0687247    2412.5727  0.040129287  0.039076736           44 
 5011000   0.44904234    -4.096376    2415.8335  0.040175506  0.039067012           86 
 5012000   0.44428858   -4.0816295    2415.9906  0.040170102  0.039057282           25 
Loop time of 12191.5 on 48 procs for 5000000 steps with 4000 atoms

Performance: 70868.767 tau/day, 410.120 timesteps/s
99.4% CPU use with 48 MPI tasks x no OpenMP threads

MPI task timing breakdown:
Section |  min time  |  avg time  |  max time  |%varavg| %total
---------------------------------------------------------------
Pair    | 826.92     | 881.93     | 946.07     |  93.9 |  7.23
Neigh   | 81.949     | 85.338     | 88.639     |  18.9 |  0.70
Comm    | 779.35     | 843.9      | 905.93     | 102.2 |  6.92
Output  | 14.006     | 14.011     | 14.089     |   0.3 |  0.11
Modify  | 10225      | 10254      | 10275      |  13.0 | 84.11
Other   |            | 112.5      |            |       |  0.92

Nlocal:        83.3333 ave          90 max          78 min
Histogram: 6 3 7 2 8 12 3 1 3 3
Nghost:        2222.25 ave        2246 max        2207 min
Histogram: 2 6 7 12 6 7 6 1 0 1
Neighs:        14784.7 ave       16306 max       13187 min
Histogram: 1 5 4 6 9 5 7 4 3 4
FullNghs:      29569.1 ave       32333 max       27148 min
Histogram: 1 5 7 5 10 6 7 1 5 1

Total # of neighbors = 1419315
Ave neighs/atom = 354.82875
Neighbor list builds = 270853
Dangerous builds = 0

#clear
#
#next RN
#
#jump SELF
Total wall time: 3:23:14
