
units lj                  # Use reduced LJ style units
atom_style atomic         # Uncharged point particles
atom_modify map hash      # Needed for indexing of clusters etc
                          # Used to be able to find where atoms are in relation to each other.

lattice fcc 1.0 spacing 1 1 1
Lattice spacing in x,y,z = 1.5874011 1.5874011 1.5874011
region box block 0 10 0 10 0 10 units lattice
create_box 2 box
Created orthogonal box = (0.0000000 0.0000000 0.0000000) to (15.874011 15.874011 15.874011)
  3 by 4 by 4 MPI processor grid
create_atoms 1 box
Created 4000 atoms
  using lattice units in orthogonal box = (0.0000000 0.0000000 0.0000000) to (15.874011 15.874011 15.874011)
  create_atoms CPU = 0.002 seconds
set type 1 type/fraction 2 0.71 78393
Setting atom values ...
  2865 settings made for type/fraction
mass 1 1.0
mass 2 1.0
pair_style lj/cut  3.5
pair_modify tail  yes
pair_coeff 1  1  1.0  1.0   # Intearaction between 1 and 1 set with epsilon = 1 and sigma = 1
pair_coeff 1  2  1.5  0.8
pair_coeff 2  2  0.5  0.88

write_data data.0
System init for write_data ...
Neighbor list info ...
  update every 1 steps, delay 10 steps, check yes
  max neighbors/atom: 2000, page size: 100000
  master list distance cutoff = 3.8
  ghost atom cutoff = 3.8
  binsize = 1.9, bins = 9 9 9
  1 neighbor lists, perpetual/occasional/extra = 1 0 0
  (1) pair lj/cut, perpetual
      attributes: half, newton on
      pair build: half/bin/atomonly/newton
      stencil: half/bin/3d
      bin: standard
WARNING: Not all mixed pair coeffs generated from mixing. Use write_data with 'pair ij' option to store all pair coeffs. (../write_data.cpp:312)


#############################
#   M E L T   S Y S T E M   #
#############################

velocity all create 2.4 5833274 mom yes dist gaussian # Assign velocities
                                                    # Temperature 2.4, random number seed, zero linear momentum
                                                                                # Gaussian distribution

timestep 0.002   # simulation timestep
thermo 1000       # output thermodynamic data every 1000 steps bf 100

# Define a fix  in this case with index 1 applied to all
# particles in the simulation. This fix is for simulations
# in the anisotropic NPT ensemble. Note that we use the MTK
# correction.
fix 1 all npt temp 2.4 2.4 0.1 iso 5.68 5.68 0.5 mtk yes tchain 5 pchain 5 # Use NPT ensemble
                                                                         # Set temperature and pressure and damping
                                                                         # Numbers of thermostats in chain and in barostat
run 10000          # run for 10000 steps
Per MPI rank memory allocation (min/avg/max) = 3.642 | 3.644 | 3.648 Mbytes
Step Temp E_pair E_mol TotEng Press Volume 
       0          2.4   -4.1166387            0   -0.5175387   -3.7043072         4000 
    1000    2.4067673   -3.7134294            0  -0.10418091    5.8832871    3646.5081 
    2000    2.3663909    -3.727824            0  -0.17912496    5.6910603      3660.71 
    3000    2.3797125   -3.7327013            0  -0.16402495     5.717001    3656.0945 
    4000    2.3982432   -3.6835677            0 -0.087102293    5.6229475    3691.1222 
    5000    2.4315329   -3.5962224            0  0.050165172    5.7496674    3730.7532 
    6000    2.4157187   -3.6943935            0   -0.0717213    5.4647081    3694.6601 
    7000    2.3874813   -3.6779061            0 -0.097579506    5.1600798    3729.1061 
    8000    2.4224978   -3.6329541            0 -0.00011581479    5.8436123    3698.8678 
    9000    2.3705075    -3.741916            0  -0.18704364     5.602472    3655.2838 
   10000     2.398019   -3.7475408            0  -0.15141148    5.6075545    3645.0121 
Loop time of 2.57974 on 48 procs for 10000 steps with 4000 atoms

Performance: 669835.780 tau/day, 3876.364 timesteps/s
99.7% CPU use with 48 MPI tasks x no OpenMP threads

MPI task timing breakdown:
Section |  min time  |  avg time  |  max time  |%varavg| %total
---------------------------------------------------------------
Pair    | 1.167      | 1.2455     | 1.3298     |   2.8 | 48.28
Neigh   | 0.2172     | 0.22252    | 0.2309     |   0.6 |  8.63
Comm    | 0.75585    | 0.86182    | 0.93265    |   3.5 | 33.41
Output  | 0.00024133 | 0.0002472  | 0.00031066 |   0.0 |  0.01
Modify  | 0.21033    | 0.23443    | 0.25797    |   2.5 |  9.09
Other   |            | 0.01519    |            |       |  0.59

Nlocal:        83.3333 ave          92 max          73 min
Histogram: 1 6 0 4 10 7 8 5 4 3
Nghost:        1749.27 ave        1780 max        1708 min
Histogram: 1 1 4 6 4 5 12 10 1 4
Neighs:        10464.5 ave       12340 max        9025 min
Histogram: 4 4 6 5 9 9 6 3 0 2

Total # of neighbors = 502294
Ave neighs/atom = 125.57350
Neighbor list builds = 909
Dangerous builds = 235

# Equilibrate just above the melting temperature to avoid step fn in T

fix 1 all npt temp 1.25 1.25 0.1 iso 5.68 5.68 0.5 mtk yes tchain 5 pchain 5
run 2000
Per MPI rank memory allocation (min/avg/max) = 3.644 | 3.646 | 3.649 Mbytes
Step Temp E_pair E_mol TotEng Press Volume 
   10000     2.398019   -3.7475408            0  -0.15141148    5.6075545    3645.0121 
   11000    1.2577696   -5.4251542            0   -3.5389714    5.5888978    2817.9847 
   12000    1.2706962   -5.4448442            0   -3.5392764    5.8579102    2803.6801 
Loop time of 0.643028 on 48 procs for 2000 steps with 4000 atoms

Performance: 537457.302 tau/day, 3110.285 timesteps/s
99.7% CPU use with 48 MPI tasks x no OpenMP threads

MPI task timing breakdown:
Section |  min time  |  avg time  |  max time  |%varavg| %total
---------------------------------------------------------------
Pair    | 0.28511    | 0.31781    | 0.34363    |   2.5 | 49.42
Neigh   | 0.040467   | 0.043179   | 0.045207   |   0.6 |  6.71
Comm    | 0.204      | 0.23444    | 0.26822    |   3.2 | 36.46
Output  | 6.5197e-05 | 6.6241e-05 | 8.239e-05  |   0.0 |  0.01
Modify  | 0.038877   | 0.042789   | 0.046199   |   1.0 |  6.65
Other   |            | 0.004742   |            |       |  0.74

Nlocal:        83.3333 ave          95 max          77 min
Histogram: 5 8 7 9 8 5 3 2 0 1
Nghost:        2082.73 ave        2124 max        2062 min
Histogram: 4 7 13 8 8 4 0 3 0 1
Neighs:        13600.1 ave       16181 max       11974 min
Histogram: 4 4 10 13 4 5 5 2 0 1

Total # of neighbors = 652804
Ave neighs/atom = 163.20100
Neighbor list builds = 143
Dangerous builds = 7

#############################
# L I N E A R  Q U E N C H  #
#############################

# Define solid atoms. This closely follows ten Wolde  Ruiz-Montero and Frenkel  Faraday Discuss  1996  104  93-110
# Compute components of the per-atom q6 vector
compute q6 all orientorder/atom degrees 1 6 components 6 nnn NULL cutoff 1.3 # compute the Q6 parameter.
                                                                             # Use all neighbours within 1.3 unit cell.

# get number of connections
compute coord_number all coord/atom orientorder q6 0.5

# An atom is solid if it has 8 or more connections (of a possible 14)
variable is_solid atom c_coord_number>=8
group solid dynamic all var is_solid    # Must be dynamic to update
dynamic group solid defined

# do clustering
compute cluster solid cluster/atom 1.3 # Create a cluster where all atoms within are solid and max 1.3 units from another member

# define chunks one chunk per cluster
compute clus_chunks solid chunk/atom c_cluster nchunk every compress yes  # Says which atoms are in which chunk

# count the size of each chunk
compute size_chunks solid property/chunk clus_chunks count


# Find the maximum entry in the vector of chunk sizes
variable max_n equal max(c_size_chunks)


# Thermo style which includes this variable
# thermo_style custom step temp pe vol v_max_n

thermo ${N}  # Print the thermo information every 100 steps
thermo 1000  

# Reset the npt fix at a lower temperature (below freezing)
fix 1  all npt temp  ${temp} ${temp}  0.1  iso  5.68  5.68  0.5  mtk yes tchain  5  pchain  5
fix 1  all npt temp  0.45 ${temp}  0.1  iso  5.68  5.68  0.5  mtk yes tchain  5  pchain  5
fix 1  all npt temp  0.45 0.45  0.1  iso  5.68  5.68  0.5  mtk yes tchain  5  pchain  5

dump dmp2 all dcd ${N} traj.dcd
dump dmp2 all dcd 1000 traj.dcd


compute msd all msd com yes
variable twopoint equal c_msd[4]/6/(step*dt+1.0e-6)
fix 9 all vector 10 c_msd[4]
variable fit equal slope(f_9)/6/(10*dt)
thermo_style custom step temp pe c_msd[4] v_twopoint v_fit v_max_n

fix 1 all npt temp 1.25 ${temp} 0.1 iso 5.68 5.68 0.5 mtk yes tchain 5 pchain 5
fix 1 all npt temp 1.25 0.45 0.1 iso 5.68 5.68 0.5 mtk yes tchain 5 pchain 5
run 5000000 # 5000000  # Run for this many steps
Neighbor list info ...
  update every 1 steps, delay 10 steps, check yes
  max neighbors/atom: 2000, page size: 100000
  master list distance cutoff = 3.8
  ghost atom cutoff = 3.8
  binsize = 1.9, bins = 8 8 8
  4 neighbor lists, perpetual/occasional/extra = 1 3 0
  (1) pair lj/cut, perpetual
      attributes: half, newton on
      pair build: half/bin/atomonly/newton
      stencil: half/bin/3d
      bin: standard
  (2) compute orientorder/atom, occasional
      attributes: full, newton on
      pair build: full/bin/atomonly
      stencil: full/bin/3d
      bin: standard
  (3) compute coord/atom, occasional
      attributes: full, newton on
      pair build: full/bin/atomonly
      stencil: full/bin/3d
      bin: standard
  (4) compute cluster/atom, occasional
      attributes: full, newton on
      pair build: full/bin/atomonly
      stencil: full/bin/3d
      bin: standard
Per MPI rank memory allocation (min/avg/max) = 9.841 | 9.848 | 9.855 Mbytes
Step Temp PotEng c_msd[4] v_twopoint v_fit v_max_n 
   12000    1.2706962   -5.4448442 4.1227843e-30 2.8630445e-32 8.3333333e+20            2 
   13000      1.23977   -5.5175663   0.64314872 0.0041227481  0.053169244            3 
   14000     1.273368   -5.4945641    1.3170604 0.0078396447  0.055104763            2 
   15000    1.2773984   -5.4791117    1.8893216  0.010496231  0.052542816            2 
   16000    1.2897307   -5.4819938    2.5346686  0.013201399   0.05237568            2 
   17000    1.2631226   -5.4720333    3.0938336   0.01516585  0.051799276            2 
   18000    1.2367297   -5.4637574    3.7124789  0.017187402  0.051187081            1 
   19000    1.2643053   -5.4952912    4.2993879  0.018856964  0.050901549            2 
   20000    1.2482534   -5.4949882    4.9191308  0.020496378  0.050645223            2 
   21000    1.2682252    -5.489999    5.5843973  0.022160306  0.050787132            2 
   22000    1.2627878   -5.5024429    6.1955251  0.023467898  0.050962254            3 
   23000    1.2300478   -5.5114858    6.8384426  0.024776966  0.051143505            3 
   24000    1.2446167   -5.4857903    7.4464279  0.025855652  0.051172721            4 
   25000    1.2256701   -5.5305035    7.9723822  0.026574607  0.051114312            2 
   26000    1.2501844   -5.5459735    8.6135111  0.027607407  0.051081088            2 
   27000    1.2486249   -5.4806646    9.3299044  0.028796001  0.051194762            4 
   28000    1.2343292   -5.5030211    9.9201785   0.02952434  0.051296612            4 
   29000    1.2494222   -5.5214604     10.59259  0.030438476   0.05138146            3 
   30000    1.2609968   -5.5045023    11.184403  0.031067785    0.0514754            1 
   31000    1.2559667   -5.4952841    11.782243  0.031672696  0.051496585            2 
   32000    1.2526773   -5.5229748    12.344144  0.032146208  0.051496751            2 
   33000    1.2593312   -5.4952874    13.113154  0.033114024  0.051573279            3 
   34000     1.262584   -5.4912718    13.634652  0.033418264   0.05160565            5 
   35000    1.2392666   -5.5591593      14.1561     0.033705   0.05158706            2 
   36000    1.2251056   -5.5732796    14.800186  0.034259688  0.051582072            1 
   37000    1.2182538   -5.5088863    15.412194  0.034712149  0.051545004            3 
   38000    1.2376506   -5.5360867    15.947177  0.034971878  0.051470011            3 
   39000    1.2435045   -5.5205778    16.576985  0.035420907  0.051379127            1 
   40000    1.2448197   -5.4546568    17.242714   0.03592232  0.051355699            3 
   41000    1.2412612   -5.5413143    17.796769  0.036172294  0.051320973            3 
   42000    1.2376757   -5.4705961    18.605063  0.036914808  0.051302571            4 
   43000    1.2458154   -5.4852187    19.153569   0.03711932  0.051298141            2 
   44000    1.2492092   -5.5250107    19.636207  0.037189785   0.05125612            2 
   45000    1.2312334   -5.5389663    20.337549  0.037662128  0.051235142            2 
   46000    1.2285906   -5.4811201    21.162565   0.03833798  0.051271592            2 
   47000    1.2221923    -5.477405    21.968387  0.038951041   0.05135968            2 
   48000    1.2277408   -5.5204037    22.373925  0.038843619  0.051441745            6 
   49000    1.2446245   -5.5326335    23.005111  0.039124338    0.0514664            3 
   50000    1.2676251   -5.5318011    23.510043  0.039183405  0.051495333            1 
   51000    1.2530367    -5.569474    24.214398  0.039566009  0.051534173            2 
   52000    1.2485859     -5.53131    24.752461  0.039667405  0.051548577            2 
   53000    1.2569447   -5.5306572     25.21747  0.039650109  0.051543348            4 
   54000    1.2301747   -5.4830413    25.981047  0.040094208  0.051534267            5 
   55000       1.2348   -5.4955514    26.572353   0.04026114  0.051516909            1 
   56000    1.2353544   -5.5360454    27.136357  0.040381483  0.051499906            2 
   57000     1.235543   -5.5271032    27.704434  0.040503558  0.051460533            3 
   58000    1.2312549   -5.5306971    28.171398  0.040476147  0.051416539            3 
   59000     1.246007   -5.5180265    28.704595  0.040543213  0.051366796            1 
   60000    1.2387114    -5.496519    29.169566  0.040513286  0.051285056            1 
   61000     1.236048   -5.4801361     29.80387  0.040715668  0.051186709            3 
   62000    1.2367204   -5.5698486    30.330356  0.040766607  0.051097018            3 
   63000    1.2413837   -5.5225986    30.978911  0.040977396  0.051026951            4 
   64000    1.2373572   -5.5314971    31.467647  0.040973499  0.050944859            3 
   65000    1.2557336   -5.5082915    32.265952  0.041366605   0.05088263            2 
   66000    1.2526536   -5.5713289    32.747378  0.041347699  0.050830028            3 
   67000    1.2368187   -5.5041204    33.343704  0.041472269  0.050772748            2 
   68000    1.2292465    -5.512131    33.788911  0.041407978  0.050712331            2 
   69000    1.2556596   -5.4995857    34.468613   0.04162876  0.050663448            3 
   70000    1.2273678   -5.5455295    35.043164  0.041718052   0.05062375            8 
   71000    1.2496456   -5.5049226    35.654026  0.041847448  0.050566189            2 
   72000    1.2260484   -5.5071672    36.162824   0.04185512  0.050497696            1 
   73000    1.2495758    -5.511346    36.451851  0.041611702     0.050422            1 
   74000    1.2385892   -5.5537952    36.974034  0.041637425  0.050323578            3 
   75000    1.2426431   -5.5044926    37.486608  0.041651787  0.050212271            3 
   76000    1.2321889    -5.514669    37.954425  0.041616694  0.050105422            3 
   77000    1.2397675   -5.5040852    38.709608  0.041893514  0.050015832            3 
   78000    1.2719433    -5.505635    39.270073  0.041955205  0.049937953            2 
   79000    1.2216649    -5.514209    39.851995  0.042037969  0.049865019            2 
   80000    1.2401535   -5.5063151    40.523373  0.042211847  0.049803025            2 
   81000    1.2546407   -5.4998638    41.251855   0.04244018  0.049745233            2 
   82000    1.1982007   -5.5280441    41.488991  0.042163608  0.049688765            1 
   83000    1.2458703   -5.5266803      42.1825  0.042351907  0.049635754            2 
   84000    1.2015065   -5.5370183    42.969586  0.042628557  0.049583741            2 
   85000    1.2505759   -5.5923188    43.422434  0.042571013  0.049541691            5 
   86000    1.2251273   -5.5595327    44.062144  0.042695876  0.049498939            4 
   87000    1.2455731    -5.506141    44.544835  0.042667466  0.049449635            3 
   88000    1.2333084   -5.5312177    44.897175  0.042516264  0.049405165            3 
   89000    1.2298101   -5.5591718    45.774366  0.042859893  0.049368695            2 
   90000    1.2276471   -5.5123405    46.371684  0.042936744   0.04932765            1 
   91000    1.2318344   -5.5088773    46.919282  0.042966375  0.049297196            2 
   92000    1.2405143   -5.5544332    47.246974  0.042796172   0.04926189            1 
   93000    1.2347706   -5.5232304    47.933546  0.042951206  0.049232086            3 
   94000    1.2480927   -5.5240659     48.39831  0.042906303  0.049186914            3 
   95000    1.2301273    -5.528231    49.060892   0.04303587  0.049151081            1 
   96000    1.2190336   -5.5050091    49.585724  0.043043163  0.049119054            1 
   97000    1.2489142   -5.5781172    49.574695  0.042589944  0.049073095            3 
   98000    1.2002463   -5.5212043    50.351441  0.042815851  0.049015047            2 
   99000    1.2244875   -5.5464266    50.957636  0.042893632  0.048960979            2 
  100000    1.2401528   -5.5188864    51.757282  0.043131069   0.04890741            2 
  101000    1.2353868   -5.5454667    52.501342  0.043317939  0.048873412            3 
  102000    1.2543982    -5.525205     53.10921  0.043389878  0.048849046            1 
  103000    1.2503801   -5.5570088    53.582371  0.043351433  0.048823546            3 
  104000    1.2266748    -5.554975    53.945645  0.043225677  0.048799061            5 
  105000    1.2303785   -5.5389157    54.753694  0.043455313  0.048767866            2 
  106000    1.2292089   -5.5479891    55.174523  0.043376197  0.048739129            2 
  107000      1.21104   -5.5388782     55.91107  0.043544446  0.048717559            2 
  108000    1.2418588   -5.5232092    56.654657  0.043715013  0.048700759            2 
  109000    1.2199615   -5.5296086    57.312944  0.043817235    0.0486888            1 
  110000    1.2297756   -5.5384151    57.515108  0.043572052  0.048672544            4 
  111000    1.2386302   -5.5621607    58.274957  0.043749967   0.04865777            2 
  112000    1.2565612   -5.4884104     59.01102  0.043907009  0.048637623            2 
  113000    1.2247945   -5.5203838    59.405723   0.04380953   0.04861978            3 
  114000    1.2375935   -5.5820908    59.591066   0.04356072  0.048593204            1 
  115000    1.2356168   -5.5054531    60.557497  0.043882244  0.048566258            4 
  116000    1.2421238   -5.5294712    60.962716  0.043795055  0.048545587            2 
  117000    1.2304428    -5.532168    61.288681  0.043652907    0.0485164            1 
  118000    1.2169796   -5.5549211      61.9028  0.043716667  0.048494625            2 
  119000     1.241889    -5.583802    62.528636   0.04378756  0.048467865            1 
  120000    1.2083354    -5.554067    63.127535  0.043838566  0.048441876            3 
  121000    1.2471988   -5.5260844    63.617922  0.043813996   0.04842236            2 
  122000    1.2285459   -5.5399477    64.217857  0.043864656  0.048396302            4 
  123000    1.1997829   -5.5478679    65.089034  0.044098261  0.048372956            3 
  124000     1.238619      -5.5291    65.271316  0.043865132  0.048352046            5 
  125000     1.250477   -5.5417816    66.159822  0.044106548  0.048334173            2 
  126000    1.2294762   -5.5563961    66.535308  0.044004833  0.048322011            4 
  127000    1.2207136   -5.4939042    67.538661  0.044316706  0.048318032            2 
  128000    1.2641923   -5.5533655    68.040241  0.044297032  0.048315932            4 
  129000    1.2036291   -5.5480957    68.665202  0.044357366  0.048306908            1 
  130000    1.2178849   -5.5012855    69.808497  0.044749036  0.048317499            2 
  131000    1.2292439   -5.5427049    70.388056  0.044776117  0.048332705            3 
  132000    1.2194669   -5.5721223    70.739309  0.044658655  0.048344824            2 
  133000    1.2310695   -5.5837049    70.912347  0.044431295  0.048345474            2 
  134000    1.2372634   -5.5291204    71.733271  0.044610243  0.048337379            3 
  135000    1.2576662   -5.5470046    72.133625  0.044526929  0.048325316            4 
  136000    1.2004297   -5.5110417    72.514244  0.044432747  0.048315216            2 
  137000    1.2421444   -5.5553454    72.935452   0.04436463  0.048301404            2 
  138000     1.226366   -5.5353653    73.520621   0.04439651   0.04828925            4 
  139000    1.2217126   -5.5559945    74.205777  0.044487876  0.048277567            2 
  140000    1.2106379   -5.5490716    75.257082  0.044795882  0.048271391            2 
  141000    1.2279988   -5.5770749    76.079491  0.044964238  0.048272048            2 
  142000    1.2235682   -5.5079273    76.570148  0.044935533  0.048278136            3 
  143000     1.214394   -5.5767724    76.733451  0.044716463  0.048288427            2 
  144000    1.2541368   -5.5817153    77.847037  0.045050368  0.048291322            4 
  145000    1.2283249   -5.5250899    78.332283  0.045018553  0.048296076            1 
  146000    1.2754355   -5.5672286    78.655591  0.044894743  0.048303158            1 
  147000     1.226765   -5.5456881     78.96971  0.044767409   0.04830457            1 
  148000    1.2349733   -5.5578816    79.633152  0.044838486  0.048306451            4 
  149000    1.2320342   -5.5971158    79.868936  0.044669427  0.048304338            2 
  150000     1.243726   -5.5412371    80.536843   0.04474269  0.048299888            3 
  151000    1.2372687    -5.558586    81.492157  0.044973596  0.048303817            2 
  152000    1.1989114   -5.5581494    81.870034  0.044884887  0.048301854            4 
  153000    1.2265339   -5.5544242    82.465621  0.044915915  0.048298297            1 
  154000     1.230211   -5.5396082    83.447022  0.045155315  0.048296011            2 
  155000     1.214443   -5.5389208     84.06651  0.045197048  0.048300698            1 
  156000    1.2467605   -5.5490376    84.385719  0.045077841  0.048303103            2 
  157000    1.2018995   -5.5585574    85.173392  0.045208807  0.048306684            3 
  158000    1.1992707   -5.5637818    85.570185  0.045131954  0.048306517            3 
  159000    1.2227332   -5.5864141    86.172521  0.045163795  0.048308256            2 
  160000    1.2511355   -5.5714615    86.744243  0.045179293  0.048307208            2 
  161000    1.2288579   -5.5237423    87.507273   0.04529362  0.048308935            3 
  162000    1.2522519   -5.5773746    87.721316  0.045124134  0.048307694            1 
  163000    1.2489116   -5.5566747    88.443074  0.045216295  0.048307045            1 
  164000    1.1923992   -5.5476232    88.820907  0.045132574  0.048305038            3 
  165000     1.238466   -5.5469958    89.562946  0.045233811  0.048301472            4 
  166000    1.2438395   -5.5501956    89.951716  0.045156484  0.048296032            3 
  167000     1.195223   -5.5910539    89.963121  0.044891777  0.048290271            3 
  168000     1.210135   -5.5684094    90.843623  0.045061321  0.048282278            2 
  169000    1.2232606   -5.5407174    91.415886  0.045076867  0.048272747            3 
  170000    1.2080678   -5.5788724    91.286605  0.044748336  0.048255732            4 
  171000    1.2176626   -5.5966296    91.736289  0.044705794  0.048238234            4 
  172000    1.2037288   -5.5214447    93.316317  0.045211394  0.048219737            2 
  173000      1.23079   -5.5242299    93.406743  0.044993614  0.048207071            4 
  174000     1.247808    -5.523695    94.365578  0.045194242  0.048199116            2 
  175000    1.2269231   -5.5445912    94.679506  0.045085479  0.048187783            3 
  176000    1.2153428    -5.570903    95.263506  0.045105827   0.04817908            2 
  177000    1.2217561   -5.5516207     96.17862  0.045281836  0.048170686            1 
  178000    1.2265122   -5.5384433    96.879194  0.045355428  0.048166876            2 
  179000    1.2181971   -5.5741046    96.979594  0.045148787  0.048158639            2 
  180000    1.2043604   -5.5331071    97.887882  0.045318464  0.048150594            2 
  181000    1.2333825   -5.5259177    98.171947   0.04519887  0.048145548            2 
  182000    1.2194363   -5.5840344    98.639989   0.04516483  0.048132058            2 
  183000    1.2353289   -5.5590341    99.050001  0.045104736  0.048119351            5 
  184000    1.2150071   -5.5586605    99.709609  0.045158337   0.04810861            3 
  185000    1.2201996   -5.5496747    100.55766  0.045296243  0.048100138            2 
  186000    1.2401007   -5.5855257    100.48406  0.045019738  0.048090772            3 
  187000    1.2013106   -5.5752833    101.65808  0.045302174  0.048083975            1 
  188000    1.2366464   -5.5734386    102.32495  0.045356803  0.048076685            3 
  189000    1.2240899   -5.5875743    102.61111  0.045242995  0.048071922            3 
  190000    1.2429278   -5.5688721    103.12598  0.045230692  0.048066959            5 
  191000    1.2300236   -5.5852793     103.8011  0.045288438  0.048059008            2 
  192000    1.2264077    -5.552022    104.22784  0.045237777  0.048051895            2 
  193000     1.231495   -5.5168385     105.0148  0.045343178  0.048044448            1 
  194000    1.1900707   -5.5518508    105.82259  0.045456437  0.048040713            1 
  195000    1.2212361   -5.5671953    106.42406  0.045480366  0.048036755            6 
  196000    1.2163077   -5.5834115    106.90226   0.04545164  0.048036337            2 
  197000    1.2083627   -5.5654552    107.87841  0.045633846  0.048036642            3 
  198000    1.2138568   -5.5628352    108.58472  0.045700638  0.048036725            5 
  199000    1.2163492   -5.5837606    108.83531  0.045575926  0.048037552            2 
  200000    1.2270242   -5.5934796      109.638  0.045682501  0.048036954            3 
  201000    1.2418173   -5.5518856    109.89512  0.045561824  0.048038378            3 
  202000     1.247637   -5.5667078    110.80832  0.045713003  0.048038202            1 
  203000    1.1855922   -5.6130131    110.57087  0.045390341  0.048035358            2 
  204000     1.243601   -5.5603077     111.7973  0.045668833   0.04803203            2 
  205000    1.1877357   -5.5972701    112.22263  0.045618955  0.048032229            1 
  206000    1.2091159   -5.5472083    113.05926  0.045735947  0.048030347            1 
  207000     1.244554    -5.560308    113.47918  0.045684051  0.048030581            2 
  208000     1.226492   -5.5978672    113.57874  0.045504301  0.048027723            3 
  209000    1.2293611    -5.554436    115.04326  0.045870518  0.048031408            1 
  210000    1.2005595   -5.5869951    115.12225  0.045683434  0.048032285            2 
  211000    1.2246679   -5.5812047    115.36067  0.045561084  0.048030799            3 
  212000    1.2211324   -5.6240192    115.37998  0.045353764  0.048027403            2 
  213000    1.2025319   -5.5839413    116.32052  0.045508812    0.0480203            4 
  214000    1.2305671   -5.6225348    116.83232  0.045495451  0.048011982            1 
  215000    1.2270903   -5.6022601    117.69933  0.045619895  0.048006162            2 
  216000    1.2159758   -5.5881738    118.24393  0.045618799  0.048002945            2 
  217000    1.2094615   -5.5478309    119.09502  0.045735417  0.047999309            2 
  218000    1.2371148    -5.568126    119.92217  0.045841807    0.0479968            3 
  219000    1.2267083   -5.5508009    119.41275   0.04543864  0.047989745            4 
  220000    1.2305162   -5.5752511    120.25729  0.045552002  0.047978102            2 
  221000    1.2206094   -5.5654679    120.50968  0.045441056  0.047969729            4 
  222000     1.225924   -5.5968847    121.20289  0.045496581  0.047961052            2 
  223000    1.2216925   -5.6064215    121.84001  0.045530647  0.047952772            3 
  224000    1.2212913   -5.5743206    122.49593  0.045571401  0.047947061            3 
  225000    1.2302171     -5.60609    123.35641   0.04568756  0.047943565            2 
  226000    1.2326953   -5.6206851    123.64388  0.045591403  0.047938777            1 
  227000    1.2203613   -5.5788413    124.72031  0.045785722  0.047934644            2 
  228000    1.2075121   -5.5293912    125.56284  0.045892852  0.047934295            2 
  229000    1.1902412    -5.572159    125.67714  0.045734037  0.047933146            1 
  230000    1.2354072   -5.5987712    126.03057  0.045663248  0.047929693            8 
  231000    1.2440607   -5.5973744    126.90932  0.045782582  0.047925054            2 
  232000    1.2168492   -5.5948962    127.07599   0.04564511  0.047921729            4 
  233000    1.1971907   -5.5921332    127.78619  0.045703216  0.047917815            1 
  234000    1.2238275   -5.5430811    128.89779  0.045903771  0.047911545            3 
  235000    1.2330667   -5.5530924    128.71458  0.045643467  0.047907416            2 
  236000    1.2018422   -5.5619781    130.15227  0.045957724   0.04790149            3 
  237000    1.1992657   -5.5619501    130.04211  0.045725074  0.047897129            2 
  238000    1.2219173   -5.6044427    130.46659   0.04568158  0.047891419            1 
  239000    1.2168811   -5.6114245    130.55133  0.045519991  0.047882516            2 
  240000    1.2080471   -5.5834637    130.85198  0.045434716  0.047874443            1 
  241000     1.229626   -5.6613162    131.75197  0.045557389  0.047865981            2 
  242000    1.2199727    -5.572076    132.07878  0.045481672  0.047856843            2 
  243000    1.2267933   -5.5813814    133.20293  0.045680016  0.047848003            3 
  244000    1.2094527    -5.598544     133.3714  0.045550341  0.047839646            1 
  245000    1.2339906   -5.5806387    134.37437  0.045705569  0.047832608            5 
  246000    1.2244162    -5.591544    135.02075  0.045738736  0.047825363            2 
  247000    1.2116739   -5.5685508    135.31745   0.04565366  0.047819553            2 
  248000    1.2135812   -5.5659874    135.51141  0.045534746  0.047809495            2 
  249000    1.2127857    -5.587349    136.90407  0.045817962  0.047802714            2 
  250000    1.2089723   -5.5998835    137.64308  0.045881025  0.047798708            1 
  251000    1.2194034   -5.6258345    137.60284  0.045684873  0.047793865            3 
  252000    1.2168794    -5.621078    138.26699  0.045723211  0.047787999            2 
  253000    1.2099724   -5.5882321    138.62005  0.045658777  0.047782607            2 
  254000    1.2050451   -5.5852577    139.56574  0.045789285   0.04777734           10 
  255000    1.2043676   -5.5844495    140.35647  0.045868128  0.047772704            1 
  256000    1.2357154   -5.5762212    140.89927  0.045865646  0.047769514            1 
  257000    1.1997605   -5.6224161    141.19896  0.045784359  0.047764647            3 
  258000    1.1970979   -5.6174031    141.84456  0.045815426  0.047759333            3 
  259000    1.2281228   -5.5955184    141.99697  0.045687571  0.047752943            2 
  260000     1.213849   -5.6056825    143.13912  0.045877923  0.047747804            1 
  261000      1.21949   -5.5720989    143.31103  0.045757033  0.047743533            1 
  262000    1.2416253   -5.5696014    144.15631  0.045851245  0.047737525            1 
  263000    1.2063668    -5.599138    143.79989   0.04556397  0.047729006            3 
  264000    1.2181879   -5.6253657    144.62565  0.045652036  0.047722045            1 
  265000    1.2315149   -5.5869393    145.50516  0.045756341  0.047716324            2 
  266000    1.2232471   -5.5663641    146.11721  0.045776067  0.047710961            1 
  267000    1.2128362   -5.5993203    146.37147   0.04568398  0.047703053            2 
  268000    1.2147172      -5.5806     147.0439  0.045722606  0.047696761            4 
  269000    1.2127881   -5.5666035    147.66543  0.045745176  0.047689682            1 
  270000     1.211145   -5.6147162    148.06393  0.045698743  0.047682627            3 
  271000    1.2067608   -5.5964172     149.4261  0.045948985  0.047679782            2 
  272000    1.1644198   -5.5577136    150.16263  0.046005706  0.047678824            2 
  273000    1.1752917   -5.5650499    151.39637  0.046213789  0.047677471            1 
  274000    1.1787847   -5.6106931     150.8946  0.045892517  0.047676764            2 
  275000    1.2101236   -5.5847472    152.19198  0.046118782  0.047678139            4 
  276000    1.2005815    -5.620855    152.32143   0.04599077  0.047680416            3 
  277000    1.1868206   -5.5638493    153.93039  0.046308781  0.047684951            1 
  278000    1.2301669   -5.5730017    154.62823  0.046351389   0.04769036            3 
  279000    1.1983913   -5.5910591    154.69012  0.046203739   0.04769337            4 
  280000    1.2058062   -5.5654863    155.10851  0.046163246   0.04769512            2 
  281000    1.1893892   -5.6036749    155.11445  0.046000728  0.047692619            1 
  282000    1.2096925   -5.6179328     154.9401   0.04578608  0.047687051            3 
  283000    1.1961187   -5.6294301    155.84051  0.045889433  0.047682215            2 
  284000    1.1914412    -5.613091    155.80846  0.045718445  0.047677998            2 
  285000    1.2349805   -5.6001622    156.67278  0.045810753  0.047673508            6 
  286000    1.1984486   -5.6052055    156.37391  0.045563494  0.047667449            2 
  287000    1.1795318   -5.6040962    158.26842  0.045954825  0.047659786            2 
  288000    1.2139024   -5.5923113    159.13223  0.046045204  0.047656333            4 
  289000    1.1989833   -5.5588004    160.16395  0.046183378  0.047654801            4 
  290000    1.2001981   -5.5915982    160.50126  0.046121051  0.047654038            1 
  291000    1.1858065   -5.6292063    160.49554  0.045960923  0.047650377            4 
  292000    1.2039812   -5.6363202    160.79226  0.045888202  0.047646811            3 
  293000    1.2110419   -5.6312687    161.63522  0.045971336  0.047645463            7 
  294000    1.2200543   -5.6162379    161.54873  0.045790456  0.047645606            2 
  295000     1.208354   -5.6060453    162.59633  0.045931166  0.047643627            4 
  296000    1.2284441    -5.590439    163.21686  0.045950692  0.047640914            3 
  297000    1.1923334   -5.5697762    163.81238  0.045963069  0.047638033            3 
  298000    1.2076441   -5.5914601     164.6418  0.046040771  0.047636202            2 
  299000    1.1724358    -5.563317    165.50831  0.046128292  0.047635403            3 
  300000    1.1966881   -5.6116612    165.36793  0.045935536  0.047632824            2 
  301000    1.1914711   -5.5666005    166.47714  0.046090015  0.047628723            3 
  302000    1.1693467    -5.603304    167.03221  0.046090566   0.04762627            2 
  303000    1.2181524   -5.6405271    166.81142  0.045877729  0.047624433            4 
  304000    1.2182558    -5.596499    167.86998  0.046016989  0.047620808            4 
  305000    1.2100599   -5.6205968    168.41123  0.046013996  0.047616377            2 
  306000    1.2210924   -5.6339125     168.8113  0.045972576   0.04761254            2 
  307000    1.1980258   -5.5757724     169.6191  0.046042102    0.0476086            2 
  308000    1.1713064    -5.562221    170.23851  0.046060202  0.047604767            1 
  309000    1.2066333    -5.601751    170.32933  0.045935635  0.047601288            2 
  310000     1.210343   -5.6303893    171.04791   0.04598062  0.047596609            2 
  311000    1.1891914    -5.620718    171.05283  0.045834093  0.047590554            2 
  312000    1.1797954   -5.6004084    172.01324  0.045943707  0.047583517            3 
  313000    1.2018119   -5.5929164    172.85829   0.04602191  0.047579089            3 
  314000    1.1906162   -5.5919806    172.74175  0.045844414  0.047573853            2 
  315000    1.2272059   -5.6116401    172.59367    0.0456597  0.047567578            1 
  316000    1.2060278   -5.6014531    173.69459  0.045805536  0.047560979            2 
  317000    1.1992631   -5.6005212     174.5155   0.04587684  0.047553445            2 
  318000    1.1951633   -5.6575252    174.77258  0.045799941  0.047547907            2 
  319000    1.1871976   -5.6206944    175.73834  0.045908657  0.047541535            3 
  320000    1.1850463   -5.6378451    176.06392   0.04584998  0.047536463            3 
  321000    1.1873661   -5.5899515    176.18749  0.045739223  0.047530156            2 
  322000    1.1999994   -5.6222595    177.25669  0.045873883  0.047523034            3 
  323000    1.2117656   -5.6126353     177.8043  0.045873143  0.047515696            2 
  324000    1.2024935   -5.6300603    178.18989  0.045830732  0.047508816            3 
  325000    1.2028521   -5.5936911    179.53842  0.046035491  0.047503752            1 
  326000    1.2013103   -5.6461486    178.84482   0.04571698  0.047497977            4 
  327000    1.1971451   -5.6003456    180.00771  0.045873525  0.047492756            3 
  328000    1.1927533     -5.62585    180.41584  0.045837358  0.047487098            2 
  329000    1.1726429   -5.6139281    180.95705  0.045835119  0.047481499            1 
  330000    1.1810822   -5.5580777    182.29489  0.046034064  0.047478135            4 
  331000     1.198156   -5.6344511    181.78932  0.045767704  0.047472908            3 
  332000    1.2121394   -5.6126852    182.91926   0.04591347  0.047466769            4 
  333000    1.2045462   -5.5806143    183.14807   0.04583285  0.047460021            4 
  334000    1.2165037   -5.5811748    184.34099  0.045993261  0.047453622            4 
  335000    1.2198603   -5.5805918    184.20994  0.045823368  0.047446388            3 
  336000    1.2020827   -5.6185229    184.33842  0.045718855  0.047438814            4 
  337000    1.1873171   -5.6324485     184.6913   0.04567045  0.047429786            3 
  338000    1.2040375   -5.5865731      186.299  0.045931706  0.047421816            2 
  339000    1.2237283   -5.6109536    186.26003  0.045786634  0.047415673            1 
  340000    1.2179254    -5.616662    186.59033  0.045732924  0.047409099            3 
  341000    1.1805516   -5.5868752    187.68726  0.045866878  0.047400828            2 
  342000    1.1909361   -5.6501944    188.29596  0.045881082  0.047395743            2 
  343000    1.1762982   -5.6713983    186.97874  0.045427294  0.047388278            4 
  344000    1.1664007   -5.6110813    189.25453  0.045846543  0.047380218            7 
  345000    1.1676766   -5.6223173    189.27066  0.045717551  0.047372578            4 
  346000    1.1840784   -5.6073691    189.35393  0.045605475  0.047365122            3 
  347000    1.2124048   -5.6391289    188.97479  0.045382994  0.047355287            2 
  348000    1.1890166   -5.5964191    190.70137  0.045666036  0.047345336            2 
  349000    1.2261751   -5.6398705    191.17531  0.045648355  0.047336579            3 
  350000    1.1930858   -5.5917036    192.44731  0.045820789   0.04732873            5 
  351000    1.1801103   -5.6382967    192.88623  0.045794452  0.047322841            6 
  352000    1.1962429   -5.5909723    193.88803  0.045901523  0.047316524            2 
  353000    1.1972947    -5.606171    194.32872  0.045875523  0.047310609            2 
  354000    1.2011684   -5.5863049    195.12679  0.045933801  0.047303306            2 
  355000    1.1844128   -5.6042541     195.4706  0.045885118  0.047296975            4 
  356000    1.1815637    -5.646697    195.40909  0.045741829  0.047290416            4 
  357000    1.1899147   -5.6425337    196.32885  0.045828397  0.047283397            1 
  358000    1.2296696   -5.6621162     196.3989  0.045716689   0.04727699            2 
  359000    1.1828997     -5.64629    196.86676  0.045697948  0.047268767            3 
  360000    1.2076062   -5.6205285    197.97939  0.045828564  0.047262681            3 
  361000    1.1808186    -5.621045    199.09273  0.045958617  0.047257119            3 
  362000    1.2078277   -5.6212752    199.42094  0.045907214  0.047252448            2 
  363000    1.1999555   -5.6268945    200.42621  0.046011527  0.047248579            2 
  364000    1.2155079   -5.6134176    201.17035  0.046055483  0.047244774            3 
  365000    1.1830098   -5.6621351    201.03413  0.045898204  0.047241759            1 
  366000    1.2025495   -5.6813234     200.7016  0.045697087  0.047237476            2 
  367000    1.1824102   -5.6510345    202.25365  0.045924988  0.047234536            3 
  368000    1.2029436   -5.6184227    203.87769  0.046167956  0.047232919            3 
  369000    1.2037326   -5.6490563    204.24735  0.046126321  0.047230727            1 
  370000    1.2109978   -5.6066212    204.32104  0.046018251  0.047228269            2 
  371000     1.172508   -5.6202397    205.16266  0.046083257   0.04722486            2 
  372000    1.1764522   -5.5911307    205.87077  0.046118005  0.047221832            2 
  373000    1.1793851   -5.6165068    205.83385  0.045986115  0.047219121            2 
  374000    1.1778089   -5.5881307      206.151  0.045933823     0.047216            3 
  375000    1.1832921   -5.6357926    206.72679  0.045939287  0.047212145            2 
  376000    1.1852243   -5.6548866    207.09783  0.045899342  0.047208267            9 
  377000    1.2014757   -5.6104661    207.02538  0.045761579  0.047201027            5 
  378000    1.1756214   -5.6596451    207.36724  0.045715882  0.047194603            8 
  379000    1.2306594   -5.6539608    208.35846  0.045813206  0.047189305            2 
  380000    1.1860556    -5.660208    208.88984  0.045809174  0.047184942            5 
  381000    1.1803411   -5.6369486    210.41971  0.046023559  0.047182048            2 
  382000    1.2007235   -5.6055883    210.62074  0.045946933  0.047178464            2 
  383000    1.2058157   -5.6109408    211.39463   0.04599535  0.047175634            2 
  384000      1.17641   -5.6256722    212.10763  0.046030301  0.047171486            4 
  385000    1.1683225   -5.6293158    211.90722  0.045867363  0.047167206            4 
  386000    1.1829274   -5.6539319    211.61888  0.045686286  0.047162585            7 
  387000    1.2035204   -5.6308232    212.50773  0.045759633  0.047157315            6 
  388000    1.2109363    -5.634914    213.10751  0.045770514  0.047151854            3 
  389000    1.1994347   -5.6408993    214.31803  0.045912175  0.047146124            4 
  390000    1.1979296   -5.6618162    213.97693  0.045721566  0.047142997            2 
  391000    1.1856118   -5.6118489    215.16283  0.045857381  0.047139932            3 
  392000    1.1940782    -5.630363     216.0865  0.045936757  0.047137042            4 
  393000     1.195656   -5.6441326    217.02685  0.046019264  0.047135272            2 
  394000    1.2034303   -5.6586928     217.2378  0.045947081  0.047131801            2 
  395000    1.1773828   -5.6399725    218.17588  0.046028667  0.047128082            1 
  396000    1.2002557   -5.6417115    218.54688  0.045990504  0.047126065            2 
  397000    1.1913267   -5.6361988    219.62212  0.046100361  0.047124072            2 
  398000    1.1521371   -5.6175058    221.00907  0.046274931  0.047122922            2 
  399000    1.1843799   -5.6337086     220.4896   0.04605046  0.047122882            2 
  400000    1.1870377    -5.648045    220.95721  0.046032751  0.047121466            3 
  401000      1.18547   -5.5924501     222.0285  0.046140587  0.047121247            1 
  402000    1.1672989   -5.6625039    221.83156  0.045984983  0.047120156            4 
  403000    1.1922921   -5.6786075     222.6445  0.046038978  0.047117984            2 
  404000    1.1607191   -5.6272601    222.89313  0.045976306  0.047115348            3 
  405000    1.1935052   -5.7028583    223.28149  0.045942693  0.047113799            5 
  406000    1.1645038   -5.6216035     224.2174  0.046021634  0.047111955            6 
  407000     1.159681   -5.6538929    224.30198  0.045925877  0.047109265            2 
  408000    1.1786448   -5.6234094    224.96576  0.045948889  0.047106481            3 
  409000      1.19382   -5.6473568    225.61681  0.045969195  0.047103788            2 
  410000    1.1799891   -5.6222341    226.84702  0.046107117  0.047101072            2 
  411000    1.1955706   -5.5998381    227.63507  0.046154719   0.04709968            2 
  412000    1.1919955   -5.6017366    227.92613  0.046101563  0.047096097            3 
  413000    1.2090572   -5.5887588    228.17854  0.046040867  0.047094194            3 
  414000    1.2013049   -5.6405016    228.83052  0.046060893  0.047092378            1 
  415000    1.1698644   -5.6658265     230.3018  0.046245341  0.047092409            1 
  416000    1.1848911   -5.6528535    230.28364  0.046130537  0.047093754            2 
  417000    1.1857555   -5.6444744     232.3167  0.046426199  0.047094803            3 
  418000    1.1996799   -5.6358995    231.51943  0.046156186  0.047095989            3 
  419000    1.1876509   -5.6760895    232.56528  0.046254033  0.047097712            2 
  420000    1.1878377   -5.6556018    231.54561   0.04594159  0.047098295            2 
  421000    1.1861588   -5.6787947    233.91095  0.046300663  0.047097823            3 
  422000    1.1900001   -5.7080681     233.7324  0.046155687  0.047097978            3 
  423000     1.175139    -5.634293    234.47736  0.046193334  0.047097824            2 
  424000    1.1759173   -5.6182478    235.72684   0.04632996   0.04709852            2 
  425000    1.1732139     -5.63105    236.36342  0.046345769  0.047099337            2 
  426000    1.1758851   -5.6530085    237.13298  0.046387516  0.047101831            3 
  427000    1.1777773   -5.6836446    236.64075  0.046182816  0.047103447            4 
  428000    1.1707532   -5.6588064    237.86204  0.046312702  0.047105531            2 
  429000    1.1814374   -5.6019649    238.82697  0.046392185  0.047107413            2 
  430000    1.1860288   -5.6438875    239.06412  0.046330256  0.047108601            2 
  431000    1.1978324   -5.6595642    238.84168  0.046179752   0.04711056            5 
  432000    1.1990459   -5.6488007    241.00389  0.046489947  0.047112286            3 
  433000    1.1923697   -5.6523876     241.6437  0.046505716  0.047115935            6 
  434000    1.1830525   -5.6563696    242.36134  0.046536356   0.04711828            2 
  435000    1.1831339   -5.6474078    242.19132  0.046396805  0.047121187            3 
  436000    1.1715213   -5.6465902    241.95612  0.046245435  0.047123317            3 
  437000    1.1772845   -5.6495285    243.17086  0.046371255  0.047126667            4 
  438000    1.1718573    -5.626864    244.88555  0.046591619  0.047131123            4 
  439000     1.175534   -5.6173931    244.88491  0.046485366  0.047135059            3 
  440000     1.196866   -5.6971618    243.98697  0.046209653  0.047137248            1 
  441000    1.1946531   -5.6624479    245.61893  0.046413252  0.047140064            3 
  442000    1.1617734   -5.6437195    247.60705  0.046683079  0.047143259            6 
  443000    1.1971162   -5.6382133    246.65432   0.04639848  0.047147145            3 
  444000    1.1775827   -5.6298165    247.58006  0.046467728  0.047149851            3 
  445000    1.1945812   -5.6371286    247.97584  0.046437423  0.047152291            2 
  446000    1.1663987   -5.6633392    248.23656  0.046382017  0.047152934            5 
  447000    1.1632167   -5.6409545    248.95526  0.046412241  0.047152706            4 
  448000    1.1969196   -5.6228012    249.22534  0.046358881  0.047152004            2 
  449000    1.1941523   -5.6856987    248.77655  0.046172337  0.047151454            4 
  450000    1.1543239   -5.6750774    249.81581  0.046262186  0.047152312            2 
  451000    1.1765195   -5.6834499    250.89357  0.046358753  0.047152825            2 
  452000    1.1817545   -5.6355246    251.18912  0.046310679   0.04715428            2 
  453000    1.1804514    -5.639375    251.64701   0.04629268  0.047154037            3 
  454000    1.1607454   -5.6434757    252.03937  0.046262733  0.047153228            1 
  455000    1.1740982   -5.6310222    252.68219  0.046278789    0.0471524            2 
  456000    1.1626825   -5.6689995    252.08876  0.046068852  0.047151343            2 
  457000    1.1916624    -5.646535    252.91041  0.046117871  0.047148422            3 
  458000    1.1756597   -5.6397064    253.24357  0.046077796  0.047146427            2 
  459000     1.180165    -5.676462    253.46798  0.046018151  0.047143328            3 
  460000    1.1821411   -5.6544316    254.96068   0.04618853   0.04713828            2 
  461000    1.1739991   -5.6823968    253.37982   0.04580257   0.04713373            3 
  462000    1.1620704    -5.689337    254.46633  0.045899411  0.047129471            2 
  463000    1.1650207   -5.6593146    255.08646  0.045911889  0.047125093            2 
  464000    1.1892608   -5.6331468    256.34521  0.046039011   0.04712164            4 
  465000    1.1722442   -5.6814849    256.31427  0.045934458  0.047116521            3 
  466000    1.1727677   -5.6754815    256.79271  0.045921443  0.047111515            2 
  467000    1.1687578   -5.6615381    257.89471  0.046019756   0.04710625            3 
  468000    1.1649622   -5.6777278    258.19043  0.045974079  0.047102555            2 
  469000    1.1603272   -5.7029017    257.87256  0.045819573   0.04709853            2 
  470000    1.1680761   -5.7084314    259.58246  0.046025259  0.047093543            4 
  471000    1.1687117   -5.6576071    259.99063  0.045999757  0.047089635            2 
  472000    1.1906486   -5.6522651    260.93086  0.046068302  0.047086597            6 
  473000    1.1895873   -5.6484111     261.5941  0.046087756  0.047084363            2 
  474000    1.1657883   -5.5799367    263.67044  0.046355562  0.047082847            2 
  475000    1.2103175   -5.6274373    263.07108  0.046152821  0.047081474            3 
  476000    1.1597119   -5.6375124    263.23411  0.046084402   0.04708015            5 
  477000    1.1547262   -5.6597032    264.43312  0.046197261  0.047077389            3 
  478000    1.1891015   -5.6790697    263.75146  0.045981775  0.047073721            2 
  479000    1.1871446   -5.6529802    264.65512  0.046042992  0.047070168            3 
  480000    1.1585366   -5.6551649    263.84506  0.045806433  0.047066853            6 
  481000    1.1798359   -5.6953356    264.01595   0.04574081  0.047062692            4 
  482000    1.1871068   -5.6811568    265.02979  0.045821195  0.047057803            4 
  483000    1.1635343   -5.6525668    266.31815  0.045948611  0.047052845            1 
  484000     1.170417   -5.6526574    267.62434   0.04607857  0.047048221            3 
  485000    1.1642012   -5.6920439    266.55987  0.045800665  0.047042995            2 
  486000    1.1532689   -5.6627679    268.38642  0.046019619  0.047037766            3 
  487000    1.1648331   -5.6867801    267.84347  0.045832216  0.047033473            5 
  488000    1.1952309    -5.645298    268.86869  0.045913369   0.04702881            7 
  489000     1.144902   -5.6769946    269.73296  0.045966762  0.047024629            2 
  490000    1.1758628   -5.7097468    269.53641  0.045839525  0.047021168            2 
  491000    1.1659225   -5.6751553    270.77219  0.045955905  0.047017216            4 
  492000    1.1622748    -5.679945    271.73399  0.046025405  0.047013833            2 
  493000    1.1766601   -5.6673587    272.64159  0.046085461  0.047010652            2 
  494000    1.1708616    -5.689382    272.43953  0.045958086  0.047007724            2 
  495000    1.1754251   -5.6607891     272.9817  0.045956515  0.047005904            2 
  496000    1.1696624   -5.6503772     274.8813  0.046183013  0.047004885            3 
  497000    1.1690347   -5.6408547    275.19373  0.046142477  0.047004792            3 
  498000    1.1601208   -5.7236556    275.27168  0.046062865  0.047003171            4 
  499000     1.158061   -5.6343227     276.8114  0.046227688  0.047000715            3 
  500000    1.1694396   -5.6566132    275.80154  0.045966923  0.046996561            5 
  501000    1.1815453   -5.7004443    275.43885  0.045814845  0.046992619            2 
  502000    1.1754254   -5.6591169    277.81686  0.046118337  0.046988164            2 
  503000    1.1763537   -5.6698685    276.29398   0.04577435  0.046983078            2 
  504000    1.1700995   -5.6705636     277.2902  0.045848247  0.046977686            3 
  505000    1.1740557    -5.639037    277.95519  0.045867193  0.046972622            4 
  506000    1.1530272   -5.6366161    278.51729   0.04586912  0.046967178            3 
  507000    1.1688508   -5.6206613    278.48152  0.045772768  0.046960667            4 
  508000    1.1716856    -5.674705    279.53097  0.045854817  0.046954617            2 
  509000    1.1995093   -5.6658004    280.25489   0.04588325  0.046948117            3 
  510000    1.1428393   -5.7075859    278.93687   0.04557792  0.046941949            3 
  511000    1.1459282   -5.6353304    281.15234  0.045850023  0.046935109            2 
  512000    1.1623316   -5.6754849     281.2926    0.0457833  0.046930019            2 
  513000    1.1566789    -5.672789    282.25131  0.045849791  0.046924192            1 
  514000    1.1540979   -5.6625684    282.18465  0.045749781  0.046918045            1 
  515000    1.1794617   -5.6497989    282.00723  0.045632238  0.046911543            3 
  516000     1.201548   -5.6521407    283.41926  0.045771845   0.04690583            2 
  517000    1.2027051   -5.7191482    283.32197  0.045667629  0.046899542            3 
  518000    1.1509433    -5.674021    283.85471  0.045665173  0.046893243            5 
  519000    1.1604223   -5.6771035    284.52012  0.045684028   0.04688714            3 
  520000    1.1758834   -5.6812317    284.14133  0.045535469  0.046881033            2 
  521000    1.1636005   -5.7033465     286.1197  0.045764508  0.046875067            3 
  522000    1.1924482   -5.6478228    286.66087   0.04576323  0.046870641            2 
  523000    1.1556308   -5.6373428    288.61931   0.04598778  0.046865248            2 
  524000    1.1518697   -5.6604349    287.91533  0.045788061  0.046861123            3 
  525000    1.1755515   -5.6888607    287.75478  0.045675362  0.046855181            3 
  526000    1.1532802   -5.6970744    287.84138  0.045602247  0.046848957            2 
  527000    1.1857591   -5.6593644    289.21151   0.04573237  0.046843756            2 
  528000    1.1764837   -5.7023936     289.3825  0.045672743  0.046837686            1 
  529000    1.1686645   -5.7191565    289.85219  0.045660396   0.04683184            2 
  530000    1.1580888   -5.6874217    291.11608  0.045772968  0.046826857            3 
  531000    1.1804911   -5.6691533    291.08233  0.045681471  0.046821475            3 
  532000     1.154203   -5.6433605     292.6783  0.045845599  0.046816316            2 
  533000    1.1397539   -5.6707553    292.38871  0.045714307  0.046811796            3 
  534000    1.1784583   -5.6484538    292.24609  0.045606443  0.046805501            2 
  535000    1.1671153   -5.6930382     293.4091  0.045702352  0.046800399            3 
  536000    1.1872026   -5.6963285    293.34727  0.045607473  0.046794849            2 
  537000    1.1660285    -5.699357    294.27894  0.045667123  0.046789315            4 
  538000    1.1571397   -5.6933262    294.55118  0.045624408  0.046784426            4 
  539000    1.1726407   -5.6504348     296.2423  0.045801221  0.046779938            2 
  540000    1.1711681   -5.6616838     298.0855  0.046000848  0.046776156            4 
  541000    1.1584576   -5.6918584    296.76982  0.045713158  0.046772229            2 
  542000     1.177465   -5.6928121    298.79152  0.045939656  0.046768256            4 
  543000    1.1680199   -5.7270406    298.42951  0.045799496  0.046764402            3 
  544000    1.1790316   -5.6955917    298.81032   0.04577364   0.04676037            5 
  545000      1.17081   -5.7367612    297.97306  0.045561629  0.046754698            2 
  546000    1.1901341   -5.7315345    298.00554  0.045483142  0.046748063            3 
  547000    1.1456848   -5.7183597    298.70651  0.045506781  0.046741174            2 
  548000     1.172926   -5.6880366    300.36578  0.045676062  0.046734281            3 
  549000    1.1503885   -5.7333191    300.11121  0.045554221  0.046727701            3 
  550000    1.1565373   -5.7161832    299.48331  0.045376259  0.046720506            2 
  551000    1.1419287    -5.695462    301.11501  0.045540685  0.046714185            2 
  552000    1.1572173   -5.6862454    303.83152  0.045868284  0.046708989            2 
  553000    1.1688116   -5.6723836    303.20585  0.045691056  0.046703839            4 
  554000    1.1726314   -5.6678927    303.07048   0.04558822   0.04669791            4 
  555000    1.1654141   -5.7182934    302.67563  0.045446791  0.046690935            1 
  556000    1.1501604   -5.6802425    304.52893  0.045642825  0.046683483            3 
  557000    1.1436139   -5.6407546    303.37165  0.045387739  0.046675688            2 
  558000    1.1469595   -5.7025217    304.39653  0.045459457  0.046667672            2 
  559000    1.1769249   -5.5940251    305.19159  0.045496659  0.046659661            2 
  560000     1.160299   -5.7157078    304.58859  0.045325684  0.046651597            1 
  561000    1.1556561   -5.6591713    306.36674  0.045509022  0.046643043            3 
  562000    1.1763472    -5.686787    306.21144  0.045405018  0.046635497            1 
  563000    1.1402871   -5.7222412    306.31734  0.045340045   0.04662762            4 
  564000     1.155829   -5.7066912    307.26129  0.045399127  0.046618656            1 
  565000    1.1513914   -5.6963568     308.1364  0.045447847  0.046610953            2 
  566000    1.1516345   -5.6890113    308.37666  0.045402924  0.046603053            2 
  567000    1.1399329   -5.7137323    308.63286  0.045360502  0.046594733            2 
  568000    1.1512859   -5.7083704    308.89377  0.045318922   0.04658641            3 
  569000    1.1323765   -5.6944345    309.62376  0.045346186  0.046577797            2 
  570000    1.1736168   -5.7205467    309.69944  0.045277696  0.046569601            2 
  571000    1.1427514   -5.7016341    310.63689  0.045335214  0.046562459            2 
  572000    1.1707632   -5.6864192    311.99398  0.045453669  0.046554916            3 
  573000    1.1493633   -5.6839059    312.14179  0.045395839  0.046547731            3 
  574000    1.1662399   -5.6984734    312.48511  0.045366596  0.046540376            3 
  575000    1.1662478   -5.7157278    314.59409  0.045593346  0.046533103            2 
  576000    1.1576339    -5.710175    314.23336  0.045462002  0.046526441            2 
  577000    1.1587789   -5.6709971    315.23828  0.045528348  0.046519767            1 
  578000    1.1742984   -5.7076548     314.4205  0.045331675  0.046513682            2 
  579000    1.1619454   -5.7172797    315.61088  0.045424709  0.046507278            8 
  580000    1.1569923   -5.7341862    315.73712  0.045364529  0.046500475            2 
  581000    1.1363953   -5.7435669    316.83918  0.045444518  0.046494181            4 
  582000    1.1618721   -5.6480667    318.56572  0.045613648  0.046488198            1 
  583000    1.1226707   -5.7353841    316.96169   0.04530613  0.046481771            5 
  584000    1.1230827   -5.7968973    318.94209  0.045511143  0.046475162            2 
  585000    1.1499174   -5.6717731    319.67458   0.04553769  0.046469669            3 
  586000    1.1370743   -5.6832376    319.67156  0.045459551  0.046463928            4 
  587000    1.1724786   -5.7014536    321.14738  0.045591622  0.046458344            3 
  588000    1.1753104     -5.71225    320.87249  0.045475126  0.046452382            2 
  589000    1.1318693   -5.6924847    322.86624  0.045679999   0.04644733            3 
  590000    1.1784592   -5.6830169    321.92625  0.045469809  0.046442566            2 
  591000    1.1589676   -5.6960657    323.40613  0.045601541  0.046436873            1 
  592000    1.1421052   -5.6993272    323.36809  0.045519157  0.046431082            2 
  593000    1.1391805   -5.6918891    323.52887  0.045464989  0.046426084            3 
  594000      1.14038   -5.6486086    325.69442  0.045692259  0.046420735            3 
  595000    1.1707448   -5.6824136    325.04318  0.045524255  0.046415387            3 
  596000    1.1500245   -5.6638836    326.92149  0.045710499  0.046409671            3 
  597000    1.1779542   -5.7422474    324.21631  0.045256324  0.046403532            4 
  598000    1.1366745    -5.711119    325.51314  0.045361363  0.046397534            4 
  599000    1.1524022   -5.7135334    326.59138  0.045435641  0.046391382            5 
  600000    1.1747633   -5.7356293    326.77778  0.045385802  0.046386075            3 
  601000    1.1382241   -5.7283291    327.17753  0.045365715  0.046380341            4 
  602000    1.1746577   -5.7057734    329.65851  0.045633792  0.046375522            2 
  603000    1.1484456   -5.7114048    328.81532  0.045441586  0.046370897            1 
  604000    1.1631368   -5.7256831    329.39469  0.045446288  0.046366011            2 
  605000    1.1642164   -5.7047811    331.43452  0.045652137  0.046361568            2 
  606000    1.1531478   -5.6983523    331.14484   0.04553697  0.046357468            4 
  607000    1.1698552   -5.6601607    333.06845  0.045726037   0.04635292            3 
  608000    1.1466113   -5.6749393    332.59453  0.045585873  0.046349044            4 
  609000    1.1608276   -5.7074829    332.54363  0.045504054  0.046344321            3 
  610000    1.1342918   -5.7060954    333.31147  0.045534354  0.046340019            5 
  611000    1.1509495   -5.6828407    335.21905  0.045720001  0.046336347            4 
  612000    1.1573114   -5.6771375    335.87335  0.045734388  0.046333211            3 
  613000    1.1307613   -5.7022066    335.03309  0.045545553  0.046329931            4 
  614000    1.1490597   -5.6852974    335.53503  0.045539499  0.046325903            3 
  615000    1.1587017   -5.6754322       337.25  0.045697832  0.046322563            2 
  616000     1.151899   -5.7097426    336.43569  0.045513487  0.046318677            4 
  617000    1.1790198   -5.7335162    337.24979  0.045549674  0.046313974            3 
  618000    1.1378555   -5.7401115    336.92024  0.045431532  0.046309643            2 
  619000    1.1545485   -5.7369063    338.29589  0.045543334  0.046305665            2 
  620000    1.1387807   -5.6592398    340.74815  0.045799483  0.046302851            4 
  621000    1.1616347   -5.7386271    340.48976  0.045691058  0.046299846            3 
  622000    1.1536712   -5.7240911    339.99741  0.045551635   0.04629768            1 
  623000    1.1304732   -5.6965815     342.1354  0.045764499  0.046295053            2 
  624000    1.1604499   -5.7338422    340.51148  0.045474289  0.046291932            1 
  625000    1.1726708   -5.7110656    342.25624  0.045634165  0.046288575            1 
  626000    1.1872065   -5.7291286    342.41857  0.045582877  0.046286112            2 
  627000    1.1698069   -5.7190929    344.25511  0.045754268  0.046283466            3 
  628000    1.1457543   -5.7326668     343.9272  0.045637899  0.046280815            3 
  629000    1.1597035   -5.6907569     346.2696  0.045875675  0.046278343            2 
  630000    1.1274776   -5.7285181     344.5464  0.045574921  0.046274985            6 
  631000    1.1313757   -5.7192813    344.60775  0.045510797  0.046271075            2 
  632000    1.1412405   -5.7520187    342.17913  0.045118557  0.046267062            4 
  633000    1.1541659   -5.6983953    345.95292  0.045544092  0.046263401            2 
  634000    1.1651399   -5.7011874    347.42285  0.045665464  0.046260587            4 
  635000    1.1309999   -5.7048886    347.37249  0.045586941  0.046257286            1 
  636000    1.1384752   -5.7345752    347.02319  0.045469496  0.046254028           12 
  637000    1.1481067   -5.6959684    348.58677  0.045602665   0.04625024            2 
  638000    1.1684204   -5.7457801    348.57582  0.045529757  0.046247334            4 
  639000    1.1500911   -5.7331043     348.4034   0.04543602   0.04624359            3 
  640000    1.1574464   -5.7154208    349.78825  0.045545345   0.04624007            1 
  641000    1.1437673   -5.7611844    348.92019   0.04536144  0.046236462            3 
  642000    1.1450248   -5.6810444    351.49804  0.045625395  0.046231884            3 
  643000    1.1550508   -5.7135631    351.83772  0.045598461  0.046228127            2 
  644000    1.1375914   -5.7258074    351.18921  0.045443738  0.046224848            3 
  645000    1.1450258   -5.7401249    351.47294  0.045409941  0.046220364            1 
  646000    1.1509072   -5.7393194    351.71675  0.045371098  0.046215932            2 
  647000    1.1423158   -5.6868568    353.34467  0.045510648  0.046212231            3 
  648000    1.1444228   -5.7096137    352.89263  0.045382283  0.046208057            2 
  649000    1.1635878   -5.7338888    353.38826  0.045375997  0.046203568            6 
  650000    1.1662245   -5.7522675    352.77685  0.045227802  0.046197719            3 
  651000    1.1609855   -5.6851958    355.25306  0.045475302  0.046192656            2 
  652000    1.1538212   -5.7181697    354.93198  0.045364516  0.046187655            3 
  653000    1.1388814   -5.7018074    355.38042  0.045352275  0.046182766            2 
  654000    1.1376769   -5.6901266    356.90196  0.045476804   0.04617741            3 
  655000    1.1021356   -5.6869791    357.09082  0.045431402  0.046172432            5 
  656000    1.1678184   -5.7278328    357.34904  0.045394949  0.046167125            2 
  657000    1.1588383   -5.7107374    357.36447  0.045327811  0.046162369            1 
  658000    1.1666022   -5.7513338    357.26476  0.045246297  0.046156614            4 
  659000    1.1746949   -5.6944645     359.4891  0.045458915  0.046151126            2 
  660000    1.1660277   -5.7263971    359.79844  0.045429095  0.046145336            2 
  661000    1.1219346    -5.705661    358.54026  0.045201748  0.046140056            4 
  662000    1.1683329   -5.7316512    358.74179  0.045158836  0.046134851            6 
  663000    1.1485758   -5.7110941    360.90355  0.045362437  0.046130601            3 
  664000     1.156317   -5.7381402    360.33356  0.045222586  0.046126034            5 
  665000    1.1561885   -5.7155603    361.94746  0.045356825  0.046120884            4 
  666000    1.1416832    -5.686181    362.04976  0.045301522  0.046116746            2 
  667000    1.1554406     -5.70933    363.30384  0.045390285  0.046112047            2 
  668000    1.1402273   -5.7362051    363.52804  0.045350304  0.046107963            3 
  669000    1.1354414   -5.7081819    365.41395  0.045517432  0.046104206            3 
  670000    1.1437947   -5.7471157    364.02927  0.045277273  0.046099447            2 
  671000    1.1235456   -5.7375774    366.06417  0.045462515  0.046094548            8 
  672000    1.1393554    -5.739169    365.51505  0.045326767  0.046089422            2 
  673000    1.1492519   -5.7289205     364.6132  0.045147747  0.046084331            6 
  674000    1.1443049    -5.746812    366.62282  0.045329231  0.046078612            3 
  675000    1.1652619   -5.7314912    365.70949  0.045149319  0.046073268            4 
  676000    1.1249019    -5.763178    364.97574  0.044992078  0.046067357           12 
  677000    1.1503401   -5.7429022    366.94018  0.045167427  0.046060734            2 
  678000    1.1553379   -5.7093441    368.49648  0.045292094   0.04605514            2 
  679000     1.138076   -5.7506302    367.65925  0.045122638  0.046049579            3 
  680000    1.1223977   -5.7279185    367.84586  0.045079149  0.046043379            6 
  681000    1.1303035   -5.7180434    369.16844  0.045174797  0.046037164            4 
  682000    1.1609849   -5.7341764    369.97453  0.045207054  0.046031071            2 
  683000    1.1480755   -5.7364279    369.47003  0.045079311  0.046025231            1 
  684000    1.1325498   -5.7591033    368.44524  0.044888553  0.046018121            2 
  685000    1.1528922   -5.7206086     371.4227  0.045185243  0.046011111            2 
  686000    1.1485064   -5.7186867    370.79498  0.045043121  0.046004764            5 
  687000    1.1598962    -5.706122    373.38733  0.045292009  0.045999022            2 
  688000    1.1520314   -5.7676408    371.89127   0.04504497  0.045992642            3 
  689000    1.1548886   -5.7340951    371.75968  0.044963677   0.04598608            3 
  690000    1.1397528   -5.7011235    373.55673  0.045115547  0.045979669            3 
  691000    1.1232759    -5.715891    373.38889  0.045030016  0.045973434            3 
  692000    1.1463437   -5.6897898    374.98233  0.045156832  0.045967758            3 
  693000    1.1477158   -5.7616059    374.58116   0.04504343  0.045962516            2 
  694000    1.1273211   -5.7456409    375.28586  0.045063143  0.045957109            4 
  695000    1.1295314   -5.7085121    376.99191  0.045202867  0.045950603            6 
  696000    1.1344978   -5.7224232    376.84651  0.045120511  0.045944936            3 
  697000    1.1628901   -5.7633205     376.6942  0.045037566  0.045938682            6 
  698000    1.1543556   -5.7019419    377.05101  0.045015641  0.045932234            5 
  699000    1.1425172   -5.7876364    375.98259  0.044823867  0.045925963            3 
  700000    1.1502842   -5.7456745    377.90443  0.044988623  0.045919606            5 
  701000    1.1114387   -5.7291014    377.23447  0.044844801  0.045912763            3 
  702000    1.1243995   -5.7453585    379.55309   0.04505616   0.04590622            4 
  703000    1.1463794   -5.7779659    378.99317  0.044925696  0.045900247            4 
  704000    1.1345061   -5.7345349     381.1894  0.045121851  0.045893955            3 
  705000    1.1461452   -5.7354571    380.53615  0.044980632  0.045888149            3 
  706000    1.1226606   -5.7292048    380.76583  0.044944031   0.04588251            3 
  707000    1.1305863   -5.7496655    382.65092  0.045102654  0.045875983            4 
  708000    1.1514615   -5.7220342    382.35996  0.045004703  0.045869699            2 
  709000    1.1305004    -5.702579    382.66348  0.044976902  0.045863652            2 
  710000    1.1545647   -5.7274799    382.62216  0.044908704  0.045857469            3 
  711000    1.1479215    -5.716601    384.10012  0.045018767  0.045851507            1 
  712000    1.1184104   -5.7519973    383.13466   0.04484254  0.045844979            1 
  713000    1.1213078   -5.7949017    382.57143  0.044713818  0.045838137            3 
  714000    1.1579505   -5.7308918    384.94166  0.044927832   0.04583113            3 
  715000    1.1171765   -5.7388783    386.05053  0.044994234  0.045824729            2 
  716000    1.1425746   -5.7152628     386.2915  0.044959439  0.045818205            5 
  717000    1.1503271    -5.751328     387.0536   0.04498531  0.045811724            2 
  718000    1.1341266   -5.7685849    385.58653  0.044752383  0.045805325            2 
  719000    1.1260451   -5.7685649    386.40259  0.044784723  0.045798498            4 
  720000    1.1521133   -5.7845124    388.57032  0.044973417   0.04579196            3 
  721000    1.1111455   -5.7892109    386.95838  0.044724732  0.045785103            2 
  722000    1.1253224   -5.7196193    388.22042  0.044808451  0.045778012            3 
  723000    1.1549486   -5.7219849    388.13545  0.044736681   0.04577101            2 
  724000    1.1211202   -5.7476884    390.03099   0.04489307  0.045764269            2 
  725000    1.1169827    -5.743687    388.39789  0.044643436  0.045757797            2 
  726000    1.1450492   -5.7121163    391.47201  0.044934803  0.045751451            1 
  727000    1.1269737   -5.7719553    390.43111  0.044753681  0.045744399            7 
  728000    1.1346797   -5.7290998    392.50223  0.044929284   0.04573742            3 
  729000    1.1398247   -5.7291499    391.60224  0.044764774  0.045730182            3 
  730000     1.121341    -5.741923    391.76898  0.044722486  0.045723153            1 
  731000     1.140793   -5.7350593    392.83191  0.044782479   0.04571583            3 
  732000    1.1270731   -5.7639902    392.14359   0.04464294  0.045708439            6 
  733000    1.1280692   -5.7366828    392.50126  0.044622698  0.045700448            3 
  734000    1.1321515   -5.7931402    393.70818   0.04469893  0.045692716            1 
  735000    1.1226759   -5.7286365    394.59068  0.044738172  0.045684666            2 
  736000     1.101033   -5.7966219    393.01191  0.044498632  0.045676219            3 
  737000    1.1397631   -5.7336618    395.09981  0.044674334  0.045667865            5 
  738000    1.1358674   -5.7808395    395.45998  0.044654469  0.045659845            2 
  739000    1.1662816   -5.7659793    396.72147  0.044736295  0.045651969            4 
  740000    1.1555622   -5.7869834    395.58914  0.044548327  0.045643929            3 
  741000    1.1579547    -5.753507    396.69033  0.044612048  0.045635747            1 
  742000    1.1688272   -5.7535728    396.53287  0.044534239  0.045628125            3 
  743000    1.1214628   -5.8037044    396.73924  0.044497447  0.045620513            2 
  744000     1.150752    -5.757355    398.28956  0.044611286  0.045612789            1 
  745000    1.1271847   -5.7141405    398.55191   0.04458075  0.045605406            3 
  746000    1.1116323   -5.7527622    397.91661  0.044450023  0.045597426            4 
  747000    1.1334015    -5.758407    398.69834  0.044477726  0.045589242            4 
  748000    1.1402682   -5.7559463    399.36069  0.044492056  0.045581358            3 
  749000    1.1463468   -5.7642353    399.97251  0.044500725  0.045573539            9 
  750000     1.129643    -5.768017    400.95428  0.044550476  0.045565851            3 
  751000    1.1414022   -5.7763585    400.90439  0.044485619  0.045557767            4 
  752000    1.1596877   -5.7649714     400.4775  0.044379155  0.045549709            2 
  753000    1.1170337   -5.7736324    401.00707  0.044378825   0.04554131            3 
  754000    1.1490585   -5.7562236    402.22837  0.044454948  0.045533169            3 
  755000     1.152876   -5.7358415    402.80853  0.044460102  0.045524989            4 
  756000    1.1295398     -5.74278    404.80109  0.044620931  0.045517255            3 
  757000    1.1051328   -5.7844928    403.01658  0.044365542  0.045509635            2 
  758000    1.1288524   -5.7529661    405.36848  0.044565577  0.045501698            3 
  759000     1.131811   -5.7373907    405.47865  0.044518956  0.045493874            2 
  760000    1.1452313   -5.6969454    406.94313  0.044620957  0.045486457            3 
  761000    1.1386195   -5.7639737    405.54409  0.044409121  0.045478044            3 
  762000    1.1148332    -5.781254    407.44599  0.044558835  0.045469946            1 
  763000    1.1308205   -5.7610928    406.68379   0.04441719  0.045461662            3 
  764000    1.1379509   -5.7977978    406.62787  0.044352953  0.045452668            4 
  765000    1.1410357   -5.7954736    407.71411  0.044413302  0.045444032            3 
  766000    1.1163499    -5.795835    406.73001   0.04424826   0.04543492            3 
  767000    1.1332081   -5.7763523    408.88119  0.044424292  0.045427042            2 
  768000    1.1398272   -5.7747727    408.61545  0.044337614  0.045419791            3 
  769000    1.1177585   -5.8029005    408.96397  0.044317725   0.04541193            4 
  770000    1.1176156   -5.8145077    411.67295  0.044553349  0.045404135            3 
  771000    1.1281247   -5.7838778    411.71806  0.044500439  0.045396364            2 
  772000    1.1274076   -5.7857663    411.62672  0.044432936  0.045389017            3 
  773000    1.1197211   -5.7578249    412.74178  0.044495664   0.04538137            4 
  774000    1.1015721   -5.7128658    414.00907   0.04457462   0.04537508            4 
  775000    1.1155714   -5.8094079    413.79376  0.044493953   0.04536802            3 
  776000    1.1017476   -5.7897461    412.92031  0.044342817  0.045360874            2 
  777000    1.1315385   -5.7625918    414.50097  0.044455274  0.045353838            3 
  778000    1.1558122   -5.7577123    415.45765  0.044500605  0.045347374            3 
  779000    1.1318373   -5.7618996    415.65403  0.044464487  0.045340664            7 
  780000    1.1202772   -5.8178797     414.8123  0.044317553  0.045333614            3 
  781000    1.1280949   -5.7801381    417.10624  0.044505574  0.045326021            2 
  782000    1.1234342   -5.7635976    416.85307  0.044421682  0.045318943            4 
  783000     1.138549   -5.7710021    416.85449  0.044365101  0.045311637            2 
  784000    1.1250308   -5.7921938    417.47762  0.044374747  0.045304191            2 
  785000    1.1220157   -5.7989979    416.72034  0.044237828  0.045296689            3 
  786000    1.1126994   -5.8007629    417.77758  0.044293637  0.045289289            2 
  787000    1.1089807   -5.7841277    419.78826   0.04445026  0.045282233            2 
  788000    1.1029079    -5.767757    420.63581  0.044483483  0.045274899            4 
  789000    1.1235337   -5.7863738    419.88761  0.044348078  0.045267339            6 
  790000    1.1489263   -5.7518264    421.09554  0.044419361  0.045259733            2 
  791000    1.0950728   -5.7657621    419.90581  0.044237865  0.045252128            2 
  792000    1.1175902   -5.7696448    421.16168   0.04431415  0.045244652            7 
  793000    1.1046525   -5.7642268    422.90886  0.044441872  0.045236839            3 
  794000    1.1336636   -5.7740215    421.08708  0.044194698  0.045229166            3 
  795000    1.1343109   -5.8030377    421.23524  0.044154637  0.045220898            4 
  796000    1.1284013   -5.7849702      423.914  0.044379607  0.045213487            2 
  797000    1.1067168   -5.8024248    423.58006  0.044289007  0.045206066            2 
  798000    1.0964059   -5.7803678    423.67685  0.044243615  0.045198633            1 
  799000    1.1146162    -5.747973    425.85244  0.044415149  0.045191076            4 
  800000     1.135325   -5.7439939    425.01712  0.044272617  0.045183432            2 
  801000     1.118499   -5.8005987    424.64589  0.044178723  0.045175768            4 
  802000    1.1401881   -5.7839662    426.55432  0.044321937   0.04516776            3 
  803000    1.1281268   -5.8115131    424.82083  0.044086844   0.04515969            2 
  804000    1.1007576   -5.8340249     425.2368  0.044075124  0.045151264            4 
  805000    1.1165843   -5.7892724    426.41598  0.044142441  0.045142878            3 
  806000    1.1334851   -5.7598089    428.18053  0.044270112  0.045134886            4 
  807000     1.124049   -5.8389375    425.77817   0.04396718  0.045126254            2 
  808000    1.1154098   -5.7582289    429.16668   0.04426224  0.045118137            3 
  809000    1.0941198   -5.7693158    428.95585  0.044185811  0.045109827            6 
  810000    1.1180235   -5.7971947    429.93117  0.044231602  0.045102409            4 
  811000    1.0992468   -5.7810861    428.36178  0.044015801  0.045094814            2 
  812000    1.1344718   -5.8214709    429.43853  0.044072099  0.045087073            5 
  813000    1.1070669   -5.7684735    431.43821  0.044222859  0.045079306            5 
  814000    1.1271021    -5.757778    431.85353  0.044211049   0.04507154            2 
  815000     1.116869   -5.8099184    430.87462  0.044056709  0.045064591            2 
  816000    1.1103472   -5.7997712    432.22582  0.044140708  0.045056964            2 
  817000    1.1158103   -5.7468436    432.83218  0.044148529  0.045049476            3 
  818000    1.1231659   -5.7677026    433.09484  0.044121317  0.045042549            5 
  819000    1.1258919    -5.843405    432.18856   0.04397523  0.045034891            3 
  820000    1.1333103   -5.7838416    433.08534  0.044012738   0.04502662            8 
  821000    1.1182434   -5.7918558    435.16765  0.044170489  0.045018841            3 
  822000    1.1136622   -5.7805217     435.2189  0.044121949  0.045010603            2 
  823000    1.1217433   -5.7925322    435.00857   0.04404704  0.045002479            3 
  824000    1.1337957   -5.7875549    434.91435  0.043984057  0.044994563            2 
  825000    1.1152963   -5.7709668     436.2086  0.044061475  0.044986173            2 
  826000     1.106154   -5.7749012    437.73567  0.044162194  0.044978449            4 
  827000    1.1279917   -5.8202918    437.68594  0.044103782  0.044970689            3 
  828000     1.109173   -5.8320906    436.29548  0.043910575  0.044963096            5 
  829000    1.1384374   -5.8039169    437.18205  0.043946728  0.044955612            3 
  830000    1.1323097    -5.756317    440.21958  0.044198753  0.044947946            4 
  831000     1.132019   -5.8405233    437.83749  0.043906687  0.044940167            3 
  832000    1.1262712   -5.7862945     440.4315  0.044113732  0.044932458            3 
  833000    1.1356957   -5.8014208    439.86253  0.044003855  0.044924375            4 
  834000    1.1140922   -5.7624338    440.80657  0.044045421  0.044916376            5 
  835000    1.1257029   -5.8007368    440.59489  0.043971546  0.044909046            3 
  836000    1.1210473   -5.7770112    440.72866  0.043932282  0.044900768            5 
  837000    1.1025118   -5.8011519    441.41314  0.043947943  0.044892635            2 
  838000    1.1136086    -5.785273    442.44327  0.043997938  0.044884385            7 
  839000    1.1010312   -5.7995116    443.41577  0.044042091  0.044876509            2 
  840000    1.1341425   -5.7802475    443.61734  0.044009657  0.044868606            7 
  841000    1.1359627   -5.8028458    442.72765  0.043869168  0.044860668            2 
  842000    1.1102605   -5.8350069    442.75185  0.043819463   0.04485253            1 
  843000    1.1216215   -5.7964268    443.56058  0.043847428  0.044844937            3 
  844000    1.1153506   -5.7864486    444.94903  0.043932566  0.044837104            3 
  845000    1.1180028   -5.7594999    447.70314  0.044152184  0.044829927            3 
  846000    1.1196534   -5.8153632    443.96661  0.043731936  0.044822042            5 
  847000    1.1048977   -5.8241589    445.63276   0.04384423  0.044813706            3 
  848000     1.115265   -5.8061445    445.43996  0.043773581  0.044805703            2 
  849000    1.1364975   -5.8119456    447.08194   0.04388319  0.044797798            3 
  850000    1.1334101   -5.7840991    447.88782   0.04391057  0.044789966            2 
  851000    1.1152292     -5.79824    448.43229  0.043912289  0.044782232            6 
  852000    1.1204827   -5.7663801    449.61295  0.043976227   0.04477456            3 
  853000    1.1133983    -5.786059     450.6111  0.044022186  0.044766833            5 
  854000    1.1272355   -5.7542592    450.34673  0.043944841  0.044759465            3 
  855000    1.1227112   -5.7820191    450.66448  0.043924413  0.044751904            3 
  856000    1.1162325   -5.8080115    451.17267  0.043922573  0.044744322            4 
  857000    1.1089225    -5.804563     450.6294  0.043818494  0.044736359            5 
  858000     1.091856   -5.8124909    451.02266  0.043805619  0.044728219            4 
  859000    1.1127365   -5.7824012    450.39149  0.043693393  0.044720219            2 
  860000    1.1118969   -5.8189118    450.66464  0.043669054  0.044712143            8 
  861000    1.1397793   -5.8091717     452.1324  0.043760395  0.044703734            5 
  862000    1.0901784    -5.758358    452.79847  0.043774021  0.044695449            3 
  863000    1.1127091   -5.7946671    454.13677  0.043852527  0.044687743            2 
  864000    1.1219806   -5.7894526    454.28177  0.043815757  0.044679792            2 
  865000    1.1122688   -5.8072561    452.80506  0.043622838  0.044671429            7 
  866000    1.1104133   -5.7950104    454.11005  0.043698042  0.044662822            2 
  867000    1.1380232   -5.8107773    453.62353  0.043600877  0.044654644            2 
  868000    1.1187065     -5.81098    455.30262  0.043711849  0.044646306            4 
  869000    1.1317002   -5.8208442    454.07598  0.043543918  0.044638056            3 
  870000    1.1252299    -5.776576    457.74202  0.043845021  0.044629536            6 
  871000    1.0915073   -5.8002565    456.71571   0.04369649  0.044621218            2 
  872000    1.1191909   -5.8054889    456.11095  0.043588585   0.04461223            3 
  873000    1.1265613   -5.7922782    456.22159  0.043549217  0.044603669            4 
  874000    1.1144387   -5.8005374    457.83377  0.043653106  0.044595019            7 
  875000    1.1189014   -5.7891901    458.59456  0.043675673  0.044586672            3 
  876000    1.1222233   -5.8174201    457.87999  0.043557838   0.04457815            7 
  877000    1.1321152   -5.8333352     458.2291  0.043541343  0.044569063            4 
  878000    1.1199745   -5.7948809    460.50293  0.043707567  0.044560148            2 
  879000    1.0953324   -5.7988484     458.9798  0.043513444  0.044551608            6 
  880000    1.1392841   -5.7796605     460.9143  0.043647188  0.044543316            3 
  881000    1.1050607    -5.807402    460.95295    0.0436013  0.044534782            4 
  882000    1.1221257   -5.8007334    460.62177  0.043520575  0.044525825            6 
  883000    1.1012685   -5.7964797    459.83251  0.043396801  0.044517046            2 
  884000    1.1161886   -5.7732656    461.25588  0.043481889  0.044507841            3 
  885000    1.1225202   -5.8304943    460.05724   0.04331989   0.04449863            4 
  886000    1.1180614   -5.7927952    462.56491  0.043506858  0.044489655            3 
  887000    1.1077317   -5.7871255     462.2267  0.043426034  0.044480697            1 
  888000    1.0868317   -5.7622501    465.69414  0.043702528  0.044472628            2 
  889000    1.1027257   -5.8149455    464.00142  0.043494697  0.044463884            2 
  890000    1.1069069   -5.8111362    463.58165  0.043406522  0.044455158            4 
  891000    1.1199858   -5.7991571    464.49524  0.043443251  0.044446497            1 
  892000      1.13869   -5.8178793    464.93943  0.043436046  0.044437733            2 
  893000    1.0821004   -5.7989438    466.13123  0.043498622   0.04442868            1 
  894000    1.1024349   -5.8280908    464.89546  0.043334775  0.044419555            5 
  895000    1.1120145   -5.8065743    467.02452  0.043484592  0.044410916            3 
  896000    1.1321058    -5.804871     466.4158  0.043379445  0.044402157            1 
  897000    1.1014796   -5.7778646    467.76769  0.043456678  0.044393414            6 
  898000    1.1197068   -5.8153741    467.52014  0.043385314  0.044384502            4 
  899000    1.1019174   -5.8315466    468.22609  0.043402493  0.044375889            4 
  900000    1.0922442   -5.8141914    468.47393  0.043377215  0.044366887            3 
  901000    1.0959507   -5.8510648    468.24332  0.043307744  0.044357517            2 
  902000    1.1183274   -5.8519755    469.45704  0.043371863  0.044348221            3 
  903000    1.1102125   -5.8070668    469.52725  0.043330311  0.044338996            3 
  904000    1.1242012   -5.7839754    471.67737  0.043480583  0.044330122            4 
  905000     1.098447   -5.7794871    471.09813  0.043379201  0.044321479            3 
  906000     1.107991   -5.8049999     471.2525  0.043345521  0.044312913            2 
  907000    1.1149867   -5.8283559    471.38575  0.043309973  0.044303674            3 
  908000    1.1174128   -5.8332796    471.07039  0.043233333  0.044294019            2 
  909000    1.1125289   -5.7987311    471.05094  0.043183988  0.044284131            2 
  910000    1.1162362   -5.8203061     472.1471  0.043236914  0.044274159            4 
  911000    1.1280325   -5.7901715    472.39817   0.04321242  0.044264664            2 
  912000    1.1161679   -5.8299432    472.11799  0.043139436  0.044255192            3 
  913000    1.0984387   -5.8134929    473.47124  0.043215703  0.044245706            3 
  914000     1.126474   -5.8322348    474.74321  0.043284392   0.04423627            2 
  915000    1.1099893   -5.7981874    475.70264  0.043324466  0.044227432            3 
  916000    1.1023772   -5.8079678     476.3884  0.043339556  0.044218236            3 
  917000     1.116958    -5.781239    476.99003  0.043346967  0.044209262            4 
  918000    1.0898688   -5.8201958    475.52871  0.043167094  0.044200312            3 
  919000    1.0765675   -5.8244348    478.33284  0.043374396  0.044191151            2 
  920000    1.1183552   -5.8068381    476.82069   0.04319028   0.04418243            3 
  921000    1.0900649   -5.8267364    476.42094  0.043107215  0.044173273            2 
  922000    1.0956512   -5.8301757    478.05849  0.043208468  0.044164395            2 
  923000    1.1245379     -5.82301    477.50405  0.043111597  0.044155578            3 
  924000     1.135198    -5.819748    479.46596  0.043241879   0.04414738            3 
  925000     1.091652    -5.845229    479.42283  0.043191246  0.044138987            3 
  926000    1.1061186   -5.7731323    482.72532  0.043441803  0.044130777            2 
  927000    1.0886584   -5.8011871    481.71179  0.043303829  0.044122634            3 
  928000    1.0829714   -5.8124856    480.80801  0.043176006  0.044114077            2 
  929000    1.0914187   -5.8202097       480.66  0.043116254  0.044105659            3 
  930000    1.1310968   -5.8034902    482.09989  0.043198914  0.044096915            2 
  931000    1.0808973   -5.7943139    483.24367  0.043254894  0.044088453            3 
  932000    1.0954606   -5.7890816    483.49952  0.043231359  0.044080088            2 
  933000    1.0999291   -5.8027455    483.32899  0.043169792  0.044071662            3 
  934000    1.0896472   -5.8324303    481.56044  0.042965778  0.044062501            3 
  935000     1.125866   -5.8308591    482.88738  0.043038091   0.04405329            5 
  936000    1.1089981   -5.8303197    483.80424  0.043073739  0.044044024            3 
  937000    1.0925231   -5.8613112    484.59322  0.043097939  0.044035124            3 
  938000    1.0886261   -5.8434597     485.6713   0.04314777  0.044026337            6 
  939000    1.0981834   -5.8360822    486.89545  0.043210459  0.044017612            3 
  940000    1.1027535   -5.8009958    487.99948  0.043262366   0.04400964            3 
  941000    1.1123991   -5.8174114    487.95811  0.043212727  0.044001442            3 
  942000    1.1063784   -5.8321809    489.25532   0.04328161  0.043993711            1 
  943000    1.0845634   -5.8064009     488.9914  0.043212389  0.043985594            4 
  944000     1.065413   -5.8242013     490.3438  0.043285999   0.04397758            3 
  945000     1.104397   -5.8290584    488.47179  0.043075114  0.043970069            5 
  946000     1.077199   -5.8724122    488.96428  0.043072963  0.043962177            3 
  947000    1.1045971   -5.8635895    489.16537  0.043045175   0.04395407            3 
  948000    1.0944105   -5.8096847    491.80048  0.043231406  0.043945992            2 
  949000     1.109559   -5.8732878    488.73174   0.04291638  0.043937634            5 
  950000    1.0875321   -5.8233794    492.30222  0.043184405  0.043929569            5 
  951000    1.0925941   -5.8472483    493.80038  0.043270276  0.043922154            6 
  952000    1.1145789   -5.8405002    491.64269   0.04303595  0.043914075            6 
  953000    1.1041842   -5.8380285    493.08113  0.043116573   0.04390656            4 
  954000    1.1091377   -5.8341681    494.08672  0.043159217  0.043898823            2 
  955000    1.0769108   -5.8948758    492.82068   0.04300355  0.043891088            5 
  956000    1.1036915   -5.8357715    493.51835  0.043019382  0.043883518            2 
  957000    1.0964862   -5.8388685    495.94859  0.043186049  0.043876353            2 
  958000    1.0811955   -5.8052321    497.16144  0.043246472  0.043868944            5 
  959000    1.0968813   -5.8529043    496.19247  0.043117177  0.043861453            2 
  960000     1.097197   -5.8182332    496.35254  0.043086158  0.043853799            2 
  961000    1.0936095   -5.8056194     498.8495  0.043257848  0.043846456            2 
  962000    1.1058855   -5.8665628    497.18526  0.043068716  0.043839134            4 
  963000    1.0751213   -5.8368268    497.41522  0.043043892  0.043831335            3 
  964000    1.0699503   -5.8546903    499.44702  0.043174881  0.043823959            4 
  965000    1.0814707   -5.8090844      500.239  0.043198532  0.043816626            2 
  966000    1.1099531   -5.8147238    499.58109  0.043097058  0.043808951            8 
  967000    1.0796219   -5.8257688    500.40563  0.043123546  0.043801631            3 
  968000    1.0911034    -5.810802    500.35439  0.043074586  0.043794329            7 
  969000    1.0965343   -5.8514469    500.09448  0.043007781  0.043786867            2 
  970000    1.1031561   -5.8496165    501.76656  0.043107093  0.043779113            3 
  971000    1.0851298    -5.833411    501.59206  0.043047722  0.043771021            3 
  972000    1.1073362   -5.8473751    499.14884  0.042793967  0.043762766            5 
  973000    1.0951048    -5.875379    500.18088  0.042838376  0.043753982            5 
  974000    1.0742263   -5.8327809    503.92912  0.043115086  0.043746052            9 
  975000    1.0692177   -5.8618175     502.4154  0.042941487  0.043737417            1 
  976000    1.1090147    -5.848407    501.63432  0.042830799  0.043729037            3 
  977000    1.1049372   -5.8346177    501.16639  0.042747048  0.043720665            2 
  978000    1.0824435   -5.8467929    502.66674  0.042831181  0.043711818            2 
  979000    1.0778556    -5.823116    502.89547  0.042806901  0.043703344            3 
  980000    1.0976494   -5.8347519    504.47641  0.042897654  0.043695011            3 
  981000    1.0927814   -5.8668774    503.15847   0.04274197  0.043686467            3 
  982000    1.0748319   -5.8308143     506.6268   0.04299277  0.043678237            2 
  983000    1.0891237   -5.8241344    506.04843  0.042900003  0.043669602            2 
  984000    1.0937881   -5.8134561    505.74175  0.042830432  0.043660914            4 
  985000    1.0972563   -5.8858018    502.11108  0.042479787  0.043652204            2 
  986000     1.101075   -5.8284373     505.3691  0.042712061  0.043643121            6 
  987000    1.1039798   -5.8333312    507.88438  0.042881153  0.043634452            3 
  988000    1.1053919   -5.8649503    508.04326  0.042851152  0.043626366            8 
  989000    1.1077591   -5.8475505    508.85832  0.042876502     0.043618            5 
  990000    1.0973561   -5.8699993    507.71411  0.042736878  0.043609466            4 
  991000    1.0776262   -5.8650504    508.79988  0.042785056  0.043601207            3 
  992000    1.0700081   -5.8748536    507.02144  0.042592527  0.043592851            3 
  993000    1.1042449   -5.8830235    507.95272  0.042627788  0.043583958            5 
  994000    1.0957917   -5.8672874    508.53503  0.042633721  0.043575086            5 
  995000    1.0707657   -5.8492265    510.61748  0.042765283  0.043565917            3 
  996000    1.0902779    -5.857028    509.53099  0.042631441  0.043556922            3 
  997000    1.0918126    -5.852692    511.15474  0.042724402  0.043548136            2 
  998000    1.0924958    -5.871845     510.6033  0.042635546  0.043539403            2 
  999000    1.0575716   -5.8683398    510.24923  0.042563332   0.04353012            3 
 1000000    1.0962512   -5.8662503    511.32178  0.042610148  0.043521025            8 
 1001000    1.0716858   -5.8404887    512.43693  0.042660417  0.043512071            4 
 1002000    1.1027458   -5.8809398    511.38183  0.042530092  0.043503381            4 
 1003000    1.0630523   -5.8908608    510.89888  0.042447564  0.043494285            4 
 1004000    1.0969158   -5.8429525    511.59631  0.042463173   0.04348477            3 
 1005000    1.0843925   -5.8296725     514.3664  0.042650613   0.04347536            1 
 1006000    1.1208371   -5.8416643    515.15118  0.042673226  0.043466235            3 
 1007000    1.0853324    -5.870599    513.71593  0.042512076  0.043457061            2 
 1008000    1.0945494   -5.8795602    513.99432  0.042492917  0.043448068            3 
 1009000    1.0922566   -5.8254604     517.0485  0.042703048  0.043438944            5 
 1010000    1.0950996   -5.8832339    515.82289  0.042559644  0.043430073            5 
 1011000      1.08126   -5.8479051    516.13098  0.042542942  0.043421089            1 
 1012000    1.1172218   -5.8546417    515.89379  0.042481373  0.043411628            2 
 1013000    1.0870215   -5.8575273    516.45396  0.042485518  0.043402452            4 
 1014000    1.0635679   -5.8462331    517.51551  0.042530861  0.043393373            1 
 1015000    1.0735846   -5.8518251    516.97933  0.042444936  0.043384018            3 
 1016000    1.0849184    -5.846645    516.92298  0.042398539  0.043374882            3 
 1017000    1.1022236   -5.8509092    518.97608  0.042525081   0.04336591            4 
 1018000    1.1068002   -5.8689678    516.66466  0.042294095  0.043356211            6 
 1019000    1.0792164   -5.8577923    517.04305  0.042283534  0.043346376            3 
 1020000    1.0990735   -5.8579099    518.29302  0.042344201  0.043336814            5 
 1021000    1.0923372   -5.8745054    517.65838  0.042250928  0.043326886            3 
 1022000    1.0839993   -5.8117566    518.59808   0.04228621  0.043316833            6 
 1023000    1.0950837   -5.8283728    520.26213  0.042380428  0.043306984            3 
 1024000    1.0688493   -5.8348177     520.4742  0.042356299  0.043297269            2 
 1025000    1.0829997   -5.8840105    519.26126  0.042216362  0.043287976            3 
 1026000    1.0811445   -5.8304002    521.06601    0.0423218  0.043278483            4 
 1027000    1.0623736   -5.8828299     519.8118  0.042178822  0.043269125            2 
 1028000     1.092112   -5.8821252    522.59263  0.042363216   0.04325947            2 
 1029000    1.0846252   -5.8375116    524.25864  0.042456968  0.043250417            5 
 1030000    1.0770043     -5.83953     524.5386  0.042438398  0.043241727            3 
 1031000     1.093668   -5.8596536      526.195  0.042531118  0.043233339            2 
 1032000    1.0844064   -5.8770164    524.93444  0.042388117  0.043224766            2 
 1033000    1.0863788   -5.8593577    526.74891  0.042493458  0.043216242            3 
 1034000    1.0583666   -5.8690955    527.25364   0.04249304  0.043207901            6 
 1035000    1.0861944   -5.8808016    527.77542  0.042493995  0.043199914            5 
 1036000    1.0814533   -5.8228785    530.14583  0.042643648  0.043192257            6 
 1037000    1.0867731    -5.868613    528.51595  0.042471549  0.043184601            1 
 1038000    1.1049716   -5.9047355    527.99642  0.042388923  0.043177032            2 
 1039000    1.1007421   -5.8857919    530.85524  0.042577417  0.043169274            3 
 1040000    1.0844681   -5.8145481    532.53538  0.042671104  0.043161631            4 
 1041000    1.0848259   -5.8811345    531.25488  0.042527608  0.043154145            4 
 1042000    1.1027246   -5.8539662     531.8049  0.042530782  0.043146514            5 
 1043000     1.091804   -5.8666087    530.48722  0.042384725  0.043138594            2 
 1044000    1.1026948    -5.862239    531.42083  0.042418649   0.04313065            2 
 1045000    1.0746729   -5.8674593    532.30203  0.042448328  0.043122577            5 
 1046000    1.0782198   -5.8783047    531.71137  0.042360689  0.043114358            4 
 1047000    1.0712294   -5.8806907    531.53322  0.042306051  0.043105732            6 
 1048000    1.0689473   -5.8616191    532.78216  0.042364993  0.043097207            2 
 1049000    1.0963551   -5.8722522    531.26522  0.042204101  0.043088762            8 
 1050000    1.0731633   -5.8978423    530.89878  0.042134824   0.04307995            2 
 1051000     1.085156   -5.8858985    532.02975  0.042184408  0.043071194            3 
 1052000    1.0858919   -5.8512995    535.07674  0.042385674  0.043062697            4 
 1053000     1.081631   -5.8906573    532.73749  0.042160295  0.043054309            9 
 1054000    1.0871947   -5.8614595    537.54554  0.042500438  0.043045984            2 
 1055000    1.0869548   -5.8779194    535.60937  0.042307217  0.043037751            3 
 1056000    1.0740274   -5.9059899    536.18597  0.042312655  0.043029126            4 
 1057000      1.07199   -5.8622429    535.40383  0.042210961  0.043020829            4 
 1058000    1.0676645   -5.8521195    538.59713  0.042422584  0.043012882            1 
 1059000    1.0778915   -5.8840157    538.00719  0.042336102  0.043004754            1 
 1060000    1.0912973   -5.8548258    536.98975  0.042216175  0.042996563            3 
 1061000    1.0967358   -5.8522358    540.15276  0.042424816  0.042988372            5 
 1062000    1.1026673   -5.8730927    539.97602     0.042371  0.042980334            4 
 1063000     1.079856   -5.8768974     538.9277  0.042248957   0.04297173            1 
 1064000    1.0744915   -5.8198522    540.70633  0.042348553  0.042963089            2 
 1065000    1.0826616   -5.8453234    540.32567  0.042279004  0.042954563            2 
 1066000    1.0729077   -5.8627701     540.6668   0.04226601  0.042946198            3 
 1067000    1.0774963   -5.8808112     542.0359  0.042333326  0.042937716            4 
 1068000    1.0856095   -5.8998673    540.12408  0.042144513  0.042929646            5 
 1069000    1.0930193    -5.892253    540.64873  0.042145988  0.042921047            5 
 1070000     1.070962   -5.8539907     539.6274  0.042027056  0.042912617            2 
 1071000    1.0880892   -5.8840623    540.41976  0.042049468  0.042903926            3 
 1072000    1.0878359   -5.8239882    542.17898  0.042146998  0.042895444            6 
 1073000    1.0854252   -5.8757622    542.30739  0.042117691  0.042886895            2 
 1074000    1.0805402   -5.8921146    542.08378  0.042061125  0.042878222            4 
 1075000    1.0742736   -5.9114082    542.06615  0.042020632  0.042869402            3 
 1076000    1.0616071   -5.8742117    544.32803  0.042156756  0.042860638            5 
 1077000     1.092983   -5.8687356    543.22506   0.04203227  0.042851881            1 
 1078000     1.102817    -5.850924    543.33911  0.042002096  0.042842842            3 
 1079000    1.0790474   -5.9189475    542.29913  0.041882849  0.042833682            2 
 1080000    1.0588974   -5.8622495    543.30982  0.041922054  0.042824401            5 
 1081000    1.0661202   -5.8980832    546.21648  0.042107345  0.042815943            2 
 1082000    1.0860353    -5.883408    546.16923   0.04206479  0.042807106            2 
 1083000    1.0860094   -5.8666398    547.70462  0.042144092  0.042798316            3 
 1084000    1.0952492   -5.8533177    547.32373  0.042075933  0.042789569           12 
 1085000    1.1302292   -5.8315459    550.45873  0.042277936  0.042781116            2 
 1086000    1.0593809    -5.894174     546.1112  0.041905402  0.042772427            2 
 1087000    1.0757368   -5.8617252    547.27509  0.041956079  0.042763563            3 
 1088000    1.0578226   -5.8491128     548.2713  0.041993819   0.04275491            3 
 1089000    1.0798325   -5.9016468    547.05502  0.041862184  0.042746094            4 
 1090000    1.1074205   -5.8863822    546.59436   0.04178856  0.042737319            5 
 1091000    1.0743643   -5.8582424    550.39227   0.04204035   0.04272872            4 
 1092000    1.0792919   -5.8716415    549.30651  0.041918995  0.042720054            2 
 1093000    1.0577936   -5.8678372    550.39342  0.041963512  0.042711433            6 
 1094000    1.0739785   -5.9151451    548.79595   0.04180347  0.042702565            9 
 1095000    1.0822205   -5.8881036    550.15518  0.041868735  0.042693431            3 
 1096000     1.070486    -5.894104    549.04066  0.041745792  0.042684406            5 
 1097000    1.1005284   -5.8884465    550.21567  0.041796997  0.042675234            3 
 1098000    1.1023215     -5.88578    551.08143  0.041824638   0.04266614            5 
 1099000    1.0743766   -5.9161127    550.51931  0.041743957  0.042656968            5 
 1100000    1.0724936    -5.885456    552.54864  0.041859746  0.042647935           15 
 1101000    1.0667407   -5.8464802    555.49119  0.042044443  0.042638536            3 
 1102000    1.0875253   -5.8563616    553.73494  0.041873483  0.042629793            3 
 1103000    1.0878278   -5.8960903    554.37492  0.041883871  0.042620357           12 
 1104000    1.0755686   -5.9116526    553.39333   0.04177184  0.042610841            2 
 1105000    1.0620175   -5.9137981    551.45681  0.041587995   0.04260148            3 
 1106000    1.1043934   -5.8912426    553.75312  0.041723412  0.042591875            2 
 1107000    1.0632088   -5.9125831    552.00211  0.041553908  0.042582729            3 
 1108000    1.0824851   -5.8951274    554.47541  0.041702423  0.042573383            4 
 1109000    1.1025207    -5.869742    556.45696  0.041813718  0.042564342            6 
 1110000    1.0906477   -5.8868943    553.35557  0.041543211  0.042555107            5 
 1111000    1.0688223   -5.8757463    554.11664  0.041562904  0.042545574            2 
 1112000    1.0614693   -5.9136363    553.56052  0.041483852  0.042535895            4 
 1113000    1.0572377   -5.9065206    556.24687  0.041647714  0.042526652            5 
 1114000    1.0731685   -5.9141138    556.91718  0.041660471  0.042517223            4 
 1115000    1.0561275   -5.8970684    556.87508  0.041619961  0.042507911            5 
 1116000    1.0251854   -5.8894694    557.77572  0.041649919  0.042498505            4 
 1117000    1.0924465    -5.898993    559.42996  0.041736046  0.042488965            2 
 1118000    1.0679294   -5.8730564    559.19773  0.041681405  0.042480006            5 
 1119000    1.0737329   -5.8868633    558.95961  0.041626423  0.042470937            2 
 1120000    1.0713116    -5.906723     559.3951  0.041621659   0.04246153            8 
 1121000    1.0723773   -5.8847932    559.39536   0.04158455  0.042452408            2 
 1122000    1.0595923   -5.9064411    560.34598  0.041618091  0.042443429            4 
 1123000    1.0558489   -5.8907346    561.45183  0.041663092  0.042434241            2 
 1124000    1.0885081   -5.8507964    562.58962  0.041710381  0.042425217            4 
 1125000    1.0846564   -5.9531888    559.14297  0.041417998  0.042415987            3 
 1126000    1.0505751   -5.9344634    562.00623  0.041593119   0.04240644            5 
 1127000     1.072332   -5.9075806    563.11565  0.041638247  0.042397336            2 
 1128000    1.0726512   -5.9170024    561.77757   0.04150248  0.042388212            3 
 1129000    1.0918188   -5.8560609    563.16585  0.041568191  0.042379191            4 
 1130000    1.0898184   -5.8461777    564.75783  0.041648807  0.042370028            5 
 1131000    1.0803337   -5.8851724    563.58451  0.041525531  0.042360808            3 
 1132000    1.0630787   -5.8991008     563.5714  0.041487883  0.042351728            6 
 1133000    1.0818925   -5.9395945    563.67185  0.041458653  0.042342344            4 
 1134000     1.053155   -5.8577181    567.07131  0.041671907   0.04233328            7 
 1135000    1.0698805   -5.8432432    567.21868  0.041646011   0.04232421            4 
 1136000    1.0857258   -5.8861997    567.20873  0.041608622  0.042315315            6 
 1137000    1.1162758    -5.938555    563.08788      0.04127  0.042305785            3 
 1138000    1.0584347   -5.9111677    565.65304  0.041421576  0.042296086            2 
 1139000     1.080683   -5.8700994      567.134  0.041493562  0.042286719            5 
 1140000    1.0750599   -5.9012954    566.23913   0.04139175  0.042276951            2 
 1141000    1.0427136   -5.8974917    568.51809  0.041521917  0.042267513            3 
 1142000    1.0814441   -5.9215318     567.9845  0.041446621  0.042257844            6 
 1143000    1.0865507   -5.8636251    567.08099  0.041344487  0.042248403            3 
 1144000    1.0700855   -5.8728855    568.31815  0.041398466  0.042238909            6 
 1145000    1.0740131   -5.8928931     567.7619  0.041321826  0.042229139            3 
 1146000    1.0808034   -5.8909649    567.29178  0.041251584  0.042219348            4 
 1147000    1.0597106   -5.9246407    567.51619  0.041231923  0.042209429            5 
 1148000    1.0682502   -5.9439219    567.53598  0.041197444  0.042199082            3 
 1149000    1.0518813   -5.9041783      568.489  0.041230708  0.042188991            4 
 1150000    1.0811703   -5.9246075    568.81783  0.041218684  0.042179257            3 
 1151000     1.061918   -5.8739222    571.32149  0.041364139  0.042169515            2 
 1152000    1.0715482   -5.8878068    569.67755  0.041209314  0.042159761            4 
 1153000    1.0504935    -5.909754    570.96137  0.041266361  0.042149933            3 
 1154000    1.0853563   -5.8995456    571.96056  0.041302755  0.042140428            3 
 1155000    1.0754106   -5.9401591    571.72083  0.041249699  0.042130992            8 
 1156000    1.0879459   -5.8749053    573.02176  0.041307797  0.042121756            2 
 1157000     1.073755   -5.8864084    573.34494  0.041295371  0.042112006            7 
 1158000     1.066914   -5.9622147    571.75412   0.04114523  0.042102404            7 
 1159000    1.0717374   -5.9135974    575.03926  0.041345934  0.042092957            2 
 1160000    1.0624025   -5.8838069    574.75438  0.041289826  0.042083568            3 
 1161000    1.0722281   -5.9153323    573.55802   0.04116839  0.042074233            5 
 1162000    1.0737457   -5.8687662     576.0236  0.041309782  0.042064603            3 
 1163000    1.0727243   -5.8993809    576.81403  0.041330899  0.042055362            1 
 1164000    1.0550423   -5.8969194    575.56884  0.041206246  0.042046169            3 
 1165000    1.0561752   -5.9187058    576.24573  0.041219294  0.042036887            5 
 1166000    1.0731367   -5.9197158    577.50516  0.041273954  0.042027651            4 
 1167000    1.0516711   -5.8891557    578.20865  0.041288821  0.042018557            4 
 1168000    1.0729027   -5.9169401    578.40929  0.041267786  0.042009729            4 
 1169000    1.0770073   -5.9325944    580.60582  0.041389066  0.042001085            3 
 1170000     1.084425   -5.9204564    579.80214  0.041296449  0.041992513            5 
 1171000    1.0488173   -5.9298665    578.91443  0.041198009   0.04198378            6 
 1172000    1.0881586   -5.9206224    579.66506   0.04121623  0.041974818            2 
 1173000    1.0465222   -5.9529278     579.3124  0.041156038  0.041966019            5 
 1174000    1.0459979   -5.9080584    582.47608  0.041345548  0.041957042            8 
 1175000    1.0682213   -5.8974056    581.22982  0.041221973  0.041948093            2 
 1176000    1.0734496   -5.9036609    580.26587  0.041118614  0.041938807            3 
 1177000    1.0354146   -5.9535564    581.34599  0.041160152  0.041929564            3 
 1178000    1.0891898   -5.9094676     582.8807  0.041233779  0.041920424            4 
 1179000    1.0447858   -5.9097254    583.91676  0.041272036  0.041911091            5 
 1180000    1.0911431   -5.8811624    582.72695  0.041153033   0.04190206            3 
 1181000    1.0411506   -5.8805364    583.18889  0.041150782  0.041893005            7 
 1182000    1.0700986   -5.9030456     582.6265  0.041076318  0.041883598            7 
 1183000     1.051548   -5.9163652    582.84705  0.041057133  0.041874424            2 
 1184000    1.0664556   -5.9273042    580.42784  0.040852185  0.041865147            9 
 1185000    1.0394367   -5.8553297    584.32702  0.041091914  0.041855971            2 
 1186000    1.0780555    -5.917327    586.12196  0.041183387  0.041846859            2 
 1187000     1.063739   -5.9354834     585.6985  0.041118962   0.04183753            5 
 1188000    1.0710409   -5.9167973    584.57895  0.041005819  0.041828258            2 
 1189000    1.0738967    -5.898109    586.44644  0.041102217  0.041819242            4 
 1190000    1.0703789   -5.9214648    584.34754  0.040920696  0.041809712            3 
 1191000    1.0684474   -5.9324375    584.91204  0.040925836  0.041800073            5 
 1192000    1.0784433   -5.8833865    587.65862  0.041083516  0.041790803            2 
 1193000    1.0647514   -5.8642116    588.58077  0.041113493  0.041781702            5 
 1194000     1.081313   -5.9450714    585.61327  0.040871948  0.041772723            6 
 1195000    1.0455543   -5.9422258    586.84919  0.040923932  0.041763673            3 
 1196000    1.0463294   -5.9428959    589.10993  0.041047236  0.041754613            5 
 1197000    1.0469706   -5.8770411    588.42844    0.0409655   0.04174538            5 
 1198000    1.0645698   -5.9499982    588.64368  0.040946277  0.041736234            3 
 1199000     1.056514    -5.925539    588.37753  0.040893629  0.041727093            3 
 1200000    1.0820823   -5.8948356    588.96588  0.040900408  0.041717913            5 
 1201000    1.0304728     -5.91456    589.65427  0.040914118  0.041708605            5 
 1202000    1.0542334   -5.8554765    593.53628  0.041149215  0.041699557            3 
 1203000    1.0500157   -5.9209481    590.44047  0.040900559  0.041690428            1 
 1204000    1.0513745   -5.9104099    591.27052  0.040924039  0.041680994            3 
 1205000    1.0527337   -5.9237001    589.82369   0.04079002  0.041671383            2 
 1206000    1.0450755   -5.9202511    590.81091  0.040824413  0.041661849            3 
 1207000    1.0420217   -5.9384996    591.81656  0.040860022  0.041652401            2 
 1208000     1.062601   -5.9382251    591.82552  0.040826816  0.041642781            3 
 1209000    1.0704475   -5.9678932    590.12002  0.040675491  0.041632859            3 
 1210000     1.067822   -5.9109806    593.90161  0.040902314  0.041622836            8 
 1211000     1.045725   -5.9472284    590.50136  0.040634556  0.041612907            5 
 1212000    1.0315221   -5.9087886    593.43941  0.040803039  0.041603229            4 
 1213000    1.0667163    -5.887409    595.35307  0.040900871  0.041594004            2 
 1214000      1.04858    -5.935087    590.60963  0.040541573  0.041584173           11 
 1215000    1.0411192   -5.9650207    592.66422  0.040649124  0.041574207            4 
 1216000    1.0754758   -5.9129374    595.07798  0.040781112  0.041564289            2 
 1217000    1.0388184   -5.9442577     594.5897  0.040714167  0.041554689            3 
 1218000     1.057024   -5.9635012    593.07794  0.040577308  0.041544704            5 
 1219000    1.0766182   -5.8964417    596.30438  0.040764587  0.041535086            8 
 1220000     1.059237   -5.9216646    595.51213  0.040677058   0.04152543            5 
 1221000    1.0626384   -5.9420108    597.67366  0.040791268  0.041515831            3 
 1222000    1.0776041   -5.9049423    597.95127  0.040776818  0.041506152            4 
 1223000    1.0323413   -5.8993657    600.23356  0.040898989  0.041496836            6 
 1224000    1.0666419    -5.940228    597.69453   0.04069271   0.04148714            4 
 1225000    1.0689722   -5.9139968    597.58796  0.040652242  0.041477669            3 
 1226000    1.0614566   -5.9278418    599.83721  0.040771969   0.04146835            2 
 1227000    1.0421109   -5.9008372    599.65203  0.040726163  0.041459203            6 
 1228000    1.0569876   -5.9267974    600.03891  0.040719253  0.041450151            2 
 1229000    1.0491853   -5.9756392    598.56608  0.040586255  0.041441094            2 
 1230000    1.0378879   -5.9124385     602.7247  0.040835006  0.041431818            4 
 1231000    1.0490577   -5.9641521    599.36846  0.040574632  0.041422629            3 
 1232000    1.0404551   -5.9626897    601.22985  0.040667603  0.041413443            3 
 1233000    1.0408547    -5.967241     600.1308  0.040560341  0.041403892            9 
 1234000    1.0689804   -5.9188948     602.1781  0.040665728  0.041394623            2 
 1235000    1.0429982   -5.9590362    601.05783  0.040557208  0.041385441            4 
 1236000    1.0603917   -5.9169179    602.23605  0.040603833  0.041376117            3 
 1237000    1.0579691   -5.9569686    602.15145  0.040565309  0.041366925            3 
 1238000    1.0585213   -5.9299244    602.11718  0.040530236  0.041357783            7 
 1239000     1.066672   -5.9232591    604.64081  0.040667259  0.041348591            3 
 1240000    1.0555575   -5.9450917    603.17149  0.040535719  0.041339347            1 
 1241000    1.0642368   -5.9466019    604.84133  0.040615185  0.041329998            3 
 1242000    1.0547324   -5.9395737    605.38819  0.040619175  0.041320914            7 
 1243000     1.082621   -5.8815291    607.78308  0.040747056  0.041311965            3 
 1244000    1.0365539   -5.9593588    606.66464  0.040639378  0.041303155            8 
 1245000    1.0559012   -5.9281962     606.8411  0.040618547  0.041294018            2 
 1246000    1.0367418   -5.9613096    605.34801  0.040486089  0.041285293            8 
 1247000    1.0301802   -5.9621176    604.47912  0.040395557  0.041276198            4 
 1248000    1.0350911   -5.9234434    609.37707  0.040690243  0.041267057            2 
 1249000    1.0489291    -5.929972    608.16511  0.040576802  0.041258403            3 
 1250000    1.0683044    -5.911354     610.7202   0.04071468  0.041249735            3 
 1251000    1.0384803   -5.9462494    608.96107  0.040564952  0.041240931            4 
 1252000    1.0857789   -5.9094384    611.14812  0.040678123  0.041232274            4 
 1253000    1.0601776   -5.9273041     610.5001   0.04060256  0.041223666            4 
 1254000    1.0382672    -5.957996    609.57122  0.040508455  0.041215138            8 
 1255000     1.037439   -5.9272248    612.03977  0.040640091  0.041206499            4 
 1256000    1.0447488    -5.961877    611.44705  0.040568408  0.041197963            4 
 1257000    1.0597031      -5.9471    610.86363  0.040497456  0.041189376            5 
 1258000      1.07302   -5.9634336    611.34052  0.040496855  0.041180764            3 
 1259000    1.0569163   -5.9483788    612.84772  0.040564451  0.041172196            5 
 1260000     1.046137   -5.9575132    613.10202  0.040549075  0.041163537            3 
 1261000    1.0518624   -5.9172785    615.24317  0.040658417  0.041154725            2 
 1262000    1.0726752   -5.9291327    613.59911  0.040517638  0.041145944           10 
 1263000    1.0300848   -5.9240752    615.05431  0.040581572  0.041137192            1 
 1264000    1.0071454   -5.9668236    614.62993  0.040521488  0.041128253            2 
 1265000    1.0488844   -5.9534443    614.18131  0.040459902  0.041119497            5 
 1266000     1.049979   -5.9332086    615.94931   0.04054432  0.041110671            6 
 1267000    1.0646473   -5.9601307    614.52227  0.040418461  0.041102021            2 
 1268000    1.0598145   -5.9142224    616.43133  0.040512049  0.041093506            2 
 1269000    1.0330033   -5.9237412     617.3409  0.040539854   0.04108498            4 
 1270000    1.0560902   -5.8672683    618.07001  0.040555775  0.041076465            5 
 1271000    1.0198303   -5.9375786    617.47051   0.04048456  0.041068078            2 
 1272000    1.0769978   -5.9571149      617.957  0.040484604  0.041059375            5 
 1273000    1.0484754   -5.9276222    616.28015  0.040343032  0.041050669            3 
 1274000    1.0425914   -5.9831611    614.97283  0.040225852  0.041041676            5 
 1275000     1.052505    -5.973793    618.81736  0.040445579  0.041032928            5 
 1276000    1.0461756   -5.9581793    616.57651  0.040267536  0.041024178            5 
 1277000    1.0557987   -5.9297902    619.88378  0.040451826  0.041015339            3 
 1278000    1.0291758   -5.9802525     618.1103  0.040304532  0.041006446            5 
 1279000    1.0404372   -5.9244426    619.03301  0.040333139  0.040997454            4 
 1280000    1.0372431   -5.9419621    618.45392  0.040263927  0.040988677            2 
 1281000    1.0639604   -5.9219278    620.80623  0.040385521  0.040979656           11 
 1282000    1.0375397   -5.9409599    620.87404  0.040358427  0.040970744            2 
 1283000    1.0699648   -5.9545541    621.09806  0.040341521  0.040961697            2 
 1284000    1.0510358   -5.9638746    621.37918  0.040328348  0.040952773            3 
 1285000    1.0608541   -5.9416251    622.34673   0.04035971  0.040943822            3 
 1286000    1.0522576   -5.9443629    621.58843  0.040279188  0.040935108            9 
 1287000    1.0121422   -5.9361922    622.86089  0.040330283  0.040926286            3 
 1288000    1.0577361   -5.9234517    624.46196   0.04040256  0.040917653            5 
 1289000    1.0409641   -5.9752259    622.77527  0.040262171  0.040909081            4 
 1290000     1.063216   -5.9793077    624.53106  0.040344384  0.040900261            7 
 1291000    1.0369096   -5.9916642    621.66551  0.040128163  0.040891492            7 
 1292000    1.0386744   -5.9525752    625.20048  0.040325108   0.04088272            2 
 1293000    1.0230831   -5.9352818    626.17192   0.04035653  0.040874302            3 
 1294000    1.0451721   -5.9722875    624.76221  0.040234558  0.040865739            3 
 1295000      1.04664   -5.9177873    627.38924  0.040372538  0.040856974            4 
 1296000    1.0334559   -5.9478036    623.87072  0.040115144  0.040848361            3 
 1297000    1.0375644   -5.9649664     625.0719  0.040161392  0.040839643            4 
 1298000    1.0319679   -5.9748441    625.96459  0.040187763  0.040831056            4 
 1299000    1.0653812   -5.9634922    624.35337  0.040053462  0.040822091            1 
 1300000    1.0316642   -5.9199523    627.77674  0.040242099  0.040813484            2 
 1301000      1.05554   -5.9998319    625.30272  0.040052698   0.04080461            3 
 1302000    1.0514379   -5.9837832    628.16714   0.04020527  0.040795717            6 
 1303000    1.0369592   -5.9821667    627.20387  0.040112808  0.040786894            3 
 1304000    1.0413577     -5.97342    626.35362  0.040027711  0.040777911            4 
 1305000    1.0548918   -5.9870645    627.39256  0.040063382  0.040768877            3 
 1306000      1.02587   -5.9719182    627.79697   0.04005851  0.040759928            3 
 1307000    1.0528802   -5.9597422    629.14637  0.040113898    0.0407512            3 
 1308000    1.0416362   -5.9355056    631.29868  0.040220354  0.040742688            4 
 1309000     1.035411   -5.9809065    630.12985  0.040115218  0.040733761            7 
 1310000    1.0464928   -5.9860504    629.87395  0.040068317  0.040724712            4 
 1311000    1.0665431   -5.9529651    631.44916  0.040137882  0.040715828            5 
 1312000    1.0507725   -5.9566401     632.6812  0.040185544  0.040706914            2 
 1313000    1.0425718    -5.969908    628.43145  0.039885215  0.040697505            5 
 1314000     1.010413   -5.9865791    627.92452  0.039822712  0.040688156            2 
 1315000    1.0244577   -5.9343075    631.62341  0.040026832  0.040678833            2 
 1316000    1.0743994   -5.9809248    631.09755  0.039963117  0.040669471            5 
 1317000    1.0532712   -5.9689147    630.42735  0.039890366  0.040660416            4 
 1318000    1.0571047   -5.9601382    631.01937  0.039897532  0.040651054            3 
 1319000    1.0382985   -5.9575004    634.16229  0.040065851  0.040641662            3 
 1320000    1.0282353   -5.9529252    633.07726  0.039966999  0.040632407            3 
 1321000    1.0101467   -5.9739231    631.37767  0.039829528  0.040623033            2 
 1322000    1.0544377    -5.995196    632.55495   0.03987361  0.040614055            3 
 1323000    1.0548734   -5.9338378    635.33567  0.040018624   0.04060496            2 
 1324000    1.0573636   -5.9360947    634.88945  0.039960313  0.040595816            3 
 1325000    1.0565648    -5.969684    633.74725  0.039858318   0.04058692            3 
 1326000    1.0403568    -5.974972    633.49477  0.039812391  0.040577851            4 
 1327000    1.0368956   -5.9926952     635.6325  0.039916635  0.040568556            4 
 1328000    1.0143127   -5.9575139    635.55417  0.039881662  0.040559206            2 
 1329000    1.0168761   -5.9408689    634.43018  0.039781175  0.040549951            4 
 1330000    1.0367413   -5.9976455    633.55617  0.039696502  0.040540707            4 
 1331000    1.0365999   -5.9255998     638.7173  0.039989813  0.040531731            5 
 1332000    1.0327141   -5.9689328    637.10355  0.039858831   0.04052253            3 
 1333000    1.0371948   -5.9600663    636.78643  0.039809104  0.040513185            3 
 1334000    1.0068695   -6.0158065    636.68112  0.039772684  0.040503795            3 
 1335000    1.0239721   -5.9819882    635.44956  0.039666015  0.040494261            3 
 1336000    1.0073197   -5.9779529     639.3718  0.039880975  0.040484907            3 
 1337000     1.030322   -5.9953121    638.96617  0.039825864  0.040475599            3 
 1338000    1.0361034   -5.9017364    638.72837  0.039781289  0.040466152            2 
 1339000    1.0259088    -5.944152    638.69714  0.039749635  0.040456856            4 
 1340000    1.0443464   -5.9626106    639.74864  0.039785363  0.040447574            4 
 1341000    1.0365051   -5.9989319    638.49009  0.039677485  0.040437974            3 
 1342000    1.0139852   -5.9709609    638.62073  0.039656032  0.040428439            6 
 1343000    1.0266575   -5.9633521    639.55677  0.039684585  0.040418804            2 
 1344000    1.0380123   -5.9688871    640.13323  0.039690801  0.040409399            2 
 1345000    1.0244701   -5.9802304    639.30094  0.039609724  0.040399911            9 
 1346000    1.0339584   -5.9801438    639.81711  0.039612253  0.040390451            3 
 1347000    1.0529315   -5.9640777    640.16247  0.039604211  0.040381135            4 
 1348000    1.0279093   -5.9540615    642.23518  0.039702966  0.040371832            5 
 1349000    1.0419431   -5.9562561    641.66677  0.039638421  0.040362382            2 
 1350000    1.0160192   -5.9963904    640.03825  0.039508534  0.040352626            2 
 1351000    1.0275467    -5.977373    640.39483  0.039501285   0.04034296            2 
 1352000     1.062841   -5.9820092    643.47124  0.039661689  0.040333398            1 
 1353000    1.0161762   -6.0026747    643.11008   0.03961013  0.040323818            4 
 1354000    1.0135842   -5.9567369    642.25417  0.039528198  0.040314548            2 
 1355000    1.0368303   -6.0093351    640.73907  0.039405847  0.040304809            2 
 1356000    1.0403473   -5.9713892    643.13933  0.039524295  0.040295344            2 
 1357000    1.0310237   -5.9932356    644.00767  0.039548494  0.040285502            4 
 1358000     1.035094   -5.9590347    643.58485  0.039493425  0.040275869            5 
 1359000    1.0140914   -5.9919918    644.15886  0.039499562  0.040266463            4 
 1360000    1.0229848   -6.0027226    641.17231  0.039287519   0.04025698            3 
 1361000    1.0398113   -5.9574613    645.22172  0.039506596  0.040247364            7 
 1362000    1.0381287   -5.9782879    647.05879   0.03958999  0.040237867            3 
 1363000    1.0206994   -5.9892745     646.7509  0.039542119  0.040228487            6 
 1364000    1.0296193   -5.9498129    648.39154  0.039613364  0.040219085            7 
 1365000    1.0336624   -5.9943514    645.06802  0.039381442  0.040209791            2 
 1366000    1.0365933   -5.9852819      644.228  0.039301367   0.04020009            4 
 1367000    1.0272731    -5.967556      646.479  0.039409839  0.040190422            6 
 1368000    1.0512844   -5.9719875     646.6743  0.039392928  0.040180648            3 
 1369000    1.0122855   -5.9786475    646.46642  0.039351499  0.040170915            4 
 1370000    1.0434497   -5.9978786    647.96331  0.039413827  0.040160943            2 
 1371000    1.0300213   -5.9944992    647.08855  0.039331908  0.040151053            2 
 1372000    1.0444439   -5.9955802     647.0175  0.039298925  0.040141116            3 
 1373000    1.0536714   -6.0038304     647.2796   0.03928621  0.040131149            5 
 1374000    1.0600277   -6.0113416     647.8834  0.039294238  0.040121349            2 
 1375000    1.0291813   -5.9641913    651.97451  0.039513606  0.040111496            5 
 1376000    1.0165807   -5.9788962    650.61618  0.039402627  0.040101873            3 
 1377000     1.036069   -6.0157183    650.06003  0.039340355  0.040092396            2 
 1378000    1.0374133   -5.9964459    651.96605  0.039427071  0.040082833            4 
 1379000    1.0266238   -5.9854744    652.93849  0.039457245  0.040073473            3 
 1380000    1.0403648   -6.0306879    649.45429  0.039218254  0.040063777            3 
 1381000    1.0162549   -5.9932779    653.69033   0.03944547  0.040054201            4 
 1382000    1.0241848   -5.9788721    653.55937  0.039409031  0.040044798            7 
 1383000    1.0410917   -6.0332248    649.96666  0.039164055  0.040035477            6 
 1384000    1.0170362   -5.9914105    652.44824  0.039285178  0.040025915            4 
 1385000    1.0165881   -5.9941734    652.71532  0.039272883  0.040016323            4 
 1386000    1.0396723   -5.9546657    657.41654  0.039527209  0.040006868            5 
 1387000    1.0317757   -6.0126087    654.90603  0.039347875  0.039997448            7 
 1388000    1.0393415   -5.9957726    651.79785  0.039132916  0.039988014            4 
 1389000    1.0276951   -5.9971625    653.66358  0.039216677  0.039978362            4 
 1390000     1.032076   -5.9649898     656.9309  0.039384346  0.039968811            4 
 1391000    1.0270535   -5.9733103    656.15508  0.039309555   0.03995938            3 
 1392000    1.0221751    -5.983551    655.14012  0.039220553  0.039949932            3 
 1393000    1.0375834   -5.9861726    656.90289  0.039297852  0.039940489            4 
 1394000    1.0245374   -5.9856983    655.36032  0.039177446  0.039931209            5 
 1395000    1.0318768   -6.0200124    657.37106  0.039269478  0.039921751            2 
 1396000    1.0292691   -6.0048512    656.10697  0.039165889  0.039912268            4 
 1397000    1.0354211   -5.9742953    654.31999  0.039031257   0.03990285            3 
 1398000    1.0352139   -5.9853887    659.01714   0.03928333  0.039893495            3 
 1399000    1.0315642   -5.9939168    655.86816  0.039067677  0.039884054            3 
 1400000    1.0332804   -6.0284399    658.00606  0.039167027  0.039874545            5 
 1401000    1.0239111   -6.0043839    659.05581  0.039201511  0.039865105            2 
 1402000    1.0350964   -6.0263725    658.40521  0.039134879  0.039855633            2 
 1403000    1.0510378   -6.0135084    655.63203  0.038942268  0.039845919            4 
 1404000    1.0368506   -5.9856011    658.89847  0.039108409  0.039836367            2 
 1405000    1.0179928   -5.9685074    658.67369  0.039067241  0.039826777            6 
 1406000    1.0289897   -5.9785415    660.19036  0.039129348  0.039817328            5 
 1407000    1.0059627   -5.9972762    661.20889  0.039161863  0.039807669            2 
 1408000    1.0162455   -6.0056551    659.81721  0.039051682  0.039797898            3 
 1409000    1.0177227   -6.0413205    657.44695   0.03888378  0.039788127            6 
 1410000    1.0080857    -5.999023    661.88661  0.039118594  0.039778404            8 
 1411000    1.0351816   -5.9784348    663.48516   0.03918528  0.039768751            2 
 1412000    1.0278003    -5.992986    661.57499  0.039044794  0.039759309            5 
 1413000    1.0083085   -6.0350457     662.4222  0.039067127  0.039749904            3 
 1414000    1.0256413   -5.9861559    660.21083  0.038909172   0.03974043            4 
 1415000     1.008495   -6.0105792    663.52139  0.039076642   0.03973135            3 
 1416000    1.0180212   -6.0040478    663.79561  0.039065184  0.039722037            4 
 1417000    1.0183501   -5.9663725    667.33121  0.039245543  0.039712786            2 
 1418000    1.0319861   -6.0110271    663.18739  0.038974341  0.039703401            3 
 1419000    1.0503692   -5.9958201    665.21768  0.039066108  0.039694046            2 
 1420000    1.0094808   -6.0243786    663.88035  0.038960114  0.039684371           10 
 1421000    1.0267655   -6.0228165    663.25362  0.038895943  0.039674919            4 
 1422000    1.0222597   -5.9902675    666.29345  0.039046733  0.039665426            3 
 1423000    1.0266334   -5.9631289    666.03541  0.039004182  0.039656213            4 
 1424000    1.0198231   -6.0152008    664.57345  0.038891237  0.039646889            1 
 1425000    1.0275571    -5.989963    666.04402  0.038949943  0.039637626            4 
 1426000    1.0200002   -6.0390344    664.72358  0.038845464  0.039628262            5 
 1427000    1.0050163   -6.0173887    664.47563  0.038803763  0.039618862            2 
 1428000    1.0550767   -5.9895394    667.80402  0.038970823  0.039609262            3 
 1429000    1.0318011   -6.0201661    665.15858  0.038789281  0.039599719            6 
 1430000    1.0186173   -5.9928712    667.61467  0.038905284  0.039590359            3 
 1431000    1.0179079   -6.0309924    666.82406  0.038832055  0.039580999            4 
 1432000    1.0298829   -5.9633631    669.40265  0.038954996  0.039571595            4 
 1433000    1.0348407   -6.0027645    669.06022  0.038907899  0.039562299            3 
 1434000    1.0038003   -6.0364191     667.9164  0.038814296  0.039552916            6 
 1435000    1.0297153   -6.0106737    670.09463  0.038913741  0.039543412            3 
 1436000      1.04118   -5.9563496    670.38022  0.038903216  0.039534044            2 
 1437000    1.0423474   -5.9935245    669.76337  0.038840372  0.039524798            2 
 1438000    1.0263768   -5.9988485    670.25583    0.0388419  0.039515603            4 
 1439000     1.015732   -6.0269318    670.42872   0.03882492  0.039506138            6 
 1440000     1.006627   -6.0083552    671.67687  0.038870189  0.039496796            4 
 1441000    1.0178078   -6.0288014    670.37861  0.038768136  0.039487321            3 
 1442000    1.0093561    -5.992978    672.89716  0.038886798  0.039477927            5 
 1443000    1.0078098   -5.9946355     670.8369   0.03874087  0.039468384            3 
 1444000    1.0334156   -6.0320712    670.21146  0.038677947  0.039458737            8 
 1445000    1.0616901   -6.0172614    670.24779  0.038653275  0.039448813            3 
 1446000    1.0267861    -6.050982    668.80931  0.038543644  0.039439024            2 
 1447000    1.0409549   -6.0016318     673.8402  0.038806738  0.039429223            3 
 1448000    1.0284285   -6.0109961    670.73598  0.038601288  0.039419521            3 
 1449000    1.0267418   -6.0453994    671.86852  0.038639782  0.039409734            3 
 1450000    1.0165883     -6.03947    672.31934  0.038639042  0.039399841            3 
 1451000    1.0239942   -6.0064208    672.94217  0.038648183  0.039390191            3 
 1452000    1.0202927   -6.0111039    673.10935  0.038631161  0.039380641            4 
 1453000    1.0213451    -6.017842    674.92501  0.038708706  0.039371001            3 
 1454000    1.0400018   -6.0073376    675.80577  0.038732563  0.039361493            3 
 1455000    1.0096572   -6.0073216    675.68068  0.038698779   0.03935185            3 
 1456000    1.0176976   -5.9895096    677.56846  0.038780246  0.039342128            2 
 1457000    1.0163344   -6.0097105    677.56344  0.038753343  0.039332794            2 
 1458000    1.0614262   -5.9851754    678.62944  0.038787691  0.039323463            6 
 1459000   0.99219607   -6.0238249    676.56611  0.038643255  0.039314281            3 
 1460000    0.9888098   -6.0174087    678.53561  0.038729201  0.039304924            7 
 1461000    1.0163666   -5.9927723    678.99822   0.03872908  0.039295471            3 
 1462000    1.0316555   -6.0224099    680.01782  0.038760706  0.039286171            5 
 1463000   0.99604323   -6.0481874    676.38471  0.038527267  0.039276784            3 
 1464000    1.0093704   -6.0324773    676.37923  0.038500639  0.039267036            3 
 1465000     1.026745   -6.0541785    678.66644  0.038604462  0.039257348            3 
 1466000   0.99682891   -6.0108307    678.25256  0.038554602  0.039247679            3 
 1467000     1.015128   -6.0350321    679.41896  0.038594578  0.039238274            5 
 1468000    1.0208145   -6.0398096    678.81729  0.038534133  0.039228828            3 
 1469000   0.99800917   -6.0355977    681.23849  0.038645251  0.039219346            8 
 1470000    1.0259159   -6.0619625    680.82758  0.038595668  0.039209931            4 
 1471000    1.0180695   -6.0439844    681.05457  0.038582289  0.039200669            6 
 1472000    1.0303168   -6.0240567      681.298   0.03856986   0.03919125            3 
 1473000     1.003682   -5.9984657    683.40541    0.0386629  0.039182127            8 
 1474000    1.0126507   -6.0552585    681.12764  0.038507895  0.039172824            2 
 1475000    1.0148413   -6.0303622    681.07176   0.03847863  0.039163582            2 
 1476000    1.0214051   -6.0374606    683.61943    0.0385964  0.039154092            3 
 1477000     1.018069   -6.0338366    680.87235  0.038415276  0.039144634           11 
 1478000    1.0061888   -6.0379995    682.42973  0.038477093  0.039135125            3 
 1479000    1.0089802   -6.0173786    682.53287  0.038456889   0.03912576            7 
 1480000     1.031682   -6.0225544    683.36115  0.038477542  0.039116039            2 
 1481000    1.0283053   -6.0157385    683.94975  0.038484681  0.039106529            5 
 1482000    1.0084108    -6.028203    683.40151  0.038427885  0.039096937            3 
 1483000    1.0343165   -6.0292987    683.14878  0.038387771  0.039087454            6 
 1484000    1.0267398   -6.0004446    684.22069  0.038422096  0.039077973            2 
 1485000    1.0152336    -6.011414    683.68419  0.038366116    0.0390684            2 
 1486000    1.0219229   -5.9999208    684.21152   0.03836987  0.039058797            4 
 1487000    1.0188699   -6.0343275    685.29941  0.038405033  0.039049249            6 
 1488000    1.0132005   -6.0256356    685.27935    0.0383781  0.039039834            6 
 1489000    1.0194854   -6.0332987    686.45356  0.038418041  0.039030523            2 
 1490000    1.0085866   -6.0232656    686.79574  0.038411395  0.039020963            5 
 1491000    1.0057235   -6.0546806    684.81575  0.038274969  0.039011416            4 
 1492000    1.0477477   -6.0427966    686.58963  0.038348393  0.039001798            3 
 1493000    1.0274369   -6.0195305    685.36425  0.038254312  0.038992089            2 
 1494000    1.0344303    -6.065953    687.04546  0.038322482  0.038982354            1 
 1495000     1.018037   -6.0509429    686.14317  0.038246553   0.03897277            3 
 1496000    1.0238087   -6.0136986    689.06124  0.038383536  0.038963247            3 
 1497000    1.0018496   -6.0303926    691.23944  0.038479149    0.0389539            6 
 1498000      1.02082   -6.0726073    687.14914   0.03822592  0.038944431            4 
 1499000    1.0467413   -6.0365193    689.28742  0.038319292  0.038934917            3 
 1500000    1.0017699    -6.047356     689.2077  0.038289316  0.038925735            2 
 1501000       1.0233   -6.0445052    689.13993  0.038260045  0.038916413            5 
 1502000    1.0120266   -6.0192171    689.58453  0.038259239  0.038907033            5 
 1503000   0.99011929   -6.0113281     691.4492   0.03833717  0.038897675            8 
 1504000   0.99279432   -6.0533327    687.75381  0.038106926  0.038888153            5 
 1505000    1.0152077   -6.0419976    691.19326  0.038272052  0.038878655            4 
 1506000    1.0109416    -6.057912    689.66551  0.038162102  0.038869273            8 
 1507000    1.0005512    -6.043155    690.57246  0.038186931  0.038859942            6 
 1508000    1.0212455   -6.0608205    690.98169  0.038184222  0.038850426            8 
 1509000    1.0277266   -6.0334918    691.48383  0.038186649  0.038840776            5 
 1510000    1.0091341   -6.0733733     691.8552  0.038181854  0.038831178            3 
 1511000    1.0152174   -6.0429344    693.12948  0.038226863   0.03882151            4 
 1512000    1.0152241   -6.0425826    692.01135  0.038139956  0.038811907            3 
 1513000    1.0180782   -6.0357711    693.79168  0.038212804  0.038802324            6 
 1514000    1.0149793   -6.0441067     692.4717  0.038114911  0.038792895            4 
 1515000    1.0101531    -6.039977    691.49527  0.038036043  0.038783341            4 
 1516000    1.0329398   -6.0583546    692.74626   0.03807972  0.038774067            3 
 1517000   0.99685296   -5.9812193    695.85639  0.038225466   0.03876494            6 
 1518000    1.0145979    -6.026791    695.67511  0.038190333  0.038755726            3 
 1519000    1.0024108   -6.0248486    695.09335  0.038133276  0.038746272            4 
 1520000    1.0140801   -6.0624586    695.70012  0.038141454  0.038736972            4 
 1521000    1.0010291    -6.060159    696.60757  0.038166095  0.038727683            3 
 1522000    1.0032756   -6.0252652    695.44188  0.038077195  0.038718431            3 
 1523000    1.0311057   -6.0625066    695.47008  0.038053736  0.038709137            4 
 1524000   0.98237949   -6.0318282    700.25089  0.038290184  0.038699911            3 
 1525000    1.0109892   -6.0482858    699.99465  0.038251074  0.038690671            2 
 1526000    1.0193633    -6.035552    698.56562   0.03814797  0.038681613            4 
 1527000    1.0006926   -6.0326356    698.32444  0.038109825  0.038672538            2 
 1528000   0.99900787   -6.0229521    697.33485  0.038030914  0.038663365            2 
 1529000    1.0178472   -6.0885543    697.20983  0.037999228  0.038654222            4 
 1530000     1.007386   -6.0300231    697.03775  0.037965019  0.038644914            4 
 1531000   0.98718261   -6.0185016    700.21857  0.038113356   0.03863542            4 
 1532000      1.01931   -6.0292444    700.74699  0.038117221  0.038626044            3 
 1533000    1.0290214   -6.0657118    696.44734  0.037858629  0.038616481            5 
 1534000    1.0071385   -6.0508689    700.54609  0.038056611  0.038607122            5 
 1535000    1.0030852   -6.0325956    701.33227  0.038074499  0.038597576            4 
 1536000    1.0105887    -6.049267    702.06452  0.038089438  0.038588339            5 
 1537000    1.0124441   -6.0728326    701.38669  0.038027906  0.038579125            3 
 1538000   0.99246247   -6.0294487      702.547  0.038066049  0.038570169            2 
 1539000    1.0096016   -6.0274798    701.40243  0.037979339  0.038561137            3 
 1540000    1.0040912   -6.0482277    701.20258  0.037943862  0.038551935            5 
 1541000    1.0039683   -6.0569159    701.86992  0.037955328  0.038542601            5 
 1542000    1.0170686   -6.0228135    704.87376  0.038093048  0.038533412            6 
 1543000    1.0139763   -6.0572278    701.39475  0.037880468  0.038524247            3 
 1544000    1.0317136   -6.0920745    703.22665  0.037954806  0.038515227            7 
 1545000   0.99255338   -6.0543313     703.0326  0.037919774  0.038506011            2 
 1546000    1.0316129   -6.0431097    705.26387  0.038015517   0.03849693            9 
 1547000   0.98076519   -6.0373682    706.52555  0.038058907  0.038487946            7 
 1548000    1.0042283   -6.0596841    705.56542  0.037982635  0.038479052            2 
 1549000    1.0192916   -6.0533562    706.87566  0.038028602  0.038470075            3 
 1550000    1.0061812   -6.0610406    706.90146  0.038005455  0.038461235            4 
 1551000    1.0030336   -6.0684735    705.06255  0.037882149  0.038452464            6 
 1552000    0.9886878   -6.0350992    707.07544   0.03796582   0.03844351            3 
 1553000   0.99487483   -6.0314321    709.23231   0.03805711  0.038434711            7 
 1554000   0.99595552   -6.0559991    707.54563  0.037942172  0.038426006            2 
 1555000   0.99132859   -6.0482062    706.17839  0.037844501  0.038417146            3 
 1556000    1.0226218   -6.0496329     707.9984  0.037917652  0.038408101            2 
 1557000    1.0136945    -6.084254    707.59131  0.037871511  0.038399228            9 
 1558000    1.0025972   -6.0789959    708.25771  0.037882847  0.038390387            4 
 1559000    1.0052077   -6.0643002    707.90348  0.037839613  0.038381368            5 
 1560000    1.0210778   -6.0273936     710.2037  0.037938232  0.038372445            4 
 1561000    1.0052183   -6.0958283     707.4722  0.037768108   0.03836372            5 
 1562000    1.0203265   -6.1060794    707.71443  0.037756852  0.038354607            2 
 1563000     1.002531   -6.0534298    709.85861  0.037847015  0.038345651            2 
 1564000    1.0206399   -5.9983159    713.78034  0.038031774  0.038336889            4 
 1565000     1.001971   -6.0602425    710.74255  0.037845716   0.03832797            4 
 1566000    1.0144724   -6.0692674    710.72866   0.03782081  0.038318986            4 
 1567000   0.98113392   -6.0903102    711.01392  0.037811844  0.038310116            4 
 1568000    1.0074236   -6.0395583    711.19144  0.037797164  0.038300891            4 
 1569000   0.99082201   -6.0698077     709.3305  0.037674235  0.038291659            8 
 1570000    1.0150548    -6.070165    710.56348  0.037715683  0.038282626            4 
 1571000    1.0060325    -6.079783    711.68023  0.037750914  0.038273575            8 
 1572000    1.0152722   -6.0860938    711.58396  0.037721796  0.038264397            4 
 1573000   0.99932659   -6.0246748     714.9836  0.037877919  0.038255376            3 
 1574000   0.98735389   -6.0968548    711.38427  0.037663293  0.038246416           12 
 1575000    1.0131887   -6.0677975    712.53033  0.037700017  0.038237333            4 
 1576000    1.0173145   -6.0613204    712.28625   0.03766319  0.038228296            2 
 1577000    1.0111678    -6.084435    711.88289  0.037617992  0.038219179            2 
 1578000   0.96353019   -6.0775861    713.66766  0.037688406   0.03820997            4 
 1579000   0.99275103   -6.0799218    714.24525  0.037695021  0.038200899            4 
 1580000   0.99481184   -6.0638941    715.55829  0.037740416  0.038191942            5 
 1581000    1.0007386   -6.0941825    715.48055  0.037712448  0.038182871            5 
 1582000    1.0065508   -6.0337569    715.54604  0.037692058    0.0381739            7 
 1583000   0.98353399   -6.0521747    718.42158  0.037819624  0.038165118            7 
 1584000    1.0197985    -6.060977    717.62767  0.037753981  0.038156206            3 
 1585000    1.0008751   -6.0465386    715.75315  0.037631606  0.038147395            5 
 1586000   0.99502097    -6.050926    716.40014  0.037641874  0.038138634            2 
 1587000    1.0227161   -6.1023845    713.86486  0.037485027    0.0381296            4 
 1588000   0.99460604   -6.0645277    717.35955  0.037644813  0.038120401            3 
 1589000    1.0070968   -6.0655956    717.82898   0.03764574  0.038111409            1 
 1590000   0.98524863    -6.068604    718.44442   0.03765432  0.038102349            2 
 1591000   0.98664717   -6.0419265    717.72826  0.037593142  0.038093336            2 
 1592000    1.0097312   -6.0501286    719.25811  0.037649608  0.038084514            3 
 1593000     1.013085   -6.0747864    718.95865  0.037610308  0.038075598            4 
 1594000   0.99576234   -6.0633047    719.02611   0.03759024  0.038066585            4 
 1595000   0.99760204     -6.07044    718.85912  0.037557948  0.038057648            3 
 1596000    1.0024166   -6.0477238    722.21852  0.037709822  0.038048857            3 
 1597000    1.0062871   -6.0693767      719.721  0.037555886  0.038039938            6 
 1598000    1.0103009   -6.0641673    722.14603  0.037658846   0.03803114            2 
 1599000    1.0168317   -6.0742236    721.78234   0.03761634  0.038022239            5 
 1600000   0.99292475   -6.0484357    722.60646  0.037635753  0.038013352            3 
 1601000    1.0128169   -6.0646492    721.57022  0.037558308  0.038004617            3 
 1602000   0.98249192   -6.0378709     721.9594  0.037555108  0.037995982            6 
 1603000   0.99573565   -6.0726704    721.09848  0.037486924  0.037987319            5 
 1604000    1.0020139   -6.0853461    721.90021  0.037505206  0.037978535            3 
 1605000   0.95586024   -6.0877672    722.40707  0.037508155  0.037969684            3 
 1606000   0.99355662   -6.0774562    724.13695  0.037574561  0.037960882            8 
 1607000   0.99495284   -6.0743604    725.01975  0.037596958  0.037952041            3 
 1608000    1.0188565    -6.103002    723.05208  0.037471605  0.037943232            6 
 1609000    1.0062279   -6.0990304    722.32626  0.037410724  0.037934196            6 
 1610000    0.9956696   -6.0778296    723.98416    0.0374733  0.037925303            4 
 1611000   0.99472092   -6.0553802    724.39475  0.037471278  0.037916553            3 
 1612000    1.0195062   -6.0703019    723.97731  0.037426453  0.037907639            4 
 1613000    1.0004637   -6.0679823    725.18936  0.037465869  0.037898784            3 
 1614000   0.99973848   -6.1250685    723.15054  0.037337389  0.037889741            2 
 1615000    1.0215111   -6.0565825    724.63219  0.037390722  0.037880749            4 
 1616000   0.99089363   -6.0491765    725.19444  0.037396578   0.03787195           10 
 1617000   0.98763382   -6.0615724    729.12634  0.037576084  0.037863016            4 
 1618000    0.9899865   -6.1019839    725.38701   0.03736027  0.037853997            5 
 1619000    1.0124295   -6.1102221    725.80645  0.037358784  0.037844952           11 
 1620000   0.98457736   -6.0348878    727.39752  0.037417568  0.037835922            2 
 1621000    0.9911425   -6.0794678     726.6573  0.037356431  0.037827204            2 
 1622000   0.99460084   -6.0993746    725.44916  0.037271329  0.037818189            4 
 1623000    1.0090315   -6.0848024    726.81899  0.037318699   0.03780919            5 
 1624000   0.99840065    -6.059162     728.8486  0.037399867  0.037800474            3 
 1625000    1.0095033   -6.0873043    726.40551  0.037251564  0.037791645            3 
 1626000   0.98825903   -6.0685326    727.21137  0.037269955  0.037782723            6 
 1627000   0.99266701   -6.0646763    726.21914  0.037196227  0.037773881            7 
 1628000    1.0200392   -6.0825851    729.45581  0.037339057  0.037764971            5 
 1629000   0.99241839   -6.0810979    729.91558  0.037339655  0.037755905            5 
 1630000   0.98370451   -6.0618574    731.46924  0.037396178  0.037746721            7 
 1631000   0.99025421   -6.0658259    731.12996  0.037355915  0.037737882            5 
 1632000   0.99674102   -6.0825984    732.53121  0.037404576  0.037728823            3 
 1633000   0.99025398   -6.0634166    729.15948  0.037209608  0.037719983            4 
 1634000   0.98698278   -6.0561445    729.19954  0.037188879  0.037710884            3 
 1635000    0.9919487    -6.089638    728.34313  0.037122484  0.037701934            4 
 1636000   0.98888013   -6.0452162    731.62054  0.037266735  0.037693253            5 
 1637000   0.97363991    -6.121583    733.12312   0.03732046  0.037684345            2 
 1638000   0.97622218   -6.0875676    731.19636  0.037199652   0.03767533            3 
 1639000   0.99791478   -6.1348178    730.44535  0.037138771   0.03766653            4 
 1640000   0.96333574   -6.0710785     735.1464     0.037355  0.037657656            2 
 1641000   0.97418669   -6.0595769    733.69581  0.037258572  0.037648822            3 
 1642000   0.99008053   -6.0557039    733.75323  0.037238796  0.037639947            4 
 1643000   0.97619827    -6.075445    730.01839  0.037026699  0.037631153            3 
 1644000    0.9729267    -6.063427    733.78638  0.037195174  0.037622417            5 
 1645000   0.99794365   -6.0776891    733.77015   0.03717174  0.037613671            6 
 1646000   0.98439185   -6.0563917    734.48637  0.037185418  0.037604706            6 
 1647000    0.9921532    -6.069416    734.71818  0.037174569  0.037595593            3 
 1648000   0.98245954   -6.1150351    732.23441  0.037026416  0.037586404            4 
 1649000   0.99608991   -6.0885313    734.79101  0.037133162  0.037577199            2 
 1650000    1.0091712   -6.0864061    732.57534  0.036998754  0.037568116            6 
 1651000    0.9941059   -6.1134633    732.74483    0.0369849  0.037558779            3 
 1652000    0.9810368   -6.1077895    733.83981  0.037017746  0.037549449            5 
 1653000   0.99399219   -6.0939023     737.2894  0.037169258  0.037540426            4 
 1654000   0.99891962    -6.094679    735.73898  0.037068671   0.03753149            3 
 1655000   0.99275966   -6.0717974    738.54763  0.037187695  0.037522668            4 
 1656000   0.97358006   -6.0851733    735.29781  0.037001701  0.037513961            5 
 1657000   0.96917862   -6.1081481    735.57271  0.036993196  0.037505073            4 
 1658000      1.00189   -6.0955402    739.49157  0.037167851  0.037496173            4 
 1659000   0.99144032   -6.0711418    739.60944  0.037151368  0.037487381            4 
 1660000   0.98499042   -6.1292104    738.75024  0.037085855  0.037478616            3 
 1661000    1.0007882   -6.0780371    736.73117   0.03696223  0.037469896            3 
 1662000    0.9697586    -6.104317    737.81192   0.03699418   0.03746093            8 
 1663000   0.97639862   -6.0968358    741.74973  0.037169259  0.037452187            5 
 1664000   0.97190715   -6.0484481    742.69464  0.037194243  0.037443473            4 
 1665000   0.97786754   -6.1265898    737.41253  0.036907534  0.037434853            4 
 1666000   0.97805827   -6.0896775    739.79536   0.03700457  0.037426145            2 
 1667000    0.9839058   -6.0604131    742.77375  0.037131261  0.037417566            3 
 1668000   0.99467517   -6.1027823    740.67774  0.037004284  0.037408838            4 
 1669000   0.99093036   -6.1070367    739.39398  0.036918014  0.037400145            9 
 1670000   0.98188691   -6.0816046    743.14584  0.037083126  0.037391369            2 
 1671000   0.97006258   -6.1135362    740.10429  0.036909251  0.037382575            7 
 1672000   0.97143382   -6.1033984    743.52529   0.03705768  0.037373913            3 
 1673000   0.98521911   -6.1305683    742.21617  0.036970322  0.037365147            2 
 1674000   0.97389632   -6.1172459    741.21614  0.036898454  0.037356266            5 
 1675000   0.97239794   -6.1128768    742.62357  0.036946446  0.037347264            6 
 1676000   0.98216448   -6.1198996    743.43813  0.036964903   0.03733832            5 
 1677000    1.0043737   -6.1170099    744.16601   0.03697903  0.037329489            3 
 1678000     1.001118   -6.1098648    742.14857  0.036856802  0.037320546            7 
 1679000   0.98172118   -6.0842701    743.29267  0.036891635  0.037311768            4 
 1680000    1.0032229   -6.0875883    743.96969  0.036903259  0.037302917            9 
 1681000   0.95804821   -6.1361184    744.17202  0.036891335  0.037293971            7 
 1682000   0.98201899   -6.0694321    744.79731  0.036900382  0.037285193            3 
 1683000    0.9860342   -6.1052611    743.19873  0.036799303  0.037276443            6 
 1684000   0.97664289   -6.0630901     748.8838  0.037058779  0.037267851            3 
 1685000   0.98333307   -6.0792947    747.69043  0.036977766  0.037259136            3 
 1686000   0.98378412   -6.1125885    747.01219  0.036922311  0.037250716            4 
 1687000    1.0118484   -6.0789255    748.09822  0.036954071  0.037242089            4 
 1688000   0.97980642   -6.1429538    745.28329  0.036793211  0.037233305            7 
 1689000   0.93941895   -6.0790931    744.98819  0.036756867   0.03722447            5 
 1690000   0.96708068   -6.0742122       749.35  0.036950197  0.037215848            6 
 1691000   0.97494255   -6.0920244    747.13526  0.036819203   0.03720709            3 
 1692000   0.95616317   -6.1138145    744.92205  0.036688438  0.037198168            4 
 1693000   0.99048792    -6.066931    749.13775  0.036874274  0.037189418            3 
 1694000   0.95593488   -6.0791815    747.95984  0.036794561   0.03718068            4 
 1695000    0.9803619    -6.085316    745.34938  0.036644512  0.037171689            1 
 1696000   0.99790328   -6.0864005    749.57705  0.036830633  0.037162824            3 
 1697000    1.0074993   -6.1286391    746.99202  0.036681989  0.037154066            2 
 1698000   0.97932993   -6.0805172    748.21575  0.036720443  0.037145275            5 
 1699000   0.98278091    -6.115736    747.10977  0.036644583  0.037136462            6 
 1700000   0.99171486   -6.1030307    749.98969  0.036764201  0.037127573            8 
 1701000   0.97988731   -6.1057158    749.57277  0.036722162  0.037118793           12 
 1702000    0.9784269   -6.0937516     748.2764  0.036637113  0.037110057            5 
 1703000    0.9892894   -6.1306912    750.55944  0.036727317  0.037101361            3 
 1704000   0.97830621   -6.1240361    750.10563   0.03668357  0.037092626            4 
 1705000    0.9724021   -6.1064692    749.82335  0.036648257  0.037083967            2 
 1706000   0.98004895    -6.114852    751.21716  0.036694859  0.037075161            1 
 1707000   0.97416627   -6.1021815    748.97966  0.036564131  0.037066319            4 
 1708000   0.97333426   -6.0764832    752.60001  0.036719361  0.037057492            4 
 1709000   0.98590525   -6.1337218     750.0779  0.036574893  0.037048684            6 
 1710000     1.006567   -6.1523407    750.35078  0.036566802  0.037039844            4 
 1711000    0.9695429   -6.0900696    753.35729  0.036691861  0.037031025            2 
 1712000   0.94451257   -6.1084994    752.25383  0.036616717  0.037022318            5 
 1713000   0.97588457   -6.0773964     754.7644  0.036717474  0.037013488            4 
 1714000   0.98536072   -6.0861989    751.75589  0.036549781  0.037004674            4 
 1715000   0.99267906   -6.1101878    752.60468  0.036569712  0.036995836            4 
 1716000   0.97137763   -6.0860679     754.3969  0.036635436  0.036986878            3 
 1717000   0.99848565   -6.1431401    752.09491  0.036502374  0.036977736            4 
 1718000   0.98809401    -6.164115    748.56757   0.03631003   0.03696882            3 
 1719000   0.98009886   -6.1553769    753.23566  0.036515205  0.036959879            4 
 1720000   0.99977511    -6.132372    753.90446  0.036526379  0.036950874            4 
 1721000   0.98730135   -6.1058709     753.9297  0.036506377  0.036941971            5 
 1722000   0.96984528   -6.1325147    753.67546  0.036472874  0.036933188            6 
 1723000   0.96475618    -6.101268     753.6445  0.036450208  0.036924173            4 
 1724000   0.97145503   -6.1522601    750.42967  0.036273669  0.036915075            4 
 1725000   0.98605839   -6.0720223    756.94565  0.036567423  0.036906057            6 
 1726000   0.95957213    -6.152311    754.15166  0.036411339  0.036897006            3 
 1727000   0.95235433   -6.1025625    754.86355  0.036424607  0.036887787            2 
 1728000    0.9664105   -6.1422891    755.74454  0.036446014  0.036878762            8 
 1729000   0.98497467   -6.1541525    751.81562  0.036235571  0.036869719            4 
 1730000   0.98238677   -6.1248795    755.36848  0.036385765  0.036860593            6 
 1731000   0.98419309    -6.113662    755.91816  0.036391207  0.036851464           12 
 1732000   0.98607401   -6.1377868    755.41926  0.036346192  0.036842389            5 
 1733000   0.96325899   -6.1171356    756.16496  0.036361077  0.036833209            2 
 1734000   0.99198192   -6.1051776    756.05957  0.036335043  0.036824045            4 
 1735000   0.96757498   -6.1381784    757.42739  0.036379798  0.036814885            2 
 1736000   0.99353347   -6.0789581    759.13134  0.036440637  0.036805945            2 
 1737000   0.96717294    -6.097806    757.66948  0.036349524  0.036796918            9 
 1738000   0.98606714   -6.1212536    756.54929  0.036274899  0.036787816            5 
 1739000   0.97098991   -6.1284292    756.28342  0.036241299  0.036778675            3 
 1740000   0.98111152   -6.1043091    756.41128  0.036226594  0.036769584            5 
 1741000    0.9704412   -6.1076918      760.399  0.036396659   0.03676039            6 
 1742000    0.9634101    -6.161323    758.51797  0.036285781  0.036751196            6 
 1743000   0.97572855   -6.1134932    758.35228  0.036257042  0.036741861            2 
 1744000   0.95082625   -6.1452964    757.25677  0.036183905  0.036732535            3 
 1745000   0.98529425   -6.1231681    758.71482    0.0362328  0.036723233            5 
 1746000   0.95926629   -6.1283732     761.3757  0.036339046  0.036714098            3 
 1747000   0.98693546    -6.105943    761.41259  0.036320005  0.036705052            5 
 1748000   0.94057769   -6.1536967     757.4464  0.036110145  0.036695902            4 
 1749000   0.95619587   -6.1521417     759.6706  0.036195474  0.036686706            4 
 1750000    0.9750036   -6.1277895    759.33047  0.036158594  0.036677489            4 
 1751000   0.96254325   -6.1369188    760.67969  0.036202155  0.036668413            4 
 1752000   0.97100927   -6.1028633    761.81794  0.036235633  0.036659502            2 
 1753000   0.97483564   -6.1131991    762.25092  0.036235545  0.036650527            4 
 1754000   0.96405926   -6.1404808    762.72043  0.036237193  0.036641554            4 
 1755000   0.97309643   -6.1355531    760.29096  0.036101185  0.036632469            2 
 1756000   0.95503091    -6.158768    760.95659  0.036112215  0.036623478            7 
 1757000   0.96640387   -6.1385365       759.39  0.036017359  0.036614491            6 
 1758000   0.97561137   -6.1215351    762.72534  0.036154974  0.036605601            5 
 1759000   0.97436746   -6.1457805     763.7403  0.036182504  0.036596613            5 
 1760000   0.96784709   -6.1302705    762.85731  0.036120138  0.036587555            9 
 1761000   0.96654919   -6.1328678    762.64929  0.036089783  0.036578663            5 
 1762000   0.96390349   -6.1388849    763.19064  0.036094904  0.036569699            4 
 1763000   0.95738669   -6.1468604    763.17317  0.036073604  0.036560565            3 
 1764000   0.98330871   -6.1383008    763.65361  0.036075851  0.036551552            2 
 1765000   0.94175572   -6.1018355    765.21053   0.03612892  0.036542296            4 
 1766000   0.99281337   -6.1452245      763.998  0.036051246  0.036533102            6 
 1767000   0.96739787     -6.13333     766.4274  0.036145416  0.036524014            6 
 1768000   0.99321299   -6.1302618    766.92741  0.036148539  0.036514931            3 
 1769000   0.96008769   -6.1178527    765.97277  0.036083134  0.036505863            4 
 1770000    0.9683591   -6.1247623    765.43064  0.036037224   0.03649674            6 
 1771000   0.94926051   -6.1262697     764.7765  0.035986095   0.03648745            6 
 1772000   0.96130351   -6.1653504    763.85018  0.035922224  0.036478258            3 
 1773000   0.96606564   -6.1388611    766.32245  0.036018163   0.03646909            3 
 1774000   0.96666295   -6.1270552    765.26283  0.035948085  0.036459824            6 
 1775000   0.96351772   -6.1304536    765.28804  0.035929016  0.036450606            5 
 1776000    0.9699438   -6.1520694    765.93111   0.03593896  0.036441205            3 
 1777000   0.96759774   -6.1331381    764.36085  0.035845097  0.036431881            6 
 1778000   0.96733999   -6.1448611     764.7147  0.035841521  0.036422541            2 
 1779000     0.975758   -6.1411922    766.36782  0.035898811  0.036413032            4 
 1780000   0.96583228   -6.1218686    768.92615  0.035998415  0.036403643            3 
 1781000    0.9751405   -6.1303018    767.20881  0.035897848  0.036394281            4 
 1782000   0.95655485   -6.1264208    768.26636  0.035927159  0.036384956            9 
 1783000   0.94006171   -6.1211072    766.53383  0.035826034  0.036375575            3 
 1784000   0.96310615   -6.1445852    765.92647  0.035777582  0.036366362            5 
 1785000   0.93469821   -6.1303456    766.56479  0.035787338  0.036357068            3 
 1786000   0.98051934   -6.1408005    766.81789   0.03577911  0.036347691            4 
 1787000   0.95994857   -6.1204772    768.57198  0.035840887  0.036338164            5 
 1788000   0.94844343   -6.1450647    766.36782  0.035718113  0.036328752            2 
 1789000   0.97165742   -6.1313491    767.59083  0.035755116   0.03631933            3 
 1790000   0.97350298   -6.1513125    765.81289  0.035652369  0.036309987            8 
 1791000   0.96990943   -6.1356283     769.6464  0.035810832  0.036300463            4 
 1792000    0.9579402   -6.1642724    768.65566  0.035744776  0.036291101           10 
 1793000   0.95195244   -6.1867953    768.69534  0.035726684  0.036281739            8 
 1794000   0.95109812   -6.1769193    768.96408  0.035719253  0.036272308            4 
 1795000   0.97826269    -6.117112    771.46861  0.035815627  0.036263097            8 
 1796000   0.96636651   -6.1274984    768.77545  0.035670724  0.036254024            2 
 1797000   0.95315664   -6.1491966    768.81563  0.035652738  0.036244729           10 
 1798000   0.95048482   -6.1623493     771.4584  0.035755395  0.036235387            3 
 1799000   0.95277244   -6.1621451     771.5022  0.035737548  0.036226316            2 
 1800000   0.98930319   -6.1666325    771.29693  0.035708191  0.036217202            3 
 1801000   0.96938108   -6.1456665    773.32012  0.035781979  0.036208093            5 
 1802000   0.95421816   -6.1289062     771.2872   0.03566811  0.036199096            5 
 1803000   0.94507795    -6.158198    774.03556  0.035775354  0.036190121            2 
 1804000   0.96530544   -6.1271243    775.49112  0.035822761  0.036181194            5 
 1805000   0.98514836   -6.1257103    774.83342  0.035772549  0.036172298            3 
 1806000   0.98728506   -6.1522428    775.64613  0.035790242  0.036163379           10 
 1807000   0.94823555   -6.1331988    774.90551  0.035736281  0.036154354            2 
 1808000   0.96262004   -6.1863731    772.65752  0.035612902  0.036145445            2 
 1809000   0.95727613    -6.140435    775.51332  0.035724771  0.036136592            4 
 1810000   0.95905433   -6.1639171    776.68336  0.035758902  0.036127804            5 
 1811000   0.96339429    -6.145587    775.83982  0.035700342  0.036118859            7 
 1812000    0.9669232   -6.1421083     775.2241  0.035652322   0.03610993            9 
 1813000   0.96429582   -6.1710384    775.43132  0.035642182  0.036101281            3 
 1814000   0.95060004   -6.1950655     776.3569  0.035665054  0.036092305            4 
 1815000   0.94920715   -6.1513688    776.83402   0.03566731  0.036083488            6 
 1816000   0.94505981   -6.1509604     778.2281  0.035711642   0.03607469            3 
 1817000   0.97456415   -6.1699209    777.65682  0.035665787  0.036065823            2 
 1818000    0.9676754   -6.1313248    781.20315  0.035808725  0.036057046            5 
 1819000   0.96121037   -6.1210147    780.21652  0.035743839    0.0360483            4 
 1820000   0.96044195   -6.2012117    776.52213  0.035555043   0.03603925            4 
 1821000   0.97596685   -6.1996504    778.60115  0.035630658  0.036030297            2 
 1822000   0.96941591   -6.1296322     779.2641  0.035641424  0.036021377            3 
 1823000   0.98940332   -6.1565537    781.13857   0.03570756  0.036012572            7 
 1824000   0.94518346    -6.166098    781.09501  0.035685993  0.036003869            3 
 1825000   0.92964856   -6.1914255     778.3261  0.035540005  0.035995071            4 
 1826000   0.96424411   -6.1279818    783.68553   0.03576513  0.035986275            2 
 1827000   0.96474232   -6.1489186    780.68192  0.035608553  0.035977475            4 
 1828000   0.95211203   -6.1752024    783.67215   0.03572539  0.035968712            3 
 1829000   0.93622477   -6.1745836    781.92334  0.035626177  0.035959935            5 
 1830000   0.95807568   -6.1612486    781.32309  0.035579376  0.035951221            3 
 1831000   0.97345258   -6.1726719    780.50549  0.035522733  0.035942387            3 
 1832000   0.94755946   -6.1578135    782.11058  0.035576355  0.035933712            7 
 1833000   0.94915886   -6.1379767    783.15114  0.035604253  0.035924861            4 
 1834000    0.9690129   -6.1596609    784.44477  0.035643619  0.035916037            4 
 1835000   0.95087527   -6.1482597    781.29936  0.035481351  0.035907364            3 
 1836000   0.95416944   -6.1537425    783.30339  0.035552986  0.035898663           10 
 1837000   0.95102091   -6.1781716    782.32574  0.035489282  0.035889885            7 
 1838000    0.9484082   -6.1817886     781.3565  0.035426029  0.035881027            4 
 1839000   0.94987753    -6.174576    782.24533  0.035447042  0.035872078            5 
 1840000   0.95746906   -6.1786473    781.77161  0.035406323  0.035863197            4 
 1841000    0.9413256    -6.173236     783.3509  0.035458578  0.035854296            5 
 1842000   0.97442114   -6.1969646     782.4218  0.035397294  0.035845408            5 
 1843000   0.94185402   -6.1836483    785.72884   0.03552762  0.035836541           11 
 1844000   0.95565883   -6.1611736    786.77594  0.035555674  0.035827836            5 
 1845000    0.9486046   -6.1956145    783.17422  0.035373723  0.035819103            4 
 1846000    0.9346033   -6.1612429    786.66969  0.035512355  0.035810366            4 
 1847000   0.96916465   -6.1537748    787.68655  0.035539007  0.035801662            5 
 1848000   0.96381357   -6.1871654    786.02982  0.035445068     0.035793            4 
 1849000   0.97763086   -6.1403288    787.91271  0.035510759  0.035784156            5 
 1850000   0.95469613   -6.1728655    787.32326  0.035465012  0.035775627            5 
 1851000   0.95075517   -6.1284077    789.69549  0.035552651  0.035767171            4 
 1852000   0.96149156   -6.1450854    787.13888  0.035418416  0.035758651            2 
 1853000     0.945232   -6.1989768    784.93316  0.035300106  0.035750081            5 
 1854000   0.96546544   -6.1611467    785.92008  0.035325426  0.035741364            5 
 1855000   0.95680962   -6.1535615    789.17501  0.035452606  0.035732631            4 
 1856000   0.93349747   -6.1810881    785.68474  0.035276793  0.035723813            5 
 1857000   0.96521917   -6.1666432    786.84505  0.035309866  0.035715002            4 
 1858000   0.95130421   -6.1449422    791.18164  0.035485362  0.035706352            6 
 1859000   0.94701646    -6.160589    786.75465  0.035267825  0.035697656            5 
 1860000   0.96356735     -6.18424    788.65464  0.035333989  0.035688821            3 
 1861000   0.94455951   -6.1732589    791.25959  0.035431649  0.035680144           10 
 1862000    0.9507254   -6.1977124     788.5993   0.03529356  0.035671533            2 
 1863000    0.9384006   -6.1544846     791.2484  0.035393111  0.035662686            7 
 1864000   0.95014412   -6.1620474    792.67235  0.035437784  0.035653988            4 
 1865000    0.9460643   -6.1720674    791.29361  0.035357177  0.035645206            5 
 1866000   0.96097521   -6.1883647    791.41321  0.035343569  0.035636394            4 
 1867000   0.93828291   -6.1808883    790.04239  0.035263452  0.035627609           11 
 1868000   0.94501044   -6.1857657    790.83917   0.03528012   0.03561869            8 
 1869000    0.9527602   -6.1480848    791.54305  0.035292627  0.035609889            2 
 1870000   0.96402644   -6.1874777    791.36915  0.035266005  0.035601139            5 
 1871000   0.96973594   -6.1811287    791.34218  0.035245955  0.035592199            5 
 1872000   0.94127221   -6.1468749    793.86468  0.035339418  0.035583377            5 
 1873000   0.94235667   -6.1433884    792.82351  0.035274226  0.035574647            4 
 1874000   0.95001027   -6.1832423    789.35847  0.035101319  0.035565899            7 
 1875000    0.9603547   -6.1516903    791.33167  0.035170296  0.035557061            9 
 1876000   0.95424725   -6.1609821    793.95131  0.035267915  0.035548219            3 
 1877000   0.94728931   -6.1913704    791.73238  0.035150612  0.035539469            9 
 1878000   0.95979823   -6.1997492    792.80151  0.035179336  0.035530658            3 
 1879000   0.94170081   -6.1781109    792.91926  0.035165835  0.035521854            2 
 1880000   0.95636247   -6.1872479    792.80497  0.035142064  0.035513097            7 
 1881000   0.95150957   -6.1946021    791.72639  0.035075598  0.035504358            8 
 1882000    0.9436211   -6.1463879    795.89679  0.035241622   0.03549554            9 
 1883000   0.94270715   -6.1541444    793.78756  0.035129561  0.035486751            8 
 1884000   0.95289236   -6.1966701    794.93137  0.035161508  0.035477922            5 
 1885000   0.93423581   -6.1772685    794.42527  0.035120481  0.035469062            4 
 1886000    0.9626673    -6.165067    797.39178  0.035232935  0.035460209            5 
 1887000   0.94412457   -6.1830253    794.43428  0.035083655  0.035451455            5 
 1888000   0.96304746    -6.180413    797.27482  0.035190449  0.035442781            4 
 1889000   0.96288573   -6.2001167    795.35967  0.035087333  0.035433977            5 
 1890000   0.98059112    -6.164681    795.96641  0.035095521  0.035425285            9 
 1891000   0.93683286    -6.176551    794.76715  0.035024112  0.035416684            8 
 1892000   0.94026122   -6.1625074    796.90898  0.035099937  0.035407959            4 
 1893000   0.95973703   -6.1955346    796.43533  0.035060545  0.035399195            4 
 1894000   0.92777485   -6.1865582    800.32254  0.035213065  0.035390432            3 
 1895000   0.93630274   -6.1755915    799.35805  0.035152069  0.035381642            6 
 1896000   0.95224875   -6.2045034    797.19175  0.035038315  0.035372905            7 
 1897000   0.94740028   -6.1840597    801.28782  0.035199781  0.035364205            5 
 1898000   0.94574766   -6.1482163    798.14772  0.035043367  0.035355323            3 
 1899000   0.95021476   -6.1769848    796.86418  0.034968588  0.035346538            4 
 1900000   0.93675824   -6.1404717    798.20853  0.035009146  0.035337781            3 
 1901000   0.93478229   -6.1646265    799.85371  0.035062849  0.035328972            5 
 1902000   0.96443674   -6.2098069    796.05314  0.034877898  0.035320168           11 
 1903000   0.94463065   -6.1828982    795.16675  0.034820755  0.035311311            6 
 1904000   0.94693718   -6.1641467    797.13959  0.034888812  0.035302517            5 
 1905000    0.9568259   -6.1841699    798.32559  0.034922379  0.035293726            3 
 1906000   0.93508457   -6.1751034    800.92251  0.035017599  0.035284749            5 
 1907000   0.94963133   -6.2096376    797.54171  0.034851499  0.035275763            4 
 1908000   0.95303087   -6.2142699    798.63204  0.034880854  0.035266891            3 
 1909000   0.94466436   -6.1916466    798.66322  0.034863944  0.035258084            4 
 1910000   0.93587679   -6.1538832    801.16361  0.034954782   0.03524931            5 
 1911000   0.93855988   -6.1912339    800.88062   0.03492415  0.035240526            2 
 1912000   0.94137354   -6.1722781    800.00844  0.034867871  0.035231754            3 
 1913000   0.93549738   -6.2115237    797.97909  0.034761243  0.035222901            5 
 1914000   0.92884196   -6.1700985    802.73359  0.034950086  0.035214168            3 
 1915000   0.94350367   -6.1619922    802.36077  0.034915612  0.035205411            3 
 1916000   0.95887406   -6.1720263    801.91546  0.034878021  0.035196659            3 
 1917000   0.91115172   -6.1938775    802.26619  0.034875073   0.03518777            5 
 1918000   0.93981217   -6.2154558    801.83885  0.034838323  0.035178755            3 
 1919000   0.94110673   -6.1904761    800.40544  0.034757923  0.035169806            6 
 1920000   0.93550024   -6.2145823    801.39097  0.034782594  0.035160723            3 
 1921000   0.93226411   -6.2048266    800.44214  0.034723327  0.035151852            8 
 1922000   0.92976611   -6.1744968    802.71453  0.034803786  0.035142799            6 
 1923000   0.94263274   -6.1850191     801.6555  0.034739795  0.035133955            7 
 1924000   0.93518882   -6.1772118    802.09407  0.034740734  0.035124994            4 
 1925000   0.93857422   -6.1801623    802.64216  0.034746414  0.035116074            4 
 1926000   0.94832802   -6.1704027     803.4997  0.034765477  0.035107135            6 
 1927000   0.94377526   -6.2097704    800.75267   0.03462864  0.035098035            3 
 1928000   0.94303434   -6.2042382    800.87031  0.034615764  0.035088895           15 
 1929000   0.93641731   -6.1854549    802.84186   0.03468299   0.03507985            3 
 1930000    0.9103822    -6.199852    800.74205  0.034574355  0.035070603            5 
 1931000   0.95829089   -6.2423512    800.22002  0.034533921  0.035061316            6 
 1932000   0.94109585   -6.2135689    800.24647  0.034517187  0.035052013            4 
 1933000   0.93370849   -6.2043231    801.48027  0.034552521  0.035042677            4 
 1934000   0.96553469   -6.2225354    802.24805  0.034567737  0.035033383            7 
 1935000    0.9547045    -6.210753    802.09798   0.03454341  0.035024201            4 
 1936000   0.94873024   -6.2054426    803.06895  0.034567362   0.03501498            8 
 1937000   0.93223617   -6.2077946    805.48901  0.034653632  0.035005796            9 
 1938000   0.93929191   -6.2010791    801.14634  0.034449017  0.034996589            6 
 1939000   0.95087664   -6.2125397     802.6401  0.034495448  0.034987451            3 
 1940000    0.9549897     -6.20496    804.21649  0.034545382  0.034978268            4 
 1941000   0.96269316   -6.2195438     804.3756  0.034534415  0.034969211            4 
 1942000   0.97082908    -6.198729     806.1055  0.034590864  0.034960137            5 
 1943000   0.92661169   -6.2152274    803.43006  0.034458315   0.03495108            9 
 1944000   0.92055277   -6.2330861    805.44599  0.034527006  0.034941871            6 
 1945000   0.96490955   -6.1991929    803.57849  0.034429241  0.034932821            5 
 1946000   0.95471123   -6.1874875    806.20974  0.034524227  0.034923781            3 
 1947000   0.94144189   -6.2236935    804.14761  0.034418234  0.034914831            5 
 1948000   0.92142329    -6.190265    804.09946  0.034398505  0.034905845            7 
 1949000   0.93708321   -6.2059021    807.31327  0.034518269  0.034896702            3 
 1950000   0.92884367   -6.1809868    807.51091  0.034509013  0.034887671            2 
 1951000   0.93822148   -6.1992806    807.94233  0.034509753  0.034878489            2 
 1952000   0.96030275   -6.2310491    805.99667  0.034409011  0.034869241            4 
 1953000   0.94106311   -6.2335576     807.4817  0.034454758  0.034860071            3 
 1954000   0.93292498   -6.1959391    807.29859  0.034429315  0.034850928            3 
 1955000   0.94594714   -6.1793865    807.54129   0.03442205  0.034841888            3 
 1956000   0.93501577   -6.2218847    807.97732  0.034423028  0.034832664            4 
 1957000    0.9293578   -6.2200015     806.8564  0.034357707  0.034823412            4 
 1958000   0.93312893   -6.2356887    806.15003  0.034310097  0.034814075            6 
 1959000   0.94953127   -6.2153117    806.15387  0.034292746  0.034804772            5 
 1960000   0.95074653   -6.1728413    811.04507  0.034483209  0.034795482            2 
 1961000    0.9508916   -6.2368005    808.62346  0.034362717  0.034786239            5 
 1962000   0.93741181   -6.2250674    807.57125  0.034300512  0.034777044            8 
 1963000   0.92997493   -6.2060162    810.64342  0.034413458  0.034767866            7 
 1964000   0.95177441   -6.2287182    807.88305  0.034278813  0.034758603            8 
 1965000   0.91163082    -6.199914    809.49287  0.034329638  0.034749386            5 
 1966000   0.93924932   -6.2040842    810.40168  0.034350699  0.034740273            4 
 1967000   0.95110565   -6.2249736    807.28272  0.034201098  0.034731004            5 
 1968000   0.92634862   -6.2185823    807.83908  0.034207278  0.034721676            3 
 1969000   0.94281492   -6.2039772    808.07827  0.034200028  0.034712374            3 
 1970000   0.93776649   -6.1791585    809.66804  0.034249917  0.034703229            6 
 1971000   0.94438849   -6.2262964     809.1557  0.034210879  0.034694096            5 
 1972000   0.92396169   -6.2200893     807.4945  0.034123331  0.034684968            4 
 1973000   0.93078361    -6.237907    808.41775  0.034145031  0.034675622            4 
 1974000   0.93319958    -6.214762    810.08419  0.034198083  0.034666352            4 
 1975000   0.92409713   -6.2167178    809.99252    0.0341769  0.034657043            9 
 1976000   0.94088934   -6.2288725    811.49263  0.034222867  0.034647653            8 
 1977000   0.94124257   -6.2032697    810.67403  0.034171052  0.034638427            3 
 1978000   0.93212688   -6.2228726    810.90516  0.034163514   0.03462913            2 
 1979000   0.92908425   -6.2564502    808.91643  0.034062508  0.034619763            5 
 1980000   0.95378037   -6.2177714    810.99743  0.034132888  0.034610357            3 
 1981000   0.92644764     -6.20367     810.9562  0.034113924  0.034601042            9 
 1982000   0.93472883   -6.2457198    810.93159  0.034095677  0.034591748            8 
 1983000   0.93993619   -6.2042641    811.89648  0.034119032  0.034582309            3 
 1984000   0.92108862   -6.2195179    813.69253  0.034177273  0.034573046            3 
 1985000   0.92482151   -6.2654355    811.67164  0.034075216  0.034563706            4 
 1986000   0.93059363   -6.1889678    814.90916  0.034193906  0.034554368            3 
 1987000   0.93020489   -6.2276745    813.67617  0.034124986  0.034545068            5 
 1988000   0.92362144   -6.2086108    813.46147  0.034098821  0.034535817            4 
 1989000   0.92254171   -6.2313951    811.47634  0.033998506  0.034526602            6 
 1990000   0.94290564   -6.2341059    809.24253  0.033887878  0.034517332            4 
 1991000   0.93952597   -6.2412788    810.39025  0.033918895  0.034507951            8 
 1992000   0.93112377   -6.2345733    811.24779  0.033937742   0.03449856            5 
 1993000   0.92308215   -6.2089979    812.45525  0.033971201  0.034489252            7 
 1994000   0.92938465   -6.2265683     813.1265  0.033982218   0.03447997            8 
 1995000   0.91734054    -6.210215    813.06056  0.033962429  0.034470669            6 
 1996000   0.95498628    -6.227327    813.00846  0.033943239  0.034461341            2 
 1997000   0.91593927   -6.2287595    813.20202  0.033934319  0.034452009            7 
 1998000   0.95042863   -6.2186193     812.3441  0.033881552  0.034442574            8 
 1999000   0.94455308   -6.2242711    813.95901  0.033931925  0.034433204            7 
 2000000   0.91230414   -6.2389856      814.655  0.033943958  0.034423864            5 
 2001000   0.94240568   -6.2399036    813.27414  0.033869488  0.034414425            6 
 2002000   0.96275282   -6.2176436    814.22645   0.03389221  0.034405063            7 
 2003000   0.94008378   -6.2415583    813.76378   0.03385604  0.034395672            7 
 2004000   0.93127337   -6.2499896    813.77575  0.033839643  0.034386276            8 
 2005000   0.91557824   -6.2447082    815.65655  0.033900937  0.034376826            7 
 2006000   0.92377257   -6.2417801    813.82634  0.033808007  0.034367378            5 
 2007000   0.93467935   -6.2171091    814.51868  0.033819909  0.034357899            5 
 2008000   0.94168336   -6.2484456    815.32687  0.033836606  0.034348438            9 
 2009000   0.92117068   -6.2258273    815.18458  0.033813862   0.03433896            8 
 2010000    0.9517716   -6.2478646    818.56145  0.033937042  0.034329584            5 
 2011000    0.9410216   -6.2372565      815.992  0.033813691  0.034320113            6 
 2012000   0.91561491   -6.2085519    818.61316  0.033905449  0.034310741            6 
 2013000   0.96126188   -6.2209553    818.25245  0.033873673  0.034301536            4 
 2014000    0.9125914   -6.2526741    820.35914  0.033944023  0.034292357            5 
 2015000   0.92038203   -6.2108535    817.74781  0.033819181  0.034283136            2 
 2016000   0.92698219   -6.2354909    817.40053  0.033788051  0.034273922           13 
 2017000   0.93193512   -6.2191156    819.87567  0.033873561  0.034264724            4 
 2018000   0.93739976   -6.2387231    818.92088  0.033817347  0.034255589            8 
 2019000   0.93412269   -6.2224183    818.17795  0.033769934  0.034246353           10 
 2020000   0.92903438   -6.2190513     819.9782  0.033827483  0.034237064            5 
 2021000   0.93709742   -6.2163427    820.09021  0.033815364  0.034227769            8 
 2022000   0.93639099   -6.1944632    822.40123  0.033893885  0.034218653            5 
 2023000   0.92370652   -6.2373388    818.48194  0.033715684  0.034209536           11 
 2024000   0.89812437   -6.2749785     819.9449   0.03375926  0.034200342            6 
 2025000   0.95095608    -6.263691    819.88536  0.033740138  0.034191017            6 
 2026000   0.91464018   -6.2204702     821.3554   0.03378395  0.034181751            3 
 2027000   0.93758237   -6.2351324    819.41309  0.033687432  0.034172601            2 
 2028000   0.90993936    -6.233287    822.54374  0.033799463  0.034163432            3 
 2029000   0.90988794   -6.2531022    820.77973  0.033710355   0.03415414           10 
 2030000   0.91553574   -6.2345836    820.31746  0.033674773   0.03414489            5 
 2031000   0.92048388   -6.2612758     822.0559  0.033729521  0.034135692            2 
 2032000   0.92204112   -6.2497856    822.71446   0.03373993   0.03412642            6 
 2033000   0.93578756   -6.2348938    823.10837  0.033739481  0.034117168            5 
 2034000   0.92495932   -6.2029664    825.11785  0.033805222   0.03410795            3 
 2035000   0.93151602   -6.2746367     821.1573  0.033626425  0.034098612            3 
 2036000   0.93436994   -6.2635472    820.70719  0.033591486  0.034089268            4 
 2037000   0.91851511   -6.2463943    821.31344  0.033599797  0.034079998            9 
 2038000   0.92137706   -6.2092305    823.99545  0.033692977  0.034070788            4 
 2039000   0.92025312   -6.2159644    821.73968   0.03358426  0.034061563            7 
 2040000   0.91051591   -6.2401728    822.54025  0.033600501  0.034052359            3 
 2041000   0.90796089   -6.2588934    823.50961  0.033623616  0.034043175            5 
 2042000   0.90573222   -6.2522963    824.15206  0.033633368   0.03403394            4 
 2043000    0.9162743    -6.243035    823.63792  0.033595934  0.034024642            4 
 2044000   0.91865861   -6.2485102    826.90059  0.033712516  0.034015436            4 
 2045000   0.91073513    -6.309119    823.45022  0.033555429  0.034006057            5 
 2046000   0.93243992   -6.2693207    822.23079  0.033489361  0.033996702            9 
 2047000     0.933272   -6.2573454    824.43645  0.033562793  0.033987354            7 
 2048000   0.91348275   -6.2416277    824.97422  0.033568287  0.033978196            4 
 2049000   0.93020506   -6.2298295    824.90271  0.033548996  0.033968943            8 
 2050000   0.93256351   -6.2386523     822.7472  0.033445008  0.033959718            4 
 2051000   0.92876026   -6.2604425    828.99213  0.033682437  0.033950426            5 
 2052000   0.90703745   -6.2637642    824.12343  0.033468301  0.033941149            4 
 2053000   0.92547327     -6.26065    823.93769  0.033444459  0.033931771            4 
 2054000   0.92508421   -6.2230279    825.66487   0.03349825  0.033922488            4 
 2055000   0.92189657   -6.2607025    823.28958  0.033385628  0.033913182            4 
 2056000   0.92811664   -6.2505042    825.22549  0.033447855   0.03390397            3 
 2057000   0.91412813   -6.2295165    825.64286  0.033448503  0.033894746            9 
 2058000   0.90830819   -6.2365215    827.23677  0.033496792  0.033885671            4 
 2059000   0.93281835   -6.2268106    828.15536  0.033517701  0.033876538            4 
 2060000   0.92992676   -6.2348716     828.4688   0.03351411  0.033867343            3 
 2061000   0.91625824   -6.2317465    828.66373  0.033505731   0.03385823            4 
 2062000   0.90129016    -6.268199    825.67662  0.033368761  0.033848958           10 
 2063000   0.93856621   -6.2752339      825.584  0.033348845  0.033839815            4 
 2064000   0.93680088   -6.3031006    826.07366  0.033352457  0.033830701            9 
 2065000    0.9428449   -6.2385303    827.71578  0.033402574  0.033821478            5 
 2066000   0.93321489   -6.2552423    826.91128  0.033353956  0.033812257           10 
 2067000   0.92801462   -6.2257236    830.22054  0.033471236  0.033803168            5 
 2068000    0.9230578   -6.2409524    831.59825  0.033510568  0.033794007            2 
 2069000   0.91634964   -6.2412712    826.94467  0.033306939  0.033784787            4 
 2070000   0.91829805   -6.2554761    827.90042  0.033329324  0.033775553            4 
 2071000   0.94290893   -6.2433746    831.01149  0.033438415  0.033766454            4 
 2072000   0.93088135   -6.2500577    828.97385  0.033340325  0.033757371           10 
 2073000   0.93066285   -6.2143738    832.19544  0.033453748  0.033748234            6 
 2074000   0.91238326   -6.2469975    827.75734  0.033259295  0.033739142            3 
 2075000     0.930996   -6.2275894    833.82025  0.033486757  0.033729955            6 
 2076000   0.90603023   -6.2378598    831.07917  0.033360596  0.033720864            5 
 2077000   0.91154619   -6.2812359     831.0484    0.0333433  0.033711797            2 
 2078000   0.91965794    -6.285371    829.77895  0.033276346  0.033702666            6 
 2079000   0.91835725   -6.2740594    828.25081  0.033199086  0.033693505            6 
 2080000   0.91237007   -6.2565241    831.68464  0.033320699  0.033684439            3 
 2081000   0.91573418   -6.2455543    833.55903  0.033379747  0.033675315            4 
 2082000   0.90346646   -6.2846525    831.11402  0.033265851  0.033666266           11 
 2083000   0.93833252   -6.2552857    833.43018  0.033342542   0.03365722            7 
 2084000   0.91991861   -6.2453781    832.27162  0.033280215  0.033648191           10 
 2085000   0.91254743   -6.2502746    833.25314  0.033303483   0.03363918            7 
 2086000   0.92700121   -6.2308883    833.28309  0.033288714  0.033630132            4 
 2087000   0.92115142   -6.2602653    832.79209  0.033253158  0.033621156           13 
 2088000   0.92428359   -6.2988242    831.39706  0.033181556  0.033612144           12 
 2089000   0.92225871   -6.2775473    830.05113  0.033111981  0.033603082            3 
 2090000   0.90232815   -6.2583685    834.37154  0.033268403  0.033594174            6 
 2091000   0.91224505   -6.2438105    834.77033  0.033268386  0.033585341            5 
 2092000   0.89836508   -6.2556975    834.96586  0.033260272  0.033576467            4 
 2093000   0.90596523   -6.2680168    831.43212  0.033103684  0.033567499            7 
 2094000   0.89776657    -6.316429    831.48689  0.033090055  0.033558403            6 
 2095000   0.90615031   -6.2352541    834.74006  0.033203662  0.033549249            2 
 2096000   0.93189779   -6.2673316     836.4691  0.033256564  0.033540307            5 
 2097000   0.89741328   -6.2465814    836.47101  0.033240781  0.033531227            8 
 2098000   0.92554912   -6.2761538    835.57469  0.033189335  0.033522232            6 
 2099000   0.90757599    -6.275625    834.50685  0.033131128  0.033513248            6 
 2100000   0.94063008   -6.2795769    833.59471  0.033079155  0.033504227            4 
 2101000   0.92408388   -6.2690965    837.30639  0.033210629  0.033495253            5 
 2102000   0.92937508   -6.2989626    835.54806  0.033125121  0.033486216            7 
 2103000   0.91859026   -6.2788707    836.86344  0.033161493  0.033477293            4 
 2104000    0.9082667   -6.2841442    836.78314  0.033142551  0.033468439            6 
 2105000    0.8988159   -6.2633912    838.92857  0.033211741  0.033459545            5 
 2106000   0.91213348   -6.2835839    835.65239  0.033066334  0.033450611            6 
 2107000   0.90791813   -6.2673521    838.41585  0.033159937  0.033441723            4 
 2108000   0.92458727   -6.2489779    837.44442  0.033105804  0.033432813            5 
 2109000   0.91536449   -6.2604456    838.04756  0.033113939  0.033423815           14 
 2110000   0.93365142   -6.2752093    839.58265  0.033158872  0.033414823            7 
 2111000   0.93696857   -6.2756463    838.64309  0.033106075  0.033405839            3 
 2112000   0.90168459   -6.2604284    839.06555  0.033107069  0.033396963           13 
 2113000   0.92725822     -6.26138    839.62545  0.033113482  0.033388097            3 
 2114000   0.92073965   -6.2896966    839.79829  0.033104631  0.033379198            6 
 2115000   0.93393537   -6.2408271    839.54295  0.033078919  0.033370174            5 
 2116000   0.89973103   -6.2895054    839.33068  0.033054926  0.033361263            6 
 2117000   0.90201376    -6.277946    837.26973  0.032958185  0.033352303            5 
 2118000   0.90272718   -6.2973315    841.32268  0.033102088  0.033343248            8 
 2119000   0.92369156   -6.2670592    838.68884  0.032982887  0.033334239           15 
 2120000   0.91717267   -6.2857085    839.71365  0.033007612  0.033325119            5 
 2121000   0.93756133   -6.2859708    837.05595   0.03288763  0.033316123            4 
 2122000   0.90682134   -6.2791399    839.16533  0.032954969  0.033307154            8 
 2123000   0.90484789   -6.2790491    837.87803  0.032888916  0.033298096            3 
 2124000    0.9057245    -6.243774    840.83078  0.032989281  0.033289007            4 
 2125000    0.9095493   -6.2890194    838.83047  0.032895312  0.033279924            5 
 2126000   0.90997463   -6.2778596    836.78672   0.03279973  0.033270833            8 
 2127000   0.91740703   -6.2955491    837.55067   0.03281424  0.033261679            4 
 2128000   0.90504807   -6.2682033    840.00439  0.032894909  0.033252637            5 
 2129000   0.91949777   -6.2850373    840.29087  0.032890671  0.033243534            6 
 2130000   0.92773228   -6.2736284    840.18164  0.032870956  0.033234442            5 
 2131000   0.90327098   -6.2436662    840.47991  0.032867195  0.033225397            6 
 2132000   0.92394436   -6.2547653    841.40574  0.032887967  0.033216351            8 
 2133000   0.91603242   -6.2598671    842.74579  0.032924902  0.033207369            2 
 2134000   0.90331691   -6.2776179    844.34687  0.032971996  0.033198397            5 
 2135000   0.89151745   -6.2924134    842.87439  0.032899078    0.0331894            8 
 2136000   0.92072385   -6.2284702    843.38569  0.032903624  0.033180383            4 
 2137000   0.91426886   -6.2910729    838.22391  0.032686941  0.033171245            7 
 2138000   0.90600553   -6.2942919    838.37606  0.032677583  0.033162127            8 
 2139000   0.90608308    -6.295368    841.71325  0.032792319  0.033153004            4 
 2140000   0.90960036   -6.2768718    839.55901  0.032693108  0.033143918            6 
 2141000   0.90680142   -6.3466985    838.85534  0.032650449  0.033134673            3 
 2142000   0.92357829   -6.2820163    842.50846  0.032777329  0.033125533            5 
 2143000   0.92032851   -6.2747988    844.75419  0.032849362  0.033116506            5 
 2144000   0.93269099   -6.2718227    842.39776   0.03274245   0.03310744            4 
 2145000   0.92571879   -6.2511985    844.42422  0.032805914  0.033098442            6 
 2146000   0.91558386   -6.2811115    844.51369  0.032794101  0.033089463            5 
 2147000   0.91447491   -6.2994285    843.12023  0.032724741  0.033080388            4 
 2148000    0.8975297   -6.3044404    843.36782  0.032719112  0.033071376            3 
 2149000    0.9252423   -6.2976333    842.81608  0.032682491  0.033062414            4 
 2150000   0.91094695   -6.2698769     846.0164  0.032791333   0.03305355            3 
 2151000   0.92465729   -6.3028003     846.0918   0.03277901  0.033044623            6 
 2152000   0.90499532    -6.308587    844.63342  0.032707304  0.033035708            8 
 2153000   0.89514698    -6.280003    847.08244  0.032786903  0.033026767            2 
 2154000   0.90422981    -6.307459    844.60344  0.032675775  0.033017834            7 
 2155000   0.91961433    -6.316612    847.24154  0.032762627  0.033008889            7 
 2156000   0.92791801   -6.3099363    847.97884  0.032775929  0.032999964            6 
 2157000    0.8968732   -6.3105905    846.72795  0.032712407  0.032991053            9 
 2158000   0.90251005   -6.3219572    843.60164  0.032576523  0.032982131           13 
 2159000   0.90911193   -6.3049668    847.64214   0.03271739  0.032973105            4 
 2160000   0.89924588   -6.3221628    847.11285  0.032681823  0.032964168            8 
 2161000    0.9143061   -6.2708057    848.92686  0.032736652  0.032955291            6 
 2162000   0.92322063   -6.2494451    848.04532  0.032687532   0.03294655            5 
 2163000   0.90657429   -6.2996426    846.12485   0.03259843  0.032937697            6 
 2164000   0.89808168   -6.2995945    847.33534  0.032629981  0.032928702            6 
 2165000   0.89637891   -6.3393922    846.59493   0.03258641  0.032919689            4 
 2166000    0.9137019   -6.2862626    847.54149  0.032607783  0.032910735            4 
 2167000   0.89647629   -6.3199802    846.49691  0.032552565  0.032901665            5 
 2168000   0.91756085   -6.2881389    847.31975  0.032569179  0.032892687            3 
 2169000   0.90349915   -6.3314379    845.21906  0.032473454  0.032883744            4 
 2170000   0.91242617   -6.2836506    846.59105  0.032511177  0.032874819            7 
 2171000   0.90583184    -6.276995    848.26667   0.03256052  0.032865953            7 
 2172000   0.91828298   -6.3227047    847.45599  0.032514426  0.032857035            4 
 2173000    0.8955329   -6.3002099    850.73579  0.032625241  0.032848263            4 
 2174000   0.90989236   -6.2648701    851.72132  0.032648011  0.032839423            5 
 2175000   0.89938941    -6.312488    850.10831    0.0325712  0.032830581            4 
 2176000   0.91821029   -6.2777476    848.87543  0.032509016  0.032821658            8 
 2177000   0.90040989   -6.2874944    849.17619  0.032505596  0.032812771            5 
 2178000   0.89970457   -6.2743635    852.98779  0.032636509  0.032803983            3 
 2179000   0.90110715   -6.2810303    851.81599  0.032576717   0.03279523           13 
 2180000   0.91496347   -6.2954267    852.14636  0.032574402  0.032786374            5 
 2181000   0.91148757   -6.3157381    850.40528  0.032492942  0.032777505            6 
 2182000   0.90128779   -6.3086851    850.06899  0.032465208  0.032768659            4 
 2183000   0.90414639   -6.3074426    848.63731  0.032395683  0.032759639            5 
 2184000   0.90343739   -6.3076791    849.73256   0.03242264  0.032750769            4 
 2185000   0.90097561   -6.2820874    851.22767  0.032464824   0.03274183            8 
 2186000   0.90500061   -6.3066172    849.22399  0.032373589  0.032732958            5 
 2187000    0.8955496   -6.3357725    852.26693  0.032474734  0.032724003            5 
 2188000   0.90340914   -6.2695765    852.40904  0.032465305  0.032715112            3 
 2189000   0.90053723   -6.2874242    849.20252  0.032328404   0.03270617            4 
 2190000   0.90432797   -6.3137614    848.88863  0.032301698  0.032697195            4 
 2191000   0.91475069   -6.3269055    849.13124  0.032296183  0.032688148            4 
 2192000   0.89221357   -6.2818505    851.21885  0.032360814  0.032679259            7 
 2193000   0.91528296    -6.309937    851.71848  0.032365043  0.032670322            3 
 2194000   0.90065771     -6.26514    852.53405  0.032381269  0.032661425            6 
 2195000   0.89964089   -6.3045277    851.72545  0.032335818  0.032652519            4 
 2196000   0.89141661   -6.3450484    851.38057  0.032308006  0.032643458            6 
 2197000   0.90094793   -6.3328575    851.19397  0.032286222  0.032634526            5 
 2198000   0.88282101    -6.322656    851.04542  0.032265901  0.032625527            7 
 2199000   0.89056737   -6.3142694    851.84932  0.032281693   0.03261652            6 
 2200000   0.90617141   -6.2900647    854.62556   0.03237218  0.032607572            4 
 2201000   0.89613643   -6.3012329    855.08729  0.032374954  0.032598689            9 
 2202000   0.90878048   -6.3295616    852.28396  0.032254161  0.032589865            3 
 2203000    0.8766963    -6.335784    852.24377     0.032238  0.032580921            6 
 2204000   0.88620272   -6.2887109    855.45092  0.032344636  0.032571828            5 
 2205000   0.89534152   -6.3082238    853.91641  0.032271973  0.032562818            4 
 2206000    0.8871004   -6.3289298     852.5121  0.032204295  0.032553757            4 
 2207000   0.88591817   -6.2932406    854.40646  0.032261232  0.032544627            5 
 2208000   0.91812757   -6.3194502    852.70455  0.032182388   0.03253549            3 
 2209000   0.89924114   -6.3302836    851.25136  0.032112998  0.032526273            8 
 2210000    0.9050753   -6.2838107    853.25295  0.032173942  0.032517186            6 
 2211000   0.90555138   -6.3228429    853.16298  0.032155999  0.032508001            4 
 2212000   0.87903144   -6.3222835    850.59584   0.03204475  0.032498686            5 
 2213000   0.91093026   -6.3276005    851.94435   0.03208105  0.032489355            7 
 2214000   0.89315789   -6.3648898    850.86712  0.032026013   0.03247996            5 
 2215000   0.89186574   -6.3343531    851.60767  0.032039416  0.032470563            5 
 2216000   0.90131297   -6.3627313    849.22545  0.031935373  0.032461127            8 
 2217000   0.89541099   -6.3695228    852.27435  0.032035572  0.032451753            4 
 2218000    0.8906543   -6.3096997     853.0461  0.032050124  0.032442433            5 
 2219000   0.90320802   -6.2591691    855.79986  0.032139096  0.032433206            4 
 2220000   0.89187014   -6.3370992    850.15159  0.031912597  0.032423873            3 
 2221000   0.91207927    -6.331602     849.9684  0.031891355  0.032414485            5 
 2222000   0.90371159   -6.3175213    852.08491   0.03195638  0.032405137            6 
 2223000    0.8953864    -6.348471    852.94625  0.031974293  0.032395836            7 
 2224000   0.88363982   -6.3420024    850.14618  0.031854998  0.032386398            6 
 2225000   0.91956437   -6.3183654    854.09986  0.031988759  0.032377038            9 
 2226000   0.88755032   -6.3164671    852.80583  0.031925944  0.032367717            7 
 2227000   0.89770509   -6.3023237    855.94591  0.032029109  0.032358435            5 
 2228000   0.89776367   -6.3049857    855.08777  0.031982637  0.032349145            7 
 2229000   0.90302725   -6.3038425    853.46545  0.031907636  0.032339905            8 
 2230000   0.91620636   -6.3045505     854.8499  0.031945064  0.032330527            4 
 2231000   0.90222566   -6.3301064     853.3156  0.031873435  0.032321221            7 
 2232000    0.8981166   -6.3226029    853.14001  0.031852599  0.032311988            7 
 2233000   0.88601291   -6.2993894    855.95706  0.031943464  0.032302733            3 
 2234000   0.88553899   -6.3438713      852.132  0.031786482  0.032293405            6 
 2235000   0.90851447   -6.3256726    852.98715  0.031804144  0.032284024            7 
 2236000   0.89507829   -6.3132799    853.97316  0.031826668  0.032274704           11 
 2237000    0.8789579    -6.298966    856.12826  0.031892723  0.032265408            4 
 2238000   0.89402206   -6.3320704    853.90935   0.03179585  0.032256176            7 
 2239000   0.89945204   -6.3303664    853.13192  0.031752714  0.032246895            4 
 2240000   0.89800308   -6.3290119    855.72489  0.031835003  0.032237626           14 
 2241000   0.89509448   -6.3317052    856.97879  0.031867425  0.032228438            4 
 2242000   0.88558386   -6.3417158    855.83735  0.031810785  0.032219272            4 
 2243000   0.89262812   -6.3411915    854.76028  0.031756586  0.032210087            5 
 2244000   0.89117893   -6.3592605    855.27255  0.031761458  0.032200809            7 
 2245000   0.90266992   -6.3496244    856.28806  0.031785006  0.032191482            6 
 2246000   0.88672626   -6.3247444    856.53651  0.031780072  0.032182157            5 
 2247000    0.9067885    -6.334803    854.84367  0.031703147  0.032172885           10 
 2248000   0.89384021    -6.308338    857.22358  0.031777268  0.032163666            6 
 2249000   0.88050809   -6.3383348    856.09227   0.03172122  0.032154378            5 
 2250000   0.89116345   -6.3099789    857.16683   0.03174692  0.032145053            4 
 2251000   0.88499635   -6.2926393    858.61001  0.031786244  0.032135689            8 
 2252000   0.89891408   -6.3108092    857.24719  0.031721699   0.03212631            6 
 2253000   0.87128719   -6.3257282    856.70779  0.031687668  0.032117006            5 
 2254000   0.88046116   -6.3299295    858.07497  0.031724156  0.032107645           16 
 2255000   0.89566747   -6.2901968    857.20638  0.031677989  0.032098352            5 
 2256000    0.9011542   -6.3296406    856.86083  0.031651183  0.032089054           13 
 2257000   0.90178625   -6.3576168      855.769  0.031596847  0.032079715            6 
 2258000   0.89687727   -6.3404904     857.6449  0.031652085   0.03207032            9 
 2259000   0.90769611   -6.3193239    857.27191  0.031624314  0.032060964            5 
 2260000   0.87727197   -6.3381425    857.13883  0.031605414  0.032051703            4 
 2261000   0.88789685   -6.3319985    858.74918  0.031650788  0.032042441            4 
 2262000   0.86969227   -6.3349144    860.90343  0.031716159  0.032033208            5 
 2263000   0.86880754   -6.2765406    861.40402  0.031720578   0.03202403            5 
 2264000   0.86181252   -6.3114225    857.90531  0.031577787  0.032014762            4 
 2265000   0.88672999   -6.3496891    857.84699    0.0315617  0.032005426            4 
 2266000   0.87312293   -6.3193593    859.29988  0.031601202  0.031996066            7 
 2267000   0.89329501    -6.329826    859.92579   0.03161027  0.031986899            4 
 2268000   0.87157977   -6.3128947    858.83474  0.031556244  0.031977773            3 
 2269000   0.89609581   -6.3479425    860.01688  0.031585753  0.031968533            9 
 2270000   0.90142711   -6.3439527    857.74384  0.031488394   0.03195925            7 
 2271000   0.89579843   -6.3600961    857.19457  0.031454373  0.031949849            5 
 2272000   0.88023263   -6.3179918     859.3516  0.031519645  0.031940519            5 
 2273000    0.8807792   -6.3258293    859.99419  0.031529337  0.031931282           12 
 2274000    0.8830672   -6.3253523     859.1027  0.031482802  0.031921975            5 
 2275000   0.89582305   -6.3151391    859.26466  0.031474896  0.031912704            7 
 2276000   0.87045081   -6.3491441     858.6538  0.031438701  0.031903301            5 
 2277000   0.88031005   -6.3690357    859.33071  0.031449667  0.031893862            3 
 2278000   0.86978231   -6.3629711    857.60681  0.031372798  0.031884435            4 
 2279000   0.89992903   -6.3117058     862.6001  0.031541616  0.031875119            4 
 2280000   0.88627209   -6.3674114     860.0803  0.031435683  0.031865848            3 
 2281000   0.88296614   -6.3550844    858.07216  0.031348537  0.031856477           11 
 2282000   0.88878361   -6.3451455    858.33343  0.031344341  0.031847091            5 
 2283000   0.88588059   -6.3177692    863.14608  0.031506281   0.03183779            7 
 2284000   0.86814894   -6.3325628    860.29736  0.031388549   0.03182857            6 
 2285000   0.88588141    -6.350482     862.4421  0.031453031  0.031819241            4 
 2286000   0.88365689   -6.3243727    862.85131  0.031454189  0.031809987           10 
 2287000   0.87866573   -6.3636993    859.92125   0.03133367  0.031800782            8 
 2288000   0.89102653   -6.4009414    856.94272  0.031211492  0.031791491            8 
 2289000   0.88974599   -6.3405968    860.68583  0.031334128  0.031782211           10 
 2290000   0.89661756   -6.3298715    863.63905  0.031427913  0.031772927            3 
 2291000   0.89322002   -6.3199092    863.94259  0.031425236  0.031763601            5 
 2292000   0.86820832   -6.3405653    862.99044  0.031376907  0.031754295            5 
 2293000   0.89068033   -6.3544579    861.21632  0.031298747  0.031745022            4 
 2294000   0.87088738   -6.3527764     861.8517  0.031308185  0.031735777            5 
 2295000   0.89549804   -6.3471563    864.14593  0.031377848  0.031726438            9 
 2296000   0.88011709   -6.3608656    863.97318  0.031357912   0.03171715            9 
 2297000   0.90454772   -6.3593473    861.27188  0.031246259  0.031707844            6 
 2298000   0.90163875   -6.3675719    863.72886   0.03132176   0.03169861            4 
 2299000   0.89563288   -6.3526155    864.14545  0.031323237  0.031689347            5 
 2300000    0.8981152   -6.3760302    860.25641   0.03116871  0.031680094            5 
 2301000   0.88505766   -6.3605063    864.60314  0.031312586  0.031670782            8 
 2302000   0.87802328   -6.3400794    864.67522  0.031301594  0.031661439            4 
 2303000   0.88027781   -6.3057717    865.77724  0.031327878  0.031652094            5 
 2304000   0.88437013   -6.3509834    863.14532  0.031219087  0.031642909            6 
 2305000   0.87234823   -6.3659034    863.15424  0.031205865  0.031633704            7 
 2306000   0.87705251   -6.3579036    861.60352  0.031136294  0.031624522           15 
 2307000   0.87910636   -6.3396559    863.73021  0.031199617  0.031615216            5 
 2308000   0.88165276   -6.3578511    863.87654  0.031191383  0.031605966            2 
 2309000   0.88741267   -6.3509071    864.18031  0.031188837  0.031596675            5 
 2310000   0.88835589   -6.3549264    863.42971  0.031148258  0.031587423            5 
 2311000   0.87728621   -6.3395711     865.8296  0.031221318  0.031578282           12 
 2312000     0.883785   -6.3186209    864.43028  0.031157377  0.031569053            5 
 2313000    0.8949013    -6.361395    864.61673  0.031150625  0.031559738            6 
 2314000   0.87982538   -6.3262899    866.38474  0.031200833  0.031550416            3 
 2315000   0.88464916   -6.3195249    867.19419  0.031216494  0.031541112            6 
 2316000   0.86973325    -6.356034     864.7901  0.031116512  0.031531769           18 
 2317000   0.87027081   -6.3981044    861.79953  0.030995523  0.031522318           20 
 2318000   0.88282123    -6.369023    866.08138  0.031136086  0.031512964            6 
 2319000   0.88609018   -6.3528381    864.32519  0.031059551   0.03150358           15 
 2320000    0.8964725   -6.3507607    866.11123  0.031110317  0.031494332            3 
 2321000   0.90481513   -6.3343735    866.59952  0.031114445  0.031485095            6 
 2322000   0.89459411   -6.3668533    865.89949  0.031075922  0.031475748           12 
 2323000   0.87967734   -6.3567242    863.84882  0.030988981  0.031466369            7 
 2324000   0.86681555   -6.3677782    863.22029  0.030953108  0.031457114            8 
 2325000    0.8828686   -6.3425954    867.59941  0.031096753  0.031447877            6 
 2326000   0.89174151     -6.37257    866.48302  0.031043387  0.031438638            6 
 2327000   0.87654461   -6.3717083    866.82886  0.031042432  0.031429444            7 
 2328000    0.8750633   -6.3637541    865.22602  0.030971722  0.031420153           10 
 2329000    0.8753787   -6.3910635    863.16797  0.030884785  0.031410809            6 
 2330000   0.87871143   -6.3693524    866.96812  0.031007443  0.031401413            5 
 2331000    0.8724501   -6.3770282    865.90909  0.030956281   0.03139209            6 
 2332000   0.87818972   -6.3801926    867.25868  0.030991234  0.031382865           10 
 2333000   0.87907511   -6.3765593    866.54185  0.030952345  0.031373615            6 
 2334000   0.87243946   -6.3642338    867.16825  0.030961448  0.031364334           11 
 2335000   0.87367494   -6.3714636    866.47867  0.030923578  0.031355049            5 
 2336000   0.87179652   -6.3841262    865.68622  0.030882071   0.03134576            5 
 2337000   0.87477416   -6.3488274    866.22791  0.030888173   0.03133652            3 
 2338000   0.88750321   -6.3306524    868.65088  0.030961323   0.03132734            3 
 2339000   0.84672726   -6.3591549    869.27683  0.030970387  0.031318174            4 
 2340000   0.89478672   -6.3511303    871.59482  0.031039702  0.031309073            7 
 2341000   0.89071443   -6.3852857    866.99567  0.030862725  0.031299934            5 
 2342000   0.87549767   -6.3308135    871.82833  0.031021503  0.031290727            6 
 2343000   0.87230203   -6.3875029    869.39678   0.03092178   0.03128153            7 
 2344000   0.89876504   -6.3621828    869.85761  0.030924972  0.031272443            6 
 2345000   0.85242495   -6.3716015    869.02012  0.030882023  0.031263338            7 
 2346000   0.87637462   -6.3649309    870.17584  0.030909912  0.031254132            6 
 2347000   0.88452931   -6.3935966     869.2721  0.030864654  0.031244913            5 
 2348000   0.87024779   -6.3753882     869.3763  0.030855207  0.031235671            2 
 2349000   0.86198606   -6.4061668    868.58373  0.030813954  0.031226406            5 
 2350000   0.88548389   -6.4095204    868.50072  0.030797898  0.031217031           15 
 2351000   0.88375824   -6.3423804    872.30537  0.030919657  0.031207795            9 
 2352000   0.87995338   -6.3977175    869.43753  0.030804901   0.03119859            8 
 2353000   0.87858824   -6.3891393    865.85762  0.030665024  0.031189353            7 
 2354000   0.86058785   -6.3394415    874.00099  0.030940279  0.031180102            5 
 2355000    0.8888937   -6.3458631    870.76247  0.030812543  0.031170965            4 
 2356000   0.89328384   -6.3798598    869.95881  0.030771039  0.031161781           18 
 2357000   0.85252293   -6.3483965    873.34694  0.030877773  0.031152609            8 
 2358000   0.86402031   -6.3774938    871.88023  0.030812844  0.031143515            7 
 2359000   0.89256827     -6.38289    873.69264  0.030863807  0.031134472            5 
 2360000   0.83308961   -6.3908816    870.38435  0.030733911  0.031125322            3 
 2361000   0.88556592   -6.3810801    872.27212  0.030787524  0.031116155            3 
 2362000   0.86869631    -6.378798    871.12514  0.030734023  0.031107017           13 
 2363000   0.86483477   -6.4034955    872.28115  0.030761784  0.031097803            3 
 2364000   0.88320402   -6.3560225    873.83725  0.030803626   0.03108867            8 
 2365000   0.87537721   -6.3450552    874.03776  0.030797666  0.031079469            4 
 2366000   0.86456758   -6.3608888    876.11411  0.030857781  0.031070329            7 
 2367000   0.88386991   -6.3826229    870.11896  0.030633677  0.031061196            2 
 2368000   0.87717338   -6.3621935    870.68389  0.030640621  0.031052043            2 
 2369000   0.86123353     -6.39231    871.82925  0.030667977  0.031042936            3 
 2370000   0.87134646   -6.3906213    873.71735  0.030721426  0.031033851            6 
 2371000   0.88771628    -6.370864     874.2506  0.030727211  0.031024657           12 
 2372000   0.86911526   -6.3795462    874.14579  0.030710574  0.031015559            9 
 2373000   0.85809266     -6.38243     873.2278  0.030665396   0.03100654            6 
 2374000   0.85697032   -6.3693947    872.62311  0.030631252  0.030997469           11 
 2375000   0.88332669   -6.3934888    873.02505  0.030632458  0.030988379            5 
 2376000   0.87901471   -6.3518663    876.95065  0.030757248   0.03097937           10 
 2377000   0.87338905   -6.3928483    875.95728  0.030709482  0.030970407            6 
 2378000   0.88074732   -6.3911468    875.71833  0.030688195  0.030961339            4 
 2379000   0.87744612   -6.3846981    874.46242  0.030631302  0.030952241            5 
 2380000   0.86931022   -6.4083917     874.2097  0.030609583  0.030943102           11 
 2381000   0.85518051   -6.3866485    875.64472  0.030646952   0.03093391            8 
 2382000   0.87402745   -6.4058613    875.57854  0.030631771  0.030924752            4 
 2383000   0.85903236   -6.3630332    875.11138   0.03060258   0.03091563            6 
 2384000   0.87505223   -6.3642631    875.69551  0.030610162  0.030906558            7 
 2385000   0.88709112   -6.3520682    875.04289  0.030574524  0.030897472            6 
 2386000   0.88626583   -6.4123949     874.0579  0.030527309  0.030888336            7 
 2387000   0.86723579   -6.3768788    877.62599  0.030639086  0.030879233            8 
 2388000   0.87691244   -6.3539314    877.16858  0.030610294  0.030870137            5 
 2389000   0.88178353   -6.3623452     875.1591  0.030527386  0.030861075            7 
 2390000   0.88278623   -6.4052596    873.82011  0.030467926  0.030851948            8 
 2391000   0.87678236   -6.4115274    874.61468  0.030482876  0.030842692            6 
 2392000   0.87096216   -6.3887192    873.87715  0.030444438  0.030833475            7 
 2393000   0.86688995   -6.3736524    876.91834  0.030537621   0.03082427            8 
 2394000   0.85838479   -6.4303615    873.72333   0.03041365  0.030815114           12 
 2395000   0.86823613   -6.3993257    875.72719  0.030470675  0.030805831            3 
 2396000   0.86720646   -6.4224145    873.41428  0.030377514  0.030796629            7 
 2397000   0.86101663   -6.3750278    877.13996  0.030494367  0.030787501            5 
 2398000   0.87377363   -6.3871431    878.77333  0.030538411  0.030778392            9 
 2399000     0.866574   -6.4057262    876.81618  0.030457697   0.03076929            8 
 2400000   0.85354312   -6.3917112    877.98528    0.0304856  0.030760176            7 
 2401000   0.86926127    -6.386314    877.59663  0.030459414  0.030751089            4 
 2402000    0.8617924   -6.3785685    880.37831  0.030543239  0.030742132            4 
 2403000   0.86971393   -6.3899288    878.03474  0.030449256  0.030733124            8 
 2404000   0.86222989     -6.42016    876.71742  0.030390926  0.030724133            6 
 2405000   0.84757182   -6.3962946    879.85783  0.030487104  0.030715117            3 
 2406000   0.86867517   -6.4263714    876.00449   0.03034097  0.030706045            8 
 2407000    0.8783919   -6.3890499    874.78684  0.030286208  0.030697022            6 
 2408000    0.8689694   -6.4143766    876.72438  0.030340683  0.030687938            4 
 2409000   0.85578963   -6.4060483    877.63436  0.030359567  0.030678802            6 
 2410000   0.86454208   -6.4334416    876.50835  0.030308034  0.030669693            7 
 2411000   0.86734309   -6.3747131    881.65283  0.030473276  0.030660662            4 
 2412000   0.86460509   -6.4067091    877.94663  0.030332595  0.030651709            6 
 2413000   0.87515284    -6.400195    878.28763  0.030331801  0.030642797            3 
 2414000   0.87969406   -6.4057742    879.65854  0.030366561  0.030633858            5 
 2415000    0.8441693   -6.4025881    878.71778  0.030321524  0.030624906            6 
 2416000   0.87361395   -6.3741695    879.77605  0.030345476  0.030615922           12 
 2417000   0.86698472   -6.3524654    881.73184  0.030400353  0.030607022            5 
 2418000   0.86677778   -6.3960992    880.16323   0.03033372  0.030598019            5 
 2419000   0.85211233   -6.3979299    880.38405  0.030328788  0.030588961            7 
 2420000   0.85296184   -6.3992547    880.41907  0.030317461  0.030579873            8 
 2421000   0.87783824   -6.3629124      883.746  0.030419455  0.030571006            4 
 2422000    0.8786082   -6.3704395    881.28645   0.03032227  0.030562058            6 
 2423000   0.87490713    -6.407724     880.0159  0.030266058  0.030553065            5 
 2424000   0.87188305    -6.415354    879.06196  0.030220777     0.030544            5 
 2425000   0.85931765   -6.3814356    881.38236  0.030288054  0.030534979            5 
 2426000   0.87235971   -6.4173417    881.09875  0.030265827  0.030525955            4 
 2427000   0.83910191    -6.398028     882.5477  0.030303108  0.030516881            9 
 2428000      0.85876   -6.3914219    881.48292  0.030254082  0.030507783            5 
 2429000   0.85664414    -6.388563    880.93152  0.030222709  0.030498704            4 
 2430000   0.87746658   -6.3872273     882.7612  0.030273018  0.030489696            7 
 2431000    0.8492062   -6.3763196    884.27652  0.030312509   0.03048075            4 
 2432000   0.86091595   -6.3919891    882.96247  0.030255019  0.030471733            7 
 2433000   0.86045683   -6.3674322    884.86705  0.030307818  0.030462707           10 
 2434000   0.86712293   -6.3956622    880.78496  0.030155607   0.03045381            6 
 2435000   0.86018104    -6.404977     882.0471  0.030186417  0.030444878           11 
 2436000   0.89386966   -6.4015422    883.83222  0.030235092  0.030435874           11 
 2437000   0.86468198   -6.4460701    882.39128  0.030173413  0.030426852            8 
 2438000   0.87313972   -6.3989865    883.99302  0.030215785  0.030417926            5 
 2439000   0.87429306   -6.4100832     881.5793  0.030120927  0.030408932            7 
 2440000   0.85198715   -6.4383143    880.67952  0.030077852  0.030399891            8 
 2441000   0.86541993   -6.4050139    882.55925  0.030129703  0.030390744            9 
 2442000   0.86698667    -6.413136    884.25835  0.030175346  0.030381795           11 
 2443000   0.85294651   -6.4021931     884.6427  0.030176105  0.030372842            7 
 2444000    0.8465906   -6.4079939    882.23085  0.030081521  0.030363897            7 
 2445000   0.86253885    -6.417904    882.56126  0.030080479  0.030354914            7 
 2446000   0.86160129   -6.3801166    883.28733  0.030092918  0.030345893           17 
 2447000   0.86203173    -6.405036    885.50378  0.030156102  0.030336954            5 
 2448000   0.86032085   -6.3916993    884.89825   0.03012317  0.030328004            8 
 2449000   0.87245446   -6.4156207    885.74906  0.030139821  0.030319144           10 
 2450000   0.86261181   -6.4409823     883.5103  0.030051371  0.030310229            5 
 2451000   0.86012574   -6.4398699    881.76606  0.029979806  0.030301307            7 
 2452000   0.84859229   -6.4215864    886.19939   0.03011825  0.030292288            6 
 2453000   0.84485303     -6.44768    884.56347  0.030050397  0.030283288            7 
 2454000   0.85008496   -6.4323629    885.14703  0.030057968  0.030274296            8 
 2455000    0.8577153   -6.4416993    884.45715  0.030022307  0.030265358            9 
 2456000   0.85938785   -6.4183943     883.5368  0.029978854  0.030256478            5 
 2457000   0.86405488   -6.4463532    884.61036  0.030003065   0.03024756            7 
 2458000   0.85560772   -6.4080741    885.63917  0.030025738  0.030238688            5 
 2459000   0.86010083   -6.4375929    886.84006  0.030054225   0.03022977            3 
 2460000   0.86143066   -6.4499253     883.2692  0.029921043  0.030220853            5 
 2461000   0.88199426   -6.4556042    883.18244  0.029905948   0.03021171            7 
 2462000   0.85562575   -6.4242868    882.26433  0.029862724  0.030202694           16 
 2463000    0.8551573   -6.4034041    886.79118  0.030003762  0.030193894            5 
 2464000   0.87362066   -6.3991276    887.78705  0.030025265  0.030185073            4 
 2465000    0.8568327   -6.4169663    887.02159  0.029987207   0.03017619            4 
 2466000    0.8561453   -6.4158372    886.57254  0.029959872  0.030167267            5 
 2467000   0.86034907   -6.4295132    883.60707  0.029847557  0.030158429            8 
 2468000   0.87129704   -6.4244655     883.9753  0.029847897  0.030149581           15 
 2469000   0.86446183   -6.4017547    888.33448  0.029982938  0.030140716           13 
 2470000   0.85621797   -6.4327893    887.59788  0.029945947  0.030131804            9 
 2471000   0.87743086   -6.4182344    886.81964  0.029907583  0.030122863            6 
 2472000   0.87471151    -6.424336    887.50834  0.029918701  0.030113967            5 
 2473000   0.87977921   -6.3845408    887.13599  0.029894056  0.030105149            6 
 2474000   0.85231073   -6.4193105    885.87364  0.029839452  0.030096214            9 
 2475000   0.84416192   -6.4355198    888.40146  0.029912507  0.030087354            9 
 2476000   0.84708817   -6.3768181     887.4391  0.029868036  0.030078458            7 
 2477000   0.84564929   -6.4088589    888.04378  0.029876322  0.030069619            7 
 2478000   0.86310563   -6.3944441    888.40831  0.029876524  0.030060803            6 
 2479000   0.86517265   -6.4789787    884.91073  0.029746898   0.03005189            6 
 2480000   0.86716991   -6.4066667    886.76762  0.029797299  0.030042942            9 
 2481000    0.8691426   -6.4024764    887.99533  0.029826526  0.030034008            4 
 2482000   0.83872936   -6.4029264    890.22202   0.02988927  0.030025079            5 
 2483000   0.85647083   -6.4095311    889.10004  0.029839577  0.030016252            8 
 2484000   0.83785503   -6.4022617    891.72141  0.029915506  0.030007352            6 
 2485000   0.85878491   -6.4254524    887.11691  0.029749058  0.029998493            5 
 2486000   0.87031653   -6.4406544    887.73262  0.029757731  0.029989628           14 
 2487000   0.86208199   -6.4147489    888.01712  0.029755298  0.029980705            2 
 2488000    0.8502214   -6.4074255    890.02856   0.02981071  0.029971785            6 
 2489000     0.844484    -6.430442    886.91964  0.029694645  0.029962903            6 
 2490000   0.84726083   -6.4148791    885.91465  0.029649085  0.029953976            6 
 2491000   0.85618489   -6.4491122    885.06678  0.029608818  0.029944973            3 
 2492000   0.84774825   -6.4271708    886.64639  0.029649759  0.029935923           10 
 2493000    0.8557947   -6.4240234    889.80275  0.029743373  0.029926947            3 
 2494000   0.85103473   -6.4193645    888.89915  0.029701255  0.029917987            3 
 2495000   0.84280072   -6.4243165    886.04777  0.029594114  0.029908983            5 
 2496000   0.88304231   -6.4764201    884.93179  0.029544998  0.029899881           10 
 2497000   0.84852677    -6.412081    886.69618   0.02959205  0.029890842            8 
 2498000   0.84252796   -6.4479346    887.39675  0.029603574  0.029881869            8 
 2499000   0.84455436   -6.4297743    886.42717  0.029559396  0.029872841            6 
 2500000   0.83548822   -6.4186838    888.28336  0.029609445  0.029863876            7 
 2501000   0.83918369    -6.448156    888.97102  0.029620519  0.029854962            6 
 2502000   0.84919944   -6.4344855    888.43145  0.029590709  0.029846044            5 
 2503000   0.84418805   -6.4213506    888.85193  0.029592886   0.02983709            5 
 2504000   0.84866465   -6.4415936    888.16951  0.029558357  0.029828124           12 
 2505000   0.84241363   -6.4212987    888.00935  0.029541229  0.029819121           11 
 2506000   0.86851155   -6.4286606    885.54428  0.029447469  0.029810089            9 
 2507000   0.84360245   -6.4636554    888.21027  0.029524341  0.029800979           18 
 2508000   0.82528372   -6.4192297    890.26611  0.029580878  0.029791974            5 
 2509000   0.83779528   -6.4317567    889.84362  0.029555056  0.029782934            9 
 2510000   0.86460931   -6.4277253    886.54222  0.029433673  0.029773968            9 
 2511000   0.87310235   -6.4265367     889.1031  0.029506939  0.029764982            6 
 2512000   0.85314564   -6.4231402    889.66847  0.029513949  0.029756081            8 
 2513000   0.85718312   -6.4384057    888.44306  0.029461569  0.029747223            9 
 2514000   0.84261825   -6.4076075    892.38504  0.029580517  0.029738287            5 
 2515000   0.84295832   -6.4634681     886.6051   0.02937724  0.029729336            3 
 2516000    0.8654388   -6.4282402    891.30387  0.029521193   0.02972035            9 
 2517000    0.8507265   -6.4303348    890.18042  0.029472269  0.029711339            5 
 2518000   0.85228288   -6.4564456    890.77216  0.029480148  0.029702432            5 
 2519000    0.8501119   -6.4420978    889.84928  0.029437914  0.029693484            5 
 2520000   0.84968165   -6.4819377    887.89542  0.029361621  0.029684592            9 
 2521000   0.84530358   -6.4355934     891.6219  0.029473156  0.029675709            8 
 2522000   0.85345525   -6.4198507    890.94487  0.029439098  0.029666849            8 
 2523000   0.84210313   -6.4398982    892.66933  0.029484388  0.029658004            8 
 2524000   0.85712846   -6.4377959    891.72728  0.029441603  0.029649022            7 
 2525000   0.85831214   -6.4644501     892.9955  0.029471799  0.029640055            5 
 2526000   0.83854435   -6.4633638    891.13555  0.029398771  0.029631099            5 
 2527000   0.85347752   -6.4269335    892.79798  0.029441959  0.029622222           11 
 2528000   0.85041785   -6.3980405     893.7962  0.029463218  0.029613324            6 
 2529000   0.85461367   -6.4479409    893.25709  0.029433804  0.029604415           17 
 2530000   0.87086945   -6.4552086    889.62572   0.02930256  0.029595456            5 
 2531000   0.84165461   -6.4713039     892.1416  0.029373818  0.029586541            5 
 2532000   0.83530696   -6.4418107    891.39299  0.029337579  0.029577698           19 
 2533000    0.8414547   -6.4662029     889.8054  0.029273766  0.029568752            7 
 2534000   0.83881514   -6.4820375    891.66847  0.029323483  0.029559772            4 
 2535000   0.84228154   -6.4184301    893.85453  0.029383778  0.029550782            4 
 2536000   0.84673544   -6.4834236    891.54163  0.029296189  0.029541822           12 
 2537000   0.82352024   -6.4765482    890.84191  0.029261658  0.029532856            6 
 2538000   0.84022337   -6.4648236    891.92571  0.029285714  0.029523901            5 
 2539000   0.83308501   -6.4469684    893.31707  0.029319846  0.029514941            6 
 2540000   0.84438147   -6.4490823    892.89756  0.029294539  0.029505987            5 
 2541000   0.85226118   -6.4636111    894.50202   0.02933563  0.029497163            6 
 2542000   0.87464911   -6.4009618    896.82124  0.029400119   0.02948833            7 
 2543000   0.83590935   -6.4430821    894.90321  0.029325705  0.029479587           10 
 2544000   0.82898771   -6.4292582    895.17609  0.029323116    0.0294708            5 
 2545000   0.84295305   -6.4535282    896.04749  0.029340127  0.029461951            8 
 2546000   0.82519739   -6.4784975    893.27735  0.029237934  0.029453078            5 
 2547000    0.8446338   -6.4277123    895.47864  0.029298477  0.029444226           10 
 2548000   0.84373772   -6.4273761    895.10285  0.029274688  0.029435423            4 
 2549000   0.84062336   -6.4473939    895.14797  0.029264678  0.029426652            6 
 2550000   0.84258835   -6.4386973    896.67244  0.029303021  0.029417849           13 
 2551000   0.83996305   -6.4168259    896.46077  0.029284619  0.029409112            3 
 2552000   0.84743581   -6.4451599    895.43917  0.029239785  0.029400395            8 
 2553000   0.84100043    -6.447521    893.46478  0.029163885  0.029391641           12 
 2554000   0.85430949   -6.4435876    895.06943  0.029204823  0.029382891            8 
 2555000   0.83471841   -6.4738301    895.78007  0.029216571  0.029374145            5 
 2556000   0.84623096   -6.4899494    895.24167  0.029187587  0.029365311            9 
 2557000   0.85238049   -6.4433812    896.33111  0.029211677  0.029356501            6 
 2558000    0.8511432    -6.459044    894.16308  0.029129628  0.029347733            4 
 2559000   0.84648699   -6.4854231    895.18154  0.029151411  0.029338895            3 
 2560000   0.83963295   -6.4525823    895.26737  0.029142818  0.029330122            8 
 2561000   0.83776921   -6.4533256    896.06439  0.029157373  0.029321315           12 
 2562000   0.83440386   -6.4183636    896.61484  0.029163897  0.029312508            4 
 2563000   0.85050056    -6.459837    898.48759  0.029213408  0.029303714           11 
 2564000   0.84295762   -6.4765341    895.82485  0.029115472  0.029294921           10 
 2565000   0.82044758   -6.4659792    896.57407  0.029128462  0.029286141           11 
 2566000   0.84440671   -6.4637262    896.11956   0.02910235  0.029277295            5 
 2567000   0.83959369   -6.4673271    895.34343  0.029065817  0.029268502            4 
 2568000   0.85067512   -6.4483527    899.07469  0.029175581  0.029259786            5 
 2569000   0.82700791   -6.4620438    898.07636   0.02913184  0.029251082            4 
 2570000   0.84065738   -6.4570813    899.76011  0.029175101  0.029242386            5 
 2571000   0.86521915   -6.4396736    898.27229  0.029115529  0.029233784            4 
 2572000   0.85911548   -6.4511307    899.67238  0.029149572  0.029225169           10 
 2573000   0.84749387   -6.4743383    898.73815  0.029107985  0.029216528            6 
 2574000   0.84551263   -6.4882809      897.502  0.029056656  0.029207794            5 
 2575000   0.85769258   -6.4936409    897.31091  0.029039188  0.029199031            9 
 2576000   0.83224959   -6.4567472    899.62785  0.029102868  0.029190329            8 
 2577000   0.83037751   -6.4591486    896.93946  0.029004639  0.029181608            5 
 2578000   0.82894857   -6.4589262    895.64642  0.028951591  0.029172918            6 
 2579000   0.85268373   -6.4305301    899.41644  0.029062183  0.029164203            7 
 2580000    0.8454238   -6.4378069    897.58301  0.028991699   0.02915553            4 
 2581000   0.83874348   -6.4674797     898.5566  0.029011901  0.029146795           11 
 2582000   0.84791155   -6.4828785    896.28651  0.028927398   0.02913799           12 
 2583000   0.85190211   -6.4642189    896.97236  0.028938326  0.029129184           11 
 2584000   0.83751485      -6.4856    896.92986  0.028925757  0.029120391            8 
 2585000   0.85309609   -6.4619647    895.71503  0.028875404   0.02911157            5 
 2586000   0.83689828   -6.4939543    897.14191  0.028910219  0.029102811            6 
 2587000   0.84710611   -6.4453635    899.68335  0.028980909  0.029094047            6 
 2588000   0.82797162    -6.451084    898.64647  0.028936324  0.029085278           11 
 2589000    0.8426504    -6.467425    898.20148  0.028910824   0.02907648           10 
 2590000   0.84787734   -6.4739621    898.82144  0.028919609  0.029067718            8 
 2591000   0.82301114   -6.4980856    897.46947  0.028864964  0.029058901            3 
 2592000    0.8246689   -6.4706102    899.21993  0.028910106  0.029050113            6 
 2593000   0.82431938   -6.4834509    898.54463  0.028877254  0.029041258            6 
 2594000   0.85631045   -6.4976424    898.98296  0.028880203    0.0290325            7 
 2595000   0.82482437    -6.458459     898.8701   0.02886545  0.029023805           10 
 2596000   0.87040598   -6.4665159     899.1429  0.028863087  0.029015068            7 
 2597000   0.83416541    -6.459286    900.62517  0.028899537  0.029006282            9 
 2598000    0.8324676   -6.4492259    900.76275  0.028892826  0.028997522            6 
 2599000   0.83650681   -6.4352863    902.78478  0.028946543    0.0289888            4 
 2600000   0.82888584   -6.4799781    898.64896  0.028802851  0.028980058            5 
 2601000   0.82384463   -6.4984367    899.00645  0.028803231  0.028971337            4 
 2602000   0.83721353   -6.4916207    900.75483  0.028848156   0.02896257           11 
 2603000   0.86179342   -6.4358425    901.12294  0.028848858  0.028953841           10 
 2604000   0.81565533   -6.4744175    898.12654  0.028741889  0.028945111            4 
 2605000   0.82786748   -6.4779568    899.58102  0.028777384  0.028936314           17 
 2606000   0.84647376   -6.4770245     899.9598  0.028778454  0.028927497            4 
 2607000   0.82440306   -6.4554031    902.53064  0.028849592  0.028918716           10 
 2608000   0.85546692   -6.4686686    900.06938  0.028759886  0.028909986           15 
 2609000    0.8592519   -6.4965956    899.37052   0.02872654  0.028901202            6 
 2610000    0.8063745   -6.5079202    896.82999  0.028634418  0.028892386            5 
 2611000   0.82487087   -6.5006676    898.66798  0.028682113  0.028883558           10 
 2612000   0.84010344   -6.4965219    899.71425  0.028704513  0.028874762            8 
 2613000   0.82768584   -6.4648247    902.82061  0.028792595   0.02886606            7 
 2614000   0.82357621   -6.4511044     902.8741  0.028783286  0.028857343            4 
 2615000   0.84331436   -6.4803238    900.41101  0.028693786  0.028848655            7 
 2616000     0.836658   -6.4600359     903.2524  0.028773331      0.02884            9 
 2617000   0.82959777   -6.4648771    898.69807  0.028617312  0.028831377           11 
 2618000   0.83134697    -6.493474    904.01401  0.028775592  0.028822656           10 
 2619000   0.83619767   -6.4697972    902.14526  0.028705144  0.028813957            8 
 2620000   0.84816831    -6.479241    902.34336  0.028700489  0.028805256            7 
 2621000   0.83138068   -6.4947925    902.67762  0.028700166  0.028796608            7 
 2622000   0.83741881   -6.4968725    899.95485  0.028602684  0.028787863            4 
 2623000   0.82804472   -6.4933802    900.31676  0.028603278  0.028779098            7 
 2624000   0.81828264   -6.4859749    900.63847  0.028602594  0.028770372            6 
 2625000   0.83168656   -6.5083869    902.14263  0.028639449  0.028761627            5 
 2626000   0.83834801    -6.487634     903.8038  0.028681258   0.02875289            8 
 2627000    0.8335475    -6.460692    903.87436  0.028672578  0.028744199            5 
 2628000   0.83929348   -6.5036551    900.02456  0.028539592    0.0287355            6 
 2629000   0.83984577   -6.4864824    902.89558  0.028619741  0.028726752            6 
 2630000    0.8439968   -6.5239346    901.01034  0.028549124  0.028717973            7 
 2631000   0.79968144    -6.486555    902.52176  0.028586145  0.028709231            5 
 2632000   0.83484432   -6.5254313    902.01521  0.028559245  0.028700475            7 
 2633000    0.8295617   -6.4881279    902.31303  0.028557825  0.028691724            4 
 2634000   0.83297584   -6.5025337    900.82714  0.028499973  0.028682993            6 
 2635000   0.83689793   -6.5082978    903.10238  0.028561113  0.028674318            5 
 2636000    0.8290599   -6.4768217    902.64036  0.028535671  0.028665678            7 
 2637000   0.82997666   -6.4920411    903.75879  0.028560194  0.028657002            5 
 2638000   0.82110209    -6.452362    901.88418   0.02849015  0.028648345            5 
 2639000   0.82361273   -6.4743654    904.03336   0.02854722  0.028639724            7 
 2640000   0.83996417   -6.4736319    905.44263  0.028580891  0.028631082            3 
 2641000   0.83300466   -6.4913246    904.45767   0.02853899  0.028622448            3 
 2642000   0.82337708   -6.4620574    905.30489  0.028554911  0.028613849           12 
 2643000    0.8550042   -6.4889164    904.02055  0.028503612  0.028605258           11 
 2644000   0.81994999   -6.4940233    904.15096  0.028496941  0.028596652           15 
 2645000   0.83440023   -6.5070042    905.50558  0.028528846  0.028588114            6 
 2646000   0.82140603   -6.4566837    904.08526  0.028473333  0.028579566           13 
 2647000   0.81696564   -6.4945053    906.39989  0.028535445  0.028570975            5 
 2648000   0.84052194     -6.50973    904.44753  0.028463228  0.028562367           12 
 2649000   0.83012233   -6.4966491    905.97896  0.028500659  0.028553732            9 
 2650000   0.83661476   -6.5061887    905.58271  0.028477444  0.028545099            8 
 2651000   0.82238271   -6.4968391    906.66103  0.028500598  0.028536582           11 
 2652000    0.8122717   -6.4891466    906.16341  0.028474215  0.028528065            7 
 2653000   0.81407129   -6.4921861    906.11529   0.02846197  0.028519518            5 
 2654000   0.80908924   -6.5111597    906.12363  0.028451508  0.028511027           24 
 2655000   0.83313866   -6.4818797    907.69014  0.028489961  0.028502496           10 
 2656000   0.82868511   -6.4735324     910.6175  0.028571081   0.02849404            9 
 2657000      0.82246   -6.5014316    906.58046  0.028433712  0.028485551           20 
 2658000   0.82326831   -6.5024802    906.99881   0.02843613  0.028476976            6 
 2659000    0.8298397   -6.4917281    906.03327  0.028395176  0.028468358           14 
 2660000   0.81840229   -6.4914305    907.61683  0.028434111  0.028459852            6 
 2661000   0.83722092   -6.5130848    906.88916  0.028400638  0.028451345            8 
 2662000   0.82001384   -6.5265538    908.50226  0.028440466   0.02844281           18 
 2663000   0.82871288   -6.4838849    907.76603  0.028406748  0.028434342            7 
 2664000   0.82976142   -6.4912453      909.577  0.028452734  0.028425829            6 
 2665000   0.82186712   -6.4933653    908.52898  0.028409286  0.028417398           11 
 2666000   0.82119475    -6.495791    908.24902  0.028389879  0.028408928            7 
 2667000   0.83872214   -6.4690429    910.23916  0.028441419  0.028400506            9 
 2668000   0.82206415   -6.5062599    907.65397  0.028350011  0.028392072           10 
 2669000   0.80305865   -6.4977737    908.27774  0.028358865   0.02838362            8 
 2670000     0.807668   -6.4827811    911.00063  0.028433228  0.028375184            7 
 2671000   0.82946851   -6.5088076    908.98131  0.028359582  0.028366712            7 
 2672000   0.83651767   -6.4919067    910.36676  0.028392177  0.028358315           10 
 2673000   0.81783104   -6.5051871    909.52465  0.028355301  0.028350021           10 
 2674000   0.82277444   -6.5014844     909.4542  0.028342502  0.028341751           18 
 2675000   0.82790026   -6.5016024    910.26888  0.028357286  0.028333393            5 
 2676000   0.82819429   -6.4796682    909.74585  0.028330401  0.028325024            4 
 2677000   0.82028553   -6.5259705    909.34793  0.028307432  0.028316654            7 
 2678000   0.81708764   -6.5144423      910.685  0.028338468  0.028308234            8 
 2679000   0.84046098   -6.5286084    911.99989  0.028368791  0.028299796            4 
 2680000   0.82763779    -6.523393    910.39805  0.028308397  0.028291413            9 
 2681000   0.82879015   -6.5349286    909.13638  0.028258622  0.028283027            6 
 2682000    0.8070153   -6.4995338    910.96776  0.028304989   0.02827467           11 
 2683000   0.82703054   -6.4927923    911.99781  0.028326432  0.028266391            3 
 2684000   0.81695687    -6.495984    914.18873  0.028383902  0.028258127            6 
 2685000   0.81512849   -6.5237182    909.53646   0.02822894  0.028249709            8 
 2686000   0.80857306   -6.5098119    910.66016  0.028253294   0.02824132            7 
 2687000   0.83083265   -6.5278408    910.96796  0.028252325  0.028232941            8 
 2688000   0.82408312   -6.4968491    911.44687  0.028256662  0.028224579           11 
 2689000   0.83000418   -6.5083713    913.11045  0.028297708  0.028216229            7 
 2690000   0.81885562   -6.4990207    910.72994  0.028213443  0.028207844            4 
 2691000    0.8263945   -6.5180608    912.91163   0.02827052   0.02819947            7 
 2692000   0.83211816   -6.5012515    912.57756  0.028249677  0.028191091            5 
 2693000   0.80793749   -6.5149201    910.24738  0.028167081  0.028182732            7 
 2694000   0.82543278   -6.5279584    909.80576  0.028142965  0.028174349            6 
 2695000   0.81979199   -6.4998235    911.57421  0.028187205   0.02816598            9 
 2696000   0.83453769    -6.492437    914.45017  0.028265646  0.028157643            7 
 2697000   0.81375502   -6.5084772    912.59921  0.028197973  0.028149231            7 
 2698000   0.81846205    -6.511408    910.98899  0.028137787  0.028140854            6 
 2699000   0.82458512   -6.5402799    911.81245  0.028152787  0.028132468            3 
 2700000   0.80274101   -6.4993019    914.69743  0.028231402  0.028124028           11 
 2701000   0.82078211   -6.5272308    911.48877  0.028121954  0.028115661            8 
 2702000    0.8064951   -6.5274841    910.10663  0.028068919   0.02810733            6 
 2703000   0.82993921    -6.521758    910.62212  0.028074427  0.028098966            6 
 2704000   0.82000142   -6.5322543    910.82879  0.028070414  0.028090609           10 
 2705000   0.82454686   -6.5195395    912.71818  0.028118243  0.028082267            7 
 2706000   0.81159977   -6.5433043    911.81178  0.028079939   0.02807392            7 
 2707000   0.81937527   -6.5066858     914.9503  0.028166183   0.02806556           12 
 2708000   0.82548548   -6.5448839    913.94607  0.028124879  0.028057242           13 
 2709000   0.82531776   -6.5297672    911.97288  0.028053799  0.028048824           18 
 2710000   0.79636797   -6.5228705     911.4035  0.028025938  0.028040442            5 
 2711000   0.81177534   -6.5396062    914.63897  0.028115055  0.028032121           10 
 2712000   0.81876946   -6.5220026    911.18002  0.027998403   0.02802373           16 
 2713000   0.80498257   -6.4889398    915.80818  0.028130243  0.028015424            4 
 2714000   0.81042295   -6.5086085    914.61226  0.028083157   0.02800714            7 
 2715000   0.82485591   -6.5529728     911.9731  0.027991808  0.027998836           14 
 2716000   0.81274531   -6.5197291     913.0842  0.028015593  0.027990544            6 
 2717000    0.8062622   -6.5419299    913.02614  0.028003501  0.027982268            5 
 2718000   0.82309372   -6.5168835    914.62278   0.02804215  0.027973928            7 
 2719000   0.81881835   -6.5249063    915.54314  0.028060045  0.027965616           16 
 2720000   0.82018742   -6.5142948    914.26964  0.028010712   0.02795732            8 
 2721000   0.81304229   -6.5119369     917.0635  0.028085983  0.027949026           10 
 2722000   0.80721205   -6.5771431    914.89302  0.028009216  0.027940718           10 
 2723000   0.80921039    -6.527035    915.52188  0.028018175  0.027932407            7 
 2724000   0.81503202   -6.5234449    915.69617  0.028013221  0.027924214           12 
 2725000   0.81358113   -6.5477974    915.41653  0.027994389  0.027915923           17 
 2726000   0.81023631    -6.557095     913.1804  0.027915762  0.027907576           14 
 2727000   0.82753091   -6.5548257    914.07636  0.027932904  0.027899261            6 
 2728000   0.82335234    -6.527546    914.89398  0.027947641  0.027890996            9 
 2729000   0.82352934   -6.5419542    915.96138  0.027969994  0.027882749            4 
 2730000   0.82522799   -6.5631811    914.42665  0.027912901   0.02787449            6 
 2731000   0.80744727   -6.5574624    914.24824  0.027897237  0.027866174            8 
 2732000   0.80372209   -6.5174158    915.29553  0.027918971  0.027857925           11 
 2733000   0.82208491   -6.5398395    916.14539  0.027934669  0.027849691           15 
 2734000   0.80438451   -6.5060245    917.39668  0.027962591  0.027841512            7 
 2735000   0.80462614   -6.5162364    918.31416  0.027980322  0.027833388            6 
 2736000   0.83380747   -6.4982093    917.35665  0.027940931  0.027825234            5 
 2737000    0.8219728   -6.5238063    914.54794  0.027845206  0.027816994           13 
 2738000   0.80052635   -6.5550151    916.21108  0.027885655  0.027808699            5 
 2739000   0.81579883   -6.4890035    917.79512  0.027923668  0.027800361            4 
 2740000   0.82425284   -6.5295845    914.86059  0.027824227  0.027792148           10 
 2741000   0.82066262   -6.5202538    915.63727  0.027837689  0.027783871           11 
 2742000   0.80616091   -6.5310255      916.271  0.027846797  0.027775583            5 
 2743000   0.81212039    -6.530675    916.85557  0.027854404   0.02776735            5 
 2744000   0.81949701   -6.5468773    916.61777  0.027837031  0.027759066            5 
 2745000   0.83424736   -6.5139559    916.93089  0.027836396  0.027750802            9 
 2746000   0.82393011   -6.5300716    919.28799   0.02789779  0.027742591            9 
 2747000   0.80997286   -6.5256443    915.50954  0.027773011  0.027734358            8 
 2748000     0.816141   -6.5314796    916.40064  0.027789927  0.027726121            9 
 2749000   0.80386811   -6.5437861    916.64539  0.027787237  0.027717833           12 
 2750000   0.82049665   -6.5515536     917.3258  0.027797751  0.027709628            9 
 2751000   0.81035638   -6.5244492    916.70805  0.027768934  0.027701412            5 
 2752000   0.80904177   -6.5510729    915.38229  0.027718698  0.027693113            8 
 2753000   0.82073405   -6.5600659     915.2004  0.027703124  0.027684851           10 
 2754000   0.80192071    -6.549827    916.35244  0.027727924  0.027676576           10 
 2755000   0.78992792   -6.5385657    917.47466  0.027751805  0.027668305            4 
 2756000   0.81198738   -6.5403866     918.7594  0.027780582  0.027660036            6 
 2757000   0.80681509   -6.5391981    919.14901  0.027782282  0.027651866            5 
 2758000   0.81330729   -6.5507667    918.41244  0.027749953  0.027643654            5 
 2759000   0.81174159   -6.5296404     916.7743  0.027690416  0.027635502            4 
 2760000   0.80987709   -6.5262322    919.71573  0.027769195  0.027627349           16 
 2761000   0.81459413   -6.5192186    918.48318  0.027721936  0.027619132           18 
 2762000   0.80828476   -6.5435088    919.50731  0.027742799   0.02761094            9 
 2763000   0.82574737   -6.5531452    917.16075  0.027661984  0.027602703            8 
 2764000   0.80807677   -6.5360716    921.63022  0.027786729  0.027594488           12 
 2765000   0.80161848   -6.5693414    918.55257  0.027683923  0.027586273           10 
 2766000   0.81104753   -6.5462885     918.9637  0.027686301  0.027578073            9 
 2767000   0.80211834   -6.5265287    919.32993  0.027687325  0.027569889            5 
 2768000   0.80916058   -6.5195877    922.14056  0.027761939  0.027561734            7 
 2769000   0.80728775   -6.5259441    917.15134  0.027601762  0.027553511            7 
 2770000   0.81380704   -6.5666117    919.91679  0.027674994  0.027545276            9 
 2771000   0.81966389   -6.5519124    916.77034  0.027570382  0.027536973            9 
 2772000   0.81431874    -6.565336    918.27006  0.027605521  0.027528643            6 
 2773000   0.81905152   -6.5139558    920.31844  0.027657123  0.027520414            5 
 2774000   0.82160038   -6.5509107    917.31758  0.027557005  0.027512184            5 
 2775000   0.79662926   -6.5253592    918.13982  0.027571766  0.027503942            6 
 2776000   0.81439014   -6.5503629    919.18269   0.02759314  0.027495715            7 
 2777000   0.81707882   -6.5451439    917.16191  0.027522564  0.027487429            5 
 2778000   0.81365686   -6.5546121    918.91589  0.027565271  0.027479136            9 
 2779000   0.81214391   -6.5756682    916.92858  0.027495759  0.027470809            9 
 2780000   0.81694857   -6.5588192    917.04948  0.027489493  0.027462492            5 
 2781000   0.81115685   -6.5416066    920.24283  0.027575298  0.027454212            7 
 2782000   0.79584946    -6.546881    916.43078  0.027451198   0.02744594            7 
 2783000   0.79939442   -6.5280119    921.27877    0.0275865  0.027437736            8 
 2784000   0.81117978   -6.5566295    920.10082  0.027541332  0.027429497            7 
 2785000   0.79049477   -6.5569637     919.5648  0.027515404  0.027421287            7 
 2786000   0.81425685   -6.5314837    921.15165  0.027552993  0.027413026           16 
 2787000   0.83046148   -6.5696262    918.85943  0.027474567  0.027404776           20 
 2788000   0.78700808    -6.514561    919.94251  0.027497086   0.02739653           11 
 2789000   0.79163487   -6.5618757    918.77052  0.027452209  0.027388299           19 
 2790000    0.8065505   -6.5511932    919.88394  0.027475625   0.02738004            9 
 2791000   0.80204431   -6.5810806    919.00687  0.027439594  0.027371743           17 
 2792000    0.8092816   -6.5916162    917.93649  0.027397818  0.027363466            7 
 2793000   0.81277265   -6.5292264    920.98543  0.027478978  0.027355201            6 
 2794000   0.80129399   -6.5521545    917.24537  0.027357593  0.027346955           15 
 2795000    0.7938257    -6.551626    921.95681  0.027488277  0.027338701           14 
 2796000   0.79884089   -6.5554269     920.9654  0.027448897  0.027330505            8 
 2797000   0.80048807   -6.5689249    919.72602  0.027402158  0.027322217            5 
 2798000   0.81064695   -6.5801897    923.09484  0.027492698  0.027313943            7 
 2799000   0.80957499   -6.5400172    922.44522  0.027463535  0.027305705            9 
 2800000   0.80147932   -6.5797682     918.0782  0.027323756  0.027297468           19 
 2801000    0.8100271   -6.5623493    921.38003  0.027412235  0.027289263            7 
 2802000   0.80051099   -6.5494365    919.69553  0.027352353  0.027280982           10 
 2803000   0.79678829   -6.5508299    921.13862  0.027385498  0.027272708           12 
 2804000   0.80794801   -6.5500155    922.20161  0.027407323  0.027264441           15 
 2805000   0.81750312   -6.5689862    917.28309  0.027251429  0.027256154            7 
 2806000   0.82332555   -6.5729069    919.85967  0.027318237  0.027247872            6 
 2807000    0.8140624   -6.5716848    921.06567  0.027344308   0.02723962            9 
 2808000   0.79791411   -6.5668016    918.76531  0.027266302  0.027231324           10 
 2809000    0.8097222    -6.550637    920.34684  0.027303514  0.027223157           12 
 2810000   0.81396098   -6.5721495    920.21575   0.02728991  0.027214929            5 
 2811000   0.79086961   -6.5456009    919.99027  0.027273517  0.027206721            5 
 2812000   0.79427433    -6.606925    919.45841  0.027248056  0.027198502           10 
 2813000   0.78328059   -6.5401904    923.14043  0.027347447  0.027190267           10 
 2814000   0.80451904   -6.5322103    923.08254  0.027336015  0.027182033            8 
 2815000   0.79164862   -6.5936309    921.40241  0.027276566  0.027173808            8 
 2816000   0.80029667   -6.5689024    920.68982  0.027245792  0.027165601           13 
 2817000    0.7978063   -6.5505726    921.44389  0.027258428  0.027157392            3 
 2818000   0.79060065   -6.5539467    920.18536  0.027211538  0.027149164            5 
 2819000     0.814649   -6.5456733    924.12387  0.027318312  0.027140967            9 
 2820000     0.810637   -6.5905952    919.92875  0.027184656  0.027132748            6 
 2821000   0.79820591   -6.5400838    923.15646  0.027270367  0.027124467           10 
 2822000   0.80594612   -6.5677748    922.97141  0.027255239  0.027116235            9 
 2823000   0.81619961   -6.5733099    921.55726  0.027203839  0.027107968            9 
 2824000   0.80736225    -6.573171    919.60818  0.027136691  0.027099736            7 
 2825000   0.79437662   -6.5724991    922.79507  0.027221094   0.02709149            9 
 2826000   0.81153888   -6.5899123    920.86452  0.027154533   0.02708325            5 
 2827000   0.80655929   -6.5675176    920.00783  0.027119674  0.027074951            5 
 2828000   0.79802074    -6.607037    920.38088  0.027121077  0.027066707           15 
 2829000   0.79290984   -6.5812051    919.18067  0.027076136  0.027058425           22 
 2830000   0.80412624   -6.5936982     920.9947  0.027119985  0.027050182           11 
 2831000   0.76289222   -6.5615896    923.02013  0.027170026  0.027041956            8 
 2832000    0.7955576   -6.5569405    923.41702  0.027172111  0.027033772            6 
 2833000    0.8148233   -6.5532791    923.63479  0.027168925  0.027025605            5 
 2834000   0.79004397   -6.5693477    925.18255   0.02720485  0.027017465            8 
 2835000   0.79337701   -6.5240317    924.77902  0.027183393  0.027009357            9 
 2836000   0.80942169   -6.5566683    925.36053  0.027190895  0.027001235           11 
 2837000   0.80871153   -6.5883236    922.84218  0.027107337  0.026993032           32 
 2838000   0.79090877   -6.5874657    923.72235   0.02712363  0.026984821            7 
 2839000    0.7932798   -6.5883789    921.10232   0.02703717  0.026976612           11 
 2840000   0.78497533   -6.5841198     923.0416  0.027084554  0.026968402            5 
 2841000   0.79012984   -6.5759962    924.85173  0.027128116  0.026960277            9 
 2842000   0.78777315    -6.577428    922.17504  0.027040084  0.026952115           14 
 2843000   0.80023195   -6.5659001    924.12312  0.027087675  0.026943933            4 
 2844000   0.79976179    -6.576028    922.28605  0.027024322  0.026935775           10 
 2845000    0.7984947   -6.5418753    926.09976  0.027126531  0.026927673           10 
 2846000   0.79827822   -6.5805668    923.38875  0.027037619  0.026919556            7 
 2847000   0.78720074   -6.5598677    924.61641  0.027064056  0.026911417            8 
 2848000   0.78677315   -6.6284007    922.32849  0.026987608  0.026903256            6 
 2849000    0.7900442   -6.5932768     923.3467  0.027007918  0.026895028           11 
 2850000   0.79303141   -6.5889724    924.82453  0.027041653   0.02688686           12 
 2851000   0.80106425   -6.5653922    924.64401  0.027026892  0.026878722           15 
 2852000   0.80450109   -6.5583592    921.97317  0.026939375  0.026870677            6 
 2853000   0.79258372   -6.5613316    925.56324  0.027034795   0.02686259            8 
 2854000    0.7834468   -6.5587828    926.61222  0.027055951  0.026854574           14 
 2855000   0.79858612   -6.5875449    923.90528  0.026967463  0.026846549           13 
 2856000   0.79352526   -6.5753727    926.06936  0.027021165  0.026838488            9 
 2857000    0.7863599   -6.5562782    927.50368  0.027053543   0.02683045           12 
 2858000    0.7905547   -6.5355292    928.48757  0.027072766  0.026822439            5 
 2859000   0.79284955   -6.5767814    924.66893  0.026951992  0.026814442            8 
 2860000   0.79769979   -6.5751564    926.02047  0.026981948  0.026806457            6 
 2861000   0.78224526   -6.5611019    927.71256  0.027021804  0.026798426            7 
 2862000   0.80003033   -6.5588208    929.59715  0.027067236  0.026790432            6 
 2863000   0.78669298   -6.5961201     926.0286  0.026953912  0.026782423           12 
 2864000   0.78667019   -6.6363577    926.83202  0.026967878  0.026774378            7 
 2865000   0.77858874   -6.5664166    929.02995  0.027022395  0.026766353           11 
 2866000   0.78628183    -6.594853    926.87689  0.026950363  0.026758353           15 
 2867000   0.79331223    -6.596237    928.18574  0.026979006  0.026750336            9 
 2868000   0.78755028   -6.5894862    927.73685  0.026956556  0.026742376            9 
 2869000    0.7901762   -6.5990542    926.79354  0.026919761  0.026734359            7 
 2870000   0.79451417   -6.6060813    925.97451    0.0268866  0.026726303            7 
 2871000   0.79755175   -6.5902183    926.27088  0.026885838  0.026718216            5 
 2872000   0.79468615   -6.5978916    926.21278  0.026874791  0.026710168            6 
 2873000   0.79346777   -6.5811393    926.61208  0.026877018  0.026702127           12 
 2874000   0.78719143   -6.5832179    929.16367  0.026941651  0.026694212            7 
 2875000   0.77748168   -6.5757264    929.90054  0.026953639  0.026686294            6 
 2876000   0.78200345   -6.5671444    927.68328  0.026880021  0.026678353            9 
 2877000   0.79877225   -6.5724601    929.76814  0.026931066  0.026670347           20 
 2878000     0.789419   -6.5792786     927.9843  0.026870057  0.026662385           11 
 2879000   0.78593767   -6.5911009    929.78798  0.026912932  0.026654457            7 
 2880000   0.80463404    -6.614737    927.71174  0.026843511  0.026646521            7 
 2881000   0.77755789   -6.5953021    930.93505  0.026927428  0.026638592           12 
 2882000   0.80879667   -6.6079908    930.01852  0.026891583  0.026630659            6 
 2883000   0.76573637   -6.5606483    932.03799  0.026940629  0.026622772           11 
 2884000   0.78708972   -6.6062011    928.55603  0.026830676  0.026614898           11 
 2885000   0.79437457   -6.5895593    928.36512  0.026815861  0.026606946           11 
 2886000   0.78909655   -6.6119339    928.64099  0.026814536  0.026598988           18 
 2887000   0.79639794   -6.6228102    927.69134  0.026777836  0.026591019           10 
 2888000   0.78254767    -6.610819    929.05269  0.026807846  0.026583058            5 
 2889000   0.79022283   -6.6140332    928.09439  0.026770924   0.02657511            8 
 2890000   0.78410118   -6.5937321     929.8542  0.026812405  0.026567177           10 
 2891000   0.78438179   -6.5566267    929.87977  0.026803868  0.026559291           13 
 2892000   0.78501812   -6.6149384    929.29893  0.026777862  0.026551375            5 
 2893000   0.78678871   -6.5941558    929.28986  0.026768345  0.026543413           10 
 2894000    0.7885319   -6.5942373    928.73054  0.026742989  0.026535458            7 
 2895000   0.79725314    -6.609468    928.07717  0.026714944  0.026527477            7 
 2896000   0.79734716   -6.6016172    927.61444  0.026692405  0.026519484            9 
 2897000   0.77516479   -6.5767016    929.70931   0.02674345  0.026511597           14 
 2898000   0.77967375   -6.5992868      930.652   0.02676133  0.026503767            9 
 2899000    0.7820242   -6.5968243     928.9429  0.026702969  0.026495898            5 
 2900000   0.78728192   -6.5974071    930.33838  0.026733862  0.026487967            7 
 2901000   0.78751165   -6.5534211    932.07401  0.026774503  0.026480142            5 
 2902000   0.77768457   -6.5827382     931.2877  0.026742698  0.026472332           11 
 2903000   0.80780272   -6.5888403    927.84199  0.026634573  0.026464429            7 
 2904000   0.79821969   -6.6002715    932.28719  0.026752961  0.026456513           12 
 2905000   0.78918384   -6.5789929    930.98599  0.026706426  0.026448613            8 
 2906000   0.78244059   -6.6000152    931.12782  0.026701303  0.026440695            7 
 2907000   0.80017318   -6.5872917    931.41265  0.026700282  0.026432772           12 
 2908000    0.7806462   -6.6033816    933.71292  0.026757019  0.026424903           10 
 2909000   0.78414979   -6.6021578    932.14255  0.026702835  0.026416986            8 
 2910000   0.77461504   -6.5716303    933.51402  0.026732933  0.026409143           12 
 2911000   0.78244396   -6.6077276    932.10572  0.026683434  0.026401281            7 
 2912000   0.77563984   -6.6107237    931.81627  0.026665988  0.026393334           21 
 2913000   0.78004011   -6.6239017    930.79369   0.02662758  0.026385441           16 
 2914000   0.79497459   -6.5993822     931.2781  0.026632295   0.02637753           18 
 2915000   0.76477212   -6.5657868    932.74816  0.026665185  0.026369675            7 
 2916000   0.79102176   -6.5962849    931.02866  0.026606901    0.0263618            6 
 2917000   0.79969694   -6.6294198    929.00245  0.026539894    0.0263539           12 
 2918000   0.77941398   -6.6443102    927.96983  0.026501309  0.026345971           13 
 2919000   0.78396108   -6.6117377    929.56402  0.026537742  0.026338059           12 
 2920000   0.79501044   -6.6026986    931.61022   0.02658705  0.026330148           16 
 2921000   0.78374414    -6.665418    930.32636   0.02654132  0.026322167           13 
 2922000   0.78342984   -6.6546587    929.59182  0.026511288  0.026314195           12 
 2923000   0.78040981   -6.6508615    929.63004  0.026503308  0.026306245            4 
 2924000   0.78245348   -6.6376827    933.28932  0.026598533  0.026298328            8 
 2925000    0.7773776   -6.6065852    931.42569  0.026536345  0.026290446            7 
 2926000   0.77522965   -6.6201633    931.52597  0.026530131  0.026282533            9 
 2927000   0.78426822   -6.6101269    932.45451  0.026547503  0.026274672            7 
 2928000   0.78605072   -6.5789387    931.97363   0.02652475  0.026266787           10 
 2929000   0.80296266   -6.6145946    931.79508  0.026510615  0.026258946            8 
 2930000   0.79076174   -6.5948916    930.87603  0.026475428  0.026251103            5 
 2931000   0.77487599   -6.6187631    933.99061  0.026554948  0.026243266            3 
 2932000   0.78220506    -6.616034    932.21682  0.026495476  0.026235439            5 
 2933000   0.79103984   -6.6351666    931.32382   0.02646107  0.026227543           20 
 2934000   0.78098063   -6.6140191     931.6308   0.02646077  0.026219675            5 
 2935000    0.7913766   -6.6105614    933.35648  0.026500752  0.026211755            9 
 2936000   0.76920154   -6.6099418    931.99882  0.026453191  0.026203877            8 
 2937000   0.76748487   -6.6231589    932.18536  0.026449477  0.026195993            4 
 2938000   0.76785124   -6.6246834    930.80039  0.026401191  0.026188116            8 
 2939000   0.78224906   -6.6134204    931.22437  0.026404229  0.026180176            9 
 2940000   0.77329095   -6.6032642    931.86596  0.026413434   0.02617229           10 
 2941000    0.7771629   -6.6301395    931.37908  0.026390657  0.026164394            9 
 2942000    0.7562082   -6.6394775    931.40049  0.026382293  0.026156474           16 
 2943000   0.78680789   -6.5875443    934.42367  0.026458933  0.026148606           10 
 2944000   0.76739807   -6.6148309    934.46668  0.026451163  0.026140783            4 
 2945000   0.78013899   -6.6225424    932.61114  0.026389676  0.026132927           13 
 2946000   0.77667891   -6.6051543     932.9984  0.026391672  0.026125089            8 
 2947000   0.78750881   -6.6089921    930.82963   0.02632139   0.02611725            7 
 2948000   0.78673484   -6.6155374    935.15242  0.026434657  0.026109444            6 
 2949000   0.78836471   -6.6274244     933.8973  0.026390226  0.026101604           11 
 2950000   0.78435771   -6.6397973    935.94617  0.026439157  0.026093786            9 
 2951000   0.77224163   -6.6561095    934.53545   0.02639036  0.026085942            8 
 2952000   0.80001408   -6.6823987    929.53327  0.026240212  0.026078089            9 
 2953000   0.79191671   -6.6295071    933.24901  0.026336184  0.026070261            9 
 2954000   0.79802105   -6.6005292     934.7989  0.026370991  0.026062506            7 
 2955000   0.78414246   -6.6185269    934.72116  0.026359875   0.02605476           16 
 2956000   0.79036273   -6.6302375    933.25688  0.026309677  0.026046955            8 
 2957000   0.77853193   -6.5934305    936.53212  0.026393082  0.026039221            7 
 2958000   0.77446986   -6.6459018    933.53928  0.026299845  0.026031445            7 
 2959000   0.78577906   -6.6405186    932.40622  0.026259047  0.026023659            4 
 2960000   0.78381402    -6.651222    935.83103  0.026346594  0.026015821           14 
 2961000   0.77049637   -6.6681412    932.42791   0.02624192     0.026008            9 
 2962000   0.78735788   -6.6198076    933.29766   0.02625753  0.026000176           11 
 2963000   0.76632208   -6.6542291    934.94854  0.026295099  0.025992302           11 
 2964000   0.76654445   -6.6104871    932.68597  0.026222615  0.025984464           15 
 2965000   0.77978153   -6.6136882    936.42275  0.026318796  0.025976638            9 
 2966000   0.78147014   -6.6217532    934.70247  0.026261589  0.025968845           17 
 2967000   0.78152996   -6.6222149    933.66373  0.026223563  0.025961038            9 
 2968000   0.77538341   -6.6181471    934.87821  0.026248827  0.025953215            8 
 2969000   0.76980578   -6.6258164    936.22897  0.026277899  0.025945405           11 
 2970000   0.78661532   -6.6110484    935.51649   0.02624906  0.025937584            8 
 2971000   0.76435747   -6.6389574    931.87594  0.026138111   0.02592975           28 
 2972000   0.77245743   -6.6274438    936.56356  0.026260755  0.025921929           20 
 2973000   0.77592084   -6.5914462    937.31751  0.026273055  0.025914106            9 
 2974000   0.78172411   -6.6086493    936.73034  0.026247768  0.025906337            8 
 2975000   0.76361622   -6.6220378    934.46006  0.026175352  0.025898572            8 
 2976000   0.78328467   -6.6098058    935.80775  0.026204294  0.025890719            7 
 2977000   0.77981319    -6.613934    936.40676   0.02621226  0.025882921           12 
 2978000    0.7664625   -6.6608828    935.75092  0.026185105  0.025875146           11 
 2979000    0.7636058   -6.6543741    931.35479   0.02605334  0.025867269            6 
 2980000   0.76833094   -6.6343539    933.92059  0.026116347  0.025859483           12 
 2981000   0.79307726   -6.6002329    936.30919   0.02617436  0.025851743           16 
 2982000   0.75959446   -6.6421344    934.12469  0.026104535  0.025843977            6 
 2983000   0.78820732   -6.6447772    935.12552  0.026123743  0.025836196            6 
 2984000    0.7737148   -6.6409093    935.19105  0.026116819  0.025828451           13 
 2985000   0.78489048   -6.6604639    937.40362  0.026169839  0.025820646            6 
 2986000   0.77806455   -6.6867028    934.73843  0.026086694  0.025812834           10 
 2987000   0.77089546   -6.6426796    934.27266  0.026064967  0.025805063            8 
 2988000   0.78563777   -6.6433195    935.62084  0.026093843  0.025797277            8 
 2989000   0.78471883   -6.6695051    935.05842  0.026069433  0.025789503           10 
 2990000   0.77298757   -6.6282722    937.44457  0.026127218  0.025781702           10 
 2991000   0.77204294    -6.661021    935.87428  0.026074732  0.025773934            8 
 2992000   0.74974354   -6.6591348     934.5919    0.0260303  0.025766108            6 
 2993000   0.79019162   -6.6668872    933.78324  0.025999088  0.025758265           17 
 2994000    0.7656937   -6.6593515    932.63259  0.025958378  0.025750425           14 
 2995000   0.77895833   -6.6503784    932.38536  0.025942831  0.025742564            9 
 2996000   0.78355288   -6.6492084    934.58407  0.025995329  0.025734726           10 
 2997000   0.76614216   -6.6719501    935.05373  0.025999714  0.025726891           17 
 2998000    0.7733237   -6.6645902    931.15494   0.02588267  0.025719045            8 
 2999000   0.78687528   -6.6433239    936.24093  0.026015364  0.025711226           13 
 3000000   0.78199544   -6.6163174    935.37796  0.025982721  0.025703417           10 
 3001000   0.75858947   -6.6386098    934.41427  0.025947303  0.025695598            8 
 3002000   0.77841207   -6.6077455    937.68474  0.026029445  0.025687825           11 
 3003000   0.77915709   -6.6572503    936.41807  0.025985627  0.025680012           13 
 3004000   0.77515387   -6.6431554    936.29424  0.025973542  0.025672198           20 
 3005000   0.76934348   -6.6416774    936.41174  0.025968157  0.025664444           11 
 3006000    0.7866763   -6.6672032    933.70144  0.025884382  0.025656658            6 
 3007000    0.7699609   -6.6324769     938.3391  0.026004298   0.02564888           14 
 3008000   0.76485592   -6.6479792    937.39622  0.025969532  0.025641132            8 
 3009000   0.75147712   -6.6279036    936.70406  0.025941732  0.025633429            8 
 3010000   0.77823223   -6.6361333    937.30336  0.025949705  0.025625702           11 
 3011000   0.77796038   -6.6382768    938.26485  0.025967698  0.025617952           15 
 3012000   0.78485101   -6.6380991    938.09961  0.025954504  0.025610233            7 
 3013000   0.78263958   -6.6506155    936.94235  0.025913883  0.025602489           11 
 3014000   0.74497417   -6.6768557    935.61466  0.025868576  0.025594666            4 
 3015000   0.78216955   -6.6690421    935.41533  0.025854487  0.025586792           14 
 3016000   0.77727625   -6.6949422    933.97144  0.025806019  0.025578932            7 
 3017000   0.76473811   -6.6529224    935.55454  0.025841193  0.025571101           15 
 3018000    0.7851911   -6.6623472     936.0149  0.025845342  0.025563295           12 
 3019000   0.76728287   -6.6741007     934.2184  0.025787192  0.025555454           13 
 3020000   0.76892032    -6.631753    939.15634   0.02591491  0.025547648           10 
 3021000   0.76185853   -6.6409718    937.78898  0.025868614  0.025539887            9 
 3022000   0.75378494   -6.6357885    936.84368  0.025833986  0.025532137           16 
 3023000   0.79129897   -6.6500935    937.94291  0.025855742    0.0255244            7 
 3024000   0.76117879    -6.679631    936.53594   0.02580842  0.025516631           13 
 3025000    0.7818321   -6.6933563    934.79285  0.025751869  0.025508868           10 
 3026000   0.75050364   -6.6736245      936.077  0.025778723  0.025501031            6 
 3027000   0.77126986   -6.6501623    937.39499  0.025806491  0.025493208            8 
 3028000   0.77153662   -6.6463043     939.1345  0.025845842  0.025485417            7 
 3029000   0.79736146    -6.664832    934.60013   0.02571256  0.025477648            6 
 3030000   0.75764065   -6.6209183     937.8891   0.02579453  0.025469896            6 
 3031000   0.76499287   -6.6589928    938.52545  0.025803515  0.025462171            5 
 3032000   0.75476163   -6.6682901    938.22236  0.025786674  0.025454424           19 
 3033000   0.77694987   -6.6723637    938.58354  0.025788096  0.025446688           13 
 3034000   0.76092087   -6.6821313    935.07005  0.025683093   0.02543892            8 
 3035000   0.76836494   -6.6516536    938.44035  0.025767171   0.02543114            8 
 3036000   0.76615143    -6.631358    941.51745  0.025843145  0.025423384            9 
 3037000   0.76412481   -6.6535399    937.27196  0.025718142  0.025415632           16 
 3038000   0.77305827   -6.6662884    937.47803  0.025715329  0.025407887           11 
 3039000    0.7567939   -6.6973506    937.53687  0.025708481  0.025400131           19 
 3040000   0.77293711   -6.6454858    940.28857  0.025775454  0.025392444           12 
 3041000   0.78837741   -6.6443618    940.74572  0.025779506  0.025384757           11 
 3042000   0.77987567   -6.6239821    938.53472  0.025710462  0.025377104            6 
 3043000   0.75652505   -6.6581589    939.58009  0.025730641  0.025369478           10 
 3044000   0.74769236   -6.6521014    937.85898  0.025675071   0.02536178            4 
 3045000   0.77665609   -6.6762048    937.84082  0.025666142  0.025354058           16 
 3046000   0.77645465   -6.6817573    937.04318  0.025635893  0.025346349           10 
 3047000   0.76058215   -6.6428519    939.14465  0.025684954  0.025338645            7 
 3048000   0.74981066    -6.624693    939.65965  0.025690607  0.025330989            4 
 3049000   0.77051501   -6.6741077    939.75087  0.025684675  0.025323324           16 
 3050000   0.77565842   -6.6705866    937.71256  0.025620562  0.025315656           10 
 3051000   0.75630315   -6.6508772    939.49257  0.025660783   0.02530801           12 
 3052000   0.75610301   -6.6731258    938.32999  0.025620631  0.025300303           21 
 3053000   0.77393217   -6.6562237    942.31704  0.025721068  0.025292636           22 
 3054000   0.76452364   -6.6542123    938.11212  0.025597908  0.025284932           15 
 3055000   0.77795633   -6.6786094    938.29112  0.025594411  0.025277193           13 
 3056000    0.7693952    -6.683701    937.39764  0.025561672  0.025269471           12 
 3057000   0.78074948   -6.6720542    938.61544  0.025586507  0.025261762           13 
 3058000   0.75878509   -6.7135986    936.94439  0.025532603  0.025254083           17 
 3059000   0.76816968   -6.6724939    940.40261  0.025618465  0.025246339           25 
 3060000   0.75491862   -6.6927345    936.73067  0.025510095  0.025238606            9 
 3061000   0.76075442   -6.6861702    939.77811  0.025584725  0.025230849            8 
 3062000    0.7687201   -6.6317516    940.58713  0.025598387  0.025223152            6 
 3063000   0.74745746   -6.6762966    939.16716  0.025551397  0.025215475            9 
 3064000   0.77398973   -6.6845828    939.06962  0.025540405  0.025207791            4 
 3065000    0.7779931   -6.6669224    939.04841  0.025531496  0.025200108            9 
 3066000   0.74917393   -6.6792198    939.21427  0.025527677  0.025192376           11 
 3067000   0.74672095   -6.6660669    938.14722   0.02549036  0.025184663            8 
 3068000    0.7583157   -6.6628213    938.64994  0.025495707  0.025176936            8 
 3069000   0.74180913   -6.6868125    938.81548  0.025491894  0.025169208            6 
 3070000   0.77993817   -6.6914294    938.13695  0.025465172  0.025161467           10 
 3071000   0.74802599   -6.6831724    938.18949  0.025458306  0.025153746            4 
 3072000   0.76762713   -6.7158798     938.1519  0.025448999  0.025146004           11 
 3073000   0.76555606   -6.6452201    940.14536  0.025494776  0.025138295            5 
 3074000   0.75619661   -6.6735581    940.63738  0.025499821  0.025130627           14 
 3075000   0.74386207   -6.6878367    939.85378  0.025470292  0.025122963           28 
 3076000   0.75162368   -6.6713978    940.46345  0.025478529  0.025115297            8 
 3077000   0.74860918    -6.680483    939.04795  0.025431913  0.025107605            8 
 3078000   0.77754618   -6.6960175    937.51127  0.025382046  0.025099931            6 
 3079000   0.75226165   -6.7266312    938.67691  0.025405351  0.025092218           11 
 3080000   0.74516954   -6.7010733    938.42083  0.025390174  0.025084506           10 
 3081000   0.76719801   -6.6839226    942.05379  0.025480196  0.025076821            8 
 3082000    0.7428356   -6.7210715      936.694  0.025327006  0.025069098           22 
 3083000   0.75741524    -6.676559      938.694  0.025372851  0.025061344            7 
 3084000   0.76296998   -6.6749659    940.85031   0.02542289  0.025053638            6 
 3085000   0.75797564   -6.7184102    937.58583  0.025326468  0.025045886           10 
 3086000   0.73823151   -6.6869388    937.92575   0.02532744  0.025038149           12 
 3087000   0.76811758   -6.7163017    937.37342  0.025304325  0.025030424           12 
 3088000   0.75649531   -6.6852407    940.43596  0.025378777  0.025022698            6 
 3089000   0.76107316   -6.6685196    940.83516  0.025381331  0.025015034           16 
 3090000   0.76626048   -6.6822559    940.31123  0.025358987  0.025007389            8 
 3091000    0.7524311   -6.6808671    940.65598  0.025360077  0.024999727           19 
 3092000   0.77351226   -6.7007661    939.37484  0.025317347  0.024992066            4 
 3093000   0.73236142   -6.6635914    940.06382  0.025327724  0.024984415           11 
 3094000   0.75959254   -6.6925245    940.88528  0.025341663  0.024976785           13 
 3095000   0.75604365   -6.7249215    939.98342  0.025309193  0.024969088            6 
 3096000   0.74489704   -6.6963482    940.03617  0.025302438  0.024961411           14 
 3097000    0.7428478   -6.6915309    942.33931   0.02535624  0.024953767            8 
 3098000    0.7670053   -6.6957688    940.78951  0.025306367  0.024946113           20 
 3099000   0.76403706   -6.6696324     941.4491  0.025315938  0.024938487           23 
 3100000   0.74272412   -6.6862881    942.33724  0.025331646  0.024930845           19 
 3101000   0.76563042   -6.7175462     938.3108  0.025215275  0.024923172           10 
 3102000   0.76212127   -6.6787985    942.48477  0.025319277  0.024915499           13 
 3103000    0.7621224   -6.6732456    941.76483  0.025291783  0.024907899           16 
 3104000   0.75108021   -6.6949919    942.40974  0.025300949  0.024900263            8 
 3105000   0.76640009   -6.7126375    939.91656  0.025225887  0.024892627            4 
 3106000   0.74087755   -6.7124832    939.18649  0.025198178  0.024884957           16 
 3107000   0.77402357   -6.6975171    941.13254  0.025242263  0.024877312           17 
 3108000    0.7582984   -6.6972831    937.62725  0.025140156  0.024869681           35 
 3109000   0.76190899   -6.7075843    941.13756  0.025226159  0.024862005            6 
 3110000   0.73896685   -6.6752321     942.3902  0.025251613  0.024854346           11 
 3111000   0.74905392   -6.7095141    939.91271  0.025177133  0.024846713            7 
 3112000   0.75703908   -6.6767192    941.63042  0.025215039   0.02483909           12 
 3113000   0.73739482   -6.6774038    944.05854  0.025271939  0.024831511           13 
 3114000   0.74705515   -6.6797466    942.11044   0.02521169  0.024823944           23 
 3115000   0.75528965   -6.7052255    940.64781  0.025164468  0.024816325           16 
 3116000   0.75375055   -6.6880142    941.05795  0.025167361  0.024808703           15 
 3117000   0.74581464   -6.7075234    943.37038  0.025221109  0.024801093           19 
 3118000   0.76529893   -6.6955979    941.69537  0.025168254  0.024793537            7 
 3119000    0.7459383   -6.6849985    941.23154  0.025147792  0.024785939            6 
 3120000   0.75060162   -6.6808601    940.39783  0.025117463  0.024778341           11 
 3121000   0.75705579    -6.698941    941.22227  0.025131429  0.024770721            9 
 3122000   0.76432529   -6.6993348    940.23069  0.025096911  0.024763105            8 
 3123000   0.75075088   -6.6757096    943.61376  0.025179148  0.024755459           11 
 3124000   0.75143899   -6.7020093     940.7152  0.025093769  0.024747813            9 
 3125000   0.77514738   -6.7048075    941.21811  0.025099149   0.02474015            9 
 3126000   0.73927031   -6.6913974    942.25451  0.025118749  0.024732527           12 
 3127000   0.75078858    -6.708087    941.17455  0.025081936  0.024724894           17 
 3128000   0.73509839   -6.6761391    942.96277  0.025121557  0.024717275           16 
 3129000   0.76543993   -6.6990774     941.2402  0.025067652  0.024709681           11 
 3130000   0.75110772   -6.7192378    943.07578  0.025108514  0.024702101           12 
 3131000   0.76366871   -6.7039045     941.3573  0.025054756  0.024694476           23 
 3132000   0.74319148   -6.6930611    943.64066   0.02510751  0.024686887           17 
 3133000   0.76309364   -6.6817304    943.56671  0.025097529  0.024679309            5 
 3134000   0.76260216   -6.6708978    942.65873  0.025065378  0.024671779           18 
 3135000   0.76730141   -6.6942877    943.63644  0.025083372  0.024664193           11 
 3136000    0.7429277   -6.6814955    940.58908  0.024994395  0.024656633           10 
 3137000   0.74425815    -6.672698    946.39169  0.025140572  0.024649108            7 
 3138000   0.75659461   -6.6959189    944.19032    0.0250741  0.024641575            7 
 3139000   0.75055791   -6.7236102    940.21055  0.024960458  0.024634014            9 
 3140000   0.75736391   -6.7069509    941.56094  0.024988348  0.024626435           12 
 3141000   0.74977447   -6.7164127    942.29151  0.024999775  0.024618874           11 
 3142000    0.7355283   -6.6760998    944.81206  0.025058669  0.024611249           21 
 3143000   0.75201618   -6.6861292    945.77369  0.025076193  0.024603684           20 
 3144000   0.76293669   -6.7107387    943.04039  0.024995769  0.024596128           12 
 3145000   0.74790258   -6.7245742    943.94013  0.025011662  0.024588502           15 
 3146000   0.74068822   -6.7048185    942.22402  0.024958254  0.024580877           10 
 3147000   0.76394787   -6.7245058    943.13806  0.024974528  0.024573263           21 
 3148000   0.74259577   -6.7072364    941.98717  0.024936128  0.024565647            8 
 3149000   0.75936639   -6.7122603    944.46523  0.024993787  0.024558079           14 
 3150000   0.74208225   -6.6984283    942.48994  0.024933596  0.024550482           11 
 3151000   0.75031165   -6.6904478    941.65366  0.024903567  0.024542911            7 
 3152000   0.75516498   -6.7207297    941.74195     0.024898   0.02453531           14 
 3153000   0.74396052   -6.7004572    942.03191  0.024897767  0.024527692           19 
 3154000   0.74074696   -6.7020973    944.65762  0.024959248  0.024520138           14 
 3155000   0.74978598   -6.7155823    945.60713  0.024976417  0.024512594           12 
 3156000   0.75132592   -6.6816186    947.29878   0.02501317  0.024505084            5 
 3157000   0.74606278    -6.682727    945.94886  0.024969614  0.024497579            5 
 3158000   0.74960426   -6.7066554    942.87981  0.024880721   0.02449007            5 
 3159000   0.74710442     -6.72609    941.34715  0.024832414  0.024482518            8 
 3160000   0.75553952   -6.6981869    946.76154   0.02496734   0.02447501           26 
 3161000   0.74869691   -6.7230585    944.90156  0.024910407  0.024467505            9 
 3162000   0.74785691   -6.7157544    944.71641  0.024897649  0.024459996           14 
 3163000   0.74032068   -6.7138159    945.38284  0.024907336  0.024452475           27 
 3164000   0.73913868   -6.7197178    943.57652  0.024851889  0.024444949            9 
 3165000   0.73815302   -6.7148941    941.17757  0.024780873  0.024437453            5 
 3166000    0.7599204   -6.7161736    942.92557  0.024819056  0.024429913           10 
 3167000   0.74218132   -6.7289695    944.70503  0.024858042  0.024422366           15 
 3168000    0.7310766   -6.7104631    944.63814  0.024848436  0.024414792           10 
 3169000   0.73425898   -6.7088201    945.46727  0.024862398  0.024407279           12 
 3170000   0.73627702   -6.7253612    944.44657  0.024827723  0.024399788           13 
 3171000   0.76290178   -6.7454626    944.35266  0.024817425  0.024392272           12 
 3172000   0.75229711   -6.7519629    944.56933  0.024815294  0.024384723           10 
 3173000   0.75008957   -6.7335923    943.78313  0.024786825  0.024377216           11 
 3174000   0.74951629   -6.7320258    943.39062   0.02476871  0.024369727           13 
 3175000   0.73877126   -6.7157102    945.85493  0.024825589  0.024362243           11 
 3176000   0.73208215   -6.7051638    946.22955  0.024827602  0.024354778           24 
 3177000   0.74197702   -6.6913632    949.30378  0.024900425  0.024347336           14 
 3178000   0.74965891   -6.6956982    947.24258   0.02483854  0.024339938            6 
 3179000   0.73637789   -6.7070424    948.45491  0.024862507  0.024332534           14 
 3180000   0.73010608   -6.7212492     945.8024  0.024785178  0.024325133           25 
 3181000   0.75426755   -6.7550354    945.03226  0.024757211  0.024317649           13 
 3182000   0.74893291   -6.7195067    946.17794  0.024779435   0.02431019           12 
 3183000   0.72529983   -6.7058984    949.04615  0.024846742  0.024302761           13 
 3184000   0.73875472   -6.7100348    945.39831  0.024743465   0.02429534            9 
 3185000   0.74430353   -6.6982274    944.29156  0.024706739   0.02428796           14 
 3186000   0.73906078   -6.7279635    947.12529  0.024773103  0.024280513           17 
 3187000   0.75677731   -6.7221959    945.37581  0.024719585  0.024273061           17 
 3188000   0.73370525   -6.6953556    947.90724  0.024778002  0.024265604           30 
 3189000    0.7476799   -6.7171409     948.1868  0.024777537  0.024258171           34 
 3190000   0.74771166   -6.7502462    946.03273  0.024713499  0.024250687           27 
 3191000   0.74459651   -6.7225425    943.98354  0.024652239  0.024243225           31 
 3192000   0.74735012     -6.74333    945.11718  0.024674112  0.024235752           11 
 3193000   0.74748305   -6.7449018     941.4994  0.024571965  0.024228213           18 
 3194000   0.74304463    -6.742917    945.52843  0.024669391  0.024220717           15 
 3195000   0.73469644   -6.7406513    944.95182  0.024646631  0.024213195           15 
 3196000   0.74519832   -6.7243701    948.31357  0.024726574    0.0242057           13 
 3197000   0.72995008   -6.7362053    944.95809  0.024631376  0.024198227           23 
 3198000   0.74844139   -6.7038374    946.34442  0.024659798  0.024190771            8 
 3199000   0.72728198   -6.7341558    942.62556  0.024555214  0.024183257           14 
 3200000    0.7448367   -6.7193125     944.7475    0.0246028  0.024175765            9 
 3201000   0.73476388   -6.7531464    943.93254  0.024573897  0.024168238           23 
 3202000   0.74847671   -6.7619452    946.02984  0.024620806  0.024160698            7 
 3203000   0.72478871   -6.7406991    944.83945  0.024582148  0.024153151           10 
 3204000   0.75019098   -6.7450979    944.09694  0.024555164  0.024145656           28 
 3205000   0.74512393   -6.7265521    945.99985   0.02459698  0.024138129           16 
 3206000     0.732445   -6.7022274    945.84626  0.024585316  0.024130677           11 
 3207000   0.74114065   -6.7192158    945.20928  0.024561098  0.024123193           13 
 3208000   0.74532879   -6.7124623    943.02717  0.024496757  0.024115762           14 
 3209000    0.7448865   -6.7610006    944.89266  0.024537568  0.024108315            6 
 3210000   0.72113513   -6.7383564    945.89464  0.024555936  0.024100833            9 
 3211000   0.73831391   -6.7469879    945.48507  0.024537659  0.024093371            8 
 3212000   0.73918754   -6.7313987    945.56595  0.024532118  0.024085906           27 
 3213000   0.73450336    -6.749972    944.41483  0.024494627  0.024078442            7 
 3214000   0.73560312   -6.7491349    944.78603   0.02449663  0.024070963           14 
 3215000   0.72897123    -6.730025    946.63054  0.024536821  0.024063467           13 
 3216000   0.74423562   -6.7037511    948.36481   0.02457413  0.024056019            5 
 3217000   0.74490879   -6.7122425    946.92288  0.024529139  0.024048578           26 
 3218000   0.74583089   -6.7095289    947.81947  0.024544735  0.024041135           11 
 3219000   0.73223577   -6.7564908    945.70206  0.024482294  0.024033678           20 
 3220000   0.73414729   -6.7440235    944.10511  0.024433362  0.024026186           11 
 3221000   0.73193667   -6.7374964      946.278  0.024481993  0.024018679           14 
 3222000   0.74615824   -6.7568822     946.1415  0.024470864  0.024011174           29 
 3223000   0.74606695   -6.7612194    945.64342  0.024450394  0.024003676           12 
 3224000   0.74000309   -6.7532801    941.95581  0.024347493  0.023996158           14 
 3225000   0.73261864   -6.7532099    945.55193  0.024432866  0.023988665           12 
 3226000   0.74851722   -6.7352457    945.64259  0.024427635  0.023981191           11 
 3227000   0.74111895   -6.7350741    945.52097  0.024416924  0.023973733           12 
 3228000    0.7280417   -6.7453707    945.94045  0.024420189  0.023966262           10 
 3229000   0.73608807   -6.7590313    942.39731  0.024321186  0.023958773           17 
 3230000   0.73596955   -6.7574779    945.64472  0.024397439  0.023951308           16 
 3231000   0.73727972   -6.7062289    946.99047  0.024424597  0.023943898           11 
 3232000   0.74108021   -6.7577088    945.76851  0.024385533  0.023936473            7 
 3233000   0.75188187   -6.7611734    944.62264  0.024348454  0.023928998           23 
 3234000   0.74994706   -6.7735678    947.02307   0.02440278  0.023921515           19 
 3235000   0.75533915   -6.7662673     944.9365  0.024341486  0.023914064           21 
 3236000   0.72831538   -6.7623239    946.61191  0.024377109  0.023906595           11 
 3237000   0.73221178   -6.7548987    945.38004  0.024337865  0.023899174           20 
 3238000   0.73514466   -6.7559693    946.49766  0.024359112  0.023891752           28 
 3239000   0.73284122   -6.7859889    944.21289  0.024292809  0.023884299           44 
 3240000   0.71954581   -6.7803155    945.67095  0.024322813  0.023876801           10 
 3241000   0.74062722   -6.7693205    945.88586  0.024320833  0.023869329           17 
 3242000   0.73353572    -6.773543    947.21413  0.024347474  0.023861885           28 
 3243000   0.71368733   -6.7358304    947.43707  0.024345695   0.02385449            8 
 3244000   0.73235776   -6.7453168    947.76158  0.024346526   0.02384711           26 
 3245000   0.74769289   -6.7666244    946.65537  0.024310616  0.023839728           15 
 3246000   0.72231892   -6.7730248    946.13755  0.024289832  0.023832308           25 
 3247000   0.72297309   -6.7682294    945.71649  0.024271545  0.023824905           10 
 3248000    0.7383122   -6.7500512    948.20457  0.024327909  0.023817492            7 
 3249000   0.73396086   -6.7772537    949.21707   0.02434639  0.023810074           36 
 3250000   0.74196591   -6.7719879    947.16664  0.024286324  0.023802676           12 
 3251000    0.7328432   -6.7412563    946.83356  0.024270316  0.023795268            8 
 3252000    0.7235613    -6.777279    946.20709  0.024246799  0.023787887           15 
 3253000   0.72779067   -6.7381845    947.58406   0.02427462  0.023780476           15 
 3254000   0.71943245   -6.7673984     948.2447  0.024284079   0.02377303           17 
 3255000   0.73077888   -6.7469552    948.59131  0.024285492  0.023765595            7 
 3256000   0.73090545   -6.7653181    944.42973  0.024171522  0.023758166            8 
 3257000   0.71350015   -6.7780426    945.59792   0.02419399  0.023750748           20 
 3258000   0.71519521   -6.7673456    945.27283  0.024178249  0.023743302           10 
 3259000   0.73384093    -6.743391    948.32829  0.024248959  0.023735931           14 
 3260000   0.73339302   -6.7803988    946.27885  0.024189132  0.023728552           11 
 3261000     0.729008   -6.7609079    946.45277  0.024186159  0.023721186           11 
 3262000   0.72132528   -6.7637288     946.7223   0.02418563  0.023713824           19 
 3263000   0.73434504   -6.7702095    947.71318  0.024203524  0.023706418           12 
 3264000   0.71974888   -6.7758214    945.89681  0.024149735  0.023699036           29 
 3265000   0.73379243   -6.7502392     946.4403   0.02415621  0.023691629           16 
 3266000   0.72256653    -6.769123    948.04234   0.02418969  0.023684268           21 
 3267000   0.73122969   -6.7823224    947.40643  0.024166065  0.023676915           20 
 3268000   0.72689085   -6.7389879    948.13515  0.024177253  0.023669561           12 
 3269000   0.73590436   -6.7386388    949.24555  0.024198163  0.023662233           10 
 3270000   0.73133168   -6.7564231    946.41157  0.024118541  0.023654846           22 
 3271000    0.7422221   -6.7661193    947.69412  0.024143843   0.02364746           10 
 3272000    0.7201709   -6.7550737    948.68664  0.024161742  0.023640118           22 
 3273000   0.73383653   -6.7695235    948.66645  0.024153846  0.023632765           20 
 3274000   0.71374054   -6.7622786    948.73945  0.024148327  0.023625398            9 
 3275000   0.72924593   -6.7789204    946.29041  0.024078636  0.023618024           16 
 3276000   0.72150768    -6.784099     946.2755  0.024070907  0.023610641           24 
 3277000   0.71546821   -6.7369152    949.54796  0.024146779  0.023603301           16 
 3278000   0.72935492   -6.7547508    948.71667   0.02411828  0.023595966           33 
 3279000   0.73169838   -6.7794048    946.73955  0.024060678   0.02358862           28 
 3280000    0.7278086   -6.7722522    947.49332  0.024072493  0.023581239           11 
 3281000   0.73094951    -6.786327    947.73185  0.024071214   0.02357388            9 
 3282000   0.72091328   -6.7524615    947.15594  0.024049257  0.023566514           35 
 3283000   0.74373704   -6.8057488    946.74246  0.024031436  0.023559171           12 
 3284000   0.72707853   -6.7600251    948.24051  0.024062132  0.023551809           22 
 3285000   0.72467698   -6.7780762    948.91232   0.02407185  0.023544444           13 
 3286000   0.73563784   -6.7391751    952.14839  0.024146591  0.023537142           13 
 3287000   0.72730703   -6.7461724    948.58611  0.024048933  0.023529862            9 
 3288000   0.71361516   -6.7797068    948.39913   0.02403688   0.02352253           10 
 3289000   0.72851959   -6.7761226    947.74838  0.024013084   0.02351519           16 
 3290000   0.73351892   -6.7698181    948.24519  0.024018369  0.023507839            6 
 3291000   0.71748341   -6.7571056    949.48307  0.024042415  0.023500519           11 
 3292000   0.73655822   -6.7741808    946.95934  0.023971227  0.023493172           21 
 3293000   0.73384673   -6.7414323      948.485  0.024002556  0.023485829           10 
 3294000   0.73280422   -6.7892304    945.82236  0.023927908  0.023478496           14 
 3295000   0.71838122   -6.7746314    948.18706  0.023980452  0.023471167           16 
 3296000   0.73694601   -6.7661557    947.05657  0.023944594  0.023463834           16 
 3297000   0.71164037   -6.7522226    948.01401  0.023961531  0.023456503           11 
 3298000    0.7190322   -6.7847722    950.27977  0.024011516  0.023449201           30 
 3299000   0.72677482    -6.800837    945.97296  0.023895447  0.023441842           34 
 3300000   0.71282813   -6.8097532    947.66485  0.023930931  0.023434492           21 
 3301000    0.7086002    -6.796422    944.42846  0.023841979  0.023427097           14 
 3302000   0.73355318   -6.7636576    946.78916  0.023894336  0.023419686           22 
 3303000   0.71440159   -6.8083213    946.95556    0.0238913  0.023412309           17 
 3304000   0.73280294   -6.7737104    950.09572   0.02396327  0.023404949           12 
 3305000   0.74944743   -6.7910876    949.45026  0.023939744  0.023397612           23 
 3306000   0.73646992   -6.8010985     950.4807  0.023958477  0.023390263           43 
 3307000   0.73571171   -6.7911048    947.42034  0.023874114  0.023382949           25 
 3308000   0.72991848   -6.8266318    945.77263  0.023825389  0.023375588           24 
 3309000   0.71092417     -6.78372    945.80163  0.023818919  0.023368252           12 
 3310000   0.71848684   -6.8288678     945.9329  0.023815028  0.023360911            9 
 3311000   0.72786229   -6.8069926     945.4931  0.023796766  0.023353576           39 
 3312000   0.72495665   -6.7977646    947.78749   0.02384731  0.023346232           35 
 3313000   0.71456117   -6.7887372    947.25672  0.023826761   0.02333889           38 
 3314000   0.72107005   -6.8065563    947.09428  0.023815487  0.023331539           12 
 3315000   0.72785909   -6.7688333       947.63   0.02382177  0.023324218           17 
 3316000   0.73807499   -6.7722465    948.38685  0.023833606  0.023316903           19 
 3317000   0.73233677   -6.7914328    946.90057  0.023789081  0.023309574           11 
 3318000   0.71332544   -6.7746702    945.27175  0.023741002  0.023302271           18 
 3319000   0.73813712   -6.7828936    949.27493  0.023834361  0.023294983           12 
 3320000   0.70639191   -6.7864456    947.98528  0.023794811   0.02328771           15 
 3321000   0.73343183   -6.7836287    948.43081  0.023798826  0.023280388           30 
 3322000   0.72165762   -6.7702771    946.02023  0.023731192  0.023273075           14 
 3323000   0.74100695   -6.7580823    950.62075  0.023839421  0.023265784            6 
 3324000   0.71455478    -6.780625    947.53049  0.023754776  0.023258483           12 
 3325000   0.72164463   -6.7932728     947.2785  0.023741316   0.02325117           14 
 3326000    0.7259754   -6.7823562    949.69307  0.023794675  0.023243868           14 
 3327000   0.72491291    -6.773607    946.91223   0.02371787  0.023236558           13 
 3328000   0.71419643   -6.7554974    950.29937  0.023795557  0.023229284           27 
 3329000   0.70797506   -6.7956969    948.43674  0.023741783   0.02322203           14 
 3330000   0.72652984    -6.756005     950.4929  0.023786109  0.023214764           13 
 3331000   0.70921954   -6.7715794     947.6981  0.023709049  0.023207475           13 
 3332000   0.72227737   -6.7976623     946.1438   0.02366306  0.023200178           20 
 3333000   0.72191731   -6.7942458    949.88248  0.023749437   0.02319285           12 
 3334000   0.71635159    -6.806682    944.05489  0.023596653  0.023185488           38 
 3335000   0.70877587   -6.7883098    944.56811  0.023602402  0.023178117           36 
 3336000   0.72166839    -6.799896    945.64755  0.023622291  0.023170762           16 
 3337000   0.72743984   -6.7985698     949.1714  0.023703211  0.023163463            8 
 3338000   0.71002847   -6.7990161    948.16823  0.023671066  0.023156152           19 
 3339000   0.71811198   -6.8077722    946.33893  0.023618322  0.023148821           11 
 3340000   0.70894119   -6.8047556    947.18797  0.023632434  0.023141494           20 
 3341000   0.73130286    -6.802888     947.3119  0.023628452  0.023134195           11 
 3342000   0.71979275   -6.8064594    947.94368  0.023637136  0.023126911           10 
 3343000   0.70666614   -6.7988498    948.78172  0.023650955  0.023119629            9 
 3344000   0.71335784   -6.8236057    947.88076   0.02362143  0.023112331            8 
 3345000   0.70937146   -6.7956646    947.22292   0.02359798  0.023105024            9 
 3346000   0.70987651   -6.8195661    946.40827  0.023570638  0.023097692           16 
 3347000   0.71427979   -6.7853386    947.82284  0.023598816  0.023090383           14 
 3348000   0.71369191   -6.7796741    948.72446  0.023614209  0.023083118           10 
 3349000   0.71023827   -6.7936855    949.61108   0.02362922   0.02307587           29 
 3350000   0.71269175   -6.7904672    948.61403  0.023597364  0.023068619            6 
 3351000   0.71731588   -6.7996669      949.498  0.023612305  0.023061346           19 
 3352000   0.70897579   -6.7968749    950.33893  0.023626167  0.023054117           16 
 3353000   0.71009046   -6.7894809    951.10956  0.023638273  0.023046868           39 
 3354000   0.72410212   -6.7840037    948.94862  0.023577535  0.023039613           28 
 3355000   0.70835826   -6.8154598    946.80286   0.02351721  0.023032334           21 
 3356000   0.72323764   -6.8152883      947.439  0.023525998  0.023025036           13 
 3357000   0.71424906   -6.7825597    949.47809  0.023569608  0.023017748           19 
 3358000   0.71949935   -6.8118873    949.07673  0.023552629   0.02301048           24 
 3359000   0.72892782   -6.8283106    948.22701  0.023524536  0.023003178           29 
 3360000   0.71484007   -6.8317172    949.49526  0.023548989  0.022995875            9 
 3361000   0.72887289    -6.829951      946.923  0.023478206  0.022988581           18 
 3362000    0.7249591   -6.8218559     946.3369  0.023456695  0.022981264           14 
 3363000    0.7097906   -6.7892079    947.36216  0.023475125  0.022973971           28 
 3364000   0.70490414   -6.8187282    950.86748  0.023554981  0.022966691           15 
 3365000   0.71093758    -6.815875    948.21101  0.023482194  0.022959398            8 
 3366000   0.71504559   -6.7945125    948.59228  0.023484657  0.022952113           12 
 3367000   0.71144265   -6.8064397    946.62993  0.023429114  0.022944808            7 
 3368000   0.70233599   -6.8256595    948.61101  0.023471175   0.02293749           11 
 3369000   0.69854215   -6.8535886    946.52668  0.023412652  0.022930178           18 
 3370000   0.70443302   -6.8381909    945.87655  0.023389628  0.022922871            8 
 3371000   0.71779594   -6.8254025    948.81373  0.023455298  0.022915585           20 
 3372000   0.71853029   -6.8129708    948.13956  0.023431681  0.022908271            7 
 3373000    0.7126344    -6.828838     946.9456  0.023395237  0.022900988           10 
 3374000   0.71417195   -6.8171402    948.08592  0.023416467  0.022893725           14 
 3375000   0.72740946    -6.817082    947.86759  0.023404138  0.022886443           23 
 3376000   0.71366634   -6.8051936     948.1569  0.023404347  0.022879155           12 
 3377000   0.71948071   -6.8069655     947.8432  0.023389675  0.022871884           23 
 3378000   0.71643057   -6.8304014    948.96891  0.023410522  0.022864605           13 
 3379000   0.70805331   -6.8051003    948.38757  0.023389256  0.022857317           25 
 3380000   0.71220805   -6.8289845    946.02335  0.023324047  0.022849968           21 
 3381000   0.70084414   -6.8030358      949.913  0.023413019   0.02284269           13 
 3382000   0.70884801   -6.8243501    946.29665  0.023316988  0.022835397           15 
 3383000   0.70043669   -6.8046111     950.8658  0.023422648  0.022828116           12 
 3384000    0.7224033   -6.8157838    949.38276  0.023379205  0.022820858           14 
 3385000   0.70633801   -6.8191542    949.89994  0.023385031  0.022813588           22 
 3386000   0.71582506   -6.8146653    947.13964   0.02331019  0.022806331           17 
 3387000   0.70884195   -6.7928059    948.57197  0.023338549  0.022799083           12 
 3388000   0.70993071   -6.8408754    948.81713   0.02333769  0.022791836           13 
 3389000   0.70164119   -6.8442605    949.05554  0.023336666  0.022784572           12 
 3390000   0.71995433   -6.8159848    948.05764  0.023305252  0.022777316           23 
 3391000   0.71406361   -6.8053029    947.90951  0.023294739  0.022770054           19 
 3392000    0.7097051    -6.827064    948.01595  0.023290486  0.022762778           33 
 3393000   0.72512522    -6.804419    948.29157  0.023290391  0.022755497           19 
 3394000   0.71947147    -6.806372    945.57346  0.023216791   0.02274822           13 
 3395000   0.70930592    -6.794744    948.82032  0.023289649  0.022741016           24 
 3396000   0.69949783   -6.8020547    950.30238  0.023319159  0.022733797           12 
 3397000   0.71334316   -6.8038361    947.65303  0.023247302   0.02272654           11 
 3398000   0.70444187   -6.8107163    948.23367  0.023254701  0.022719259           17 
 3399000   0.71266006    -6.832435    946.79289  0.023212535  0.022711963           13 
 3400000    0.6896665   -6.8397554    947.74636  0.023229077  0.022704683           15 
 3401000   0.70136949   -6.8441761    947.30955  0.023211544  0.022697354           10 
 3402000   0.70009647   -6.8504579    947.52327  0.023209957  0.022690036           14 
 3403000   0.69942894   -6.8541196    947.33542  0.023198536  0.022682715           25 
 3404000   0.70749202   -6.8184475    946.98546  0.023183154   0.02267541            5 
 3405000   0.71534719   -6.8007989    949.21573  0.023230928  0.022668145            7 
 3406000   0.69876546   -6.8317785    945.65701  0.023137038  0.022660877           16 
 3407000   0.71196515   -6.8504128    946.62646  0.023153959  0.022653589           12 
 3408000   0.69474545   -6.8252458    947.25898  0.023162631  0.022646306           30 
 3409000    0.7129333   -6.8418461    947.26956  0.023156096  0.022639045           15 
 3410000   0.71064276   -6.8350349    947.85094  0.023163513  0.022631766           16 
 3411000   0.71762816   -6.8456307    945.48829     0.023099  0.022624485           14 
 3412000   0.71146634    -6.811986    946.90599  0.023126856  0.022617203           13 
 3413000   0.71506818   -6.8232026    947.87891  0.023143835  0.022609966           12 
 3414000   0.69661385   -6.8053218     950.5583  0.023202458   0.02260275            6 
 3415000   0.69654309   -6.8079694     948.9676  0.023156847  0.022595523           19 
 3416000   0.70506269   -6.8499959    949.83819  0.023171306  0.022588299           23 
 3417000   0.73155482   -6.8317876    948.77162  0.023138514  0.022581074           32 
 3418000   0.70597023   -6.8245167    947.43511  0.023099159  0.022573828           17 
 3419000   0.68993231   -6.8318966    948.64694   0.02312194  0.022566589           18 
 3420000   0.70243829   -6.8435329    947.99922  0.023099396  0.022559319            8 
 3421000    0.7027647   -6.8498914    945.35487  0.023028229  0.022552087           24 
 3422000   0.70409943   -6.8120299    949.90388  0.023132278  0.022544839           17 
 3423000   0.70044634   -6.8360118    948.85566  0.023100001  0.022537616           48 
 3424000   0.71754375   -6.8140192    948.66112   0.02308852  0.022530355           11 
 3425000    0.7006293   -6.8376889    945.62883  0.023008001  0.022523101           33 
 3426000   0.70801866   -6.8421552    945.25882  0.022992285  0.022515831           11 
 3427000   0.71313808   -6.8482947    947.49834  0.023040033  0.022508573           27 
 3428000   0.70279932   -6.8163371     950.2671   0.02310062  0.022501353           12 
 3429000   0.69894458   -6.8255077    947.50606  0.023026783  0.022494114           17 
 3430000   0.70396863   -6.8399154    947.50606  0.023020069  0.022486881           19 
 3431000   0.69914853   -6.8489285    947.99704  0.023025285  0.022479645           12 
 3432000   0.70752218   -6.8451334    949.81315  0.023062674  0.022472396           12 
 3433000   0.70943551    -6.861605    948.03726  0.023012847  0.022465141           19 
 3434000   0.69627996   -6.8352981    947.57464  0.022994919  0.022457909           15 
 3435000   0.70351673   -6.8363512    950.26228  0.023053428  0.022450696           15 
 3436000   0.70948222   -6.8472568    946.78296  0.022962334  0.022443488           10 
 3437000   0.69513772   -6.8692185    946.13263  0.022939885  0.022436268           13 
 3438000   0.70555363   -6.8555828    949.26272  0.023009083  0.022429063           12 
 3439000   0.71555098    -6.839704     948.7845  0.022990804  0.022421879           13 
 3440000   0.70628331   -6.8270367    950.09982  0.023015984   0.02241468           37 
 3441000   0.70155597   -6.8349968    949.30512  0.022990049  0.022407495           37 
 3442000   0.69746846   -6.8488161     949.3519  0.022984503  0.022400292           19 
 3443000   0.70625597   -6.8176703     949.5579  0.022982813  0.022393082            7 
 3444000   0.70340757   -6.8404173    948.47601  0.022949962  0.022385912           17 
 3445000   0.69166265   -6.8356175    951.54551   0.02301755   0.02237874           12 
 3446000   0.72379177   -6.8247796    946.71947  0.022894164  0.022371537           25 
 3447000   0.71291109   -6.8858906    945.44101  0.022856615  0.022364322           13 
 3448000   0.71391196   -6.8652045    947.30607  0.022895062  0.022357088           13 
 3449000   0.70576699   -6.8612079    947.05337  0.022882318  0.022349873           16 
 3450000   0.69161024   -6.8704726     949.4777  0.022934244  0.022342656           24 
 3451000   0.71451379   -6.8557884     945.8744  0.022840587  0.022335455           10 
 3452000   0.70947372   -6.8550418     948.9844  0.022909048  0.022328229           22 
 3453000   0.67972531   -6.8786487    947.09866  0.022856904  0.022321006           12 
 3454000   0.68843616   -6.8723296    946.14108  0.022827183  0.022313761           25 
 3455000   0.69733418   -6.8477906    947.42127  0.022851454  0.022306513           18 
 3456000   0.69736716   -6.8670438     946.5513  0.022823864  0.022299289           31 
 3457000   0.69994717   -6.8491036    948.12745  0.022855256   0.02229209           10 
 3458000   0.72065361   -6.8223171    949.38358  0.022878918  0.022284909           19 
 3459000   0.71199841   -6.8215628    949.47484  0.022874502  0.022277733           23 
 3460000   0.70784811   -6.8435832    949.98583  0.022880198  0.022270586           13 
 3461000   0.70408171   -6.8441392    949.63491  0.022865138   0.02226343           17 
 3462000   0.70899929   -6.8634511    947.67249  0.022811296  0.022256253           18 
 3463000   0.68914653   -6.8572235    948.95424  0.022835553   0.02224909           13 
 3464000   0.70498647   -6.8761705    946.33151  0.022765866  0.022241902            9 
 3465000   0.70525266   -6.8750733     947.2546  0.022781496  0.022234747           18 
 3466000   0.69926788    -6.849948    948.91714  0.022814896   0.02222759           20 
 3467000    0.7007678   -6.8329825    949.87954  0.022831447  0.022220423           28 
 3468000   0.69209787   -6.8883118    947.09069   0.02275785  0.022213251            7 
 3469000   0.69349403   -6.8520342    947.53283  0.022761911  0.022206067           19 
 3470000   0.72114312   -6.8511082    948.60781  0.022781167  0.022198895            6 
 3471000   0.68823384    -6.859487     946.9051  0.022733725   0.02219172           11 
 3472000   0.69429365   -6.8569912    948.41382  0.022763389  0.022184538           26 
 3473000   0.69779908   -6.8621858    946.06471  0.022700468  0.022177381           15 
 3474000   0.69211154   -6.8561309    947.37277  0.022725311  0.022170196           15 
 3475000   0.69791346   -6.8717546     946.6115  0.022700516  0.022163017           26 
 3476000   0.69124875   -6.8372671    945.39604  0.022664845  0.022155845           21 
 3477000    0.6862457   -6.8728042    946.33226  0.022680766  0.022148652            8 
 3478000   0.69902788   -6.8842018    946.90104  0.022687872  0.022141485           15 
 3479000   0.69799224   -6.8833615    949.01932  0.022732091  0.022134286           26 
 3480000   0.68508101   -6.8866088      947.203  0.022682064  0.022127089           39 
 3481000   0.69692211   -6.8686406    944.00232  0.022598926   0.02211988           29 
 3482000   0.69641466   -6.8643319    945.78638  0.022635132  0.022112684           28 
 3483000   0.71389452   -6.8234044    949.34012   0.02271366  0.022105505           24 
 3484000   0.68984921   -6.8927156     945.9121  0.022625146  0.022098367           28 
 3485000   0.69705806   -6.8559594    947.05656   0.02264602  0.022091216           19 
 3486000   0.68683911   -6.8688478    947.67907  0.022654405   0.02208404           12 
 3487000   0.68586391   -6.8514581    947.22878  0.022637147  0.022076873           16 
 3488000    0.6904182   -6.8630896    948.20035  0.022653869  0.022069713           31 
 3489000   0.69462996   -6.8681001    947.08727  0.022620791  0.022062518           51 
 3490000   0.68539509   -6.8680405    946.36212  0.022596994  0.022055326           33 
 3491000   0.70779381   -6.8946619    945.90266  0.022579554  0.022048139           30 
 3492000     0.700909   -6.8752582    948.98339  0.022646606  0.022040953           41 
 3493000   0.69854607   -6.8699618    946.56299  0.022582379  0.022033796           17 
 3494000   0.69996111   -6.8780541    944.94874  0.022537415  0.022026633           21 
 3495000   0.69169617   -6.8707391    949.44287  0.022638123  0.022019481           14 
 3496000   0.69359718    -6.854088    949.49129  0.022632802  0.022012348           28 
 3497000   0.69286517   -6.8595505    948.46675  0.022601915  0.022005228           17 
 3498000   0.70724016   -6.8395508    947.09434  0.022562758  0.021998115           22 
 3499000   0.67918235   -6.8721149    947.70519  0.022570858  0.021991004           10 
 3500000   0.68505838   -6.8548127    949.23816  0.022600909  0.021983862           15 
 3501000   0.68234042   -6.8350348    952.75201  0.022678092  0.021976735            7 
 3502000   0.68889691   -6.8438257    952.02653  0.022654353  0.021969624            9 
 3503000   0.68011818   -6.8648543    949.83844  0.022595833  0.021962501           10 
 3504000   0.67871223   -6.8558359     948.6008  0.022559951  0.021955372           27 
 3505000    0.6861839   -6.8481682    950.70214  0.022603475   0.02194828           53 
 3506000   0.68757934   -6.8516458    948.56211  0.022546162  0.021941214           18 
 3507000   0.68940081    -6.873375    949.56319   0.02256352  0.021934114           16 
 3508000   0.69354971   -6.8555997    948.34113  0.022528058  0.021926981           23 
 3509000   0.69038367   -6.8700189    950.92049  0.022582894  0.021919869           23 
 3510000    0.6930582   -6.8517641    949.87207  0.022551569  0.021912753           20 
 3511000   0.69800822   -6.8856178    947.07227  0.022478692  0.021905607           12 
 3512000    0.6964838   -6.8769976    948.09401  0.022496536  0.021898482           15 
 3513000   0.68577574   -6.8670252    947.36783  0.022472906  0.021891355           26 
 3514000   0.69987026   -6.8847513      948.027  0.022482143  0.021884267           20 
 3515000   0.67093154   -6.8851887    949.84951  0.022518955  0.021877153            9 
 3516000   0.69590453   -6.8656816    948.19146  0.022473252  0.021870073           17 
 3517000   0.68179826   -6.8643281    948.59105  0.022476331  0.021862974           15 
 3518000   0.69607832   -6.8522836    948.82604  0.022475508  0.021855867           15 
 3519000   0.69723315   -6.8776927     946.5182  0.022414469  0.021848748           26 
 3520000   0.69174175   -6.8773533    949.77571   0.02248522  0.021841636           19 
 3521000   0.68540246   -6.9066342    946.50296  0.022401376  0.021834509           21 
 3522000   0.70981111   -6.8887068    946.99647  0.022406693   0.02182737           20 
 3523000   0.68155701   -6.8983006      945.872  0.022373735  0.021820234           15 
 3524000   0.67158084   -6.8581377    947.79383  0.022412832  0.021813105           28 
 3525000   0.68829852   -6.8607316    948.33078  0.022419167  0.021806007           11 
 3526000   0.68431611   -6.8601732    949.40985  0.022438312  0.021798921           39 
 3527000   0.68806957    -6.866511    948.23824  0.022404268  0.021791801           10 
 3528000   0.66954516   -6.8394752      949.199  0.022420611  0.021784707           28 
 3529000    0.6818776   -6.8611302    948.41316  0.022395701  0.021777619           20 
 3530000   0.69077685   -6.9086227    946.02345  0.022332943  0.021770536           25 
 3531000    0.6904774   -6.8822482    949.37498  0.022405716  0.021763431           12 
 3532000    0.6761094   -6.8688484    948.18874  0.022371384  0.021756358           24 
 3533000   0.67847669    -6.877999    946.72504  0.022330527  0.021749289            8 
 3534000   0.69513289   -6.8884411     946.5159  0.022319277  0.021742202           26 
 3535000   0.69255587   -6.8827224    948.91015  0.022369405  0.021735117           25 
 3536000   0.68713649   -6.8663556    948.47936  0.022352926  0.021728016           51 
 3537000   0.69279427   -6.8760057    948.28553   0.02234204  0.021720937           13 
 3538000   0.68293294   -6.8689521    947.91228  0.022326933  0.021713861           25 
 3539000   0.68648611   -6.9119962    948.09621  0.022324956  0.021706755           25 
 3540000   0.67483618   -6.8701809    948.62442  0.022331083  0.021699672           15 
 3541000   0.68805586    -6.914209    948.64153   0.02232518  0.021692591           22 
 3542000   0.69263503   -6.8931716    947.11447  0.022282949  0.021685521           18 
 3543000   0.67955441   -6.8664788    950.59182  0.022358449  0.021678447           30 
 3544000    0.6834372   -6.9150767    947.91047  0.022289091   0.02167138           34 
 3545000   0.67383013   -6.8890185    946.42808  0.022247957   0.02166431           65 
 3546000   0.67756912   -6.8901024    947.52854  0.022267544   0.02165722           15 
 3547000   0.68833741   -6.8862768    948.77668   0.02229059  0.021650118           38 
 3548000   0.69790577   -6.8895547    947.36628  0.022251181  0.021643056           27 
 3549000    0.6972492   -6.8885488    946.90072   0.02223398   0.02163596           13 
 3550000   0.69497079   -6.9005636    946.54509  0.022219368  0.021628899           21 
 3551000   0.68931087   -6.8979465    945.84585  0.022196702  0.021621847           23 
 3552000   0.67199455   -6.8867958    948.09244   0.02224316  0.021614798           17 
 3553000   0.67869614   -6.8811654    948.17256  0.022238778  0.021607756           35 
 3554000   0.69901597   -6.8743688     948.1271  0.022231455  0.021600746           48 
 3555000   0.68371696   -6.8800202    947.35176  0.022207027  0.021593723           41 
 3556000   0.68494706   -6.8759773    949.07903   0.02224126  0.021586699           52 
 3557000    0.6868702   -6.8860111    948.50351  0.022221523  0.021579663           23 
 3558000   0.67394872    -6.885619    949.33334  0.022234714  0.021572609           50 
 3559000   0.67450819   -6.8681028    949.15721  0.022224342  0.021565589           29 
 3560000     0.673141   -6.8706822    949.11614  0.022217138  0.021558582           28 
 3561000   0.68941385   -6.8884594    948.59378  0.022198675  0.021551566           29 
 3562000   0.67570888   -6.8657908    950.42778   0.02223535  0.021544571           15 
 3563000   0.68293922   -6.8907322    950.24495  0.022224833  0.021537575           13 
 3564000   0.67685894    -6.881638    948.75453  0.022183748  0.021530569           16 
 3565000   0.68937388    -6.873813    948.81326  0.022178898  0.021523568           18 
 3566000   0.67344543   -6.9214827     948.7508  0.022171219  0.021516573           30 
 3567000    0.6840053   -6.8697991    949.78798  0.022189234  0.021509562           14 
 3568000   0.68136694   -6.8961539    948.25208  0.022147143  0.021502555           28 
 3569000   0.67308716   -6.8885441    949.64771  0.022173525  0.021495562           19 
 3570000   0.65913739   -6.8961822    946.28905  0.022088913   0.02148856           25 
 3571000    0.6837132    -6.885045    948.80126  0.022141353  0.021481571           27 
 3572000   0.67148363   -6.8934586    949.64514  0.022154842   0.02147459           17 
 3573000   0.66898992   -6.9010118     950.0577  0.022158263    0.0214676           23 
 3574000   0.68342251   -6.8986414    947.86537  0.022100946  0.021460621           41 
 3575000   0.67744193   -6.9051292    949.45755  0.022131878  0.021453633           29 
 3576000   0.68363811   -6.8794288     950.1284  0.022141322  0.021446647           13 
 3577000   0.68034715   -6.9285697    946.97437  0.022061652  0.021439662           24 
 3578000   0.68887833   -6.9034429    950.20527  0.022130736  0.021432664           19 
 3579000   0.66802303   -6.8894972    950.22169  0.022124935  0.021425702           17 
 3580000   0.68991077   -6.9069329    948.32742  0.022074661  0.021418728           35 
 3581000   0.68104052   -6.8975655    947.25483  0.022043536  0.021411768           25 
 3582000   0.68681502   -6.9141651    948.58621  0.022068356  0.021404805           25 
 3583000   0.67656288   -6.8966524    948.56619  0.022061731  0.021397821           12 
 3584000    0.6805778   -6.8954893    950.97002  0.022111468  0.021390859           18 
 3585000   0.66642103   -6.9117073    947.72525  0.022029876  0.021383909           19 
 3586000     0.689999   -6.9170011    947.46744  0.022017741  0.021376922           17 
 3587000   0.68784821    -6.924775    948.73628  0.022041081  0.021369912           20 
 3588000   0.66694079   -6.9151584    947.52952   0.02200691  0.021362918           55 
 3589000   0.68387692   -6.9356179    947.65182  0.022003618  0.021355925           32 
 3590000   0.65383892   -6.8922797    949.57312  0.022042087  0.021348956           19 
 3591000   0.67944427   -6.9133617    948.07255  0.022001127  0.021342005           22 
 3592000    0.6889753   -6.9287058    946.50496  0.021958634  0.021335038           19 
 3593000   0.67808342   -6.9029216    949.85835  0.022030298  0.021328056           14 
 3594000   0.68578977   -6.9201818    948.44397  0.021991374    0.0213211           13 
 3595000   0.67355225   -6.9457391    945.50564  0.021917145  0.021314109           24 
 3596000   0.66687227   -6.9195472    948.99087  0.021991816  0.021307128           25 
 3597000   0.67071862   -6.9156461    949.24187  0.021991518  0.021300166           16 
 3598000   0.68770936   -6.9002185    949.74775  0.021997122   0.02129323           40 
 3599000   0.66895584   -6.9098088      949.866  0.021993748  0.021286284           35 
 3600000   0.69081068   -6.9146098    947.90442  0.021942232  0.021279344           14 
 3601000   0.68792276   -6.9166581    950.41044  0.021994132   0.02127243           62 
 3602000   0.67353582   -6.9069533    949.56136  0.021968382  0.021265488           18 
 3603000   0.67033451   -6.9149485    949.34745  0.021957338  0.021258552           21 
 3604000   0.67656722   -6.9071157    952.00371  0.022012664  0.021251626           16 
 3605000   0.67355621   -6.9143925    950.38319  0.021969098    0.0212447           14 
 3606000   0.66910702   -6.8993564    947.63691   0.02189954  0.021237768           12 
 3607000   0.68337697   -6.9105796    950.37787  0.021956794  0.021230847           34 
 3608000   0.67380073   -6.9245609    950.24961  0.021947746  0.021223924           86 
 3609000   0.66534564   -6.9162741    949.28034  0.021919284   0.02121701           24 
 3610000   0.67086307   -6.9279681    950.12308  0.021932666  0.021210111           57 
 3611000    0.6761721   -6.9208187     949.6079  0.021914703   0.02120319           29 
 3612000   0.66689987   -6.9301984    949.36152  0.021902951  0.021196286           35 
 3613000   0.67804062   -6.9177144    951.19757  0.021939237  0.021189381           22 
 3614000   0.66960666   -6.9137953    949.15254  0.021886011  0.021182499           40 
 3615000   0.67654608   -6.9088636    950.81518  0.021918284  0.021175598           73 
 3616000   0.68395909   -6.9061647    951.14122  0.021919737  0.021168716           18 
 3617000   0.66513665   -6.8984478    950.26469  0.021893482   0.02116183           39 
 3618000   0.67402441   -6.9121059    950.68619  0.021897139  0.021154956           23 
 3619000    0.6940948   -6.9269399       950.94  0.021896933  0.021148064           29 
 3620000   0.66107648   -6.9131391    951.04391  0.021893276  0.021141169           16 
 3621000   0.68662035   -6.9104614    949.56246  0.021853136   0.02113428           72 
 3622000    0.6575613   -6.9173992    948.93587  0.021832686  0.021127376           16 
 3623000   0.66886328   -6.9103492    949.84176  0.021847496  0.021120498           25 
 3624000   0.66562967   -6.9028839    948.75329  0.021816439  0.021113602           20 
 3625000   0.67483789   -6.9246566    948.95791  0.021815124  0.021106692           18 
 3626000     0.658126   -6.9367934    948.26766  0.021793245  0.021099795           16 
 3627000   0.66418904   -6.9047429    948.87959  0.021801296  0.021092901           49 
 3628000   0.67169512   -6.9459168    947.17885  0.021756221   0.02108601           27 
 3629000   0.66718347   -6.9223806    949.22849  0.021797292   0.02107912            7 
 3630000   0.66304234   -6.9278428    949.08695  0.021788038  0.021072241           26 
 3631000   0.67027977   -6.9156874    949.55869  0.021792864  0.021065385           16 
 3632000   0.67232071   -6.9146163    951.00002  0.021819934  0.021058541           18 
 3633000   0.67262741   -6.9232215    950.18465  0.021795225  0.021051658           26 
 3634000   0.66963217   -6.9361311    949.38523  0.021770896  0.021044808           12 
 3635000   0.66683598   -6.9268372    950.57498  0.021792182  0.021037968           30 
 3636000   0.67751422    -6.929585     949.8402  0.021769348  0.021031119           27 
 3637000   0.66437144   -6.9393302    949.40566  0.021753406  0.021024251           33 
 3638000   0.66212545   -6.9435253    949.59936  0.021751864  0.021017402           29 
 3639000   0.67489585    -6.925685    948.85018   0.02172873  0.021010561           13 
 3640000   0.67209232   -6.9198151    950.35981  0.021757322  0.021003718           24 
 3641000   0.65909129   -6.9183608    949.96654  0.021742345  0.020996897           23 
 3642000   0.65705575   -6.9182106    949.67465  0.021729696  0.020990061           37 
 3643000   0.66897607   -6.9030178    948.38915  0.021694326  0.020983238          128 
 3644000   0.67735074   -6.9211895    948.78081  0.021697329  0.020976412           28 
 3645000   0.66905647   -6.9290339    949.92704  0.021717582  0.020969556           29 
 3646000   0.65945492   -6.9441191    950.31643  0.021720525  0.020962712           24 
 3647000   0.66535958   -6.9336886    950.76691  0.021724863  0.020955866           38 
 3648000   0.67554924   -6.9409975    949.20612  0.021683254  0.020949006           56 
 3649000   0.67299793   -6.9371577    948.03459  0.021650557  0.020942148           84 
 3650000   0.68147658   -6.9474678     948.1839  0.021648034   0.02093529           27 
 3651000   0.66158762   -6.9334443    948.34255  0.021645726  0.020928446           44 
 3652000   0.67019963    -6.940915    948.07356  0.021633661  0.020921595           29 
 3653000   0.67712853    -6.962586    947.31855  0.021610515  0.020914743           38 
 3654000   0.66950349   -6.9256642     950.4333  0.021675636   0.02090789           75 
 3655000   0.66785056   -6.9559474    951.43863  0.021692627  0.020901056           34 
 3656000   0.68540405   -6.9487223    948.13861  0.021611475  0.020894207           51 
 3657000   0.65988232   -6.9500546    946.66015  0.021571875  0.020887339           46 
 3658000   0.66785573   -6.9682744    948.84195  0.021615681  0.020880471           87 
 3659000   0.66888396   -6.9408754    950.02925  0.021636815   0.02087362           43 
 3660000   0.67154204   -6.9345151    950.26649  0.021636304  0.020866779           35 
 3661000   0.65820486   -6.9832848    948.38912  0.021587661  0.020859951           99 
 3662000    0.6696486   -6.9647677    948.93419   0.02159417  0.020853108           88 
 3663000   0.68727127   -6.9622904    946.66329  0.021536611  0.020846274           67 
 3664000   0.67683886   -6.9645254    948.60953  0.021574998  0.020839417           72 
 3665000   0.65014086   -6.9815729    946.11765  0.021512452  0.020832543           83 
 3666000   0.66396973   -6.9712389     947.1615  0.021530312  0.020825659           61 
 3667000   0.65160134   -6.9654399    946.43531  0.021507938  0.020818791          113 
 3668000     0.656256   -6.9657316    948.45266  0.021547907  0.020811924          117 
 3669000   0.67605542   -6.9586426    947.99857   0.02153172  0.020805082          164 
 3670000   0.66400322   -6.9424209    948.35783  0.021534011  0.020798259           75 
 3671000   0.66978401   -6.9620551    948.27486  0.021526261  0.020791447           58 
 3672000   0.65584686   -6.9653381     947.3635  0.021499716  0.020784612           88 
 3673000   0.66266133   -6.9485013    946.38982  0.021471772  0.020777763          120 
 3674000    0.6717654   -6.9610614    949.21986  0.021530118  0.020770908          113 
 3675000    0.6684989   -6.9642781    947.83827  0.021492931  0.020764071           96 
 3676000    0.6448768   -6.9559433    949.47378  0.021524161  0.020757246           69 
 3677000   0.66279479   -6.9531265    948.65961  0.021499855  0.020750431          133 
 3678000    0.6640262   -6.9623661    948.56797  0.021491933  0.020743633           69 
 3679000   0.66250103   -6.9643859    947.23337  0.021455861  0.020736822          102 
 3680000   0.66349234   -6.9640996    948.37904  0.021475975   0.02073001           77 
 3681000   0.65675579   -6.9649517    948.32435  0.021468902  0.020723217           77 
 3682000   0.67485468   -6.9984157    949.51903   0.02149011  0.020716428          116 
 3683000    0.6500187   -6.9635731    949.61653  0.021486481  0.020709645          115 
 3684000   0.67073607   -6.9740431    950.11788   0.02149199  0.020702827          111 
 3685000   0.66623904   -6.9700537    946.95776  0.021414694  0.020696004           99 
 3686000   0.66451081   -6.9581216    950.14528  0.021480948  0.020689198          274 
 3687000   0.68072458   -6.9576203    949.64037   0.02146371  0.020682405          243 
 3688000   0.65842162   -6.9672171    946.29803  0.021382367  0.020675602          152 
 3689000   0.67305037   -6.9863346    949.62183  0.021451654    0.0206688          243 
 3690000   0.67781259   -6.9603701    948.41453  0.021418576  0.020662026          132 
 3691000   0.65265885   -6.9881923    948.98811  0.021425723  0.020655234          165 
 3692000   0.64379364   -6.9678471     948.3079  0.021404566  0.020648436          193 
 3693000   0.66233943   -6.9750346    949.15684  0.021417927  0.020641648          240 
 3694000   0.66551063   -6.9618099    947.25372  0.021369196  0.020634864          140 
 3695000   0.66603126   -6.9770642    949.09544  0.021404949  0.020628082          149 
 3696000   0.65795285   -6.9616943    949.55719  0.021409569  0.020621285          267 
 3697000   0.67597505   -6.9556572    948.51758  0.021380344   0.02061451          147 
 3698000   0.66015746   -6.9746133    947.83944  0.021359281  0.020607738          112 
 3699000   0.66096424   -6.9770865    947.05319  0.021335793  0.020600963          162 
 3700000   0.66747239    -6.952921    948.41812  0.021360769  0.020594199          155 
 3701000    0.6614788   -6.9877554    948.10713  0.021347994  0.020587432          110 
 3702000   0.66130452   -6.9787315    949.07998  0.021364127  0.020580683          114 
 3703000   0.68170392    -6.963943    949.85165  0.021375724   0.02057393          155 
 3704000   0.65448318   -6.9882867     948.8766  0.021348016  0.020567172           98 
 3705000   0.65221382   -6.9693345    949.66559      0.02136  0.020560403          170 
 3706000   0.68513097   -6.9765499    949.27451  0.021345442  0.020553652           81 
 3707000   0.66477318   -6.9694789    949.42444  0.021343054  0.020546904           67 
 3708000   0.64991282   -6.9872673    946.82521  0.021278884   0.02054016           62 
 3709000   0.63858467   -6.9794677    948.02643  0.021300136  0.020533379           74 
 3710000   0.66362211   -6.9851433    948.45504  0.021304022  0.020526604           45 
 3711000    0.6519983    -6.983802    947.27751  0.021271839  0.020519822          118 
 3712000   0.65655756   -6.9749494    947.35671  0.021267886  0.020513063          125 
 3713000   0.65045136   -6.9940452    947.61392  0.021267931  0.020506305          111 
 3714000   0.66355664   -6.9866511     949.2874  0.021299753  0.020499549          302 
 3715000   0.64534995   -6.9850268    946.68456  0.021235634  0.020492795          144 
 3716000   0.65939145   -6.9638638    948.17295  0.021263297  0.020486052           66 
 3717000   0.65698246    -6.980359    947.64342  0.021245705  0.020479296          129 
 3718000   0.65220166   -6.9710905    947.85839  0.021244809  0.020472556           57 
 3719000   0.64918761   -6.9570912    948.20254  0.021246808   0.02046582           75 
 3720000   0.65816595   -6.9681641    947.69724  0.021229777  0.020459109           84 
 3721000   0.66062626    -6.972645    948.36716  0.021239075  0.020452403          123 
 3722000   0.64742921    -6.964208    949.78891    0.0212652  0.020445699           97 
 3723000   0.66110562   -6.9457434    949.51283  0.021253309   0.02043901          109 
 3724000   0.65679421   -6.9638715     950.4526  0.021268631    0.0204323           58 
 3725000   0.64946952   -6.9668988    950.16652  0.021256522  0.020425591           79 
 3726000   0.67209914   -6.9820631    949.63019  0.021238822  0.020418872           30 
 3727000   0.65647248    -6.999739    948.19191  0.021200964  0.020412164           19 
 3728000   0.66017046   -6.9896292    948.77951  0.021208412  0.020405458           28 
 3729000    0.6741573   -6.9936274    948.27552  0.021191461  0.020398771           62 
 3730000   0.63612826   -6.9701742    946.99106  0.021157084   0.02039206           31 
 3731000   0.65196811   -6.9860504    948.10991  0.021176403   0.02038535           93 
 3732000   0.64313436    -6.974991    950.27377  0.021219046  0.020378651           56 
 3733000   0.65222993   -6.9693012    948.36459  0.021170743   0.02037198           62 
 3734000   0.64609099   -6.9682693    947.07165  0.021136218   0.02036529           58 
 3735000   0.65211489   -6.9832787    949.87006  0.021192996  0.020358612           55 
 3736000   0.65694546   -6.9788615    950.92689  0.021210896  0.020351935           59 
 3737000   0.66078533   -6.9844592    948.44733  0.021149927  0.020345259           53 
 3738000   0.65443033    -6.955668    949.92167  0.021177137  0.020338581           69 
 3739000   0.64813981   -6.9798932    950.05337  0.021174409  0.020331892           84 
 3740000   0.65021804   -6.9824132    948.18476  0.021127111  0.020325217           62 
 3741000   0.66152997    -6.960845    948.36455  0.021125469  0.020318553           48 
 3742000   0.64332104   -7.0046378    948.58231  0.021124673  0.020311898           69 
 3743000   0.64507001   -6.9532888    951.84944  0.021191768   0.02030525           51 
 3744000   0.64826672   -6.9788453    950.86604  0.021164219  0.020298603           73 
 3745000   0.64062153   -6.9897103    948.06064  0.021096142  0.020291953           55 
 3746000   0.65610181    -6.977537    948.56346  0.021101697  0.020285279          153 
 3747000   0.63897743   -6.9681312    951.20605  0.021154836  0.020278629           77 
 3748000   0.64610403   -6.9871296    949.03524  0.021100926  0.020271995           61 
 3749000   0.65550791   -6.9941312     948.2034  0.021076807  0.020265332          105 
 3750000   0.65411368   -6.9892964    948.14244  0.021069832  0.020258679           54 
 3751000   0.64921893   -7.0070583    950.70358  0.021121114  0.020252023           93 
 3752000    0.6612541    -6.984394    948.11017  0.021057884  0.020245381          189 
 3753000   0.65907524   -6.9884703    948.56678  0.021062412   0.02023873           71 
 3754000   0.66042412   -6.9917017    950.93987   0.02110948  0.020232097          105 
 3755000   0.65788874   -6.9709793    949.36716  0.021068956  0.020225468           85 
 3756000   0.64423975   -6.9545315    950.16453  0.021081038  0.020218837           83 
 3757000   0.66342271   -6.9747849    949.39866  0.021058439  0.020212227           87 
 3758000    0.6625511   -6.9877215    949.83629   0.02106254  0.020205611           51 
 3759000   0.64240753   -6.9709257    949.22468  0.021043378  0.020199005           74 
 3760000   0.64891606   -6.9860813     948.0877  0.021012582  0.020192378          105 
 3761000   0.65342875   -7.0091008     949.6279  0.021041122  0.020185757           95 
 3762000   0.66005052    -6.997533    950.72124  0.021059748  0.020179139           62 
 3763000   0.64064384   -6.9820991    949.41146  0.021025145  0.020172514          120 
 3764000   0.65867167   -6.9876035    947.87938   0.02098564  0.020165884           79 
 3765000   0.64572855   -7.0112786    950.17759  0.021030934  0.020159295           73 
 3766000   0.64048853   -7.0032209    947.74176   0.02097145  0.020152684           35 
 3767000   0.66239846   -6.9824237    950.20611  0.021020399  0.020146078           60 
 3768000   0.64750951    -7.006093    948.87361  0.020985351  0.020139466           84 
 3769000   0.63910888    -6.999572    949.54392  0.020994603  0.020132843           72 
 3770000   0.64237804   -7.0121291    946.56147  0.020923109  0.020126219          140 
 3771000    0.6598383   -7.0067874    948.84354  0.020967991  0.020119596           98 
 3772000   0.64340119   -7.0130759    946.87767  0.020919001  0.020112976          117 
 3773000   0.65722101   -7.0128868     948.9244  0.020958662  0.020106367          149 
 3774000   0.66494602   -6.9988748    949.77187  0.020971822  0.020099773           54 
 3775000   0.63760275   -7.0494673    947.95207  0.020926094  0.020093164          119 
 3776000   0.65303767   -6.9989733    949.76556  0.020960575  0.020086561           71 
 3777000    0.6484722   -7.0042309    949.16719  0.020941823  0.020079977          178 
 3778000   0.65997497   -7.0149477    949.20913  0.020937205  0.020073386           70 
 3779000   0.65535008   -7.0059087    949.25832  0.020932749  0.020066784           93 
 3780000   0.63909459   -7.0101364    948.26702  0.020905358  0.020060187          142 
 3781000   0.66480939   -7.0104942    947.78552  0.020889216  0.020053582          131 
 3782000   0.65182466   -6.9978096    945.79352  0.020839801  0.020046965          115 
 3783000   0.64373686   -7.0064101    949.32686  0.020912126  0.020040372          211 
 3784000    0.6435057   -6.9957406    948.63214    0.0208913  0.020033796          141 
 3785000   0.64550937   -7.0090603    948.92858  0.020892307  0.020027209           87 
 3786000   0.64890407   -6.9956132     950.5345  0.020922136  0.020020626          296 
 3787000   0.64055619   -7.0231625    949.06225  0.020884215  0.020014038          173 
 3788000   0.65593498   -7.0249527    948.39564  0.020864036  0.020007446          188 
 3789000   0.65138845   -7.0090096    949.27231  0.020877811  0.020000844           80 
 3790000   0.65574787   -7.0189475    946.03893  0.020801208  0.019994227          118 
 3791000   0.65371669   -7.0337958    948.16419  0.020842438  0.019987594          117 
 3792000   0.65427373   -7.0314976    950.88147  0.020896657  0.019980988          132 
 3793000   0.65676567   -7.0372038    948.53669  0.020839632  0.019974385           90 
 3794000   0.65152733   -6.9963136    948.68846  0.020837473  0.019967797           75 
 3795000   0.64362682   -7.0125513    948.35933  0.020824755  0.019961213          100 
 3796000   0.65408084   -7.0185342    949.20694  0.020837876  0.019954636           70 
 3797000   0.64348112    -7.020423    948.02254  0.020806394  0.019948048           82 
 3798000   0.63397221   -7.0440328    947.66008  0.020792963  0.019941448          132 
 3799000   0.64462274   -7.0273357    947.28556  0.020779274  0.019934837          127 
 3800000   0.64577931   -7.0307061    948.43698  0.020799057  0.019928244          106 
 3801000   0.64533067   -6.9901571    947.70678  0.020777576  0.019921666          106 
 3802000   0.65203952   -7.0275395    946.17904  0.020738625  0.019915092           98 
 3803000   0.62976325   -7.0203184    948.58816  0.020785962  0.019908519          110 
 3804000   0.64725749   -7.0200207    949.92429  0.020809768   0.01990194           74 
 3805000   0.65735794   -7.0173572    950.03363  0.020806694  0.019895372           86 
 3806000   0.64747569   -7.0285528    947.15439  0.020738185  0.019888795          119 
 3807000   0.65591515   -7.0168752    948.56198  0.020763549  0.019882233          104 
 3808000   0.65090615    -6.994087    949.56502  0.020780047  0.019875667          112 
 3809000   0.64376474   -7.0289104      945.804  0.020692308  0.019869088           94 
 3810000   0.63947023   -7.0196451    948.66123  0.020749371  0.019862514          190 
 3811000   0.63443058   -7.0291037    946.88748   0.02070514  0.019855939           91 
 3812000   0.63928895   -7.0278379    948.41344  0.020733067  0.019849368           77 
 3813000   0.65445025   -7.0028799    948.77587  0.020735551  0.019842812          122 
 3814000   0.63830906   -7.0259768    948.86118  0.020731978  0.019836254           44 
 3815000   0.65567302   -7.0171423    950.17685  0.020755283  0.019829712           92 
 3816000   0.65002045   -7.0252019      947.803  0.020698004  0.019823156          137 
 3817000   0.64694095   -7.0200831    948.91928  0.020716952  0.019816591          144 
 3818000   0.65308043   -7.0526051    947.12495  0.020672362  0.019810013          113 
 3819000   0.65296739   -7.0390283    946.32197  0.020649428  0.019803427           79 
 3820000   0.63248899   -7.0538719    945.47292    0.0206255  0.019796842          195 
 3821000   0.64634972   -6.9843987    947.13637  0.020656381  0.019790272          104 
 3822000   0.65416745   -7.0524209    946.98652  0.020647709  0.019783725          107 
 3823000   0.65082246   -7.0274223    946.22788  0.020625771  0.019777153          209 
 3824000   0.62133729   -7.0156748    946.48886  0.020626065   0.01977059          153 
 3825000   0.64840091   -7.0566288    945.74224  0.020604406  0.019764032          233 
 3826000   0.62898626   -7.0679704    945.80509   0.02060039  0.019757472          137 
 3827000   0.63696589   -7.0206681    947.42056  0.020630184  0.019750916           56 
 3828000   0.63538315     -7.02812    947.60438  0.020628796  0.019744383          130 
 3829000   0.63248445   -7.0287503     949.0746  0.020655406  0.019737847          184 
 3830000   0.63021295   -7.0384153    946.38647  0.020591524  0.019731295           94 
 3831000   0.64596917   -7.0306728    948.13459  0.020624175  0.019724738          112 
 3832000   0.63066034   -7.0373794    945.65995  0.020564978  0.019718183           86 
 3833000   0.62382297   -7.0215307    947.15311  0.020592076  0.019711635          103 
 3834000   0.63392175   -7.0426139    948.26131  0.020610792  0.019705084          263 
 3835000   0.64971828   -7.0198057    946.80973  0.020573875  0.019698524           91 
 3836000   0.63555065   -7.0521896    945.34268  0.020536641   0.01969197           99 
 3837000   0.64049482   -7.0185731    944.89642  0.020521597   0.01968542          117 
 3838000   0.62676928   -7.0224032    947.69247   0.02057696  0.019678882          129 
 3839000   0.63062034   -7.0291681    946.67723  0.020549562  0.019672348          143 
 3840000   0.64382428   -7.0341731    947.49491  0.020561956  0.019665826          117 
 3841000   0.63465094   -7.0461487    946.01691  0.020524536  0.019659307          211 
 3842000   0.63765949   -7.0444585    948.06163  0.020563544  0.019652786          144 
 3843000   0.63090461   -7.0258496    947.95076  0.020555789  0.019646271          158 
 3844000   0.63992971   -7.0365325    946.58726  0.020520882  0.019639737          197 
 3845000   0.62534974   -7.0487811    945.71093  0.020496553    0.0196332          254 
 3846000   0.63267172    -7.028622    947.76171  0.020535659   0.01962667          220 
 3847000   0.63770295   -7.0544676    947.17238  0.020517554   0.01962012          240 
 3848000   0.63478083   -7.0466996     946.4057  0.020495619  0.019613567          201 
 3849000   0.63548196   -7.0698281     944.8081  0.020455705  0.019607021          181 
 3850000     0.644044   -7.0487392    945.22303  0.020459373   0.01960046          134 
 3851000   0.62723886   -7.0641363    946.49568    0.0204816  0.019593913          295 
 3852000   0.62920853   -7.0546012    946.18883  0.020469644  0.019587355          289 
 3853000   0.62156914   -7.0444319    947.54572  0.020493678  0.019580816          245 
 3854000   0.64643056   -7.0867403    946.09591  0.020457012  0.019574264          210 
 3855000   0.63602578   -7.0593734     947.0551  0.020472441  0.019567725          308 
 3856000   0.62974649   -7.0604181    946.77443  0.020461066   0.01956119          176 
 3857000   0.64846841   -7.0308032    947.38985  0.020469057  0.019554674          230 
 3858000    0.6289892   -7.0441434    946.68826  0.020448597  0.019548155          189 
 3859000    0.6303264   -7.0394546    945.80097  0.020424138  0.019541637          320 
 3860000    0.6259828   -7.0601001    947.00337  0.020444805  0.019535106          406 
 3861000   0.62834792   -7.0571667    946.37776  0.020426007  0.019528588          270 
 3862000   0.64878397   -7.0421008    945.52575  0.020402334  0.019522072          337 
 3863000   0.63758564   -7.0683584    944.73989    0.0203801  0.019515549          370 
 3864000    0.6299652   -7.0741279    944.98969  0.020380212  0.019509024          317 
 3865000   0.62156897   -7.0625001    946.26018  0.020402332    0.0195025          440 
 3866000    0.6243555   -7.0542839    946.08029  0.020393177  0.019495991          417 
 3867000    0.6349886   -7.0730496    944.67482  0.020357616  0.019489482          462 
 3868000   0.63395557    -7.080068    946.27619  0.020386853  0.019482967          369 
 3869000   0.63390429   -7.0708462    943.66378  0.020325316  0.019476457          451 
 3870000   0.62954914    -7.073798    945.03958   0.02034969  0.019469939          441 
 3871000   0.64390856   -7.0436172    942.04729  0.020280016  0.019463406          497 
 3872000   0.64408009   -7.0570412    946.33654  0.020367092  0.019456879          505 
 3873000   0.61375455   -7.0694121     946.0131  0.020354874   0.01945034          511 
 3874000   0.63507843    -7.080617    947.07898  0.020372547  0.019443799          575 
 3875000    0.6304655    -7.078004    945.05096  0.020323677  0.019437244          541 
 3876000   0.63108697   -7.0861921     943.8773    0.0202932  0.019430677          588 
 3877000   0.63592677   -7.0836458    943.84491  0.020287269  0.019424115          614 
 3878000   0.63381679   -7.1061809    943.01409  0.020264184  0.019417555          587 
 3879000   0.62596343   -7.1036589    943.40174  0.020267288  0.019411001          521 
 3880000    0.6408644   -7.0828304     944.9328  0.020294948  0.019404449          474 
 3881000   0.61070395     -7.10383     944.6744  0.020284171  0.019397892          550 
 3882000   0.63415752   -7.1017991    942.05395  0.020222694  0.019391345          517 
 3883000   0.62659639   -7.0893099    944.80102   0.02027644  0.019384808          444 
 3884000   0.64311111   -7.0881731    943.87424  0.020251335  0.019378268          427 
 3885000   0.62100673   -7.0817351    942.42254  0.020214984  0.019371745          549 
 3886000    0.6391308     -7.11331    943.84794  0.020240349  0.019365215          455 
 3887000   0.61887184   -7.0882935    944.85341  0.020256698  0.019358691          448 
 3888000   0.62577486   -7.1040234    944.74315  0.020249124  0.019352167          497 
 3889000   0.63732861   -7.0845536    944.10551  0.020230254  0.019345642          526 
 3890000   0.64298225   -7.0879939    944.85838  0.020241182  0.019339112          478 
 3891000   0.64354686   -7.0852656    942.91533  0.020194366   0.01933259          475 
 3892000   0.61686724   -7.1052318    945.69925  0.020248785  0.019326061          546 
 3893000   0.64908437   -7.0952194    943.86262  0.020204269  0.019319528          549 
 3894000   0.63672348   -7.0945526     945.4319  0.020232663  0.019313006          606 
 3895000   0.63763104   -7.0955337    943.00221  0.020175486   0.01930647          567 
 3896000    0.6359221   -7.0941972    944.35581   0.02019926  0.019299933          539 
 3897000   0.63133921   -7.1172156    942.66031   0.02015782  0.019293385          536 
 3898000   0.62977315   -7.1127704    942.86334  0.020156989  0.019286839          475 
 3899000   0.62351143   -7.1269015    942.17972  0.020137209  0.019280286          556 
 3900000   0.63065649   -7.1212337    943.04665   0.02015057  0.019273743          634 
 3901000   0.62173884   -7.1154169    942.75527  0.020139179  0.019267203          569 
 3902000   0.61487948   -7.1075782    945.41199  0.020190757  0.019260658          664 
 3903000   0.63669557   -7.0887968    942.58499  0.020125224   0.01925412          668 
 3904000   0.62879436   -7.1019817    941.85225  0.020104428  0.019247586          571 
 3905000   0.63120257   -7.1010945    943.37587  0.020131794  0.019241051          562 
 3906000   0.62394383    -7.120339    943.75543  0.020134738  0.019234514          491 
 3907000   0.62215982   -7.1137073    944.28354  0.020140849  0.019227997          534 
 3908000   0.61116012   -7.1112859    943.19332  0.020112447  0.019221476          644 
 3909000   0.63029177   -7.1255947     941.7468  0.020076464  0.019214955          458 
 3910000    0.6290276   -7.1250185    941.42611  0.020064495  0.019208426          602 
 3911000    0.6374477    -7.108322    943.04366  0.020093831    0.0192019          621 
 3912000   0.62350283   -7.1090105    942.72242  0.020081851  0.019195368          593 
 3913000   0.64208096   -7.1231877    942.26749  0.020067031  0.019188851          701 
 3914000    0.6271649   -7.1090301    943.13075  0.020080283  0.019182328          579 
 3915000   0.61541821   -7.1112007    941.96642  0.020050371  0.019175816          669 
 3916000   0.62842521   -7.0967284    941.22909   0.02002956   0.01916931          696 
 3917000   0.63128748   -7.1304384    941.78739  0.020036324  0.019162797          674 
 3918000   0.62497087   -7.0974679    944.18951  0.020082302  0.019156287          461 
 3919000   0.62398345   -7.1322925    939.77771  0.019983366   0.01914978          674 
 3920000   0.61795009   -7.1331922    941.58733  0.020016738  0.019143255          602 
 3921000   0.61514273   -7.1297816    941.93079  0.020018932   0.01913674          637 
 3922000   0.61636643   -7.0994193    940.48243  0.019983054  0.019130219          606 
 3923000   0.62921092   -7.1237575    942.02258  0.020010676  0.019123702          710 
 3924000    0.6247177   -7.1170326    941.52952  0.019995105  0.019117192          734 
 3925000   0.63033206   -7.1333805    940.83261  0.019975215  0.019110674          759 
 3926000   0.63983969   -7.1229523    943.40103  0.020024644  0.019104165          831 
 3927000   0.64301962   -7.1119127    942.60502  0.020002653  0.019097679          852 
 3928000   0.62568638   -7.1278266    941.29047  0.019969672  0.019091189          822 
 3929000   0.61915729   -7.1071041    943.00926  0.020001045    0.0190847          783 
 3930000   0.63508083   -7.1024715    941.71635   0.01996854  0.019078216          867 
 3931000   0.63199101   -7.0982899    944.22229  0.020016584  0.019071752          735 
 3932000   0.64459427   -7.1128336    943.28354  0.019991598  0.019065281          778 
 3933000   0.61689983   -7.1130176     942.0416    0.0199602  0.019058826          890 
 3934000   0.61840476   -7.1274741    941.56396  0.019945009   0.01905236          958 
 3935000   0.62191748   -7.1092959    943.90991  0.019989621  0.019045886          881 
 3936000   0.62397231   -7.1194125    943.61386  0.019978274  0.019039427          830 
 3937000   0.61573073   -7.0986723    943.16299  0.019963657  0.019032959          911 
 3938000   0.64051537   -7.1180481    939.63524  0.019883935  0.019026499          903 
 3939000   0.60143397   -7.1199286    940.83229  0.019904212  0.019020031          923 
 3940000    0.6281487   -7.1315332    941.34223  0.019909946  0.019013545          815 
 3941000   0.63340765   -7.1123517    942.86803  0.019937157  0.019007071          912 
 3942000   0.60861605    -7.147986    940.22361  0.019876197  0.019000592          900 
 3943000   0.62052889   -7.1240485    940.95447  0.019886602  0.018994112          905 
 3944000    0.6226444   -7.1052249    942.80896  0.019920744  0.018987627          860 
 3945000   0.61035204   -7.1128212      942.167  0.019902133  0.018981165          848 
 3946000   0.62305015   -7.1166386    942.18375  0.019897444  0.018974704          882 
 3947000   0.62501264   -7.1275018    942.00698   0.01988867  0.018968218          856 
 3948000   0.61171801   -7.1460158    940.66749  0.019855359  0.018961736         1025 
 3949000   0.62673169   -7.1388461    940.61837  0.019849295  0.018955257          918 
 3950000   0.63088594   -7.1364395    941.54338  0.019863784  0.018948788          926 
 3951000    0.6149364   -7.1376043    940.77912  0.019842637  0.018942321          953 
 3952000   0.62851057   -7.1318415    942.69648  0.019878047  0.018935855          949 
 3953000   0.62084502   -7.1112724    943.37241  0.019887267  0.018929399          795 
 3954000   0.63036967   -7.1231424      944.013  0.019895738  0.018922961          730 
 3955000   0.61870953   -7.1155714    942.57896  0.019860492   0.01891653          906 
 3956000   0.63469063   -7.1297169    941.49719  0.019832684  0.018910079          870 
 3957000   0.62334003   -7.1140706    940.20957  0.019800555  0.018903634          903 
 3958000   0.61641477   -7.1279184    943.38371  0.019862382  0.018897211          848 
 3959000   0.62031353   -7.1224506    941.93872  0.019826949  0.018890788         1036 
 3960000   0.61585135   -7.1287392    942.27236  0.019828964   0.01888436          928 
 3961000   0.59427341   -7.1227879    939.79194  0.019771773   0.01887793          940 
 3962000   0.61739138   -7.1387896    942.25696   0.01981863  0.018871492          918 
 3963000   0.60377489   -7.1208921    941.97199  0.019807637  0.018865073          943 
 3964000    0.6234266   -7.1368106    942.35894  0.019810775  0.018858643          822 
 3965000   0.62187348   -7.1237888    941.72373  0.019792428  0.018852216         1007 
 3966000   0.62874777   -7.1457879    942.06965  0.019794706  0.018845794          948 
 3967000   0.60575408   -7.1638545    943.32471  0.019816081  0.018839376          948 
 3968000   0.62654735    -7.114899      942.334   0.01979028   0.01883295          976 
 3969000   0.61473972   -7.1412839     938.3213  0.019701044  0.018826534         1023 
 3970000   0.62479337   -7.1455401    940.97542  0.019751793  0.018820123          980 
 3971000   0.62100119   -7.1304134    940.10237  0.019728498  0.018813724          954 
 3972000   0.63278447   -7.1267575    943.01761  0.019784693  0.018807317          889 
 3973000    0.6225168   -7.1517389    940.73381  0.019731811  0.018800913          896 
 3974000     0.621355   -7.1286206    941.40007  0.019740817  0.018794515          892 
 3975000   0.61000924   -7.1328755    942.01282  0.019748696  0.018788113          938 
 3976000   0.62068429    -7.116318    940.79245  0.019718152  0.018781713          771 
 3977000   0.62523726   -7.1224209     941.8192  0.019734708  0.018775314          913 
 3978000   0.61045928   -7.1404333    940.90956  0.019710691  0.018768901          884 
 3979000    0.6270431    -7.128488    941.13425  0.019710443  0.018762508          902 
 3980000   0.60574755   -7.1590232    942.04242  0.019724506  0.018756106          956 
 3981000   0.60810832   -7.1208186    940.56027  0.019688526  0.018749708          958 
 3982000   0.62370694   -7.1491447    942.66914  0.019727715  0.018743326         1049 
 3983000   0.61655282   -7.1298635     942.9287  0.019728193  0.018736943          865 
 3984000   0.60804328   -7.1501168    941.82713  0.019700199  0.018730554          946 
 3985000   0.60818205   -7.1156778    940.82804  0.019674363  0.018724173          957 
 3986000   0.60834132   -7.1416251      942.125  0.019696542   0.01871778          992 
 3987000     0.618672   -7.1357986    942.13115   0.01969173  0.018711378         1032 
 3988000   0.61229398   -7.1341308    940.70376  0.019656966  0.018705002          919 
 3989000    0.6114689   -7.1262433    940.56809  0.019649204  0.018698627          926 
 3990000   0.61637001   -7.1538174    940.09598  0.019634419  0.018692249         1022 
 3991000   0.61784591   -7.1454828    941.49911  0.019658797  0.018685869         1050 
 3992000   0.60518836   -7.1472093     942.3922  0.019672516  0.018679491         1133 
 3993000   0.61357959   -7.1443157    940.87163  0.019635855  0.018673103         1086 
 3994000   0.61171944   -7.1313763    942.94872  0.019674276  0.018666731         1102 
 3995000   0.62387196   -7.1529418    941.04924   0.01962973  0.018660351         1120 
 3996000   0.61609492   -7.1524069    940.00026  0.019602942  0.018653969         1132 
 3997000    0.5966065   -7.1679323    940.81303  0.019614983  0.018647592         1140 
 3998000   0.61263849   -7.1589972    939.29214  0.019578375  0.018641214         1112 
 3999000   0.61576922   -7.1343647    940.64376  0.019601645  0.018634822         1115 
 4000000   0.60932267   -7.1651933    941.66775  0.019618078  0.018628452         1095 
 4001000   0.61015252   -7.1495677    940.21289  0.019582873   0.01862206         1173 
 4002000   0.61955173   -7.1708058    938.34111  0.019539004  0.018615689         1116 
 4003000   0.62613071   -7.1734928    939.86489  0.019565844  0.018609313         1104 
 4004000    0.6227914   -7.1780431    940.28933  0.019569791  0.018602931         1150 
 4005000   0.60348339   -7.1666561    938.93517  0.019536728  0.018596551         1273 
 4006000   0.59252401   -7.1547164    940.96784  0.019574135  0.018590172         1191 
 4007000   0.60589446   -7.1595687    939.63044  0.019541437    0.0185838         1197 
 4008000   0.60532737   -7.1493205    940.75978  0.019560042  0.018577428         1270 
 4009000   0.61128924   -7.1725747    942.15018  0.019584065  0.018571067         1152 
 4010000   0.61166643   -7.1633765    941.33281  0.019562195  0.018564701         1157 
 4011000    0.6217894    -7.180182    938.35827  0.019495518  0.018558336         1198 
 4012000   0.61471167   -7.1456335    938.67312  0.019497198   0.01855197         1182 
 4013000   0.61228215   -7.1812076    939.13286  0.019501887  0.018545596         1245 
 4014000     0.606139    -7.170178    937.48389  0.019462795  0.018539224         1253 
 4015000   0.59948588    -7.161593    940.35969  0.019517636  0.018532868         1210 
 4016000   0.62098336   -7.1614725    939.13096  0.019487279  0.018526516         1249 
 4017000   0.60006107   -7.1785603     938.5618  0.019470621  0.018520159         1281 
 4018000   0.61374647   -7.2007497    937.68172  0.019447522  0.018513804         1210 
 4019000   0.60403879   -7.1773368    940.34981  0.019498005  0.018507446         1195 
 4020000    0.6127183   -7.1768201    939.07936  0.019466819  0.018501104         1197 
 4021000   0.60428335   -7.1512115    940.92462   0.01950022  0.018494762         1225 
 4022000   0.60730971   -7.1685541    940.60492  0.019488748  0.018488419         1252 
 4023000    0.6164376   -7.1782435    940.60042   0.01948381  0.018482082         1233 
 4024000   0.60760033   -7.1816831    940.20018   0.01947068  0.018475741         1206 
 4025000    0.5990568   -7.1580131    940.71409  0.019476482  0.018469411         1288 
 4026000   0.61049554   -7.1806273     939.7563  0.019451819  0.018463071         1297 
 4027000   0.61408162   -7.1730754    939.77394  0.019447354  0.018456741         1132 
 4028000   0.60202283   -7.1697061    940.58275  0.019459259  0.018450406         1217 
 4029000   0.60285809   -7.1851879    938.93425  0.019420333  0.018444082         1355 
 4030000   0.60267728   -7.1820636    938.00387  0.019396275  0.018437753         1310 
 4031000   0.60054712   -7.1763915    939.48061  0.019421992  0.018431433         1199 
 4032000   0.61251931   -7.1629288    940.87044    0.0194459  0.018425107         1109 
 4033000   0.62053408   -7.1758041    939.69115  0.019416711  0.018418796         1251 
 4034000   0.61857301   -7.1828313    940.38069  0.019426142  0.018412491         1258 
 4035000   0.59547125    -7.170407    939.86578  0.019410693  0.018406174         1251 
 4036000   0.60796131   -7.1945052    937.72576  0.019361698  0.018399854         1228 
 4037000   0.61980755   -7.1767863    938.71663  0.019377356  0.018393538         1196 
 4038000   0.60227079    -7.164599    939.11965  0.019380874  0.018387227         1149 
 4039000   0.60135776   -7.1918469    938.14224   0.01935591  0.018380916         1164 
 4040000   0.60580645   -7.1839378    939.90547  0.019387489  0.018374606         1195 
 4041000   0.60994729   -7.1769959    939.40462  0.019372363  0.018368296         1299 
 4042000   0.59996829   -7.1894604    938.62644  0.019351526  0.018361977         1205 
 4043000   0.61402063   -7.1924553    939.38269  0.019362328  0.018355667         1218 
 4044000   0.60789084   -7.1933393    938.45031  0.019338326  0.018349353         1200 
 4045000   0.59592757   -7.1804604    939.82453  0.019361857  0.018343039         1248 
 4046000    0.6063263   -7.1871608    940.18309  0.019364456  0.018336737         1241 
 4047000   0.59853503   -7.1927824    940.19773  0.019359973  0.018330426         1340 
 4048000   0.60131925   -7.1819102    939.20289   0.01933471   0.01832412         1266 
 4049000   0.60395889   -7.1769302    938.81575  0.019321967  0.018317814         1320 
 4050000   0.60461408   -7.1994817    937.22166  0.019284396  0.018311504         1356 
 4051000   0.59012668   -7.1847651      938.951   0.01931521  0.018305205         1366 
 4052000   0.60801976   -7.1908696    937.87506  0.019288316  0.018298922         1357 
 4053000   0.59591044   -7.1764336    938.19653  0.019290166   0.01829262         1274 
 4054000   0.60637932   -7.1890288    936.56024  0.019251773  0.018286321         1283 
 4055000   0.60859344   -7.1758391    938.80487  0.019293154   0.01828003         1239 
 4056000   0.60663658   -7.1818519    939.50266  0.019302734  0.018273739         1266 
 4057000   0.58935549   -7.1898233    938.09857  0.019269135  0.018267455         1299 
 4058000   0.60787703   -7.1923783    937.60915  0.019254336  0.018261179         1250 
 4059000   0.60858176   -7.1845105    937.88435  0.019255242  0.018254891         1316 
 4060000   0.61266544   -7.2022239    937.96116  0.019252076  0.018248596         1330 
 4061000   0.58876906   -7.1808329    937.93616  0.019246823  0.018242324         1269 
 4062000   0.59744086   -7.1730208    938.08886  0.019245217   0.01823605         1232 
 4063000   0.61270875   -7.1981621    937.92014   0.01923702  0.018229786         1196 
 4064000   0.60350752   -7.1875959    937.86764   0.01923121  0.018223512         1183 
 4065000   0.62222388   -7.2036934    937.77418  0.019224563  0.018217243         1304 
 4066000   0.60571835   -7.1655349    939.49753  0.019255155   0.01821098         1309 
 4067000   0.58603218   -7.2019619    939.51581  0.019250795  0.018204724         1312 
 4068000   0.58042772   -7.1949234    937.29433  0.019200556  0.018198458         1340 
 4069000   0.60483619   -7.1774964    938.15708  0.019213506  0.018192191         1272 
 4070000     0.608683   -7.1697714     937.8132  0.019201744  0.018185925         1309 
 4071000   0.59595517   -7.1834306    938.03346  0.019201536  0.018179657         1346 
 4072000    0.5967853   -7.1983538    937.56679  0.019187271  0.018173396         1295 
 4073000   0.59305689   -7.1999359    937.08075  0.019172615  0.018167127         1378 
 4074000   0.60566289   -7.1956897    937.14532   0.01916923  0.018160882         1256 
 4075000   0.60805529   -7.1841613    938.11898  0.019184437  0.018154616         1307 
 4076000    0.6026731   -7.2134419    937.08659  0.019158624  0.018148352         1342 
 4077000    0.6074286   -7.2032494    937.92589  0.019171079  0.018142096         1359 
 4078000   0.60193648   -7.2048547    939.39505    0.0191964   0.01813586         1332 
 4079000   0.59567802   -7.1829008    936.35041  0.019129493  0.018129622         1354 
 4080000   0.61200664   -7.1910708    938.34624  0.019165569  0.018123386         1269 
 4081000   0.58856461   -7.2006018    938.27454  0.019159408   0.01811716         1419 
 4082000   0.59823551   -7.2059927    937.72813   0.01914356  0.018110931         1309 
 4083000    0.5837999   -7.1961596    938.85723  0.019161916  0.018104698         1304 
 4084000   0.59126514   -7.2014423      938.588   0.01915173  0.018098462         1358 
 4085000   0.59836061   -7.2191761    937.00613  0.019114772  0.018092237         1317 
 4086000   0.59689428   -7.2164992    939.83685  0.019167826   0.01808601         1368 
 4087000   0.58697918   -7.1974087     939.7403  0.019161167  0.018079778         1302 
 4088000   0.59433512     -7.20132    937.80263  0.019116981  0.018073551         1193 
 4089000   0.60147235   -7.2087776    936.98312  0.019095604  0.018067325         1371 
 4090000   0.59912539   -7.1932579    939.09193  0.019133902  0.018061109         1323 
 4091000   0.58698912   -7.2157391    938.12439  0.019109517  0.018054893         1373 
 4092000   0.59980904   -7.2327321     938.0927  0.019104201  0.018048668         1388 
 4093000   0.59268244   -7.2066202    935.36716  0.019044042  0.018042448         1423 
 4094000   0.59131692   -7.2188219    937.20582  0.019076816  0.018036229         1431 
 4095000   0.59653208   -7.2036387    938.22084  0.019092813  0.018030012         1317 
 4096000   0.59372124   -7.2054645    937.51106  0.019073711  0.018023799         1369 
 4097000   0.59224307   -7.2087956     937.2498  0.019063742  0.018017572         1361 
 4098000   0.59847272   -7.1946417     935.2518   0.01901846   0.01801136         1335 
 4099000   0.60143619   -7.1967576    935.91345  0.019027272   0.01800514         1325 
 4100000   0.58115256   -7.1926026    937.37374  0.019052312  0.017998928         1416 
 4101000   0.60697562   -7.2236369    938.33458  0.019067191  0.017992719         1470 
 4102000   0.58799182   -7.2083332      937.434  0.019044247  0.017986516         1451 
 4103000   0.59908668   -7.1988534    937.16997  0.019034243  0.017980302         1373 
 4104000   0.61634179   -7.2072213    936.63927  0.019018829  0.017974104         1419 
 4105000   0.59350116   -7.2263646    937.64895  0.019034692  0.017967912         1432 
 4106000   0.59765253   -7.2246389    936.40279  0.019004765  0.017961722         1378 
 4107000   0.59422836   -7.2101016    937.55708  0.019023559  0.017955516         1507 
 4108000   0.59294774   -7.1992493    935.53712  0.018977952  0.017949315         1423 
 4109000    0.6005962    -7.238626    937.69387  0.019017074  0.017943116         1479 
 4110000   0.58903379    -7.235355    936.25368  0.018983246  0.017936929         1480 
 4111000   0.59127117   -7.2060866    938.33172  0.019020752   0.01793074         1456 
 4112000   0.58932151   -7.2058679    937.15292  0.018992236  0.017924559         1478 
 4113000   0.58820767   -7.2169465    936.64162   0.01897726   0.01791838         1437 
 4114000    0.6091836   -7.2201699    938.71459  0.019014637  0.017912196         1433 
 4115000   0.57969565     -7.23281    936.51043  0.018965379  0.017906012         1528 
 4116000   0.59070486   -7.2346273    934.15634   0.01891311  0.017899828         1519 
 4117000   0.59479594   -7.2164452    936.64274  0.018958844  0.017893647         1553 
 4118000   0.60167984   -7.2256027    936.70628  0.018955526   0.01788747         1555 
 4119000   0.59127181   -7.2365855    936.58217  0.018948413  0.017881296         1483 
 4120000   0.59015591   -7.2181704    937.11966  0.018954686  0.017875125         1493 
 4121000   0.59019577   -7.2162954    937.00443  0.018947756  0.017868953         1515 
 4122000   0.58705503   -7.2338944    937.44289  0.018952023  0.017862787         1510 
 4123000   0.58505328    -7.226999    934.64596  0.018890896  0.017856624         1516 
 4124000   0.59341081   -7.2339713    934.15239  0.018876341  0.017850448         1541 
 4125000   0.60420566   -7.2191503     937.2246   0.01893383  0.017844289         1510 
 4126000    0.5939716   -7.2233333    935.16684   0.01888768  0.017838119         1620 
 4127000   0.59226698   -7.2181006     936.8021  0.018916124  0.017831963         1601 
 4128000   0.59422167   -7.2199795    935.85039  0.018892329  0.017825793         1564 
 4129000   0.60313724   -7.2406445    934.45828  0.018859657  0.017819638         1590 
 4130000   0.58868894   -7.2157989    938.19929  0.018930575  0.017813493         1517 
 4131000   0.60274045   -7.2091477    936.55348  0.018892792  0.017807354         1418 
 4132000   0.57965904   -7.2320749    935.42617  0.018865484  0.017801206         1634 
 4133000   0.58758756   -7.2432404    935.94832  0.018871448  0.017795072         1585 
 4134000   0.59565646   -7.2194341    935.82648  0.018864427  0.017788931         1460 
 4135000   0.58567557    -7.228648    938.62885  0.018916341  0.017782802         1489 
 4136000   0.59535541   -7.2258847    938.40064   0.01890717  0.017776688         1498 
 4137000   0.59505208   -7.2196324    937.20104  0.018878435  0.017770568         1586 
 4138000    0.5925438   -7.2474248    936.77358  0.018865265  0.017764439         1578 
 4139000   0.59090025   -7.2371428    934.62358  0.018817419  0.017758311         1670 
 4140000   0.58179124   -7.2311108    936.25213  0.018845655  0.017752184         1537 
 4141000   0.60115573   -7.2260557     936.1593  0.018839236  0.017746074         1573 
 4142000   0.60218403   -7.2296156    936.97856   0.01885117  0.017739958         1675 
 4143000    0.5856022   -7.2089274    935.58576  0.018818605  0.017733842         1593 
 4144000   0.58175471   -7.2284161    936.25004  0.018827422  0.017727744         1629 
 4145000   0.59083766   -7.2397231    935.38522  0.018805493  0.017721636         1627 
 4146000   0.59202605   -7.2255785    937.45933  0.018842646   0.01771552         1701 
 4147000   0.59389519   -7.2233488    936.32771  0.018815363  0.017709413         1580 
 4148000   0.57073808   -7.2615367    935.03689  0.018784894  0.017703299         1577 
 4149000   0.60181326   -7.2223051    936.44026  0.018808553  0.017697202         1663 
 4150000   0.58279611   -7.2285061    935.97561  0.018794691    0.0176911         1632 
 4151000   0.59858782   -7.2406778    935.63045  0.018783234  0.017684994         1661 
 4152000   0.59418407    -7.257926    935.97112  0.018785547  0.017678892         1752 
 4153000   0.59032517    -7.242691    937.20308  0.018805744  0.017672802         1649 
 4154000   0.58685597   -7.2179749    936.15353  0.018780162  0.017666721         1663 
 4155000   0.58278766   -7.2140343    935.91729  0.018770904  0.017660638         1634 
 4156000   0.58410731   -7.2587902    935.00945  0.018748184  0.017654549         1685 
 4157000   0.59582011   -7.2328209    936.09909  0.018765518  0.017648466         1664 
 4158000    0.5824643   -7.2225873    936.34965  0.018766026  0.017642388         1665 
 4159000   0.58505825   -7.2391003    935.67404  0.018747977  0.017636312         1545 
 4160000   0.57953601   -7.2325621    935.29728  0.018735923  0.017630233         1636 
 4161000   0.59807334   -7.2297978    936.46885  0.018754884  0.017624146         1571 
 4162000   0.58939828   -7.2185055    936.50371  0.018751075  0.017618068         1671 
 4163000   0.58867855   -7.2287916    934.75577  0.018711582  0.017611989         1673 
 4164000   0.58709768    -7.248247    935.96207  0.018731229  0.017605903         1603 
 4165000   0.58902438   -7.2372872     934.8719   0.01870492   0.01759983         1772 
 4166000   0.57623337   -7.2414848    933.76195  0.018678227  0.017593757         1640 
 4167000   0.58253298   -7.2343824     934.8754  0.018696012  0.017587691         1615 
 4168000   0.57982101   -7.2403548    935.28154  0.018699647  0.017581625         1657 
 4169000   0.58571754   -7.2348557    936.49496  0.018719416  0.017575569         1508 
 4170000   0.59226334     -7.22133    937.09215  0.018726862  0.017569514         1599 
 4171000    0.5913339   -7.2538674    936.30848  0.018706715   0.01756346         1578 
 4172000   0.58388437   -7.2463435    935.47582  0.018685599  0.017557397         1656 
 4173000   0.57891929   -7.2437916    936.29877  0.018697555  0.017551338         1608 
 4174000   0.59838153   -7.2401531    934.74805  0.018662116  0.017545287         1580 
 4175000   0.58418133   -7.2399611    936.18209  0.018686269  0.017539232         1531 
 4176000    0.5905571   -7.2506069    935.36854   0.01866556  0.017533191         1672 
 4177000   0.58033869   -7.2612249    933.78406   0.01862948  0.017527141         1652 
 4178000   0.58862634   -7.2867505    934.56493  0.018640596  0.017521087         1666 
 4179000   0.56524409   -7.2490284    934.11987  0.018627261   0.01751503         1562 
 4180000    0.5926597   -7.2371707    936.41661  0.018668593  0.017508982         1648 
 4181000   0.58925934   -7.2424991    935.81206  0.018652078  0.017502941         1621 
 4182000   0.58125632   -7.2659239    937.41874  0.018679634  0.017496901         1638 
 4183000   0.60237805   -7.2457079    936.42785  0.018655428  0.017490866         1546 
 4184000   0.59910373   -7.2559829    933.83051  0.018599237  0.017484832         1589 
 4185000    0.5782975    -7.245698    936.62076  0.018650354  0.017478804         1629 
 4186000   0.58749036   -7.2582677      934.317  0.018600036  0.017472767         1689 
 4187000   0.59012176   -7.2400879     934.8253   0.01860571  0.017466733         1577 
 4188000   0.57739349   -7.2401353    937.14136  0.018647353  0.017460695         1556 
 4189000   0.58159841   -7.2351535    936.33481  0.018626856  0.017454661         1587 
 4190000    0.5693172   -7.2650052    933.28489  0.018561752  0.017448634         1662 
 4191000   0.56924651   -7.2300229    934.32191  0.018577943  0.017442606         1698 
 4192000   0.58605691   -7.2269863    936.87521  0.018624269  0.017436582         1657 
 4193000   0.57718602   -7.2468256    932.98565  0.018542524  0.017430555         1692 
 4194000   0.58157793   -7.2509135    935.59863  0.018590022   0.01742453         1706 
 4195000   0.58877127   -7.2661258    933.75818   0.01854903  0.017418509         1668 
 4196000   0.59263031   -7.2424842    936.08142   0.01859075  0.017412493         1655 
 4197000   0.58465967   -7.2488154    935.80876  0.018580906  0.017406486         1736 
 4198000   0.56810949   -7.2498284    936.15659  0.018583385  0.017400464         1654 
 4199000   0.57954982   -7.2354824      935.191  0.018559796  0.017394463         1681 
 4200000   0.58671505   -7.2615515    934.41949  0.018540069  0.017388453         1754 
 4201000    0.5884728   -7.2566412    935.95619  0.018566139  0.017382446         1680 
 4202000   0.57493892   -7.2661835     934.7431  0.018537663  0.017376447         1705 
 4203000   0.59234951   -7.2520377    935.68375  0.018551902  0.017370436         1715 
 4204000   0.58436402   -7.2627373     935.3306  0.018540489  0.017364424         1709 
 4205000   0.57443303   -7.2799789    934.30292  0.018515714  0.017358423         1836 
 4206000   0.57986233   -7.2562123    933.00253  0.018485547  0.017352407         1772 
 4207000    0.5720946   -7.2689167    934.22875  0.018505442    0.0173464         1649 
 4208000   0.57775276   -7.2624563    933.38322    0.0184843  0.017340395         1701 
 4209000   0.56979186   -7.2883684    933.14944   0.01847528  0.017334381         1843 
 4210000   0.58167168   -7.2563593    935.65105  0.018520409  0.017328378         1795 
 4211000   0.57190193   -7.2665242    933.74206  0.018478233  0.017322374         1674 
 4212000    0.5786969   -7.2829024    932.30311  0.018445377  0.017316385         1728 
 4213000   0.57149624   -7.2802525    934.52365  0.018484921   0.01731038         1662 
 4214000   0.58148653   -7.2666804    934.61177  0.018482277  0.017304384         1720 
 4215000   0.58139279   -7.2630529    933.67163  0.018459305    0.0172984         1674 
 4216000   0.58155379   -7.2502863    934.42607  0.018469838  0.017292417         1604 
 4217000   0.56950102   -7.2577573    934.27424  0.018462458  0.017286442         1720 
 4218000   0.57898882   -7.2478295    934.91521  0.018470745  0.017280472         1787 
 4219000   0.57428414   -7.2534392    935.90993  0.018486014  0.017274488         1695 
 4220000   0.58391199   -7.2627888    934.47649  0.018453327  0.017268511         1640 
 4221000    0.5883532    -7.277153     934.2243  0.018443977  0.017262528         1652 
 4222000   0.57733841   -7.2689483    932.67077  0.018408945  0.017256554         1637 
 4223000   0.58841262    -7.252487    935.10048  0.018452531  0.017250593         1656 
 4224000    0.5709278   -7.2597478    935.37792  0.018453636  0.017244622         1731 
 4225000   0.58833122   -7.2778797    934.80118  0.018437893  0.017238652         1647 
 4226000   0.57401148   -7.2773943     932.0206  0.018378699  0.017232686         1693 
 4227000   0.56953895   -7.2591026    934.04368  0.018414236  0.017226717         1653 
 4228000    0.5813305   -7.2527504    933.13749  0.018392019  0.017220762         1625 
 4229000   0.57300684   -7.2543949    935.27295   0.01842975  0.017214802         1686 
 4230000   0.58494337   -7.2768446     933.9548  0.018399425  0.017208852         1749 
 4231000   0.57870261   -7.2688389    934.01948   0.01839635  0.017202904         1672 
 4232000   0.57599263    -7.270055    934.67829  0.018404976  0.017196964         1714 
 4233000   0.57874978   -7.2775205    933.50166  0.018377464  0.017191022         1745 
 4234000    0.5762765   -7.2713594    933.88207  0.018380611  0.017185077         1770 
 4235000   0.58081331   -7.2718475    933.78956   0.01837445  0.017179131         1737 
 4236000    0.5660342   -7.2869494     934.4602  0.018383306  0.017173193         1782 
 4237000   0.56644577   -7.2795477    933.83065  0.018366585  0.017167252         1835 
 4238000   0.57674754   -7.2821473    936.22205  0.018409274  0.017161312         1807 
 4239000   0.57279328   -7.2702449    933.17085  0.018344949  0.017155374         1843 
 4240000   0.57849185    -7.295418    934.55623   0.01836785  0.017149438         1816 
 4241000   0.56164136   -7.2985922    932.26334  0.018318465  0.017143499         1818 
 4242000   0.56583465   -7.2806412    933.49584  0.018338359  0.017137573         1741 
 4243000   0.56677227   -7.2632091    933.72779  0.018338593  0.017131644         1757 
 4244000   0.58078367   -7.2815947    931.67705  0.018294004  0.017125711         1812 
 4245000   0.57464296   -7.2874232    933.37288  0.018322985  0.017119781         1778 
 4246000   0.56828287   -7.2810157    934.88583  0.018348364  0.017113855         1860 
 4247000   0.57742702   -7.2585843    934.20039  0.018330594  0.017107934         1767 
 4248000   0.56373497   -7.2743544    934.91401  0.018340278  0.017102013         1878 
 4249000   0.56982962   -7.2687644    933.10743   0.01830053  0.017096087         1776 
 4250000   0.57918284   -7.2900304    931.44249  0.018263578  0.017090169         1910 
 4251000   0.56093624   -7.2766277    931.59435  0.018262259  0.017084242         1814 
 4252000   0.56618449   -7.2906427    933.52427  0.018295788  0.017078326         1800 
 4253000   0.57811147   -7.2729973    934.98901  0.018320186  0.017072406         1762 
 4254000   0.55497512   -7.2754273    934.10392  0.018298541  0.017066497         1791 
 4255000   0.57724195   -7.2883079    934.20981  0.018296314  0.017060585         1720 
 4256000   0.58271045   -7.2785785    933.64761  0.018281007  0.017054673         1764 
 4257000   0.58677582   -7.2733796    932.39273  0.018252148  0.017048767         1831 
 4258000    0.5708069   -7.2971959    932.16048  0.018243316  0.017042856         1816 
 4259000   0.56227936   -7.2844084    930.86633  0.018213711  0.017036953         1826 
 4260000   0.57186803   -7.2944961    932.31594  0.018237792  0.017031046         1853 
 4261000    0.5619535   -7.2710164    932.78983   0.01824278  0.017025148         1773 
 4262000   0.56010303   -7.2901089    931.04697  0.018204422  0.017019254         1932 
 4263000   0.56509929   -7.2834276    931.81411  0.018215148  0.017013357         1825 
 4264000   0.56194911   -7.2800279    934.17899  0.018257094  0.017007465         1929 
 4265000   0.59012421   -7.2792782    934.36304   0.01825641  0.017001579         1786 
 4266000    0.5701159   -7.2795644    932.69717  0.018219588  0.016995696         1850 
 4267000   0.56019735   -7.2822448    933.19442   0.01822503  0.016989804         1831 
 4268000   0.58875828   -7.2704267    932.01031   0.01819764  0.016983929         1808 
 4269000     0.564431   -7.2833644    933.93562   0.01823096  0.016978055         1810 
 4270000   0.55639428   -7.2729009    933.20117  0.018212357  0.016972175         1797 
 4271000   0.56774439   -7.2949447    933.96811  0.018223057  0.016966293         1817 
 4272000   0.57762479   -7.2948911    933.16605  0.018203146   0.01696042         1792 
 4273000   0.57516652   -7.2995205    931.65869  0.018169488  0.016954554         1779 
 4274000   0.57163889   -7.2892179    933.11999  0.018193729   0.01694868         1921 
 4275000   0.55729711   -7.2762776    932.22982  0.018172121  0.016942806         1857 
 4276000   0.57017478   -7.2738549    932.89839  0.018180901  0.016936934         1839 
 4277000   0.56704937   -7.2953663    930.55149  0.018130923  0.016931062         1911 
 4278000   0.56766652    -7.276129    932.12768  0.018157388  0.016925199         1911 
 4279000   0.56860663   -7.2997207    933.57979  0.018181425  0.016919335         1809 
 4280000   0.57182861   -7.3071679    932.43796  0.018154945  0.016913476         1910 
 4281000   0.57207097   -7.2888644    932.42188  0.018150391  0.016907608         1909 
 4282000   0.56530654   -7.2886922    932.12735   0.01814042  0.016901749         1823 
 4283000   0.56098259     -7.29151    932.69545  0.018147238  0.016895896         1784 
 4284000    0.5688315   -7.2904002    932.13481  0.018132096  0.016890047         1801 
 4285000   0.56759132   -7.2879026    933.51185  0.018154645  0.016884194         1869 
 4286000   0.55652414   -7.2833332      932.776  0.018136102  0.016878346         1864 
 4287000   0.56222956   -7.3051493    933.05955  0.018137383  0.016872507         1876 
 4288000   0.57060724   -7.2867974    932.94178  0.018130865  0.016866669         1801 
 4289000   0.57037833   -7.2908731    932.33757  0.018114898  0.016860828         1730 
 4290000   0.54753684   -7.2957502     932.8541  0.018120709  0.016854981         1785 
 4291000   0.57183453    -7.297678    932.32322  0.018106176  0.016849141         1808 
 4292000   0.55448568   -7.3134762    931.75817  0.018090986    0.0168433         1887 
 4293000    0.5646457   -7.3141861    931.61576  0.018084008  0.016837463         1808 
 4294000   0.56478622   -7.2928156    933.11279  0.018108849   0.01683163         1775 
 4295000   0.55336858   -7.3133171    932.80211  0.018098605  0.016825798         1788 
 4296000   0.56045375   -7.2778808    931.91693  0.018077222   0.01681997         1856 
 4297000   0.56308379   -7.2968608    930.56376  0.018046772  0.016814147         1729 
 4298000   0.56910148   -7.2878216    930.90927  0.018049272  0.016808324         1885 
 4299000   0.56127256   -7.2961207    932.89004   0.01808347  0.016802511         1817 
 4300000   0.56182478   -7.2717882    933.37378  0.018088639  0.016796698         1772 
 4301000   0.56355915    -7.284094    933.24019  0.018081845  0.016790895         1784 
 4302000   0.58117544   -7.2926706    933.04306  0.018073823  0.016785092         1806 
 4303000   0.56436019   -7.2807138    932.61725  0.018061377   0.01677929         1787 
 4304000   0.56939827   -7.2985952    932.91864  0.018063016  0.016773483         1802 
 4305000   0.55848294   -7.2821925    933.08495  0.018062039  0.016767689         1815 
 4306000   0.57036985   -7.2976276     931.1663  0.018020713  0.016761899         1788 
 4307000   0.55803843   -7.3145579    932.03125  0.018033265  0.016756109         1797 
 4308000   0.56060022   -7.2918894    932.15801  0.018031531  0.016750324         1707 
 4309000   0.56207321   -7.2826555    935.01999  0.018082695  0.016744546         1764 
 4310000   0.56071217   -7.2772353    932.01954  0.018020486  0.016738775         1654 
 4311000   0.56153131   -7.2788221    935.03959  0.018074685     0.016733         1763 
 4312000   0.55427242   -7.2759602    933.00477  0.018031168  0.016727244         1701 
 4313000   0.56574082   -7.2855969    932.78612  0.018022763  0.016721489         1754 
 4314000   0.56025655   -7.2637204    932.91555  0.018021085  0.016715725         1710 
 4315000   0.56038341   -7.2995007    932.29166   0.01800486  0.016709965         1717 
 4316000   0.55686523   -7.2894109     932.4894  0.018004507   0.01670421         1696 
 4317000   0.55620342   -7.2870564     934.2566  0.018034449  0.016698441         1713 
 4318000   0.57010556   -7.3133111    931.82156  0.017983279  0.016692684         1766 
 4319000   0.55742097   -7.2831106    931.92399  0.017981091  0.016686922         1733 
 4320000   0.56557131   -7.2955566    932.91372  0.017996021  0.016681174         1887 
 4321000   0.56034245   -7.3063796     930.2485  0.017940456  0.016675415         1831 
 4322000    0.5635233   -7.3035911     933.3182  0.017995492  0.016669661         1797 
 4323000   0.55768342   -7.2881012    933.42863  0.017993458  0.016663908         1771 
 4324000   0.57153287   -7.2905702    934.15095  0.018003218  0.016658163         1834 
 4325000   0.56318624   -7.2738842    933.83562  0.017992979  0.016652416         1800 
 4326000   0.56577767   -7.2938773    931.91925  0.017951904  0.016646671         1860 
 4327000   0.56021624   -7.3009988    932.60775  0.017961015  0.016640925         1885 
 4328000   0.55558526   -7.3014699    930.49654  0.017916215   0.01663518         1841 
 4329000   0.54432858   -7.2924805    932.92805  0.017958883  0.016629436         1821 
 4330000    0.5603602   -7.3129278    930.95346  0.017916733  0.016623701         1919 
 4331000   0.54958182   -7.2946907    931.20949  0.017917523  0.016617964         1923 
 4332000   0.55968551   -7.3015609    932.03882   0.01792934  0.016612229         1823 
 4333000   0.56354487    -7.305173     932.5953  0.017935905  0.016606491         1822 
 4334000   0.54524629   -7.3096645    930.53191  0.017892092  0.016600757         1913 
 4335000    0.5629279   -7.3105866    931.86087  0.017913511  0.016595028         1879 
 4336000   0.55807076   -7.3084065    931.48047  0.017902069    0.0165893         1954 
 4337000   0.55211577   -7.2938136     931.0112  0.017888925  0.016583577         1869 
 4338000   0.55496539   -7.2942441    930.78593  0.017880474  0.016577855         1822 
 4339000   0.56482327   -7.2825272    932.42111  0.017907757  0.016572133         1827 
 4340000    0.5562862   -7.2994209    932.62926  0.017907628   0.01656641         1955 
 4341000   0.56076423   -7.2977672    932.89802  0.017908662  0.016560686         1849 
 4342000   0.55758263   -7.2924915    931.23551   0.01787263  0.016554961         1905 
 4343000   0.55153808   -7.3140014    931.32201  0.017870174  0.016549243         1855 
 4344000   0.55995473   -7.3094675    932.45407  0.017887778  0.016543523         1900 
 4345000   0.55196909   -7.3126938    930.16336  0.017839727  0.016537804         1980 
 4346000     0.556653   -7.3074402    930.41071  0.017840365  0.016532084         1915 
 4347000   0.55280696   -7.3314796    931.42858  0.017855774  0.016526377         1940 
 4348000   0.56909375   -7.2998052    933.38167    0.0178891  0.016520661         1994 
 4349000   0.56265492   -7.2992633    933.03511  0.017878346  0.016514942         1957 
 4350000   0.55536699   -7.3214137    931.16241   0.01783836  0.016509243         1947 
 4351000   0.56745917   -7.3216926    934.07945   0.01789013   0.01650353         1953 
 4352000   0.56591255   -7.2977275    931.25039  0.017831847  0.016497824         1987 
 4353000   0.55671548   -7.3137948    932.77209  0.017856882  0.016492121         1917 
 4354000   0.53974774   -7.3107251    930.10258  0.017801688  0.016486419         1891 
 4355000     0.551148   -7.3030714    930.75846   0.01781015  0.016480716         1917 
 4356000   0.57328734   -7.2876083    931.37147  0.017817789  0.016475025         1900 
 4357000   0.55857231   -7.3086194    931.89621  0.017823736  0.016469329         1962 
 4358000   0.54628776   -7.3200127    930.09856  0.017785272  0.016463637         1902 
 4359000   0.55040204   -7.3151167     929.5247  0.017770221  0.016457942         1910 
 4360000   0.55187313   -7.3086142    931.03111  0.017794937  0.016452252         1948 
 4361000   0.54927848   -7.3198394     930.9614  0.017789525  0.016446566         1982 
 4362000    0.5522216    -7.324896      931.346  0.017792794  0.016440878         1930 
 4363000   0.55914517   -7.2999212    932.54388  0.017811595  0.016435192         1883 
 4364000   0.55582755    -7.321756    931.24169  0.017782648  0.016429508         1988 
 4365000   0.54413801   -7.3248335    930.89386  0.017771933  0.016423825         1970 
 4366000   0.56257386   -7.3169603    930.16226  0.017753899  0.016418137         1947 
 4367000   0.54674608    -7.304824    931.76114  0.017780344  0.016412463         1879 
 4368000   0.54802633   -7.3080493    931.14452  0.017764509  0.016406791         1865 
 4369000   0.55147863   -7.3148408    929.38713  0.017726923  0.016401117         2003 
 4370000   0.55510444   -7.3091531    930.40125  0.017742205  0.016395445         1902 
 4371000   0.54563716   -7.3299341    929.54178   0.01772176  0.016389781         1952 
 4372000   0.56049207   -7.3143028    931.31463  0.017751499  0.016384116         1970 
 4373000   0.54677175   -7.3133836    931.53454   0.01775163   0.01637845         2027 
 4374000   0.55034806   -7.3162812     929.9763  0.017717884  0.016372793         1987 
 4375000   0.55796155   -7.3329972    930.19148  0.017717933  0.016367132         1974 
 4376000   0.55149032   -7.3287925    930.95376    0.0177284  0.016361478         1931 
 4377000   0.54896492   -7.3371833    930.85193  0.017722411   0.01635583         1984 
 4378000    0.5527127   -7.3159677    930.15309  0.017705061  0.016350183         1970 
 4379000   0.56192038   -7.3163983     931.9097  0.017734447  0.016344532         1958 
 4380000    0.5410668   -7.3202955    931.87961  0.017729825  0.016338879         1944 
 4381000   0.55111166   -7.3368318    929.94116  0.017688906  0.016333233         1971 
 4382000    0.5624197   -7.3312863     930.7768  0.017700761  0.016327595         1930 
 4383000   0.54669885   -7.3149502    929.86556  0.017679397  0.016321949         1974 
 4384000   0.55004574   -7.3124725    932.44085  0.017724317  0.016316314         1951 
 4385000   0.55950824   -7.3197147    930.10248  0.017675836  0.016310686         1947 
 4386000   0.54544108   -7.3296065    930.20392  0.017673733  0.016305052         1977 
 4387000   0.54550392   -7.3354948    930.16355  0.017668938  0.016299419         1971 
 4388000   0.55061917   -7.3150938    929.11631  0.017645023  0.016293793         1912 
 4389000   0.55614381   -7.3225603    931.73589   0.01769074  0.016288171         1906 
 4390000   0.54390145   -7.3288843    929.60114  0.017646187  0.016282547         1945 
 4391000   0.54509067   -7.3245972    931.83939  0.017684646  0.016276926         1939 
 4392000   0.55549869   -7.3079433     932.8918  0.017700588  0.016271304         1853 
 4393000   0.55362612   -7.3210929    928.95358  0.017621852  0.016265689         1874 
 4394000    0.5684094   -7.3454565    931.37328  0.017663732  0.016260075         1938 
 4395000   0.54878674   -7.3133792    930.58163  0.017644703  0.016254465         1947 
 4396000   0.54427789   -7.3153703    929.87657  0.017627324  0.016248851         1945 
 4397000   0.54696752   -7.3103882    930.13592   0.01762823  0.016243236         1983 
 4398000   0.55797671   -7.3311093    930.76008  0.017636048   0.01623762         2059 
 4399000   0.55402338   -7.3368505    929.18046  0.017602115  0.016232009         1906 
 4400000   0.54386206   -7.3202511    932.49853  0.017660957  0.016226408         2038 
 4401000   0.54192573   -7.3152336     927.6666  0.017565451    0.0162208         2002 
 4402000   0.55018866   -7.3364504    929.59125  0.017597896  0.016215191         1924 
 4403000   0.54268324   -7.3279869    931.65044  0.017632872   0.01620959         1866 
 4404000   0.54291376    -7.329934    929.84943  0.017594789   0.01620399         1921 
 4405000   0.55040499   -7.3227151    929.96608  0.017593002  0.016198402         1976 
 4406000   0.53281706   -7.3291086    931.47409  0.017617531  0.016192815         2025 
 4407000   0.54199458   -7.3401283    929.14997  0.017569586  0.016187233         1845 
 4408000   0.55088921   -7.3165639    932.17488  0.017622786  0.016181655         1840 
 4409000   0.53680109   -7.3131686    930.45534  0.017586288  0.016176079         1794 
 4410000   0.53553838   -7.3271643    930.84611  0.017589685  0.016170504         1796 
 4411000   0.53556883   -7.3304607    930.00297  0.017569768  0.016164924         1980 
 4412000   0.55055388   -7.3304345    930.65663  0.017578132  0.016159352         1886 
 4413000   0.53798906   -7.3303487    930.60077  0.017573094  0.016153778         1880 
 4414000   0.54078416   -7.3226147    929.28873  0.017544342  0.016148204         1858 
 4415000   0.54696846   -7.3263454    929.43011  0.017543037  0.016142629         1916 
 4416000   0.54083965   -7.3322653    932.35353  0.017594232  0.016137065         1854 
 4417000   0.54627447   -7.3199195    928.50217  0.017517587  0.016131499         1926 
 4418000   0.54180921   -7.3308635    928.29652  0.017509743  0.016125929         1895 
 4419000   0.53673541   -7.3387765    929.54169  0.017529262  0.016120368         1940 
 4420000    0.5492337   -7.3408359    929.41614  0.017522929  0.016114797         1952 
 4421000   0.55591902   -7.3327823    930.77871  0.017544649  0.016109247         1915 
 4422000   0.55126761   -7.3353965    929.73437     0.017521  0.016103687         1847 
 4423000   0.54620141   -7.3403602     928.8614  0.017500592  0.016098138         1958 
 4424000   0.55276261   -7.3481918     930.0288  0.017518626  0.016092588         1936 
 4425000   0.55043781   -7.3487272    931.76395  0.017547344  0.016087042         1847 
 4426000    0.5402448   -7.3254799     929.4464  0.017499744  0.016081508         1876 
 4427000   0.52806368   -7.3324287    930.87294  0.017522644  0.016075977         1919 
 4428000   0.53479929   -7.3442546    928.83457  0.017480325  0.016070437         1850 
 4429000   0.53986696   -7.3424614    930.54597  0.017508579  0.016064894         1935 
 4430000   0.55378707   -7.3374116    930.38957  0.017501685  0.016059353         1988 
 4431000   0.54432589   -7.3264064    929.60651  0.017483008  0.016053808         1944 
 4432000   0.54500285    -7.347082    929.64452  0.017479778  0.016048273         1977 
 4433000   0.53895426   -7.3253131    931.16632  0.017504442  0.016042742         1964 
 4434000   0.53899833   -7.3349639    929.69666  0.017472874  0.016037216         1975 
 4435000   0.54680411   -7.3388766    929.54147  0.017466018  0.016031685         1911 
 4436000   0.54597954   -7.3436823    930.72378  0.017484291  0.016026154         1883 
 4437000     0.542549   -7.3361727    929.28175  0.017453267  0.016020627         1886 
 4438000   0.54035231     -7.33782    930.28156  0.017468108  0.016015106         1834 
 4439000   0.54963424   -7.3433756    930.30111   0.01746454  0.016009587         1973 
 4440000   0.53456407   -7.3245109    929.17334   0.01743944  0.016004072         1917 
 4441000   0.54764419   -7.3331366    928.06033  0.017414627  0.015998562         1993 
 4442000   0.55649868   -7.3291512    930.40512  0.017454696  0.015993057         1992 
 4443000   0.55242375    -7.345792     928.4874  0.017414799  0.015987554         1944 
 4444000   0.54333869   -7.3382208    929.71929   0.01743398  0.015982051         1937 
 4445000   0.54552547   -7.3624715    926.81241  0.017375561  0.015976547         1907 
 4446000   0.54537791   -7.3507325    928.39574   0.01740133  0.015971043         1956 
 4447000   0.53985684   -7.3475341    929.45811  0.017417325  0.015965543         1880 
 4448000    0.5398834   -7.3458613    930.06422  0.017424764  0.015960047         1892 
 4449000   0.54104746   -7.3502539    928.56732   0.01739281  0.015954553         1913 
 4450000    0.5438169   -7.3374614    929.78774  0.017411755  0.015949056         1894 
 4451000   0.54558949   -7.3366428    930.99134  0.017430378  0.015943567         1978 
 4452000   0.54444139   -7.3451453     928.7322  0.017384176  0.015938075         1924 
 4453000    0.5435487   -7.3482455    931.03918  0.017423445  0.015932588         1910 
 4454000   0.53309918   -7.3471388    929.02226  0.017381797  0.015927099         1958 
 4455000   0.53009614   -7.3404305    930.20524  0.017400023   0.01592162         1933 
 4456000   0.54100685   -7.3414707    930.60706  0.017403633  0.015916131         1975 
 4457000   0.53511215   -7.3488605    929.78824  0.017384418  0.015910652         1986 
 4458000   0.53909522   -7.3352554    929.02453  0.017366243  0.015905183         2003 
 4459000    0.5438755   -7.3460111    928.96333  0.017361204  0.015899709         1889 
 4460000   0.53908521   -7.3609252    930.76006  0.017390883  0.015894235         1910 
 4461000   0.54017755   -7.3444563     930.0248   0.01737325  0.015888769         1922 
 4462000   0.53033849   -7.3450078    930.60944  0.017380275   0.01588329         1970 
 4463000   0.54628342   -7.3283856    928.07784   0.01732911  0.015877819         1982 
 4464000   0.53901459   -7.3405033    930.76152  0.017375327  0.015872355         1935 
 4465000    0.5358114   -7.3493395    929.55864  0.017348985  0.015866899         1941 
 4466000   0.53950601   -7.3577728    929.73838  0.017348455  0.015861439         1912 
 4467000   0.54908901   -7.3494699    930.03023  0.017350015  0.015855985         1970 
 4468000   0.53564181   -7.3563236    929.68425  0.017339679  0.015850527         1887 
 4469000   0.54087101   -7.3466915     929.5633  0.017333544  0.015845073         1947 
 4470000   0.52408067   -7.3654897    929.72739  0.017332725  0.015839628         1936 
 4471000   0.53882025   -7.3602727    929.23631  0.017319696  0.015834179         1907 
 4472000   0.54283393   -7.3411225    930.29161  0.017335488  0.015828732         2002 
 4473000   0.53886392   -7.3424235    929.55882   0.01731796  0.015823297         1931 
 4474000   0.53997841   -7.3510083     929.4904  0.017312815  0.015817856         1871 
 4475000   0.53838312    -7.323358    930.53364  0.017328373  0.015812424         1890 
 4476000   0.52141775   -7.3379411    929.02585   0.01729643  0.015806992         1801 
 4477000   0.53082936    -7.344426    930.55995  0.017321122  0.015801562         1879 
 4478000   0.53840789   -7.3349166    928.51028   0.01727911  0.015796132         1863 
 4479000   0.53558677   -7.3718082    930.10519  0.017304927  0.015790703         1922 
 4480000   0.53363365   -7.3474965    928.95519  0.017279672  0.015785273         1946 
 4481000   0.53812701   -7.3583212    928.91084  0.017274992  0.015779845         1913 
 4482000   0.53141018   -7.3674003    929.26329   0.01727769  0.015774422         1925 
 4483000   0.53357144   -7.3364828    928.56548  0.017260865  0.015768994         1832 
 4484000    0.5338976    -7.366204    928.97944  0.017264709  0.015763573         1915 
 4485000   0.53134798   -7.3477946    928.68205  0.017255334  0.015758155         1815 
 4486000   0.53311034   -7.3484518    929.65331  0.017269529  0.015752739         1955 
 4487000   0.52726253   -7.3735067    929.38319  0.017260664  0.015747327         2040 
 4488000   0.54293726   -7.3389617    929.55768  0.017260058  0.015741911         1989 
 4489000   0.52375466   -7.3722724    928.52773  0.017237093  0.015736494         1976 
 4490000   0.53222965   -7.3556425    928.75091  0.017237396   0.01573108         1957 
 4491000   0.53310274   -7.3440419    929.39238  0.017245461  0.015725667         2012 
 4492000   0.54342485   -7.3533036    930.48111  0.017261819  0.015720259         1905 
 4493000   0.54698302   -7.3560883    929.11118  0.017232569  0.015714858         1990 
 4494000   0.53055848   -7.3527529    928.80155  0.017222993   0.01570945         1952 
 4495000   0.52758804   -7.3571273    930.59464  0.017252403  0.015704048         2015 
 4496000   0.52890958   -7.3688791    927.15621  0.017184835  0.015698638         1934 
 4497000   0.53401897   -7.3527692    928.44441  0.017204885  0.015693241         2041 
 4498000   0.53078652   -7.3452158    930.08017  0.017231365  0.015687848         1868 
 4499000   0.52734129   -7.3597559    928.73803  0.017202675  0.015682448         1985 
 4500000    0.5341612   -7.3533244    929.63828  0.017215524  0.015677052         1945 
 4501000   0.52574049   -7.3609107    928.77999  0.017195808  0.015671655         2007 
 4502000   0.52874912    -7.363442    927.14827  0.017161785  0.015666257         1998 
 4503000   0.53582687   -7.3585204    928.53613  0.017183658  0.015660869         1978 
 4504000   0.52615951   -7.3672042    928.36155  0.017176612  0.015655483         2069 
 4505000   0.54210886   -7.3617629     928.7346    0.0171797  0.015650099         2008 
 4506000   0.51384836   -7.3653193    927.70801  0.017156902  0.015644711         1986 
 4507000   0.52075245   -7.3556348    929.07004  0.017178279  0.015639329         2064 
 4508000   0.53970065   -7.3726521    927.09985  0.017138048  0.015633946         1959 
 4509000   0.52718894   -7.3573542    927.34604  0.017138797   0.01562856         1954 
 4510000   0.52492657   -7.3615084    927.45714   0.01713705  0.015623177         1970 
 4511000   0.51926279   -7.3849043    927.87784  0.017141023  0.015617789         1989 
 4512000   0.53891989   -7.3856521    927.08941  0.017122662   0.01561241         1978 
 4513000   0.52115691   -7.3767773    927.95279   0.01713481  0.015607033         2029 
 4514000   0.52345545   -7.3662922    926.88926   0.01711138  0.015601659         1981 
 4515000   0.53683362   -7.3823688    926.51675  0.017100715  0.015596296         1957 
 4516000   0.52391923   -7.3601981    928.62658  0.017135861   0.01559093         2034 
 4517000   0.53482498   -7.3749579    927.03679  0.017102738  0.015585566         2040 
 4518000   0.52458982   -7.3761604    928.38583  0.017123835  0.015580202         1944 
 4519000   0.52861032   -7.3620125    928.61654    0.0171243  0.015574839         1966 
 4520000   0.51919766   -7.3818518    926.90172  0.017088896  0.015569481         2046 
 4521000   0.52793881   -7.3660882    928.62872  0.017116949  0.015564122         1986 
 4522000   0.52393173   -7.3676158     928.8487  0.017117218  0.015558763         2016 
 4523000   0.52769069   -7.3647139    929.68421  0.017128827  0.015553412         1998 
 4524000   0.51890134   -7.3809294    930.64207  0.017142685  0.015548065         1984 
 4525000   0.53388812    -7.378541    927.22494  0.017075966   0.01554272         2063 
 4526000   0.52431109   -7.3593062    927.73652  0.017081612  0.015537377         2024 
 4527000   0.53141784   -7.3838319    927.68683  0.017076924  0.015532031         1992 
 4528000   0.52916467    -7.373304    927.83404  0.017075862  0.015526691         1986 
 4529000   0.53450695   -7.3614254    927.21603   0.01706072  0.015521358         1983 
 4530000   0.52757602   -7.3817855    927.84871  0.017068593  0.015516016         2016 
 4531000   0.53160307   -7.3737578    926.18818  0.017034286  0.015510675         2064 
 4532000   0.51404524   -7.3862531    927.42576  0.017053283  0.015505346         1956 
 4533000   0.52399034   -7.3895301    926.72733  0.017036682  0.015500007         1950 
 4534000   0.53267394   -7.3674418    929.26772  0.017079615  0.015494676         1977 
 4535000   0.52171894   -7.3833144    927.11751  0.017036338  0.015489349         2054 
 4536000   0.51626446   -7.3835478    927.83862   0.01704583  0.015484021         2009 
 4537000   0.51475727   -7.3672278    929.62628  0.017074908    0.0154787         1990 
 4538000   0.52623209   -7.3696777    926.77369  0.017018762  0.015473378         2051 
 4539000   0.52738093   -7.3863759    926.86397   0.01701667   0.01546806         2052 
 4540000   0.54542563   -7.3807133    925.63289  0.016990325  0.015462741         1975 
 4541000   0.51748981   -7.3782914    927.60176  0.017022715  0.015457423         1980 
 4542000   0.52554017    -7.364206    927.27791  0.017013025  0.015452118         1970 
 4543000   0.51768233   -7.3830204    928.17535  0.017025742   0.01544681         1974 
 4544000   0.52362991   -7.3684673    928.19413  0.017022339  0.015441508         2046 
 4545000   0.52176125   -7.3795939    927.34634   0.01700305  0.015436205         2047 
 4546000   0.52538152   -7.3714241    930.44693  0.017056147  0.015430902         2040 
 4547000   0.52063887   -7.3559252    928.14078  0.017010131  0.015425607         1972 
 4548000    0.5306805   -7.3797835    926.55239  0.016977287  0.015420312         1961 
 4549000   0.53275184    -7.369915    928.54347  0.017010029  0.015415019         1983 
 4550000   0.51243562   -7.3677121    929.24082  0.017019063  0.015409731         1994 
 4551000   0.51055621   -7.3871439    927.35963  0.016980877  0.015404438         2029 
 4552000   0.53468801    -7.389879    927.31749  0.016976375  0.015399147         2101 
 4553000   0.52577592   -7.3713563    927.72394  0.016980085  0.015393858         1980 
 4554000   0.52559392   -7.3772649    927.97224    0.0169809  0.015388568         2004 
 4555000   0.52773557   -7.3661191    926.27002   0.01694603  0.015383284         1982 
 4556000   0.51675816   -7.3718436    928.80436  0.016988666  0.015378007         2021 
 4557000   0.53072098   -7.3728893    927.81824  0.016966905  0.015372733         2003 
 4558000    0.5384276   -7.3763411     927.9472   0.01696554  0.015367463         1988 
 4559000   0.52084317   -7.3777039    925.84586  0.016923409  0.015362192         2085 
 4560000   0.53790826   -7.3702873    929.17338  0.016980508  0.015356923         2015 
 4561000   0.51707723   -7.3964975     926.9726  0.016936574  0.015351654         2025 
 4562000    0.5164093   -7.3689628    925.51005  0.016906146  0.015346383         1991 
 4563000   0.52316855   -7.3836542    926.76359  0.016925334  0.015341117         2031 
 4564000   0.53004533   -7.3829515    928.78222  0.016958483  0.015335849         2057 
 4565000   0.51137676   -7.3704271    928.76847  0.016954518   0.01533059         2055 
 4566000   0.52930963    -7.370848    926.14596  0.016902941  0.015325334         2035 
 4567000   0.51173872   -7.3784579    926.25359  0.016901204  0.015320074         2106 
 4568000   0.52357084   -7.3711612    926.83532  0.016908117  0.015314819         2097 
 4569000    0.5125788   -7.3919383    927.96201  0.016924966  0.015309561         2030 
 4570000   0.51633015   -7.3573315    928.26347  0.016926759  0.015304315         2020 
 4571000   0.52333347    -7.377543    927.31524  0.016905769  0.015299066         2107 
 4572000   0.51969435    -7.374999    926.89044  0.016894329  0.015293815         2051 
 4573000   0.51846706   -7.3886037    927.18702  0.016896039  0.015288569         2077 
 4574000   0.52459241   -7.3792777     926.4518   0.01687895  0.015283325         2062 
 4575000   0.51921178   -7.3592574    927.64762  0.016897042  0.015278082         2069 
 4576000   0.51255888   -7.3966362    926.88109  0.016879391  0.015272844         2100 
 4577000   0.51193718   -7.4001847    927.30685  0.016883454  0.015267605         2043 
 4578000   0.50163407   -7.3914979    927.07744  0.016875591  0.015262366         2010 
 4579000   0.50913717   -7.3663146    926.63385  0.016863832  0.015257135         1983 
 4580000    0.5208619   -7.3784848     927.7012  0.016879571    0.0152519         2096 
 4581000   0.51371239   -7.3827466    928.34162  0.016887536   0.01524667         2016 
 4582000    0.5222476    -7.393273    926.65953  0.016853258  0.015241447         2155 
 4583000   0.51793553   -7.4021564    927.70742  0.016868634   0.01523622         2088 
 4584000   0.51612797    -7.386281     926.5896  0.016844634  0.015230996         2114 
 4585000   0.51496358   -7.3780531    924.52203  0.016803381   0.01522578         2099 
 4586000   0.51303965   -7.3765843    927.82383  0.016859715  0.015220562         1991 
 4587000   0.51060176    -7.397484    926.72293  0.016836039  0.015215342         2129 
 4588000   0.51172984   -7.3871936    926.38298  0.016826195  0.015210126         2107 
 4589000    0.5190326   -7.3836104    926.80211  0.016830139  0.015204916         2137 
 4590000   0.51159582   -7.3951013    927.07336  0.016831397  0.015199705         2098 
 4591000   0.50884104    -7.395917    927.17504  0.016829577    0.0151945         2085 
 4592000   0.52334447   -7.3818764    926.29978  0.016810028  0.015189297         2138 
 4593000   0.51524938   -7.3746149    926.56988  0.016811269  0.015184089         2180 
 4594000   0.51483965   -7.3960795    927.48378  0.016824187   0.01517889         2141 
 4595000   0.51656496    -7.385355    925.42593  0.016783205  0.015173694         2137 
 4596000   0.51765302   -7.3990834    928.54243  0.016836061  0.015168506         2148 
 4597000   0.52019119   -7.3827698    927.65294  0.016816274  0.015163311         2104 
 4598000   0.52516567   -7.3920299    926.24208  0.016787047  0.015158122         2159 
 4599000   0.51800948   -7.4040395    926.32352  0.016784872  0.015152935         2127 
 4600000   0.52002399   -7.3899622    926.21821  0.016779315  0.015147746         2190 
 4601000   0.51078622   -7.3891485    925.09587  0.016755341  0.015142561         2073 
 4602000   0.51027783   -7.3964959    927.21955  0.016790156  0.015137379         2201 
 4603000   0.51642584   -7.3995591    926.23463  0.016768677  0.015132198         2137 
 4604000   0.52149666   -7.3804354    925.49745  0.016751691  0.015127018         2170 
 4605000   0.51551825    -7.386113    927.42319  0.016782903  0.015121839         2139 
 4606000   0.51372741   -7.3881232    926.89142  0.016769638  0.015116665         2186 
 4607000   0.53014488   -7.3919469    926.46398  0.016758266  0.015111496         2135 
 4608000   0.51547306   -7.3956971    928.08345  0.016783917  0.015106328         2155 
 4609000   0.50706161   -7.3954784    926.14417  0.016745212  0.015101157         2220 
 4610000   0.50453165   -7.4024131     927.3362  0.016763127  0.015095992         2200 
 4611000   0.51443714   -7.3900655    927.17633  0.016756602  0.015090831         2151 
 4612000   0.51449173   -7.3811684    926.73404  0.016744978  0.015085663         2193 
 4613000   0.52668966   -7.4011704    926.01473  0.016728353  0.015080504         2200 
 4614000   0.51180095   -7.3931252    927.74055  0.016755898  0.015075342         2119 
 4615000   0.51724114   -7.3975518    926.67038  0.016732943  0.015070192         2169 
 4616000    0.5049552   -7.4127321    926.06378  0.016718367  0.015065037         2167 
 4617000   0.51080358   -7.4020024    926.81664  0.016728334   0.01505988         2237 
 4618000   0.50461641   -7.3795436    927.69962  0.016740646  0.015054732         2192 
 4619000    0.5115241    -7.412219    925.97625  0.016705929  0.015049581         2115 
 4620000   0.51323268   -7.3982605    927.76554  0.016734588  0.015044434         2157 
 4621000    0.5171695   -7.4005896    925.64036  0.016692642  0.015039285         2086 
 4622000   0.51296166   -7.4160904    927.31402  0.016719206   0.01503414         2220 
 4623000   0.51291939   -7.3957879    926.57797  0.016702321  0.015028997         2144 
 4624000   0.52044962   -7.3934227    926.92762  0.016705011  0.015023859         2063 
 4625000   0.51046854   -7.3901857    926.49092   0.01669353  0.015018728         2164 
 4626000    0.5139901    -7.374533    926.41443  0.016688544    0.0150136         2168 
 4627000   0.50608415   -7.3887249    927.90239  0.016711735  0.015008469         2134 
 4628000    0.5042443   -7.3917288     927.2406  0.016696208  0.015003337         2099 
 4629000   0.49392524   -7.3922408     927.1267   0.01669055  0.014998208         2159 
 4630000   0.50227278   -7.3949286    925.53995  0.016658386  0.014993084         2180 
 4631000   0.51421808      -7.3989    927.52255  0.016690465  0.014987955         2234 
 4632000   0.51072327   -7.3998151    924.78364  0.016637587  0.014982832         2196 
 4633000   0.50672424   -7.4077632    927.46445  0.016682215  0.014977711         2197 
 4634000   0.50910115   -7.3987786    926.42424  0.016659909  0.014972589         2218 
 4635000   0.49867307    -7.416877    925.48608  0.016639448  0.014967475         2175 
 4636000   0.50512521   -7.3911556    925.06626  0.016628312  0.014962359         2187 
 4637000   0.50295958   -7.4028858    926.43907  0.016649397  0.014957249         2209 
 4638000   0.51565421   -7.3890173     928.0905   0.01667548  0.014952144         2139 
 4639000   0.52076984   -7.3899109    926.20353  0.016637988  0.014947042         2223 
 4640000   0.51782327   -7.4003072    926.92959  0.016647442  0.014941941         2254 
 4641000   0.50678436   -7.3833274    926.95986  0.016644399  0.014936841         2199 
 4642000   0.51034586    -7.395846    926.49987  0.016632555   0.01493174         2156 
 4643000   0.50508265   -7.4042265    926.35645  0.016626399  0.014926641         2136 
 4644000     0.508158   -7.4179423    926.54904  0.016626275  0.014921542         2162 
 4645000   0.50993514   -7.4026311    926.21237  0.016616655   0.01491645         2160 
 4646000   0.51009456   -7.3882534    926.40403  0.016616517  0.014911357         2158 
 4647000   0.50474545   -7.3978056    925.90914  0.016604066  0.014906269         2153 
 4648000   0.50481599   -7.3894797     926.4723  0.016610591  0.014901186         2113 
 4649000   0.50352563   -7.4026014    926.03512  0.016599181  0.014896096         2072 
 4650000   0.51551792   -7.4042814    926.53319  0.016604537  0.014891015         2096 
 4651000   0.49835452   -7.4050428    926.25062  0.016595904  0.014885939         2020 
 4652000   0.50437884   -7.4125711    924.52563  0.016561436  0.014880863         2146 
 4653000   0.51789875   -7.4009855    925.31948  0.016572095  0.014875785         2149 
 4654000   0.50137218   -7.3956068    927.96429  0.016615891  0.014870705         2118 
 4655000   0.49983554   -7.3918599    924.31857  0.016547056  0.014865635         2135 
 4656000   0.50670376   -7.4148058    926.28591  0.016578714  0.014860567         2158 
 4657000   0.52302848   -7.4073155     926.3498  0.016576297  0.014855505         2081 
 4658000   0.49552761   -7.3845096    926.34581  0.016572667  0.014850442         2115 
 4659000   0.51027718   -7.3979614    925.99424  0.016562822   0.01484538         2142 
 4660000   0.50222931    -7.388762    925.32458  0.016547292  0.014840322         2080 
 4661000   0.51433794   -7.4007466    926.50659  0.016564875  0.014835266         2121 
 4662000    0.4942591   -7.4118907    926.63322  0.016563585  0.014830213         2113 
 4663000   0.49911346   -7.4144938    925.06075  0.016531931  0.014825157         2240 
 4664000    0.5083552   -7.4072881    926.08421  0.016546673  0.014820104         2139 
 4665000   0.50023657   -7.3973124    926.40371  0.016548834  0.014815055         2148 
 4666000   0.51226858   -7.3918528    924.59138  0.016512919  0.014810003         2181 
 4667000   0.50775515   -7.4152441    925.86661  0.016532151  0.014804962         2250 
 4668000    0.5230529   -7.4044603    925.05188  0.016514065  0.014799914         2153 
 4669000   0.49448217   -7.4060611    925.78383  0.016523592  0.014794876         2194 
 4670000   0.51253452   -7.4200345     925.2452  0.016510442  0.014789837         2203 
 4671000   0.49620547   -7.4084386    925.13689  0.016504976  0.014784801         2149 
 4672000   0.50347197   -7.4076812    923.61728  0.016474338   0.01477976         2122 
 4673000   0.50488266   -7.4078928    925.67037  0.016507425  0.014774726         2144 
 4674000   0.50287613   -7.4083038    926.45017  0.016517797  0.014769694         2151 
 4675000   0.50299805   -7.4034315    926.61682  0.016517234  0.014764668         2186 
 4676000   0.48818338   -7.4138817    925.06039  0.016485964  0.014759639         2235 
 4677000   0.49456478   -7.4160277    927.49851   0.01652588  0.014754617         2207 
 4678000   0.50338907   -7.4094227    925.19196  0.016481259   0.01474959         2213 
 4679000   0.51354045   -7.4045749    925.82109  0.016488942  0.014744572         2239 
 4680000   0.51648728   -7.4066605    926.81502  0.016503116  0.014739549         2289 
 4681000   0.50216617   -7.4013465    926.70389  0.016497613  0.014734531         2189 
 4682000   0.49864498   -7.4017372    925.17545  0.016466885  0.014729517         2147 
 4683000    0.5045535   -7.4156732    924.97143  0.016459738  0.014724502         2222 
 4684000   0.50165249    -7.415203     926.1345  0.016476916  0.014719491         2167 
 4685000    0.4969357   -7.4070341    926.74693  0.016484293  0.014714482         2151 
 4686000   0.50632009    -7.407905    924.62915  0.016443113  0.014709478         2215 
 4687000   0.49730548   -7.4120348    924.87266  0.016443935  0.014704477         2307 
 4688000   0.50542428   -7.4042094    924.93554  0.016441545  0.014699473         2284 
 4689000   0.49941364   -7.4149897    924.93706  0.016438065  0.014694473         2228 
 4690000   0.50277573     -7.40964    925.76489   0.01644927  0.014689478         2149 
 4691000   0.50353991   -7.4130009    926.31362  0.016455511  0.014684478         2279 
 4692000   0.50230746   -7.4176208    925.32954  0.016434526   0.01467948         2233 
 4693000   0.49746534   -7.4033481    925.41717   0.01643258  0.014674483         2226 
 4694000   0.50571802   -7.4051438    925.62683  0.016432801  0.014669492         2156 
 4695000   0.51550207   -7.4167232    925.85959  0.016433433  0.014664503         2192 
 4696000   0.50152312   -7.4204829    924.91453  0.016413162  0.014659513         2181 
 4697000   0.49135447   -7.4182989    925.48041  0.016419708  0.014654524         2261 
 4698000   0.48706363    -7.418194    926.05188  0.016426349  0.014649539         2166 
 4699000   0.49883936    -7.414872    924.36463  0.016392932  0.014644554         2263 
 4700000    0.4934146   -7.4180725    924.24627  0.016387345  0.014639569         2213 
 4701000   0.48832587   -7.4098984    924.01533  0.016379765  0.014634591         2224 
 4702000   0.49817997   -7.4155742    925.97997  0.016411101  0.014629613         2180 
 4703000   0.50138451   -7.4166544    925.25202  0.016394713  0.014624638         2200 
 4704000    0.5147074   -7.4181372    925.64416  0.016398175  0.014619667         2193 
 4705000   0.48654321   -7.4142035    925.12908  0.016385566  0.014614696         2187 
 4706000   0.49112322   -7.4197034    926.53395  0.016406962  0.014609733         2188 
 4707000   0.51188055   -7.4227102    925.44577  0.016384211  0.014604769         2178 
 4708000   0.49207539    -7.426908    924.84119   0.01637003  0.014599812         2193 
 4709000   0.49829355   -7.4122066    926.47057  0.016395388  0.014594854         2187 
 4710000   0.49286241   -7.4083301    924.89392  0.016364011  0.014589901         2248 
 4711000   0.49644474   -7.4226762    925.25835  0.016366984  0.014584949         2174 
 4712000   0.49226424   -7.4431538    925.46956  0.016367246  0.014579999         2188 
 4713000   0.49993567   -7.4060989    924.04387  0.016338565  0.014575046         2224 
 4714000   0.49351705   -7.4098847    925.56489  0.016361987  0.014570097         2177 
 4715000   0.50221795   -7.4069518    925.53275  0.016357949  0.014565151         2193 
 4716000   0.48216698   -7.4179386    925.46265  0.016353242  0.014560211         2123 
 4717000   0.49786671   -7.4235551     925.2252   0.01634558  0.014555272         2274 
 4718000   0.51684274   -7.4116653    924.79877  0.016334583  0.014550334         2206 
 4719000   0.49307497   -7.4297966    925.71435   0.01634729    0.0145454         2256 
 4720000   0.49420111    -7.403512    926.03276  0.016349448  0.014540468         2140 
 4721000   0.49635233   -7.4330164     924.8945  0.016325893  0.014535541         2139 
 4722000   0.49785988   -7.4226756    924.70085  0.016319018  0.014530616         2089 
 4723000   0.50007245    -7.436662    923.48488  0.016294108  0.014525695         2123 
 4724000   0.50110722   -7.4197827    926.59979  0.016345607  0.014520767         2179 
 4725000   0.49423874   -7.4267872    925.39115  0.016320832  0.014515837         2142 
 4726000   0.49676621   -7.4216477    925.97419  0.016327659  0.014510915         2152 
 4727000   0.50136294   -7.4167668    925.36032  0.016313383  0.014505994         2137 
 4728000   0.49882007   -7.4283257    926.59186  0.016331639  0.014501076         2202 
 4729000   0.49401627   -7.4132626    925.33077  0.016305963  0.014496158         2192 
 4730000   0.49961946   -7.4256123    923.37347  0.016268032   0.01449125         2170 
 4731000     0.499793    -7.414191    927.06497  0.016329616  0.014486335         2182 
 4732000   0.48479361   -7.4321809    923.21938  0.016258442  0.014481419         2188 
 4733000   0.49544377   -7.4057588    925.17208  0.016289388  0.014476508         2204 
 4734000   0.49685641   -7.4077638    924.21968  0.016269182    0.0144716         2222 
 4735000   0.48722359    -7.419704    925.15916   0.01628228  0.014466691         2176 
 4736000   0.50009155   -7.4302752    925.00966  0.016276212  0.014461783         2223 
 4737000   0.49892173   -7.4233323    925.18307  0.016275826  0.014456879         2165 
 4738000   0.48163565   -7.4208023     925.0733   0.01627046  0.014451975         2223 
 4739000   0.48983383   -7.4220717    923.38382  0.016237318  0.014447081         2190 
 4740000   0.49084813   -7.4195177    925.16572   0.01626522  0.014442187         2254 
 4741000   0.49614087   -7.4286203    925.30413  0.016264222  0.014437299         2223 
 4742000   0.49876425   -7.4326909     926.7996  0.016287073  0.014432402         2200 
 4743000   0.50205093    -7.412479    923.91213  0.016232907  0.014427511         2210 
 4744000   0.49889845   -7.4281007    925.72359  0.016261305  0.014422624         2197 
 4745000   0.48760162   -7.4349132     925.8718  0.016260481  0.014417736         2188 
 4746000   0.49021249   -7.4241044     924.9896  0.016241565  0.014412857         2201 
 4747000   0.48793088   -7.4365071    925.82339   0.01625278  0.014407972         2236 
 4748000   0.48616504   -7.4376051    924.96114  0.016234224  0.014403094         2231 
 4749000   0.48592128   -7.4411903    921.94221  0.016177831  0.014398215         2164 
 4750000    0.4896168   -7.4293062    925.82319  0.016242512  0.014393332         2156 
 4751000   0.50169895   -7.4479539    924.35687  0.016213374  0.014388459         2258 
 4752000    0.4912024   -7.4357105    923.06888  0.016187375  0.014383584         2251 
 4753000   0.49949854   -7.4379732    924.53684  0.016209707  0.014378713         2210 
 4754000   0.49286427   -7.4281397    925.08245  0.016215861  0.014373842         2207 
 4755000   0.50157445   -7.4329623     924.3034  0.016198798  0.014368974         2189 
 4756000   0.49371005    -7.423066    925.68373  0.016219578  0.014364107         2166 
 4757000   0.50547344   -7.4365956    923.45361  0.016177101  0.014359246         2266 
 4758000   0.49354596   -7.4347025    925.15219   0.01620345  0.014354384         2182 
 4759000    0.4814378   -7.4346518    924.13668  0.016182263  0.014349527         2171 
 4760000   0.49070474   -7.4275273     923.7022  0.016171257  0.014344672         2180 
 4761000   0.49771544   -7.4495855    925.81674  0.016204872  0.014339816         2158 
 4762000   0.48990034   -7.4231399    924.62686  0.016180646  0.014334957         2202 
 4763000   0.47541233   -7.4336174    924.45409  0.016174227  0.014330111         2193 
 4764000    0.4928853    -7.427185    925.27613  0.016185211  0.014325262         2243 
 4765000   0.48290302   -7.4304856    925.10728  0.016178861  0.014320417         2178 
 4766000    0.4934567   -7.4422872    924.00234  0.016156147  0.014315572         2163 
 4767000   0.48346026   -7.4398776     924.5308  0.016161996  0.014310728         2172 
 4768000   0.48094902   -7.4372881    924.53721  0.016158718  0.014305884         2124 
 4769000   0.48789581   -7.4342507    925.85512  0.016178359  0.014301049         2189 
 4770000   0.48312969   -7.4312366    925.44365  0.016167779  0.014296212         2177 
 4771000   0.49416769   -7.4286873    926.27632  0.016178934  0.014291382         2189 
 4772000   0.49495793   -7.4317035    923.32663  0.016124033  0.014286551         2178 
 4773000   0.48992677   -7.4266004    925.50013  0.016158603  0.014281724         2206 
 4774000   0.48918493   -7.4307873    923.57186  0.016121559  0.014276898         2211 
 4775000     0.480485   -7.4266188    924.33011  0.016131415  0.014272072         2115 
 4776000    0.4870945   -7.4443644    924.44403  0.016130026  0.014267248         2231 
 4777000   0.48868217   -7.4451065    923.46038   0.01610949  0.014262424         2213 
 4778000   0.49438182   -7.4336268    924.19449  0.016118922  0.014257605         2214 
 4779000   0.48159308   -7.4433285     924.1199  0.016114248  0.014252789         2215 
 4780000   0.47570642   -7.4411759    922.60026  0.016084384  0.014247969         2275 
 4781000   0.48169144   -7.4385432    922.98319  0.016087694  0.014243154         2203 
 4782000   0.49569474   -7.4392646    924.01374  0.016102289  0.014238337         2247 
 4783000   0.48077992   -7.4404949    925.61198  0.016126768  0.014233528         2203 
 4784000   0.48924449   -7.4459626    924.69079  0.016107351   0.01422872         2204 
 4785000   0.47708264    -7.408189    924.34342  0.016097935  0.014223916         2192 
 4786000   0.47984425   -7.4430704    923.74836   0.01608421  0.014219111         2289 
 4787000   0.48166171   -7.4411486    923.98899  0.016085039  0.014214314         2250 
 4788000   0.48430017   -7.4339863    924.29893  0.016087074  0.014209509         2222 
 4789000   0.47919881   -7.4322327    925.15833  0.016098669   0.01420471         2242 
 4790000   0.48088445   -7.4382439    922.88139  0.016055696  0.014199913         2200 
 4791000   0.48246821   -7.4529978    923.18563  0.016057636  0.014195118         2236 
 4792000   0.47926783   -7.4311251    923.83502  0.016065578  0.014190323         2180 
 4793000   0.48640984   -7.4418637     924.3297  0.016070827  0.014185536         2258 
 4794000   0.49600629   -7.4332152    923.58571  0.016054542  0.014180744         2241 
 4795000   0.47480208   -7.4366173    923.25683  0.016045478  0.014175953         2247 
 4796000   0.49017991   -7.4578197     925.2753  0.016077205  0.014171167         2201 
 4797000   0.48649825   -7.4385609    923.93431  0.016050558  0.014166385         2225 
 4798000   0.48470529   -7.4607182    923.33196  0.016036751  0.014161605         2267 
 4799000      0.48112   -7.4518172    925.84867  0.016077111  0.014156823         2207 
 4800000   0.48468214   -7.4483859    924.50619  0.016050455  0.014152046         2164 
 4801000   0.48852104   -7.4444895    923.32219   0.01602656  0.014147273         2237 
 4802000   0.48486423   -7.4298957    924.31361  0.016040428  0.014142501         2217 
 4803000    0.4784065   -7.4421167    924.83755  0.016046179  0.014137729         2207 
 4804000   0.47586018   -7.4430848    922.31744  0.015999123  0.014132958         2254 
 4805000   0.48359074   -7.4565066    923.20898  0.016011255  0.014128188         2252 
 4806000   0.48262489   -7.4687224    924.78345  0.016035224  0.014123422         2217 
 4807000    0.4828541   -7.4432789    923.78319  0.016014548  0.014118656         2303 
 4808000   0.48270208    -7.456066    924.19504  0.016018355  0.014113896         2282 
 4809000   0.48438249   -7.4365495     923.3077  0.015999648  0.014109128         2156 
 4810000   0.47703975   -7.4559942    923.23913  0.015995134  0.014104368         2240 
 4811000   0.48229673   -7.4395034    923.52145  0.015996699  0.014099608         2182 
 4812000    0.4828473   -7.4469549    923.75997  0.015997506  0.014094856         2169 
 4813000   0.48723479   -7.4513579    923.87105  0.015996105  0.014090104         2158 
 4814000   0.47706644   -7.4360748    925.07616  0.016013644  0.014085351         2179 
 4815000   0.47898801   -7.4540264    924.80307  0.016005591  0.014080605         2226 
 4816000   0.49214384   -7.4524392    924.85591  0.016003182  0.014075852         2192 
 4817000   0.47128521    -7.449937    924.38293  0.015991678  0.014071106         2199 
 4818000   0.48956799   -7.4526301     923.4315  0.015971902  0.014066367         2204 
 4819000   0.49376175   -7.4570578    924.97125  0.015995214  0.014061625         2211 
 4820000   0.48725174   -7.4428781    922.12011  0.015942602  0.014056883         2179 
 4821000   0.48154842    -7.457328    922.98294   0.01595421  0.014052147         2242 
 4822000   0.47301214   -7.4375187     922.2179   0.01593768  0.014047412         2174 
 4823000   0.47170559    -7.454423    924.41727  0.015972377  0.014042681         2258 
 4824000    0.4756128   -7.4282684    924.77799  0.015975297  0.014037953         2236 
 4825000   0.49011259   -7.4579532    923.11479  0.015943261  0.014033223         2170 
 4826000    0.4813771   -7.4733425    923.48442   0.01594634  0.014028493         2195 
 4827000   0.48767324   -7.4421476    924.40792  0.015958979  0.014023767         2180 
 4828000    0.4869768   -7.4430892    924.09522  0.015950276  0.014019045         2225 
 4829000   0.49004175   -7.4506439    923.35329   0.01593417   0.01401432         2219 
 4830000   0.48108693   -7.4631416    923.11883  0.015926826  0.014009605         2216 
 4831000   0.48757161   -7.4290015    926.21127  0.015976873  0.014004888         2249 
 4832000   0.47172515   -7.4469425    923.19259  0.015921506   0.01400017         2277 
 4833000   0.48018995   -7.4533471    922.44092  0.015905251  0.013995453         2234 
 4834000   0.47074468   -7.4385379    923.06826  0.015912775  0.013990742         2209 
 4835000   0.48296089   -7.4495283     923.3963  0.015915138  0.013986035         2191 
 4836000   0.47537806   -7.4503758    924.33559  0.015928033  0.013981328         2284 
 4837000   0.47232786   -7.4484603    923.61372  0.015912303  0.013976625         2218 
 4838000   0.48022661   -7.4691726    923.28353  0.015903327  0.013971919         2246 
 4839000   0.46161983   -7.4518996    922.72857  0.015890483  0.013967218         2176 
 4840000   0.47770156   -7.4441864    922.63151  0.015885529   0.01396252         2224 
 4841000   0.48080405   -7.4485361     924.3389  0.015911638  0.013957821         2238 
 4842000   0.47378149   -7.4611952    922.26508  0.015872661  0.013953124         2242 
 4843000   0.48129052   -7.4467539    922.78266  0.015878289  0.013948423         2224 
 4844000   0.47787159   -7.4620638    922.69143  0.015873442  0.013943729         2240 
 4845000   0.46288775   -7.4692911    924.28012  0.015897491  0.013939034         2240 
 4846000   0.47568117   -7.4569564    922.14146  0.015857433  0.013934342         2254 
 4847000   0.47179647   -7.4532876    923.09108  0.015870488   0.01392965         2278 
 4848000   0.47242441   -7.4694962    923.90259  0.015881164  0.013924956         2271 
 4849000   0.46175303   -7.4624249    922.56526  0.015854906  0.013920266         2197 
 4850000   0.48002948   -7.4575501    921.90306  0.015840259  0.013915582         2224 
 4851000   0.46219102   -7.4429302    923.27743  0.015860603  0.013910896         2226 
 4852000   0.46890973   -7.4673069    923.83512  0.015866913  0.013906218         2302 
 4853000   0.48996506   -7.4500913    921.52603  0.015823992  0.013901537         2237 
 4854000   0.48239161    -7.474576    923.61769  0.015856642  0.013896862         2251 
 4855000   0.48143712   -7.4721628    921.75159  0.015821345  0.013892187         2231 
 4856000   0.48235647   -7.4649174    923.04968  0.015840364  0.013887512         2307 
 4857000   0.47903708   -7.4733074    922.43109  0.015826489  0.013882842         2303 
 4858000   0.47696508   -7.4594359    923.26433  0.015837525  0.013878171         2228 
 4859000   0.48288575   -7.4668828    923.55681  0.015839281  0.013873502         2279 
 4860000   0.47130995   -7.4810324    921.88259  0.015807315  0.013868839         2270 
 4861000   0.47060573   -7.4536123    922.80664  0.015819904  0.013864173         2158 
 4862000   0.47078934   -7.4524033    922.94858  0.015819083  0.013859511         2232 
 4863000   0.48251913   -7.4558987    923.90399  0.015832202  0.013854848         2195 
 4864000   0.46318319   -7.4618431    923.98334  0.015830307  0.013850187         2253 
 4865000   0.46982393   -7.4586729    922.75702  0.015806047  0.013845531         2289 
 4866000   0.46408938   -7.4651307    922.43324  0.015797254  0.013840872         2221 
 4867000   0.48006598    -7.464151       922.91  0.015802171  0.013836221         2263 
 4868000    0.4666535   -7.4654742    922.51315  0.015792131  0.013831569         2195 
 4869000   0.47675822   -7.4746072    922.35525  0.015786185  0.013826918         2225 
 4870000   0.48337116   -7.4768113     921.8149  0.015773698   0.01382227         2253 
 4871000    0.4780544   -7.4631375    924.75997  0.015820844  0.013817633         2213 
 4872000   0.47731741   -7.4606939    923.85803  0.015802169  0.013812988         2215 
 4873000   0.46051805   -7.4696361    921.38444  0.015756626  0.013808347         2239 
 4874000   0.47793975    -7.469036    922.79619   0.01577753  0.013803708         2216 
 4875000   0.47376675   -7.4771371    921.48429  0.015751868  0.013799068         2229 
 4876000   0.46906839   -7.4811406    924.43037  0.015798988  0.013794434         2202 
 4877000   0.47334994   -7.4677904     923.2628  0.015775798  0.013789802         2179 
 4878000   0.46599941   -7.4791066    923.62229  0.015778705  0.013785168         2223 
 4879000   0.48040371   -7.4570528     922.2052  0.015751267  0.013780535         2239 
 4880000   0.46764201   -7.4672909    923.27859  0.015766369  0.013775907         2226 
 4881000   0.46375953    -7.450403    920.92739  0.015722997  0.013771285         2209 
 4882000   0.47220822   -7.4615778    921.84147  0.015735379  0.013766661         2293 
 4883000   0.46453729    -7.463288    922.21866  0.015738594  0.013762045         2241 
 4884000   0.47198326   -7.4618254    923.38887  0.015755338  0.013757428         2217 
 4885000   0.46849594   -7.4804836    922.93274  0.015744332  0.013752811         2223 
 4886000   0.47909246   -7.4801524    921.27697   0.01571287  0.013748194         2206 
 4887000   0.46912689   -7.4534865    922.67303   0.01573346  0.013743581         2275 
 4888000   0.47900434   -7.4671434    921.72174  0.015714023  0.013738972         2188 
 4889000   0.47249865    -7.474876    921.84949  0.015712986  0.013734365         2235 
 4890000   0.47319179   -7.4810621    922.80191  0.015726004  0.013729758         2174 
 4891000   0.46697676   -7.4632565    922.57204  0.015718872   0.01372515         2263 
 4892000   0.46574426   -7.4768805    921.44009  0.015696376   0.01372055         2287 
 4893000   0.46451743   -7.4777382    923.51917  0.015728578   0.01371595         2273 
 4894000   0.46686879   -7.4805536    920.92983  0.015681274   0.01371135         2291 
 4895000   0.47461433    -7.473793    923.37382  0.015719677  0.013706751         2218 
 4896000   0.46815437   -7.4622123    922.82234   0.01570708  0.013702157         2275 
 4897000   0.47191215    -7.467647    923.15081  0.015709462  0.013697565         2213 
 4898000   0.46658083   -7.4767425    922.38204  0.015693175  0.013692973         2261 
 4899000   0.47083817   -7.4658326    923.53433  0.015709572  0.013688382         2154 
 4900000   0.47034964   -7.4711065    924.03448  0.015714872  0.013683796         2242 
 4901000   0.46739503   -7.4826285    921.30403  0.015665239  0.013679208         2243 
 4902000   0.46262697   -7.4703831    923.00622   0.01569098   0.01367462         2245 
 4903000   0.46187579   -7.4633076    920.75757  0.015649561  0.013670037         2320 
 4904000   0.46641587   -7.4695474      921.224  0.015654296  0.013665456         2268 
 4905000   0.45731848   -7.4911504    922.46299  0.015672154  0.013660872         2259 
 4906000    0.4676874   -7.4461397    923.27115  0.015682687  0.013656296         2242 
 4907000   0.46079032   -7.4754491    921.14922  0.015643455  0.013651722         2222 
 4908000   0.47272073   -7.4811961    922.24752  0.015658916  0.013647147         2228 
 4909000   0.46997408   -7.4761001    922.11411  0.015653461  0.013642574         2203 
 4910000   0.46450364   -7.4714866    922.99565  0.015665235  0.013638005         2260 
 4911000    0.4662992   -7.4746179    921.37941   0.01563462   0.01363344         2233 
 4912000   0.45853075   -7.4635077    922.23075   0.01564588  0.013628875         2217 
 4913000   0.46367342   -7.4766785    922.21305  0.015642395   0.01362431         2217 
 4914000   0.46395441   -7.4745385     923.8502  0.015666975  0.013619754         2266 
 4915000   0.45979597    -7.473135    922.00292  0.015632467  0.013615192         2349 
 4916000   0.46507263   -7.4676911    923.02151  0.015646554  0.013610633         2189 
 4917000   0.46326315   -7.4658603    922.09901  0.015627737  0.013606074         2182 
 4918000   0.45900321   -7.4770181     921.1088  0.015607781  0.013601522         2263 
 4919000   0.47237819   -7.4665448    921.91838  0.015618323  0.013596972         2213 
 4920000   0.46752563   -7.4823172    922.32103  0.015621969  0.013592419         2259 
 4921000   0.45593884   -7.4802723    922.98772  0.015630084  0.013587872         2229 
 4922000   0.46952359   -7.4506781    921.79341  0.015606688  0.013583326         2246 
 4923000   0.45831021     -7.47085    923.15745  0.015626607  0.013578784         2283 
 4924000   0.46183604   -7.4848531    921.58354  0.015596797  0.013574243         2326 
 4925000   0.46571196   -7.4909149    922.22085  0.015604414  0.013569702         2228 
 4926000   0.45739663   -7.4721123    922.17391  0.015600452  0.013565167         2324 
 4927000   0.46038512   -7.4905433    921.42678  0.015584649  0.013560633         2277 
 4928000   0.46805753   -7.4847141    921.28071  0.015579016  0.013556097         2260 
 4929000     0.466171   -7.4880524    922.94257  0.015603952  0.013551565         2279 
 4930000    0.4659779   -7.4822406    921.27044  0.015572523  0.013547032         2216 
 4931000   0.46912558    -7.480124     921.0913  0.015566337  0.013542503         2262 
 4932000   0.44601442   -7.4900294    921.48663  0.015569861  0.013537973         2291 
 4933000   0.47049641    -7.472832    922.77159  0.015588411  0.013533447         2295 
 4934000   0.46712169    -7.473716    921.88168  0.015570222  0.013528922         2198 
 4935000   0.47152874   -7.4912552    922.51894  0.015577827  0.013524395         2309 
 4936000   0.46102235   -7.4824902    922.03854  0.015566561  0.013519879         2296 
 4937000   0.46377684   -7.4823182    921.41569  0.015552895  0.013515361         2270 
 4938000   0.46300989   -7.4710763    923.01214  0.015576687  0.013510841         2259 
 4939000   0.47017668   -7.4874251    921.76975  0.015552571  0.013506325         2264 
 4940000   0.45693782   -7.4796967    922.05289  0.015554199  0.013501812         2313 
 4941000   0.46198134   -7.4764563    921.12365  0.015535378  0.013497301         2303 
 4942000    0.4681979   -7.4862086    920.94229  0.015529177  0.013492785         2315 
 4943000   0.46847824   -7.4693824    922.47872  0.015551937  0.013488284         2302 
 4944000   0.46007553   -7.4884029    919.25667  0.015494483   0.01348378         2266 
 4945000   0.45781539   -7.4792005    921.50426  0.015529226  0.013479272         2280 
 4946000   0.46312094   -7.4712216     921.4331  0.015524887  0.013474773         2290 
 4947000   0.45929909   -7.4900389    923.29341  0.015553086  0.013470272         2276 
 4948000   0.45956724   -7.4816605    922.15845  0.015530828  0.013465777         2229 
 4949000   0.47690376   -7.4750544    921.71881  0.015520287  0.013461281         2251 
 4950000   0.46211239   -7.4940979     921.0653   0.01550615  0.013456789         2154 
 4951000    0.4631595   -7.4872074    922.15104  0.015521293  0.013452299         2277 
 4952000   0.46120508   -7.4916325    921.80712  0.015512371  0.013447811         2272 
 4953000   0.45446433   -7.4788057    921.56474  0.015505161  0.013443327         2285 
 4954000   0.45205243   -7.4861627    921.66464  0.015503711   0.01343884         2272 
 4955000   0.45796064     -7.49243    922.01666  0.015506503  0.013434358         2321 
 4956000   0.46743789   -7.4808991    921.38048  0.015492677  0.013429873         2323 
 4957000   0.46191525   -7.4961326    922.24864  0.015504146  0.013425388         2298 
 4958000   0.47284575   -7.4804949    921.74364  0.015492531   0.01342091         2285 
 4959000   0.44987467   -7.4898137    922.29995  0.015498756  0.013416432         2299 
 4960000   0.46050842   -7.4790974    922.31985  0.015495965  0.013411957         2255 
 4961000   0.46203313   -7.4876992    918.93752  0.015436026  0.013407484         2317 
 4962000   0.46330775   -7.5016851    922.25853   0.01548869  0.013403011         2244 
 4963000   0.44775618   -7.4784474    921.00963  0.015464599  0.013398542         2247 
 4964000   0.46275738   -7.5003906    921.25042  0.015465525  0.013394069         2284 
 4965000    0.4536008   -7.5037537    921.47659  0.015466207  0.013389601         2268 
 4966000   0.47073974   -7.4896952    922.48545  0.015480022  0.013385137         2268 
 4967000   0.45314584    -7.479198    919.80207  0.015431885  0.013380675         2306 
 4968000    0.4543578   -7.4891902    921.01113  0.015449059  0.013376213         2274 
 4969000   0.45530305   -7.4820681    921.73165  0.015458034  0.013371756         2321 
 4970000   0.46547765   -7.4788663    920.37891  0.015432242  0.013367296         2296 
 4971000   0.45871191   -7.4853462    920.75974  0.015435522   0.01336284         2288 
 4972000    0.4484999   -7.4878704    922.48202  0.015461283  0.013358387         2308 
 4973000   0.46155984   -7.4853823    922.05475  0.015451015  0.013353937         2335 
 4974000   0.46008996   -7.4808833    920.86933  0.015428048  0.013349489         2327 
 4975000   0.44533764   -7.4849249    921.40899  0.015433986  0.013345035         2307 
 4976000   0.45391237   -7.4767732    921.89637  0.015439047  0.013340592         2302 
 4977000   0.45445288   -7.4870491    921.15212  0.015423483  0.013336145         2292 
 4978000   0.45951376   -7.4875198    920.98904  0.015417655  0.013331703         2215 
 4979000   0.44591637   -7.4958505    922.43764  0.015438804   0.01332726         2302 
 4980000   0.45904491   -7.5085095    919.86085  0.015392585   0.01332282         2205 
 4981000   0.44572137   -7.4904745    920.67709   0.01540315  0.013318381         2300 
 4982000   0.44926165    -7.502274    922.19445  0.015425439  0.013313942         2251 
 4983000   0.44882311   -7.4902145    920.66038  0.015396688  0.013309503         2248 
 4984000   0.45746639   -7.4962827    921.09518  0.015400869  0.013305073         2332 
 4985000   0.44879299   -7.4763142     920.9312  0.015395038   0.01330064         2296 
 4986000   0.45755615   -7.4726492    922.10531  0.015411574  0.013296211         2274 
 4987000   0.46030644   -7.4870047     920.7428  0.015385716  0.013291787         2248 
 4988000   0.45722066   -7.4993589      921.242  0.015390972  0.013287359         2281 
 4989000   0.45358396   -7.4997728    920.39158  0.015373682  0.013282934         2277 
 4990000   0.46477026   -7.4854458    920.78211  0.015377123  0.013278514         2253 
 4991000   0.44992201   -7.4899366     919.8289  0.015358126  0.013274097         2291 
 4992000   0.46121863   -7.4907342    921.08589  0.015376033  0.013269677         2239 
 4993000   0.45253945   -7.4940675    918.74675  0.015333913  0.013265261         2273 
 4994000   0.45182646   -7.5085009    921.11341  0.015370335  0.013260846         2287 
 4995000    0.4524366   -7.4872753    920.13817  0.015350987  0.013256433         2264 
 4996000   0.44756843   -7.4877458    920.25725  0.015349901  0.013252022         2281 
 4997000   0.45462921   -7.4839564    919.02949  0.015326354  0.013247612         2313 
 4998000   0.45352629   -7.4931837    921.98438  0.015372555  0.013243205         2249 
 4999000   0.44855861   -7.4933524    919.37589  0.015325997  0.013238802         2242 
 5000000   0.45529594    -7.485235    923.48579   0.01539143    0.0132344         2233 
 5001000   0.46352167   -7.4960509    920.27317  0.015334819  0.013230001         2286 
 5002000   0.45517618   -7.5024474    921.80233  0.015357229    0.0132256         2225 
 5003000   0.44873489   -7.4996249    920.52308  0.015332852  0.013221201         2250 
 5004000   0.45252735   -7.5051862    919.38218  0.015310788  0.013216807         2286 
 5005000   0.45092801   -7.4963147    920.37476  0.015324255  0.013212411         2269 
 5006000   0.45509755   -7.5048054    921.60435  0.015341662  0.013208019         2215 
 5007000   0.45574436   -7.5022785    918.67257  0.015289804  0.013203629         2255 
 5008000   0.45738051   -7.4980951    920.73511  0.015321071  0.013199241         2300 
 5009000    0.4526005   -7.5059957    919.85043  0.015303295  0.013194852         2232 
 5010000   0.43618897   -7.5142374    921.20464  0.015322765  0.013190459         2276 
 5011000   0.44565819   -7.5040308    919.81635   0.01529662  0.013186073         2284 
 5012000   0.44978403   -7.5062391    920.34126  0.015302296  0.013181692         2277 
Loop time of 13008.7 on 48 procs for 5000000 steps with 4000 atoms

Performance: 66417.229 tau/day, 384.359 timesteps/s
99.4% CPU use with 48 MPI tasks x no OpenMP threads

MPI task timing breakdown:
Section |  min time  |  avg time  |  max time  |%varavg| %total
---------------------------------------------------------------
Pair    | 962.94     | 1046.9     | 1120.9     | 131.4 |  8.05
Neigh   | 90.864     | 94.142     | 97.347     |  18.8 |  0.72
Comm    | 852.92     | 917.22     | 1002.5     | 136.1 |  7.05
Output  | 16.114     | 16.119     | 16.215     |   0.4 |  0.12
Modify  | 10775      | 10816      | 10844      |  17.6 | 83.14
Other   |            | 118.5      |            |       |  0.91

Nlocal:        83.3333 ave          89 max          78 min
Histogram: 6 5 3 4 7 3 8 4 4 4
Nghost:        2421.52 ave        2439 max        2404 min
Histogram: 1 3 3 7 11 5 7 9 1 1
Neighs:        16836.4 ave       19463 max       14544 min
Histogram: 6 3 6 3 6 11 4 2 6 1
FullNghs:      33671.5 ave       35992 max       31210 min
Histogram: 3 5 2 8 5 3 10 3 5 4

Total # of neighbors = 1616233
Ave neighs/atom = 404.05825
Neighbor list builds = 267377
Dangerous builds = 0

#clear
#
#next RN
#
#jump SELF
Total wall time: 3:36:52
