
units lj                  # Use reduced LJ style units
atom_style atomic         # Uncharged point particles
atom_modify map hash      # Needed for indexing of clusters etc
                          # Used to be able to find where atoms are in relation to each other.

lattice fcc 1.0 spacing 1 1 1
Lattice spacing in x,y,z = 1.5874011 1.5874011 1.5874011
region box block 0 10 0 10 0 10 units lattice
create_box 2 box
Created orthogonal box = (0.0000000 0.0000000 0.0000000) to (15.874011 15.874011 15.874011)
  3 by 4 by 4 MPI processor grid
create_atoms 1 box
Created 4000 atoms
  using lattice units in orthogonal box = (0.0000000 0.0000000 0.0000000) to (15.874011 15.874011 15.874011)
  create_atoms CPU = 0.027 seconds
set type 1 type/fraction 2 0.41 78393
Setting atom values ...
  1648 settings made for type/fraction
mass 1 1.0
mass 2 1.0
pair_style lj/cut  3.5
pair_modify tail  yes
pair_coeff 1  1  1.0  1.0   # Intearaction between 1 and 1 set with epsilon = 1 and sigma = 1
pair_coeff 1  2  1.5  0.8
pair_coeff 2  2  0.5  0.88

write_data data.0
System init for write_data ...
Neighbor list info ...
  update every 1 steps, delay 10 steps, check yes
  max neighbors/atom: 2000, page size: 100000
  master list distance cutoff = 3.8
  ghost atom cutoff = 3.8
  binsize = 1.9, bins = 9 9 9
  1 neighbor lists, perpetual/occasional/extra = 1 0 0
  (1) pair lj/cut, perpetual
      attributes: half, newton on
      pair build: half/bin/atomonly/newton
      stencil: half/bin/3d
      bin: standard
WARNING: Not all mixed pair coeffs generated from mixing. Use write_data with 'pair ij' option to store all pair coeffs. (../write_data.cpp:312)


#############################
#   M E L T   S Y S T E M   #
#############################

velocity all create 2.4 5300450 mom yes dist gaussian # Assign velocities
                                                    # Temperature 2.4, random number seed, zero linear momentum
                                                                                # Gaussian distribution

timestep 0.002   # simulation timestep
thermo 1000       # output thermodynamic data every 1000 steps bf 100

# Define a fix  in this case with index 1 applied to all
# particles in the simulation. This fix is for simulations
# in the anisotropic NPT ensemble. Note that we use the MTK
# correction.
fix 1 all npt temp 2.4 2.4 0.1 iso 5.68 5.68 0.5 mtk yes tchain 5 pchain 5 # Use NPT ensemble
                                                                         # Set temperature and pressure and damping
                                                                         # Numbers of thermostats in chain and in barostat
run 10000          # run for 10000 steps
Per MPI rank memory allocation (min/avg/max) = 3.642 | 3.644 | 3.648 Mbytes
Step Temp E_pair E_mol TotEng Press Volume 
       0          2.4   -5.8082674            0   -2.2091674   -4.1765581         4000 
    1000     2.404594   -4.9933556            0   -1.3873663    5.5745139    3888.8116 
    2000    2.3840126   -5.0199969            0    -1.444872    5.7549065    3861.3895 
    3000    2.3854476   -5.0581896            0   -1.4809128    5.6522112    3859.7623 
    4000     2.435051   -5.0482492            0   -1.3965859      5.62381    3867.1464 
    5000    2.3990705   -5.0162762            0   -1.4185701    5.3371354    3899.5424 
    6000    2.3595812    -5.020142            0    -1.481655    5.5793725    3871.1838 
    7000    2.4080626   -5.0702158            0    -1.459025     5.682633    3853.5393 
    8000    2.4164616   -4.9926562            0     -1.36887    5.7336774     3878.979 
    9000    2.4108364   -5.0830774            0   -1.4677269    5.3883635    3874.1557 
   10000    2.3538599   -4.9862046            0   -1.4562974     5.413895    3903.7834 
Loop time of 2.50998 on 48 procs for 10000 steps with 4000 atoms

Performance: 688451.026 tau/day, 3984.092 timesteps/s
99.6% CPU use with 48 MPI tasks x no OpenMP threads

MPI task timing breakdown:
Section |  min time  |  avg time  |  max time  |%varavg| %total
---------------------------------------------------------------
Pair    | 1.1134     | 1.1815     | 1.2678     |   3.1 | 47.07
Neigh   | 0.20876    | 0.21725    | 0.23406    |   1.0 |  8.66
Comm    | 0.75933    | 0.86375    | 0.94139    |   3.9 | 34.41
Output  | 0.0002373  | 0.00024152 | 0.00031896 |   0.0 |  0.01
Modify  | 0.20423    | 0.23227    | 0.26398    |   3.1 |  9.25
Other   |            | 0.01492    |            |       |  0.59

Nlocal:        83.3333 ave          94 max          73 min
Histogram: 2 1 3 7 12 10 8 3 1 1
Nghost:        1667.69 ave        1700 max        1636 min
Histogram: 1 1 4 13 7 10 2 5 4 1
Neighs:        9778.98 ave       11385 max        8078 min
Histogram: 2 0 5 5 8 10 14 2 0 2

Total # of neighbors = 469391
Ave neighs/atom = 117.34775
Neighbor list builds = 909
Dangerous builds = 221

# Equilibrate just above the melting temperature to avoid step fn in T

fix 1 all npt temp 1.25 1.25 0.1 iso 5.68 5.68 0.5 mtk yes tchain 5 pchain 5
run 2000
Per MPI rank memory allocation (min/avg/max) = 3.643 | 3.645 | 3.649 Mbytes
Step Temp E_pair E_mol TotEng Press Volume 
   10000    2.3538599   -4.9862046            0   -1.4562974     5.413895    3903.7834 
   11000    1.2461526   -7.0101231            0   -5.1413616    5.6965261    3074.0838 
   12000    1.2628071   -7.0886223            0   -5.1948852    5.5718885    3056.4588 
Loop time of 0.635374 on 48 procs for 2000 steps with 4000 atoms

Performance: 543931.662 tau/day, 3147.753 timesteps/s
99.5% CPU use with 48 MPI tasks x no OpenMP threads

MPI task timing breakdown:
Section |  min time  |  avg time  |  max time  |%varavg| %total
---------------------------------------------------------------
Pair    | 0.26489    | 0.29079    | 0.31243    |   2.1 | 45.77
Neigh   | 0.038987   | 0.041472   | 0.044014   |   0.6 |  6.53
Comm    | 0.20822    | 0.23453    | 0.26185    |   2.9 | 36.91
Output  | 5.1634e-05 | 5.2857e-05 | 6.7501e-05 |   0.0 |  0.01
Modify  | 0.046462   | 0.063897   | 0.072964   |   2.7 | 10.06
Other   |            | 0.004632   |            |       |  0.73

Nlocal:        83.3333 ave          94 max          76 min
Histogram: 1 5 9 9 6 11 5 1 0 1
Nghost:        1963.38 ave        1986 max        1949 min
Histogram: 4 10 7 5 7 8 2 2 2 1
Neighs:        12481.8 ave       14125 max       11092 min
Histogram: 4 3 8 6 4 10 7 2 3 1

Total # of neighbors = 599127
Ave neighs/atom = 149.78175
Neighbor list builds = 144
Dangerous builds = 11

#############################
# L I N E A R  Q U E N C H  #
#############################

# Define solid atoms. This closely follows ten Wolde  Ruiz-Montero and Frenkel  Faraday Discuss  1996  104  93-110
# Compute components of the per-atom q6 vector
compute q6 all orientorder/atom degrees 1 6 components 6 nnn NULL cutoff 1.3 # compute the Q6 parameter.
                                                                             # Use all neighbours within 1.3 unit cell.

# get number of connections
compute coord_number all coord/atom orientorder q6 0.5

# An atom is solid if it has 8 or more connections (of a possible 14)
variable is_solid atom c_coord_number>=8
group solid dynamic all var is_solid    # Must be dynamic to update
dynamic group solid defined

# do clustering
compute cluster solid cluster/atom 1.3 # Create a cluster where all atoms within are solid and max 1.3 units from another member

# define chunks one chunk per cluster
compute clus_chunks solid chunk/atom c_cluster nchunk every compress yes  # Says which atoms are in which chunk

# count the size of each chunk
compute size_chunks solid property/chunk clus_chunks count


# Find the maximum entry in the vector of chunk sizes
variable max_n equal max(c_size_chunks)


# Thermo style which includes this variable
# thermo_style custom step temp pe vol v_max_n

thermo ${N}  # Print the thermo information every 100 steps
thermo 1000  

# Reset the npt fix at a lower temperature (below freezing)
fix 1  all npt temp  ${temp} ${temp}  0.1  iso  5.68  5.68  0.5  mtk yes tchain  5  pchain  5
fix 1  all npt temp  0.45 ${temp}  0.1  iso  5.68  5.68  0.5  mtk yes tchain  5  pchain  5
fix 1  all npt temp  0.45 0.45  0.1  iso  5.68  5.68  0.5  mtk yes tchain  5  pchain  5

dump dmp2 all dcd ${N} traj.dcd
dump dmp2 all dcd 1000 traj.dcd


compute msd all msd com yes
variable twopoint equal c_msd[4]/6/(step*dt+1.0e-6)
fix 9 all vector 10 c_msd[4]
variable fit equal slope(f_9)/6/(10*dt)
thermo_style custom step temp pe c_msd[4] v_twopoint v_fit v_max_n

fix 1 all npt temp 1.25 ${temp} 0.1 iso 5.68 5.68 0.5 mtk yes tchain 5 pchain 5
fix 1 all npt temp 1.25 0.45 0.1 iso 5.68 5.68 0.5 mtk yes tchain 5 pchain 5
run 500000 # 5000000  # Run for this many steps
Neighbor list info ...
  update every 1 steps, delay 10 steps, check yes
  max neighbors/atom: 2000, page size: 100000
  master list distance cutoff = 3.8
  ghost atom cutoff = 3.8
  binsize = 1.9, bins = 8 8 8
  4 neighbor lists, perpetual/occasional/extra = 1 3 0
  (1) pair lj/cut, perpetual
      attributes: half, newton on
      pair build: half/bin/atomonly/newton
      stencil: half/bin/3d
      bin: standard
  (2) compute orientorder/atom, occasional
      attributes: full, newton on
      pair build: full/bin/atomonly
      stencil: full/bin/3d
      bin: standard
  (3) compute coord/atom, occasional
      attributes: full, newton on
      pair build: full/bin/atomonly
      stencil: full/bin/3d
      bin: standard
  (4) compute cluster/atom, occasional
      attributes: full, newton on
      pair build: full/bin/atomonly
      stencil: full/bin/3d
      bin: standard
Per MPI rank memory allocation (min/avg/max) = 9.827 | 9.832 | 9.837 Mbytes
Step Temp PotEng c_msd[4] v_twopoint v_fit v_max_n 
   12000    1.2628071   -7.0886223  1.81793e-30 1.2624513e-32 8.3333333e+20            2 
   13000    1.2491334   -7.1227713   0.47577192 0.0030498199   0.03911342            1 
   14000    1.2682282   -7.1550646   0.89019629 0.0052987872  0.036072891            1 
   15000    1.2592735   -7.1266948    1.2744586 0.0070803255  0.034288023            3 
   16000     1.253406   -7.0959248    1.6915397 0.0088101021  0.033686385            2 
   17000    1.2390625   -7.1414224    2.0980516  0.010284566  0.034057168            1 
   18000    1.2580111   -7.1662078    2.4597771  0.011387857  0.033877796            3 
   19000    1.2340854   -7.1506637    2.8413385  0.012462011  0.033576364            1 
   20000    1.2692325   -7.0742151    3.3092988  0.013788745  0.033469965            1 
   21000     1.231809    -7.133008    3.7442913  0.014858299  0.033728505            1 
   22000    1.2188479     -7.16524    4.1638707  0.015772237  0.034013121            1 
   23000    1.2423936   -7.1362291    4.5137177  0.016354049   0.03403802            1 
   24000     1.226211   -7.1589363    4.9387167  0.017148322  0.034044079            1 
   25000    1.2381253   -7.1398885    5.3270339  0.017756779  0.033994516            2 
   26000    1.2073746   -7.1754744    5.6139666  0.017993482  0.033766915            1 
   27000    1.2317875   -7.1624632    6.0468954  0.018663257  0.033558614            1 
   28000    1.2049717   -7.1765017    6.4332947   0.01914671  0.033414095            1 
   29000    1.2072887   -7.1342406    6.8300009  0.019626439  0.033287088            1 
   30000    1.2024462   -7.1637766    7.2074934  0.020020815  0.033138764            2 
   31000    1.2249839   -7.2244621     7.592199  0.020409137  0.033058132            1 
   32000    1.2038163   -7.1707907    7.9719669   0.02076033  0.032998149            1 
   33000    1.2363323   -7.1410551    8.3818538  0.021166297  0.032968224            1 
   34000    1.2017386   -7.2217574    8.8031617  0.021576376  0.032931839            2 
   35000     1.223497   -7.2056589    9.1739456  0.021842727  0.032893157            1 
   36000    1.2075187   -7.2140182    9.6194577  0.022267263  0.032906584            2 
   37000    1.2110898   -7.1520811    9.9469739  0.022403094  0.032878666            3 
   38000    1.2020933   -7.1756192    10.379345  0.022761722  0.032857724            2 
   39000    1.1742391   -7.2010567    10.701723  0.022866928  0.032831327            1 
   40000    1.1904385   -7.2204645    11.044625  0.023009635  0.032754105            2 
   41000    1.2025117   -7.2010106    11.385833  0.023141936  0.032661619            3 
   42000    1.2105385   -7.1804637    11.671752  0.023158239  0.032553264            1 
   43000    1.1926134    -7.263219    12.109329  0.023467692   0.03245511            2 
   44000    1.1888633   -7.2276428    12.507061  0.023687615  0.032407955            2 
   45000    1.2007588   -7.2346089    12.798161  0.023700297  0.032342263            1 
   46000    1.2064717   -7.2125393    13.113745  0.023756785  0.032260687            1 
   47000    1.1497669   -7.2219007    13.417675  0.023790203  0.032166384            3 
   48000    1.1775283   -7.2790245    13.799664  0.023957749  0.032069388            1 
   49000    1.1886742   -7.2504356    14.250853  0.024236144  0.031982512            1 
   50000    1.1653411   -7.2847068    14.593284  0.024322141  0.031924116            1 
   51000    1.1867788   -7.2220509    14.935209  0.024403936  0.031859133            1 
   52000    1.1876195    -7.292515    15.244678  0.024430574   0.03178789            3 
   53000    1.1567072   -7.2848682    15.678899  0.024652357  0.031724983            2 
   54000    1.1962555   -7.2606023    15.982454   0.02466428  0.031661566            3 
   55000    1.2247878   -7.2306323    16.283457  0.024671905  0.031582561            2 
   56000    1.1413532   -7.2524234    16.691079  0.024837916  0.031504844            1 
   57000    1.1783941   -7.2762153    17.057059   0.02493722  0.031441512            2 
   58000     1.172871   -7.3106266    17.320313  0.024885507  0.031377195            1 
   59000    1.1883415   -7.2927231    17.697569  0.024996566  0.031301595            2 
   60000     1.171411   -7.2183033    18.057011  0.025079181  0.031235043            2 
   61000    1.1521604   -7.2549676    18.414514   0.02515644  0.031173392            2 
   62000    1.1728079   -7.3123554    18.678175  0.025105073   0.03110521            2 
   63000     1.136428   -7.2920943    19.091026   0.02525268  0.031036302            1 
   64000    1.1717304   -7.3231407    19.417636   0.02528338  0.030972092            1 
   65000     1.179022   -7.3004429    19.714055  0.025274429  0.030900616            2 
   66000    1.1508129   -7.3003514    20.105237    0.0253854  0.030840769            1 
   67000    1.1519168   -7.2608706    20.351639  0.025312983  0.030783631            3 
   68000    1.1569944   -7.3496521    20.677773  0.025340408  0.030715832            2 
   69000    1.1664487   -7.3110573    20.969231  0.025325158  0.030651393            2 
   70000    1.1620409   -7.3168982    21.326359  0.025388523  0.030576192            1 
   71000    1.1705952   -7.2605799    21.605175  0.025358187  0.030504645            4 
   72000    1.1726811   -7.2915121    22.015809  0.025481261  0.030430072            2 
   73000    1.1482976   -7.3368291    22.324468  0.025484553  0.030373106            1 
   74000    1.1480498   -7.3384992    22.498751  0.025336431  0.030303962            2 
   75000    1.1364761   -7.3686521    22.885878  0.025428754   0.03023084            3 
   76000    1.1655703   -7.3670182    23.121578  0.025352607  0.030154084            1 
   77000    1.1392226   -7.3235124    23.310052  0.025227329  0.030069254            1 
   78000    1.1494456   -7.3680315     23.63476  0.025250812   0.02998552            1 
   79000    1.1603786   -7.4055617    23.937116  0.025250122  0.029895054            2 
   80000    1.1591036    -7.384552     24.26022  0.025271063  0.029806112            2 
   81000    1.1218216   -7.3694287    24.366262  0.025068171  0.029714849            4 
   82000     1.120403   -7.3664967    24.614956  0.025015199  0.029614698            2 
   83000    1.1540929   -7.3969066     24.83901  0.024938765  0.029509846            4 
   84000    1.1219568   -7.4208548    25.174802  0.024975002  0.029406576            2 
   85000    1.1400873   -7.3990801    25.453839  0.024954744     0.029305            3 
   86000    1.1131288   -7.3961424    25.891964  0.025089113  0.029208634            2 
   87000      1.15279   -7.4043247     26.20627  0.025101791  0.029122944            4 
   88000    1.1329086   -7.4029628    26.602752     0.025192  0.029052883            2 
   89000    1.1319035   -7.3962318    26.856355  0.025146399  0.028984693            1 
   90000    1.1070236   -7.4221029    27.036036  0.025033366  0.028908756            2 
   91000    1.1282751   -7.4561952    27.167427  0.024878596  0.028824339            3 
   92000    1.1494705   -7.3978475    27.536674  0.024942639  0.028739577            1 
   93000    1.1163802   -7.4266979    27.705665  0.024825865  0.028650977            2 
   94000    1.1148048   -7.4256866    27.925358  0.024756523  0.028558493            2 
   95000    1.1277714     -7.45793    28.089231  0.024639676  0.028464634            3 
   96000    1.1129147   -7.4420836    28.421993  0.024671869  0.028369996            2 
   97000    1.1029407   -7.4445327    28.706788  0.024662189  0.028276988            2 
   98000    1.1028802   -7.4312578    29.047326  0.024700107  0.028188935            2 
   99000    1.1225128   -7.4662287    29.334556  0.024692387  0.028102033            1 
  100000    1.1123422    -7.419673     29.55136  0.024626133  0.028016007            1 
  101000    1.0970877   -7.4000223    29.892609  0.024663869  0.027930655            2 
  102000    1.1040558   -7.4511786    29.996917  0.024507285  0.027846566            2 
  103000     1.094812   -7.4521928    30.111458  0.024362021  0.027756818            2 
  104000     1.101439   -7.4578386    30.408249  0.024365584  0.027662431            1 
  105000    1.1053271   -7.4727999    30.643904  0.024320558  0.027572936            1 
  106000    1.0707278   -7.4775457    30.879376  0.024276239  0.027482322            2 
  107000    1.1035079   -7.4626784    31.100969  0.024221938  0.027393272            2 
  108000    1.0824557   -7.4247705    31.371972  0.024206768  0.027305827            1 
  109000    1.0900023   -7.4662732    31.574823  0.024139773  0.027216402            2 
  110000    1.0972957   -7.4592326    31.739622  0.024045168  0.027124591            1 
  111000    1.0751791    -7.428353    32.195554  0.024170836  0.027035883            2 
  112000    1.1170623   -7.4880025    32.238102  0.023986683  0.026950918            1 
  113000    1.1066526   -7.5078364    32.549824  0.024004295  0.026864862            1 
  114000    1.0956434   -7.4642653    32.865633  0.024024586  0.026783331            1 
  115000    1.0742948   -7.5108513    33.166128  0.024033426  0.026704724            1 
  116000    1.0977224   -7.5200576    33.330702   0.02394447  0.026624387            5 
  117000    1.0656904   -7.5249995    33.597568  0.023929892  0.026547456            3 
  118000     1.080908   -7.5234432    33.875281  0.023923221  0.026471753            3 
  119000    1.1104826   -7.5192079    34.038152  0.023836241  0.026395347            2 
  120000    1.0629288   -7.5376551    34.247937  0.023783289  0.026318719            2 
  121000    1.0638936   -7.5167652    34.540085  0.023787937  0.026242644            1 
  122000    1.0813408   -7.4803928    34.884975  0.023828535  0.026168363            2 
  123000    1.0971569   -7.5438163    34.883707  0.023633948  0.026093594            1 
  124000    1.0897783    -7.538729    35.113679  0.023597903  0.026018294            5 
  125000    1.0686497    -7.542614    35.484024  0.023656016  0.025947914            3 
  126000    1.0547083   -7.5085607    35.764041  0.023653466  0.025876621            2 
  127000    1.0875374   -7.5925515    35.835872  0.023514352   0.02580504            1 
  128000    1.0685957   -7.5361084    35.955639  0.023408619  0.025731004            1 
  129000    1.0703366   -7.5493305    36.243889  0.023413365  0.025655537            1 
  130000    1.0638221    -7.555826    36.453005  0.023367311  0.025583011            3 
  131000    1.0417394   -7.6004703    36.583519  0.023271959  0.025508493            1 
  132000    1.0645287    -7.542621    36.936642  0.023318587  0.025433215            5 
  133000    1.0314915   -7.5961366    36.996721  0.023180903  0.025357717            4 
  134000    1.0495844    -7.579391    37.307071  0.023200914  0.025283748            2 
  135000    1.0594704   -7.5643892    37.396649  0.023084351  0.025211755            1 
  136000     1.067398   -7.5889698    37.684071   0.02309073  0.025138343            1 
  137000    1.0183702   -7.5659994    37.758599  0.022967518  0.025063401            1 
  138000    1.0702807     -7.61138    37.873128  0.022870246  0.024988023            6 
  139000    1.0610007   -7.5952724    38.046539  0.022809676  0.024912907            2 
  140000     1.026281   -7.5760639    38.594386  0.022972849  0.024838227            3 
  141000    1.0359773   -7.6284716    38.845387  0.022958267  0.024770655            2 
  142000    1.0482586   -7.6167999     39.06865  0.022927612  0.024704596            4 
  143000    1.0422864   -7.6079969    39.146439   0.02281261  0.024636958            2 
  144000    1.0520904   -7.6478521    39.153348  0.022658188  0.024568524            1 
  145000     1.037029   -7.6272483    39.415583  0.022652634  0.024498715            2 
  146000    1.0361052   -7.6637841     39.44539  0.022514492  0.024428761            3 
  147000    1.0222491   -7.6496679    39.655065  0.022480196  0.024355234            4 
  148000    1.0425358    -7.648982    39.784883  0.022401398  0.024281745            3 
  149000    1.0253471   -7.6441708    39.888878  0.022309216  0.024206448            4 
  150000    1.0198723   -7.6687606    40.153446   0.02230747  0.024132516            1 
  151000    1.0220468   -7.6635326    40.217214   0.02219493   0.02405658            1 
  152000    1.0299659    -7.639614    40.479438  0.022192674  0.023981899            2 
  153000    1.0287716   -7.6376918    40.571079  0.022097538  0.023906718            1 
  154000    1.0141776   -7.6459779    40.852051  0.022106088   0.02383284            1 
  155000    1.0101503   -7.6329125    41.051787  0.022070853  0.023760295            2 
  156000    1.0149982   -7.6578624    41.197016  0.022006953  0.023688828            3 
  157000    1.0255532   -7.6751163    41.299126   0.02192098  0.023615746            3 
  158000    1.0192496   -7.6623505    41.448127  0.021860826  0.023543238            4 
  159000    1.0066783   -7.7147621    41.660763  0.021834782  0.023471953            3 
  160000    1.0079444    -7.684113    41.844851  0.021794193  0.023400867            3 
  161000    1.0221878    -7.708621    41.849147  0.021661049  0.023328513            4 
  162000    1.0120325   -7.6657376    42.137289   0.02167556  0.023256604            2 
  163000   0.99918402   -7.6985128    42.179783  0.021564306   0.02318472            1 
  164000    1.0202573   -7.7156904    42.344239  0.021516382  0.023111962            3 
  165000   0.99437788   -7.7153734    42.513648   0.02147154  0.023038769            4 
  166000    1.0103509    -7.709475    42.671504  0.021421438  0.022966079            1 
  167000   0.99027332   -7.7249069    42.970547  0.021442389  0.022894774            3 
  168000     1.012667   -7.7171691    43.181729  0.021419509  0.022826637            1 
  169000    1.0055577   -7.7261516    43.401926  0.021401344  0.022759979            3 
  170000     1.001311    -7.690141    43.548543  0.021347325  0.022693028            3 
  171000   0.99147211   -7.7869099    43.562755  0.021229413  0.022625319            1 
  172000   0.99586517   -7.7680582    43.746778  0.021195144  0.022557628            3 
  173000    1.0055541    -7.703733    44.123821  0.021254249  0.022491646            3 
  174000   0.98457904   -7.7504537    44.265159  0.021199789  0.022425551            3 
  175000   0.98728015   -7.7585301    44.151993  0.021024759  0.022357988            2 
  176000    0.9794969   -7.7896998    44.251802  0.020952558  0.022288881            2 
  177000   0.99430949   -7.7843604    44.405895   0.02090673  0.022220542            3 
  178000   0.98067224   -7.7563787    44.639159  0.020898483  0.022152621            2 
  179000   0.99081661   -7.7569985     44.73932  0.020828361  0.022084523            5 
  180000   0.96852397   -7.7849633    44.909448  0.020791411  0.022018715            3 
  181000   0.96259168   -7.7516913    45.043337  0.020738185  0.021952282            3 
  182000   0.98459695   -7.7684387    45.171246  0.020682805  0.021886283            4 
  183000   0.99677932    -7.771175    45.355548   0.02065371  0.021821138            1 
  184000   0.96898002   -7.8122923    45.483275  0.020599309  0.021755504            2 
  185000   0.99520493   -7.7448915    45.692021  0.020581991  0.021689262            3 
  186000   0.99563256   -7.8015714    45.701768  0.020475703  0.021623165            2 
  187000   0.99139678   -7.7954711    45.764282  0.020394065  0.021556858            4 
  188000   0.95350417   -7.8139807    45.841125  0.020319648  0.021490269            2 
  189000   0.97318802   -7.8028407    46.113547  0.020332252  0.021424678            1 
  190000    0.9678618   -7.7940595    46.310308  0.020311539  0.021360778            2 
  191000   0.94144532   -7.8247467    46.434633  0.020259438  0.021297301            4 
  192000   0.93947666   -7.7920375    46.570785  0.020213014  0.021234019            3 
  193000   0.94713719    -7.813314    46.898997  0.020249999  0.021171136            4 
  194000   0.96286715   -7.7818907    46.952706  0.020168688  0.021109843            2 
  195000   0.95573563   -7.8481588    47.147044  0.020148309  0.021049376            2 
  196000   0.96056661   -7.8231886    47.245206  0.020087247  0.020988379            2 
  197000    0.9495206   -7.8431608    47.226327  0.019977296  0.020927404            8 
  198000   0.94214785   -7.8060358    47.527064  0.020002973  0.020865077            1 
  199000   0.95916286    -7.838486    47.402588   0.01985033  0.020803365            1 
  200000   0.96917936   -7.8577688    47.713504  0.019880626  0.020740922            2 
  201000   0.97599206   -7.8594666    47.696945  0.019774853   0.02067855            2 
  202000   0.94031567   -7.8673106    47.710018  0.019682351  0.020616844            5 
  203000    0.9502536   -7.8953997    47.948165  0.019683155  0.020554867            4 
  204000   0.93568844   -7.8418247    48.059078  0.019631976  0.020493497            3 
  205000   0.95254995   -7.8425508    48.285154  0.019628111  0.020432818            7 
  206000   0.97260331    -7.897072    48.207846  0.019501556  0.020371096            2 
  207000   0.93802926   -7.8666115    48.362232  0.019469498   0.02030964            1 
  208000   0.92550611   -7.8929071    48.491254  0.019427586  0.020248425            2 
  209000   0.95055602   -7.8826606    48.765839  0.019444114  0.020187131            2 
  210000   0.93794841   -7.8736611    48.807261   0.01936796  0.020127851            3 
  211000   0.93828445   -7.8856736    49.046314  0.019370582  0.020068267            1 
  212000   0.93039781    -7.890365    49.065221  0.019286644  0.020009356            2 
  213000   0.94551842   -7.8907187    49.291641   0.01928468    0.0199508            2 
  214000   0.92121952   -7.8871824    49.285867  0.019192316  0.019892315            3 
  215000   0.93804101   -7.9013332    49.548282  0.019204761  0.019833563            3 
  216000   0.91611606   -7.9530371    49.485068  0.019091462  0.019775985            3 
  217000   0.90913839    -7.941578    49.526658  0.019019454  0.019718119            2 
  218000   0.92216538   -7.9160218    49.790865  0.019033205   0.01966086            4 
  219000   0.91976051   -7.9211758    49.963205  0.019011874  0.019603671            2 
  220000   0.91156107   -7.9293898    50.232775  0.019027566  0.019546812            1 
  221000   0.91687281   -7.9252542    50.100615  0.018891635  0.019491107            2 
  222000   0.89020734   -7.9522776    50.396688  0.018917676  0.019435255            1 
  223000   0.91017721   -7.9158426     50.42159  0.018842149  0.019380588            5 
  224000   0.89243136   -7.9540427    50.493479  0.018784776  0.019325008            3 
  225000   0.90302388   -7.9403511    50.662108  0.018763744  0.019269555            2 
  226000    0.8860174   -7.9204478    50.701058   0.01869508  0.019214455            2 
  227000   0.90747076   -7.9654224    50.915227  0.018691346  0.019160328            4 
  228000   0.91714694   -7.9791504    50.993806  0.018638087  0.019106009            2 
  229000   0.90618172   -7.9539525    51.026991  0.018568774   0.01905164            2 
  230000   0.92397747   -8.0142385    51.102495  0.018515397  0.018997148            2 
  231000   0.91788029   -7.9806313     51.26363  0.018493373  0.018942907            4 
  232000   0.89070847   -8.0293673    51.607503  0.018537178  0.018890075            2 
  233000   0.88652201   -8.0040988    51.723192  0.018498996  0.018838361            2 
  234000   0.89131877   -7.9831721    51.735334  0.018424264  0.018787673            3 
  235000   0.87643705   -8.0482088    51.748606  0.018350569  0.018736274            1 
  236000   0.87101491   -8.0269953    51.875186  0.018317509  0.018683614            3 
  237000   0.90649289   -7.9931321    51.792716  0.018211222  0.018630372            2 
  238000   0.87119029   -8.0474607    51.738901  0.018115862  0.018576842            2 
  239000   0.88613206   -8.0056643     52.08483   0.01816068  0.018523578            3 
  240000   0.89647123   -8.0245751    52.042651  0.018070365   0.01847117            5 
  241000   0.89034423   -8.0289344    52.270198  0.018074066  0.018418854            1 
  242000   0.87553339   -7.9866587    52.384896  0.018038876  0.018366868            5 
  243000   0.86765973   -8.0426689     52.12864  0.017876763  0.018313507            3 
  244000   0.88061006    -8.006365    52.421071  0.017903371  0.018259655            3 
  245000   0.88600874   -8.0243566    52.405917  0.017825142  0.018205518            2 
  246000    0.8711892   -8.0326687    52.384995  0.017745595  0.018151655            4 
  247000   0.86270505   -8.0764461    52.434954  0.017690605  0.018097498            3 
  248000   0.87425775   -8.0868076    52.434328  0.017619062  0.018043079            4 
  249000   0.86627909   -8.0645395    52.714423  0.017642043   0.01798967            2 
  250000   0.86723778   -8.0562831    52.736974  0.017578991  0.017936082            4 
  251000   0.88894884   -8.0913354    52.733599  0.017507835  0.017882175            4 
  252000   0.87127758   -8.0278433    53.132302  0.017570206  0.017828895            3 
  253000    0.8558165   -8.0828283     53.00473  0.017458738  0.017775805            3 
  254000   0.87371986   -8.0735453    53.088065  0.017417344  0.017722595            3 
  255000    0.8508834   -8.1193786    52.956621  0.017306085  0.017669377            3 
  256000   0.85842536   -8.0995417     53.15879  0.017304294  0.017616036            5 
  257000   0.83877198    -8.124841     53.05699  0.017203952  0.017562287            2 
  258000   0.86425768   -8.0846384    53.286142  0.017211286  0.017508816            2 
  259000   0.85984016   -8.1463551    53.353143  0.017166391  0.017456005           10 
  260000   0.85664831    -8.107997    53.385252  0.017110658  0.017403534            2 
  261000   0.85479584   -8.1184908    53.580032   0.01710729  0.017350911            4 
  262000   0.84044618   -8.1167656    53.513513  0.017020837  0.017298732            2 
  263000   0.84389801   -8.0862578    53.641895  0.016996798  0.017246273            1 
  264000    0.8309925   -8.1312491    53.714499  0.016955334  0.017194051            2 
  265000   0.83417569   -8.1525373    53.611607  0.016858996  0.017141734            3 
  266000    0.8421573    -8.142391    53.864669  0.016874896   0.01708962            3 
  267000   0.83627169   -8.1441685    53.915358  0.016827515  0.017037283            1 
  268000   0.83359438   -8.1485351    53.990614  0.016788126  0.016985638            2 
  269000   0.84141219   -8.1713753    53.848902  0.016681816  0.016933816            3 
  270000    0.8308716    -8.165678      53.9453  0.016649784  0.016881935            2 
  271000   0.84995342   -8.1996712    53.752717  0.016529126   0.01682971            2 
  272000   0.83560674   -8.1564744    54.015934  0.016548999  0.016777371            1 
  273000   0.82501709   -8.1761204    53.928267   0.01646162  0.016724748            3 
  274000   0.81578126   -8.1388808    54.126342  0.016461783  0.016672253            2 
  275000   0.81549797   -8.1549705    54.228021  0.016432734  0.016620265            3 
  276000   0.83608563   -8.1532654    54.071748  0.016326011  0.016567961            4 
  277000   0.83845173   -8.1874865    54.145834   0.01628936  0.016515878            5 
  278000   0.82384929   -8.1749438    54.344842   0.01629042  0.016464119            1 
  279000   0.82446814   -8.1874989    54.314255  0.016222896  0.016412947            5 
  280000   0.81856438   -8.1865048     54.40446  0.016191803  0.016361551            4 
  281000   0.81772661    -8.193758    54.579656  0.016186138  0.016310278            5 
  282000   0.80423042   -8.2112693    54.619397  0.016140484   0.01625934            5 
  283000   0.83089391   -8.1885129    54.640516  0.016089669  0.016208485            3 
  284000   0.79958135    -8.217565    54.630854   0.01603018  0.016158083            2 
  285000    0.8145128   -8.2005905    54.734521  0.016004246  0.016107518            1 
  286000   0.81341401   -8.2354549    54.793027  0.015965334  0.016056869            3 
  287000   0.81241337   -8.2301622    54.863201  0.015930082  0.016007109            2 
  288000   0.82226464    -8.226544    54.846985  0.015870077  0.015956855            3 
  289000   0.80914198    -8.212153      54.9299  0.015839071  0.015906919            8 
  290000   0.81486327   -8.2324128    54.995001  0.015803161  0.015857498            4 
  291000   0.79415747   -8.2566942    54.988435  0.015746974  0.015808365            3 
  292000   0.81317204   -8.2325195    55.162613  0.015742755  0.015759199            4 
  293000    0.8048796    -8.238378    55.162258  0.015688924  0.015710337            2 
  294000    0.7904202   -8.2497114    55.196211  0.015645185  0.015661428            4 
  295000   0.78837395   -8.2563807    55.234454  0.015602953  0.015612709            3 
  296000   0.79528203   -8.2864426     55.35501  0.015584181  0.015563946            2 
  297000   0.80679394   -8.2895971    55.293951  0.015514577   0.01551527            2 
  298000   0.77697456   -8.2413622    55.329879  0.015472561  0.015467158            3 
  299000   0.79748623   -8.2665026    55.399623  0.015440252  0.015419394            4 
  300000   0.78933818   -8.2606747    55.525202  0.015423667  0.015371422            2 
  301000   0.80068476    -8.292115    55.295055  0.015308708  0.015323136            3 
  302000   0.76055867   -8.3178142    55.446371  0.015299771  0.015274864            8 
  303000   0.77650698   -8.3009475    55.501006  0.015264303  0.015226744            2 
  304000   0.77326052   -8.2862743    55.623912  0.015247783  0.015179377            4 
  305000   0.79428778     -8.29973     55.74039  0.015229615  0.015132239            3 
  306000   0.77782383   -8.3044487     55.51728  0.015119085  0.015084825            3 
  307000   0.77692927   -8.2946413    55.604048   0.01509339  0.015037143            4 
  308000   0.77260456   -8.3241909    55.700246  0.015070413  0.014989593            9 
  309000   0.77766463   -8.3215462    55.517816  0.014972442  0.014941854            3 
  310000   0.76879637   -8.3354255    55.713498  0.014976747  0.014894068            1 
  311000   0.75657108   -8.3105327    55.603121  0.014899014  0.014846386            3 
  312000   0.74974461   -8.3469788    55.558897  0.014839449  0.014798441            2 
  313000   0.75789021   -8.3164883    55.695436  0.014828391  0.014750742            1 
  314000   0.76909875   -8.3253144    55.742115  0.014793555  0.014703251            1 
  315000   0.76917438    -8.356164    55.558725  0.014698075  0.014655917            5 
  316000   0.77655563   -8.3456424     55.63883  0.014672687  0.014608534            4 
  317000   0.75772961   -8.3349929    55.955177  0.014709563   0.01456127            6 
  318000   0.76368029   -8.3427268    55.713166  0.014599886  0.014514078            1 
  319000   0.75382699   -8.3680213    55.611134  0.014527464  0.014466653            4 
  320000   0.76384285   -8.3438602    55.854329  0.014545398  0.014419583            1 
  321000   0.75639013   -8.3788604    55.662151  0.014450195  0.014372267            1 
  322000   0.74773192   -8.3771748    55.696407  0.014414184  0.014325079            1 
  323000   0.74734513   -8.3682387    55.719978  0.014375639  0.014277647            5 
  324000    0.7423945   -8.4263673    55.735702  0.014335314  0.014230513            3 
  325000   0.75199247   -8.4109808    55.799499  0.014307564  0.014183211            2 
  326000   0.75020194   -8.4192547    55.696068  0.014237236  0.014136336            1 
  327000   0.75399094   -8.3983907    55.818278  0.014224842  0.014089499            4 
  328000   0.74129818   -8.3708675    56.009557   0.01423007  0.014043231            4 
  329000   0.74021563   -8.4069577    55.913455  0.014162476  0.013997315            3 
  330000    0.7436555   -8.4233169    55.897847  0.014115618  0.013951394            4 
  331000   0.74476976   -8.4362412    55.975644  0.014092559  0.013905315            7 
  332000   0.72775729   -8.4140587    55.880052  0.014026118  0.013859147            5 
  333000   0.74495216   -8.4457436    55.944322  0.014000081  0.013813235            2 
  334000   0.72762956   -8.4839035    55.896407  0.013946209  0.013767525            1 
  335000   0.73440092   -8.4433407     55.99022  0.013927915  0.013722259            2 
  336000   0.72147514   -8.4561129    56.062183  0.013904311  0.013677117            7 
  337000   0.72248704   -8.4550032    56.224568  0.013903207  0.013632418            5 
  338000   0.70918938   -8.4599745    56.116328  0.013835386  0.013587988            7 
  339000   0.72241905   -8.4609304     56.18195  0.013810705  0.013543566            6 
  340000    0.7262761   -8.4852787    56.112247  0.013753002  0.013499203            4 
  341000   0.70425906   -8.4435328     56.20882  0.013736271  0.013454854            7 
  342000   0.72267828   -8.4722321    56.294787  0.013717053  0.013410813            2 
  343000   0.71106456   -8.4705505    56.232859  0.013662016  0.013367009            1 
  344000   0.70926154   -8.4696375    56.228685   0.01362129  0.013323113            3 
  345000   0.72193318   -8.4636457    56.232475  0.013582723  0.013279367            3 
  346000   0.70317834   -8.5208583    56.253804  0.013548604  0.013235505            4 
  347000   0.71924892   -8.5148541    56.099152  0.013472419  0.013191925            5 
  348000   0.71211412   -8.5201563    56.153235  0.013446656  0.013148187            5 
  349000    0.7052349   -8.5042169    56.204306  0.013420321   0.01310435            4 
  350000   0.72662725   -8.5248401    56.200448  0.013381059  0.013060775            7 
  351000   0.70952645   -8.5098633    56.160202  0.013333381  0.013017321            5 
  352000   0.70211773   -8.5308178    56.248718  0.013316458  0.012974354            5 
  353000   0.70694598   -8.5339581    56.192441  0.013265449  0.012931377            6 
  354000    0.6953432   -8.5570964    56.255684  0.013242863  0.012888343            3 
  355000   0.68285096    -8.508377    56.296998  0.013215258  0.012845344            4 
  356000   0.71082393   -8.5283953    56.204615  0.013156511  0.012802311            4 
  357000   0.70679115   -8.5536926    56.059024  0.013085673  0.012759381            6 
  358000   0.69447863   -8.5559671    56.144211   0.01306895  0.012716169            3 
  359000   0.71085217   -8.5314787     56.04922  0.013010497  0.012673225            7 
  360000   0.68249311   -8.5490065     56.19697  0.013008558  0.012630407            8 
  361000   0.70449308   -8.5308894    56.209513  0.012975419  0.012587869            9 
  362000   0.70015273   -8.5666497    56.241191  0.012946867  0.012545812            4 
  363000   0.67958133   -8.5506711    56.274708  0.012918895   0.01250373            8 
  364000    0.6897425   -8.5513619    56.213058   0.01286929  0.012461973            3 
  365000   0.68432123   -8.5476318    56.328832  0.012860464  0.012420046            2 
  366000   0.67396884   -8.5544731    56.273817    0.0128128  0.012378202            1 
  367000   0.69713429   -8.5795506    56.171222  0.012754592  0.012336499           11 
  368000   0.67061529   -8.5711097    56.260159  0.012740072  0.012294804            5 
  369000   0.68033628    -8.553002    56.322347  0.012719591  0.012253356            1 
  370000   0.68245563   -8.5692096    56.209296  0.012659751  0.012212155            4 
  371000   0.67195488   -8.5726824      56.1818  0.012619452  0.012171055            3 
  372000   0.67063635   -8.6028736    56.140456  0.012576267  0.012129749            7 
  373000     0.672093   -8.5782273    56.168208  0.012548751  0.012088416            5 
  374000    0.6621076   -8.5933903    56.207175   0.01252388  0.012047227            2 
  375000   0.66689048   -8.5980198    56.037533  0.012452785   0.01200616            2 
  376000   0.66494697   -8.5861684    56.188022  0.012453019  0.011965588            4 
  377000   0.67139915   -8.6007038    56.177942  0.012417759  0.011925184            5 
  378000   0.67194711   -8.5988052    56.256366  0.012402197  0.011884706            5 
  379000   0.65785002   -8.6110337     56.22243  0.012362012  0.011844434            4 
  380000   0.65364899   -8.6091825    56.241012  0.012333555  0.011804177            5 
  381000   0.66469856   -8.6223162    56.165372   0.01228464  0.011764111            3 
  382000   0.66444882   -8.6278784       56.156  0.012250436  0.011724143            5 
  383000   0.66420831    -8.608723     56.16893  0.012221264   0.01168426            2 
  384000   0.67582913   -8.6082984    56.194643  0.012195018  0.011644526            3 
  385000   0.66217879    -8.613998    56.158549   0.01215553  0.011604723            3 
  386000   0.64679697    -8.637182    56.118265  0.012115342  0.011565133            4 
  387000   0.64505434   -8.6339859    56.202131  0.012102095  0.011525819            4 
  388000   0.63815328   -8.6640065    56.166743  0.012063304  0.011486505            2 
  389000   0.63512518   -8.6526303    56.269181  0.012054238  0.011447415            6 
  390000   0.64175756   -8.6538503    56.181764   0.01200465  0.011408451            2 
  391000   0.63355236   -8.6421218    56.096552  0.011955787  0.011369653            4 
  392000   0.63926283   -8.6699221    56.009615  0.011906806  0.011330819            3 
  393000   0.63293631   -8.6398573    56.170071  0.011910532  0.011292213            3 
  394000   0.62731583   -8.6413272    56.122343  0.011870208  0.011253711            4 
  395000   0.65364485   -8.6443503    56.101347  0.011835727  0.011215324            2 
  396000   0.63313226   -8.6726452    56.099081  0.011805362   0.01117707            5 
  397000   0.63651092   -8.6656588     56.09014  0.011773749  0.011138974            5 
  398000   0.62982428   -8.6780655    56.061767  0.011738226  0.011100879            3 
  399000   0.62389306   -8.6589163    56.008122  0.011697603  0.011063003            2 
  400000   0.64076794   -8.6950662    55.991564  0.011664909  0.011025118            4 
  401000   0.63477524    -8.679093    56.081475  0.011654504  0.010987471            3 
  402000    0.6246747   -8.6672477    56.097456  0.011628826   0.01094986            2 
  403000   0.63167355   -8.6846243    56.083227  0.011597028  0.010912455            2 
  404000    0.6228165   -8.7058868     56.13219  0.011578422  0.010875253            4 
  405000   0.63097096   -8.6914108    56.025391  0.011527858  0.010838207            6 
  406000   0.60896825   -8.6976849    56.027553  0.011499908  0.010801152            4 
  407000   0.61429978   -8.6947112    56.004618  0.011466957  0.010764187            3 
  408000   0.62012592   -8.7223926    56.052294  0.011448589  0.010727295            3 
  409000   0.60372353   -8.7230547    55.958666  0.011401521  0.010690523            3 
  410000   0.60898243   -8.7301028    55.924223  0.011366712  0.010653774            2 
  411000   0.61559874   -8.7298603    56.080124  0.011370666  0.010617098            3 
  412000   0.60024218   -8.7390782    56.051371  0.011337251  0.010580622            3 
  413000   0.61706184   -8.7279084    55.990783  0.011297575  0.010544325            4 
  414000   0.60849863   -8.7528093    55.944781  0.011261027  0.010508151            4 
  415000   0.60598526   -8.7366588    55.830531   0.01121095  0.010472111            4 
  416000   0.60533251   -8.7410784    55.903838  0.011198686  0.010436297            3 
  417000   0.60643766   -8.7447425    55.850224  0.011161116  0.010400579            2 
  418000   0.59298528    -8.753112    55.947378  0.011153784  0.010364939            2 
  419000   0.60155752   -8.7499293    55.839936  0.011105795  0.010329456            6 
  420000   0.59859302   -8.7369323    55.846522  0.011080659  0.010294021            1 
  421000   0.60126858    -8.793889    55.844926  0.011054023  0.010258689            2 
  422000   0.59694178   -8.7387464      55.9602  0.011050592  0.010223579            3 
  423000   0.58418178   -8.7672726     55.89318  0.011011265  0.010188577            3 
  424000   0.59525542   -8.7720164    55.885553  0.010983796  0.010153652            3 
  425000   0.58898721   -8.7555148    55.886889  0.010958213   0.01011884            6 
  426000   0.58870512   -8.7700013    55.832213  0.010921794  0.010084119            3 
  427000   0.58066004   -8.7966836    55.777713   0.01088558  0.010049537            3 
  428000   0.58554544   -8.7824769    55.869021  0.010877925  0.010014992            3 
  429000   0.59234657   -8.7829152     55.84339  0.010847589 0.0099806088            3 
  430000   0.56721165    -8.794909    55.745101  0.010803314 0.0099462965            2 
  431000   0.58358181   -8.8128623    55.836481  0.010795917 0.0099122218            3 
  432000   0.57059667   -8.8122434    55.784211  0.010760843 0.0098782371            5 
  433000   0.57672419   -8.8117966     55.80095  0.010739213 0.0098445577            6 
  434000   0.57576924   -8.7931957    55.839875  0.010721942  0.009810895            6 
  435000   0.56263182    -8.814414    55.752015  0.010680463 0.0097773567            7 
  436000   0.56900691   -8.8079335    55.786188  0.010662498 0.0097439117            5 
  437000   0.57224411   -8.8117259    55.789181  0.010638669 0.0097106309            5 
  438000    0.5626854   -8.8198308    55.713399  0.010599962 0.0096774796            2 
  439000   0.57151824   -8.8177059    55.801668  0.010592572 0.0096444271            2 
  440000   0.56088558   -8.8243483     55.76326  0.010561223 0.0096115424            4 
  441000   0.57456054   -8.8303518    55.703149  0.010525916 0.0095787013            4 
  442000   0.57328846   -8.8336812     55.79512  0.010519442 0.0095460439            3 
  443000   0.57677796   -8.8375849    55.657597  0.010469826 0.0095135287            2 
  444000   0.56010897   -8.8091261    55.778734  0.010468982 0.0094812469            3 
  445000   0.55511458   -8.8491246    55.665215  0.010424198 0.0094489564            3 
  446000   0.54381312   -8.8266826    55.796538  0.010425362 0.0094168136            4 
  447000   0.55262049   -8.8417935    55.658367   0.01037628 0.0093848614            1 
  448000   0.55527996   -8.8464234    55.805628  0.010380511 0.0093529726            2 
  449000   0.54048313    -8.861164    55.670613  0.010332334 0.0093212654            3 
  450000   0.54386109   -8.8425187    55.701454  0.010315084  0.009289622            3 
  451000   0.54030212   -8.8489147    55.615273  0.010276288 0.0092581174            3 
  452000    0.5359969   -8.8745035    55.684095  0.010266242 0.0092267067            3 
  453000   0.54464927   -8.8722486    55.532215  0.010215639 0.0091954547            4 
  454000   0.54266758   -8.8537085     55.62814  0.010210745 0.0091643466            3 
  455000   0.54963069   -8.8884078     55.64693  0.010191745 0.0091333335            1 
  456000   0.53587041   -8.8690739    55.653946  0.010170677 0.0091025045            2 
  457000   0.53666344   -8.8740334    55.554417  0.010130273 0.0090717524            1 
  458000   0.53513491   -8.8917553    55.665502  0.010128366 0.0090410941            3 
  459000   0.54056887   -8.8696096    55.664219  0.010106067  0.009010577            1 
  460000   0.53618338   -8.8763461    55.566497  0.010066394 0.0089801583            2 
  461000   0.52327722   -8.8901665    55.571204  0.010045409 0.0089498738            2 
  462000   0.52850201   -8.9011815    55.540323  0.010018096 0.0089197152            4 
  463000   0.53748668   -8.8774068    55.537608 0.0099959698 0.0088896231            3 
  464000   0.54125083   -8.9023924    55.574974 0.0099811376 0.0088596308            1 
  465000   0.51919627   -8.9070519    55.476977 0.0099421106 0.0088297486            2 
  466000   0.53081173   -8.8978398     55.56433 0.0099363967 0.0088000583            3 
  467000   0.53146964   -8.9033813    55.501564 0.0099039194 0.0087704504            2 
  468000   0.51648114   -8.9127472    55.523676 0.0098866944 0.0087409741            7 
  469000   0.51695581    -8.903212    55.524609 0.0098657799 0.0087116341            2 
  470000   0.51118952   -8.9060882     55.60479 0.0098590053 0.0086824722            4 
  471000     0.519943   -8.9098898    55.564805 0.0098309988 0.0086533873            3 
  472000   0.51613356   -8.8890923     55.48262 0.0097956603 0.0086243485            2 
  473000   0.50485526   -8.9203802    55.548656 0.0097865849 0.0085955443            2 
  474000   0.51154928   -8.8999809    55.448694 0.0097483639 0.0085668098            2 
  475000   0.52493897   -8.9220027     55.56261 0.0097478263   0.00853824            8 
  476000   0.51725749   -8.9225475    55.476735 0.0097123135 0.0085097226            2 
  477000   0.50807397   -8.9217199     55.54247 0.0097034364  0.008481339            3 
  478000   0.48943533   -8.9243049     55.49371 0.0096746356 0.0084530797            2 
  479000   0.50662271   -8.9394243    55.514806 0.0096581082 0.0084249495            3 
  480000   0.50318217    -8.912294    55.444777 0.0096258294 0.0083968995            5 
  481000   0.50410958   -8.9288387    55.523371 0.0096194337 0.0083690441            2 
  482000    0.4902823   -8.9354853    55.500851 0.0095955828 0.0083413028            2 
  483000   0.49482526   -8.9359111    55.464894 0.0095695124 0.0083136489            1 
  484000   0.50156328   -8.9422513    55.509892 0.0095574883 0.0082861078            3 
  485000   0.48369296   -8.9259427    55.409524 0.0095205367 0.0082586684            1 
  486000   0.49156815   -8.9384334    55.464474 0.0095103694  0.008231353            2 
  487000   0.48545105   -8.9465886    55.427657 0.0094845408 0.0082041727            2 
  488000   0.48481382   -8.9544737    55.508196 0.0094788587 0.0081771255            2 
  489000    0.4901059   -8.9620248    55.462954 0.0094517645 0.0081501318            3 
  490000   0.48670409   -8.9648657    55.472075 0.0094340264 0.0081232427            2 
  491000   0.48550808   -8.9587942     55.40938 0.0094041717  0.008096482            4 
  492000   0.48258385    -8.952927    55.482521  0.009397446 0.0080698094            3 
  493000   0.47499747    -8.953307    55.415464 0.0093670493 0.0080432945            4 
  494000   0.47700958   -8.9634282    55.404483 0.0093462353 0.0080168485            2 
  495000   0.47541505   -8.9540406    55.472368 0.0093387825 0.0079905169            4 
  496000   0.47159418   -8.9761258    55.417838 0.0093107927 0.0079642958            2 
  497000    0.4735128   -8.9724827    55.361562 0.0092826227 0.0079382483            4 
  498000   0.47768354   -8.9815964    55.459527 0.0092803759 0.0079122265            2 
  499000     0.472942   -8.9666706    55.447243 0.0092597267 0.0078863447            4 
  500000   0.46761461   -8.9742896    55.309017 0.0092181696 0.0078605373            3 
  501000    0.4572487   -8.9785349    55.330886 0.0092034074 0.0078348315            2 
  502000   0.46941651   -8.9861728     55.38394 0.0091938812 0.0078092476            1 
  503000     0.470246   -9.0086328    55.352451 0.0091703862 0.0077837299            3 
  504000   0.47041083   -8.9901382    55.308336 0.0091448969 0.0077583622            2 
  505000   0.46811414   -8.9970393    55.357757 0.0091349434 0.0077330727            4 
  506000   0.46107941   -8.9973087     55.26944 0.0091023451 0.0077078794            2 
  507000   0.45595442   -9.0035374    55.284707 0.0090869012 0.0076827727            4 
  508000   0.45448816    -8.992373    55.282208 0.0090686036  0.007657809            3 
  509000   0.45436404   -9.0197315    55.422246 0.0090737141 0.0076329625            1 
  510000   0.45109801   -9.0107441     55.29597 0.0090352891 0.0076082016            5 
  511000   0.44603914   -8.9907218      55.2976 0.0090178735 0.0075835364            2 
  512000    0.4460208    -9.008322    55.333748 0.0090061439 0.0075589848            2 
Loop time of 1268.16 on 48 procs for 500000 steps with 4000 atoms

Performance: 68130.211 tau/day, 394.272 timesteps/s
99.4% CPU use with 48 MPI tasks x no OpenMP threads

MPI task timing breakdown:
Section |  min time  |  avg time  |  max time  |%varavg| %total
---------------------------------------------------------------
Pair    | 83.008     | 88.249     | 95.906     |  29.7 |  6.96
Neigh   | 8.2546     | 8.6763     | 9.1844     |   6.3 |  0.68
Comm    | 77.281     | 85.772     | 93.421     |  43.1 |  6.76
Output  | 0.90003    | 0.90092    | 0.92768    |   0.4 |  0.07
Modify  | 1066.3     | 1071.6     | 1076.2     |   8.4 | 84.50
Other   |            | 12.94      |            |       |  1.02

Nlocal:        83.3333 ave          89 max          76 min
Histogram: 2 0 0 8 5 10 13 4 3 3
Nghost:        2204.31 ave        2222 max        2189 min
Histogram: 4 4 2 9 5 11 6 3 1 3
Neighs:        14666.9 ave       16136 max       12603 min
Histogram: 1 0 4 2 4 15 11 7 1 3
FullNghs:      29333.1 ave       31434 max       26755 min
Histogram: 2 0 3 6 7 12 5 7 4 2

Total # of neighbors = 1407990
Ave neighs/atom = 351.99750
Neighbor list builds = 26675
Dangerous builds = 0

#clear
#
#next RN
#
#jump SELF
Total wall time: 0:21:11
