
units lj                  # Use reduced LJ style units
atom_style atomic         # Uncharged point particles
atom_modify map hash      # Needed for indexing of clusters etc
                          # Used to be able to find where atoms are in relation to each other.

lattice fcc 1.0 spacing 1 1 1
Lattice spacing in x,y,z = 1.5874011 1.5874011 1.5874011
region box block 0 10 0 10 0 10 units lattice
create_box 2 box
Created orthogonal box = (0.0000000 0.0000000 0.0000000) to (15.874011 15.874011 15.874011)
  3 by 4 by 4 MPI processor grid
create_atoms 1 box
Created 4000 atoms
  using lattice units in orthogonal box = (0.0000000 0.0000000 0.0000000) to (15.874011 15.874011 15.874011)
  create_atoms CPU = 0.018 seconds
set type 1 type/fraction 2 0.6 78393
Setting atom values ...
  2421 settings made for type/fraction
mass 1 1.0
mass 2 1.0
pair_style lj/cut  3.5
pair_modify tail  yes
pair_coeff 1  1  1.0  1.0   # Intearaction between 1 and 1 set with epsilon = 1 and sigma = 1
pair_coeff 1  2  1.5  0.8
pair_coeff 2  2  0.5  0.88

write_data data.0
System init for write_data ...
Neighbor list info ...
  update every 1 steps, delay 10 steps, check yes
  max neighbors/atom: 2000, page size: 100000
  master list distance cutoff = 3.8
  ghost atom cutoff = 3.8
  binsize = 1.9, bins = 9 9 9
  1 neighbor lists, perpetual/occasional/extra = 1 0 0
  (1) pair lj/cut, perpetual
      attributes: half, newton on
      pair build: half/bin/atomonly/newton
      stencil: half/bin/3d
      bin: standard
WARNING: Not all mixed pair coeffs generated from mixing. Use write_data with 'pair ij' option to store all pair coeffs. (../write_data.cpp:312)


#############################
#   M E L T   S Y S T E M   #
#############################

velocity all create 2.4 9622624 mom yes dist gaussian # Assign velocities
                                                    # Temperature 2.4, random number seed, zero linear momentum
                                                                                # Gaussian distribution

timestep 0.002   # simulation timestep
thermo 1000       # output thermodynamic data every 1000 steps bf 100

# Define a fix  in this case with index 1 applied to all
# particles in the simulation. This fix is for simulations
# in the anisotropic NPT ensemble. Note that we use the MTK
# correction.
fix 1 all npt temp 2.4 2.4 0.1 iso 5.68 5.68 0.5 mtk yes tchain 5 pchain 5 # Use NPT ensemble
                                                                         # Set temperature and pressure and damping
                                                                         # Numbers of thermostats in chain and in barostat
run 10000          # run for 10000 steps
Per MPI rank memory allocation (min/avg/max) = 3.642 | 3.644 | 3.648 Mbytes
Step Temp E_pair E_mol TotEng Press Volume 
       0          2.4   -4.7127585            0   -1.1136585   -4.0555291         4000 
    1000    2.4146197    -4.465648            0  -0.84462385    5.5195713    3622.3605 
    2000    2.4030699    -4.409117            0  -0.80541335    5.8308839     3623.257 
    3000    2.4143055   -4.3853199            0  -0.76476705    5.9365007    3630.2746 
    4000     2.355378   -4.5409716            0    -1.008788    5.6798929    3568.9242 
    5000    2.4036268   -4.4923111            0  -0.88777229    5.6704471    3596.9703 
    6000    2.4455341   -4.4616251            0  -0.79424102    5.9051206    3604.3453 
    7000    2.3711589   -4.4796208            0  -0.92377172    5.4239094    3618.5397 
    8000    2.4730933   -4.4366823            0  -0.72796974     5.566797     3634.579 
    9000     2.410247   -4.4573525            0  -0.84288582    5.5973991     3618.921 
   10000    2.3825748    -4.478487            0  -0.90551827    6.2082761    3564.9142 
Loop time of 2.66548 on 48 procs for 10000 steps with 4000 atoms

Performance: 648289.559 tau/day, 3751.676 timesteps/s
99.6% CPU use with 48 MPI tasks x no OpenMP threads

MPI task timing breakdown:
Section |  min time  |  avg time  |  max time  |%varavg| %total
---------------------------------------------------------------
Pair    | 1.1795     | 1.2799     | 1.3724     |   3.2 | 48.02
Neigh   | 0.21474    | 0.22382    | 0.2372     |   0.8 |  8.40
Comm    | 0.80618    | 0.89667    | 1.0139     |   4.1 | 33.64
Output  | 0.00027119 | 0.00027959 | 0.00034886 |   0.0 |  0.01
Modify  | 0.21695    | 0.24862    | 0.27822    |   3.5 |  9.33
Other   |            | 0.01619    |            |       |  0.61

Nlocal:        83.3333 ave          91 max          73 min
Histogram: 1 2 4 5 9 5 5 5 7 5
Nghost:        1775.29 ave        1819 max        1754 min
Histogram: 8 7 6 9 9 4 3 1 0 1
Neighs:        10705.8 ave       11763 max        9354 min
Histogram: 2 2 4 6 9 4 4 2 9 6

Total # of neighbors = 513876
Ave neighs/atom = 128.46900
Neighbor list builds = 898
Dangerous builds = 161

# Equilibrate just above the melting temperature to avoid step fn in T

fix 1 all npt temp 1.25 1.25 0.1 iso 5.68 5.68 0.5 mtk yes tchain 5 pchain 5
run 2000
Per MPI rank memory allocation (min/avg/max) = 3.644 | 3.646 | 3.650 Mbytes
Step Temp E_pair E_mol TotEng Press Volume 
   10000    2.3825748    -4.478487            0  -0.90551827    6.2082761    3564.9142 
   11000    1.2390274    -6.522171            0   -4.6640945    5.9802252    2757.1732 
   12000    1.2650755   -6.5883251            0   -4.6911863    5.5052511    2760.5032 
Loop time of 0.684037 on 48 procs for 2000 steps with 4000 atoms

Performance: 505235.753 tau/day, 2923.818 timesteps/s
99.6% CPU use with 48 MPI tasks x no OpenMP threads

MPI task timing breakdown:
Section |  min time  |  avg time  |  max time  |%varavg| %total
---------------------------------------------------------------
Pair    | 0.29861    | 0.33124    | 0.39919    |   2.8 | 48.42
Neigh   | 0.041904   | 0.044492   | 0.05053    |   0.8 |  6.50
Comm    | 0.1855     | 0.25658    | 0.29716    |   3.7 | 37.51
Output  | 5.2549e-05 | 5.5019e-05 | 7.0499e-05 |   0.0 |  0.01
Modify  | 0.039752   | 0.046527   | 0.0532     |   2.2 |  6.80
Other   |            | 0.005142   |            |       |  0.75

Nlocal:        83.3333 ave          91 max          75 min
Histogram: 2 4 2 3 9 11 9 1 5 2
Nghost:        2109.54 ave        2133 max        2088 min
Histogram: 3 2 6 8 3 7 13 4 1 1
Neighs:        13796.4 ave       15521 max       12329 min
Histogram: 3 5 7 4 9 6 5 4 3 2

Total # of neighbors = 662225
Ave neighs/atom = 165.55625
Neighbor list builds = 142
Dangerous builds = 8

#############################
# L I N E A R  Q U E N C H  #
#############################

# Define solid atoms. This closely follows ten Wolde  Ruiz-Montero and Frenkel  Faraday Discuss  1996  104  93-110
# Compute components of the per-atom q6 vector
compute q6 all orientorder/atom degrees 1 6 components 6 nnn NULL cutoff 1.3 # compute the Q6 parameter.
                                                                             # Use all neighbours within 1.3 unit cell.

# get number of connections
compute coord_number all coord/atom orientorder q6 0.5

# An atom is solid if it has 8 or more connections (of a possible 14)
variable is_solid atom c_coord_number>=8
group solid dynamic all var is_solid    # Must be dynamic to update
dynamic group solid defined

# do clustering
compute cluster solid cluster/atom 1.3 # Create a cluster where all atoms within are solid and max 1.3 units from another member

# define chunks one chunk per cluster
compute clus_chunks solid chunk/atom c_cluster nchunk every compress yes  # Says which atoms are in which chunk

# count the size of each chunk
compute size_chunks solid property/chunk clus_chunks count


# Find the maximum entry in the vector of chunk sizes
variable max_n equal max(c_size_chunks)


# Thermo style which includes this variable
# thermo_style custom step temp pe vol v_max_n

thermo ${N}  # Print the thermo information every 100 steps
thermo 1000  

# Reset the npt fix at a lower temperature (below freezing)
fix 1  all npt temp  ${temp} ${temp}  0.1  iso  5.68  5.68  0.5  mtk yes tchain  5  pchain  5
fix 1  all npt temp  0.45 ${temp}  0.1  iso  5.68  5.68  0.5  mtk yes tchain  5  pchain  5
fix 1  all npt temp  0.45 0.45  0.1  iso  5.68  5.68  0.5  mtk yes tchain  5  pchain  5

dump dmp2 all dcd ${N} traj.dcd
dump dmp2 all dcd 1000 traj.dcd


compute msd all msd com yes
variable twopoint equal c_msd[4]/6/(step*dt+1.0e-6)
fix 9 all vector 10 c_msd[4]
variable fit equal slope(f_9)/6/(10*dt)
thermo_style custom step temp pe c_msd[4] v_twopoint v_fit v_max_n

fix 1 all npt temp 1.25 ${temp} 0.1 iso 5.68 5.68 0.5 mtk yes tchain 5 pchain 5
fix 1 all npt temp 1.25 0.45 0.1 iso 5.68 5.68 0.5 mtk yes tchain 5 pchain 5
run 2000000 # 5000000  # Run for this many steps
Neighbor list info ...
  update every 1 steps, delay 10 steps, check yes
  max neighbors/atom: 2000, page size: 100000
  master list distance cutoff = 3.8
  ghost atom cutoff = 3.8
  binsize = 1.9, bins = 8 8 8
  4 neighbor lists, perpetual/occasional/extra = 1 3 0
  (1) pair lj/cut, perpetual
      attributes: half, newton on
      pair build: half/bin/atomonly/newton
      stencil: half/bin/3d
      bin: standard
  (2) compute orientorder/atom, occasional
      attributes: full, newton on
      pair build: full/bin/atomonly
      stencil: full/bin/3d
      bin: standard
  (3) compute coord/atom, occasional
      attributes: full, newton on
      pair build: full/bin/atomonly
      stencil: full/bin/3d
      bin: standard
  (4) compute cluster/atom, occasional
      attributes: full, newton on
      pair build: full/bin/atomonly
      stencil: full/bin/3d
      bin: standard
Per MPI rank memory allocation (min/avg/max) = 9.846 | 9.851 | 9.857 Mbytes
Step Temp PotEng c_msd[4] v_twopoint v_fit v_max_n 
   12000    1.2650755   -6.5883251 9.8686499e-31 6.8532288e-33 8.3333333e+20            3 
   13000    1.2367484   -6.5822055   0.48983312 0.0031399558  0.040069162            3 
   14000    1.2891577   -6.6534735   0.94537708 0.0056272443  0.038716828            2 
   15000    1.2423518   -6.6466448    1.4248585   0.00791588  0.038942116            2 
   16000    1.2322561   -6.6095878    1.9113776 0.0099550916  0.039324399            2 
   17000    1.2482511   -6.6111646    2.3328509  0.011435543  0.038873168            2 
   18000    1.2676938   -6.6033932    2.8634751  0.013256829  0.039065501            1 
   19000    1.2410563   -6.5795098    3.2871126   0.01441716  0.039174247            2 
   20000     1.232495    -6.692076    3.7477742  0.015615725  0.039102152            2 
   21000     1.236418   -6.6167221    4.2216875  0.016752728  0.039105358            2 
   22000    1.2339103   -6.6709544    4.6025866   0.01743404  0.038961793            3 
   23000    1.2304119   -6.6843953    4.9630996  0.017982244  0.038376011            1 
   24000    1.2604475   -6.6087592    5.4132676  0.018796068  0.037838655            4 
   25000     1.268252   -6.6572653    5.8827569  0.019609189   0.03763622            1 
   26000    1.2527216   -6.5794138    6.3312716  0.020292537  0.037493328            1 
   27000    1.2453247   -6.6391146    6.7169436  0.020731307  0.037302068            3 
   28000     1.236952   -6.6253615    7.0685511  0.021037354  0.037009223            1 
   29000    1.2290572   -6.6166382     7.406716  0.021283666  0.036728339            5 
   30000    1.2327444   -6.6499156    7.8678882  0.021855245  0.036408537            2 
   31000    1.2414429   -6.6580306    8.2321017  0.022129305    0.0361801            2 
   32000    1.2533638   -6.6552936      8.66916  0.022575937  0.035973212            3 
   33000    1.2603676   -6.6013994    9.0548336  0.022865741  0.035756299            1 
   34000    1.2361949    -6.632326    9.4895265  0.023258643  0.035570976            3 
   35000    1.2252933   -6.6381658    9.8781846  0.023519487  0.035452316            3 
   36000    1.2477253   -6.6835407    10.277672  0.023790908  0.035359095            1 
   37000    1.2203358   -6.6245946    10.799655  0.024323546  0.035284457            2 
   38000    1.2318197   -6.6663596    11.201858  0.024565477  0.035232306            3 
   39000     1.235965   -6.5800833      11.5959  0.024777564  0.035211907            4 
   40000    1.2531487   -6.6423583    12.037795   0.02507874  0.035170918            2 
   41000    1.2191855    -6.651533    12.388641  0.025180163  0.035125432            1 
   42000    1.2232956   -6.6732845    12.836311  0.025468871    0.0350755            2 
   43000    1.2091524   -6.6315249    13.255946  0.025689817  0.035051166            1 
   44000    1.2338249    -6.642006    13.757873  0.026056578  0.035039344            2 
   45000    1.2234543   -6.6500566    14.123515  0.026154658  0.035026167            3 
   46000     1.232872   -6.6517937    14.612208  0.026471391  0.034989125            4 
   47000    1.2363027   -6.6305117    15.078358  0.026734678  0.035005686            3 
   48000    1.2421098   -6.6556042    15.443002  0.026810768  0.035026818            4 
   49000    1.2333777   -6.7040513    15.706901  0.026712416  0.035005894            2 
   50000    1.2456029   -6.6810537    16.280291  0.027133819  0.034993411            1 
   51000    1.2379561   -6.6373689    16.936518  0.027674049  0.035044342            5 
   52000    1.2604343   -6.6860609    17.331209  0.027774373  0.035130342            2 
   53000    1.2225748   -6.6723057    17.890001  0.028128932  0.035209824            2 
   54000    1.2325923   -6.6845689    18.271075  0.028196103  0.035291673            3 
   55000    1.2148393   -6.6797334    18.729692  0.028378321  0.035366927            1 
   56000    1.2655717   -6.6596524    19.313216  0.028739904  0.035455523            1 
   57000    1.2366637   -6.6089355    19.705687  0.028809484   0.03553885            2 
   58000    1.2059845   -6.6334445    19.950732  0.028664844    0.0355941            3 
   59000    1.2122195   -6.6393879    20.411726  0.028830122  0.035624749            3 
   60000    1.2242506   -6.7261359    20.896808  0.029023345   0.03567202            2 
   61000    1.2383979   -6.7050555    21.231653  0.029004991  0.035697787            1 
   62000    1.2358369   -6.6840068    21.559088  0.028977269  0.035703895            2 
   63000    1.2205115   -6.6766759    22.037576  0.029150233   0.03570456            2 
   64000    1.2068911   -6.6705244    22.452072  0.029234469  0.035705687            1 
   65000    1.2171304   -6.7171234    22.813965  0.029248672  0.035696531            3 
   66000    1.2545313   -6.7115724    23.184435  0.029273276  0.035690466            2 
   67000    1.2299489   -6.6817214    23.488789  0.029214911  0.035670974            2 
   68000    1.2199698   -6.6699139    23.869147  0.029251405  0.035636439            2 
   69000     1.242837   -6.6958459    24.194727  0.029220685  0.035591227            6 
   70000    1.2322419   -6.6667428    24.445765  0.029102101    0.0355335            4 
   71000    1.2444381   -6.6833862    24.863039  0.029181971  0.035471647            1 
   72000     1.244062   -6.6392784    25.353197  0.029343978   0.03541323            2 
   73000    1.2555982   -6.6704525    25.709287  0.029348501  0.035361527            2 
   74000    1.2111329      -6.6745    26.296596  0.029613283  0.035328201            1 
   75000    1.2117442   -6.6469566    26.840755  0.029823061  0.035303025            3 
   76000    1.2089635   -6.6825757    27.128099  0.029745722  0.035284941            3 
   77000    1.2282021   -6.6971898     27.57783  0.029846136    0.0352555            1 
   78000    1.2074943   -6.6616648    28.233783  0.030164298  0.035239794            4 
   79000    1.2193643    -6.748707    28.287349  0.029838976  0.035220887            3 
   80000     1.234137    -6.675701    28.876658  0.030079851  0.035199265            2 
   81000    1.2394432   -6.6810877    29.446664  0.030294921  0.035193094            2 
   82000    1.2349075   -6.6948434    29.891302  0.030377339  0.035193695            1 
   83000    1.2116148   -6.6832259    30.224612  0.030345995  0.035189811            4 
   84000     1.212847   -6.7110326    30.626752  0.030383682  0.035184804            2 
   85000    1.2319703   -6.6936522    31.140463  0.030529865  0.035183989            3 
   86000    1.2154928   -6.7034874    31.743221  0.030758935  0.035191776            2 
   87000    1.2223713   -6.6795217    32.108919  0.030755669  0.035212891            2 
   88000    1.2082545    -6.726153    32.711373  0.030976679  0.035234752            2 
   89000    1.1907186   -6.7324995     33.02793  0.030925028  0.035264093            2 
   90000    1.2052877    -6.720535    33.502415  0.031020754  0.035288503            2 
   91000    1.2303394   -6.6789688    34.291255  0.031402248  0.035320581            2 
   92000    1.1779261   -6.7137361      34.9397  0.031648279  0.035368896            3 
   93000    1.2116124    -6.702114     35.42684   0.03174448  0.035429365            3 
   94000    1.2261883   -6.7212915     35.91679  0.031841125  0.035480808            2 
   95000    1.2321925   -6.7108872    36.468599  0.031989999  0.035540169            3 
   96000    1.2195136   -6.7285719    36.814294  0.031956852  0.035595867            2 
   97000    1.2449721   -6.7284432    36.912048  0.031711381  0.035636495            1 
   98000    1.2107498   -6.7071028    37.380514  0.031786151  0.035670882            4 
   99000    1.2116755   -6.6905885    37.642695   0.03168577  0.035699421            1 
  100000    1.2117579   -6.6910684    38.085905  0.031738254  0.035719462            8 
  101000    1.2171621    -6.726286    38.466597  0.031738116  0.035732061            4 
  102000    1.1906904   -6.7477961    38.815494  0.031712005  0.035745132            2 
  103000    1.2357652   -6.7025988    39.082497  0.031620143  0.035747903            1 
  104000    1.1985794   -6.7146401    39.386773  0.031559914  0.035742619            2 
  105000    1.2338624   -6.7231169    39.729443  0.031531304  0.035735694            3 
  106000      1.19609   -6.7372104    40.026182  0.031467124   0.03572375            4 
  107000    1.1924848   -6.7104626    40.405935  0.031468797  0.035703662            5 
  108000    1.2309996   -6.6958149    40.955738   0.03160165  0.035683594            2 
  109000    1.2135942   -6.7748057     41.24642   0.03153396   0.03566547            1 
  110000    1.2180478   -6.7190138    41.532183  0.031463774  0.035640332            3 
  111000    1.1889023   -6.6804578    41.926767  0.031476551  0.035615728            2 
  112000    1.1936641     -6.72988    42.170222  0.031376653  0.035589473            2 
  113000     1.201169    -6.731973    42.501534  0.031343314   0.03555462            1 
  114000    1.2344251   -6.7224482    42.726809  0.031233048  0.035516439            2 
  115000     1.194396   -6.7133502    43.326927  0.031396324  0.035482613            9 
  116000    1.2035185   -6.7026806    43.864605  0.031511929  0.035452771            5 
  117000    1.1960699   -6.6445724    44.276472  0.031535948  0.035425623            5 
  118000    1.2023476   -6.6689012    44.442938  0.031386255  0.035388246            4 
  119000    1.2014671   -6.7572213    44.593969  0.031228269  0.035341788            2 
  120000    1.2136462   -6.7060066    45.084429  0.031308631  0.035299079            3 
  121000    1.1944301   -6.7520162    45.142834  0.031090106  0.035251458            3 
  122000    1.2120072   -6.7436285    45.723925  0.031232189  0.035205656            2 
  123000    1.2131166     -6.69827    46.128016  0.031252043  0.035160667            2 
  124000    1.1875647    -6.696556    46.440522  0.031210028    0.0351163            2 
  125000     1.206112   -6.7817747    46.715733  0.031143822  0.035066634            2 
  126000    1.2120751   -6.7434947    47.300944  0.031283693  0.035022747            3 
  127000    1.2030497   -6.7078634    47.440004  0.031128612  0.034977159            6 
  128000    1.1888867   -6.7219897     48.02617  0.031267037   0.03493108            3 
  129000    1.2094179   -6.7207205    48.167183  0.031115751  0.034885645            2 
  130000    1.1930847   -6.7389111    48.784209  0.031271929  0.034841557            2 
  131000    1.2183695   -6.7299521    49.219424  0.031310066  0.034800211            2 
  132000    1.1981622   -6.7297251    49.491634  0.031244718  0.034761287            4 
  133000    1.1953354   -6.7349666    49.866194  0.031244482  0.034725048            5 
  134000    1.1810737   -6.7267681    50.406553  0.031347359  0.034689908            2 
  135000    1.1888139   -6.7298599    50.639982  0.031259248  0.034653267            4 
  136000    1.1922142   -6.7650496    50.904638  0.031191567  0.034618222            2 
  137000    1.2019885   -6.7408135    51.570571   0.03136896  0.034581908            1 
  138000    1.1918662   -6.6924619    52.065348  0.031440428  0.034550938            2 
  139000    1.2103495   -6.7275714    52.203171  0.031296865  0.034519003            3 
  140000    1.1852881   -6.7064576    52.681721  0.031358167  0.034488079            4 
  141000    1.1921003   -6.7858964    53.076104  0.031368856  0.034460143            4 
  142000    1.1960193   -6.7349799    53.651304  0.031485507  0.034436116            2 
  143000    1.2096329   -6.7225637    54.182361  0.031574802    0.0344147            1 
  144000    1.1759775   -6.7290543    54.400141  0.031481563  0.034397083            3 
  145000    1.2130795   -6.7701111    54.748656  0.031464745   0.03437418            4 
  146000    1.2184252    -6.763466    55.087277   0.03144251  0.034350498            2 
  147000    1.1698296   -6.7296652    55.524991  0.031476752  0.034324224            2 
  148000    1.1850982   -6.7881471    55.686187  0.031354835  0.034299316            3 
  149000    1.2083836   -6.7471222    56.296383  0.031485673  0.034275355            1 
  150000    1.2187173   -6.7736322    56.501593  0.031389774  0.034254969            2 
  151000    1.2142516   -6.7492767     56.99289   0.03145303  0.034232302            1 
  152000    1.1819159   -6.7636447    57.017204  0.031259432  0.034207705            7 
  153000     1.206862    -6.755349    57.510397  0.031323745  0.034180898            2 
  154000     1.207051   -6.7477153    58.163734  0.031473882  0.034154113            2 
  155000    1.2014144   -6.7899821    58.211588  0.031296553  0.034130883            4 
  156000    1.1966438    -6.792455    58.920216  0.031474474  0.034106992            2 
  157000    1.2049433   -6.6812034    59.678586  0.031676532  0.034084798            2 
  158000    1.1613523   -6.7692034    59.427847  0.031343801  0.034062758            3 
  159000    1.1772013   -6.7522342    60.028712  0.031461589  0.034037466            2 
  160000    1.1946287   -6.7712787    60.249625  0.031380013    0.0340165            4 
  161000    1.1927164   -6.7962526    60.596227  0.031364507  0.033992921            4 
  162000    1.1921323    -6.797218    61.067079  0.031413106  0.033971567            2 
  163000     1.174856   -6.8111893    61.426104  0.031403939  0.033955452           10 
  164000    1.1956439   -6.7734175    62.011197  0.031509755  0.033937844            5 
  165000    1.1709502   -6.7145616    62.337547  0.031483609  0.033918422            1 
  166000    1.1771008   -6.7760965    62.691887   0.03147183  0.033896931            2 
  167000    1.1869918   -6.7787799     63.05817  0.031466152  0.033873883            3 
  168000    1.2362316   -6.7674327    63.468321  0.031482302  0.033856449            3 
  169000    1.1771963   -6.8043705    63.692094  0.031406358  0.033837055            3 
  170000    1.1945115   -6.7628644    64.279402  0.031509511  0.033817638            6 
  171000    1.1940361   -6.8313868    64.416132  0.031391877  0.033797155            4 
  172000    1.1614948   -6.7678561     65.10053  0.031540954  0.033777749            2 
  173000    1.1557625   -6.7863938    65.392181  0.031499124  0.033759005            2 
  174000    1.1778291     -6.80619    65.696373   0.03146378  0.033741651            2 
  175000    1.1875902   -6.8074491    66.047496  0.031451189  0.033723153            2 
  176000    1.2119373   -6.7792759    66.970971   0.03170974  0.033708654            3 
  177000     1.177087    -6.755672    67.452437  0.031757268  0.033699855            2 
  178000     1.160045   -6.7700538    67.928452   0.03180171  0.033689951            2 
  179000    1.1803074   -6.7799276    67.980985  0.031648503  0.033679355            2 
  180000    1.1479707   -6.7986424     68.24595  0.031595347  0.033667677            4 
  181000    1.1637561   -6.7737596     68.05183  0.031331414  0.033651934            2 
  182000    1.1825673   -6.7878889    68.762408  0.031484619  0.033635221            3 
  183000     1.192184   -6.8436505    68.890461  0.031370884  0.033616128            5 
  184000    1.1925751   -6.8729762    68.821736  0.031169265  0.033592194            1 
  185000    1.1737973   -6.7813587    69.728175  0.031409088  0.033568038            2 
  186000    1.1794074   -6.8088708    69.905594  0.031319711  0.033547748            6 
  187000    1.1704039   -6.7822891     70.72871  0.031519033  0.033527761            2 
  188000    1.1914835   -6.7520254    71.296599  0.031603102  0.033512755            2 
  189000    1.1818704   -6.7681125    71.906302  0.031704718  0.033498365            4 
  190000    1.1932398   -6.7341097    71.835554  0.031506822  0.033485029            3 
  191000     1.160256   -6.7557057    71.928637  0.031382477  0.033467216            4 
  192000    1.1884555    -6.796482    72.228152  0.031349024  0.033447066            4 
  193000    1.1640949   -6.7951251    72.246916  0.031194696  0.033425729            1 
  194000    1.1870002    -6.795114    72.486261   0.03113671  0.033401366            1 
  195000    1.1774802   -6.8198452    72.948777  0.031174691  0.033375757            7 
  196000    1.1743007   -6.7703377    73.637069  0.031308277   0.03335118            5 
  197000    1.1689757    -6.822455    73.664648  0.031161018  0.033325978            4 
  198000    1.1847273   -6.8139311    73.897382  0.031101591  0.033301625            5 
  199000    1.1768515   -6.8124016    74.302204  0.031114826  0.033277316            3 
  200000    1.1645371    -6.770755     74.78229  0.031159288  0.033252359            3 
  201000    1.1852826    -6.809814    74.883721  0.031046319  0.033226202            4 
  202000    1.1694179   -6.7754752    75.273892  0.031053586   0.03319857            5 
  203000    1.1719224   -6.8190363    75.466484  0.030979673  0.033171397            1 
  204000    1.1516367   -6.7800799    76.101882   0.03108737   0.03314553           10 
  205000    1.2027799   -6.7980098    76.379856  0.031048722  0.033121782            4 
  206000    1.1732692   -6.8317812    76.785861  0.031062241  0.033095741            3 
  207000    1.1718383   -6.8453366    76.950257  0.030978364  0.033070297            2 
  208000    1.1690758    -6.828005    77.454013  0.031031255  0.033044794            5 
  209000    1.1807494   -6.7587092     78.00466  0.031102336  0.033021352            3 
  210000    1.1823404    -6.778854    78.495113  0.031148854  0.032998894            3 
  211000    1.1706975   -6.7901469    78.653626  0.031063833  0.032975519            5 
  212000    1.1776852   -6.8140483    78.626199  0.030906525  0.032951757            4 
  213000    1.1608418   -6.8364065    79.105341  0.030948881  0.032926824            2 
  214000    1.1830699   -6.8250043    79.609998  0.031000778  0.032903833            2 
  215000    1.1786651   -6.8205861    80.062367  0.031031925  0.032881229            4 
  216000    1.1812935    -6.840929    80.117362  0.030909476  0.032860105            5 
  217000     1.193839   -6.8391329     80.54318  0.030930561  0.032837238            4 
  218000    1.1321374   -6.8489889    81.131297  0.031013493  0.032814442            2 
  219000    1.1716434   -6.8059705    81.456993  0.030995812  0.032792894            3 
  220000    1.1577658   -6.8506459    81.739053  0.030961762  0.032770654            4 
  221000    1.1689618   -6.8242085    81.791118  0.030841296  0.032748288            2 
  222000    1.1672046   -6.8328135    82.238279  0.030870225  0.032726435            2 
  223000    1.1719284   -6.7906694    82.850682  0.030960643  0.032704933            2 
  224000    1.1868961   -6.8657236    83.082368  0.030908619  0.032683506            4 
  225000    1.1648615   -6.8370826    83.575664  0.030953949  0.032661042            3 
  226000    1.1557028   -6.7947122    83.792928  0.030897097   0.03264022            3 
  227000     1.162209   -6.8430314    83.924548  0.030809305  0.032618101            2 
  228000    1.1768474   -6.8515792    84.684499  0.030951937  0.032597258            3 
  229000    1.1677816   -6.9471617    84.436919  0.030726681  0.032576113            5 
  230000    1.1562207   -6.8628273    85.132506  0.030845111  0.032554982            6 
  231000    1.1370541   -6.8618769     85.18684  0.030731183  0.032533109            3 
  232000    1.1824974   -6.8133188    85.924886  0.030863824  0.032508701            5 
  233000    1.1650523   -6.8539352    85.975354  0.030749411  0.032488586            4 
  234000    1.1541316   -6.8318886    86.491804  0.030801924  0.032467123            3 
  235000    1.1616601   -6.8090817     86.89874  0.030815156  0.032445425            5 
  236000    1.1647822   -6.8149175    87.005511  0.030722285  0.032422801            3 
  237000    1.1511662   -6.8406183    87.471694  0.030756573  0.032400366            5 
  238000    1.1660983   -6.8741112    87.421136  0.030609641  0.032376577            3 
  239000    1.1574017    -6.844156    87.938911  0.030662103  0.032352498            5 
  240000    1.1753313   -6.8232796    88.210705  0.030628717   0.03232959            4 
  241000    1.1563287   -6.8369767    88.856486  0.030724926  0.032305713            3 
  242000    1.1514878   -6.8581664    88.665127  0.030532069  0.032282554            2 
  243000    1.1310449   -6.8635583    89.183906   0.03058433  0.032257836            4 
  244000    1.1499906   -6.9048671    89.176467  0.030456444  0.032231754            4 
  245000    1.1592135   -6.8356444    89.745609  0.030525717  0.032207762            3 
  246000    1.1615766   -6.8928481    89.895437  0.030452384   0.03218549            4 
  247000    1.1637034   -6.8660112    90.341093  0.030479451  0.032163237            5 
  248000    1.1616562   -6.8739709    90.814726  0.030515701  0.032139809            3 
  249000    1.1624187   -6.8447185     91.19681  0.030521021  0.032116854            4 
  250000     1.176284     -6.85292     91.51082  0.030503607  0.032092339            3 
  251000    1.1505154    -6.810938    91.690187  0.030441629  0.032067883            2 
  252000    1.1566607   -6.9129899    91.698816  0.030323682  0.032042081            2 
  253000    1.1680754   -6.8405012    92.527681  0.030476838  0.032017112            5 
  254000    1.1675616   -6.8129523     92.56184  0.030368058  0.031992282            3 
  255000    1.1533985   -6.8335906    92.941702  0.030373105   0.03196714            3 
  256000    1.1676193   -6.8436929     93.39232  0.030401146  0.031942852            3 
  257000    1.1387279   -6.8366751    93.735613  0.030394168  0.031920166            2 
  258000    1.1481027    -6.903269    93.786227  0.030292709  0.031896198            2 
  259000    1.1758905   -6.9119477    94.314885  0.030345845  0.031871567            2 
  260000     1.135807   -6.8673575    94.629885  0.030330091  0.031847829            3 
  261000     1.152016    -6.879053    95.040072   0.03034485   0.03182655            3 
  262000    1.1381589   -6.8392804    95.731666  0.030449003  0.031805773            2 
  263000    1.1488509   -6.8785412    95.693654  0.030321183  0.031784432            2 
  264000    1.1460133    -6.888599     96.25209  0.030382604   0.03176448            1 
  265000    1.1469073    -6.863082    96.347493  0.030297954   0.03174248            4 
  266000    1.1242461   -6.8815155    96.792329  0.030323411  0.031718561            4 
  267000    1.1433747   -6.8742964    96.881905  0.030237798  0.031696166            4 
  268000    1.1288653   -6.8578699    97.211185  0.030227359  0.031673798            4 
  269000    1.1763929   -6.9120532    97.434967  0.030184314  0.031652815            4 
  270000    1.1611199   -6.9214501    97.870205  0.030206853  0.031631287            3 
  271000    1.1510647   -6.8920828    98.091508   0.03016344  0.031610164            6 
  272000    1.1458933   -6.8565766     98.79603  0.030268391  0.031588362            2 
  273000    1.1528064   -6.9430313    98.432465   0.03004654  0.031565284            2 
  274000    1.1397152   -6.8697975    98.860601  0.030067093  0.031540737            5 
  275000    1.1706263   -6.8316794    99.365223  0.030110674  0.031516232            1 
  276000    1.1472269   -6.9004633    99.544635  0.030055747  0.031493628            2 
  277000    1.1161998   -6.8987533    99.816775  0.030029114  0.031469886            3 
  278000    1.1322751   -6.9021927    100.07017  0.029997054  0.031445391            5 
  279000    1.1648441   -6.9406915    100.19789  0.029927686  0.031420381            4 
  280000    1.1554097    -6.941121    100.01389  0.029766039  0.031394947            2 
  281000     1.174371   -6.8726742    101.07935  0.029976082  0.031370756            3 
  282000    1.1271868   -6.8818979    101.24983  0.029920162  0.031347347            4 
  283000    1.1287529    -6.883461    101.33035  0.029838149  0.031321877            5 
  284000    1.1255541    -6.933323    101.72709  0.029849497  0.031296779            5 
  285000    1.1434267   -6.8924154    101.91309   0.02979915  0.031271342            2 
  286000    1.1515859   -6.8408445    102.51872  0.029871421  0.031247038            2 
  287000    1.1550877   -6.9273057    102.95973  0.029895392  0.031223763            2 
  288000    1.1304214   -6.8951498    103.42551  0.029926362  0.031199449            3 
  289000     1.155607    -6.927837    103.13026  0.029737676  0.031175566            2 
  290000    1.1137635   -6.9142127    103.88263   0.02985133  0.031151334            3 
  291000    1.1392409   -6.9357611    104.52569  0.029932901  0.031128576            2 
  292000    1.1394078   -6.9030758    104.47309  0.029815378  0.031107076            2 
  293000    1.1476574   -6.9190742    104.34375  0.029676834  0.031084658            6 
  294000    1.1292809   -6.9301983    105.15837  0.029806794  0.031061681            3 
  295000    1.1575292   -6.9150215    105.83423  0.029896676  0.031040887            4 
  296000    1.1065075   -6.9621099    105.69385  0.029756152  0.031019726            2 
  297000     1.158044   -6.9635841    106.06024  0.029758766   0.03099801            3 
  298000    1.1390413   -6.9365901    106.86564  0.029884127  0.030977305            3 
  299000    1.1537498   -6.9014722    106.81536  0.029770168  0.030955966            2 
  300000    1.1282307   -6.9148047    107.29268  0.029803523  0.030935765            1 
  301000    1.1391478   -6.9463353    107.36397  0.029724245   0.03091581            2 
  302000     1.118902   -6.9225636    108.00499  0.029802701  0.030895754            5 
  303000    1.1533928   -6.9005145    107.67002  0.029612216  0.030874634            2 
  304000    1.1513749   -6.9718296    107.92554  0.029584851  0.030852867            6 
  305000    1.1176159   -6.8865421    108.68703  0.029695909  0.030831846            2 
  306000    1.1384594   -6.9057824    108.42552  0.029527646  0.030810789            5 
  307000    1.1338932   -6.9004514    108.94028  0.029571194  0.030788357           18 
  308000    1.1354527   -6.9490939    109.02927  0.029499261  0.030765206            3 
  309000    1.1192128   -6.9358755    109.25546  0.029464795  0.030742287            3 
  310000    1.1230544   -6.9093952    109.71278  0.029492682  0.030719065            2 
  311000    1.1194283   -6.8845175    110.52364  0.029615124  0.030696987            4 
  312000    1.1185272   -6.9320603    109.88707  0.029350179  0.030674238            4 
  313000    1.1563589   -6.9100002    110.60554  0.029447695  0.030652218            2 
  314000    1.1422707   -6.9085164    111.24666   0.02952406  0.030630379            5 
  315000     1.114994   -6.8939916    111.62567  0.029530602  0.030608843            2 
  316000    1.1085699   -6.9329739    111.53258    0.0294126  0.030587559            3 
  317000    1.1406529   -6.9206675    112.18509  0.029491348  0.030565557            4 
  318000    1.1190536   -6.9237661    112.25315  0.029416444  0.030543059            5 
  319000    1.1334894   -6.9474869    112.55164  0.029402206  0.030520287            3 
  320000    1.1347405   -6.9279311    112.79925  0.029374804  0.030497567            1 
  321000    1.1152394   -6.9502979    113.12882  0.029368853  0.030477392            3 
  322000    1.1072298   -6.9566668    113.50729  0.029375591  0.030457267            3 
  323000    1.1491598    -6.952122    113.85004  0.029373075  0.030436267            3 
  324000     1.115485   -6.9461792    113.74991  0.029256665  0.030415898            4 
  325000    1.1235693   -6.9639965    114.06791  0.029248182  0.030396647            4 
  326000    1.1227087   -6.9480189    114.93254  0.029379483  0.030376222            3 
  327000    1.1357162   -6.9381818    115.37928  0.029403486  0.030356366            3 
  328000    1.1235699   -6.9459267    115.26516  0.029284849  0.030336642            2 
  329000     1.116611   -6.9859747     115.5421  0.029265983  0.030316346            4 
  330000     1.142547   -6.9450778    115.76622  0.029233893  0.030295642            3 
  331000     1.098779   -6.9505559    116.16316  0.029245509  0.030275102            2 
  332000    1.1035737   -6.9355359    116.99011  0.029364988  0.030255152            4 
  333000    1.1091168   -6.9461976      116.699  0.029203953  0.030234002            3 
  334000    1.1365847   -7.0135969    116.76237  0.029132327  0.030211883            3 
  335000    1.1184307   -6.9384195    116.88253  0.029075257  0.030190408            5 
  336000    1.1172131   -6.9654293     117.1432  0.029053373  0.030168955            4 
  337000    1.1220989   -6.9278588    117.60864  0.029082254  0.030146466            4 
  338000    1.1004782   -6.9389725     118.1734  0.029135455  0.030124986            2 
  339000    1.1036477   -6.9563256    117.97645  0.029001093  0.030103372            3 
  340000    1.1229583   -6.9820653    118.05515  0.028935086  0.030080657            5 
  341000    1.0904658   -7.0184745    118.23731  0.028894748  0.030057614            5 
  342000    1.1374475   -6.9087999    118.96608  0.028987837  0.030034815            3 
  343000    1.1017772   -6.9417196    119.26129  0.028975046  0.030012577            4 
  344000    1.1103059   -6.9801071    118.66825  0.028747154  0.029989633            2 
  345000    1.0905274   -6.9944554    119.21463  0.028795803   0.02996602            2 
  346000    1.1215822   -6.9919143    119.33334  0.028741171  0.029942269            3 
  347000    1.1184713   -6.9447188    120.03677  0.028827274  0.029918579            1 
  348000    1.1147689   -6.9720346    119.66601  0.028655655  0.029894888            5 
  349000    1.1214543   -7.0118865    120.11354  0.028680407  0.029871114            4 
  350000    1.1250082   -6.9239616    121.09644  0.028832485  0.029847123            3 
  351000    1.1288411   -7.0079201    120.54456  0.028619316  0.029823276            3 
  352000    1.1384534   -7.0148479    121.01616  0.028649659  0.029799186            3 
  353000    1.0993309    -7.010983    120.99143   0.02856266  0.029774114            3 
  354000    1.1258537   -6.9896844    121.01968  0.028488624  0.029749001            9 
  355000    1.0987374   -6.9531852     121.6435  0.028554811  0.029723609            3 
  356000    1.1142574   -6.9534095    121.68431  0.028484154  0.029698638            2 
  357000    1.0940211    -6.997355     122.1865  0.028521591  0.029674106            9 
  358000    1.0908086   -6.9967918    122.56526  0.028530089  0.029649987            5 
  359000    1.1204391   -6.9701081    122.89489  0.028527132  0.029625718            3 
  360000    1.0877255   -7.0208781     122.9806  0.028467732  0.029602215            2 
  361000    1.1225088   -6.9668278    123.69668  0.028554174  0.029578982            4 
  362000    1.0898076    -6.945277    124.26263  0.028605577  0.029555412            2 
  363000     1.121009   -7.0283105    123.93616  0.028451828  0.029531863            3 
  364000    1.1079312    -6.955826     124.9882  0.028614515  0.029509976            1 
  365000    1.1084663   -6.9855173    125.11509  0.028565089  0.029488747            2 
  366000    1.1214071   -6.9502526    125.14237  0.028493254  0.029466688            9 
  367000    1.1252822    -7.009833    125.00522  0.028384472  0.029444244            2 
  368000    1.1098576   -6.9709055    125.53996  0.028428433   0.02942187            2 
  369000    1.0988583   -7.0137395    125.60909  0.028367004  0.029399239            4 
  370000     1.112217   -7.0287874    126.07216  0.028394631  0.029376564            5 
  371000    1.1046592   -6.9986413    126.08332  0.028320602  0.029354218            3 
  372000    1.1100442   -6.9725008    126.37567  0.028309961  0.029331112            4 
  373000    1.0830932   -7.0106768    126.83802   0.02833736  0.029308869            5 
  374000    1.1227699   -6.9791156    127.64439  0.028441263  0.029286204            5 
  375000     1.089928   -6.9838504    127.59026   0.02835339  0.029263836            1 
  376000    1.0920535   -6.9983197    127.74145  0.028311491  0.029241658            6 
  377000     1.100182   -7.0018638    127.77739  0.028244339  0.029218681            3 
  378000    1.0929405   -7.0157527    127.62548  0.028136129  0.029195626            3 
  379000    1.0937204   -7.0355046    128.07879  0.028161563  0.029172946            8 
  380000    1.1286199   -6.9629687    128.56352  0.028193755   0.02914991            3 
  381000    1.1222004   -7.0125527    128.92553  0.028198934  0.029127195            3 
  382000    1.1008002   -7.0038877    129.28809  0.028204208  0.029104233            6 
  383000    1.1004984   -6.9702853    129.60391  0.028199283   0.02908104           10 
  384000    1.0928532   -7.0007059    129.84035  0.028177159   0.02905867            2 
  385000     1.123025   -6.9783318     130.3606  0.028216581  0.029037043            4 
  386000    1.1101677   -6.9927706      130.852  0.028249568  0.029016514            1 
  387000    1.1059547   -7.0036601    131.15386  0.028241572  0.028996101            2 
  388000    1.1041403   -7.0019872    131.36187   0.02821346  0.028975474            3 
  389000    1.0790325   -7.0313607    131.38262  0.028145378  0.028955157            4 
  390000    1.0931296   -7.0633413    131.31464  0.028058684  0.028934388            3 
  391000    1.1077667   -6.9864188    132.24842  0.028185939  0.028914062            2 
  392000    1.0998202   -6.9615554    133.09624  0.028294268  0.028894851            5 
  393000    1.1182319   -7.0420138    132.77733  0.028154649  0.028875826            8 
  394000    1.0978306   -7.0329935    132.81453   0.02809106  0.028855972            3 
  395000     1.098986    -6.979129    133.65708  0.028197695  0.028836985            7 
  396000    1.0817393   -6.9965949    133.88133   0.02817368  0.028817386            2 
  397000    1.0949645   -7.0327456    133.55614  0.028034454  0.028797425            3 
  398000    1.1002535   -7.0403299    133.67475  0.027988849   0.02877671            3 
  399000     1.099484   -7.0142049    133.57334  0.027897523  0.028755357            4 
  400000    1.1047244   -7.0260329     133.9065  0.027897187  0.028734266            2 
  401000    1.1153686   -7.0477376    134.33717  0.027917118  0.028712952            4 
  402000    1.1037234   -7.0126106    134.67975  0.027918688  0.028692244            3 
  403000    1.1162163   -7.0017157    134.85943  0.027886565  0.028671456            3 
  404000    1.0872589   -7.0107687    134.98891  0.027844247   0.02865058            2 
  405000    1.0953648   -7.0096991    135.45226  0.027870835  0.028629256            3 
  406000     1.090236   -7.0288833    135.56169  0.027824648  0.028608697            5 
  407000    1.0814309    -7.043968    135.83288  0.027811809  0.028588528            3 
  408000    1.1035335   -7.0483014    136.44752  0.027869183     0.028569            5 
  409000    1.1252672   -7.0056715    137.26562   0.02796773  0.028549339            2 
  410000    1.0646122   -7.0493189    136.76125  0.027797003   0.02852959            3 
  411000    1.0778204   -7.0278944    137.53981  0.027887228  0.028509759            4 
  412000    1.0761231   -7.0363252    137.84616  0.027881505  0.028490605            3 
  413000    1.0856451   -7.0187761    138.41818  0.027929415   0.02847252            2 
  414000    1.0857925   -7.0108242     139.1732  0.028013929  0.028454537            5 
  415000     1.081657   -7.0256887    139.06097  0.027923889  0.028437141            7 
  416000    1.0882351   -7.0307322    138.92143  0.027828812  0.028419153            2 
  417000    1.1002743    -7.047275    138.93551  0.027764889  0.028400939            2 
  418000    1.0796169   -7.0328047    139.52997  0.027816979  0.028382672            4 
  419000    1.0839699   -7.0207334    139.71666   0.02778772  0.028364427            4 
  420000    1.0947299   -7.0509336    139.56837  0.027692137  0.028345782            2 
  421000    1.0423333   -7.0316379    139.77567  0.027667394  0.028326882            2 
  422000    1.0650917   -7.0448378    139.91602  0.027629547  0.028306837            3 
  423000    1.0576262   -7.0370343    140.17341  0.027614934     0.028287            6 
  424000    1.0890728   -7.0275477    140.60088  0.027633822  0.028267793            4 
  425000    1.0796849   -7.0384503     140.5496  0.027558746  0.028247895            5 
  426000    1.0956374   -7.0417689     140.8635  0.027555459   0.02822933            6 
  427000    1.0992954   -7.0569113    141.10511  0.027538078  0.028209305            4 
  428000    1.0724095   -7.0264745    140.87127  0.027428206  0.028188957            2 
  429000    1.0908295   -7.0854771    141.15738  0.027419849  0.028168776            4 
  430000    1.0819072   -7.0765632     141.4651  0.027415717  0.028147395            3 
  431000    1.0874038   -7.0755313    141.27966  0.027316253  0.028126312            2 
  432000     1.080145   -7.0536884    141.87652  0.027368156  0.028104841            2 
  433000    1.0708821    -7.000537    142.00026  0.027328764  0.028083347            7 
  434000    1.1016062   -7.0595565     142.2262  0.027309178  0.028061642            3 
  435000    1.0919824    -7.057338    142.02005  0.027206907  0.028038945            3 
  436000    1.0876827   -7.0665368    142.36531  0.027210495  0.028016661            2 
  437000    1.0692832   -7.0680454    142.39668   0.02715421  0.027994401            4 
  438000    1.0802833   -7.0615324    142.87489  0.027183198  0.027971566            5 
  439000    1.0761482   -7.0556831    143.49855  0.027239663  0.027949702            8 
  440000       1.0904   -7.1043306    143.17828  0.027117098  0.027927786            5 
  441000    1.0985573   -7.1164864    143.30782  0.027080088  0.027905309            4 
  442000    1.0986048   -7.1005019    143.59044  0.027072105  0.027883244            3 
  443000    1.0658749   -7.0399574    144.29184  0.027142935  0.027860918            2 
  444000    1.0620284   -7.0507009    144.45179  0.027111822  0.027839478            2 
  445000    1.0780598   -7.1043563    144.71009  0.027099267  0.027818591            3 
  446000    1.0569074   -7.0449637    145.22488  0.027134693  0.027797424            6 
  447000    1.0749583   -7.0629093    145.37659  0.027102272  0.027776616            5 
  448000    1.0841219   -7.0656702    145.11254  0.026992659  0.027755222            4 
  449000    1.0559583   -7.0763749    145.30261  0.026967818  0.027733748            4 
  450000    1.0764055   -7.1226434    145.07344  0.026865452  0.027712621            2 
  451000    1.0695702   -7.0760106     146.2625  0.027025591  0.027691707            4 
  452000    1.0672536   -7.0861334    146.55368  0.027019484  0.027671643            6 
  453000    1.0938161   -7.0365959    147.50503  0.027134847  0.027652928            2 
  454000    1.0733713   -7.0841512    147.76699  0.027123162  0.027634488            4 
  455000    1.0779148   -7.1254057    147.75931  0.027062145  0.027615705            6 
  456000    1.0594842   -7.0656805    149.07979  0.027244114  0.027597135            2 
  457000    1.0772022   -7.0752387    148.67188  0.027110117  0.027578769            2 
  458000    1.0660814   -7.0474089    149.18059  0.027143484  0.027560844            3 
  459000    1.0619962    -7.035626    149.59978  0.027160454  0.027542715            3 
  460000    1.0480942    -7.097914    148.91682  0.026977685  0.027524658            5 
  461000    1.0930989   -7.1177508    149.15899   0.02696294  0.027505353            8 
  462000    1.0737189   -7.0825961    149.22659  0.026916774  0.027485691            4 
  463000     1.074053   -7.1324154    149.15528  0.026845802  0.027466407            3 
  464000     1.062558   -7.1292818    149.68119  0.026882397  0.027446905            3 
  465000    1.0784531   -7.1379701    149.76122  0.026838929  0.027427491            2 
  466000    1.0377427   -7.1198076    150.14129  0.026849301   0.02740911            2 
  467000    1.0659353   -7.1162232    150.51657  0.026858775  0.027390335            5 
  468000    1.0593786   -7.1017271    150.80217  0.026852239  0.027370771            3 
  469000    1.0656668   -7.0910146    151.07888  0.026844151  0.027351172            2 
  470000    1.0606686   -7.0794104    151.25858  0.026818898  0.027331511            4 
  471000    1.0697179   -7.0602856    151.67815   0.02683619  0.027312046            8 
  472000    1.0828388    -7.097785    151.76385  0.026794466  0.027292904            3 
  473000    1.0703504   -7.0882254    151.99393  0.026778353  0.027273718            2 
  474000    1.0508334   -7.1127185    151.80134     0.026688  0.027254029            4 
  475000    1.0566367    -7.100912    151.76487  0.026625416  0.027233711            9 
  476000    1.0597569    -7.116793    152.19329  0.026644483  0.027213715            6 
  477000     1.056536   -7.1373914     152.2731  0.026602568   0.02719372            3 
  478000    1.0808928   -7.1200657    152.65026  0.026612667  0.027174303            4 
  479000    1.0439508   -7.1252367    152.72022  0.026569279  0.027154625            2 
  480000    1.0644292   -7.1024257    153.66495  0.026677942  0.027135008            3 
  481000     1.071586    -7.076392    153.69922  0.026628416  0.027115898            3 
  482000     1.069616   -7.0457871    154.23763  0.026666256  0.027097242            5 
  483000    1.0659299   -7.1288571    153.74375  0.026525836  0.027078263            5 
  484000    1.0493412   -7.1013925    154.22109  0.026553217   0.02705893            5 
  485000     1.068633   -7.1138493    154.56319  0.026557248  0.027039463            2 
  486000    1.0852356    -7.109604    154.46742  0.026486184  0.027020094            3 
  487000    1.0565792   -7.1597103    154.15739  0.026378746  0.026999987            2 
  488000    1.0724331   -7.1451902    154.23246   0.02633751   0.02698011            6 
  489000    1.0740656   -7.1478406    154.31846  0.026298305  0.026959864            7 
  490000    1.0493731   -7.1221341    155.03111  0.026365835  0.026939787            2 
  491000    1.0602987   -7.1419449    155.11562   0.02632648  0.026919662            6 
  492000    1.0481344   -7.1147706    155.43087  0.026326368   0.02689907            4 
  493000    1.0613441   -7.1057354    155.76174  0.026328895  0.026878529            3 
  494000    1.0553686   -7.0914073    156.77364  0.026446295  0.026858458            3 
  495000    1.0486441   -7.0871169    155.71005  0.026213813  0.026838264            8 
  496000    1.0706199   -7.1061412    156.33006  0.026265131  0.026817697            3 
  497000     1.045598   -7.1194219    156.02205  0.026160638   0.02679704            3 
  498000    1.0669047   -7.1256385    156.21111  0.026139744  0.026776325           10 
  499000    1.0715032   -7.1443195    155.90103  0.026035576  0.026755403            2 
  500000    1.0658051   -7.1101441    156.71694  0.026119489  0.026734186            4 
  501000    1.0530536   -7.1199324    156.91263  0.026099906  0.026713084            3 
  502000    1.0475175   -7.1165668     157.1386  0.026085425  0.026691642            6 
  503000     1.063136   -7.1214138    157.50542  0.026094337  0.026671127            3 
  504000    1.0655213   -7.1228019    157.62716  0.026062691  0.026650118            2 
  505000    1.0413252   -7.1155188    157.70661  0.026024193  0.026629026            4 
  506000    1.0390474   -7.0981318    158.34918  0.026078587  0.026608594            7 
  507000    1.0582755   -7.0883916    158.70041   0.02608488  0.026588769            4 
  508000    1.0744404   -7.1311426    158.44206  0.025991152  0.026568631            3 
  509000    1.0727238   -7.0725234    158.95603  0.026024235  0.026548475            2 
  510000    1.0423881   -7.1238158    158.55782  0.025908141  0.026528052            4 
  511000    1.0355607    -7.138342    159.22374  0.025966038  0.026507498            7 
  512000    1.0451098   -7.1222981    159.85807  0.026018566   0.02648694            6 
  513000    1.0667133   -7.1587465     159.1375  0.025850797  0.026466646            6 
  514000     1.058871   -7.1763634    159.80218  0.025908265   0.02644619            3 
  515000    1.0398863   -7.1261092    159.68702  0.025839323  0.026425396            2 
  516000    1.0457822   -7.1555777    159.74171   0.02579808  0.026404814            3 
  517000    1.0602278   -7.1336807    160.43102  0.025859288  0.026384131            3 
  518000    1.0604892   -7.1711611    160.02582   0.02574418  0.026362848            6 
  519000    1.0418642   -7.1564105    160.78349  0.025816231  0.026341909            4 
  520000    1.0374655   -7.1372193    161.34733  0.025856944  0.026321259            4 
  521000    1.0555683   -7.1441381    161.17486  0.025779729  0.026300858            5 
  522000    1.0423163   -7.1356195    161.41996  0.025769471  0.026280387            4 
  523000    1.0717032   -7.1244512    161.47986  0.025729742  0.026259952            4 
  524000    1.0417828   -7.1706018    161.14174  0.025626868   0.02623912            3 
  525000    1.0689418   -7.1319192    161.69157  0.025665329  0.026218554           10 
  526000     1.056804   -7.2089287     161.6492  0.025609823  0.026197996            2 
  527000    1.0632848   -7.1889653    161.62932  0.025558083  0.026176758            4 
  528000    1.0377772   -7.1663945    162.13778  0.025589927  0.026155853            4 
  529000    1.0432156   -7.1423659     162.5244  0.025602457  0.026135429            6 
  530000    1.0493147   -7.1764282    162.78454  0.025595053  0.026114754            2 
  531000    1.0501685   -7.1688891    162.81017  0.025550873  0.026094079            2 
  532000    1.0207761   -7.1370139     163.5017  0.025611168  0.026073018            2 
  533000    1.0372789   -7.1058172    163.69164  0.025592814  0.026052875            2 
  534000    1.0254619   -7.2013353    163.46205  0.025509059   0.02603264            2 
  535000     1.060995   -7.2029541    163.59247  0.025481693  0.026012213            5 
  536000    1.0423394   -7.1410516    164.07892  0.025509783  0.025991793            4 
  537000    1.0274036   -7.1861587     164.5106  0.025529268  0.025971522            4 
  538000    1.0489671   -7.1690932    164.26944  0.025444461  0.025950964            2 
  539000    1.0215146   -7.2087939    164.07015  0.025366442  0.025930294            3 
  540000    1.0449354   -7.1767822     164.4504  0.025378148   0.02590949           10 
  541000    1.0374091   -7.2112046    164.19899  0.025292512  0.025888313           10 
  542000    1.0361848   -7.2157318    164.50722  0.025293237  0.025867239            6 
  543000    1.0554477   -7.2005879     165.0391  0.025328284  0.025846273            5 
  544000    1.0313283   -7.2071309    164.30365  0.025169064  0.025825068            3 
  545000    1.0452548   -7.1904309    165.57033  0.025316564  0.025803749            4 
  546000    1.0341468   -7.1893394    165.56066  0.025268721  0.025783158            3 
  547000    1.0352316   -7.1583152    166.22092  0.025323115  0.025762907            4 
  548000    1.0395422   -7.1855127     166.6212  0.025337774  0.025742463            5 
  549000    1.0453725   -7.2393646    165.50116  0.025121609   0.02572206            4 
  550000    1.0213555   -7.1558241    166.64181  0.025248759  0.025701678            4 
  551000     1.011884   -7.1487009    167.42327  0.025321124   0.02568188            2 
  552000    1.0302725   -7.1968373    167.06111  0.025220578  0.025661458            2 
  553000    0.9997932   -7.2165387    166.59775  0.025105147  0.025640706            5 
  554000    1.0141903   -7.1553561    166.96161  0.025114562  0.025619951            3 
  555000     1.016128   -7.1912778    166.95288  0.025068001  0.025599249            7 
  556000    1.0360257   -7.1694303    167.14896  0.025052302  0.025578135            6 
  557000     1.021756   -7.2044914    166.89812  0.024969796  0.025556772            2 
  558000    1.0209603   -7.1948024    166.88474   0.02492305  0.025535121            9 
  559000    1.0434844   -7.2026297     167.1701  0.024921005  0.025513124            4 
  560000    1.0256319   -7.1813033    167.88593  0.024983025  0.025491681            8 
  561000    1.0336763   -7.2522754    167.70694  0.024911905  0.025470472            4 
  562000    1.0336468   -7.1659309    168.59873  0.024999812  0.025449528            4 
  563000   0.99985854   -7.2067748    168.28315  0.024908695  0.025428305            3 
  564000    1.0372525   -7.1875078    167.92281   0.02481129  0.025406809            8 
  565000    1.0447776     -7.16702    168.41761  0.024840355  0.025385585            3 
  566000    1.0313899   -7.1864086    168.69116  0.024836743  0.025364511            4 
  567000    1.0300797   -7.2238404    168.81285  0.024810825  0.025343594            3 
  568000    1.0188795   -7.1925414     168.6182  0.024738586  0.025322444            4 
  569000    1.0177743   -7.2253608    169.37021  0.024805244  0.025301561            4 
  570000    1.0115195   -7.2285492    169.78258  0.024822015  0.025280398           13 
  571000    1.0153922   -7.2203213    169.93907  0.024801382  0.025259251            3 
  572000    1.0049483   -7.2319807    169.34297  0.024671178  0.025237642            4 
  573000    1.0384114   -7.2440425    169.47136  0.024646794   0.02521599            5 
  574000    1.0072885   -7.2418063    169.71571   0.02463933  0.025194784            6 
  575000    1.0234013   -7.1709408    170.63521  0.024729741  0.025173599            4 
  576000    1.0284984   -7.2017351    170.72842  0.024700292  0.025152558            3 
  577000    1.0345406   -7.2476919    170.17602  0.024577703   0.02513163            4 
  578000    1.0201172    -7.197933    170.46867  0.024577375  0.025110507            5 
  579000    1.0289694   -7.2266596    170.79674  0.024582144  0.025089315            4 
  580000    1.0217877   -7.2440693    170.98299  0.024566522  0.025067939            4 
  581000   0.99810835   -7.2446609    171.45725  0.024592262  0.025046855            5 
  582000    1.0229117   -7.2226124    171.36575  0.024536906  0.025026107            7 
  583000    1.0339505   -7.2053055    171.12843  0.024460896  0.025005529            6 
  584000    1.0378206   -7.2501704    171.31078  0.024445031  0.024984414            5 
  585000    1.0126071    -7.213818    171.97749  0.024498218  0.024963318            6 
  586000    1.0114776   -7.2175159    171.52131   0.02439154  0.024941931            4 
  587000   0.99800782    -7.255303    171.89046  0.024402394  0.024920912            3 
  588000    1.0303762   -7.2481176    172.16794  0.024400219  0.024899967            2 
  589000    0.9845311   -7.2119337    172.38888  0.024390051  0.024879161            4 
  590000    1.0149982   -7.2080943    172.75609  0.024400577  0.024858435            4 
  591000     1.010432   -7.2226183    172.81054  0.024366968  0.024838006            3 
  592000    1.0325292   -7.2236754     173.0351  0.024357418   0.02481728            8 
  593000    1.0067521   -7.2387502    173.01869  0.024314038  0.024796693            5 
  594000    1.0204379   -7.2501834    172.86586  0.024251664  0.024775917            3 
  595000    1.0209991   -7.2180252    173.81592  0.024343967   0.02475516            2 
  596000   0.99861981   -7.2754128     173.4855  0.024256921  0.024734378            4 
  597000    1.0057056   -7.2498714    174.08521  0.024300002  0.024713613            7 
  598000    1.0203896   -7.2077909    174.36054  0.024297734  0.024693051            2 
  599000   0.99519556   -7.3016651    174.23846  0.024240186  0.024672284            2 
  600000    1.0153717   -7.2391947     174.2898  0.024206917  0.024651375            1 
  601000    1.0195228   -7.2480512    174.39321  0.024180978   0.02463074           10 
  602000    1.0176303   -7.2488964    175.05295  0.024232136  0.024610525            4 
  603000    1.0203882     -7.21281    175.02214  0.024187692  0.024590591           10 
  604000     1.025782   -7.2480134    175.23469  0.024176972  0.024570437            5 
  605000    1.0219206   -7.2835602    174.86696  0.024086357  0.024549913            6 
  606000    1.0259551   -7.2319817    176.50403  0.024271731  0.024529937            3 
  607000     1.008071   -7.2585387     176.0107  0.024164017  0.024510376            2 
  608000    1.0161528   -7.2236868    176.48133  0.024188779  0.024490762            5 
  609000    1.0053445   -7.2151502    176.80694  0.024193615  0.024471203            8 
  610000    1.0357186   -7.2644331     176.6752  0.024135957  0.024451608            2 
  611000    1.0036696   -7.2561835    176.61868  0.024088745  0.024431652            2 
  612000    1.0274217   -7.2567707    176.78698  0.024072302  0.024411805           12 
  613000    1.0039328   -7.2547289    176.79342  0.024033907  0.024391946            6 
  614000    1.0123174   -7.2532011     176.9834  0.024020548  0.024371703            2 
  615000    1.0086722   -7.2564425    176.81442  0.023958593  0.024351958            4 
  616000    1.0218352   -7.2358943    177.94685  0.024072896  0.024332079            3 
  617000    1.0074921   -7.2912795     176.8528  0.023886116  0.024312154            3 
  618000    1.0143112   -7.2609646    177.39141  0.023920093  0.024291839            3 
  619000    1.0232412   -7.2757871    177.47066  0.023892118  0.024271988            4 
  620000    1.0131853   -7.2789306    177.98407  0.023922591  0.024251974            2 
  621000    1.0138661    -7.264396    177.85185  0.023866324  0.024231873            3 
  622000    1.0117761    -7.267516     178.2387  0.023879783  0.024212122            4 
  623000     1.001703   -7.2699338    178.60447  0.023890378  0.024192372            5 
  624000     1.007669   -7.2831216    178.43467  0.023829416  0.024172392            6 
  625000   0.98860495   -7.2889115    178.94994  0.023859992  0.024152504            5 
  626000    1.0153468   -7.3451422    177.95173  0.023688995  0.024132462            4 
  627000    1.0020511    -7.300626    178.28302  0.023695244  0.024112233            9 
  628000   0.99942996   -7.2794149    178.66151  0.023707737  0.024092121            6 
  629000    1.0037321   -7.2332667    179.20952  0.023742649  0.024072437            4 
  630000   0.98069967   -7.2565542    179.83993  0.023788351   0.02405308            7 
  631000   0.99051744   -7.2951561    179.42641   0.02369604  0.024033719           11 
  632000   0.99673849   -7.2839069    179.07999  0.023612868  0.024013997            4 
  633000   0.99853046   -7.2717478    179.98199  0.023694312  0.023994161            3 
  634000    0.9671045   -7.2946134    179.98077  0.023656779  0.023974909            3 
  635000    1.0124119   -7.2756203    180.35833  0.023669072  0.023955653            5 
  636000    1.0070114     -7.27825    180.12152  0.023600828  0.023936391            3 
  637000    1.0132563   -7.2897752    180.98985  0.023677374  0.023916932            2 
  638000   0.99619188   -7.2527928    180.99767  0.023641284  0.023897397            2 
  639000    1.0079808   -7.2955188     180.7126   0.02356711  0.023877717            5 
  640000   0.97734575   -7.2855135    180.64931  0.023522045  0.023857823            6 
  641000    1.0083794   -7.2752087    180.98355  0.023528803  0.023838013           12 
  642000    1.0006641   -7.2992231    180.59049  0.023441133  0.023817847            5 
  643000   0.97569679   -7.3117117    180.65397  0.023412904  0.023797564            2 
  644000   0.99867051   -7.3479173    180.19691  0.023317406  0.023777054            6 
  645000    1.0007871   -7.3195449    181.17419  0.023407518  0.023756618            4 
  646000    1.0026198   -7.3221842    181.01155  0.023350303  0.023736272            4 
  647000   0.99426445    -7.310704    180.93502  0.023304356  0.023715674            4 
  648000    0.9847091   -7.2678087    181.28396  0.023313266  0.023695336            3 
  649000    0.9792557   -7.2771353    181.78513  0.023341696  0.023675172            7 
  650000    1.0050719   -7.2972478    181.38479   0.02325446  0.023655084            4 
  651000    1.0106933   -7.2939656    181.93872  0.023289647  0.023634914            4 
  652000   0.98922514   -7.3079147    181.86681  0.023244736  0.023614676            7 
  653000   0.98691532   -7.3017684    182.85445  0.023335177  0.023594856            2 
  654000       1.0014   -7.2731516    182.47183  0.023250743  0.023575234            8 
  655000    1.0129801   -7.2849027    182.34235  0.023198772  0.023555207            2 
  656000   0.95606495   -7.3254915    182.00447  0.023120487  0.023534742            8 
  657000   0.97988226   -7.2805825    182.86007   0.02319382  0.023514301            8 
  658000   0.99367058   -7.2738517    183.19757  0.023201314  0.023493993            3 
  659000    1.0010124   -7.3244356    182.41924  0.023067683  0.023473632            2 
  660000   0.98022467   -7.3117906     182.6753  0.023065064  0.023453157            6 
  661000   0.99674878   -7.3197602    182.61865  0.023023027   0.02343239            3 
  662000   0.98766867   -7.3117479    183.35239  0.023080613  0.023411772            3 
  663000    1.0010226   -7.2842699    183.12543  0.023017274  0.023391104            6 
  664000     1.000038   -7.3301623    182.68794  0.022927703  0.023370682            3 
  665000   0.97021892   -7.2712918    183.66728   0.02301595  0.023350122            3 
  666000    0.9970613   -7.2777142    183.94932  0.023016681  0.023329615            5 
  667000    1.0054077   -7.2994604    183.46796  0.022922034  0.023309185            7 
  668000   0.97856689   -7.3206736    183.45157  0.022885675  0.023288341            6 
  669000   0.98478642   -7.3187372    183.65996  0.022877424  0.023267356            3 
  670000   0.96935928   -7.3276026    183.35024  0.022804756  0.023246466            3 
  671000   0.98343699    -7.318628    183.87392  0.022835807  0.023225699            4 
  672000   0.96635166   -7.3358575    184.14081  0.022834922  0.023205085            5 
  673000   0.97469144    -7.285828     184.2864   0.02281902  0.023184745            4 
  674000   0.99979159   -7.2985506    184.63213  0.022827909  0.023164431            4 
  675000   0.97822116   -7.3054613    184.31254  0.022754635  0.023144124            7 
  676000     1.004564   -7.3231499    184.46335  0.022739565  0.023123797            3 
  677000   0.99992982   -7.3703158    184.90682  0.022760563  0.023103307            4 
  678000   0.99453554   -7.3581103    184.87176  0.022722684  0.023082812            2 
  679000    0.9891661   -7.3752657     185.0759  0.022714274  0.023062155            8 
  680000   0.98976353   -7.3233121    185.13106   0.02268763  0.023041517            5 
  681000   0.96975587   -7.3276532    185.37975  0.022684746  0.023021058            3 
  682000   0.96922225   -7.3736436    184.98372  0.022603094  0.023000719            4 
  683000   0.98494377   -7.3455663    185.65254  0.022651603  0.022980609            6 
  684000   0.95711514   -7.3862522    185.48565  0.022598154  0.022960163            7 
  685000    0.9624665   -7.3695192    185.87302   0.02261229  0.022940091            3 
  686000   0.99593659   -7.3699925     186.0897  0.022605648   0.02292031            7 
  687000   0.98282614   -7.3923738    186.45034  0.022616489  0.022900634            4 
  688000   0.99223608   -7.3682352    186.63685  0.022606207  0.022880713            7 
  689000    0.9803902   -7.3340264    186.93721  0.022609725  0.022860729            5 
  690000   0.98180684    -7.346178    187.05446  0.022591119  0.022840679           14 
  691000   0.98399937   -7.3617455    187.59392  0.022623483  0.022821045            8 
  692000   0.97740657   -7.3380189    188.08425  0.022649837  0.022801786            3 
  693000   0.97266704   -7.3676978    187.54447  0.022552245  0.022782545            3 
  694000   0.97545004   -7.3233689    187.54764  0.022520129  0.022763088            4 
  695000   0.99242903   -7.3686642    187.82729  0.022521258  0.022743521            4 
  696000   0.98393111   -7.3124556    187.79661  0.022485227  0.022723987            7 
  697000   0.97307843   -7.3184876    188.09689  0.022488868  0.022704734           14 
  698000   0.99957312   -7.3589274    187.90876  0.022434189  0.022685371            2 
  699000   0.98749305   -7.2920055     189.0568   0.02253896  0.022665932            4 
  700000   0.97268144    -7.312155    188.44363  0.022433766  0.022646703            4 
  701000   0.98758411   -7.3613425    188.35195  0.022390864  0.022627361            8 
  702000   0.97394518   -7.3762662    188.23443  0.022345018  0.022608007            8 
  703000   0.97062517    -7.363852    188.68321  0.022366431  0.022588638            3 
  704000   0.97102021   -7.4085559    188.08334  0.022263653  0.022568847            4 
  705000   0.97426109   -7.3650135    188.33835  0.022262217  0.022549156            5 
  706000   0.96000964   -7.3691997    188.27687  0.022223426  0.022529435            8 
  707000   0.97572126   -7.4079345    188.14054  0.022175924  0.022509398            3 
  708000   0.97134505   -7.3637663     188.7431  0.022215525  0.022489323            3 
  709000   0.97485475   -7.3964299    188.35934  0.022139085  0.022469247            8 
  710000   0.99263894   -7.4029925    188.69345  0.022147119  0.022449407            3 
  711000   0.97792562   -7.3638345    188.79356  0.022127702  0.022429595            5 
  712000   0.96127125   -7.3713303    189.69458  0.022202081  0.022409761            5 
  713000   0.97160208   -7.3776513    189.46606  0.022144233  0.022389899            4 
  714000   0.97116495   -7.3823908    189.84294  0.022157205  0.022370346            2 
  715000   0.95374383   -7.3174579    190.08626  0.022154576  0.022350936            4 
  716000   0.96678774   -7.4021967    190.04061  0.022118321  0.022331673            6 
  717000    1.0000327   -7.3495537     190.7306  0.022167666  0.022312386           10 
  718000   0.98375079   -7.3681863    190.22858  0.022078527  0.022293161            3 
  719000   0.97305626   -7.3614294    189.96234  0.022016961  0.022273731            4 
  720000   0.96768759   -7.3508209    190.16207  0.022009499   0.02225419            5 
  721000   0.98216171   -7.4042118    190.29085  0.021993857   0.02223464            6 
  722000   0.95207281    -7.395194    190.60023  0.021999103  0.022214995            5 
  723000     0.950799   -7.3738146    190.51405  0.021958743  0.022195477           10 
  724000   0.95955958   -7.4005913    190.13898  0.021885242  0.022175659            7 
  725000   0.95077633   -7.4075665    190.55545  0.021902926  0.022155985            7 
  726000    0.9630138   -7.3959886    190.87988  0.021909996  0.022136191            8 
  727000   0.96327522   -7.3964227    191.48048  0.021948702  0.022116752            5 
  728000   0.96520144    -7.394206    191.36918  0.021905812  0.022097229            4 
  729000   0.95842468   -7.3661911     191.6052  0.021902743  0.022077971            5 
  730000   0.98481808   -7.4027123    191.05179  0.021809565  0.022058462            6 
  731000   0.99328853   -7.4289231     191.2732  0.021804971  0.022038927            3 
  732000   0.94991553   -7.3684061    192.22358  0.021883376   0.02201936            2 
  733000   0.96652978   -7.3924149    191.47776  0.021768732  0.021999865            3 
  734000   0.97999535   -7.3787386    191.72393  0.021767022  0.021980308            3 
  735000   0.93316606   -7.3893408    191.83551  0.021750058  0.021960788            4 
  736000   0.95402451   -7.3845093    191.62852   0.02169707  0.021941034            5 
  737000   0.97326045   -7.4300799    191.55692  0.021659534  0.021921195            4 
  738000   0.97706403   -7.4092957    191.56088  0.021630632  0.021901176            3 
  739000   0.95743854   -7.3961084    191.46794  0.021590882   0.02188149            3 
  740000   0.97427574   -7.3615286    192.64104  0.021693811  0.021861815            4 
  741000   0.95605605   -7.4175675    192.45486  0.021643596  0.021842278            4 
  742000   0.95792114   -7.4331228     192.3073  0.021597855  0.021822764            6 
  743000    0.9641354   -7.4242128    192.77562  0.021621312   0.02180338            5 
  744000   0.95802409   -7.4483284    192.54011  0.021565873  0.021783564            5 
  745000   0.94073303   -7.4021362    192.18935   0.02149769  0.021764089            3 
  746000   0.95291485   -7.4125751    192.96023  0.021554986  0.021744408            2 
  747000   0.97229063   -7.4576593    192.89386  0.021518726  0.021724753            9 
  748000   0.93946325   -7.4130164    193.26612   0.02153143  0.021705305            5 
  749000   0.93029619   -7.4471161    193.52391  0.021531365  0.021685875            7 
  750000   0.97434153   -7.4643676     193.3618  0.021484645   0.02166625            6 
  751000   0.96520524   -7.4161002    193.50862  0.021472328  0.021646844            7 
  752000   0.96514204   -7.4467696    193.36912  0.021428316  0.021627464            7 
  753000   0.96122975    -7.416769    193.67106  0.021433274  0.021608105            3 
  754000   0.92996313   -7.4042572    194.18576  0.021461733  0.021589133           13 
  755000   0.91910261   -7.4000045    193.94175  0.021406374  0.021570103            6 
  756000   0.95241174   -7.4297094    193.99754  0.021384208  0.021551123           11 
  757000   0.96645624    -7.422615    194.81881  0.021446369   0.02153211            7 
  758000   0.95606766   -7.4384761    194.98119  0.021435927  0.021513323            9 
  759000   0.94363388   -7.4356786    194.85721  0.021394072  0.021494489            5 
  760000   0.93608407   -7.4323289    195.07351   0.02138964  0.021475917            6 
  761000   0.93855727   -7.4427363     194.9066  0.021343254  0.021457352            6 
  762000   0.93161146   -7.4820701    194.24028  0.021242375  0.021438263            7 
  763000   0.96819092   -7.4341912    195.03684  0.021301533    0.0214192            8 
  764000   0.93279843    -7.417913    195.70435  0.021346461  0.021400399            4 
  765000   0.97151488   -7.4417519    195.00958  0.021242874  0.021381488            6 
  766000    0.9524417   -7.4684973    195.30822  0.021247631  0.021362797            6 
  767000   0.95390427   -7.4271782    195.53178  0.021244218  0.021343862            3 
  768000   0.95970457   -7.4757214    195.16241  0.021176477  0.021324967            5 
  769000   0.95222864   -7.4329017    196.18432  0.021259679  0.021306122            9 
  770000   0.94249688   -7.4896576    195.63835  0.021172981  0.021287572            5 
  771000   0.92962964   -7.4830454    195.51702  0.021132406  0.021268727            3 
  772000   0.94166394   -7.4352825    196.13826  0.021172092  0.021250067            7 
  773000   0.95534452   -7.4188763     196.3049  0.021162667   0.02123157            9 
  774000   0.95876305   -7.4459683    196.42639  0.021148405  0.021212936           12 
  775000   0.95666036   -7.4789251    196.54135  0.021133479  0.021194377            6 
  776000   0.94998769    -7.442828    196.93212  0.021148208  0.021175854            6 
  777000   0.92868126   -7.4535908    196.35687  0.021059295  0.021157486           13 
  778000    0.9408338   -7.4668319    196.85643  0.021085736  0.021139011            5 
  779000   0.93867776   -7.4867183     196.7081  0.021042801  0.021120527            2 
  780000   0.94120224   -7.4832913    197.32766  0.021082015  0.021102095            9 
  781000   0.95495564   -7.4928889    197.48752  0.021072078  0.021083804            8 
  782000   0.94855419   -7.4691272    197.00464  0.020993674  0.021065531            6 
  783000   0.91198327   -7.4625316    197.31052  0.020999417  0.021047181            3 
  784000   0.94540731   -7.4510909    197.20979  0.020961925  0.021028882            4 
  785000   0.94178074   -7.4614455    197.40612  0.020956063  0.021010627            5 
  786000   0.96445744   -7.4563128    197.77474  0.020968484  0.020992149            3 
  787000   0.95014142   -7.4641521    197.34567  0.020896407  0.020973643            4 
  788000   0.89577907   -7.4588444    197.70615   0.02090801  0.020954975           12 
  789000   0.93414207   -7.4555138    197.58162  0.020868358   0.02093657            6 
  790000   0.94659203    -7.455679    198.07403  0.020893885  0.020918375            7 
  791000   0.92552198    -7.474912    198.35644  0.020897223  0.020900257            8 
  792000   0.94191765   -7.4303172    198.46902  0.020882683  0.020882145            9 
  793000    0.9249121   -7.4691628    198.23458  0.020831713  0.020864102           12 
  794000   0.93184838   -7.4641699    198.60192   0.02084403   0.02084605            9 
  795000   0.94005955   -7.4518224    198.50741  0.020807905  0.020827889            6 
  796000   0.94618325   -7.4678289    199.43733  0.020879117  0.020810043            6 
  797000   0.91861283   -7.5184539    197.84875   0.02068682  0.020791888            8 
  798000   0.91600244   -7.4405929    199.59976  0.020843751  0.020773997            7 
  799000   0.93428703   -7.4904473    198.96615   0.02075158  0.020756132            3 
  800000   0.92991152   -7.5141267    199.42581  0.020773522  0.020738168            5 
  801000   0.93286405   -7.5289822    199.17328  0.020721315  0.020720111            5 
  802000   0.93669393   -7.4928866    199.00771  0.020678275  0.020702021           10 
  803000   0.90976978    -7.485825    199.56718  0.020710583  0.020683969            3 
  804000   0.95389409   -7.5027546    199.66023  0.020694469  0.020666074            3 
  805000   0.92146304   -7.4725448    199.86912  0.020690385   0.02064819            4 
  806000   0.92485369   -7.4877519    199.16569  0.020591986  0.020630299            6 
  807000    0.9240922   -7.5199814    199.79371  0.020631321   0.02061231            6 
  808000   0.92516709   -7.4793369    200.11794  0.020639227  0.020594412            3 
  809000   0.92490967   -7.5001151    199.86102  0.020587249  0.020576318            5 
  810000   0.92826927   -7.5059841    200.16625  0.020593235  0.020558472            7 
  811000   0.91028475   -7.5239669    199.95456  0.020546091   0.02054056            3 
  812000   0.92195072   -7.5277682    199.41559  0.020465475  0.020522676            4 
  813000   0.91017215   -7.4916853    200.22199  0.020522959  0.020504684            6 
  814000   0.94221792   -7.5263046    199.88437  0.020463183  0.020486694            6 
  815000   0.91793876   -7.5378823    200.03465  0.020453441  0.020468754           16 
  816000   0.94194859   -7.4636397    200.38623   0.02046428  0.020450717            5 
  817000   0.91231024   -7.4983953    201.18699  0.020520909  0.020432665            5 
  818000   0.91865452   -7.5320915    200.05514  0.020380516  0.020414617            5 
  819000   0.93803237   -7.5371836    201.04507  0.020456356  0.020396574            9 
  820000   0.93417943   -7.5322032    200.87998  0.020414632  0.020378504            9 
  821000   0.94526948    -7.524889    200.66166  0.020367607  0.020360596            7 
  822000   0.91253151   -7.5583692    200.52778  0.020329255  0.020342723            8 
  823000   0.90389478   -7.5528127    201.10155  0.020362652  0.020324889           16 
  824000   0.91019865   -7.5330133    201.77774  0.020406325  0.020307142            4 
  825000   0.94027721   -7.5013961    201.61692  0.020365346    0.0202897            8 
  826000   0.91827776   -7.5166784     201.4273   0.02032156   0.02027224            9 
  827000   0.92953906   -7.5080442    201.65323  0.020319753  0.020254796            5 
  828000    0.9363185    -7.525178     202.4221  0.020372594  0.020237251            5 
  829000   0.92965212   -7.5022965    202.09474  0.020315112  0.020219679            8 
  830000   0.90622165   -7.5188677    201.68886  0.020249886  0.020202176            5 
  831000   0.92888044   -7.5484814    201.58418  0.020215021  0.020184653           12 
  832000   0.89871517   -7.5432168    201.86646  0.020218996  0.020167211           10 
  833000   0.91833377   -7.5207102    202.16477  0.020224567  0.020149881            8 
  834000   0.92047475   -7.5536006     202.6398  0.020247782  0.020132588            3 
  835000   0.93022527   -7.5352544    202.85685  0.020245195  0.020115207            7 
  836000   0.92628131   -7.5577718    202.33148  0.020168609  0.020097882            4 
  837000   0.92103438   -7.5609118    202.00434  0.020111942  0.020080423            8 
  838000   0.92440418   -7.5327075    203.31974  0.020218749  0.020062908            6 
  839000   0.91931839   -7.5547443    202.64473  0.020127606  0.020045588            8 
  840000   0.91643387   -7.5421826    202.30584  0.020070024  0.020028364           16 
  841000   0.92290166   -7.5685512    202.59432  0.020074745  0.020010952           13 
  842000   0.93507526   -7.5335844    203.29552  0.020120301  0.019993599           10 
  843000   0.93271842   -7.5609961    202.70009  0.020037573  0.019976325           10 
  844000   0.91935331   -7.5587203    203.35463  0.020078459  0.019959035            3 
  845000   0.92209831   -7.5776999    203.08414  0.020028022  0.019941793            8 
  846000    0.9246704   -7.5928972    203.05363  0.020001342  0.019924451            4 
  847000   0.92109951   -7.5637236    203.49183  0.020020842  0.019906968            9 
  848000   0.91637548   -7.5671033    203.21608  0.019970134   0.01988953           16 
  849000   0.90714114   -7.5324419    203.64703  0.019988911   0.01987202            6 
  850000   0.93549646   -7.5792778    203.01018  0.019902959  0.019854596            7 
  851000   0.92125382   -7.5466629    203.72116  0.019949193  0.019837336            4 
  852000   0.92514592   -7.5312568    203.83024  0.019936448  0.019820342           15 
  853000   0.90416147   -7.5294577    204.12238  0.019941616  0.019803317            5 
  854000   0.92143906   -7.5563381    204.48236  0.019953392  0.019786224           10 
  855000   0.91526525   -7.5362333    204.13967  0.019896654  0.019768988            7 
  856000   0.92418621   -7.5820853    203.40297  0.019801691  0.019751528            7 
  857000   0.91211275   -7.5269301     203.9313  0.019829959  0.019734076            5 
  858000   0.90825856   -7.5671205    204.04863  0.019818243  0.019716718            3 
  859000   0.92883688   -7.5562681    204.23801  0.019813544   0.01969946           12 
  860000   0.92025017   -7.5774053    203.84225  0.019752156  0.019682071           14 
  861000   0.93786245   -7.5863434    203.95658   0.01974028  0.019664714            8 
  862000   0.91587644   -7.5742631    204.07074  0.019728417  0.019647337            5 
  863000   0.89299785   -7.5968534    204.13431  0.019711695  0.019629974            6 
  864000     0.929518    -7.586936    204.71513    0.0197449  0.019612761            8 
  865000   0.90552553   -7.5869274    204.22889   0.01967523  0.019595398            5 
  866000    0.8984142   -7.6286859    204.76645  0.019704239  0.019578041            4 
  867000   0.89243071   -7.6171733    204.58249   0.01966383  0.019560768            5 
  868000   0.91790104   -7.6159393    204.17944  0.019602481  0.019543388            5 
  869000   0.92073265   -7.5894435     204.8355  0.019642836  0.019526082           10 
  870000     0.903524   -7.5775607     204.6624  0.019603678  0.019508916            5 
  871000   0.88930183   -7.5879229    204.98321  0.019611864   0.01949178            7 
  872000   0.90678983   -7.5432154    205.80551  0.019667958  0.019474531            6 
  873000   0.91683263   -7.5493037    205.33893   0.01960089  0.019457238            6 
  874000   0.90748881   -7.5606346    205.08338  0.019554098  0.019440123            3 
  875000   0.89087588   -7.5747328     205.7836  0.019598439  0.019422975            4 
  876000   0.91277828   -7.6092811    205.35845  0.019535621  0.019405853            7 
  877000   0.91714803   -7.5913538    205.67772  0.019543683  0.019388714           14 
  878000   0.91489653   -7.5749374    205.56716   0.01951093  0.019371684           12 
  879000   0.89966122   -7.6333122    205.20819  0.019454701  0.019354558            6 
  880000   0.89470194   -7.6029379    205.50705  0.019460894  0.019337553            9 
  881000   0.91699879   -7.6192786    205.71085  0.019458083  0.019320538            5 
  882000   0.89776179   -7.5846021    206.09491  0.019472308  0.019303616            8 
  883000   0.90157741   -7.5906798    206.18831  0.019459071  0.019286801            5 
  884000   0.89292618   -7.5878637    206.61965  0.019477719  0.019270028           27 
  885000   0.89106887   -7.5974977    206.29784  0.019425408  0.019253358            6 
  886000   0.91546625    -7.597713    206.85531  0.019455917  0.019236661            5 
  887000   0.90084178   -7.6352361    205.82491  0.019337177  0.019219788           14 
  888000     0.898101   -7.6103083    206.52334  0.019380944  0.019202799            7 
  889000   0.89043449   -7.6141108     206.1806  0.019327015  0.019185881           10 
  890000   0.87384486   -7.5984573     206.9485    0.0193772     0.019169            2 
  891000   0.91214371   -7.5831246    207.32926  0.019391064  0.019152358            5 
  892000   0.91423396   -7.6177165    206.31916  0.019274959  0.019135705            8 
  893000   0.91376848   -7.5795152    207.01434  0.019318248  0.019119003            5 
  894000   0.88461608   -7.5719222    207.30521  0.019323752  0.019102484           10 
  895000   0.90011472   -7.6002413    207.34882  0.019306222  0.019085957            5 
  896000   0.88999076   -7.6130834    207.32852  0.019282787  0.019069461            8 
  897000   0.89742175   -7.6520122    206.80246  0.019212417  0.019052854           17 
  898000   0.90387733   -7.6017181    207.90775  0.019293592   0.01903632            6 
  899000   0.90310125   -7.6330618    207.43968  0.019228743  0.019019676            9 
  900000   0.91310555   -7.5953429    207.84765  0.019245152  0.019003123           10 
  901000   0.88808342   -7.5983798    208.51295  0.019285326  0.018986706            6 
  902000   0.89168617   -7.6144297     207.6642  0.019185532  0.018970226            5 
  903000   0.90968754   -7.6251035     207.9692  0.019192433  0.018953803            9 
  904000   0.91080937   -7.5913931    208.06249  0.019179802  0.018937613            4 
  905000   0.90034209   -7.6024856    208.60126  0.019208219  0.018921389            5 
  906000   0.88698509   -7.6271321    208.24748  0.019154478  0.018905195            9 
  907000   0.87809006   -7.6497291    208.03679  0.019114002  0.018888818            6 
  908000   0.90853545   -7.6322597    207.73118  0.019064902  0.018872417           17 
  909000   0.87347564   -7.6472835    208.12341  0.019079887  0.018856008            8 
  910000   0.89169326   -7.6055047    208.38478  0.019082855   0.01883963           13 
  911000   0.89992715   -7.6267445     208.7181  0.019092398  0.018823429            4 
  912000   0.89002554   -7.6158968    209.52975  0.019145628  0.018807308           17 
  913000     0.909473   -7.6168089    209.08017  0.019083623  0.018791218            8 
  914000   0.90178129   -7.6070386    209.00215   0.01905563  0.018775111            9 
  915000     0.885155   -7.6535423    209.02353  0.019036751  0.018759028           10 
  916000   0.88504243   -7.6584412    209.20832   0.01903278  0.018742925           29 
  917000   0.89448861   -7.6155046    209.24091  0.019014986  0.018726764           21 
  918000   0.89341034   -7.6724091    208.95541  0.018968356  0.018710694           14 
  919000   0.88812363   -7.6275318    209.53024   0.01899984  0.018694528            9 
  920000   0.87878958   -7.6463118    209.51185  0.018977523  0.018678471           12 
  921000    0.8906543   -7.6250655    210.02051  0.019002941  0.018662471           19 
  922000   0.90431336   -7.6175368    209.73522  0.018956545  0.018646542            6 
  923000   0.88627547     -7.62945    210.04999  0.018964426  0.018630598           23 
  924000   0.88663945   -7.6242124    210.01457  0.018940708  0.018614784           12 
  925000   0.88117856   -7.6858627    209.60746  0.018883555   0.01859868            6 
  926000    0.8772202   -7.6800827    209.27529  0.018833269  0.018582497            5 
  927000   0.87689911   -7.6472021    209.58826  0.018841088  0.018566393           12 
  928000   0.86702847   -7.6196003    210.47303  0.018900236  0.018550277           10 
  929000   0.87905049   -7.6528021    209.32409  0.018776829  0.018534301           10 
  930000   0.87757363   -7.6982155    209.40388  0.018763788  0.018518109            8 
  931000   0.86454634   -7.6608318    209.78671  0.018777901  0.018502077            8 
  932000   0.90052842   -7.6722087    209.77129  0.018756375  0.018486099            8 
  933000     0.873755   -7.6883975     209.6288  0.018723544  0.018470001            3 
  934000   0.89454507   -7.6488922    210.21358  0.018755673  0.018453933            8 
  935000   0.87551999   -7.6479987      209.913  0.018708824  0.018437836            4 
  936000   0.86587912   -7.6150226     209.9728   0.01869416  0.018421708           10 
  937000   0.88166855   -7.6522844     209.9304  0.018670437  0.018405622            5 
  938000   0.86887997   -7.6176106     210.6307  0.018712749  0.018389597            9 
  939000   0.87627188   -7.6770013    209.73505  0.018613334   0.01837367            9 
  940000   0.87006722   -7.6761181    209.92169  0.018610079  0.018357597           25 
  941000   0.88566833   -7.6889235    210.36971  0.018629978  0.018341551            9 
  942000   0.84733327   -7.6699881    210.38071  0.018611174  0.018325425            7 
  943000   0.86077044   -7.6127117     210.9157  0.018638715   0.01830943            6 
  944000    0.8861562   -7.6321054    210.66033  0.018596428  0.018293527           10 
  945000    0.8827719   -7.6419201    210.30279   0.01854522  0.018277606           17 
  946000   0.85910916   -7.6531577    210.30347  0.018525676  0.018261571           13 
  947000   0.88407736      -7.6528    211.37477  0.018600384  0.018245616           23 
  948000   0.87547091    -7.667739    210.50386  0.018504207  0.018229677           20 
  949000   0.87931621   -7.6203202    211.38673  0.018562235  0.018213867            7 
  950000   0.86738739   -7.6529113     211.5172   0.01855414  0.018198179            5 
  951000   0.87800426   -7.6872911    210.92681  0.018482896  0.018182159           10 
  952000   0.87551131   -7.6764453    210.87412  0.018458869  0.018166194           14 
  953000   0.87171119   -7.7215825    210.45372  0.018402738  0.018150127            9 
  954000   0.87875214   -7.7097173      210.625   0.01839841  0.018133926            5 
  955000   0.87707272   -7.6762605      210.682  0.018384118  0.018117762           10 
  956000   0.87032382   -7.6868815    211.10267  0.018401558  0.018101702           24 
  957000   0.86118465   -7.6891504    211.08011  0.018380365  0.018085679           41 
  958000   0.86232694   -7.6694727    211.14152  0.018366521  0.018069674           15 
  959000   0.86566481   -7.6797575    211.20735  0.018353089  0.018053731           23 
  960000   0.88261995   -7.6905789    210.84813  0.018302789  0.018037795           17 
  961000   0.88302059   -7.7082343    210.91112  0.018289206  0.018021719           27 
  962000   0.87311237   -7.7004244    210.84805   0.01826473  0.018005703            7 
  963000   0.87027342   -7.6929422    211.27907  0.018283063  0.017989763           10 
  964000   0.85880215   -7.7054819     211.2332  0.018260131  0.017973727            8 
  965000    0.8593293   -7.7352217    211.31674  0.018248423  0.017957623            9 
  966000   0.86377372    -7.729365    210.92582  0.018195809  0.017941524            5 
  967000   0.86736931   -7.7245418    211.23686  0.018203797  0.017925505            8 
  968000   0.86678749   -7.7089457    211.29739  0.018190202  0.017909448            8 
  969000   0.87525506   -7.7048983    211.54537  0.018192756  0.017893506            7 
  970000   0.86961004   -7.7105979    211.61874  0.018180304  0.017877396           10 
  971000    0.8821944   -7.7271172    211.49723  0.018151153  0.017861301            7 
  972000   0.86328265   -7.7108619    211.03017  0.018092436  0.017845092            7 
  973000   0.86973933   -7.7165767     211.2558  0.018093166  0.017828859            7 
  974000   0.86339227   -7.7320695    210.95533  0.018048882  0.017812678            6 
  975000   0.85346767   -7.7183126    211.56586  0.018082553  0.017796528            6 
  976000   0.86609996   -7.7695902    211.42342  0.018051863  0.017780411            5 
  977000   0.86746627   -7.7502686    210.98144  0.017995687  0.017764241            6 
  978000   0.86878864   -7.7668683    211.72912  0.018040995  0.017748001           14 
  979000   0.84802387   -7.7200752    211.30771  0.017986697  0.017731829           14 
  980000   0.84657273   -7.7130348    212.07011  0.018033173   0.01771573            4 
  981000   0.87070772   -7.7220527    211.78979  0.017990977  0.017699699           17 
  982000   0.86700118   -7.7387777    211.60749  0.017957187  0.017683573            6 
  983000   0.84802429   -7.7469915    211.77019  0.017952712  0.017667471           10 
  984000   0.84517136   -7.7222126    211.64821  0.017924137  0.017651488            5 
  985000   0.87045914   -7.7514726    211.79644  0.017918481   0.01763558           13 
  986000   0.85932639   -7.7378362    212.27911  0.017941101  0.017619508           12 
  987000   0.85630437    -7.772749    211.85075  0.017886757  0.017603542           10 
  988000   0.85102065   -7.7335152    212.60988  0.017932682  0.017587628           23 
  989000   0.84203228   -7.7132879    212.55958  0.017910311  0.017571838            6 
  990000   0.86554511    -7.708389    212.44419  0.017882508  0.017556085           15 
  991000   0.87489536   -7.6857625    212.80657  0.017894935  0.017540264            9 
  992000   0.85284206   -7.7158792     213.0512  0.017897446  0.017524657           17 
  993000   0.84996257   -7.7511674    212.56302  0.017838454  0.017508971           41 
  994000   0.84423216   -7.7125949    212.84811  0.017844409  0.017493178           22 
  995000   0.86307012   -7.7584729    212.12966  0.017766303  0.017477318           15 
  996000   0.85793913    -7.736697    212.43753  0.017774225  0.017461492            7 
  997000   0.85072139   -7.7130721    213.05729  0.017808199  0.017445711            5 
  998000   0.87034066   -7.7381355    212.32098  0.017728873  0.017429887           36 
  999000   0.86064719   -7.7245933    212.13135  0.017695308  0.017414055           24 
 1000000    0.8542586   -7.7582884    212.28499  0.017690416  0.017398285           41 
 1001000   0.86124337   -7.7212905    212.97166  0.017729908  0.017382491           19 
 1002000    0.8518842   -7.7058639    213.11705  0.017724306  0.017366855           21 
 1003000   0.85950897   -7.6941377    212.95768  0.017693394  0.017351228           13 
 1004000   0.85112307   -7.7445744    213.06903  0.017685012  0.017335528           15 
 1005000   0.85975925   -7.7281285    212.52242  0.017622091  0.017319881            8 
 1006000   0.83995433   -7.7472064     213.0189  0.017645701  0.017304323           12 
 1007000   0.83601166   -7.7424015    213.38385  0.017658379  0.017288672            7 
 1008000   0.85248669   -7.7512315    212.83084  0.017595142  0.017273029            8 
 1009000   0.85809245   -7.7576458    213.12277  0.017601815  0.017257411            8 
 1010000   0.85116183   -7.7434555    213.29584  0.017598666  0.017241961            9 
 1011000    0.8720475   -7.7288693    213.93739   0.01763414  0.017226547           11 
 1012000   0.85946657   -7.7541758    212.93675  0.017534318  0.017211112            5 
 1013000   0.83367126   -7.7492442    213.67752  0.017577947  0.017195548            6 
 1014000    0.8360767   -7.7159293     213.9869  0.017586037  0.017180059            7 
 1015000   0.82747413   -7.7210366    213.33165  0.017514914  0.017164669            8 
 1016000   0.83645695   -7.7117034    214.07234  0.017558427  0.017149276           11 
 1017000   0.83837687   -7.7277339     214.0025  0.017535439  0.017133972            3 
 1018000   0.84520809   -7.7248261    214.48777  0.017557938  0.017118672            9 
 1019000   0.82035239   -7.7287397     214.2241  0.017519145  0.017103404            5 
 1020000   0.84333437   -7.7250687    214.37532  0.017514324  0.017088035           12 
 1021000   0.84366553   -7.7362022    214.19535   0.01748248  0.017072722           14 
 1022000   0.84038239   -7.7431626    214.67294  0.017504317  0.017057452            8 
 1023000   0.84118406   -7.7476215    214.59786   0.01748109   0.01704221            9 
 1024000   0.86025349   -7.7700238    214.52687  0.017458242  0.017026994            6 
 1025000   0.82815405   -7.7548132    214.36623  0.017428149  0.017011783           10 
 1026000   0.85483061   -7.7593166    213.90762  0.017373913  0.016996518           18 
 1027000   0.83482508   -7.7513767    214.60411  0.017413511  0.016981253           13 
 1028000   0.83934331   -7.7843109    214.49123  0.017387422  0.016966039            8 
 1029000   0.85285737   -7.7815084    214.82235  0.017397339  0.016950791            9 
 1030000   0.83916108   -7.7709522    214.37237  0.017344043  0.016935657           10 
 1031000   0.84082384   -7.7678581    214.81609  0.017363085   0.01692064           20 
 1032000   0.84723601   -7.7675589    214.64353  0.017332326  0.016905523           12 
 1033000   0.83199051   -7.7633733     214.3127  0.017288859  0.016890322            8 
 1034000   0.84532268   -7.7558151    214.70184  0.017303501  0.016875122            9 
 1035000   0.85161216   -7.7573783    214.18519  0.017245184  0.016859968           15 
 1036000   0.85459872   -7.7951515    214.67576  0.017267999  0.016844794           49 
 1037000   0.85459092   -7.7795986    214.32741  0.017223354   0.01682954           12 
 1038000   0.83805058   -7.7503807    214.52869   0.01722292  0.016814351           18 
 1039000   0.83298676   -7.7699547    214.32885  0.017190315   0.01679914           12 
 1040000   0.83447101   -7.7975797    214.13994  0.017158649  0.016783926           19 
 1041000   0.84145891   -7.8061016    214.10124  0.017139068  0.016768575           21 
 1042000   0.84214987   -7.8094312    214.48899   0.01715363  0.016753328           12 
 1043000   0.84579688   -7.8297914    214.42212  0.017131841  0.016737973           16 
 1044000    0.8039179    -7.809233    214.35794  0.017110308  0.016722646            9 
 1045000    0.8371282   -7.7855245    214.58886   0.01711235  0.016707332           13 
 1046000   0.85318113   -7.7710166    214.06854  0.017054536   0.01669205           10 
 1047000   0.83982543   -7.8025662    214.53767  0.017075587   0.01667673           21 
 1048000   0.85009948   -7.8033952    214.14782  0.017028294  0.016661378           11 
 1049000    0.8323374   -7.7631234    214.79753  0.017063674   0.01664604            5 
 1050000   0.82655434   -7.8206205    214.36191   0.01701285  0.016630665           10 
 1051000   0.85794777   -7.7888816    214.35014  0.016995729  0.016615296           16 
 1052000   0.81558049   -7.8149174     214.4405  0.016986731   0.01659999           13 
 1053000   0.83633921   -7.7733352    214.83188  0.017001574  0.016584693           17 
 1054000   0.82805694   -7.8183634    214.27349  0.016941294  0.016569424            7 
 1055000   0.82581289   -7.8215245    214.24795  0.016923218   0.01655414            6 
 1056000   0.84899148   -7.7864845     214.8266  0.016952857  0.016538912           12 
 1057000   0.82303109   -7.8076292    215.24224  0.016969587  0.016523679           10 
 1058000    0.8366857   -7.8111471    214.46538  0.016892358  0.016508441           10 
 1059000   0.83202377   -7.8042071    214.81698  0.016904074  0.016493236           18 
 1060000   0.83351556   -7.8389372    214.70664  0.016879453  0.016477934           16 
 1061000   0.83611744   -7.8221988    215.05689  0.016891053   0.01646266           13 
 1062000    0.8340533   -7.8364543     214.1867  0.016806866  0.016447357            4 
 1063000   0.82607423   -7.8428982    214.63845   0.01682647  0.016432056            9 
 1064000   0.82997281   -7.8185718    214.48703  0.016798796   0.01641675           16 
 1065000   0.84935996   -7.7841299    214.82689  0.016809616  0.016401514           18 
 1066000    0.8098216   -7.8267627    214.51152  0.016769193  0.016386276           14 
 1067000    0.8477417    -7.837237    214.78005  0.016774449   0.01637098           14 
 1068000    0.8218407   -7.8240417    214.74201  0.016755775  0.016355675            8 
 1069000   0.82909877   -7.8527592    214.46889   0.01671881  0.016340414           21 
 1070000   0.82415506   -7.8326922    214.56594  0.016710743  0.016325105           21 
 1071000   0.83972768   -7.8424521    214.48623  0.016688938  0.016309842           12 
 1072000   0.82914237   -7.8507977     214.8256  0.016699751  0.016294708           18 
 1073000    0.8166283   -7.8334336    215.57958  0.016742745  0.016279542           10 
 1074000   0.82238881   -7.8248927    214.49199  0.016642768  0.016264373            9 
 1075000   0.81137699   -7.8758483    214.89234  0.016658321  0.016249204           13 
 1076000   0.80748914   -7.8382278    214.87216  0.016641276  0.016233998           16 
 1077000   0.84361297    -7.849624        214.6  0.016604767  0.016218837            7 
 1078000   0.82047333   -7.8310555    214.97599  0.016618429   0.01620376           10 
 1079000   0.81174098   -7.8855677    215.22532  0.016622283  0.016188676           23 
 1080000    0.8096277   -7.8518967    214.89262  0.016581221   0.01617362           14 
 1081000   0.84137243    -7.850643    214.90875  0.016567125  0.016158552           17 
 1082000   0.81722555   -7.8511072      215.109  0.016567237  0.016143499            8 
 1083000   0.79799049   -7.8223986    214.75142  0.016524424  0.016128388            6 
 1084000   0.84179025   -7.8275409    215.32599  0.016553351  0.016113331           26 
 1085000   0.81008939   -7.8302166     215.2457  0.016531928  0.016098306           13 
 1086000   0.85524107   -7.8133765     215.6032  0.016544137  0.016083373           14 
 1087000   0.82985879   -7.8273319    215.59038  0.016527935  0.016068377            7 
 1088000   0.82877019   -7.8547029    215.40855  0.016498816  0.016053413           12 
 1089000   0.82250783    -7.852019    215.93231  0.016523746  0.016038481            8 
 1090000   0.82276464   -7.8482685    214.90704  0.016430201  0.016023448           12 
 1091000   0.82716211   -7.8752818     215.5402  0.016463505  0.016008444           23 
 1092000   0.81118953   -7.8563387    215.53092   0.01644772  0.015993576           10 
 1093000   0.82356014   -7.8657304    215.61443  0.016439039  0.015978642           10 
 1094000   0.82071829   -7.8564926    215.98164  0.016451984  0.015963707            9 
 1095000   0.81012504   -7.8664778    215.07907  0.016368271    0.0159488           10 
 1096000    0.8352946   -7.8450178    215.85267  0.016412156  0.015933995           13 
 1097000   0.81532293   -7.8358995    216.05032  0.016412209  0.015919144           23 
 1098000   0.81325347   -7.8570775    215.80375  0.016378548  0.015904338            8 
 1099000   0.81217833   -7.8729847    215.59163   0.01634756  0.015889601            7 
 1100000   0.80305156   -7.9048819    215.53022  0.016328047  0.015874807           11 
 1101000   0.81053996   -7.8646576    216.00545  0.016349187  0.015860055            9 
 1102000   0.80428126    -7.854527    216.39755  0.016364001  0.015845313            6 
 1103000   0.80469749   -7.8668331    216.43241  0.016351799  0.015830555           18 
 1104000   0.81462604    -7.896394    215.66248  0.016278871  0.015815784           12 
 1105000   0.80418821   -7.8763987    216.15843  0.016301541  0.015801023           10 
 1106000   0.81274202   -7.8456926     216.1019  0.016282542  0.015786263            9 
 1107000   0.82673471   -7.8559296     215.8184  0.016246492  0.015771522           12 
 1108000   0.82519548   -7.8830423      214.857  0.016159521  0.015756663           20 
 1109000   0.78716916   -7.8822541    215.57695   0.01619905  0.015741828           19 
 1110000   0.82124621   -7.8572838    215.72811  0.016195804  0.015727039           16 
 1111000   0.82586286   -7.8608497    215.37497  0.016154738  0.015712278           13 
 1112000   0.79339437   -7.8565852    216.08482  0.016193407  0.015697492           11 
 1113000   0.81655483   -7.8524193    216.15504  0.016184115  0.015682759           12 
 1114000   0.80605514   -7.8704549    215.98826  0.016157111  0.015668014           10 
 1115000   0.80611464   -7.8826935     215.7981  0.016128408  0.015653221           12 
 1116000   0.80498751   -7.9069516    215.16461  0.016066652  0.015638386           12 
 1117000   0.80367735   -7.9043825    215.60884   0.01608541  0.015623542           11 
 1118000   0.80768323   -7.8890694    215.79549  0.016084935  0.015608622           10 
 1119000   0.79627105   -7.8830962    215.54336  0.016051784   0.01559381           19 
 1120000   0.81040254   -7.9134093    215.93354  0.016066484  0.015579001           14 
 1121000   0.80182214   -7.9285734    215.69509  0.016034425  0.015564222           11 
 1122000    0.7975759   -7.9057315    215.90419  0.016035665  0.015549496           13 
 1123000   0.81762219   -7.9142909    216.15456  0.016039964  0.015534772           11 
 1124000   0.80082698   -7.9393516    215.33949  0.015965265  0.015520016           21 
 1125000   0.80003956   -7.9133526    215.54766  0.015966493  0.015505231           21 
 1126000   0.80027091   -7.9282919     215.2504  0.015930314  0.015490472           15 
 1127000   0.81952394   -7.8941753    215.57256      0.01594  0.015475716           15 
 1128000   0.79481694   -7.9416858    215.23568  0.015900981  0.015460974           19 
 1129000     0.805855   -7.9211287    215.20687   0.01588477  0.015446282            8 
 1130000   0.80273637   -7.9092613    215.37395  0.015883035  0.015431581            5 
 1131000   0.79855459   -7.8960174    215.89624  0.015907474  0.015416887           17 
 1132000   0.79311884   -7.8754246    216.43688  0.015933221  0.015402278           17 
 1133000   0.79418197   -7.8849963    215.73612  0.015867617  0.015387675           32 
 1134000   0.80217883   -7.9137955    215.83646  0.015860998  0.015372971           35 
 1135000   0.80712682   -7.9044329    215.71226  0.015837905   0.01535822           26 
 1136000   0.80065402   -7.9260543    215.31772  0.015795021  0.015343449           35 
 1137000   0.79030133   -7.9331496    215.59524  0.015801469  0.015328633           14 
 1138000   0.81517614   -7.9489054    215.05055  0.015747697  0.015313736           16 
 1139000   0.79324544   -7.9323611    215.34092  0.015755116  0.015298932           18 
 1140000   0.79696467     -7.93234     215.5528  0.015756784  0.015284221           19 
 1141000   0.81293804   -7.8904146    215.86309  0.015765636  0.015269496           14 
 1142000   0.80216141   -7.9405512    215.33924  0.015713605  0.015254781           13 
 1143000   0.81082179   -7.9281751    215.90258  0.015740929  0.015240044            8 
 1144000   0.80777008    -7.918704    215.63509  0.015707684  0.015225315           10 
 1145000   0.80066813   -7.9643753    215.10443  0.015655344  0.015210589           10 
 1146000   0.79357197   -7.9756438     215.4078  0.015663744  0.015195778            5 
 1147000    0.7754541   -7.9461001    215.42077   0.01565103  0.015180996           15 
 1148000   0.80011381   -7.9550772    215.07736  0.015612468  0.015166275            8 
 1149000   0.79447345   -7.9783222    214.79738  0.015578574  0.015151534           15 
 1150000   0.77757651   -7.9446975    215.45603  0.015612756  0.015136796           12 
 1151000   0.78813563   -7.9569957    215.55944  0.015606678  0.015122038            9 
 1152000   0.80490324   -7.9602173    215.30788  0.015574933  0.015107351           17 
 1153000   0.79749417   -7.9671256    215.32958  0.015562993  0.015092663           16 
 1154000   0.78229789   -7.9663384    215.91432  0.015591733     0.015078            8 
 1155000   0.78440983   -7.9600079    215.64199  0.015558585  0.015063315           12 
 1156000   0.78421785   -7.9530303    215.84423  0.015559705  0.015048676           24 
 1157000   0.79149445   -7.9741115    215.21923  0.015501241  0.015034059            9 
 1158000   0.77074082   -7.9445156    216.27179  0.015563601  0.015019459           18 
 1159000   0.79175594   -7.9510982    215.16295  0.015470445   0.01500492           17 
 1160000     0.790213   -7.9826954    215.75911  0.015499936  0.014990398           14 
 1161000   0.79499659   -7.9678189    215.38916  0.015460032  0.014975865           19 
 1162000   0.78679916   -7.9567476    215.67222  0.015467026  0.014961283            8 
 1163000   0.79171424   -7.9401036    215.31912  0.015428426  0.014946777            8 
 1164000   0.79764054   -7.9335466    215.78483  0.015448513  0.014932298           11 
 1165000   0.79634519   -7.9436772    215.29643  0.015400317  0.014917857           15 
 1166000   0.79160024    -7.970436    215.15794  0.015377211  0.014903359           18 
 1167000   0.78967315   -7.9664391    215.73321  0.015405114   0.01488893           17 
 1168000   0.78155516   -7.9476811     215.5684  0.015380166  0.014874487            9 
 1169000   0.78600094   -7.9428619    215.82791  0.015385508  0.014860092           12 
 1170000   0.78628389   -7.9454616    215.68586  0.015362241  0.014845625           13 
 1171000   0.78876873   -7.9251825    215.73684   0.01535275  0.014831241           25 
 1172000    0.7791559   -7.9623566    215.84461  0.015347313  0.014816875           13 
 1173000   0.79486006     -7.96885    215.76027  0.015328238   0.01480242           14 
 1174000   0.77806871   -7.9710626    215.46162  0.015293982  0.014788008           15 
 1175000     0.766455   -7.9534857    215.44381  0.015279703  0.014773624           20 
 1176000    0.7776136    -7.965733    215.47884  0.015269192   0.01475926           22 
 1177000   0.79089586   -7.9785579    215.69427  0.015271472   0.01474489           19 
 1178000   0.77280165   -8.0129075    215.42108  0.015239182  0.014730527           17 
 1179000   0.76542539   -7.9942435    215.83268  0.015255349  0.014716167           25 
 1180000   0.80337994   -7.9814448    215.90256  0.015247356  0.014701907           18 
 1181000   0.76463518   -8.0015719    215.02971  0.015172856  0.014687608           42 
 1182000    0.7876332    -7.978409    215.76988  0.015212202  0.014673248           74 
 1183000   0.78389211   -7.9841546    215.59114  0.015186753  0.014658855           39 
 1184000   0.77918468    -7.985566    215.67073  0.015179528  0.014644525           30 
 1185000   0.77533316   -7.9852444     215.5905  0.015161076  0.014630186           22 
 1186000     0.763027   -7.9777387    215.81867  0.015164325  0.014615853           19 
 1187000   0.76891376      -7.9995     215.8193  0.015151594  0.014601609           18 
 1188000   0.77891686   -7.9648287    216.16384  0.015163008  0.014587379           13 
 1189000   0.77907925   -8.0099325    215.58458  0.015109656  0.014573114           18 
 1190000   0.78645006    -8.050584    215.51629  0.015092177  0.014558852           16 
 1191000   0.77470144   -8.0199003     215.6809  0.015091023  0.014544613            9 
 1192000   0.77950137   -8.0347715    215.46237  0.015063085  0.014530364           19 
 1193000   0.77226356    -8.034443    215.63868  0.015062774  0.014516072           27 
 1194000   0.77880951   -8.0281852    215.40326  0.015033728  0.014501795           29 
 1195000   0.77061935   -8.0261044    215.55265  0.015031566  0.014487544           23 
 1196000   0.78249071   -8.0163992    215.79348  0.015035777  0.014473301           22 
 1197000   0.78727234   -8.0192037    215.86306  0.015028061  0.014459068           26 
 1198000    0.7816827    -8.014494    215.78629  0.015010176  0.014444893           26 
 1199000   0.76661486   -8.0193519    215.70134  0.014991753  0.014430747           39 
 1200000   0.77687754   -8.0327579    215.27388  0.014949575  0.014416615           21 
 1201000   0.77711602   -8.0238717    215.74887  0.014970085  0.014402509           21 
 1202000   0.77314029     -7.99192     216.0733  0.014980123  0.014388467           13 
 1203000   0.80241785   -8.0349197    215.63307  0.014937176  0.014374428           38 
 1204000   0.75631575   -8.0524956     215.6153  0.014923539  0.014360335           28 
 1205000   0.76255123    -8.048778    215.83558  0.014926389  0.014346244           47 
 1206000   0.76909852   -8.0294397    215.83432  0.014913925  0.014332192           36 
 1207000    0.7648314   -8.0747035    215.17965  0.014856369  0.014318138           14 
 1208000    0.7663521   -8.0584185    215.64255  0.014876004  0.014304069           44 
 1209000   0.77803168   -8.0198925    216.21645  0.014903257  0.014290027           33 
 1210000   0.79544539   -8.0218277    216.18286  0.014888627  0.014275982           57 
 1211000   0.76749924   -8.0660837    215.55355  0.014833027  0.014261934           49 
 1212000   0.77318287   -8.0514899    215.42054  0.014811643  0.014247911           57 
 1213000   0.75225835   -8.0178579     215.8739  0.014830578  0.014233883           31 
 1214000   0.79203513   -8.0978471    215.29537   0.01477865  0.014219838           56 
 1215000   0.77315648   -8.0465812    215.93887  0.014810622  0.014205781           50 
 1216000    0.7647735   -8.0523724    215.52215  0.014769884  0.014191743           43 
 1217000   0.77331811   -8.0561388    215.78472  0.014775727  0.014177754           31 
 1218000   0.77150226    -8.025958    215.62418  0.014752612  0.014163769           50 
 1219000   0.76361899   -8.0597283    215.36352  0.014722691  0.014149833           54 
 1220000   0.75968632   -8.0189678    215.74695  0.014736814  0.014135876           42 
 1221000   0.76193265   -8.0649403    215.69931  0.014721493  0.014121909           56 
 1222000   0.74616472   -8.0445579    215.80631  0.014716743  0.014107968           55 
 1223000   0.76180749   -8.0726448    215.71475  0.014698471  0.014094026           44 
 1224000   0.75622567   -8.0892789    214.79393   0.01462377  0.014080106           39 
 1225000   0.76088434   -8.0462531    215.60915  0.014667289  0.014066143           32 
 1226000   0.77559804   -8.0607636    215.90119  0.014675176  0.014052269           40 
 1227000   0.77307937    -8.021473    216.22395  0.014685136   0.01403841           37 
 1228000   0.77899004   -8.0636174    215.77164  0.014642484  0.014024578           67 
 1229000   0.78091923   -8.0763666    215.79832  0.014632379  0.014010783           75 
 1230000   0.75051327   -8.0416277    215.97987  0.014632782  0.013997039           31 
 1231000   0.76437594   -8.0782228    215.65552  0.014598939  0.013983244           37 
 1232000   0.77330833   -8.0605146    215.93674  0.014606111  0.013969458           34 
 1233000   0.75846447   -8.0629308    215.29411  0.014550832  0.013955716           15 
 1234000   0.75020212   -8.0680862     215.8426  0.014576081  0.013941932           60 
 1235000   0.76174779   -8.0743278    215.84527  0.014564458  0.013928123           34 
 1236000   0.76543664   -8.0787805    215.52175  0.014530862  0.013914331           42 
 1237000   0.77147128   -8.0625123    216.20559  0.014565184  0.013900584           30 
 1238000   0.76332999   -8.0858531    216.22618  0.014554805  0.013886837           27 
 1239000   0.75402212   -8.0886232    215.78399  0.014513317  0.013873046           29 
 1240000   0.72948829   -8.0778091      215.912  0.014510215  0.013859268           41 
 1241000   0.77089976   -8.1020938    215.34629  0.014460535  0.013845487           25 
 1242000   0.75913721   -8.1214903    215.50584  0.014459598  0.013831744           18 
 1243000   0.74022461   -8.1216993    215.04989  0.014417397  0.013817943           44 
 1244000   0.76250713    -8.111913     214.9489  0.014399042  0.013804184           49 
 1245000   0.75785977   -8.1145094    215.13028  0.014399617    0.0137904           35 
 1246000   0.76451683   -8.0702769     215.8962  0.014439286  0.013776685           36 
 1247000   0.73435726   -8.0731671    215.63364   0.01441016  0.013763011           48 
 1248000   0.74842038   -8.1327516    214.85166  0.014346398  0.013749308           32 
 1249000   0.75458347   -8.0919216    215.60517  0.014385186  0.013735592           40 
 1250000   0.74027044   -8.0861014    215.65465  0.014376976  0.013721894           25 
 1251000   0.76742074   -8.1094768    214.99801  0.014321743  0.013708203           22 
 1252000   0.75119503   -8.1324632    215.47554  0.014342089  0.013694562           48 
 1253000    0.7493484    -8.076972    215.40287  0.014325809  0.013680934           15 
 1254000   0.74518938   -8.0983475    215.47075  0.014318896  0.013667285           18 
 1255000    0.7605202   -8.1273453     215.5242  0.014311036  0.013653647           23 
 1256000   0.74245054   -8.0959688    215.63736   0.01430715  0.013640062           51 
 1257000   0.74487878   -8.1097229     215.5522  0.014290122  0.013626486           22 
 1258000   0.74919407   -8.0890016    216.25977  0.014325634  0.013612923           20 
 1259000   0.76267461   -8.0969939    216.09319   0.01430323  0.013599427           22 
 1260000   0.76482904   -8.0981741    215.63744  0.014261735  0.013585955           30 
 1261000   0.74895102   -8.1196767    215.53756  0.014243825  0.013572536           25 
 1262000   0.75629432   -8.0983795     215.5017   0.01423017  0.013559098           36 
 1263000   0.74912199   -8.1289427    215.53556  0.014221138  0.013545637           19 
 1264000   0.74677696   -8.1045785    215.24934  0.014191016  0.013532173           42 
 1265000   0.74500557   -8.1285952     215.9346  0.014224941   0.01351874           31 
 1266000   0.73176357   -8.1360966    215.57459  0.014190007  0.013505296           47 
 1267000   0.75144468   -8.1117755    215.93414  0.014202456  0.013491918           39 
 1268000   0.73952149   -8.0962395    215.67204   0.01417403  0.013478609           34 
 1269000    0.7336746    -8.102218    216.24897  0.014200747  0.013465331           31 
 1270000   0.75424887   -8.1222496    215.86152  0.014164142  0.013452039           22 
 1271000   0.74899265   -8.1061119    215.90351  0.014155751  0.013438734           30 
 1272000   0.74139052   -8.1085001    215.65998  0.014128668  0.013425485           31 
 1273000   0.73859893   -8.1037845    215.96385  0.014137461  0.013412231           29 
 1274000   0.76317599   -8.1155988    215.85793  0.014119435  0.013399025           27 
 1275000   0.73858343   -8.0980417    216.11578  0.014125214  0.013385824           33 
 1276000   0.74866568   -8.1113448    215.95692  0.014103769  0.013372635           29 
 1277000   0.73868302   -8.1296481    215.55031  0.014066191  0.013359394           37 
 1278000   0.74615092   -8.1350061    215.43328  0.014047553  0.013346214           25 
 1279000   0.73825926   -8.1266114    215.79337  0.014060032  0.013333031           42 
 1280000    0.7391382   -8.1313607    215.93824  0.014058479  0.013319845           30 
 1281000   0.75877021   -8.1329921    215.56904  0.014023487  0.013306648           13 
 1282000   0.72339072   -8.1052244    215.46715  0.014005925  0.013293447           57 
 1283000   0.76741551   -8.0878747    215.92406  0.014024685   0.01328027           46 
 1284000   0.74457671    -8.116983    215.79666  0.014005495   0.01326707           37 
 1285000   0.73415022   -8.1322986    215.36197  0.013966405  0.013253857           43 
 1286000   0.75569863   -8.1030444    215.67941  0.013976116  0.013240677           37 
 1287000   0.72653613    -8.138373    215.24167  0.013936912  0.013227488           58 
 1288000   0.75891733   -8.1155891    215.86022  0.013966112  0.013214387           61 
 1289000   0.73104926   -8.1326626    215.55524   0.01393556  0.013201253           58 
 1290000   0.73323096    -8.166487    215.73966  0.013936671  0.013188169           60 
 1291000   0.74577106   -8.1208518    216.17504  0.013953979  0.013175067           63 
 1292000   0.71579197    -8.154901     216.0287  0.013933739  0.013161989           30 
 1293000   0.72893966   -8.1205301    215.47509  0.013887283  0.013148925           59 
 1294000   0.73813603   -8.1425708    215.75588  0.013894634  0.013135881           64 
 1295000   0.73440568   -8.1585019    215.52085  0.013868781  0.013122849           30 
 1296000   0.73076861   -8.1479613    215.35553  0.013847449  0.013109826           32 
 1297000   0.73790231   -8.1545643    215.58454  0.013851487  0.013096771           93 
 1298000   0.74548022   -8.1308917    215.59092  0.013841225  0.013083769          100 
 1299000   0.74753472   -8.1526456    216.00315  0.013857015  0.013070789           35 
 1300000   0.74138664   -8.1500184    215.52303  0.013815579  0.013057794           24 
 1301000   0.73545299   -8.1300738    215.64589  0.013812829  0.013044777           33 
 1302000   0.74359115   -8.1615717    215.22944  0.013775566  0.013031812           31 
 1303000   0.72221963   -8.1514158    215.59827  0.013788582  0.013018859           51 
 1304000   0.74144998   -8.1559492    215.76747  0.013788821  0.013005873           50 
 1305000   0.71625333   -8.1683714    215.48607  0.013760285  0.012992932           25 
 1306000   0.75185474   -8.1675774    215.32707  0.013739604  0.012979995           44 
 1307000    0.7273022   -8.1798991    215.66462  0.013750613  0.012967054           39 
 1308000   0.73824338   -8.1685126    215.71461  0.013743286  0.012954115           30 
 1309000    0.7398923   -8.1612785    215.02008  0.013688571  0.012941199           85 
 1310000    0.7374801   -8.1791063     215.3854  0.013701361  0.012928312           47 
 1311000   0.73953601   -8.1650375    215.74103  0.013713516  0.012915433           60 
 1312000   0.73995598   -8.1729246    215.20461  0.013668992  0.012902554           29 
 1313000   0.73314693    -8.158393    215.71131  0.013690741  0.012889713           31 
 1314000    0.7335855    -8.177287    215.32612  0.013655893  0.012876848           35 
 1315000   0.72199637   -8.1819132    215.34719  0.013646844  0.012863987           43 
 1316000   0.72595144   -8.1686715     215.4671  0.013644066  0.012851155           45 
 1317000   0.73018963   -8.1828627    215.06122  0.013608025  0.012838324           60 
 1318000   0.72784104   -8.1597063    215.24736  0.013609469  0.012825491           55 
 1319000   0.72019316   -8.1897869    215.21128  0.013596871  0.012812655           57 
 1320000   0.72488521   -8.1575693     215.9927  0.013635903  0.012799858           43 
 1321000   0.73111264   -8.1973505    215.76458   0.01361119  0.012787079           43 
 1322000   0.72224835   -8.1655252    215.53206  0.013586237  0.012774322           50 
 1323000   0.70250549   -8.1880307    215.40339  0.013567863  0.012761578           50 
 1324000   0.72618857   -8.1962787    215.37561  0.013555867  0.012748862           82 
 1325000   0.73114991   -8.1466084    215.62706   0.01356145   0.01273617           51 
 1326000   0.72564638   -8.1774405    215.63554  0.013551756  0.012723485           29 
 1327000   0.72617173   -8.1968713    215.45516  0.013530216  0.012710809           71 
 1328000   0.71730555   -8.2234168    215.02933  0.013493307  0.012698121           96 
 1329000   0.71690053   -8.1839405    215.75466  0.013528634  0.012685455           60 
 1330000   0.70432395   -8.1813863    215.43351   0.01349834  0.012672823           89 
 1331000   0.70811868   -8.1971107    215.02235  0.013462456  0.012660165           56 
 1332000   0.72839559   -8.2111099     215.0002  0.013450963  0.012647546           64 
 1333000   0.72259145   -8.1833807    215.69251  0.013484153  0.012634924           72 
 1334000   0.71801192   -8.1984381    215.16635  0.013441176  0.012622324          117 
 1335000   0.71483563   -8.2361104    215.42119  0.013447015  0.012609737           98 
 1336000   0.72444811   -8.1864454    215.47244  0.013440147  0.012597181           66 
 1337000   0.71771809   -8.1952825    215.44703  0.013428511  0.012584661          165 
 1338000    0.7193671   -8.2226841    215.40736  0.013416004  0.012572133          112 
 1339000   0.74848682   -8.2038925    215.36862  0.013403573  0.012559643           53 
 1340000   0.72131574   -8.1940104    215.67164  0.013412415  0.012547139           86 
 1341000   0.73155522   -8.1909528     215.4718  0.013389995  0.012534647          110 
 1342000   0.71255961   -8.2203164    215.12144  0.013358262  0.012522155           71 
 1343000   0.71427059    -8.199758    215.56304  0.013375716  0.012509676           47 
 1344000   0.68574349   -8.2206396    215.12264  0.013338458  0.012497198           69 
 1345000   0.73550228   -8.2050184    215.08109  0.013325966  0.012484753           49 
 1346000   0.72536901   -8.2021559    215.18831  0.013322704  0.012472304           34 
 1347000   0.72368917   -8.2028367    215.58701  0.013337479  0.012459878           43 
 1348000   0.71725276   -8.2091441    214.96831  0.013289337  0.012447474           34 
 1349000   0.70770903   -8.2161029     215.0775  0.013286231  0.012435079           50 
 1350000    0.7008275   -8.2005597    214.99873  0.013271527   0.01242269          132 
 1351000     0.707195   -8.2038528     215.2822  0.013279188  0.012410284           42 
 1352000   0.72679958   -8.2225676    215.40378   0.01327686  0.012397897           56 
 1353000   0.69350694   -8.2096972    215.35014  0.013263743  0.012385515           68 
 1354000   0.70135641   -8.2250782    215.14789    0.0132415   0.01237311           46 
 1355000   0.72147458   -8.2176605     214.6517  0.013201212  0.012360732           84 
 1356000   0.71652608   -8.2335936    215.01232  0.013213638  0.012348331          110 
 1357000   0.71894302   -8.2450154    214.97287  0.013201478  0.012335936           47 
 1358000   0.70831404   -8.2136778    214.84476  0.013183896  0.012323557           84 
 1359000   0.69982888    -8.237037    215.33006  0.013203952  0.012311196          106 
 1360000   0.69287619    -8.249588    214.78484  0.013160836  0.012298845           86 
 1361000   0.71144123   -8.2310534     215.1076  0.013170928  0.012286494           54 
 1362000   0.69234281   -8.2212985    215.10768  0.013161263  0.012274188           86 
 1363000   0.71622143   -8.2147475    215.29104  0.013162817  0.012261894           54 
 1364000   0.69852211   -8.2234025     214.9308  0.013131158  0.012249591          138 
 1365000    0.6904333   -8.2163882    215.32076  0.013145345  0.012237337           80 
 1366000   0.70920612   -8.2189836    214.66604  0.013095781  0.012225073           33 
 1367000   0.70585891   -8.2400502    214.79061  0.013093795  0.012212819           82 
 1368000   0.71203725   -8.2229121    215.15562  0.013106458  0.012200588           51 
 1369000   0.71783174   -8.2374773    214.81561  0.013076188  0.012188354           59 
 1370000   0.70060353   -8.2121138    214.67737  0.013058234  0.012176123          103 
 1371000   0.69977568   -8.2632938    214.36735  0.013029866  0.012163895           76 
 1372000   0.72798625   -8.2329467    215.35597  0.013080416   0.01215169           86 
 1373000   0.72419512   -8.2387926    214.82365   0.01303858  0.012139501           97 
 1374000    0.7131104    -8.245837    214.57178  0.013013815  0.012127313          104 
 1375000   0.70036675   -8.2367889    214.72365  0.013013555   0.01211513          107 
 1376000   0.69827872    -8.255363    214.78196  0.013007628  0.012102974           61 
 1377000   0.70059532   -8.2415464    215.12073  0.013018684  0.012090822           45 
 1378000   0.69494795   -8.2470559    214.96468  0.012999799  0.012078693          104 
 1379000   0.72133628    -8.226843     215.1911  0.013004055  0.012066573           87 
 1380000   0.71066816   -8.2785033    214.96057  0.012980711   0.01205449           48 
 1381000   0.69491523    -8.265166    214.55784  0.012947009  0.012042373           56 
 1382000   0.70380391   -8.2428094    215.16361  0.012974169   0.01203026           57 
 1383000   0.69400811    -8.274841    214.45629  0.012922167  0.012018158          131 
 1384000   0.70284692   -8.2770939    214.57816  0.012920168  0.012006069          125 
 1385000   0.68780462   -8.2775633    214.39362  0.012899736  0.011993986          122 
 1386000    0.7026547    -8.253119    214.64024  0.012905258  0.011981908          139 
 1387000    0.7025962   -8.2521831    214.60548  0.012893865  0.011969843          116 
 1388000   0.70485448   -8.2846258    214.52609  0.012879809  0.011957803          103 
 1389000   0.68877582   -8.2882431    214.38181   0.01286188  0.011945778          102 
 1390000   0.68778985   -8.2709641    214.31238  0.012848464  0.011933771           52 
 1391000   0.69988284    -8.282466    214.73863  0.012864764  0.011921752          109 
 1392000   0.68296824   -8.2863064    214.71425  0.012854062  0.011909783           92 
 1393000   0.69169194   -8.2784533    214.47321  0.012830414  0.011897806           98 
 1394000   0.68337162    -8.279151    214.71702  0.012835786  0.011885874          133 
 1395000   0.68219411   -8.2758692    214.39923    0.0128076  0.011873927          110 
 1396000   0.69877297   -8.2844065    214.25472    0.0127898  0.011861999          137 
 1397000   0.70580782   -8.2741088    214.45832  0.012792789  0.011850086          104 
 1398000   0.69487213   -8.2766751     214.0531  0.012759484  0.011838187           71 
 1399000   0.70453458   -8.2721914    214.85307  0.012798015  0.011826296           75 
 1400000   0.69835099   -8.2958302    214.32302  0.012757323  0.011814438           79 
 1401000   0.68519158   -8.2884973    214.11059  0.012735581   0.01180258           87 
 1402000   0.69627514   -8.2982694    214.46467  0.012747543    0.0117907           60 
 1403000   0.71279307   -8.2463664    215.06338  0.012774019  0.011778875           84 
 1404000   0.68983259   -8.2791614    214.44945  0.012728481  0.011767091           59 
 1405000    0.6879144   -8.2876788    214.76497  0.012738136  0.011755281           89 
 1406000   0.70211461   -8.2817656    214.35078  0.012704527  0.011743479           62 
 1407000    0.6972213   -8.2716418    214.79395  0.012721746  0.011731688           89 
 1408000   0.70737439   -8.2733614    214.25692  0.012680926  0.011719897           80 
 1409000   0.70088773   -8.2800191    214.76986  0.012702263  0.011708124           71 
 1410000   0.68910871   -8.2604923    214.66129  0.012686837  0.011696353           94 
 1411000   0.70434427   -8.3017611    214.30402  0.012656746    0.0116846          114 
 1412000   0.69416135   -8.2908946    214.50376   0.01265957  0.011672858          102 
 1413000   0.71351642   -8.2894485    214.32434   0.01264003  0.011661143           47 
 1414000   0.69792041   -8.2880015    214.31198  0.012630362  0.011649435           83 
 1415000   0.69168342   -8.2963877    214.53041    0.0126343  0.011637759           76 
 1416000   0.69542777   -8.3013169    214.06704  0.012598108  0.011626098           65 
 1417000   0.68048648   -8.2861729    214.27564  0.012601485  0.011614437           72 
 1418000   0.68191616   -8.2760062    214.19937  0.012588115  0.011602777           89 
 1419000   0.68230867   -8.3000036    214.24325  0.012581821  0.011591146           77 
 1420000   0.68893513   -8.2946747    214.48037  0.012586876  0.011579509           91 
 1421000   0.68323595   -8.3002502     214.6569  0.012588371  0.011567868          102 
 1422000    0.6895537   -8.3170779    214.22991  0.012554496  0.011556256           85 
 1423000   0.67200253   -8.2935191    214.14852  0.012540906   0.01154465           99 
 1424000   0.68216308    -8.309319    214.51975  0.012553824   0.01153309          109 
 1425000   0.69283006   -8.3050589    214.56219  0.012547497  0.011521538          103 
 1426000   0.68286151   -8.2879458    214.36721  0.012527303  0.011509975           88 
 1427000    0.6761513   -8.3038501    214.43457  0.012522458  0.011498447           93 
 1428000   0.68346276   -8.2950846    214.30094   0.01250589  0.011486943          146 
 1429000   0.67956772   -8.2931203    214.09747  0.012485273   0.01147544           97 
 1430000   0.67722885   -8.2979033    214.23707  0.012484678   0.01146394          144 
 1431000   0.69178785   -8.2931262    214.56095  0.012494814  0.011452453          109 
 1432000   0.67312854   -8.2815871    214.05773  0.012456805  0.011440957           89 
 1433000   0.68217323   -8.2992535    214.09436  0.012450242  0.011429491           87 
 1434000   0.68225766   -8.3033069    214.22201  0.012448978  0.011418014          113 
 1435000   0.67669029   -8.3177356    214.57391  0.012460738   0.01140656          104 
 1436000   0.66916957   -8.3207991    214.22619  0.012431882  0.011395128          125 
 1437000   0.69044384   -8.3166659    214.26526  0.012425496  0.011383709           88 
 1438000   0.69012738   -8.3289714    213.58407   0.01237738  0.011372316           96 
 1439000   0.67121785    -8.314033    214.06646  0.012396714  0.011360926           87 
 1440000   0.67890437   -8.2881476    214.71678   0.01242574   0.01134954          104 
 1441000   0.67873202   -8.3026601    214.35157  0.012395996  0.011338168          197 
 1442000   0.66986567    -8.299372    214.32997  0.012386152   0.01132683          107 
 1443000   0.67725315   -8.2988125    214.06339  0.012362173  0.011315503          115 
 1444000   0.68275162   -8.2903424    213.94756  0.012346927  0.011304177          160 
 1445000   0.66327325   -8.3036531    214.48487   0.01236937  0.011292874           86 
 1446000    0.6795692   -8.3143576    214.37928   0.01235473  0.011281564           85 
 1447000   0.67410467   -8.3458915    214.61584  0.012359816  0.011270275          149 
 1448000    0.6709629   -8.3053696     214.0341  0.012317801  0.011259034          123 
 1449000   0.66614866   -8.3017299    214.69006  0.012347024  0.011247785          125 
 1450000   0.68377344   -8.3237343    214.38747  0.012321119  0.011236544           97 
 1451000    0.6675491   -8.3138424    213.81308  0.012279639  0.011225329          130 
 1452000   0.66306472   -8.3269934    213.95491  0.012279322  0.011214093          113 
 1453000   0.65745622   -8.3231311    214.12992  0.012280908  0.011202876          121 
 1454000   0.69664288   -8.3064728    214.24456  0.012279032  0.011191681          173 
 1455000   0.67146999   -8.3214271    213.95796  0.012254179  0.011180502          112 
 1456000   0.66472485   -8.3286582    214.16476  0.012257598  0.011169324          139 
 1457000   0.67101751   -8.3233317    213.93031  0.012235776  0.011158167          108 
 1458000   0.65579636   -8.3266181    214.48901  0.012259317  0.011147002          104 
 1459000    0.6702459   -8.3523563    213.75204  0.012208821  0.011135858          144 
 1460000   0.66841531   -8.3217855    214.27415   0.01223026  0.011124715          157 
 1461000    0.6730055   -8.3231305    214.27476  0.012221923  0.011113597           92 
 1462000   0.66691692   -8.3355189    214.10859  0.012204092  0.011102491           90 
 1463000   0.67081385   -8.3521807    213.92534  0.012185312  0.011091387          151 
 1464000    0.6640567   -8.3370189    213.90649  0.012175916  0.011080303          172 
 1465000   0.66511381   -8.3509216    214.06806  0.012176795  0.011069254          168 
 1466000   0.66790824   -8.3312064    213.91585  0.012159837  0.011058194          164 
 1467000    0.6730436   -8.3215678    214.06321  0.012159919  0.011047144          127 
 1468000   0.67205452   -8.3582165    213.90627  0.012142727  0.011036086          122 
 1469000   0.66493839   -8.3183275    214.17662  0.012149797  0.011025054          173 
 1470000   0.66646299   -8.3504534    214.05615  0.012134702  0.011014019          154 
 1471000   0.64955852   -8.3118826    214.24201  0.012136982  0.011003009          122 
 1472000   0.68521559   -8.3355103    213.98931  0.012114431  0.010992039           90 
 1473000   0.67353429   -8.3240856    213.59177  0.012083716  0.010981055          237 
 1474000   0.67801178   -8.3431543    213.46323  0.012068252   0.01097007          142 
 1475000   0.66112927   -8.3559971    213.65306  0.012070794    0.0109591          124 
 1476000   0.67262286   -8.3461957     213.4325  0.012050164   0.01094814          230 
 1477000   0.66639956   -8.3453316    214.00098  0.012074079  0.010937178          178 
 1478000   0.67584313   -8.3686778    213.78864  0.012053938  0.010926234          196 
 1479000   0.68139426   -8.3539351    213.97597  0.012056343  0.010915334          149 
 1480000   0.65763187    -8.373949    214.00993  0.012050109  0.010904431          134 
 1481000   0.65460533   -8.3306204    213.88048  0.012034688  0.010893531          176 
 1482000   0.66213492   -8.3374389    213.98598    0.0120325  0.010882629          177 
 1483000   0.67141663   -8.3612383    213.53318  0.011998942  0.010871766          181 
 1484000   0.65488044   -8.3745979    213.63562  0.011996609  0.010860905          138 
 1485000   0.65285449   -8.3346677    213.92198    0.0120046  0.010850047          133 
 1486000   0.66704156   -8.3401648    213.67594  0.011982724  0.010839225          163 
 1487000   0.64952013    -8.343873    214.04891  0.011995568  0.010828412          248 
 1488000   0.66227702   -8.3449019    213.91322  0.011979907  0.010817606          185 
 1489000   0.65393118   -8.3514074    214.06743  0.011980492  0.010806805          142 
 1490000   0.66283887    -8.370299    213.90114  0.011963151  0.010796019          230 
 1491000   0.66360603   -8.3809063    213.65879  0.011941582  0.010785243          269 
 1492000   0.66459957   -8.3376027    214.11096  0.011958834  0.010774492          171 
 1493000   0.66760961    -8.370537    213.71956  0.011928978  0.010763752          191 
 1494000   0.67319654   -8.3853369     213.4588  0.011906448  0.010753015          233 
 1495000   0.65715567   -8.3434497     213.5492  0.011903523  0.010742306          151 
 1496000    0.6831005   -8.3483971    213.63718  0.011900467  0.010731605          176 
 1497000   0.64525174   -8.3761406    213.94235  0.011909505   0.01072092          153 
 1498000   0.66432319   -8.3727084    213.83244  0.011895441  0.010710242          178 
 1499000   0.64453929   -8.3495519    213.79581  0.011885469  0.010699567          159 
 1500000   0.65561407   -8.3785025    213.29999  0.011849999  0.010688879          165 
 1501000   0.66225256   -8.3733069    213.72548  0.011865727  0.010678217          159 
 1502000   0.65783322   -8.3712611    213.46461  0.011843354  0.010667552          207 
 1503000   0.65849503   -8.3760158    213.18663  0.011820061  0.010656912          226 
 1504000   0.64872245   -8.3746679    213.48639  0.011828811  0.010646262          215 
 1505000   0.66044825   -8.3922289    213.52729  0.011823217  0.010635647          170 
 1506000   0.65925729   -8.3626935     213.7121  0.011825592  0.010625015          204 
 1507000   0.64619895    -8.374399    213.47836   0.01180482   0.01061441          193 
 1508000   0.65157494   -8.4138599    212.90012  0.011765038  0.010603808          210 
 1509000   0.65764146   -8.3815171    213.26834  0.011777576  0.010593216          290 
 1510000   0.64613085   -8.3835887    213.17491   0.01176462  0.010582646          288 
 1511000   0.66185962   -8.3721207    213.43321  0.011771079   0.01057207          238 
 1512000   0.63743776   -8.3614636    213.62096  0.011773642  0.010561514          205 
 1513000   0.64151496   -8.3857924    213.53377  0.011761058  0.010550969          298 
 1514000   0.64714227   -8.3871929    213.42696  0.011747411  0.010540434          193 
 1515000    0.6528627    -8.394984    213.34526  0.011735163  0.010529896          162 
 1516000   0.63824476    -8.371014    213.35473  0.011727943  0.010519376          247 
 1517000   0.64540718   -8.3707225    213.18632   0.01171096  0.010508863          305 
 1518000   0.64204528   -8.3615784    213.25051   0.01170677  0.010498375          215 
 1519000   0.63556346   -8.3947024      213.314  0.011702546  0.010487902          168 
 1520000   0.65317414   -8.3764544    213.49994   0.01170504  0.010477437          206 
 1521000   0.63132331   -8.3887829    213.33768  0.011688455  0.010466992          225 
 1522000   0.65203643   -8.3885779    213.41738  0.011685139  0.010456567          167 
 1523000   0.64025177   -8.3934578    213.08331  0.011659187   0.01044615          212 
 1524000   0.66229447   -8.4183158    213.17118  0.011656342  0.010435757          159 
 1525000   0.63141288   -8.3883882    213.59434  0.011671822  0.010425355          184 
 1526000   0.64210092    -8.401787    213.30966  0.011648627  0.010414969          210 
 1527000   0.65411078   -8.4087543    213.50177  0.011651483  0.010404605          219 
 1528000   0.63955879   -8.3839252    213.11395  0.011622707   0.01039424          192 
 1529000   0.65063403   -8.3992328    213.36679  0.011628886  0.010383901          182 
 1530000   0.65120849   -8.3975366    213.35471  0.011620627  0.010373564          190 
 1531000   0.64273619   -8.3949407    212.97358  0.011592291  0.010363241          203 
 1532000   0.65447708   -8.4114376    212.65475  0.011567382   0.01035293          189 
 1533000   0.64489181   -8.4077058    213.03342  0.011580421  0.010342626          197 
 1534000   0.62781562   -8.3919908    213.35565  0.011590376  0.010332332          184 
 1535000   0.64875983   -8.4008011    213.17185  0.011572847  0.010322047          195 
 1536000   0.64905144   -8.4142037    213.11071  0.011561996  0.010311771          182 
 1537000   0.65571691   -8.4057893      212.812  0.011538278  0.010301522          184 
 1538000   0.63461553   -8.3956323    213.25693  0.011554884  0.010291275          222 
 1539000   0.63065251   -8.3978733    213.14597  0.011541367  0.010281024          199 
 1540000   0.63849796   -8.4102007    213.16911  0.011535125  0.010270809          204 
 1541000    0.6220064   -8.3884292     213.4644  0.011543608  0.010260613          195 
 1542000   0.63904203   -8.4094666    213.51203  0.011538696  0.010250409          182 
 1543000   0.64068967   -8.4038608    213.13954  0.011511101  0.010240239          156 
 1544000   0.63353294   -8.3887083    213.52327  0.011524356  0.010230095          172 
 1545000   0.63547902   -8.4053208    212.95608  0.011486304  0.010219933          150 
 1546000   0.64675532   -8.4153526    213.26092  0.011495306  0.010209788          140 
 1547000   0.64296163    -8.395025    213.17038  0.011482998  0.010199664          175 
 1548000   0.63669986   -8.3995822     213.3099  0.011483091  0.010189548          157 
 1549000   0.63698558   -8.4192135    213.13032  0.011466017  0.010179446          213 
 1550000   0.63048134   -8.3910488    213.17709  0.011461134  0.010169352          179 
 1551000    0.6460273   -8.4291055    213.03695  0.011446215  0.010159281          205 
 1552000   0.64264837   -8.4190784    213.08581  0.011441463  0.010149212          193 
 1553000   0.63683074   -8.4303453    213.33112  0.011447259  0.010139153          198 
 1554000   0.64404195   -8.4102002    213.17327  0.011431428  0.010129112          200 
 1555000   0.63591845   -8.4086946    213.08865  0.011419542  0.010119095          194 
 1556000   0.61793778   -8.4219126    213.09059  0.011412307  0.010109072          196 
 1557000   0.63208008   -8.4264394    213.21482  0.011411626  0.010099073          171 
 1558000   0.63938922   -8.4170554    213.11177   0.01139879  0.010089082          159 
 1559000   0.62636498   -8.4008341    213.25823  0.011399307  0.010079103          189 
 1560000   0.62896041   -8.4125328    213.27377   0.01139283  0.010069139          159 
 1561000   0.63405642   -8.4129468    213.12331  0.011377499  0.010059189          176 
 1562000   0.61782967   -8.4156241     213.5001  0.011390317  0.010049242          178 
 1563000   0.62294062   -8.4036311    212.93989  0.011353161  0.010039336          205 
 1564000   0.62999844   -8.4090783    213.44612  0.011372875  0.010029422          129 
 1565000   0.62215909   -8.4286728    212.76217  0.011329189  0.010019519          182 
 1566000   0.61703274    -8.439727    212.88402  0.011328439  0.010009613          219 
 1567000   0.62330185   -8.4085249    213.25351  0.011340859 0.0099997454          189 
 1568000   0.62916622   -8.4195722    213.19133  0.011330322  0.009989888          167 
 1569000   0.62027373   -8.4299004    212.85538  0.011305257 0.0099800323          124 
 1570000   0.63744171   -8.4185866    213.02617  0.011307122 0.0099701906          185 
 1571000   0.62461248   -8.4116564    213.13085  0.011305477 0.0099603668          191 
 1572000   0.63004496   -8.4409721    213.04587   0.01129378 0.0099505502          247 
 1573000   0.63025989   -8.3959412    213.09069  0.011288975 0.0099407541          190 
 1574000   0.62355801   -8.4304491    212.86944  0.011270089 0.0099309673          166 
 1575000   0.62352241   -8.4401531    212.94918  0.011267152 0.0099211807          188 
 1576000   0.62921086   -8.4167342    213.15678   0.01127098 0.0099114082          196 
 1577000   0.61442793   -8.4205789    212.98311  0.011254656   0.00990165          160 
 1578000   0.61885374    -8.434961    212.73925  0.011234645 0.0098918979          235 
 1579000   0.62145658   -8.4290707    213.03988  0.011243397 0.0098821721          182 
 1580000   0.63310609   -8.4373563    212.97442  0.011232828 0.0098724598          217 
 1581000   0.61821745   -8.4206082    212.72305  0.011212474 0.0098627462          193 
 1582000   0.62425936   -8.4406735    212.85172  0.011212164 0.0098530486          256 
 1583000   0.63808996   -8.4253066    213.12193  0.011219306 0.0098433678          209 
 1584000   0.62879025   -8.4340453    212.57967  0.011183695 0.0098336862          234 
 1585000   0.60992625    -8.442785    212.89802  0.011193376 0.0098240206          171 
 1586000   0.63735394   -8.4440099    213.21456  0.011202951  0.009814359          222 
 1587000   0.62429781   -8.4169323    212.80797  0.011174542 0.0098047107          232 
 1588000   0.63641393   -8.4307223    212.82319  0.011168303 0.0097950643          216 
 1589000   0.63386259   -8.4388485    212.61883  0.011150557 0.0097854328          247 
 1590000    0.6152224   -8.4533652    212.49943  0.011137286 0.0097758097          253 
 1591000   0.62214637   -8.4508541    212.42956  0.011126627 0.0097662035          200 
 1592000   0.62049209   -8.4278718    213.15857  0.011157798 0.0097566014          250 
 1593000   0.61079295   -8.4481443    212.85741  0.011135039  0.009747036          241 
 1594000   0.60766786   -8.4634917    212.74085   0.01112196 0.0097374587          207 
 1595000   0.62192355   -8.4599653    212.40863  0.011097629 0.0097278874          213 
 1596000   0.60000397   -8.4497807    212.89731  0.011116192 0.0097183153          245 
 1597000   0.61858247   -8.4429954    212.66059  0.011096879 0.0097087665          282 
 1598000   0.62372873   -8.4606339    212.92836  0.011103898 0.0096992232          221 
 1599000   0.62633812   -8.4322043    213.15582  0.011108809  0.009689702          204 
 1600000   0.61363638    -8.427459    213.42605   0.01111594 0.0096801919          204 
 1601000   0.61036886   -8.4429229    212.60664  0.011066346 0.0096707026          290 
 1602000   0.61950002   -8.4542452    212.61842  0.011060051 0.0096612241          269 
 1603000   0.61261851   -8.4785414    212.70668   0.01105774 0.0096517482          250 
 1604000   0.61007677   -8.4496217    212.97501  0.011064787 0.0096422693          236 
 1605000   0.60456059    -8.433901    212.83241  0.011050489  0.009632824          164 
 1606000   0.61656163   -8.4414009    213.34887  0.011070406 0.0096233954          234 
 1607000    0.6026267   -8.4549701    212.56569  0.011022905 0.0096139747          250 
 1608000   0.61063447   -8.4345959     212.8716  0.011031903 0.0096045706          312 
 1609000   0.61181777   -8.4612847    212.76177  0.011019358 0.0095951756          285 
 1610000   0.62029237   -8.4584805    212.60136  0.011004211 0.0095857876          230 
 1611000   0.62666613   -8.4629989    212.74243  0.011004678 0.0095764105          278 
 1612000   0.60972396   -8.4568019    212.73347  0.010997388 0.0095670515          256 
 1613000   0.60572614   -8.4573585    212.82245  0.010995167 0.0095577114          266 
 1614000   0.60136694   -8.4542845    212.65799  0.010979863 0.0095483775          216 
 1615000   0.62091204    -8.458637    212.83815  0.010982361 0.0095390567          229 
 1616000   0.60229311    -8.441024    212.52053  0.010959186  0.009529748          350 
 1617000   0.60696505   -8.4569509    212.65899  0.010959544 0.0095204396          331 
 1618000   0.61308888   -8.4665428    212.26457  0.010932456 0.0095111473          334 
 1619000   0.60086207   -8.4786055    212.63246   0.01094464 0.0095018642          296 
 1620000   0.60329501   -8.4631153    212.88243  0.010950742  0.009492596          312 
 1621000   0.60847093   -8.4636263    212.32762  0.010915465 0.0094833352          225 
 1622000   0.60467376   -8.4584769    212.61727  0.010923616 0.0094740798          238 
 1623000   0.61196478   -8.4778683     212.7791  0.010925195 0.0094648306          289 
 1624000   0.59960737    -8.440423    212.73635  0.010916274 0.0094555881          340 
 1625000   0.59007436   -8.4817871    212.54916  0.010899957 0.0094463521          208 
 1626000   0.61705762   -8.4556073    212.37834  0.010884499 0.0094371297          265 
 1627000   0.59724003   -8.4774989    212.52217  0.010885176 0.0094279198          380 
 1628000   0.61522546   -8.4787764    212.70033  0.010887609 0.0094187177          218 
 1629000   0.60233399   -8.4783581      212.359  0.010863464 0.0094095298          297 
 1630000   0.60984954   -8.4870499    212.34552   0.01085611 0.0094003512          262 
 1631000   0.59951782   -8.4779526    212.39358   0.01085191 0.0093911781          307 
 1632000   0.60328729   -8.4885438    211.91582  0.010820865 0.0093820209          271 
 1633000   0.59285695   -8.4896146    212.47396  0.010842721 0.0093728708          390 
 1634000   0.60052325   -8.4847187    212.24586  0.010824452 0.0093637274          248 
 1635000   0.60297159   -8.4849177     212.3742  0.010824373   0.00935462          225 
 1636000   0.59417471   -8.4637075    213.09678  0.010854563 0.0093455115          250 
 1637000   0.61671069   -8.4834244    212.37466  0.010811172 0.0093364086          234 
 1638000   0.59290189   -8.4862399    212.42179  0.010806969 0.0093273196          314 
 1639000   0.59769414   -8.4713087    212.27145  0.010792732 0.0093182469          364 
 1640000   0.59880155    -8.469469    212.28112  0.010786642 0.0093091907          400 
 1641000   0.60804373   -8.4862746    212.46299  0.010789305 0.0093001318          242 
 1642000   0.60397769    -8.482722    212.60081  0.010789728 0.0092910825          227 
 1643000   0.60376792   -8.4876464    212.37975  0.010771949 0.0092820636          295 
 1644000   0.59775131    -8.498662    212.27729  0.010760203 0.0092730469          375 
 1645000   0.58814024   -8.4936509    212.71897  0.010776037   0.00926404          325 
 1646000   0.59568109   -8.4899632    212.80971  0.010774084  0.009255065          341 
 1647000   0.58381121   -8.4847889    212.65795  0.010759864 0.0092460857          351 
 1648000   0.58610789   -8.4700918    212.36725  0.010738635 0.0092371181          310 
 1649000   0.59658082   -8.4959279     212.5391  0.010740807 0.0092281603          342 
 1650000   0.60272496   -8.4657048    212.62639  0.010738706 0.0092192142          399 
 1651000   0.58717928   -8.4735896    212.60592  0.010731169 0.0092102976          332 
 1652000   0.59911161   -8.4832788     212.3821  0.010713383 0.0092013886          350 
 1653000   0.58807494   -8.4836534    213.02831  0.010739479 0.0091924833          402 
 1654000   0.59830504   -8.4888999    212.25591  0.010694071 0.0091835855          301 
 1655000   0.57283524   -8.4813139    212.46579  0.010698177 0.0091746992          331 
 1656000   0.59597381   -8.4765598    212.31388  0.010684072 0.0091658279          206 
 1657000   0.58964719   -8.4932259    212.28631  0.010676238 0.0091569751          404 
 1658000   0.59122741   -8.4757824    212.49342  0.010680208 0.0091481312          369 
 1659000   0.59830312   -8.4993304    212.27144   0.01066262 0.0091392884          289 
 1660000   0.60052618   -8.4936528    212.30578  0.010657921 0.0091304393          355 
 1661000    0.5752478    -8.495304    212.20233  0.010646314 0.0091216085          293 
 1662000   0.60119158   -8.5134627    212.61377  0.010660538 0.0091127857          237 
 1663000   0.60825937   -8.5205165    212.08875  0.010627818 0.0091039738          410 
 1664000    0.5930999    -8.477229     212.7312  0.010653606 0.0090951876          232 
 1665000   0.59602864   -8.4992739    212.34598  0.010627927 0.0090863948          335 
 1666000   0.59203764   -8.4884128    212.46273  0.010627387 0.0090776157          226 
 1667000   0.58905827   -8.5010038    212.01808  0.010598784 0.0090688456          376 
 1668000   0.58758055   -8.4990584    211.86913  0.010584989 0.0090600768          389 
 1669000   0.59946104   -8.5031621    211.97048  0.010583707 0.0090513228          324 
 1670000   0.59327333   -8.4976751    212.28597  0.010593112 0.0090425717          356 
 1671000   0.58975081   -8.5102743    211.83333  0.010564199 0.0090338294          412 
 1672000   0.59092056   -8.5025169    212.01921  0.010567145 0.0090250949          264 
 1673000   0.59750162   -8.5175677    211.79586  0.010549704 0.0090163589          420 
 1674000   0.59115316   -8.5290241    211.71319  0.010539287 0.0090076445          398 
 1675000   0.59509608   -8.4941376     212.3805  0.010566194 0.0089989419          381 
 1676000   0.57586163   -8.5036689     212.2944  0.010555609 0.0089902484          403 
 1677000   0.59447999   -8.5131119    212.25779  0.010547495 0.0089815718          355 
 1678000   0.58252893   -8.4972974     212.1598  0.010536343 0.0089729005          373 
 1679000     0.590539   -8.5133184    211.69393  0.010506945 0.0089642363          374 
 1680000    0.5872157   -8.5115337    212.00811  0.010516275 0.0089555991          313 
 1681000   0.58357872    -8.525347     211.7162  0.010495548 0.0089469665          269 
 1682000   0.57221487   -8.5259308    212.41799  0.010524078 0.0089383455          347 
 1683000   0.57995107   -8.5235331    212.22964  0.010508499 0.0089297276          390 
 1684000   0.59254863    -8.518101    212.09143  0.010495419 0.0089211146          347 
 1685000   0.57644598   -8.5140389    212.14815  0.010491996 0.0089125164          256 
 1686000   0.57011002    -8.524584    212.37796  0.010497131 0.0089039382          367 
 1687000   0.57562621   -8.5339175    211.65162   0.01045503 0.0088953546          338 
 1688000   0.57741353   -8.5110341    212.16108  0.010473987 0.0088867783          277 
 1689000    0.5810864    -8.505113    211.95877  0.010457804  0.008878226          371 
 1690000   0.59027672   -8.5059619    211.85141  0.010446322 0.0088696915          276 
 1691000   0.58661257   -8.5252696    212.02602  0.010448749 0.0088611611          279 
 1692000   0.57576408   -8.5339168    211.83054  0.010432946 0.0088526333          402 
 1693000   0.57858878   -8.5354971    211.74873  0.010422757 0.0088441179          396 
 1694000   0.57278422    -8.528161    211.83487  0.010420842 0.0088356082          373 
 1695000   0.57924833   -8.5191202    212.15969  0.010430663  0.008827103          323 
 1696000   0.56549104   -8.5352404    212.14163  0.010423626 0.0088186235          371 
 1697000   0.57158497   -8.5360599    211.86521  0.010403909  0.008810142          412 
 1698000   0.56520718   -8.5293143    212.15146  0.010411831 0.0088016654          417 
 1699000   0.57087657   -8.5174574    211.79346  0.010388143 0.0087932164          296 
 1700000   0.57212298   -8.5303689    211.91593  0.010388036 0.0087847696          368 
 1701000   0.57651166   -8.5451196    211.88487  0.010380407 0.0087763392          397 
 1702000   0.58367397   -8.5509276    211.96572  0.010378267 0.0087679233          411 
 1703000   0.57291831   -8.5189025    212.29699  0.010388383   0.00875951          417 
 1704000    0.5624346   -8.5274767    211.70685  0.010353426 0.0087511184          356 
 1705000     0.569861   -8.5238158    211.96814  0.010360124 0.0087427453          398 
 1706000   0.57533641   -8.5349226    211.72101   0.01034198 0.0087343693          406 
 1707000   0.58069644   -8.5183503    211.89564  0.010344446  0.008726005          362 
 1708000   0.58268145   -8.5347706     211.7183  0.010329738 0.0087176561          404 
 1709000     0.568614   -8.5152627    212.46368  0.010360039 0.0087093145          455 
 1710000   0.55910799    -8.530657    212.15577  0.010338975 0.0087009953          382 
 1711000    0.5560421   -8.5391763    211.58884  0.010305321 0.0086926683          290 
 1712000   0.55415534   -8.5284212    211.73327  0.010306331 0.0086843466          358 
 1713000   0.56154904   -8.5465297    212.01847  0.010314189 0.0086760486          371 
 1714000   0.56280084   -8.5169559     212.0939  0.010311839 0.0086677621          414 
 1715000   0.55482281   -8.5337847    212.18946  0.010310469 0.0086594842          243 
 1716000   0.55862953   -8.5385352     211.6453  0.010278035 0.0086512096          378 
 1717000   0.58071426   -8.5435624    211.85749  0.010282347 0.0086429542          274 
 1718000   0.57564378   -8.5228963    212.27726  0.010296724 0.0086347037          341 
 1719000   0.57735262   -8.5266147    211.71441  0.010263448 0.0086264823          351 
 1720000     0.569222   -8.5380726    211.63131  0.010253455 0.0086182518          353 
 1721000   0.55924474   -8.5593484    211.66927  0.010249335 0.0086100355          232 
 1722000   0.56356461   -8.5515409    211.64355  0.010242139   0.00860182          442 
 1723000   0.56544653   -8.5380162    211.51556  0.010230004 0.0085936223          329 
 1724000   0.56580494   -8.5315053    212.32986  0.010263431  0.008585437          411 
 1725000   0.55736762   -8.5560045    211.95464  0.010239355 0.0085772577          358 
 1726000   0.54644533    -8.537877    211.79429   0.01022568  0.008569089          354 
 1727000   0.55562525    -8.552276    211.70513  0.010215457 0.0085609241          264 
 1728000   0.56501431   -8.5559591    211.95524  0.010221607 0.0085527627          381 
 1729000   0.55878088   -8.5537381    211.78799  0.010207634 0.0085446086          356 
 1730000   0.56154256   -8.5609968    211.23254  0.010174978 0.0085364709          354 
 1731000   0.56776464   -8.5587282    211.83194  0.010197956  0.008528342          394 
 1732000   0.56108825   -8.5400878    211.48787  0.010175513 0.0085202233          300 
 1733000   0.55371288   -8.5496259    211.60271  0.010175164 0.0085121166          398 
 1734000    0.5651033   -8.5416152    212.02473  0.010189577 0.0085040165          395 
 1735000   0.56360862   -8.5556954    211.80884  0.010173335  0.008495925          453 
 1736000   0.56364314   -8.5390199    211.89119  0.010171428  0.008487842          357 
 1737000   0.53758971   -8.5477108    211.82837  0.010162559 0.0084797711          389 
 1738000   0.56985919   -8.5687106    211.25759  0.010129343 0.0084717072          352 
 1739000   0.55070864   -8.5556521    211.53943  0.010137025 0.0084636632          381 
 1740000    0.5678895   -8.5667889    211.53368  0.010130923 0.0084556269          287 
 1741000   0.55348852   -8.5429113    211.39491  0.010118462  0.008447594          351 
 1742000   0.55169016   -8.5323302     211.6663  0.010125636 0.0084395744          404 
 1743000   0.55861654    -8.562827    211.65796  0.010119428 0.0084315561          348 
 1744000   0.55654824   -8.5644965    211.45781  0.010104062 0.0084235415          376 
 1745000   0.54080193   -8.5639394    211.59241    0.0101047 0.0084155442          372 
 1746000   0.55620212   -8.5758814    211.51727  0.010095326 0.0084075535          444 
 1747000   0.54274188   -8.5628559    211.28255  0.010078351 0.0083995759          395 
 1748000   0.54976098   -8.5512583    211.63049  0.010089173 0.0083916026          425 
 1749000     0.565205   -8.5567051    211.34929  0.010070006 0.0083836486          338 
 1750000   0.55584703   -8.5709175    211.06466  0.010050698 0.0083757022          395 
 1751000   0.56110252   -8.5697354    211.61673  0.010071232 0.0083677627          406 
 1752000   0.55683257   -8.5630881    211.36474  0.010053498 0.0083598197          408 
 1753000   0.54376025   -8.5595719    211.40959  0.010049895 0.0083519049          267 
 1754000   0.54705721   -8.5826052    211.49195  0.010048078 0.0083440041          425 
 1755000   0.54716706    -8.577361    211.78862   0.01005644 0.0083361008          394 
 1756000   0.54539644   -8.5754333    211.17929  0.010021796 0.0083282066          373 
 1757000   0.54869738   -8.5728878    211.35333  0.010024347 0.0083203237          392 
 1758000   0.54071728   -8.5740739    211.44114  0.010022807 0.0083124461          424 
 1759000   0.53492857   -8.5797108    211.40517  0.010015405 0.0083045831          393 
 1760000   0.56469978   -8.5648474    211.62529  0.010020137 0.0082967274          396 
 1761000   0.55607208   -8.5733605    211.44091  0.010005722 0.0082888743          395 
 1762000   0.54539344   -8.5932986     211.1345 0.0099855514 0.0082810342          295 
 1763000   0.55344702   -8.5738618    211.53555 0.0099988441 0.0082732083          382 
 1764000   0.54503676   -8.5689862    211.63433 0.0099978425 0.0082653898          346 
 1765000   0.55367448   -8.5862568    211.29528   0.00997617 0.0082575815          258 
 1766000   0.54880402   -8.5638801       211.74 0.0099915064 0.0082497809          391 
 1767000   0.54557686    -8.586826    211.34261 0.0099671103 0.0082419873          364 
 1768000    0.5548371   -8.5780234      211.144 0.0099521116 0.0082341992          371 
 1769000   0.54343471   -8.5867551    211.34058 0.0099557462 0.0082264212          335 
 1770000   0.55323382    -8.585284    211.30502 0.0099484471 0.0082186564          344 
 1771000   0.55493016   -8.6011033    211.07667 0.0099320849 0.0082109014          395 
 1772000   0.55751076   -8.5901051    211.36086 0.0099398446 0.0082031564          359 
 1773000   0.54390754   -8.5879076    211.92712 0.0099608535  0.008195428          365 
 1774000   0.55619025   -8.5932142    211.38424 0.0099297368 0.0081876998          281 
 1775000   0.54483117    -8.593921     211.1112 0.0099113239 0.0081799809          332 
 1776000   0.54217205   -8.5760866    211.22255  0.009910968 0.0081722742          402 
 1777000   0.53451426   -8.5700472    211.27515 0.0099078576 0.0081645781          371 
 1778000   0.53497147   -8.5793053    211.31849 0.0099043161 0.0081568874          461 
 1779000   0.53265684   -8.6004189    211.11295 0.0098891207 0.0081492081          290 
 1780000   0.55051633    -8.584274    211.45732 0.0098996871 0.0081415366          435 
 1781000   0.54853625   -8.6058616    211.34158 0.0098887135 0.0081338798          347 
 1782000   0.53335244    -8.594104    211.09627 0.0098716925 0.0081262298          474 
 1783000   0.53389488    -8.583301    211.28749 0.0098750931 0.0081185836          376 
 1784000   0.54444155   -8.5865868    211.10436 0.0098610031  0.008110949          404 
 1785000   0.56376083   -8.5906527    211.14051 0.0098571666 0.0081033232          354 
 1786000    0.5403399   -8.5913844    211.27772 0.0098580498 0.0080957095          467 
 1787000   0.53310393   -8.6181068    211.64382 0.0098696053 0.0080881013          469 
 1788000   0.53140418   -8.5888513    211.16394 0.0098417198 0.0080804923          383 
 1789000    0.5426219   -8.5841362    210.98442 0.0098278564 0.0080728996          366 
 1790000   0.53571945   -8.5904965    211.13176 0.0098292252 0.0080653216          365 
 1791000   0.53863686   -8.6009023    211.06816  0.009820778 0.0080577571          414 
 1792000   0.53769629   -8.5973572    211.34316  0.009828086 0.0080501897          406 
 1793000   0.52991857   -8.5903784    211.54495 0.0098319832   0.00804263          389 
 1794000   0.55240991    -8.599589     211.3329 0.0098166529 0.0080350881          280 
 1795000   0.53106607   -8.6048267    211.40845 0.0098146912 0.0080275485          327 
 1796000   0.53523433   -8.5805416    211.35984 0.0098069711 0.0080200269          361 
 1797000   0.52479432   -8.6008196    211.54376 0.0098100427 0.0080125123          438 
 1798000   0.54145601   -8.5874116    211.62019 0.0098081291 0.0080050135          343 
 1799000   0.53851116   -8.6056374    211.07583  0.009777461  0.007997519          355 
 1800000    0.5402881   -8.6172234    211.54481 0.0097937412 0.0079900342          407 
 1801000   0.53205519   -8.5957806    211.29163 0.0097765885  0.007982557          265 
 1802000   0.52915352   -8.6167424    211.25509 0.0097694733 0.0079750853          237 
 1803000    0.5446242   -8.6007779    211.15144  0.009759264 0.0079676239          400 
 1804000   0.53236165   -8.6028061     211.4744 0.0097687732 0.0079601624          392 
 1805000   0.53175962   -8.6032487    211.15288 0.0097485169  0.007952721          443 
 1806000   0.52471089   -8.6100468    211.24532 0.0097473847 0.0079452804          405 
 1807000   0.51944664   -8.6015958    211.10697 0.0097356102 0.0079378529          365 
 1808000   0.52097542   -8.5948394    211.23148 0.0097359643 0.0079304393          393 
 1809000   0.53197296   -8.6062106    211.37853 0.0097373563 0.0079230281          384 
 1810000   0.52480969   -8.6210352    211.02821 0.0097158475 0.0079156331          456 
 1811000   0.53564333   -8.6229231    210.60767 0.0096911313 0.0079082364          391 
 1812000   0.53128382    -8.616526    210.76514 0.0096930251 0.0079008532          367 
 1813000   0.53393916   -8.6195707    211.34193 0.0097141908 0.0078934855          262 
 1814000   0.52365896   -8.5911957    211.56454 0.0097190619 0.0078861173          290 
 1815000   0.52700958   -8.6297493    211.33811 0.0097033107 0.0078787691          401 
 1816000   0.53648853   -8.6150493     211.0533 0.0096848981 0.0078714215          340 
 1817000   0.52958983   -8.6092086    211.09082 0.0096812888 0.0078640722          511 
 1818000    0.5246618   -8.6168894    210.93714 0.0096689192 0.0078567445          470 
 1819000   0.52836841   -8.6156357    210.79311 0.0096570052 0.0078494172          386 
 1820000   0.53998699   -8.6060234    210.81277 0.0096525995 0.0078421009          372 
 1821000   0.52970246   -8.6001838     211.0315 0.0096573082 0.0078347946          371 
 1822000   0.52290949     -8.60604    210.90535 0.0096462379 0.0078274974          361 
 1823000   0.53203227   -8.6320096    211.01531 0.0096459733 0.0078202115          348 
 1824000   0.52537197   -8.6343718    210.67268 0.0096250309 0.0078129283          373 
 1825000    0.5305882   -8.6230388    210.86088 0.0096283505  0.007805654          362 
 1826000   0.52617269   -8.6367849    210.57778  0.009610158 0.0077983897          393 
 1827000   0.51876046   -8.6188363    210.58649 0.0096052951 0.0077911275          486 
 1828000   0.51778534   -8.6262435    211.04877 0.0096211147 0.0077838811          384 
 1829000   0.52613473   -8.6264972      210.943  0.009611035 0.0077766413          419 
 1830000    0.5244635   -8.6288499    211.10716 0.0096132588 0.0077694161          346 
 1831000    0.5174511   -8.6366933    211.19575 0.0096120401 0.0077621926          375 
 1832000   0.53112233   -8.6232603    210.98166  0.009597055 0.0077549801          288 
 1833000   0.52965936   -8.6160388    211.13843 0.0095989468  0.007747779          366 
 1834000   0.51359748   -8.6242566    210.58451 0.0095685439 0.0077405838          384 
 1835000   0.52613415   -8.6151513    211.08502 0.0095860591 0.0077334072          400 
 1836000   0.52420188   -8.6144742    210.92389 0.0095735243 0.0077262365          359 
 1837000   0.51827775    -8.616196    210.85185  0.009565045 0.0077190727          442 
 1838000   0.53134324   -8.6208973    210.66043 0.0095511622 0.0077119087          369 
 1839000   0.50850108   -8.6198638    211.00047 0.0095613772 0.0077047542          416 
 1840000   0.51962065   -8.6401407    210.55761 0.0095361236 0.0076976122          426 
 1841000   0.51813197    -8.614639    210.73853 0.0095391331 0.0076904806          380 
 1842000   0.49909914   -8.6392967    210.86528 0.0095396888 0.0076833557          378 
 1843000   0.54090843   -8.6284226    210.46364  0.009516352 0.0076762412          343 
 1844000   0.50440342   -8.6420961    210.73741 0.0095235632 0.0076691348          416 
 1845000   0.51799415   -8.6305712    211.17434 0.0095381366 0.0076620344          399 
 1846000    0.5288429   -8.6434523    210.97798 0.0095241052 0.0076549429          425 
 1847000   0.51929896   -8.6276336    210.51445 0.0094980351 0.0076478581          382 
 1848000   0.50929712   -8.6345292    210.75533 0.0095037575 0.0076407905          361 
 1849000   0.51253191   -8.6407315    210.95059 0.0095074179 0.0076337246          504 
 1850000   0.51520856   -8.6340837    210.75793 0.0094936003 0.0076266798          340 
 1851000   0.51767786   -8.6310245    210.48228 0.0094760617 0.0076196387          369 
 1852000   0.51117835   -8.6154371       210.88 0.0094888411 0.0076126036          406 
 1853000   0.50486176   -8.6289609    210.82175 0.0094811006  0.007605577          389 
 1854000   0.50567195   -8.6426838    210.51697 0.0094622874 0.0075985583          426 
 1855000   0.50957964   -8.6313031    210.74751 0.0094675432 0.0075915409          419 
 1856000   0.51509686   -8.6471918     210.5184 0.0094521551 0.0075845416          378 
 1857000   0.50845345    -8.626275    210.64117 0.0094525745 0.0075775448          368 
 1858000   0.49194314   -8.6426601    210.56574 0.0094441039 0.0075705557          412 
 1859000   0.50572784   -8.6565777     210.4734 0.0094348845 0.0075635755          435 
 1860000   0.51042487   -8.6256949    210.36479 0.0094249458 0.0075566062          401 
 1861000   0.50939347   -8.6315919    210.80529 0.0094396062 0.0075496514          353 
 1862000   0.50501311   -8.6241529    210.73959 0.0094315966 0.0075426952          378 
 1863000    0.5069012   -8.6567338    210.28214 0.0094060718 0.0075357413          411 
 1864000    0.5068193   -8.6293859    210.90591 0.0094289121 0.0075288022          465 
 1865000   0.50475562   -8.6508584    210.23284 0.0093937818 0.0075218704          452 
 1866000   0.50941847   -8.6350883    210.70001  0.009409611  0.007514948          493 
 1867000   0.51136263    -8.637297    210.72074 0.0094054962 0.0075080365          504 
 1868000   0.50145669   -8.6356464    210.66292 0.0093978821 0.0075011278          471 
 1869000   0.49752611   -8.6515985     210.6887  0.009394003 0.0074942334          434 
 1870000    0.5019999   -8.6343557    210.54195 0.0093824399 0.0074873427          445 
 1871000   0.50735151   -8.6614442    210.83669 0.0093905528 0.0074804685          405 
 1872000   0.50090864   -8.6377178    210.69991 0.0093794478 0.0074735949          370 
 1873000   0.49160586   -8.6460924    210.98905  0.009387304 0.0074667304          434 
 1874000   0.50980291   -8.6704117    210.34572 0.0093536874 0.0074598718          386 
 1875000   0.50582899   -8.6493128    210.15183 0.0093400812 0.0074530195          409 
 1876000   0.50591095   -8.6573072    210.23267 0.0093386938 0.0074461806          414 
 1877000   0.49765518   -8.6426506    210.36353 0.0093395282 0.0074393466          483 
 1878000   0.51086927   -8.6381994    210.60414 0.0093452316 0.0074325229          589 
 1879000   0.50457034   -8.6492273    210.54759 0.0093377503 0.0074257084          386 
 1880000   0.50382667   -8.6331883    210.95074 0.0093506533 0.0074188994          392 
 1881000   0.50617895   -8.6571048     210.8566 0.0093415116 0.0074121021          427 
 1882000   0.50269154   -8.6284914    210.68882 0.0093291186 0.0074053116          415 
 1883000   0.49450382   -8.6608579    210.16723 0.0093010813 0.0073985239          444 
 1884000   0.49652391   -8.6560908    210.43824 0.0093081314 0.0073917466          417 
 1885000   0.48886705   -8.6476715    210.63465 0.0093118768 0.0073849753          418 
 1886000    0.5094545   -8.6482905    210.90388 0.0093188351 0.0073782209          421 
 1887000   0.49478393   -8.6654326    210.61545 0.0093011591  0.007371472          406 
 1888000   0.50406525   -8.6482878    210.75834 0.0093025395 0.0073647285          450 
 1889000   0.50897045   -8.6522308     210.5953 0.0092904227 0.0073579868          441 
 1890000   0.50691381   -8.6533515     210.4381 0.0092785757 0.0073512571          380 
 1891000   0.49573005   -8.6504115    210.49079 0.0092759911 0.0073445309          431 
 1892000   0.49820293   -8.6654781    210.43723 0.0092687291 0.0073378087          394 
 1893000   0.50316147    -8.639463    210.53472 0.0092681245  0.007331101          443 
 1894000   0.49213625   -8.6526809    210.66734 0.0092690662 0.0073244011          418 
 1895000   0.50659428   -8.6700555    210.63249 0.0092626426 0.0073177066          403 
 1896000   0.49540209   -8.6664174    210.57554 0.0092552542 0.0073110202          430 
 1897000   0.49082782   -8.6492571     210.5388 0.0092487613 0.0073043461          469 
 1898000   0.50642134   -8.6599614    210.33389 0.0092348913  0.007297682          434 
 1899000   0.48788847   -8.6526335    210.39286 0.0092326164 0.0072910293          421 
 1900000    0.4913507   -8.6848109    210.31005 0.0092241251 0.0072843831          490 
 1901000   0.48846683   -8.6660961    210.23844 0.0092161336 0.0072777458          405 
 1902000   0.49727174   -8.6440645    210.30291  0.009214113 0.0072711144          374 
 1903000   0.48837794   -8.6731882    210.06746 0.0091989605 0.0072644908          355 
 1904000   0.49187554   -8.6758702    210.31372 0.0092049072 0.0072578717          425 
 1905000   0.50753139   -8.6544218    210.60356 0.0092127541 0.0072512664          382 
 1906000   0.49103027   -8.6587336    209.93779 0.0091788122 0.0072446655          434 
 1907000   0.48805271   -8.6647986    210.34219 0.0091916705 0.0072380703          523 
 1908000   0.48462265   -8.6630883    210.45007  0.009191565 0.0072314881          549 
 1909000   0.49175239   -8.6652552    210.38314 0.0091838286 0.0072249073          457 
 1910000   0.48152263   -8.6632765    210.34276 0.0091772582 0.0072183374          376 
 1911000   0.48628305   -8.6547256    210.02778 0.0091587207 0.0072117751          412 
 1912000   0.47592703   -8.6904226    210.15198 0.0091593437 0.0072052178          412 
 1913000   0.48847862   -8.6842186    210.25516 0.0091590505 0.0071986619          431 
 1914000   0.48999067   -8.6691992    210.19869 0.0091518062 0.0071921205          430 
 1915000   0.49050572   -8.6904655     210.5099 0.0091605699 0.0071855802          416 
 1916000   0.49151155   -8.6806621      210.087 0.0091373957 0.0071790483          359 
 1917000   0.48611558   -8.6786299    210.42767 0.0091474382 0.0071725283          365 
 1918000   0.48189191   -8.6719292    210.17109 0.0091315211 0.0071660126          369 
 1919000   0.49242696   -8.6802295    209.97013 0.0091180361 0.0071595044          392 
 1920000   0.48297799   -8.6889305    210.16412 0.0091217065 0.0071530072          443 
 1921000   0.48840953   -8.6682297    210.54563 0.0091335081 0.0071465207          509 
 1922000   0.48380211   -8.6845384    210.01028 0.0091055447 0.0071400394          525 
 1923000   0.48089155   -8.6798725    210.01338 0.0091009437 0.0071335657          455 
 1924000   0.48232385   -8.6888162    210.08246 0.0090992055 0.0071271014          450 
 1925000   0.48445532   -8.6869221    209.77721 0.0090812645 0.0071206403          368 
 1926000   0.49386492    -8.700685    210.00555 0.0090864292 0.0071141927          431 
 1927000   0.49168757   -8.7052312    210.12194 0.0090867471  0.007107744          396 
 1928000   0.48694639   -8.6972671    210.18378 0.0090847072 0.0071013057          393 
 1929000   0.47879966   -8.6902166    210.05907 0.0090746099  0.007094879          572 
 1930000   0.48172189   -8.6915712    210.29407 0.0090800549 0.0070884551          558 
 1931000   0.48885963   -8.6951166    210.25864 0.0090738236   0.00708204          334 
 1932000      0.47792   -8.6801207    210.34674 0.0090729272  0.007075632          505 
 1933000   0.46978711   -8.6983286    210.12928 0.0090588584 0.0070692229          620 
 1934000   0.49224155   -8.6797269    210.19297 0.0090569187 0.0070628319          547 
 1935000   0.48325311   -8.7114988    209.96118 0.0090422557 0.0070564455          368 
 1936000   0.48730335   -8.6938703     210.0755 0.0090425061 0.0070500647          393 
 1937000   0.47684935   -8.7032843    210.23721 0.0090447949 0.0070437015          361 
 1938000   0.47534813   -8.6931352    210.37908 0.0090462283 0.0070373397          549 
 1939000   0.48142332   -8.6812627    210.12038 0.0090304446 0.0070309845          401 
 1940000   0.47709338   -8.6941407    210.27812 0.0090325652 0.0070246327          408 
 1941000   0.47805807   -8.7081355    210.14606  0.009022242 0.0070182973          425 
 1942000   0.47763276   -8.7005821     210.2825  0.009023451 0.0070119635          403 
 1943000   0.48388775    -8.697148    210.19172 0.0090149131 0.0070056332          604 
 1944000   0.47213945   -8.7019908    210.18047 0.0090097939 0.0069993177          390 
 1945000   0.46923985   -8.7243927    210.07522 0.0090006521 0.0069930032          430 
 1946000   0.48190309   -8.7055577    210.08154 0.0089962976  0.006986695          366 
 1947000   0.47043336   -8.7017402    210.16928 0.0089954322 0.0069803988          413 
 1948000   0.48491912   -8.7053742    209.83657 0.0089765815 0.0069741083          404 
 1949000   0.47218232   -8.6925355    210.22666 0.0089886547 0.0069678284          405 
 1950000   0.46591329   -8.7047887    209.87295 0.0089689296 0.0069615561          397 
 1951000   0.48141021   -8.6962274    210.01784 0.0089705212 0.0069552874          423 
 1952000   0.46683556   -8.7046179    209.97545 0.0089641159 0.0069490334          356 
 1953000   0.46756032   -8.6902645     209.9595 0.0089588455  0.006942789          440 
 1954000   0.48133382   -8.6967971      210.139 0.0089619157 0.0069365411          398 
 1955000   0.47441836   -8.6988514    209.80535 0.0089431096 0.0069303111          384 
 1956000   0.47768366   -8.7012313    209.87053 0.0089413144 0.0069240898          556 
 1957000   0.47226577   -8.7138794    209.92697 0.0089391488 0.0069178738          369 
 1958000   0.47636495   -8.7107642    210.07364 0.0089408257 0.0069116591          420 
 1959000   0.47484424   -8.6978054    210.17138 0.0089404194 0.0069054495          386 
 1960000   0.46999731   -8.7239665    209.90947 0.0089247222 0.0068992508          403 
 1961000   0.46526348   -8.7173677    209.85982 0.0089180615 0.0068930572          439 
 1962000   0.47479327   -8.6944563    209.88418 0.0089145505  0.006886876          390 
 1963000   0.48116197   -8.6882592    210.03253 0.0089163071  0.006880702          260 
 1964000   0.47356025   -8.7200273    209.93918 0.0089078065 0.0068745312          425 
 1965000   0.46840221   -8.7158079     210.0581 0.0089083164 0.0068683671          601 
 1966000   0.47273628   -8.7064637    209.82455 0.0088938857 0.0068622186          411 
 1967000   0.47610738    -8.711536    210.04651 0.0088987676 0.0068560741          406 
 1968000   0.47384376   -8.7091695    210.25595 0.0089031142 0.0068499371          390 
 1969000   0.45793135   -8.7077315    209.74868 0.0088771237 0.0068438017          267 
 1970000   0.46835068   -8.6979666    209.76355 0.0088732468 0.0068376802          543 
 1971000   0.46419701   -8.7132694    210.02583  0.008879834 0.0068315588          449 
 1972000   0.46584651   -8.7228795      209.835 0.0088672666 0.0068254491          424 
 1973000    0.4567319   -8.7081265    210.31344 0.0088829804 0.0068193448          612 
 1974000   0.47464551   -8.7184398    209.86032 0.0088593517 0.0068132467          439 
 1975000   0.46368072    -8.710099    209.85735 0.0088547405 0.0068071558          398 
 1976000   0.46268762   -8.7171664    210.14729 0.0088624871 0.0068010736          356 
 1977000   0.46124028   -8.7197719    209.98056 0.0088509764 0.0067949971          431 
 1978000   0.45182956   -8.7175618    210.07595 0.0088505202  0.006788931          414 
 1979000   0.47076181   -8.7217809    209.95143 0.0088408045 0.0067828696          421 
 1980000   0.47116798   -8.7254369    209.72587 0.0088268464 0.0067768137          396 
 1981000   0.46837851   -8.7287362    209.87726  0.008828759 0.0067707629          393 
 1982000   0.47308803   -8.7234332    209.81463 0.0088216711 0.0067647256          476 
 1983000   0.46472552   -8.7065088    209.67722 0.0088114481 0.0067586927          525 
 1984000   0.45619365    -8.717362    210.29482 0.0088329479 0.0067526685          404 
 1985000   0.45421634   -8.7130528    209.82143 0.0088086243 0.0067466478          375 
 1986000   0.46321415   -8.7324423    209.52643 0.0087918104 0.0067406422          391 
 1987000   0.45224713   -8.7241204    210.01033 0.0088076802 0.0067346346          412 
 1988000   0.46149469   -8.7326527    209.98024 0.0088019887 0.0067286366          492 
 1989000   0.45446201   -8.7353361    209.68015 0.0087849905  0.006722649          485 
 1990000   0.47599983   -8.7503634    209.98696 0.0087934239 0.0067166649          430 
 1991000   0.45577034   -8.7126209    209.95309 0.0087875895 0.0067106871          391 
 1992000   0.46433884   -8.7211246    209.61894 0.0087691995 0.0067047161          448 
 1993000   0.45887433   -8.7532789    209.79527 0.0087721723  0.006698752          436 
 1994000   0.46004863   -8.7201567     209.6714 0.0087625962 0.0066927914          387 
 1995000   0.45036177   -8.7350096    209.71595 0.0087600646 0.0066868407          517 
 1996000   0.44851549   -8.7183717    209.98525 0.0087669194 0.0066808952          389 
 1997000   0.45951138   -8.7442774    209.74718 0.0087525947 0.0066749553          451 
 1998000   0.45102825   -8.7269098    209.99821 0.0087586843 0.0066690253          448 
 1999000   0.45582768   -8.7132945    210.09074 0.0087581597 0.0066631038          408 
 2000000   0.46000313   -8.7195901    209.89118 0.0087454658 0.0066571923          347 
 2001000   0.45709791    -8.727736    209.60026 0.0087289799  0.006651279          420 
 2002000   0.44777093   -8.7293729    210.00165 0.0087413276 0.0066453759          516 
 2003000   0.44707939   -8.7183093    209.84779 0.0087305622 0.0066394771          422 
 2004000   0.46461685   -8.7458856    209.63768 0.0087174682 0.0066335887          476 
 2005000   0.45888912    -8.738392    209.55128 0.0087095295   0.00662771          398 
 2006000   0.44316283   -8.7273521    209.64924 0.0087092574 0.0066218336          402 
 2007000   0.45627571   -8.7375773    209.39768 0.0086944725  0.006615968          413 
 2008000   0.44988187   -8.7071145    209.56087 0.0086969152 0.0066101149          431 
 2009000   0.45086127   -8.7358713    209.54369 0.0086918735 0.0066042636          513 
 2010000   0.44704424   -8.7348044    209.79375 0.0086979168 0.0065984201          405 
 2011000   0.45541639   -8.7421469    209.71356 0.0086902686 0.0065925819          443 
 2012000   0.45388292   -8.7444219    209.96036 0.0086961715 0.0065867456          490 
Loop time of 5191.46 on 48 procs for 2000000 steps with 4000 atoms

Performance: 66570.917 tau/day, 385.248 timesteps/s
99.4% CPU use with 48 MPI tasks x no OpenMP threads

MPI task timing breakdown:
Section |  min time  |  avg time  |  max time  |%varavg| %total
---------------------------------------------------------------
Pair    | 374.19     | 400.51     | 430.54     |  64.4 |  7.71
Neigh   | 36.613     | 37.959     | 39.246     |  11.2 |  0.73
Comm    | 330.2      | 357.91     | 385.11     |  66.5 |  6.89
Output  | 4.9222     | 4.9239     | 4.9675     |   0.3 |  0.09
Modify  | 4326.4     | 4342.6     | 4358.1     |  10.8 | 83.65
Other   |            | 47.54      |            |       |  0.92

Nlocal:        83.3333 ave          89 max          77 min
Histogram: 2 1 6 4 7 11 5 5 3 4
Nghost:        2410.96 ave        2426 max        2391 min
Histogram: 2 2 4 5 5 4 8 6 8 4
Neighs:        16663.7 ave       19112 max       14782 min
Histogram: 4 6 5 8 7 4 7 3 3 1
FullNghs:      33328.2 ave       35907 max       30720 min
Histogram: 2 1 5 9 7 8 7 4 3 2

Total # of neighbors = 1599752
Ave neighs/atom = 399.93800
Neighbor list builds = 106499
Dangerous builds = 0

#clear
#
#next RN
#
#jump SELF
Total wall time: 1:26:35
