
units lj                  # Use reduced LJ style units
atom_style atomic         # Uncharged point particles
atom_modify map hash      # Needed for indexing of clusters etc
                          # Used to be able to find where atoms are in relation to each other.

lattice fcc 1.0 spacing 1 1 1
Lattice spacing in x,y,z = 1.5874011 1.5874011 1.5874011
region box block 0 10 0 10 0 10 units lattice
create_box 2 box
Created orthogonal box = (0.0000000 0.0000000 0.0000000) to (15.874011 15.874011 15.874011)
  3 by 4 by 4 MPI processor grid
create_atoms 1 box
Created 4000 atoms
  using lattice units in orthogonal box = (0.0000000 0.0000000 0.0000000) to (15.874011 15.874011 15.874011)
  create_atoms CPU = 0.005 seconds
set type 1 type/fraction 2 0.49 78393
Setting atom values ...
  1962 settings made for type/fraction
mass 1 1.0
mass 2 1.0
pair_style lj/cut  3.5
pair_modify tail  yes
pair_coeff 1  1  1.0  1.0   # Intearaction between 1 and 1 set with epsilon = 1 and sigma = 1
pair_coeff 1  2  1.5  0.8
pair_coeff 2  2  0.5  0.88

write_data data.0
System init for write_data ...
Neighbor list info ...
  update every 1 steps, delay 10 steps, check yes
  max neighbors/atom: 2000, page size: 100000
  master list distance cutoff = 3.8
  ghost atom cutoff = 3.8
  binsize = 1.9, bins = 9 9 9
  1 neighbor lists, perpetual/occasional/extra = 1 0 0
  (1) pair lj/cut, perpetual
      attributes: half, newton on
      pair build: half/bin/atomonly/newton
      stencil: half/bin/3d
      bin: standard
WARNING: Not all mixed pair coeffs generated from mixing. Use write_data with 'pair ij' option to store all pair coeffs. (../write_data.cpp:312)


#############################
#   M E L T   S Y S T E M   #
#############################

velocity all create 2.4 1741580 mom yes dist gaussian # Assign velocities
                                                    # Temperature 2.4, random number seed, zero linear momentum
                                                                                # Gaussian distribution

timestep 0.002   # simulation timestep
thermo 1000       # output thermodynamic data every 1000 steps bf 100

# Define a fix  in this case with index 1 applied to all
# particles in the simulation. This fix is for simulations
# in the anisotropic NPT ensemble. Note that we use the MTK
# correction.
fix 1 all npt temp 2.4 2.4 0.1 iso 5.68 5.68 0.5 mtk yes tchain 5 pchain 5 # Use NPT ensemble
                                                                         # Set temperature and pressure and damping
                                                                         # Numbers of thermostats in chain and in barostat
run 10000          # run for 10000 steps
Per MPI rank memory allocation (min/avg/max) = 3.642 | 3.644 | 3.648 Mbytes
Step Temp E_pair E_mol TotEng Press Volume 
       0          2.4   -5.3537253            0   -1.7546253   -4.2069924         4000 
    1000    2.4005424   -4.8930223            0   -1.2931089      5.65137    3732.2352 
    2000    2.4504081   -4.8557788            0   -1.1810855    5.7916915    3738.1112 
    3000     2.418493   -4.8634826            0   -1.2366501    6.3255648      3689.76 
    4000    2.4020884    -4.937319            0   -1.3350871      5.55382    3713.1916 
    5000    2.3699286   -4.9338842            0   -1.3798799    5.5292514    3718.7216 
    6000    2.4150105    -4.884642            0   -1.2630319    5.5953735    3736.1624 
    7000     2.427703   -4.9201732            0   -1.2795291    5.5381056    3729.0744 
    8000    2.3747888   -4.9292259            0   -1.3679333    5.4939816    3719.1991 
    9000    2.3986427   -4.8954528            0   -1.2983882    5.8019034    3714.8804 
   10000    2.3457514   -4.8798963            0   -1.3621489    5.4732894    3735.2457 
Loop time of 2.63566 on 48 procs for 10000 steps with 4000 atoms

Performance: 655624.124 tau/day, 3794.121 timesteps/s
99.6% CPU use with 48 MPI tasks x no OpenMP threads

MPI task timing breakdown:
Section |  min time  |  avg time  |  max time  |%varavg| %total
---------------------------------------------------------------
Pair    | 1.1664     | 1.2512     | 1.4113     |   3.6 | 47.47
Neigh   | 0.21192    | 0.22268    | 0.24732    |   1.3 |  8.45
Comm    | 0.72548    | 0.89328    | 1.0089     |   5.5 | 33.89
Output  | 0.00025183 | 0.00025584 | 0.00032282 |   0.0 |  0.01
Modify  | 0.21337    | 0.25227    | 0.3106     |   4.7 |  9.57
Other   |            | 0.01594    |            |       |  0.60

Nlocal:        83.3333 ave          95 max          75 min
Histogram: 3 3 6 10 10 7 2 2 4 1
Nghost:        1724.19 ave        1760 max        1693 min
Histogram: 4 5 3 5 9 10 3 4 3 2
Neighs:        10222.2 ave       12099 max        8768 min
Histogram: 2 3 5 14 9 6 3 4 1 1

Total # of neighbors = 490664
Ave neighs/atom = 122.66600
Neighbor list builds = 902
Dangerous builds = 187

# Equilibrate just above the melting temperature to avoid step fn in T

fix 1 all npt temp 1.25 1.25 0.1 iso 5.68 5.68 0.5 mtk yes tchain 5 pchain 5
run 2000
Per MPI rank memory allocation (min/avg/max) = 3.644 | 3.646 | 3.649 Mbytes
Step Temp E_pair E_mol TotEng Press Volume 
   10000    2.3457514   -4.8798963            0   -1.3621489    5.4732894    3735.2457 
   11000    1.2335609   -7.0012082            0   -5.1513295    5.6172028    2907.8305 
   12000      1.24883   -7.1347093            0   -5.2619326     5.941072    2862.2323 
Loop time of 0.639828 on 48 procs for 2000 steps with 4000 atoms

Performance: 540145.376 tau/day, 3125.841 timesteps/s
99.6% CPU use with 48 MPI tasks x no OpenMP threads

MPI task timing breakdown:
Section |  min time  |  avg time  |  max time  |%varavg| %total
---------------------------------------------------------------
Pair    | 0.29626    | 0.31675    | 0.3443     |   1.9 | 49.50
Neigh   | 0.041068   | 0.043499   | 0.045924   |   0.5 |  6.80
Comm    | 0.19845    | 0.22938    | 0.25372    |   2.6 | 35.85
Output  | 5.2642e-05 | 5.4133e-05 | 7.0947e-05 |   0.0 |  0.01
Modify  | 0.040792   | 0.04513    | 0.049057   |   1.2 |  7.05
Other   |            | 0.005021   |            |       |  0.78

Nlocal:        83.3333 ave          91 max          74 min
Histogram: 4 1 2 1 10 10 5 10 3 2
Nghost:        2059.08 ave        2084 max        2032 min
Histogram: 3 3 4 5 6 9 6 5 2 5
Neighs:        13350.7 ave       14851 max       11309 min
Histogram: 1 2 4 5 4 8 12 4 3 5

Total # of neighbors = 640832
Ave neighs/atom = 160.20800
Neighbor list builds = 143
Dangerous builds = 10

#############################
# L I N E A R  Q U E N C H  #
#############################

# Define solid atoms. This closely follows ten Wolde  Ruiz-Montero and Frenkel  Faraday Discuss  1996  104  93-110
# Compute components of the per-atom q6 vector
compute q6 all orientorder/atom degrees 1 6 components 6 nnn NULL cutoff 1.3 # compute the Q6 parameter.
                                                                             # Use all neighbours within 1.3 unit cell.

# get number of connections
compute coord_number all coord/atom orientorder q6 0.5

# An atom is solid if it has 8 or more connections (of a possible 14)
variable is_solid atom c_coord_number>=8
group solid dynamic all var is_solid    # Must be dynamic to update
dynamic group solid defined

# do clustering
compute cluster solid cluster/atom 1.3 # Create a cluster where all atoms within are solid and max 1.3 units from another member

# define chunks one chunk per cluster
compute clus_chunks solid chunk/atom c_cluster nchunk every compress yes  # Says which atoms are in which chunk

# count the size of each chunk
compute size_chunks solid property/chunk clus_chunks count


# Find the maximum entry in the vector of chunk sizes
variable max_n equal max(c_size_chunks)


# Thermo style which includes this variable
# thermo_style custom step temp pe vol v_max_n

thermo ${N}  # Print the thermo information every 100 steps
thermo 1000  

# Reset the npt fix at a lower temperature (below freezing)
fix 1  all npt temp  ${temp} ${temp}  0.1  iso  5.68  5.68  0.5  mtk yes tchain  5  pchain  5
fix 1  all npt temp  0.45 ${temp}  0.1  iso  5.68  5.68  0.5  mtk yes tchain  5  pchain  5
fix 1  all npt temp  0.45 0.45  0.1  iso  5.68  5.68  0.5  mtk yes tchain  5  pchain  5

dump dmp2 all dcd ${N} traj.dcd
dump dmp2 all dcd 1000 traj.dcd


compute msd all msd com yes
variable twopoint equal c_msd[4]/6/(step*dt+1.0e-6)
fix 9 all vector 10 c_msd[4]
variable fit equal slope(f_9)/6/(10*dt)
thermo_style custom step temp pe c_msd[4] v_twopoint v_fit v_max_n

fix 1 all npt temp 1.25 ${temp} 0.1 iso 5.68 5.68 0.5 mtk yes tchain 5 pchain 5
fix 1 all npt temp 1.25 0.45 0.1 iso 5.68 5.68 0.5 mtk yes tchain 5 pchain 5
run 500000 # 5000000  # Run for this many steps
Neighbor list info ...
  update every 1 steps, delay 10 steps, check yes
  max neighbors/atom: 2000, page size: 100000
  master list distance cutoff = 3.8
  ghost atom cutoff = 3.8
  binsize = 1.9, bins = 8 8 8
  4 neighbor lists, perpetual/occasional/extra = 1 3 0
  (1) pair lj/cut, perpetual
      attributes: half, newton on
      pair build: half/bin/atomonly/newton
      stencil: half/bin/3d
      bin: standard
  (2) compute orientorder/atom, occasional
      attributes: full, newton on
      pair build: full/bin/atomonly
      stencil: full/bin/3d
      bin: standard
  (3) compute coord/atom, occasional
      attributes: full, newton on
      pair build: full/bin/atomonly
      stencil: full/bin/3d
      bin: standard
  (4) compute cluster/atom, occasional
      attributes: full, newton on
      pair build: full/bin/atomonly
      stencil: full/bin/3d
      bin: standard
Per MPI rank memory allocation (min/avg/max) = 9.836 | 9.844 | 9.848 Mbytes
Step Temp PotEng c_msd[4] v_twopoint v_fit v_max_n 
   12000      1.24883   -7.1347093            0            0 8.3333333e+20            2 
   13000      1.25735   -7.1676692   0.42992151  0.002755907  0.034784269            2 
   14000    1.2450695   -7.0836338   0.81966066 0.0048789323  0.032967025            1 
   15000    1.2519422   -7.0860563    1.2201255  0.006778475  0.032706877            2 
   16000    1.2824057   -7.1137407    1.6264018 0.0084708422  0.033179285            1 
   17000    1.2480127   -7.1232459    2.0192984 0.0098985215  0.033325802            1 
   18000    1.2549191    -7.119034    2.4041658  0.011130397  0.033187823            5 
   19000    1.2425247   -7.1455833    2.8057917  0.012306104  0.033011077            2 
   20000    1.2253433   -7.1770411    3.1149957  0.012979148  0.032680561            2 
   21000    1.2307795   -7.1547163    3.5005731  0.013891163  0.032310846            3 
   22000     1.235462   -7.1350061    3.9005857  0.014774946  0.032081981            2 
   23000    1.2443236   -7.1355396    4.3020625  0.015587183  0.032019851            3 
   24000     1.221395   -7.1264196     4.713905  0.016367725  0.032068283            4 
   25000     1.244615   -7.1524416    5.0888496  0.016962832  0.032044866            2 
   26000     1.212204   -7.1809529     5.368715   0.01720742  0.031979611            2 
   27000    1.2429951   -7.1314613    5.8185621  0.017958525  0.031897042            1 
   28000     1.243197   -7.1993343    6.2307446  0.018543882   0.03191935            1 
   29000    1.2171964   -7.2275675    6.7001318  0.019253252  0.032059891            6 
   30000     1.225774   -7.1861106    7.1625878  0.019896077  0.032250917            1 
   31000    1.2037841   -7.2198542      7.47592  0.020096559  0.032387476            3 
   32000    1.2262806    -7.187663    7.8829011  0.020528388  0.032444151            2 
   33000    1.2288562   -7.1394949    8.2186903  0.020754268  0.032501902            3 
   34000    1.2141429   -7.2136502    8.4687712  0.020756792   0.03242643            2 
   35000    1.2073793   -7.2070882    8.8139499  0.020985595  0.032302205            1 
   36000    1.2015266   -7.2034015    9.1173131  0.021104891  0.032145878            2 
   37000    1.1973521   -7.2313051    9.4593179   0.02130477  0.031959388            2 
   38000    1.2185439   -7.2111743    9.7916578  0.021472934  0.031801238            1 
   39000    1.2144595   -7.2319093    10.188332   0.02176994  0.031645339            1 
   40000    1.2245846   -7.2150546    10.535951  0.021949898  0.031513279            3 
   41000    1.1557566   -7.2430798    10.771944  0.021894194  0.031374092            1 
   42000    1.2030132   -7.2057691    11.183704  0.022189889  0.031221058            3 
   43000    1.2535584   -7.1933483    11.507975  0.022302277  0.031095589            4 
   44000    1.2040684   -7.2339021    11.775274  0.022301654  0.030949619            2 
   45000    1.1890712   -7.3070941    12.018407  0.022256309   0.03080299            4 
   46000    1.1918812   -7.3072683    12.353148  0.022378892  0.030620606            1 
   47000    1.1965532   -7.2402882    12.712801  0.022540426  0.030471235            2 
   48000    1.1892115   -7.2471341    12.986428  0.022545882  0.030337911            1 
   49000    1.1939653   -7.2583271    13.370644   0.02273919  0.030200834            3 
   50000    1.1483646   -7.2825385     13.77413  0.022956883  0.030094298            3 
   51000    1.1797574   -7.2424849    14.109959  0.023055489  0.030020344            1 
   52000    1.1772746    -7.304298    14.360168   0.02301309  0.029931034            2 
   53000    1.2081208   -7.2836182    14.757943  0.023204312  0.029831789            1 
   54000    1.1836105   -7.2683066    15.223853    0.0234936  0.029768111            2 
   55000     1.184543     -7.35136    15.540645  0.023546432  0.029725932            2 
   56000    1.1671494   -7.3321106    15.783078  0.023486723  0.029662393            7 
   57000    1.1928974   -7.3283952    15.962059  0.023336343  0.029581574            1 
   58000     1.167818   -7.2587227    16.448939  0.023633533  0.029493303            2 
   59000    1.1717379    -7.271949    16.886768  0.023851367  0.029437964            2 
   60000    1.1757885   -7.3234374    17.120716  0.023778772  0.029392316            1 
   61000    1.1956887   -7.3015261    17.447783  0.023835769  0.029333079            2 
   62000    1.1601763   -7.3569351    17.732003  0.023833337  0.029281222            3 
   63000    1.1707269   -7.2661893    18.130922  0.023982701  0.029226903            1 
   64000    1.1660996   -7.2797691     18.43525  0.024004232  0.029176413            3 
   65000    1.1894991   -7.3757527    18.556421  0.023790283  0.029099257            4 
   66000    1.1741525   -7.3354924     18.85401  0.023805568  0.029011706            2 
   67000    1.1406188   -7.3723561    18.990633   0.02362019  0.028922331            1 
   68000      1.17533   -7.3746014    19.308947  0.023662925    0.0288259            3 
   69000    1.1833369   -7.3421841     19.51737  0.023571703  0.028719924            1 
   70000    1.1572524   -7.3442699    19.890631  0.023679322  0.028615603            3 
   71000    1.1670347    -7.382578    20.007108   0.02348252  0.028509134            7 
   72000    1.1521125   -7.3855644    20.331942   0.02353234  0.028399723            1 
   73000    1.1750366   -7.4218522    20.599051  0.023514899  0.028294352            3 
   74000    1.1402652   -7.3695337     20.79103  0.023413322  0.028183785            2 
   75000     1.153055   -7.4110385    21.068219  0.023409132  0.028073068            2 
   76000    1.1527541   -7.3746082    21.461053  0.023531856  0.027968687            5 
   77000    1.1639917   -7.3735494    21.615477  0.023393373  0.027863592            2 
   78000    1.1492137   -7.3992263    21.854856  0.023349205  0.027765235            1 
   79000    1.1613008   -7.3958721    22.257488  0.023478362  0.027664579            3 
   80000    1.1308452   -7.3720695    22.675586  0.023620402  0.027576139            1 
   81000    1.1623248   -7.4348499    22.895974  0.023555529  0.027502963            2 
   82000    1.1350901   -7.3900065     23.22272  0.023600325  0.027434119            3 
   83000    1.1395419    -7.419958    23.420949  0.023515009   0.02735773            2 
   84000    1.1256133   -7.4179082    23.762573  0.023573981  0.027279134            3 
   85000    1.1203496    -7.413754    23.857342  0.023389551  0.027196354            4 
   86000    1.1371653   -7.4311491     24.16777  0.023418382  0.027113181            2 
   87000    1.1407212   -7.4494711     24.40488  0.023376322  0.027032488            1 
   88000    1.1462992   -7.4044766    24.802601  0.023487312  0.026953745            2 
   89000    1.1112234   -7.3960482    25.238459  0.023631516  0.026889536            2 
   90000     1.138301   -7.4415466    25.323877  0.023448034   0.02682399            2 
   91000    1.1229233   -7.4170768    25.715787  0.023549256  0.026759224            1 
   92000    1.1174655   -7.4032807     25.85257  0.023417183  0.026694618            1 
   93000     1.128918   -7.4183193    26.141058  0.023423887  0.026628315            2 
   94000    1.1105119   -7.5046106    26.456143  0.023454027  0.026564451            2 
   95000    1.1329102   -7.4515143    26.758661  0.023472509  0.026502324            3 
   96000    1.1002419   -7.3968562    27.108965  0.023532088  0.026442112            1 
   97000    1.1162627   -7.4657822    27.154871  0.023328927  0.026381103            2 
   98000    1.0678122   -7.4625292    27.326066  0.023236451  0.026313335            2 
   99000    1.0883906   -7.4822542     27.53851  0.023180564  0.026243174            3 
  100000    1.1056966   -7.4916566    27.857374  0.023214478  0.026171138            2 
  101000    1.1205385   -7.4389549     28.10275  0.023187087   0.02609777            2 
  102000    1.0943868    -7.471948    28.458435  0.023250356  0.026027532            3 
  103000    1.1093936   -7.5150767    28.573744  0.023117916   0.02595821            3 
  104000    1.0966971   -7.4943795    28.913799  0.023168108  0.025892985            4 
  105000    1.0926389   -7.4728429    28.928524  0.022959146  0.025824581            3 
  106000    1.0861688   -7.5248252    29.310761  0.023043051  0.025756842            4 
  107000    1.1118188   -7.5088844    29.460338  0.022944189  0.025690365            4 
  108000    1.0745792   -7.4917944     29.79167  0.022987399  0.025625264            3 
  109000    1.0755843   -7.5369798    29.984907  0.022924241  0.025561796            5 
  110000    1.0806581   -7.5443547    30.486683  0.023095972  0.025504094            2 
  111000    1.0956857   -7.5015202    30.818852  0.023137276  0.025453817            3 
  112000    1.0988604   -7.5124231    31.201023  0.023215047  0.025405642            3 
  113000    1.0913719   -7.5359591    31.362405  0.023128617  0.025360677            4 
  114000    1.0877831   -7.5745879    31.582557  0.023086664  0.025312247            4 
  115000    1.0960831   -7.5419653    31.742137  0.023001548  0.025260894            2 
  116000      1.08628   -7.5773798    32.029178  0.023009467  0.025207571            1 
  117000    1.0778285   -7.5481696    32.169212  0.022912544  0.025154906            2 
  118000    1.0837833   -7.5390944    32.438931  0.022908849  0.025098288            2 
  119000    1.0826991    -7.540949    32.441144  0.022717888  0.025039625            1 
  120000    1.0695085   -7.5517002    32.586382  0.022629432  0.024976138            2 
  121000    1.0624002   -7.5839912    32.861897   0.02263216  0.024912092            3 
  122000     1.067679   -7.5552141    33.271649  0.022726536  0.024852699            6 
  123000    1.0740517   -7.6178179    33.376189  0.022612594  0.024794091            2 
  124000    1.1075733   -7.5865053    33.733825  0.022670581  0.024738233            2 
  125000    1.0655005   -7.5836297    33.912409  0.022608273  0.024683847            4 
  126000    1.0847327   -7.6066351    34.192237  0.022613913  0.024629342            2 
  127000    1.0500912   -7.5800013    34.360815  0.022546466  0.024573839            3 
  128000     1.075337   -7.5887494     34.45684  0.022432839  0.024513687            6 
  129000     1.058508   -7.6202891    34.513487  0.022295534  0.024446137            4 
  130000    1.0512675   -7.5521218    34.701456  0.022244523  0.024377412            3 
  131000    1.0713385   -7.5867111    34.962138  0.022240546  0.024310838            1 
  132000    1.0713645   -7.6014637    35.155423   0.02219408  0.024246945            4 
  133000     1.048048   -7.6068762    35.420715   0.02219343  0.024184133            7 
  134000    1.0434014   -7.5724344    35.739332  0.022225953  0.024122499            3 
  135000      1.05772   -7.6175641    35.870265  0.022142139  0.024060266            2 
  136000    1.0308716     -7.61445    35.944454  0.022024788  0.023997405            4 
  137000    1.0421694   -7.6411555     35.99813  0.021896672  0.023929898            2 
  138000    1.0507369   -7.6288695     36.20045  0.021860175   0.02386072            2 
  139000    1.0609752   -7.6072392    36.580892  0.021930991  0.023795581            3 
  140000    1.0567647   -7.6380701    36.688855  0.021838604    0.0237287            2 
  141000    1.0087248   -7.6271162    36.717946  0.021700914  0.023661761            2 
  142000    1.0342856   -7.6500676    36.844124  0.021622139  0.023592764            4 
  143000    1.0446873   -7.6209656     37.05107  0.021591532  0.023525279            5 
  144000    1.0409493   -7.6425626    37.191815  0.021523041  0.023457484            3 
  145000    1.0511052   -7.6544958    37.444587  0.021519878  0.023386864            7 
  146000    1.0083654   -7.6581818    37.489438  0.021398081   0.02331619            2 
  147000    1.0340113   -7.6927784     37.55864  0.021291746  0.023244414            3 
  148000    1.0209565   -7.6918646    37.771328  0.021267639   0.02317151            4 
  149000    1.0265529   -7.6664367    37.982238  0.021242862  0.023099454            2 
  150000     1.045496   -7.6908186    38.092395  0.021162442  0.023026898            3 
  151000    1.0221396   -7.7140701     38.16647  0.021063173  0.022952928            5 
  152000   0.98923465   -7.6836969    38.358024  0.021029618  0.022879333            2 
  153000     1.012381   -7.7402249     38.53389  0.020987958   0.02280626            2 
  154000    1.0021612   -7.7223336    38.701331  0.020942279   0.02273401            5 
  155000    1.0179483   -7.7377081    38.827154  0.020874814  0.022662425            3 
  156000    1.0260651   -7.7150577    39.145232  0.020910914  0.022595416            4 
  157000    1.0187108   -7.7019969    39.280362  0.020849449  0.022527745            5 
  158000   0.99441735   -7.7712893    39.468214  0.020816568  0.022458024            1 
  159000    1.0236877   -7.7227161    39.514508   0.02070991  0.022387852            4 
  160000    1.0109443   -7.7198918    39.845638  0.020752936  0.022319301            3 
  161000    1.0163012   -7.7294652    39.905212  0.020654872   0.02225164            9 
  162000    1.0042889   -7.7171353    40.240168  0.020699675  0.022186122            3 
  163000   0.98770492   -7.7611774    40.263378  0.020584549  0.022120188            6 
  164000     1.006237   -7.7015269    40.479291  0.020568746  0.022053683            3 
  165000    1.0125336   -7.7610332    40.539759  0.020474626  0.021987878            1 
  166000     1.015446   -7.7241127    40.774326  0.020469039  0.021920976            6 
  167000    1.0071092   -7.7466508    41.008172   0.02046316  0.021856459            1 
  168000    1.0073479   -7.7132385    41.163349  0.020418328   0.02179315            6 
  169000    1.0127395   -7.7672496     41.25212  0.020341282  0.021730133            2 
  170000   0.99236415   -7.7724175    41.487509  0.020337014  0.021666433            6 
  171000   0.99757741   -7.8104905    41.494888   0.02022168  0.021602841            2 
  172000    1.0078579   -7.7606648    41.625305  0.020167299  0.021537571            2 
  173000   0.97773908   -7.7966786    41.656385  0.020065696  0.021471007            4 
  174000    1.0014342   -7.8362195    41.650238  0.019947432  0.021402463            3 
  175000    0.9971488   -7.8172257    41.777572  0.019894082  0.021333067            1 
  176000   0.97848458   -7.8023228    41.908738  0.019843152   0.02126302            2 
  177000   0.99549169   -7.8112674    42.061493  0.019802963  0.021194564            3 
  178000   0.97569248   -7.8423275    42.180981   0.01974765  0.021126353            5 
  179000   0.98210312    -7.819814    42.460936  0.019767661  0.021059166            2 
  180000   0.99307497   -7.8057063    42.465566  0.019659984  0.020991025            2 
  181000   0.96459871   -7.8616789    42.435658  0.019537596   0.02092218            6 
  182000   0.97853988   -7.8192468    42.587984  0.019499993  0.020852254            2 
  183000   0.98948189   -7.8289781     42.70137  0.019445068  0.020782285            4 
  184000   0.95905571   -7.8213969    42.855763  0.019409313  0.020712584            2 
  185000   0.97615533   -7.8430843    42.906886  0.019327426   0.02064285            4 
  186000   0.97102282   -7.8325525    42.861058  0.019202983  0.020572071            8 
  187000   0.97131991   -7.8842182    42.988405  0.019157043  0.020501294            5 
  188000   0.96832736   -7.8915106    43.087856  0.019099227   0.02042986            2 
  189000   0.96173307   -7.8724689    43.248257  0.019068896  0.020359007            5 
  190000   0.97748534   -7.8240748    43.337514  0.019007682  0.020288053            4 
  191000   0.97098359   -7.8422184    43.488912   0.01897422  0.020217724            3 
  192000   0.94258889   -7.8669724    43.541061   0.01889803  0.020147289            3 
  193000    0.9588303   -7.8963882    43.778295  0.018902545   0.02007864            8 
  194000   0.96627667   -7.8964127    43.958216  0.018882395  0.020011701            5 
  195000   0.96678596   -7.9202875    44.137258  0.018862076  0.019945488            3 
  196000   0.94790245   -7.8931303    44.393921  0.018874966  0.019880926            3 
  197000   0.93525034   -7.8874133    44.360267  0.018764918  0.019816018            6 
  198000   0.93797638   -7.8842605     44.49621  0.018727361  0.019751681            3 
  199000   0.96647122   -7.8237069    44.811513   0.01876529  0.019688326            2 
  200000   0.96350112   -7.8784096    44.705911  0.018627463  0.019625606            3 
  201000   0.94628694   -7.8890476    44.678272   0.01852333  0.019561599            1 
  202000   0.93910293   -7.9191732    44.895193  0.018521119  0.019497377            6 
  203000   0.94355111   -7.9005411    44.990368  0.018468952  0.019433025            7 
  204000   0.92289103    -7.954361    45.204778  0.018466004  0.019369885            3 
  205000   0.95751862   -7.9365775    45.237833  0.018389363  0.019307348            2 
  206000   0.94004279   -7.9211721    45.395049  0.018363693  0.019244962            2 
  207000   0.93520637   -7.9381868    45.422647   0.01828609  0.019182562            1 
  208000   0.95362273   -7.9361793     45.44507   0.01820716  0.019120005            4 
  209000   0.92115691   -7.9403678    45.743704  0.018239116  0.019057727            7 
  210000   0.91455286   -7.9556712    45.626343  0.018105692  0.018994979            4 
  211000   0.93265935   -7.9632847    45.756993  0.018071482  0.018932918            5 
  212000   0.93382034   -7.9533637     45.82211  0.018011836  0.018869972            6 
  213000   0.90872628   -7.9854468    45.910048  0.017961678  0.018807221            3 
  214000    0.9351399   -7.9812142    46.067126  0.017938912  0.018745414            3 
  215000   0.92541723   -7.9635332     46.01431  0.017835004  0.018684026            2 
  216000    0.9147039    -7.989301    46.199694  0.017823956  0.018622701            8 
  217000   0.92016308   -8.0034841    46.278772  0.017772186  0.018562651            5 
  218000   0.91126076   -7.9937007      46.3638  0.017723165  0.018501463            3 
  219000   0.93504501   -7.9630216    46.607374  0.017734921  0.018441089            7 
  220000   0.92151127   -7.9655396    46.699025  0.017689025  0.018381426            4 
  221000   0.90982446   -8.0175151    46.867244  0.017672415  0.018322243           11 
  222000   0.91014501   -8.0013285    46.847973  0.017585575  0.018263311            4 
  223000   0.92151271   -8.0271665    46.848391  0.017506872  0.018204152           13 
  224000   0.91601082   -8.0293729    47.095223  0.017520544  0.018145778            5 
  225000   0.91339519   -8.0634969    46.991272  0.017404175  0.018087478            4 
  226000    0.9104662   -8.0740558    47.063835  0.017353921  0.018028039            4 
  227000    0.8997243   -8.0209681    47.281029  0.017357206  0.017970219            3 
  228000   0.90222616   -8.0566431    47.193456   0.01724907  0.017912081            9 
  229000   0.93617643   -8.0132719    47.628327  0.017331997  0.017854562            6 
  230000    0.9153118   -8.0394675    47.543716  0.017225984  0.017797465            5 
  231000     0.902041   -8.0762378    47.538601  0.017149567  0.017739676            7 
  232000   0.90830817   -8.0593221    47.507792   0.01706458  0.017681649           10 
  233000   0.88561417   -8.0601597    47.547885  0.017005681  0.017622921           11 
  234000   0.91585659   -8.0616448    47.683147  0.016981178   0.01756387            6 
  235000   0.90199716   -8.0842396    47.773675  0.016941019  0.017504779            5 
  236000   0.87842943   -8.1046232    47.616806  0.016813844  0.017446098            8 
  237000   0.88871827   -8.1241696    47.713374  0.016776854  0.017386728            4 
  238000   0.89373178   -8.1279111    47.884002  0.016766107  0.017327298            7 
  239000   0.90965021   -8.1343159    47.963883  0.016723809  0.017268313            4 
  240000    0.8785137   -8.1241153     47.78399  0.016591663  0.017209529            5 
  241000   0.90157953   -8.1018855    47.919909  0.016569816  0.017149924            3 
  242000   0.88874726    -8.054526    48.120911  0.016570562  0.017090938            5 
  243000   0.89615199    -8.079449    48.006664  0.016463191  0.017031577            6 
  244000   0.88248114   -8.0955715    47.921406    0.0163666  0.016971661           10 
  245000   0.88198005   -8.1217536    48.128389    0.0163702  0.016912236            4 
  246000   0.86878947   -8.1280397    48.166354  0.016316516  0.016853101            4 
  247000   0.87132191   -8.1105417    48.228437  0.016271402  0.016794238            5 
  248000   0.86000713   -8.1793938     48.31508  0.016234906  0.016735961            3 
  249000   0.86152038   -8.1860365    48.216676  0.016136772  0.016677216            6 
  250000   0.87111375   -8.1374409     48.45102   0.01615034  0.016618819            3 
  251000   0.85315935   -8.1513949    48.363066  0.016056795  0.016560372            8 
  252000   0.84423246   -8.1559483    48.559148  0.016057919  0.016502257            7 
  253000   0.86261873   -8.1309514    48.683303  0.016035343   0.01644453            5 
  254000   0.86957675   -8.1760743    48.599888  0.015944845  0.016387096           10 
  255000   0.86768284   -8.1885332    48.472771  0.015840775  0.016328972            4 
  256000   0.87269719   -8.1934144    48.402793  0.015756118  0.016270723            4 
  257000   0.85788507   -8.2022567     48.48378   0.01572107  0.016212042            5 
  258000   0.84834255   -8.1743879    48.641627   0.01571112  0.016154019            5 
  259000   0.85775788   -8.1465423    48.848125    0.0157169  0.016096431           10 
  260000   0.84771252   -8.2046124    48.710374  0.015612299  0.016038837            3 
  261000   0.84366715   -8.2066432    48.774871  0.015573075  0.015981291            3 
  262000   0.84609897   -8.2155043    48.797013  0.015520678   0.01592376            4 
  263000   0.83964719   -8.2309878    48.794476   0.01546086  0.015866669            4 
  264000   0.84359501   -8.2339221    48.931003  0.015445392  0.015809382            3 
  265000   0.86235824   -8.2050865    48.918499  0.015383176  0.015752753            3 
  266000   0.83841585   -8.2344397    49.125962  0.015390339  0.015696383            7 
  267000   0.85221874   -8.2568437    48.925066  0.015269996  0.015640132            7 
  268000   0.85008129   -8.2113712    49.203212  0.015299506  0.015584065            7 
  269000   0.83426628   -8.2069378    49.297312  0.015271782  0.015528023            6 
  270000    0.8308725   -8.2525853    49.005602  0.015125186  0.015472243            5 
  271000   0.83723012   -8.2696734    49.209321  0.015132018  0.015416251            9 
  272000   0.83352254   -8.2847309      49.0646  0.015032047  0.015360211            9 
  273000   0.84651112   -8.2832185    49.002823  0.014958127  0.015304044            8 
  274000   0.82402301   -8.2867214    49.077388  0.014926213  0.015247976            7 
  275000   0.83716955   -8.2692034    49.078312  0.014872216  0.015192238            5 
  276000   0.82614422   -8.3257846    49.144078  0.014838188  0.015136754            6 
  277000   0.83954116   -8.2694538    49.325125  0.014839087   0.01508196            6 
  278000   0.81286462   -8.2746683    49.428815  0.014816791  0.015027451            9 
  279000    0.8218616   -8.2905008    49.402639  0.014755866  0.014972967           11 
  280000   0.81579918   -8.2819343    49.500834  0.014732391  0.014918804            6 
  281000   0.82223333    -8.278016    49.514724  0.014684082  0.014864964            8 
  282000   0.83568143   -8.2669548    49.623088  0.014664033  0.014811832            5 
  283000    0.8339337   -8.3108428    49.534162  0.014586031  0.014758961            5 
  284000   0.82109617   -8.2771081    49.691841  0.014580939  0.014706298           19 
  285000   0.81989637   -8.2910416      49.6715   0.01452383  0.014653276            5 
  286000    0.8093688   -8.2953507    49.742716  0.014493798  0.014600584            5 
  287000   0.80520105   -8.3049748    49.637589  0.014412773  0.014547935            8 
  288000   0.80601076    -8.300455    49.685098  0.014376475  0.014495327            5 
  289000   0.82661321    -8.326299     49.73708  0.014341719  0.014442726            7 
  290000   0.80053514   -8.3391851    49.644331  0.014265612  0.014390461           16 
  291000   0.80989151   -8.3569978     49.64384  0.014216449  0.014338275            5 
  292000   0.80508957    -8.355033    49.703407  0.014184762  0.014285589            4 
  293000   0.80956259   -8.3557202    49.771179  0.014155625  0.014233401           10 
  294000   0.80078377   -8.3630833    49.791103  0.014113124   0.01418151            6 
  295000   0.81730352   -8.3673997    49.709254  0.014042162  0.014129603            8 
  296000   0.79463627   -8.3599085    49.762193  0.014009626  0.014078084            7 
  297000   0.79052278   -8.3505091    49.946966    0.0140143  0.014026757           10 
  298000   0.80380679   -8.3627981    49.795139  0.013924815  0.013975224            5 
  299000    0.8010728   -8.3747836    49.844445  0.013891986  0.013923535           14 
  300000   0.79344201   -8.3756553    49.643049  0.013789736  0.013872344           10 
  301000   0.78192559   -8.4013465    49.811881  0.013790665  0.013821199           12 
  302000   0.79452984   -8.4401072    49.745882  0.013726789  0.013770052            4 
  303000   0.79336831   -8.4125068    49.779912  0.013690845  0.013719228            3 
  304000   0.79318472   -8.4172183    49.895776   0.01367757  0.013668491            8 
  305000   0.77345792   -8.4227289    49.942282  0.013645432   0.01361795            3 
  306000   0.78600139   -8.4212159    49.843373  0.013573903  0.013567531           12 
  307000   0.78531856   -8.4000468     49.98814  0.013568985  0.013517103            5 
  308000   0.79221808   -8.4212277    49.987308  0.013524705  0.013466946            5 
  309000    0.7862467   -8.3980971    49.855224  0.013445314  0.013416893            5 
  310000   0.76053324   -8.4143128     49.91676  0.013418484  0.013366992            7 
  311000   0.77797197   -8.4350518    49.865285  0.013361545  0.013316921            7 
  312000   0.77395901   -8.4396035    50.010727  0.013357566  0.013267187           15 
  313000   0.77018465   -8.4281081    49.856585  0.013273851  0.013217677            7 
  314000   0.77309574   -8.4290223    49.985343  0.013265749  0.013168464           11 
  315000   0.76045686   -8.4513449    49.914055  0.013204776  0.013119421           10 
  316000   0.75998765   -8.4515887    50.073419  0.013205016  0.013070631           10 
  317000   0.74843207   -8.4617529    50.077079  0.013164322  0.013022061            6 
  318000   0.76589327   -8.4706011    50.002316  0.013103332  0.012973497           15 
  319000   0.77372549   -8.4953081    49.984497  0.013057601   0.01292496           12 
  320000   0.77338192   -8.4806961    49.988985  0.013017965  0.012876483           15 
  321000   0.75348784   -8.5201601    49.979287  0.012974893  0.012828304           11 
  322000   0.74858155   -8.5087119    49.964133  0.012930676    0.0127803           25 
  323000   0.75012273   -8.4974613    50.062727   0.01291608  0.012732443           18 
  324000   0.74480543    -8.491908    50.105894  0.012887318  0.012684932           18 
  325000   0.73160727   -8.4728871    50.165498  0.012862948  0.012637778           14 
  326000    0.7598932   -8.5233222    49.967006  0.012772752  0.012590583           13 
  327000   0.74425287    -8.529204    49.978467  0.012736612  0.012543325           13 
  328000   0.75442654   -8.5180494     49.95876  0.012692774  0.012495893           21 
  329000    0.7423854   -8.5340845    50.038122  0.012674296   0.01244882           15 
  330000   0.72792134   -8.5263703    49.919197  0.012605858  0.012401974           11 
  331000   0.74641301   -8.5256371    50.079624  0.012608163  0.012355448           22 
  332000   0.72879999   -8.5252131    50.010178  0.012552755  0.012309044           15 
  333000   0.73557971   -8.5323045    50.039705  0.012522449  0.012262837           22 
  334000   0.74290168    -8.572188    50.065201  0.012491318  0.012216847            8 
  335000    0.7360579   -8.5795795    50.004659   0.01243897  0.012170726           25 
  336000   0.72914944    -8.551608    50.069939   0.01241814   0.01212461           15 
  337000   0.74433843   -8.5713158    49.990053  0.012361536  0.012078732           29 
  338000   0.73462568   -8.5714489    49.977131  0.012321778  0.012032902           22 
  339000   0.72140026   -8.5700942    50.012257  0.012294065  0.011987302           35 
  340000   0.72639737   -8.5629578    50.002349  0.012255478  0.011941909           35 
  341000   0.73445864   -8.5715376    50.027654  0.012225722  0.011896767           28 
  342000     0.712878   -8.5813138    50.006167  0.012184739  0.011851582           32 
  343000   0.71693961   -8.5760973    50.022375  0.012153152  0.011806445           28 
  344000   0.72949315     -8.58011     50.03575  0.012121063  0.011761542           29 
  345000   0.70450411   -8.5721963    50.082023  0.012097107  0.011716939           25 
  346000   0.72214878   -8.6082686    50.010105  0.012044823   0.01167259           18 
  347000   0.71544271   -8.5824748    50.032816  0.012015566  0.011628516           30 
  348000   0.71197884   -8.5589634    49.981288  0.011968699  0.011584677           17 
  349000   0.70636029   -8.5876976    50.096153  0.011961832  0.011540962           24 
  350000   0.71271027   -8.5928113    49.933875  0.011889018  0.011497341           13 
  351000   0.70085828   -8.6248117    49.947074   0.01185828  0.011453795           36 
  352000   0.71276548   -8.6355827    49.922953  0.011818881  0.011410263           34 
  353000   0.71014943    -8.624043    49.978204  0.011798443   0.01136688           39 
  354000   0.70885726   -8.5973949    50.031104  0.011777567    0.0113237           14 
  355000    0.6899017   -8.6386761    49.913867   0.01171687  0.011280692           25 
  356000   0.69371732   -8.6254997    49.920827  0.011685587  0.011237881           14 
  357000    0.6989783   -8.6469993    49.999722   0.01167127   0.01119533           19 
  358000     0.701176   -8.6579726    50.054385  0.011651393   0.01115307           23 
  359000   0.69761472   -8.6581357    49.950351  0.011594789  0.011110733           20 
  360000   0.69447546   -8.6692984    49.937352  0.011559572  0.011068735           15 
  361000   0.69401234   -8.6690269      49.9478  0.011529963   0.01102701           16 
  362000   0.67725452   -8.6633794    50.062886  0.011524606  0.010985274           29 
  363000   0.69724537   -8.6541668    49.916889  0.011459341  0.010943818           22 
  364000   0.68967196   -8.6699263    49.974973  0.011441157   0.01090248           29 
  365000   0.71580686   -8.6716242    50.024755  0.011421177   0.01086127           24 
  366000   0.67593122   -8.6849825    49.889418  0.011359157  0.010820294           15 
  367000    0.6942893   -8.7060348    49.979605  0.011348684  0.010779323           20 
  368000   0.68352359   -8.6973072    50.034577  0.011330294  0.010738498           23 
  369000    0.6780963   -8.6873125    49.959288  0.011282585  0.010697932           20 
  370000   0.66444028   -8.6554678    50.000986  0.011261483  0.010657702           14 
  371000   0.67558874   -8.6993606    49.947277  0.011219065  0.010617561           14 
  372000   0.67365644   -8.6893785     50.03892  0.011209436  0.010577536           11 
  373000   0.66983032   -8.7039521    50.026508   0.01117661  0.010537716           20 
  374000   0.68647521   -8.7203823     50.01262  0.011143632  0.010498086           19 
  375000    0.6732283   -8.6953779    49.946654  0.011099256  0.010458656           23 
  376000   0.66497003   -8.7274868    49.958321  0.011072323  0.010419271           15 
  377000   0.65749033   -8.6913036    49.903583  0.011030854  0.010380044           19 
  378000   0.66341443   -8.7096794    50.027855  0.011029069  0.010341028           19 
  379000    0.6639689   -8.7140604    49.944861   0.01098172    0.0103021           30 
  380000   0.65860246    -8.732058    49.943634  0.010952551   0.01026345           24 
  381000   0.65444638   -8.7444617    49.918969   0.01091841  0.010224832           34 
  382000   0.65193281   -8.7114701      49.9148  0.010888918  0.010186411           15 
  383000   0.64536053    -8.733655    49.900123  0.010857294   0.01014813           18 
  384000   0.65001152   -8.7311221    50.032842  0.010857822  0.010110009           20 
  385000    0.6522291   -8.7605285    49.935102  0.010808464  0.010072119           22 
  386000   0.67115327   -8.7164723    49.869708  0.010766345   0.01003428           25 
  387000   0.65217146   -8.7441828    49.835039  0.010731059 0.0099966166           11 
  388000   0.67370724   -8.7470509    49.809658  0.010697951 0.0099591023           19 
  389000   0.66382291   -8.7864366    49.840227  0.010676998 0.0099216489           34 
  390000   0.63036384    -8.772648    49.791335  0.010639174 0.0098844008           25 
  391000   0.65258628   -8.7614742    49.850271  0.010624525 0.0098473377           14 
  392000   0.64280504   -8.7298447    49.956185  0.010619937 0.0098104601           24 
  393000   0.65122909   -8.7663845    49.848092  0.010569994 0.0097737051           24 
  394000   0.64567746   -8.7735619    49.898995  0.010553933 0.0097371483           31 
  395000   0.62699987   -8.7450488    49.864537  0.010519944 0.0097007087           17 
  396000   0.64063974   -8.7668385    49.910477  0.010503046 0.0096645742           32 
  397000   0.61963771   -8.7816897    49.860528  0.010466106 0.0096284653           24 
  398000   0.61684527   -8.7839294    49.845967   0.01043676 0.0095925667           23 
  399000   0.64645241   -8.7988981    49.867708  0.010415144 0.0095567644           28 
  400000   0.61713358   -8.7866563    49.804036  0.010375841  0.009521119           33 
  401000   0.61711133    -8.790171    49.775534  0.010344043 0.0094856641           20 
  402000   0.62741797   -8.7619884    49.906344  0.010345428 0.0094503304           12 
  403000   0.63564078   -8.8065131    49.806004  0.010299008 0.0094152351           27 
  404000   0.64155008    -8.769139    49.892307  0.010291318  0.009380193           29 
  405000   0.60654384   -8.7950338     49.81153  0.010249286 0.0093453905           21 
  406000   0.62728068   -8.7986177    49.826521  0.010227118 0.0093107215           38 
  407000   0.62467464   -8.7783069    49.809145  0.010198433 0.0092762606           23 
  408000   0.60328166   -8.8184437    49.763562  0.010164126 0.0092419278           23 
  409000   0.61722997   -8.8055334    49.812848  0.010149317 0.0092077627           32 
  410000   0.61755035    -8.823773    49.779233   0.01011773 0.0091736268           20 
  411000   0.61595971   -8.8201148    49.704733  0.010078007 0.0091395894           33 
  412000   0.61257133   -8.8209013    49.711794  0.010054975 0.0091057068           19 
  413000   0.60246182   -8.8298673    49.718056  0.010031892 0.0090720138           23 
  414000   0.60565269   -8.8108667    49.778985  0.010019925 0.0090384387           37 
  415000   0.61478474   -8.8079124    49.782922 0.0099965707 0.0090050284           16 
  416000   0.61581964    -8.826627    49.713577 0.0099586493  0.008971808           21 
  417000    0.5930849   -8.8276608    49.691401  0.009930336 0.0089387215           19 
  418000   0.60289328   -8.8276845    49.626419 0.0098936243 0.0089056925           23 
  419000   0.60528097   -8.8384618    49.741506 0.0098929009 0.0088727801           26 
  420000   0.58912516   -8.8271465    49.599461 0.0098411629 0.0088399982           18 
  421000   0.59898185   -8.8392557    49.702442 0.0098381714 0.0088073192           29 
  422000   0.59738307   -8.8462589    49.682084  0.009810838 0.0087747414           28 
  423000   0.59941717   -8.8487513    49.703066 0.0097917781 0.0087423538           18 
  424000   0.58568906   -8.8436868    49.619984 0.0097523554 0.0087101918           29 
  425000   0.58238685   -8.8452199    49.728414 0.0097506694 0.0086781566           24 
  426000   0.56168293   -8.8561225    49.689264 0.0097201221 0.0086461932           26 
  427000   0.58344766   -8.8677972    49.546597 0.0096695155 0.0086144133           14 
  428000   0.59687358   -8.8608095    49.674364 0.0096717997 0.0085827858           29 
  429000    0.5865599   -8.8673448    49.661221 0.0096467018 0.0085513574           30 
  430000   0.58766049   -8.8751094    49.615497 0.0096154065 0.0085200439           28 
  431000   0.57939697    -8.861144    49.596338 0.0095893925  0.008488778           33 
  432000   0.57752009    -8.848575     49.61165 0.0095701485 0.0084577542           15 
  433000   0.57988745   -8.8782534    49.656611 0.0095566995 0.0084268242           23 
  434000   0.57927277   -8.8551285    49.612584 0.0095262257 0.0083960714           27 
  435000   0.57084166   -8.8904075    49.589731 0.0094999485 0.0083654347           16 
  436000    0.5697199   -8.8775334    49.563016 0.0094730536 0.0083348924           21 
  437000   0.56723474   -8.8810358    49.593587 0.0094572058 0.0083045616           28 
  438000   0.56632339   -8.8877527    49.578479 0.0094327395 0.0082743832           25 
  439000   0.56609713   -8.8980691    49.696588 0.0094336728  0.008244302           21 
  440000   0.55805098   -8.8936992    49.618484 0.0093974401 0.0082143551           23 
  441000   0.56077126   -8.9007204    49.574787 0.0093678735   0.00818452           21 
  442000   0.55033789   -8.9010521     49.60884 0.0093530996 0.0081548226           25 
  443000   0.56166445   -8.9002109    49.616402 0.0093334089 0.0081252755           28 
  444000   0.56658767   -8.9149864    49.531482 0.0092964494 0.0080959027           28 
  445000   0.56715892   -8.9146351    49.644717 0.0092967634 0.0080667079           26 
  446000   0.55641551   -8.9104974    49.514042 0.0092515026  0.008037619           34 
  447000   0.56159781   -8.9176302    49.540941 0.0092358205 0.0080086462           42 
  448000   0.54473744   -8.9171684    49.529642  0.009213103 0.0079798031           29 
  449000   0.55061652   -8.8899901    49.630386 0.0092112818 0.0079510191           22 
  450000   0.54839357   -8.9197783    49.653567  0.009195105 0.0079224272           31 
  451000    0.5432068   -8.9294213    49.499549  0.009146258 0.0078938898           26 
  452000   0.54241043    -8.939294    49.432905 0.0091137361 0.0078654679           29 
  453000   0.53122648   -8.9551225    49.525856 0.0091107167 0.0078372383           28 
  454000   0.52605543   -8.9367389     49.53264 0.0090918942 0.0078090977           27 
  455000   0.54035291   -8.9422019    49.505695 0.0090669771 0.0077810763           23 
  456000   0.53790192   -8.9379731    49.473586 0.0090412255 0.0077531632           24 
  457000    0.5425625   -8.9508209    49.544028 0.0090342866 0.0077254924           31 
  458000   0.53570603   -8.9446838    49.531759 0.0090123288 0.0076978873           23 
  459000   0.54125689   -8.9680426     49.44793 0.0089774745 0.0076704261           25 
  460000   0.52520463   -8.9647328    49.498976 0.0089672058 0.0076430777           22 
  461000   0.52445406    -8.950659    49.467656 0.0089420925 0.0076158526           24 
  462000   0.52927357   -8.9599779    49.505524 0.0089295678 0.0075887616           28 
  463000   0.52795962   -8.9887181    49.493624 0.0089081397 0.0075617831           26 
  464000   0.53208966    -8.942504    49.429584 0.0088774396 0.0075348527           26 
  465000   0.53154248   -8.9689288    49.503359 0.0088715697 0.0075081395           25 
  466000   0.53227493   -8.9788944     49.39596 0.0088333261 0.0074815004           22 
  467000   0.51329821   -8.9719813    49.409049 0.0088167467 0.0074549585           17 
  468000   0.51643095   -8.9571611    49.438741 0.0088031946 0.0074285462           19 
  469000   0.52040336    -9.001766    49.461538 0.0087884751 0.0074022937           21 
  470000   0.52180907   -8.9641634    49.481827 0.0087733735 0.0073760925           35 
  471000    0.5219233   -8.9936617    49.339745 0.0087296081 0.0073499696           21 
  472000   0.51381331   -8.9748865    49.350642 0.0087130371 0.0073239856           38 
  473000   0.51266554   -8.9809667    49.314055 0.0086881704 0.0072980979           17 
  474000   0.51082643   -9.0011321    49.347964 0.0086758024 0.0072723546           23 
  475000   0.49666656    -8.985902    49.410858 0.0086685715 0.0072467135           26 
  476000    0.5143947   -8.9971796    49.440813 0.0086556044 0.0072212012           25 
  477000   0.48670021   -8.9936056    49.272437 0.0086080429 0.0071957684           32 
  478000   0.50345247   -9.0018764    49.375481 0.0086079987 0.0071704686           29 
  479000   0.50103584   -9.0078585     49.34558  0.008584826 0.0071452966           24 
  480000    0.5075569   -9.0050947    49.381708 0.0085732132 0.0071202364           37 
  481000   0.49994104   -9.0039445    49.376341 0.0085544596 0.0070953206           20 
  482000   0.50185426   -9.0057698     49.30434 0.0085242635 0.0070704968           23 
  483000   0.48499239   -9.0258598    49.358914 0.0085160307 0.0070457622           29 
  484000   0.49766864   -9.0153156    49.287324 0.0084861095 0.0070210941           42 
  485000   0.49171544   -9.0114205    49.391084 0.0084864405 0.0069965998           20 
  486000   0.48697627   -9.0188975     49.29523 0.0084525428 0.0069721867           30 
  487000   0.47995823   -9.0250725    49.306398 0.0084370975 0.0069478896           34 
  488000   0.48073635   -9.0212045    49.284348  0.008416043 0.0069236942           32 
  489000   0.48622181   -9.0372694    49.259141 0.0083945366 0.0068995927           23 
  490000   0.48550582   -9.0336094    49.246719 0.0083752923 0.0068756591           50 
  491000   0.48739916   -9.0334461    49.297248 0.0083668106 0.0068518022           28 
  492000   0.48405443   -9.0456335    49.351232 0.0083589486 0.0068280666           36 
  493000   0.48198345   -9.0477756    49.232229 0.0083218778 0.0068044331           25 
  494000   0.47974211   -9.0471352    49.273964 0.0083120722 0.0067809422           33 
  495000   0.48665672   -9.0551533    49.221354 0.0082864232  0.006757514           43 
  496000   0.46371728   -9.0373717    49.237776 0.0082724759 0.0067341564           21 
  497000   0.47910626   -9.0421888    49.203814 0.0082501364 0.0067109229           29 
  498000   0.47112072   -9.0643481    49.128195 0.0082209162 0.0066877922           30 
  499000    0.4672006   -9.0608233    49.246722 0.0082242354  0.006664789           30 
  500000   0.47130538   -9.0597814    49.172588 0.0081954314 0.0066418743           35 
  501000   0.46185065   -9.0683043    49.246106 0.0081913018 0.0066190582           45 
  502000   0.47774805   -9.0623207    49.182337 0.0081643985 0.0065963481           37 
  503000   0.46249481    -9.059564    49.245651 0.0081586565 0.0065737247           40 
  504000   0.45923954   -9.0465185    49.222489  0.008138639 0.0065511962           44 
  505000   0.44977803   -9.0563366    49.160707 0.0081123279 0.0065287706           36 
  506000   0.46435867   -9.0756209    49.220875 0.0081062048 0.0065064627           34 
  507000    0.4521608   -9.0878082    49.154016 0.0080792269 0.0064842046           28 
  508000    0.4503409   -9.0810121    49.119469 0.0080576557 0.0064620773           34 
  509000   0.45053132   -9.0910499    49.214614 0.0080574024 0.0064400459           37 
  510000   0.44476158   -9.0861654    49.110284 0.0080245562 0.0064181025           25 
  511000   0.46262912   -9.0921936    49.194724 0.0080226229 0.0063962791           35 
  512000    0.4484514   -9.0918252     49.17473 0.0080036996 0.0063745472           38 
Loop time of 1268.99 on 48 procs for 500000 steps with 4000 atoms

Performance: 68085.396 tau/day, 394.013 timesteps/s
99.4% CPU use with 48 MPI tasks x no OpenMP threads

MPI task timing breakdown:
Section |  min time  |  avg time  |  max time  |%varavg| %total
---------------------------------------------------------------
Pair    | 85.492     | 93.986     | 101.95     |  40.3 |  7.41
Neigh   | 8.4471     | 8.8911     | 9.3502     |   8.2 |  0.70
Comm    | 78.143     | 86.709     | 95.17      |  42.4 |  6.83
Output  | 0.88577    | 0.88683    | 0.92028    |   0.5 |  0.07
Modify  | 1063.5     | 1067.2     | 1071.2     |   4.8 | 84.10
Other   |            | 11.33      |            |       |  0.89

Nlocal:        83.3333 ave          89 max          75 min
Histogram: 2 0 3 1 5 11 12 7 3 4
Nghost:        2300.19 ave        2317 max        2287 min
Histogram: 5 3 5 8 5 9 5 3 3 2
Neighs:        15614.1 ave       17091 max       13915 min
Histogram: 5 1 1 7 7 5 8 8 2 4
FullNghs:      31227.2 ave       33496 max       28308 min
Histogram: 2 2 2 2 10 7 11 5 4 3

Total # of neighbors = 1498908
Ave neighs/atom = 374.72700
Neighbor list builds = 26640
Dangerous builds = 0

#clear
#
#next RN
#
#jump SELF
Total wall time: 0:21:12
