
units lj                  # Use reduced LJ style units
atom_style atomic         # Uncharged point particles
atom_modify map hash      # Needed for indexing of clusters etc
                          # Used to be able to find where atoms are in relation to each other.

lattice fcc 1.0 spacing 1 1 1
Lattice spacing in x,y,z = 1.5874011 1.5874011 1.5874011
region box block 0 10 0 10 0 10 units lattice
create_box 2 box
Created orthogonal box = (0.0000000 0.0000000 0.0000000) to (15.874011 15.874011 15.874011)
  3 by 4 by 4 MPI processor grid
create_atoms 1 box
Created 4000 atoms
  using lattice units in orthogonal box = (0.0000000 0.0000000 0.0000000) to (15.874011 15.874011 15.874011)
  create_atoms CPU = 0.002 seconds
set type 1 type/fraction 2 0.91 78393
Setting atom values ...
  3634 settings made for type/fraction
mass 1 1.0
mass 2 1.0
pair_style lj/cut  3.5
pair_modify tail  yes
pair_coeff 1  1  1.0  1.0   # Intearaction between 1 and 1 set with epsilon = 1 and sigma = 1
pair_coeff 1  2  1.5  0.8
pair_coeff 2  2  0.5  0.88

write_data data.0
System init for write_data ...
Neighbor list info ...
  update every 1 steps, delay 10 steps, check yes
  max neighbors/atom: 2000, page size: 100000
  master list distance cutoff = 3.8
  ghost atom cutoff = 3.8
  binsize = 1.9, bins = 9 9 9
  1 neighbor lists, perpetual/occasional/extra = 1 0 0
  (1) pair lj/cut, perpetual
      attributes: half, newton on
      pair build: half/bin/atomonly/newton
      stencil: half/bin/3d
      bin: standard
WARNING: Not all mixed pair coeffs generated from mixing. Use write_data with 'pair ij' option to store all pair coeffs. (../write_data.cpp:312)


#############################
#   M E L T   S Y S T E M   #
#############################

velocity all create 2.4 6583654 mom yes dist gaussian # Assign velocities
                                                    # Temperature 2.4, random number seed, zero linear momentum
                                                                                # Gaussian distribution

timestep 0.002   # simulation timestep
thermo 1000       # output thermodynamic data every 1000 steps bf 100

# Define a fix  in this case with index 1 applied to all
# particles in the simulation. This fix is for simulations
# in the anisotropic NPT ensemble. Note that we use the MTK
# correction.
fix 1 all npt temp 2.4 2.4 0.1 iso 5.68 5.68 0.5 mtk yes tchain 5 pchain 5 # Use NPT ensemble
                                                                         # Set temperature and pressure and damping
                                                                         # Numbers of thermostats in chain and in barostat
run 10000          # run for 10000 steps
Per MPI rank memory allocation (min/avg/max) = 3.642 | 3.644 | 3.648 Mbytes
Step Temp E_pair E_mol TotEng Press Volume 
       0          2.4    -3.140535            0     0.458565   -2.4974117         4000 
    1000    2.4235995   -2.1634017            0    1.4710887     5.596485    4036.9086 
    2000     2.355664   -2.1870351            0    1.3455775    5.8670776    3970.0074 
    3000    2.4127757   -2.1576545            0    1.4606042     5.679765    4029.1117 
    4000    2.4018455   -2.1817367            0    1.4201308    5.6145601    4019.3545 
    5000    2.3860446   -2.1257612            0     1.452411    5.8573115    4027.6713 
    6000    2.4051888   -2.1321873            0     1.474694    5.6043467    4052.7663 
    7000    2.3908035   -2.1892541            0    1.3960546     5.415927    4033.5533 
    8000    2.4069798   -2.1622034            0    1.4473637    5.5868511    4030.7541 
    9000     2.428557   -2.1898885            0    1.4520362    5.4656737      4029.96 
   10000    2.3728283   -2.1627722            0    1.3955805    5.8847629    3986.8396 
Loop time of 2.62971 on 48 procs for 10000 steps with 4000 atoms

Performance: 657105.907 tau/day, 3802.696 timesteps/s
99.5% CPU use with 48 MPI tasks x no OpenMP threads

MPI task timing breakdown:
Section |  min time  |  avg time  |  max time  |%varavg| %total
---------------------------------------------------------------
Pair    | 1.1024     | 1.1505     | 1.285      |   3.1 | 43.75
Neigh   | 0.20698    | 0.2134     | 0.23502    |   1.2 |  8.12
Comm    | 0.69913    | 0.91651    | 0.99903    |   5.4 | 34.85
Output  | 0.00024875 | 0.00025373 | 0.00031137 |   0.0 |  0.01
Modify  | 0.27503    | 0.33373    | 0.41676    |   6.9 | 12.69
Other   |            | 0.01527    |            |       |  0.58

Nlocal:        83.3333 ave          94 max          71 min
Histogram: 1 1 1 4 14 10 11 3 1 2
Nghost:        1646.00 ave        1675 max        1619 min
Histogram: 3 3 5 3 11 9 8 1 2 3
Neighs:        9578.31 ave       11131 max        7610 min
Histogram: 1 0 2 2 15 10 7 9 0 2

Total # of neighbors = 459759
Ave neighs/atom = 114.93975
Neighbor list builds = 901
Dangerous builds = 179

# Equilibrate just above the melting temperature to avoid step fn in T

fix 1 all npt temp 1.25 1.25 0.1 iso 5.68 5.68 0.5 mtk yes tchain 5 pchain 5
run 2000
Per MPI rank memory allocation (min/avg/max) = 3.643 | 3.645 | 3.649 Mbytes
Step Temp E_pair E_mol TotEng Press Volume 
   10000    2.3728283   -2.1627722            0    1.3955805    5.8847629    3986.8396 
   11000    1.2423266   -3.2023969            0   -1.3393729    5.8690164    3117.3083 
   12000    1.2560013   -3.2034153            0   -1.3198844    5.5369298    3142.7599 
Loop time of 0.700184 on 48 procs for 2000 steps with 4000 atoms

Performance: 493584.799 tau/day, 2856.394 timesteps/s
99.2% CPU use with 48 MPI tasks x no OpenMP threads

MPI task timing breakdown:
Section |  min time  |  avg time  |  max time  |%varavg| %total
---------------------------------------------------------------
Pair    | 0.27116    | 0.29002    | 0.31361    |   1.7 | 41.42
Neigh   | 0.039403   | 0.041472   | 0.043507   |   0.5 |  5.92
Comm    | 0.24846    | 0.27308    | 0.31906    |   2.4 | 39.00
Output  | 5.6237e-05 | 6.1488e-05 | 8.0549e-05 |   0.0 |  0.01
Modify  | 0.046147   | 0.088158   | 0.093347   |   3.1 | 12.59
Other   |            | 0.007388   |            |       |  1.06

Nlocal:        83.3333 ave          93 max          74 min
Histogram: 2 1 6 7 8 12 4 3 2 3
Nghost:        1932.35 ave        1956 max        1911 min
Histogram: 3 3 6 7 8 6 5 3 3 4
Neighs:        12164.9 ave       14124 max       10431 min
Histogram: 1 1 6 11 8 11 4 3 2 1

Total # of neighbors = 583914
Ave neighs/atom = 145.97850
Neighbor list builds = 144
Dangerous builds = 11

#############################
# L I N E A R  Q U E N C H  #
#############################

# Define solid atoms. This closely follows ten Wolde  Ruiz-Montero and Frenkel  Faraday Discuss  1996  104  93-110
# Compute components of the per-atom q6 vector
compute q6 all orientorder/atom degrees 1 6 components 6 nnn NULL cutoff 1.3 # compute the Q6 parameter.
                                                                             # Use all neighbours within 1.3 unit cell.

# get number of connections
compute coord_number all coord/atom orientorder q6 0.5

# An atom is solid if it has 8 or more connections (of a possible 14)
variable is_solid atom c_coord_number>=8
group solid dynamic all var is_solid    # Must be dynamic to update
dynamic group solid defined

# do clustering
compute cluster solid cluster/atom 1.3 # Create a cluster where all atoms within are solid and max 1.3 units from another member

# define chunks one chunk per cluster
compute clus_chunks solid chunk/atom c_cluster nchunk every compress yes  # Says which atoms are in which chunk

# count the size of each chunk
compute size_chunks solid property/chunk clus_chunks count


# Find the maximum entry in the vector of chunk sizes
variable max_n equal max(c_size_chunks)


# Thermo style which includes this variable
# thermo_style custom step temp pe vol v_max_n

thermo ${N}  # Print the thermo information every 100 steps
thermo 1000  

# Reset the npt fix at a lower temperature (below freezing)
fix 1  all npt temp  ${temp} ${temp}  0.1  iso  5.68  5.68  0.5  mtk yes tchain  5  pchain  5
fix 1  all npt temp  0.45 ${temp}  0.1  iso  5.68  5.68  0.5  mtk yes tchain  5  pchain  5
fix 1  all npt temp  0.45 0.45  0.1  iso  5.68  5.68  0.5  mtk yes tchain  5  pchain  5

dump dmp2 all dcd ${N} traj.dcd
dump dmp2 all dcd 1000 traj.dcd


compute msd all msd com yes
variable twopoint equal c_msd[4]/6/(step*dt+1.0e-6)
fix 9 all vector 10 c_msd[4]
variable fit equal slope(f_9)/6/(10*dt)
thermo_style custom step temp pe c_msd[4] v_twopoint v_fit v_max_n

fix 1 all npt temp 1.25 ${temp} 0.1 iso 5.68 5.68 0.5 mtk yes tchain 5 pchain 5
fix 1 all npt temp 1.25 0.45 0.1 iso 5.68 5.68 0.5 mtk yes tchain 5 pchain 5
run 500000 # 5000000  # Run for this many steps
Neighbor list info ...
  update every 1 steps, delay 10 steps, check yes
  max neighbors/atom: 2000, page size: 100000
  master list distance cutoff = 3.8
  ghost atom cutoff = 3.8
  binsize = 1.9, bins = 8 8 8
  4 neighbor lists, perpetual/occasional/extra = 1 3 0
  (1) pair lj/cut, perpetual
      attributes: half, newton on
      pair build: half/bin/atomonly/newton
      stencil: half/bin/3d
      bin: standard
  (2) compute orientorder/atom, occasional
      attributes: full, newton on
      pair build: full/bin/atomonly
      stencil: full/bin/3d
      bin: standard
  (3) compute coord/atom, occasional
      attributes: full, newton on
      pair build: full/bin/atomonly
      stencil: full/bin/3d
      bin: standard
  (4) compute cluster/atom, occasional
      attributes: full, newton on
      pair build: full/bin/atomonly
      stencil: full/bin/3d
      bin: standard
Per MPI rank memory allocation (min/avg/max) = 9.819 | 9.826 | 9.832 Mbytes
Step Temp PotEng c_msd[4] v_twopoint v_fit v_max_n 
   12000    1.2560013   -3.2034153 8.4250345e-31 5.8507181e-33 8.3333333e+20            1 
   13000    1.2359745   -3.2165033    1.0018128 0.0064218767  0.085009012            1 
   14000    1.2294987   -3.2308683    2.1006603   0.01250393  0.088467105            2 
   15000    1.2212511   -3.2217955    3.2105105  0.017836169  0.089801651            3 
   16000    1.2744505    -3.224403    4.3271103  0.022537032  0.090377624            2 
   17000    1.2419764   -3.2299477    5.4371482  0.026652686  0.091579519            2 
   18000    1.1960202   -3.2271274    6.5574613  0.030358616  0.092214778            1 
   19000    1.2035979   -3.2294623     7.684858  0.033705517  0.092281452            2 
   20000    1.2389798   -3.2417883    8.8389911  0.036829129  0.092761115            1 
   21000    1.2578902   -3.2584204    10.010555  0.039724424  0.093122261            2 
   22000    1.2270403   -3.2402676    11.332971  0.042927921  0.094008214            2 
   23000    1.2463086   -3.2396336    12.437293  0.045062655  0.094823108            2 
   24000    1.2411497    -3.230617    13.418058  0.046590478  0.094835386            1 
   25000    1.2357904   -3.2074325    14.589356  0.048631185  0.094719334            1 
   26000    1.2164822   -3.2646503    15.917312  0.051017026  0.094894406            2 
   27000    1.1922666   -3.2331677    17.085686  0.052733597  0.095198573            3 
   28000    1.2155867    -3.258019    18.049755  0.053719509  0.095366718            1 
   29000    1.1852045   -3.2517765    19.170713  0.055088255  0.095251295            1 
   30000    1.2269451   -3.2664034    20.110646  0.055862903  0.095079093            2 
   31000    1.2488266   -3.2746406    21.057863  0.056607159  0.094762106            2 
   32000    1.1953477   -3.2287537    22.102976  0.057559832  0.094221107            4 
   33000    1.2498865   -3.2236548    22.960461  0.057980961  0.093733174            1 
   34000    1.2069011   -3.2711223    23.981205  0.058777463   0.09313198            2 
   35000    1.2315033   -3.2877655    25.074118  0.059700281  0.092597497            2 
   36000    1.2174528   -3.3010341    26.119059  0.060460785  0.092254218            2 
   37000    1.2133635   -3.2756327    27.316201  0.061522974  0.091992887            1 
   38000    1.2189515   -3.2663663    28.721758  0.062986311  0.091875593            2 
   39000    1.1936541   -3.2694161    29.849249  0.063780446   0.09187217            2 
   40000    1.1896407   -3.2854145    30.990084  0.064562674  0.091911672            1 
   41000    1.2048305   -3.2808975    32.301544  0.065653543   0.09202326            2 
   42000    1.1986735   -3.2770996    33.197944  0.065868935  0.092071983            4 
   43000    1.1986273   -3.2943903    34.398252  0.066663279  0.092121546            2 
   44000    1.2139472   -3.2701645    35.142313  0.066557409  0.092097426            2 
   45000    1.2037894   -3.3238285    36.181072  0.067001984  0.091968947            1 
   46000    1.2069575   -3.2729516    37.436505  0.067819754  0.091900027            2 
   47000    1.1730891   -3.2805813    38.578359  0.068401345  0.091849163            1 
   48000    1.1817135   -3.2753425    39.742065   0.06899664  0.091838277            1 
   49000    1.2120348   -3.2698611    41.106368  0.069908788  0.091899815            1 
   50000    1.1969563   -3.2923916    42.111893  0.070186488  0.091945576            4 
   51000    1.1665698   -3.3151947    42.968762  0.070210394  0.091973047            3 
   52000    1.1736315   -3.3412478     44.11592   0.07069859  0.091972407            3 
   53000    1.1569147   -3.3173163    44.824561  0.070478869  0.091912318            1 
   54000    1.1700462   -3.2729838    45.824089  0.070716187  0.091771815            2 
   55000    1.1809566   -3.3374466     46.75249  0.070837105  0.091626444            3 
   56000    1.1702493   -3.3173641    47.965196  0.071376778  0.091483152            1 
   57000    1.1838498   -3.2919743    48.970154  0.071593792  0.091348896            1 
   58000    1.1923763   -3.3206124    50.258667  0.072210728   0.09124348            1 
   59000    1.1775601   -3.3080568    50.876483  0.071859439  0.091103249            2 
   60000    1.1597869    -3.324496    51.778838  0.071915052  0.090930545            1 
   61000    1.1568948   -3.3069709    52.944256  0.072328219  0.090771145            4 
   62000     1.165432   -3.3233706      53.8683  0.072403629  0.090618226            2 
   63000    1.1803305   -3.3368915    54.902379  0.072622194  0.090460309            1 
   64000    1.1757381   -3.3503304    56.208132  0.073187671  0.090343732            2 
   65000    1.1593091   -3.3234463    57.472061  0.073682128  0.090273979            1 
   66000    1.1844748   -3.3088328     58.32277   0.07363986  0.090206172            2 
   67000    1.1703434   -3.3143495    59.483908   0.07398496  0.090126265            2 
   68000    1.1512579   -3.3446405    60.344666  0.073951796  0.090049525            2 
   69000     1.155058   -3.3544847    61.334397  0.074075358  0.089961389            2 
   70000    1.1407269   -3.3240729    62.358558  0.074236378  0.089856397            3 
   71000    1.1493427   -3.3514014    63.212385   0.07419294  0.089741623            4 
   72000    1.1476352   -3.3310621    63.867979  0.073921271   0.08961126            2 
   73000     1.150335   -3.3436242    65.070447  0.074281332  0.089452049            3 
   74000     1.126958    -3.348265      66.1659  0.074511148  0.089308611            1 
   75000    1.1972139   -3.3581259    67.090792  0.074545324  0.089179096            2 
   76000    1.1442628   -3.3455616    68.119384  0.074692306  0.089040189            2 
   77000     1.145182   -3.3277977    68.814623  0.074474699  0.088906063            2 
   78000    1.1425772   -3.3725971    69.733573   0.07450168  0.088743948            7 
   79000    1.1380564   -3.3401173    70.493564  0.074360299  0.088591475            1 
   80000    1.1524614   -3.3745083    71.602434  0.074585869  0.088442112            5 
   81000    1.1476006   -3.3616066    72.342714   0.07442666  0.088282946            3 
   82000    1.1563215   -3.3692505    73.378223  0.074571365  0.088107561            1 
   83000    1.1264789   -3.3621506    74.104028  0.074401634   0.08793932            2 
   84000     1.120886   -3.3964653    74.781166  0.074187665  0.087756254            1 
   85000    1.1244404    -3.356857    75.580024  0.074098062  0.087557056            5 
   86000    1.1511618   -3.3667958    76.891462   0.07450723  0.087351101            3 
   87000    1.1178962   -3.3721684    77.177868   0.07392516   0.08713578            3 
   88000    1.1370909    -3.402857     77.87881  0.073748872  0.086917256            1 
   89000    1.1395954   -3.3726478     79.04344  0.074010711   0.08669875            3 
   90000    1.1262722   -3.3473319    80.101763  0.074168298   0.08648825            3 
   91000    1.1325742   -3.4272044    80.676991  0.073880028  0.086298182            2 
   92000     1.116081   -3.3787547    81.724941  0.074026214  0.086116748            2 
   93000    1.1209916   -3.3780086    82.916419  0.074297866  0.085948115            3 
   94000    1.1006623   -3.3605285    83.813331  0.074302598  0.085771262            1 
   95000    1.1171314   -3.3636715    84.867667  0.074445321  0.085605956            2 
   96000    1.1390757   -3.3763489    85.320542   0.07406297  0.085419617            2 
   97000    1.0800337   -3.3848067    86.017298  0.073898022   0.08521952            3 
   98000    1.1307356   -3.4133351    86.241167  0.073334326    0.0850088            4 
   99000    1.1041973   -3.3826028    87.564293  0.073707317  0.084809984            4 
  100000    1.1123502   -3.3707145    88.587879  0.073823232  0.084628096            2 
  101000    1.1176795   -3.4189645    89.123654  0.073534368   0.08443933            2 
  102000    1.0976196   -3.3915575    89.758154  0.073331825  0.084253767            5 
  103000     1.083388   -3.4003842    90.889284  0.073535019  0.084051738            4 
  104000    1.1132678    -3.422138    91.584288  0.073384845  0.083859228            2 
  105000    1.1098266   -3.4258636     92.19629  0.073171659  0.083665603            4 
  106000     1.077493   -3.3963361    93.099117  0.073191129  0.083469839            4 
  107000    1.1095421   -3.4430876    93.783053   0.07303976  0.083263771            5 
  108000     1.106151   -3.4296422     95.01726  0.073315786  0.083070897            3 
  109000    1.0939284   -3.4155199    96.119609  0.073485939  0.082897093            3 
  110000    1.0870113   -3.4067225    96.649317  0.073219179  0.082739842            1 
  111000     1.078454   -3.4091508    97.678031  0.073331855  0.082570828            2 
  112000    1.0842769   -3.4198948    98.177204  0.073048515  0.082395799            1 
  113000    1.0893311   -3.4444584    99.323914  0.073247724  0.082235008            3 
  114000     1.077527   -3.4319771    99.885072  0.073015403  0.082074804            3 
  115000    1.0899098   -3.4505375    101.17841  0.073317691  0.081913439            3 
  116000     1.088241   -3.4665377    101.42534   0.07286303  0.081757343            3 
  117000    1.0746573     -3.45925     102.1267  0.072739817   0.08159641            2 
  118000    1.0719146   -3.4258053    103.43979  0.073050701  0.081440586            4 
  119000    1.0811513   -3.4538033    103.99085  0.072822721  0.081275826            2 
  120000    1.0608512   -3.4454937    104.93577  0.072872063  0.081102115            1 
  121000    1.0812475   -3.4478814    105.24694  0.072484119   0.08093341            1 
  122000    1.0710896   -3.4472015    105.62916  0.072151068  0.080758043            4 
  123000    1.0561251   -3.4358652    106.70366  0.072292454   0.08058045            5 
  124000    1.0432048    -3.472884    107.03934  0.071935038   0.08040371            3 
  125000    1.0756028   -3.4560811    107.87687  0.071917915  0.080215789            2 
  126000    1.0633376   -3.4684715    107.83739  0.071321026  0.080020057            3 
  127000    1.0472143   -3.4818147    109.07746  0.071573138   0.07982859            2 
  128000     1.065855   -3.4860645    109.77219   0.07146627  0.079635826            1 
  129000    1.0547501   -3.4620934    110.97004  0.071686075  0.079454675            2 
  130000    1.0794849   -3.4481114    111.84774  0.071697268  0.079275184            4 
  131000    1.0593877   -3.4563473    112.90368  0.071821682  0.079099809            4 
  132000    1.0748261   -3.4744116    112.98058  0.071326124     0.078922            4 
  133000    1.0980808    -3.462826    113.96468   0.07140644  0.078752609            4 
  134000    1.0508501   -3.4897024    114.41613  0.071154311  0.078582272            1 
  135000     1.055625   -3.4726654    115.25468  0.071144864   0.07841413            5 
  136000    1.0358605   -3.4938479    116.16478    0.0711794  0.078251166            2 
  137000    1.0501528   -3.4643353    117.16821    0.0712702  0.078086193            4 
  138000    1.0534279   -3.4729975    117.56188  0.070991471  0.077915212            3 
  139000    1.0446458    -3.502619    118.13419  0.070823856  0.077753478            2 
  140000     1.038998   -3.4860151    118.75737  0.070688909  0.077592701            2 
  141000    1.0346178   -3.4738001     120.3132  0.071107091  0.077443735            2 
  142000    1.0196762    -3.486805    120.67764  0.070820213  0.077290925            2 
  143000     1.019514   -3.4690161    121.96806  0.071076958  0.077142553            2 
  144000    1.0441505   -3.5040897    122.65513  0.070980978  0.076995771            2 
  145000     1.040877   -3.5004684    123.14021  0.070770236   0.07685426            4 
  146000     1.060148    -3.495947    123.84731  0.070689103  0.076709925            2 
  147000    1.0273557   -3.4810003    124.32206  0.070477357  0.076565292            2 
  148000    1.0343677   -3.4992391    125.39569   0.07060568  0.076426454            2 
  149000    1.0221499   -3.4870439    126.22889  0.070597815  0.076292945            2 
  150000    1.0383545   -3.5136602    126.56492  0.070313843   0.07616276            2 
  151000    1.0309354   -3.5190811    127.54201  0.070387424  0.076029751            2 
  152000    1.0327666   -3.5000551    128.52722  0.070464483  0.075902657            2 
  153000     1.014675   -3.5020409    129.85495  0.070727095   0.07578395            3 
  154000    1.0069605   -3.5442723    130.58152  0.070660993  0.075664838            2 
  155000    1.0419981   -3.5037216    131.27561  0.070578286  0.075549162            3 
  156000    1.0094943   -3.5052314    132.43169  0.070743425  0.075440993            2 
  157000    1.0039176   -3.5186745    133.12295  0.070659738  0.075338413            3 
  158000    1.0219635   -3.5542807    133.50344  0.070413205  0.075228403            4 
  159000    1.0044497   -3.5421828    134.44555  0.070464126  0.075120681            4 
  160000     1.021535   -3.5372689    135.15739  0.070394476    0.0750213            7 
  161000    1.0140687   -3.5187677    136.89562  0.070856945  0.074928868            2 
  162000    1.0204712   -3.5424711    137.01374  0.070480321  0.074834549            2 
  163000    1.0344716   -3.5777848     137.5764  0.070335581  0.074734711            3 
  164000    1.0035044   -3.5329519    138.35996  0.070304857  0.074634057            2 
  165000   0.99981452     -3.56628    138.17694  0.069786332  0.074526813            3 
  166000    1.0099982   -3.5280083    138.73905  0.069648117    0.0744137            2 
  167000    1.0286717   -3.5582782    139.27186  0.069496933  0.074298499            2 
  168000   0.99508117   -3.5569673    139.69024  0.069290794  0.074184779            2 
  169000    1.0016521   -3.5425427    140.50594  0.069283009  0.074072408            5 
  170000   0.99027544   -3.5523336    140.69005  0.068965712  0.073949775            3 
  171000   0.99179435   -3.5175021    142.28099  0.069337716  0.073829277            2 
  172000    1.0042319    -3.608596    141.59698  0.068603187  0.073704824            2 
  173000   0.98434158   -3.5924104    142.57691  0.068678665  0.073576045            4 
  174000   0.99602495   -3.5814203    143.51912  0.068735212  0.073448385            4 
  175000    1.0000922   -3.5837448    143.34632  0.068260151  0.073317324            3 
  176000   0.97598295   -3.5973094    144.25634  0.068303193  0.073182636            3 
  177000   0.97254526   -3.5619952    145.49462  0.068500293  0.073050792            2 
  178000   0.99983396   -3.5873232    145.92782  0.068318266   0.07291804            3 
  179000   0.98353465   -3.5847226    146.69737  0.068294866  0.072783904            3 
  180000   0.96312055   -3.5680857    147.78821  0.068420466  0.072650463            3 
  181000     1.001004   -3.5893117    148.13163  0.068200565  0.072519849            1 
  182000   0.96808621   -3.5900689    148.47904   0.06798491   0.07239066            4 
  183000   0.98711578   -3.5953848    149.61917  0.068132592  0.072263473            3 
  184000    0.9818391   -3.6122497    150.22159  0.068035141  0.072140901            4 
  185000   0.98698613   -3.5834645    149.97582  0.067556678  0.072019735            3 
  186000   0.95365404   -3.6172316    151.10197  0.067698015  0.071892173            2 
  187000   0.96537172   -3.6141522    151.38392  0.067461639  0.071762899            4 
  188000   0.96538864   -3.5971267    151.98927  0.067371132  0.071635048            1 
  189000   0.96403879    -3.605615    152.66629  0.067313178  0.071507386            4 
  190000   0.96001172   -3.6178495    152.56499  0.066914467  0.071376302            5 
  191000   0.96834116   -3.6344401    153.53283  0.066986398  0.071244069            2 
  192000   0.96992163   -3.5901281    155.27646  0.067394295   0.07111696            2 
  193000   0.95349792   -3.6083239    155.44707   0.06711877  0.070997588            3 
  194000   0.94099135   -3.6143669    155.36634  0.066738118  0.070876287            3 
  195000   0.94410177   -3.6296036    155.54486  0.066472161  0.070750862            3 
  196000    0.9688058   -3.6021296    157.15124  0.066816003  0.070629193            3 
  197000    0.9661187   -3.6292381    157.66609  0.066694623  0.070509603            3 
  198000   0.93968365   -3.6265344    158.22884  0.066594631  0.070389107            8 
  199000   0.96286977   -3.5924748    159.28814  0.066703576  0.070268514            2 
  200000   0.93754938   -3.6132362    159.54804   0.06647835  0.070151224            7 
  201000   0.96836993   -3.6293499    160.50891  0.066545982  0.070036378            2 
  202000   0.93941347   -3.6034784    160.93628  0.066392853  0.069914631            3 
  203000   0.94320735   -3.6331881    160.98799  0.066087024   0.06979159            4 
  204000   0.93145349   -3.6215738    161.34791  0.065910095   0.06966452            3 
  205000    0.9354872   -3.6195826    162.20789  0.065938166   0.06954189            1 
  206000   0.93650914   -3.6361346    162.82572  0.065868012  0.069420158            3 
  207000   0.92563212   -3.6369005    162.99266  0.065617011  0.069295823            3 
  208000   0.95708404   -3.6260813    164.01934  0.065712877  0.069171192            2 
  209000   0.94262682   -3.6625011    163.50744  0.065194354  0.069045194            8 
  210000    0.9341978   -3.6498972    164.70019  0.065357217  0.068916989            2 
  211000   0.93220162   -3.6809509    164.43048  0.064940949  0.068789428            3 
  212000   0.92796312   -3.6881146    164.72775  0.064751474  0.068656263            4 
  213000   0.93953673   -3.6585469    165.93227   0.06491873  0.068523945            3 
  214000   0.93744615   -3.6657214    165.95721  0.064625081  0.068389665            4 
  215000   0.90888071   -3.6189044    166.44599  0.064513948   0.06825857            4 
  216000   0.92527324   -3.6770369    166.52803  0.064246925  0.068122335            4 
  217000   0.91808843   -3.6972972    167.16347  0.064194879  0.067986083            3 
  218000   0.93015289   -3.6743514    167.71082  0.064109642  0.067852847            3 
  219000   0.92367524   -3.6916485    168.31476  0.064046714  0.067719048            3 
  220000   0.91191955   -3.6851477    168.70974  0.063905204  0.067586375            3 
  221000   0.90955981   -3.7040952    169.76217  0.064012885  0.067450962            2 
  222000   0.92782791   -3.6794435     169.1847  0.063507768  0.067314222            4 
  223000   0.90043842    -3.653792    170.55314  0.063734359  0.067178292            6 
  224000   0.90197877   -3.6820142    170.72685  0.063514452  0.067042193            7 
  225000   0.89234878   -3.6803057    171.46645  0.063506093  0.066906094            5 
  226000   0.89873709   -3.6812108    171.96479  0.063408847  0.066771791            2 
  227000   0.90526905   -3.6935722    172.13188  0.063190853  0.066636604            3 
  228000   0.91059216   -3.6992054    172.96508  0.063218232    0.0665039            2 
  229000   0.91651719   -3.7263574    172.94264  0.062934002  0.066370677            7 
  230000   0.90479941   -3.7130499     173.1362  0.062730507  0.066239544            2 
  231000    0.9181713    -3.703331    174.16687   0.06283076  0.066109736            4 
  232000   0.89174254   -3.6925913    175.21178  0.062935266  0.065980535           10 
  233000   0.89047431   -3.7641529    175.24187  0.062675917  0.065850268            6 
  234000   0.89035053   -3.7199757     176.1938  0.062747079   0.06572554            2 
  235000   0.89891134   -3.7482141    176.09254  0.062444163  0.065601356            4 
  236000   0.87452624   -3.7043146    177.60949  0.062715214  0.065478432            3 
  237000   0.88184657   -3.7063964    178.08582  0.062618079  0.065356566            4 
  238000   0.89723479   -3.7157136    178.41184  0.062469132  0.065235568            4 
  239000   0.88978682   -3.7122366    178.64158   0.06228786  0.065113503            5 
  240000   0.88804443   -3.7510076    178.64888   0.06203086  0.064990025            2 
  241000   0.87482303   -3.7432717    179.57937  0.062095218  0.064866161            3 
  242000   0.89736211   -3.7740649    179.85524  0.061933622  0.064742747            3 
  243000   0.86638562   -3.7562023    179.96655  0.061716925  0.064618324            4 
  244000   0.87986915   -3.7432477    180.33438  0.061589611  0.064497082            3 
  245000   0.86859629   -3.7334643    180.76572  0.061484938  0.064374343            3 
  246000   0.88307761   -3.7552447    181.11427  0.061353073  0.064251677            3 
  247000   0.86435276   -3.7411378     181.7772   0.06132834   0.06412726            3 
  248000   0.87709008   -3.7532456     181.8318  0.061099396  0.064000917            2 
  249000   0.86100624   -3.7578765    181.97214  0.060900985   0.06387368            4 
  250000   0.86957058   -3.7743421    182.23057  0.060743523  0.063745383            3 
  251000   0.86895863   -3.7360802    182.85156  0.060707689  0.063616824            4 
  252000    0.8755534   -3.7437776    183.41047  0.060651611  0.063491451            5 
  253000   0.85701235   -3.7526467    184.08964  0.060635588  0.063364266            6 
  254000   0.85797461   -3.7618655     184.4213  0.060505675   0.06323535            3 
  255000   0.86727382   -3.7744965    184.94969  0.060441077  0.063107749            8 
  256000   0.85942209   -3.7728476    184.78765   0.06015223  0.062978091            7 
  257000   0.84474382   -3.7616836    184.69311   0.05988752  0.062845985            3 
  258000   0.85564454    -3.782074    185.76032  0.060000103  0.062714507            3 
  259000   0.86140646   -3.7776706    186.55268  0.060023384  0.062586488            2 
  260000   0.84651808    -3.784438     186.2891  0.059708045  0.062457695            2 
  261000   0.85509838   -3.8099402    187.36802  0.059823761  0.062329324            5 
  262000     0.827329   -3.8031897    186.97626   0.05947082  0.062200468            6 
  263000   0.84311117   -3.7773936    187.81584  0.059510722  0.062074083            3 
  264000   0.85128808   -3.8009477    188.00996  0.059346578  0.061945617            3 
  265000   0.83619693   -3.7867747    188.69084  0.059336741  0.061817402            6 
  266000    0.8491605   -3.8446705    188.14032  0.058941202  0.061687278           10 
  267000   0.83896891   -3.7914091    189.16391  0.059039922  0.061556927            2 
  268000    0.8433078   -3.7895435    189.62143  0.058961888  0.061427607            3 
  269000   0.84716758   -3.8279362    188.88204  0.058513644  0.061297321            3 
  270000   0.85271311   -3.7976355    189.69822  0.058548833  0.061168003            4 
  271000   0.83871029   -3.7644079    190.96823  0.058723316  0.061038847            2 
  272000   0.83833663   -3.8131217    190.64316  0.058407831  0.060909595            1 
  273000   0.83266589     -3.82488    191.05827  0.058320595   0.06077925            6 
  274000   0.84150973   -3.8283776    191.16007  0.058138707  0.060649138            4 
  275000   0.83794061   -3.8256911    191.43816  0.058011564  0.060520635            3 
  276000   0.81535431   -3.8197689    191.98707  0.057967111  0.060390038            4 
  277000   0.82802881   -3.8241869    191.57621  0.057634239  0.060259543            7 
  278000   0.81602397    -3.818472    192.40299  0.057674757  0.060129695            3 
  279000   0.81221039   -3.8015986    193.32503  0.057743439  0.060000038            4 
  280000   0.83406237   -3.8481811    192.60934  0.057324209  0.059868823            8 
  281000   0.83543049    -3.858673    192.76551  0.057166523   0.05973803            4 
  282000   0.82587664   -3.8374778    193.78108  0.057263913  0.059610061            4 
  283000   0.80876792   -3.8638545    193.31943  0.056925627  0.059480253            4 
  284000   0.79624979   -3.8488548    193.99021   0.05692201  0.059347756            4 
  285000   0.79937744   -3.8407044    194.50696  0.056873381   0.05921602            3 
  286000   0.81310185   -3.8756119    193.67269  0.056431435  0.059084288            5 
  287000   0.81127839   -3.8493202    195.11516  0.056653646  0.058952847            3 
  288000   0.80999301    -3.847994    195.62376  0.056604097  0.058822449            3 
  289000   0.80818561   -3.8594044    195.65381    0.0564169  0.058692842            5 
  290000   0.80687296    -3.861418    196.06453  0.056340381  0.058563572            3 
  291000   0.80724347   -3.8716674    195.99614  0.056127187  0.058433438            7 
  292000   0.80455068   -3.8472702    196.05521  0.055951829  0.058304505            8 
  293000   0.80625268   -3.8503419    197.46785  0.056162642  0.058175657            6 
  294000   0.79303163   -3.8824307    197.25315  0.055910756  0.058049151            7 
  295000    0.7842281   -3.8769064    197.43409   0.05577234  0.057919853            3 
  296000   0.78891972   -3.9145245    197.61399  0.055634569   0.05779201            3 
  297000   0.79743097   -3.9004846    197.54848  0.055428866  0.057662685            2 
  298000   0.79247471    -3.900892    197.94384  0.055353421  0.057533142            3 
  299000   0.77454377   -3.8817859    198.39695  0.055294579  0.057405636            3 
  300000   0.78744096   -3.8687363    199.04702   0.05529084  0.057277615            2 
  301000   0.79393607    -3.905093    198.16116  0.054861893  0.057148254            7 
  302000   0.79433177   -3.9198595    198.78675  0.054852856  0.057018962            7 
  303000   0.78262193   -3.8902134     199.3924  0.054838395    0.0568903            6 
  304000   0.78820072   -3.9199895    199.44833  0.054673336  0.056760466           11 
  305000   0.78522192   -3.9200006    199.36606  0.054471601   0.05663121            3 
  306000   0.77938979   -3.8908322    200.51249  0.054605797  0.056501598            2 
  307000   0.79063144   -3.8775216    200.74185  0.054490188    0.0563731            4 
  308000    0.7657459   -3.9058432    199.97782  0.054106552  0.056244259            3 
  309000   0.77812196   -3.9331378    200.42957  0.054053282  0.056116407            3 
  310000   0.76857151   -3.8989147    201.49083  0.054164202  0.055989522            6 
  311000   0.77042453   -3.9002742    200.57811  0.053745474  0.055861902            5 
  312000    0.7749732   -3.9075835    201.57038  0.053838243  0.055734832            8 
  313000   0.77571387   -3.9298263    201.53915   0.05365792  0.055606336            6 
  314000   0.75526972   -3.9474683    202.05311  0.053623437  0.055479381            7 
  315000   0.75907214    -3.922236    202.19438  0.053490578  0.055352546            5 
  316000   0.76611057   -3.9260988    202.45965  0.053391258  0.055226267            5 
  317000   0.75680091   -3.9056888    203.15925  0.053406744  0.055100904           17 
  318000    0.7515216   -3.9426851    203.09948  0.053223135  0.054975308            5 
  319000   0.75368095   -3.9498793    203.78718   0.05323594  0.054851727            5 
  320000   0.75466896   -3.9485973    203.65538  0.053035254  0.054726924            4 
  321000   0.75144916   -3.9610577    204.13935  0.052995679  0.054603366            7 
  322000   0.75464717   -3.9710304    204.78863  0.052999128  0.054481065            6 
  323000   0.76146661    -3.952486    204.54319  0.052771721  0.054359073            3 
  324000   0.74352489   -3.9569325     205.0071  0.052728164  0.054237347            4 
  325000   0.75023645   -3.9688606    205.23265  0.052623756  0.054116359            9 
  326000   0.75628367   -3.9901427      204.795  0.052350459  0.053995836           10 
  327000   0.73153679   -3.9676476    205.73525  0.052429981  0.053875077            4 
  328000   0.73548976   -3.9763529    206.39096  0.052436729    0.0537556            4 
  329000   0.73059989   -3.9669255    206.95067  0.052419115  0.053637385            4 
  330000   0.73943054   -4.0047072    207.23168  0.052331233  0.053519796            3 
  331000   0.74597148   -3.9856763    206.80438  0.052065553  0.053402897            3 
  332000   0.74733535    -3.983649    207.59016  0.052105963  0.053287149            6 
  333000   0.73950089   -3.9830695    208.14377   0.05208803  0.053171046            9 
  334000   0.72899653   -3.9756525    208.66013  0.052060911  0.053054706            2 
  335000   0.74480538   -3.9862549     208.7552  0.051929155  0.052938757            5 
  336000   0.72172845   -4.0038784    207.79346  0.051536075  0.052821676            9 
  337000   0.71433218   -3.9958259    208.65414  0.051595979  0.052704262           10 
  338000    0.7179114   -3.9895461    209.17736  0.051572328  0.052586883            3 
  339000   0.72890185   -3.9897994    208.89388   0.05135051  0.052469502            2 
  340000   0.72073925   -4.0044451    207.98526  0.050976778  0.052350831            5 
  341000   0.71445642   -4.0060901     209.0705  0.051092498  0.052233281            5 
  342000   0.72199792   -4.0298381    208.44012  0.050789502  0.052114791            7 
  343000   0.72227115    -4.009781    209.97547  0.051014449  0.051996776            4 
  344000   0.72224685   -3.9889188    210.23251  0.050928417   0.05188014            3 
  345000   0.70618882   -4.0062584    209.37911  0.050574665  0.051762604            7 
  346000   0.73772856   -4.0228625    210.36677   0.05066637  0.051647538            3 
  347000   0.70882958   -4.0025748    210.62979  0.050583523  0.051532728            5 
  348000    0.7285535   -4.0397001    210.64643  0.050442154  0.051417098            6 
  349000   0.71285688   -3.9974971    210.85756  0.050348034  0.051302042            3 
  350000   0.68758299   -4.0443588    210.27527   0.05006554  0.051185933           13 
  351000   0.70350841   -4.0060182    210.77852  0.050042384  0.051070007            8 
  352000   0.70877989   -4.0324346    211.38889  0.050044718  0.050955283           10 
  353000   0.70578564   -4.0151513     210.9576  0.049801133  0.050841194            7 
  354000    0.7086148   -4.0471087    212.02432  0.049911563  0.050726151            9 
  355000    0.7035133   -4.0412891    211.93733  0.049750547  0.050611253            5 
  356000   0.70274538   -4.0361084    212.32312  0.049701105  0.050497536           13 
  357000   0.70552935   -4.0597589    212.00062  0.049486607    0.0503842            7 
  358000   0.68910239   -4.0209794    212.71711  0.049515156   0.05027078            4 
  359000   0.68485544   -4.0589242    212.96751  0.049435354  0.050157995            7 
  360000   0.69827896   -4.0503038    212.51572  0.049193454  0.050044713            7 
  361000    0.6837988   -4.0657932    213.29944  0.049238098  0.049932152            5 
  362000   0.68284673   -4.0518202    213.39458  0.049123982  0.049819962            7 
  363000    0.6802168   -4.0565541    214.90529  0.049335467  0.049708233            6 
  364000   0.69056092   -4.0872121    213.07453  0.048780798  0.049596317            8 
  365000   0.69452616   -4.0677341    213.69222  0.048788179  0.049483585            7 
  366000   0.68440463   -4.0562053    214.29886     0.048793  0.049372078            7 
  367000   0.67292567    -4.062713    214.16965  0.048630711  0.049261147            4 
  368000   0.68665076   -4.0871567    214.71967  0.048623113  0.049149825            6 
  369000    0.6817551   -4.0842521    214.46032  0.048432774  0.049038944            6 
  370000    0.6831619   -4.0788632    214.80245  0.048378929  0.048928788            6 
  371000   0.67333888   -4.0808757    214.59622  0.048202205  0.048818737            5 
  372000   0.67793564   -4.0759812    215.10988  0.048187697  0.048709206            3 
  373000   0.67568569   -4.0994578    215.24552  0.048088811  0.048600627            3 
  374000   0.65751394    -4.087948    215.18505  0.047946758  0.048492448            8 
  375000   0.66901183   -4.1010084    215.41728  0.047870506  0.048384195            7 
  376000   0.68511687   -4.1180521    216.42232  0.047965941  0.048276535            7 
  377000   0.66800346   -4.0893389    216.39981  0.047833734  0.048169277            7 
  378000   0.66511195   -4.0876457    216.28197   0.04768121  0.048061662            9 
  379000   0.66356389   -4.1233352    216.18609  0.047534321  0.047954322            8 
  380000   0.67707203     -4.09991    216.37623  0.047450927  0.047847071            9 
  381000   0.67062584   -4.1045333    216.11096  0.047268365  0.047739187            8 
  382000   0.65219126   -4.1025531    216.70556  0.047274336  0.047631753            8 
  383000   0.65409515   -4.1226944    217.04514  0.047224791  0.047524973            5 
  384000   0.65804892   -4.1239913      216.853  0.047060112  0.047417679           12 
  385000   0.65491482   -4.1285758     216.9393  0.046956557  0.047310494            5 
  386000   0.63908303   -4.1365209    216.84611   0.04681479  0.047203249            6 
  387000   0.64174374   -4.1239637    217.00025  0.046727013  0.047095442           16 
  388000   0.64635369   -4.1344001     217.2518   0.04666061  0.046987496            5 
  389000   0.65289953   -4.1298273    217.29807  0.046550572  0.046879643           10 
  390000   0.64593217   -4.1375434     217.1061  0.046390192  0.046772431           19 
  391000   0.63467585   -4.1711297    217.49422  0.046354267  0.046665524           15 
  392000   0.65678487   -4.1512153    218.43502  0.046436017  0.046558652           16 
  393000   0.63394086   -4.1625957    217.58066  0.046136696  0.046452495            8 
  394000   0.63933021   -4.1618464    217.89273  0.046085602  0.046345444           11 
  395000   0.62604691   -4.1751468    218.06516  0.046005308  0.046238191            6 
  396000   0.63036156   -4.1774696    218.32651  0.045944131  0.046131282            5 
  397000   0.62837901   -4.1385582    218.22229  0.045806525  0.046024913            6 
  398000   0.62613349    -4.176254    218.38118  0.045724702  0.045918823           11 
  399000   0.61663201   -4.1740846     217.8361  0.045496261  0.045813486           11 
  400000   0.64291547   -4.1839349    217.72413  0.045359194  0.045707034            5 
  401000   0.63196986   -4.1853589    218.90902  0.045492316  0.045601732            8 
  402000   0.63251553   -4.1717446     218.6068  0.045316501  0.045496237            9 
  403000   0.62927086   -4.1650991    218.73816  0.045231217  0.045391015           10 
  404000   0.62368346   -4.1882999    218.38527  0.045046467   0.04528517            6 
  405000   0.62697961   -4.1993508    219.10984   0.04508433  0.045178694            8 
  406000   0.61141372   -4.2025744     219.0481  0.044960612  0.045072511           26 
  407000   0.60959382   -4.1859688    219.04653  0.044849823  0.044966906            7 
  408000   0.62365205    -4.198005    218.81363  0.044692326  0.044861617            5 
  409000   0.60966773      -4.2227    218.59747  0.044539011   0.04475589            6 
  410000    0.6142676   -4.1925386    219.18552  0.044549902  0.044650168            5 
  411000   0.61143105   -4.2237554    218.75813  0.044354852  0.044544907           10 
  412000   0.62298627   -4.2174909    218.94563   0.04428512  0.044439615            7 
  413000   0.59866542   -4.2010861    219.46851  0.044283396  0.044334654           13 
  414000   0.62488601   -4.2018328    219.37531  0.044157671  0.044230546            6 
  415000   0.60862705   -4.2137438    220.00818  0.044178349  0.044126765            8 
  416000   0.60260721   -4.2206882    219.47666  0.043965677   0.04402345           10 
  417000   0.60296796   -4.2231426    219.53618  0.043872138  0.043919536            8 
  418000    0.6083794   -4.2272168    219.97528  0.043854721  0.043816564            6 
  419000   0.59539685   -4.2344307      220.131  0.043781025  0.043713183           16 
  420000   0.59477678   -4.2349192    219.59314  0.043570067   0.04361004           13 
  421000   0.59448301    -4.232202    220.39709  0.043625711  0.043507196            8 
  422000   0.59057075     -4.23626    220.31472  0.043506066  0.043404589           10 
  423000   0.60595072   -4.2399413    220.44782  0.043429437  0.043301583            8 
  424000   0.58855562   -4.2564527    220.25194  0.043288511  0.043198516           11 
  425000   0.59516041   -4.2424429    220.64274  0.043263282   0.04309596           13 
  426000   0.58996897   -4.2586409    220.47042  0.043128016  0.042992869           10 
  427000    0.5785176   -4.2700301    220.37324  0.043008047  0.042890434           16 
  428000   0.57688545   -4.2434471    220.65415  0.042962257   0.04278792           11 
  429000   0.57070931   -4.2681577    220.63236  0.042857878  0.042685829            9 
  430000   0.57443262    -4.254741     220.5229  0.042736996  0.042584505           14 
  431000   0.57268083   -4.2516778     220.7762  0.042686813  0.042483484           17 
  432000   0.58149999    -4.266701    220.65754  0.042565112  0.042382742            6 
  433000   0.57144412   -4.2622543     221.1035  0.042552636  0.042281734           15 
  434000   0.57814527   -4.2877926    220.72118  0.042381179  0.042180653            6 
  435000   0.57449993   -4.2643532    220.84605  0.042307671  0.042079691            8 
  436000   0.57270966   -4.2983369    220.60287  0.042164157  0.041979365            8 
  437000   0.57634579   -4.2847823    221.41394  0.042222339   0.04187917            7 
  438000    0.5468754   -4.2913707    221.81308  0.042201879  0.041779454           22 
  439000     0.566981   -4.2838942    221.71968  0.042088018  0.041680062           14 
  440000   0.55321608   -4.2876213    220.96236  0.041848931  0.041580392           15 
  441000   0.55336816   -4.3011209    221.22104  0.041802918  0.041481321           11 
  442000    0.5630105   -4.3171174    221.73111  0.041804507  0.041381908           13 
  443000   0.56516053   -4.2946878    221.95666  0.041752569  0.041282815            9 
  444000    0.5550805   -4.3114909    221.42133  0.041558058  0.041183963           13 
  445000   0.54064634   -4.3249744     221.5178  0.041482735  0.041084812           10 
  446000   0.56087419   -4.3227437    221.66069  0.041416422  0.040986007           11 
  447000   0.54648942   -4.3101166    221.49479  0.041292838   0.04088744           11 
  448000   0.55685323   -4.3271066    221.68223  0.041235534  0.040789498            7 
  449000   0.55200295   -4.3287564    221.89003  0.041182261  0.040691928           13 
  450000   0.56321089   -4.3253238    221.61233   0.04103932  0.040594377           15 
  451000   0.54635621   -4.3232948    221.68743    0.0409622  0.040496958            9 
  452000   0.54081671   -4.3263022    222.10967  0.040949422  0.040400264           13 
  453000   0.54270901   -4.3368751    222.05629  0.040849207  0.040304185           14 
  454000   0.53878934    -4.335134    222.28944  0.040802027   0.04020788           26 
  455000   0.55244735   -4.3562198    222.44233  0.040740354  0.040112174           19 
  456000   0.53668405   -4.3362294    222.57572  0.040675388  0.040016391           12 
  457000   0.53967573   -4.3335471     222.6265  0.040595642  0.039920058           28 
  458000    0.5359726    -4.349826    222.64732  0.040510792  0.039824628            8 
  459000   0.54203747   -4.3393254    222.11194  0.040325334  0.039729332           31 
  460000   0.52731237   -4.3510917    222.87241  0.040375436  0.039634253           10 
  461000   0.53639854   -4.3611488    222.66242  0.040249895   0.03953885           14 
  462000   0.54025977   -4.3660065    222.23758  0.040086143  0.039443849           31 
  463000   0.52317567   -4.3657331    222.39755  0.040028356  0.039349043           14 
  464000   0.52827193   -4.3502831    222.52275  0.039964575  0.039254566           22 
  465000   0.53489395   -4.3816739    222.00135  0.039785188  0.039159824           18 
  466000   0.51974165   -4.3862144    222.70937  0.039826425   0.03906521           18 
  467000   0.53054324    -4.371234    222.38891   0.03968396  0.038971127           36 
  468000   0.51956578   -4.3927339    222.56278  0.039630125  0.038877403           18 
  469000   0.50479005   -4.3830218    222.90666  0.039606728  0.038783656           13 
  470000   0.51081205   -4.3880857    222.58513  0.039465449  0.038690154            9 
  471000   0.52204828   -4.4097137    222.50177  0.039366909  0.038596536           23 
  472000   0.52456057   -4.3883659     223.1972  0.039406286  0.038502655           15 
  473000   0.50380906   -4.3917178    223.00052  0.039288323  0.038408853           10 
  474000    0.5068497   -4.4081571    222.91874  0.039191058  0.038315618           21 
  475000    0.5016549   -4.3979948    222.93959  0.039112208  0.038222807            7 
  476000   0.49663437   -4.3896642    222.66546  0.038982049  0.038130309           15 
  477000   0.50628564   -4.4164599    222.97213  0.038953902  0.038037996           11 
  478000   0.51041231   -4.4107763    222.65407  0.038816957  0.037945575           18 
  479000   0.50670134   -4.4251704    222.73241   0.03874955  0.037853077            9 
  480000    0.4964074   -4.4048773    222.53302  0.038634205  0.037760714           12 
  481000   0.49814334    -4.433294    223.00169  0.038635082   0.03766829           17 
  482000   0.50240307   -4.4452009    222.31195  0.038435675  0.037576288           17 
  483000   0.49880834   -4.4483499    222.41747  0.038374305  0.037483453           24 
  484000    0.4930677   -4.4417296     222.6119  0.038328495  0.037390741           23 
  485000   0.47894895   -4.4383525    222.86854  0.038293563  0.037298622           15 
  486000   0.49922482   -4.4368616    222.94922  0.038228604  0.037206517           15 
  487000   0.47673437   -4.4355121    222.68745  0.038105313  0.037114517           25 
  488000   0.49871147   -4.4526699    222.13335  0.037932607  0.037022981           13 
  489000   0.50047327   -4.4582281    222.86827  0.037980278  0.036931688           13 
  490000   0.49420771   -4.4339447    222.18971  0.037787365  0.036840616           11 
  491000   0.48330585   -4.4511902     222.1384  0.037701697  0.036749453           21 
  492000   0.47547424   -4.4507201    222.22428  0.037639614  0.036657943           19 
  493000   0.48884705   -4.4509629    222.52553  0.037614186  0.036566761           14 
  494000   0.48155039    -4.477024    222.27973  0.037496581  0.036476081            9 
  495000   0.48365377   -4.4702066    222.12453  0.037394702  0.036385406           32 
  496000   0.46439912   -4.4769577    222.66135  0.037409501  0.036295114           33 
  497000   0.48075731   -4.4679089     222.8804  0.037370959  0.036205283           38 
  498000   0.47424813   -4.4904716    222.46694   0.03722673  0.036115593           45 
  499000   0.47751618   -4.5035485    222.23159  0.037112824  0.036025431           42 
  500000   0.46907182    -4.487529     221.2884    0.0368814  0.035935511          133 
  501000   0.46769933   -4.4983453    222.58366   0.03702323  0.035845927           46 
  502000   0.46678103   -4.5041838    222.50703  0.036936758  0.035756562          123 
  503000   0.47242141    -4.497751    221.92479  0.036766864  0.035667438           63 
  504000   0.46566235   -4.5133064    222.01527  0.036708875  0.035578457           38 
  505000   0.45528462   -4.4921142    222.28419   0.03668056  0.035489767           45 
  506000   0.45685012   -4.4886025    222.12149  0.036581273  0.035401347           50 
  507000   0.45797779    -4.517535    222.39405  0.036553919  0.035312865           47 
  508000   0.47235254   -4.5125405    222.00376  0.036417939  0.035224438           29 
  509000   0.45240066   -4.5063106    221.91915   0.03633254  0.035136038           16 
  510000   0.44900392   -4.5108698    222.52722  0.036360657  0.035048128           47 
  511000   0.44736663   -4.5176934    222.07128  0.036215146  0.034960428           56 
  512000   0.45683882   -4.5442764    222.40603  0.036198897  0.034872923           23 
Loop time of 1225.96 on 48 procs for 500000 steps with 4000 atoms

Performance: 70475.507 tau/day, 407.844 timesteps/s
99.4% CPU use with 48 MPI tasks x no OpenMP threads

MPI task timing breakdown:
Section |  min time  |  avg time  |  max time  |%varavg| %total
---------------------------------------------------------------
Pair    | 81.602     | 86.814     | 91.867     |  26.7 |  7.08
Neigh   | 8.2471     | 8.65       | 9.2353     |   6.4 |  0.71
Comm    | 78.923     | 85.813     | 92.566     |  34.4 |  7.00
Output  | 0.90607    | 0.90657    | 0.91558    |   0.1 |  0.07
Modify  | 1029.5     | 1032.1     | 1036.1     |   5.6 | 84.19
Other   |            | 11.67      |            |       |  0.95

Nlocal:        83.3333 ave          92 max          76 min
Histogram: 2 5 6 8 6 5 10 1 3 2
Nghost:        2252.79 ave        2272 max        2237 min
Histogram: 5 2 8 8 5 3 7 5 4 1
Neighs:        15079.6 ave       16911 max       13895 min
Histogram: 7 5 7 7 6 6 5 2 2 1
FullNghs:      30160.3 ave       33284 max       27495 min
Histogram: 2 4 8 8 6 4 9 2 3 2

Total # of neighbors = 1447693
Ave neighs/atom = 361.92325
Neighbor list builds = 27049
Dangerous builds = 0

#clear
#
#next RN
#
#jump SELF
Total wall time: 0:20:29
