
units lj                  # Use reduced LJ style units
atom_style atomic         # Uncharged point particles
atom_modify map hash      # Needed for indexing of clusters etc
                          # Used to be able to find where atoms are in relation to each other.

lattice fcc 1.0 spacing 1 1 1
Lattice spacing in x,y,z = 1.5874011 1.5874011 1.5874011
region box block 0 10 0 10 0 10 units lattice
create_box 2 box
Created orthogonal box = (0.0000000 0.0000000 0.0000000) to (15.874011 15.874011 15.874011)
  3 by 4 by 4 MPI processor grid
create_atoms 1 box
Created 4000 atoms
  using lattice units in orthogonal box = (0.0000000 0.0000000 0.0000000) to (15.874011 15.874011 15.874011)
  create_atoms CPU = 0.005 seconds
set type 1 type/fraction 2 0.18 78393
Setting atom values ...
  747 settings made for type/fraction
mass 1 1.0
mass 2 1.0
pair_style lj/cut  3.5
pair_modify tail  yes
pair_coeff 1  1  1.0  1.0   # Intearaction between 1 and 1 set with epsilon = 1 and sigma = 1
pair_coeff 1  2  1.5  0.8
pair_coeff 2  2  0.5  0.88

write_data data.0
System init for write_data ...
Neighbor list info ...
  update every 1 steps, delay 10 steps, check yes
  max neighbors/atom: 2000, page size: 100000
  master list distance cutoff = 3.8
  ghost atom cutoff = 3.8
  binsize = 1.9, bins = 9 9 9
  1 neighbor lists, perpetual/occasional/extra = 1 0 0
  (1) pair lj/cut, perpetual
      attributes: half, newton on
      pair build: half/bin/atomonly/newton
      stencil: half/bin/3d
      bin: standard
WARNING: Not all mixed pair coeffs generated from mixing. Use write_data with 'pair ij' option to store all pair coeffs. (../write_data.cpp:312)


#############################
#   M E L T   S Y S T E M   #
#############################

velocity all create 2.4 3143649 mom yes dist gaussian # Assign velocities
                                                    # Temperature 2.4, random number seed, zero linear momentum
                                                                                # Gaussian distribution

timestep 0.002   # simulation timestep
thermo 1000       # output thermodynamic data every 1000 steps bf 100

# Define a fix  in this case with index 1 applied to all
# particles in the simulation. This fix is for simulations
# in the anisotropic NPT ensemble. Note that we use the MTK
# correction.
fix 1 all npt temp 2.4 2.4 0.1 iso 5.68 5.68 0.5 mtk yes tchain 5 pchain 5 # Use NPT ensemble
                                                                         # Set temperature and pressure and damping
                                                                         # Numbers of thermostats in chain and in barostat
run 10000          # run for 10000 steps
Per MPI rank memory allocation (min/avg/max) = 3.642 | 3.644 | 3.648 Mbytes
Step Temp E_pair E_mol TotEng Press Volume 
       0          2.4   -7.1764538            0   -3.5773538   -3.5088476         4000 
    1000    2.3912454   -4.8128857            0   -1.2269144    5.5787219    4543.5909 
    2000    2.3964894    -4.763092            0   -1.1692565    5.9300272     4539.741 
    3000    2.4727138   -4.7727146            0   -1.0645712    5.9737864    4524.6656 
    4000    2.4291327   -4.7616484            0   -1.1188602    5.8329959     4550.045 
    5000    2.3968154   -4.7702127            0   -1.1758884    5.9852828    4514.7975 
    6000    2.3826634   -4.8288746            0    -1.255773    5.4768052     4547.442 
    7000    2.4775511   -4.8208243            0   -1.1054268    5.6044547    4550.1928 
    8000    2.3667725    -4.794619            0   -1.2453477    5.4671901    4569.8668 
    9000    2.3664828   -4.8391678            0   -1.2903311    5.5719683     4529.961 
   10000    2.3771411   -4.8385578            0   -1.2737376    5.4320276    4545.2072 
Loop time of 2.27087 on 48 procs for 10000 steps with 4000 atoms

Performance: 760940.932 tau/day, 4403.593 timesteps/s
99.6% CPU use with 48 MPI tasks x no OpenMP threads

MPI task timing breakdown:
Section |  min time  |  avg time  |  max time  |%varavg| %total
---------------------------------------------------------------
Pair    | 0.94488    | 1.0157     | 1.098      |   3.0 | 44.73
Neigh   | 0.19421    | 0.20319    | 0.22038    |   1.0 |  8.95
Comm    | 0.68123    | 0.77836    | 0.86323    |   3.8 | 34.28
Output  | 0.00024316 | 0.00024698 | 0.00031472 |   0.0 |  0.01
Modify  | 0.22179    | 0.25888    | 0.30593    |   4.2 | 11.40
Other   |            | 0.01453    |            |       |  0.64

Nlocal:        83.3333 ave          94 max          75 min
Histogram: 1 3 7 12 7 8 5 4 0 1
Nghost:        1508.19 ave        1524 max        1482 min
Histogram: 1 0 4 1 7 9 7 9 2 8
Neighs:        8388.54 ave       10087 max        7390 min
Histogram: 4 3 11 10 13 3 3 0 0 1

Total # of neighbors = 402650
Ave neighs/atom = 100.66250
Neighbor list builds = 908
Dangerous builds = 228

# Equilibrate just above the melting temperature to avoid step fn in T

fix 1 all npt temp 1.25 1.25 0.1 iso 5.68 5.68 0.5 mtk yes tchain 5 pchain 5
run 2000
Per MPI rank memory allocation (min/avg/max) = 3.642 | 3.644 | 3.648 Mbytes
Step Temp E_pair E_mol TotEng Press Volume 
   10000    2.3771411   -4.8385578            0   -1.2737376    5.4320276    4545.2072 
   11000    1.2350868   -6.4643839            0   -4.6122169    5.7671595     3716.818 
   12000    1.2547345   -6.5427722            0    -4.661141    5.7926678    3691.6622 
Loop time of 0.515203 on 48 procs for 2000 steps with 4000 atoms

Performance: 670803.161 tau/day, 3881.963 timesteps/s
99.5% CPU use with 48 MPI tasks x no OpenMP threads

MPI task timing breakdown:
Section |  min time  |  avg time  |  max time  |%varavg| %total
---------------------------------------------------------------
Pair    | 0.21787    | 0.23871    | 0.2648     |   2.1 | 46.33
Neigh   | 0.031711   | 0.03388    | 0.047885   |   1.2 |  6.58
Comm    | 0.15389    | 0.17584    | 0.20479    |   3.0 | 34.13
Output  | 5.274e-05  | 5.4725e-05 | 6.8311e-05 |   0.0 |  0.01
Modify  | 0.051049   | 0.062273   | 0.075362   |   3.7 | 12.09
Other   |            | 0.004448   |            |       |  0.86

Nlocal:        83.3333 ave          93 max          76 min
Histogram: 3 4 8 1 15 10 2 2 2 1
Nghost:        1727.65 ave        1745 max        1710 min
Histogram: 2 2 7 2 9 10 9 0 3 4
Neighs:        10344.1 ave       11792 max        8917 min
Histogram: 2 2 1 11 7 13 5 4 2 1

Total # of neighbors = 496519
Ave neighs/atom = 124.12975
Neighbor list builds = 141
Dangerous builds = 11

#############################
# L I N E A R  Q U E N C H  #
#############################

# Define solid atoms. This closely follows ten Wolde  Ruiz-Montero and Frenkel  Faraday Discuss  1996  104  93-110
# Compute components of the per-atom q6 vector
compute q6 all orientorder/atom degrees 1 6 components 6 nnn NULL cutoff 1.3 # compute the Q6 parameter.
                                                                             # Use all neighbours within 1.3 unit cell.

# get number of connections
compute coord_number all coord/atom orientorder q6 0.5

# An atom is solid if it has 8 or more connections (of a possible 14)
variable is_solid atom c_coord_number>=8
group solid dynamic all var is_solid    # Must be dynamic to update
dynamic group solid defined

# do clustering
compute cluster solid cluster/atom 1.3 # Create a cluster where all atoms within are solid and max 1.3 units from another member

# define chunks one chunk per cluster
compute clus_chunks solid chunk/atom c_cluster nchunk every compress yes  # Says which atoms are in which chunk

# count the size of each chunk
compute size_chunks solid property/chunk clus_chunks count


# Find the maximum entry in the vector of chunk sizes
variable max_n equal max(c_size_chunks)


# Thermo style which includes this variable
# thermo_style custom step temp pe vol v_max_n

thermo ${N}  # Print the thermo information every 100 steps
thermo 1000  

# Reset the npt fix at a lower temperature (below freezing)
fix 1  all npt temp  ${temp} ${temp}  0.1  iso  5.68  5.68  0.5  mtk yes tchain  5  pchain  5
fix 1  all npt temp  0.45 ${temp}  0.1  iso  5.68  5.68  0.5  mtk yes tchain  5  pchain  5
fix 1  all npt temp  0.45 0.45  0.1  iso  5.68  5.68  0.5  mtk yes tchain  5  pchain  5

dump dmp2 all dcd ${N} traj.dcd
dump dmp2 all dcd 1000 traj.dcd


compute msd all msd com yes
variable twopoint equal c_msd[4]/6/(step*dt+1.0e-6)
fix 9 all vector 10 c_msd[4]
variable fit equal slope(f_9)/6/(10*dt)
thermo_style custom step temp pe c_msd[4] v_twopoint v_fit v_max_n

fix 1 all npt temp 1.25 ${temp} 0.1 iso 5.68 5.68 0.5 mtk yes tchain 5 pchain 5
fix 1 all npt temp 1.25 0.45 0.1 iso 5.68 5.68 0.5 mtk yes tchain 5 pchain 5
run 2000000 # 5000000  # Run for this many steps
Neighbor list info ...
  update every 1 steps, delay 10 steps, check yes
  max neighbors/atom: 2000, page size: 100000
  master list distance cutoff = 3.8
  ghost atom cutoff = 3.8
  binsize = 1.9, bins = 9 9 9
  4 neighbor lists, perpetual/occasional/extra = 1 3 0
  (1) pair lj/cut, perpetual
      attributes: half, newton on
      pair build: half/bin/atomonly/newton
      stencil: half/bin/3d
      bin: standard
  (2) compute orientorder/atom, occasional
      attributes: full, newton on
      pair build: full/bin/atomonly
      stencil: full/bin/3d
      bin: standard
  (3) compute coord/atom, occasional
      attributes: full, newton on
      pair build: full/bin/atomonly
      stencil: full/bin/3d
      bin: standard
  (4) compute cluster/atom, occasional
      attributes: full, newton on
      pair build: full/bin/atomonly
      stencil: full/bin/3d
      bin: standard
Per MPI rank memory allocation (min/avg/max) = 9.769 | 9.776 | 9.782 Mbytes
Step Temp PotEng c_msd[4] v_twopoint v_fit v_max_n 
   12000    1.2547345   -6.5427722 8.0536782e-30 5.5928318e-32 8.3333333e+20            2 
   13000    1.2376371   -6.4640019   0.53832239 0.0034507844  0.044297657            2 
   14000    1.2237127   -6.4637799    1.0467669 0.0062307554  0.043323993            2 
   15000    1.2457565   -6.5004586    1.5841837 0.0088010205  0.043877792            1 
   16000    1.2401225   -6.4929967    2.1122614  0.011001361  0.043665061            2 
   17000    1.2453479   -6.4701859    2.6562835  0.013020997  0.044306813            1 
   18000    1.2488563   -6.5234545     3.179574   0.01472025  0.044221426            2 
   19000     1.249378   -6.4829655     3.721272  0.016321368  0.044308378            3 
   20000    1.2719046   -6.4947313    4.2013111  0.017505463  0.044236149            2 
   21000    1.2520631   -6.5052838    4.7176906  0.018720994  0.043853691            1 
   22000    1.2425164   -6.5253571    5.2375957  0.019839377  0.043706877            3 
   23000    1.2416039    -6.501013    5.8113839  0.021055738  0.043647905            4 
   24000    1.2175179   -6.5087036    6.3171193  0.021934442  0.043745334            1 
   25000    1.2691062    -6.477511    6.7799401    0.0225998  0.043580259            1 
   26000    1.2427359   -6.5180267    7.2479181  0.023230506  0.043362298            3 
   27000    1.2436775   -6.4943846    7.7161801   0.02381537  0.043151181            1 
   28000    1.2548774   -6.5111546    8.1839387   0.02435696  0.042913529            1 
   29000     1.249727    -6.480913    8.6278834  0.024792768  0.042648805            2 
   30000    1.2416545    -6.512341    9.1078626  0.025299618   0.04241197            3 
   31000    1.2081703   -6.5220045    9.5916569  0.025784024  0.042167183            2 
   32000    1.2231597    -6.499273     10.04852  0.026168021  0.041980358            1 
   33000    1.2461322   -6.4973177      10.7277   0.02709015   0.04191538            2 
   34000    1.2330407   -6.4924594    11.176408  0.027393157  0.041896235            3 
   35000    1.2474017   -6.5242631    11.574215  0.027557655  0.041836183            2 
   36000    1.2348749   -6.4931914    12.098563  0.028005932  0.041781479            2 
   37000    1.2757486   -6.5296267    12.661292  0.028516424  0.041732056            2 
   38000    1.2170097   -6.4529363    13.129198    0.0287921  0.041698527            2 
   39000    1.2596898   -6.5458945    13.580373  0.029017892  0.041649161            2 
   40000    1.2506106   -6.5149735    14.228534  0.029642778   0.04164364            1 
   41000    1.2601036   -6.4969186    14.792252  0.030065553  0.041703586            2 
   42000     1.230536   -6.4992654    15.336153  0.030428875  0.041788236            2 
   43000    1.2374899   -6.5455635    15.902724  0.030819232   0.04186612            1 
   44000    1.2592437   -6.5637675    16.352681  0.030970986  0.041950541            2 
   45000    1.2413667   -6.4842571    16.933875  0.031359028   0.04203174            2 
   46000    1.2158899   -6.5196627     17.42351  0.031564329  0.042109488            2 
   47000    1.2291617   -6.5126039    17.895351  0.031729345  0.042188125            1 
   48000    1.2351358   -6.5116559    18.435787  0.032006575  0.042249461            1 
   49000     1.232108   -6.5162244    19.071633   0.03243475   0.04231301            3 
   50000    1.2674665   -6.4979448    19.532235  0.032553725   0.04237278            1 
   51000    1.2230609   -6.5344799    19.868921  0.032465557  0.042395421            2 
   52000     1.214062   -6.5619499    20.432396  0.032744224  0.042391968            1 
   53000    1.2426592   -6.4771333    20.798419  0.032701917  0.042356845            2 
   54000    1.2406312   -6.5289569    21.266893  0.032819279  0.042316787            1 
   55000    1.2656894   -6.5190359    21.791294  0.033017112  0.042285775            2 
   56000    1.2340857   -6.5133215    22.348447  0.033256617  0.042270737            3 
   57000    1.2296278   -6.4917503    22.830859  0.033378448  0.042243639            6 
   58000    1.2316147   -6.5489284    23.345217  0.033541978  0.042232179            1 
   59000     1.209702   -6.5780035     23.86037  0.033701088  0.042225265            3 
   60000    1.2155682   -6.5244792    24.446443  0.033953393  0.042228667            1 
   61000    1.2391289   -6.5273871    24.966968   0.03410788  0.042243403            2 
   62000    1.2546406   -6.5443928    25.326283  0.034040702  0.042243593            2 
   63000    1.2674055    -6.577895    25.723633   0.03402597  0.042220679            1 
   64000    1.2177942   -6.5516277    26.255138  0.034186377  0.042183543            2 
   65000    1.2413086   -6.5650126    26.707589  0.034240499  0.042151093            2 
   66000    1.2215021   -6.5413202    27.066665  0.034175082  0.042101865            2 
   67000    1.2504666   -6.5176854    27.751671  0.034517003  0.042064833            2 
   68000    1.2455847   -6.5551402    28.045418  0.034369384  0.042033096            1 
   69000    1.2211232   -6.4848408    28.472288  0.034386821  0.041972453            1 
   70000    1.2493059   -6.5219513    28.872256  0.034371733  0.041915871            5 
   71000    1.2376312   -6.5338771    29.380893  0.034484616   0.04185236            1 
   72000    1.2052466   -6.5209795    30.019695  0.034745017  0.041805474            1 
   73000     1.224767   -6.5037776    30.638974  0.034975997  0.041777372            2 
   74000    1.2393443   -6.4882674    31.123383  0.035048855  0.041758244            2 
   75000    1.2021139   -6.5339774     31.48315  0.034981277   0.04172755            2 
   76000    1.2350899   -6.5282712     31.95902  0.035042784  0.041694136            1 
   77000    1.2407302   -6.5379341    32.489418  0.035161708  0.041661532            1 
   78000    1.2352162   -6.5702201    32.757548   0.03499738   0.04162347            2 
   79000    1.2648502   -6.5386437    33.470738  0.035306685  0.041582823            2 
   80000    1.2470751   -6.5068814    33.915742  0.035328898  0.041553377            3 
   81000    1.2130444   -6.5833399    34.304341  0.035292532  0.041514435            1 
   82000    1.2514927   -6.5196859    34.980177   0.03554896  0.041484549            1 
   83000    1.2484715   -6.5230662    35.282392  0.035424088  0.041461943            3 
   84000     1.208934   -6.5631275    35.821829  0.035537529  0.041440937            1 
   85000     1.216913   -6.5281663    36.347047   0.03563436  0.041421811            1 
   86000    1.2192409    -6.558315    36.826729  0.035684815  0.041401476            2 
   87000    1.2042736   -6.5746937    37.298812  0.035726831  0.041383047            2 
   88000     1.210226   -6.5659927    37.695821    0.0356968  0.041355478            1 
   89000    1.2152713   -6.5904051    38.214507  0.035781373  0.041336211            2 
   90000    1.2388978   -6.5834654    39.022189  0.036131656  0.041325855            1 
   91000    1.2000142   -6.5621268    39.470642  0.036145276  0.041326827            1 
   92000    1.2223949   -6.5169375    40.074787  0.036299626     0.041336            2 
   93000    1.2360225   -6.5506972    40.441082  0.036237529  0.041329715            2 
   94000    1.2329253   -6.5978516    40.599525  0.035992487  0.041318114            3 
   95000    1.2076717   -6.5843934    41.065455  0.036022329  0.041299183            2 
   96000    1.1912713     -6.57107    41.650946  0.036155335  0.041279824            1 
   97000    1.2294048    -6.561288     41.89846  0.035995241  0.041253763            1 
   98000    1.2231193   -6.5290123    42.735503  0.036339713  0.041236492            2 
   99000    1.2009102   -6.5332539     42.99672  0.036192525  0.041215972            2 
  100000    1.2354612   -6.5733958    43.455258  0.036212715  0.041187674            1 
  101000    1.2100602   -6.5649155     43.78939   0.03612986  0.041160501            1 
  102000    1.2184221   -6.5792269    43.963622  0.035917992  0.041126279            2 
  103000    1.2131801   -6.5249465    44.536116  0.036032456  0.041085311            1 
  104000    1.2084018   -6.5639739    44.994904  0.036053609  0.041037603            2 
  105000    1.2399299   -6.5332368    45.575482  0.036171017  0.040990355            1 
  106000    1.1926638   -6.5637015    46.014473    0.0361749  0.040957518            2 
  107000    1.2055126   -6.6087049    46.324531  0.036078295  0.040916405            1 
  108000    1.2061798   -6.5344912    47.098634  0.036341539  0.040876896            1 
  109000    1.2311028   -6.5746597    47.486358  0.036304555  0.040842132            5 
  110000    1.2125278   -6.6132031    47.901598  0.036289089  0.040811241            3 
  111000    1.2106494   -6.6052907     48.32609  0.036280848  0.040780303            2 
  112000    1.1974015   -6.5520839    48.921858  0.036400192  0.040747808            1 
  113000    1.2017384   -6.5568341    49.346256  0.036391044  0.040721052            3 
  114000    1.1958094   -6.5900848     49.88933  0.036468808  0.040693448            2 
  115000     1.173852   -6.5445406    50.193345  0.036371989  0.040669588            2 
  116000    1.2006334   -6.6022252    50.554702  0.036318033  0.040637836            2 
  117000    1.2047683   -6.5645324    51.082021  0.036383206  0.040607514            2 
  118000    1.2011658    -6.580571    51.438118  0.036326354  0.040582202            1 
  119000    1.2414553   -6.5379508    52.062126  0.036458071  0.040555361            1 
  120000    1.2060478   -6.5880305    52.789248    0.0366592  0.040531759            1 
  121000    1.2132279   -6.5297853     53.25214  0.036675027   0.04051216            2 
  122000    1.1930758   -6.5873892    53.728165  0.036699566  0.040495087            1 
  123000    1.2179479   -6.5699215     54.47526  0.036907358  0.040487231            1 
  124000     1.212986   -6.5593969    54.942216  0.036923532  0.040479344            2 
  125000    1.2237251   -6.5849639    55.073601  0.036715734  0.040467165            2 
  126000    1.1910765   -6.5823791    55.540759  0.036733306  0.040448315            4 
  127000    1.1857654   -6.5848172    55.821835    0.0366285  0.040429486            1 
  128000    1.2157969   -6.6115765    56.034506  0.036480798  0.040405938            2 
  129000    1.2061311   -6.5630528    56.617473  0.036574595  0.040375297            3 
  130000     1.181803   -6.5912085    56.893374  0.036470111   0.04034367            2 
  131000    1.2031432   -6.5615792    57.602213  0.036642629  0.040313319            3 
  132000    1.2100035   -6.5813749    57.974179   0.03659986  0.040283069            2 
  133000    1.2362056   -6.5751241    58.426564  0.036608123  0.040255174            3 
  134000    1.1908408   -6.5483887    58.991967  0.036686546  0.040227838            2 
  135000    1.1936208   -6.5969106    59.094547  0.036478116  0.040197649            2 
  136000    1.1972078   -6.5678987    59.555095  0.036492092  0.040165111            3 
  137000    1.2001229   -6.5671938     60.11153  0.036564191  0.040136313            3 
  138000    1.1740111   -6.5553837     60.63597  0.036615924  0.040109562            2 
  139000    1.2136958   -6.5646809    61.052573  0.036602262  0.040080947            2 
  140000    1.1874878   -6.5915187     61.31899  0.036499399  0.040049912            2 
  141000    1.2292191   -6.5987167    61.894948  0.036580938  0.040018197            2 
  142000    1.1825452   -6.5520993    62.452256  0.036650385  0.039990111            1 
  143000     1.239242   -6.5838809    62.737603  0.036560375   0.03996222            1 
  144000    1.2047817    -6.596117    62.924151  0.036414439  0.039927097            2 
  145000    1.1819325   -6.6154371    63.415035  0.036445422  0.039896365            3 
  146000    1.1715807   -6.5858476    63.961458  0.036507681  0.039864534            2 
  147000    1.1969351    -6.590877    64.330505   0.03646854  0.039830758            3 
  148000    1.1809751   -6.5913388    64.703178   0.03643197   0.03979899            3 
  149000    1.1922869   -6.6127239    65.464993   0.03661353  0.039771075            1 
  150000    1.1936171   -6.5925072    65.719902  0.036511056  0.039742486            1 
  151000    1.1913856   -6.6196225    66.112145  0.036485731  0.039714152            4 
  152000    1.2097048   -6.6063698    66.832924  0.036640857  0.039691428            1 
  153000    1.2058045   -6.5686967    67.148882  0.036573465  0.039665244            2 
  154000    1.1751032   -6.5707182     67.31879  0.036427916  0.039637473            2 
  155000    1.1963324   -6.6195674    67.815354  0.036459868    0.0396092            4 
  156000    1.1780388   -6.6095244    68.526703  0.036606145  0.039582657            3 
  157000    1.1740952   -6.6459312    68.688455   0.03645884  0.039557559            5 
  158000    1.2057061   -6.5783897     69.45756  0.036633734  0.039530911            1 
  159000    1.2022282   -6.5991317    69.753257  0.036558311  0.039507857            1 
  160000    1.1884634   -6.5870459    69.961374  0.036438215  0.039484434            3 
  161000      1.17526   -6.5821596    70.905302  0.036700467  0.039460788            1 
  162000    1.2190227   -6.5938345    70.996123   0.03652064  0.039440892            1 
  163000    1.1740621   -6.6251046    71.671518   0.03664188  0.039421076            3 
  164000    1.1947169   -6.6020446    72.317585   0.03674674  0.039405496            2 
  165000    1.1916881   -6.5892075    73.114198  0.036926362  0.039393146            2 
  166000    1.2024514   -6.6144489    73.623498  0.036959587  0.039382448            3 
  167000     1.185641   -6.6154393    73.834673  0.036843649  0.039374205            1 
  168000     1.171174   -6.5884938    74.399648  0.036904587  0.039363893            1 
  169000    1.1940082   -6.6260951    74.761005  0.036864401  0.039353255            3 
  170000    1.1909437   -6.6311642    75.203541  0.036864481  0.039342676            1 
  171000     1.208157   -6.6098975    75.515465  0.036800909  0.039327449            2 
  172000    1.2089522   -6.6529391     75.43908  0.036549942  0.039308391            2 
  173000    1.2053527   -6.6046909    76.619169  0.036907114  0.039292764            2 
  174000    1.1611388    -6.617516    76.723498   0.03674497  0.039278996            5 
  175000    1.2050615   -6.6119115    77.436643  0.036874592  0.039263708            3 
  176000    1.1671052    -6.613351     77.96337  0.036914474   0.03924687            2 
  177000    1.1904797   -6.6155428    77.980632  0.036714045  0.039228812            2 
  178000    1.1982542   -6.6499577    78.379926  0.036694722  0.039211449            1 
  179000    1.1580598   -6.6069817    78.829621  0.036699079  0.039194957            2 
  180000    1.1913914   -6.6207978    79.722471  0.036908551  0.039178541            3 
  181000    1.1786037   -6.6249777    80.003909  0.036834212  0.039162945            2 
  182000    1.1939437   -6.6331392    80.444486  0.036833556  0.039150267            2 
  183000    1.1864865    -6.611057     80.79256  0.036790783  0.039136413            2 
  184000    1.1994724   -6.6237552      81.2853  0.036813995  0.039119598            4 
  185000    1.1697071   -6.6589759    81.555776  0.036736836  0.039102087            1 
  186000    1.1802702    -6.628571    82.146921  0.036804176  0.039083423            2 
  187000    1.1498347   -6.6170897    82.311877  0.036680872  0.039063878            3 
  188000    1.2148025   -6.6336316    82.570637  0.036600459  0.039043513            5 
  189000    1.1550201   -6.6248435    82.965044  0.036580707  0.039020539            2 
  190000    1.1809706    -6.590916      83.5811  0.036658377   0.03899813            2 
  191000    1.1835877   -6.6388818    83.976794   0.03663909  0.038977409            1 
  192000     1.188986   -6.6591751    84.331513  0.036602219  0.038960151            2 
  193000    1.1906739   -6.6291491    84.921808  0.036667447  0.038941931            3 
  194000    1.1747323   -6.6234806    85.379833  0.036675186  0.038923585            3 
  195000    1.1426064   -6.6125501      85.8297  0.036679359  0.038907392            1 
  196000    1.1798707   -6.6315749     86.26688  0.036678095  0.038891283            3 
  197000    1.1772601   -6.6156474    86.703215  0.036676487  0.038875922            3 
  198000    1.1575849   -6.6437105    86.867088  0.036560222   0.03886006            4 
  199000    1.1493018   -6.6666319    87.612736  0.036688751  0.038843306            2 
  200000    1.1724036    -6.632724    87.842108  0.036600878  0.038827133            1 
  201000    1.1721469   -6.6214929    88.414249   0.03665599  0.038809196            2 
  202000    1.1687027   -6.6173703    88.554819  0.036532516  0.038788727            2 
  203000    1.1511937   -6.6328065    89.044498  0.036553571  0.038769054            2 
  204000    1.1930082   -6.6342123    89.518932  0.036568191  0.038750588            2 
  205000    1.1914947   -6.6452021    90.281331  0.036699728  0.038733133            3 
  206000    1.1611787   -6.6042331     90.88493  0.036765748  0.038717474            2 
  207000     1.178506   -6.6603783    91.036807  0.036649278  0.038702664            2 
  208000    1.1658314   -6.6385614    91.597438  0.036697691   0.03868807            2 
  209000    1.1410404   -6.6438194    91.712337  0.036567918  0.038671377            2 
  210000    1.1910214   -6.6434958    91.905862   0.03647058  0.038654219            5 
  211000    1.1792035   -6.6014146     92.74555  0.036629364  0.038636381            2 
  212000    1.1752337   -6.6857641    92.693205  0.036436008  0.038618731            3 
  213000    1.1553252   -6.6142323     93.89298  0.036734343  0.038604221            1 
  214000     1.188598   -6.6603659    94.245759  0.036700062  0.038590267            4 
  215000    1.1467334   -6.6648929    94.632722   0.03667935  0.038576168            2 
  216000    1.1870935   -6.6217337    95.296628  0.036765674  0.038561391            2 
  217000    1.1607921   -6.6425192    95.928834   0.03683903   0.03854711            3 
  218000    1.1788691   -6.6478664    96.252068  0.036793604  0.038534139            1 
  219000    1.1906575    -6.622799    96.795469   0.03683237  0.038523554            2 
  220000    1.1765844   -6.6751003    97.097445  0.036779335  0.038513057            2 
  221000    1.1783962   -6.6577109    97.211155   0.03665579  0.038502605            2 
  222000    1.1733135   -6.6014004    97.841246  0.036727194  0.038490698            3 
  223000      1.15457    -6.647929    98.131183  0.036670846  0.038476237            3 
  224000    1.1783969   -6.6342892    99.033646  0.036842874  0.038465771            1 
  225000    1.1768324   -6.6760397    99.694095  0.036923739   0.03845913            1 
  226000    1.1696572   -6.6746655    99.921579   0.03684424  0.038452045            1 
  227000    1.1706911   -6.6091882    100.60519  0.036932889  0.038446128            1 
  228000    1.1566401   -6.6310304    101.05412  0.036934986  0.038440812            2 
  229000    1.1948348   -6.6404862    101.53019  0.036946938  0.038434884            1 
  230000    1.1514616   -6.6185191    102.11985  0.036999945  0.038428664            3 
  231000     1.154967   -6.6782875    101.88929  0.036756599   0.03842147            2 
  232000     1.198112   -6.6624916    102.90652  0.036963549  0.038414804            1 
  233000    1.1815121   -6.6519096    103.20375  0.036911212  0.038407154            2 
  234000    1.1741714   -6.6677698    103.35051  0.036805738  0.038398949            3 
  235000    1.1635147   -6.6531211    103.84011  0.036822733  0.038390034            2 
  236000    1.1608501   -6.6457568    103.69356  0.036614959  0.038379864            1 
  237000    1.1685864   -6.6385845    104.07691  0.036595257  0.038367843            2 
  238000    1.1678348   -6.6263167    105.23304  0.036846302  0.038356372            8 
  239000    1.1480644   -6.6707507    105.26513  0.036703324  0.038346509            2 
  240000    1.1648679   -6.6608211    105.75096  0.036719083  0.038336701            2 
  241000    1.1495001   -6.6215309    106.19065   0.03671876  0.038326032            2 
  242000    1.1554827   -6.6544074    106.52753  0.036683035  0.038313718            3 
  243000    1.1488685   -6.6290149    106.58394  0.036551421  0.038298934            3 
  244000      1.14687   -6.6682634     106.9715  0.036533981  0.038281941            1 
  245000     1.162649   -6.6674736    107.29411  0.036494594  0.038266296            4 
  246000     1.153656    -6.672693    107.82949  0.036527606  0.038250388            2 
  247000    1.1630015   -6.6894024    108.35706  0.036557712  0.038234559            2 
  248000    1.1580996   -6.6993928    108.73278  0.036536553  0.038219229            2 
  249000    1.1454648   -6.6379461    109.02316     0.036487  0.038202041            1 
  250000    1.1752799   -6.6453131    109.46002  0.036486673  0.038185684            6 
  251000    1.1609485   -6.7093502    109.42912  0.036331049  0.038170154            3 
  252000    1.1369325   -6.6757273    110.76049  0.036627148  0.038155201            1 
  253000    1.1520878   -6.6845129    110.83956   0.03650842  0.038141454            1 
  254000    1.1507958   -6.6690406    111.27248  0.036506719  0.038127189            4 
  255000    1.1613178   -6.7023313    111.39592  0.036403895  0.038113184            1 
  256000     1.167549   -6.6368972    112.09803  0.036490245  0.038097716            2 
  257000     1.152466   -6.6525739    112.40488  0.036447756  0.038081087            3 
  258000    1.1486989   -6.6582541    112.77647  0.036426507  0.038065357            2 
  259000    1.1290115    -6.664837    112.87448  0.036317401  0.038048467            2 
  260000    1.1658255    -6.659148    113.50491   0.03637978  0.038032142            2 
  261000     1.139537    -6.675049    113.99774  0.036397745  0.038017055            2 
  262000     1.148789   -6.6531094    114.46556  0.036407619  0.038001632            1 
  263000    1.1662829   -6.6573247    115.00808  0.036441091   0.03798604            2 
  264000    1.1387096   -6.6804782     115.2684  0.036385228  0.037969257            5 
  265000     1.156903   -6.6575139    115.08034  0.036188787  0.037951185            1 
  266000    1.1508857   -6.6534697    115.68497  0.036242158  0.037932643            1 
  267000    1.1763443   -6.6806595    115.71988  0.036117316  0.037911993            3 
  268000    1.1320135   -6.6969539    115.86175  0.036026662  0.037891217            2 
  269000     1.126707   -6.6775144    116.47083  0.036081421  0.037868825            2 
  270000    1.1621757   -6.6927095    116.06288  0.035821877  0.037845651            4 
  271000    1.1537244   -6.6879168    116.89408   0.03594529  0.037821741            3 
  272000    1.1470164   -6.6764441     117.0506  0.035861091  0.037798578            2 
  273000    1.1367771   -6.7170387    117.44647  0.035850571  0.037773015            2 
  274000    1.1428003   -6.6698756    117.84326  0.035840406  0.037748223            2 
  275000     1.149575   -6.7105342    118.06151  0.035776214  0.037722685            2 
  276000     1.135687   -6.6957054    118.36915  0.035739478  0.037696657            1 
  277000     1.133365   -6.6341071     119.1201  0.035836372  0.037670991            3 
  278000    1.1462841   -6.6916635    119.04079   0.03568369   0.03764584            3 
  279000    1.1254992   -6.6802425    119.49812  0.035692389  0.037620965            1 
  280000    1.1126768   -6.6923728    120.25551  0.035790329  0.037596743            3 
  281000    1.1223121   -6.7085637    120.41338  0.035709781  0.037573134            2 
  282000    1.1487496   -6.7028754    120.76665  0.035687544  0.037548196            4 
  283000    1.1137666   -6.7310215    121.29877   0.03571813   0.03752384            2 
  284000    1.1269892   -6.6867993    121.66504  0.035699836  0.037501187            1 
  285000    1.1316983   -6.7141317    122.18532  0.035726702  0.037480104            2 
  286000    1.1199493   -6.7176257    122.65923  0.035739868  0.037457848            2 
  287000    1.1366524   -6.7089494    122.90944  0.035687991  0.037434966            1 
  288000    1.1189856   -6.6817845    123.59183  0.035761526  0.037412658            3 
  289000    1.1436625   -6.7197733    124.43275  0.035880263  0.037391802            2 
  290000    1.1439756   -6.6839163     124.3738  0.035739599   0.03737198            2 
  291000    1.1456633   -6.6880649    124.69881  0.035709854  0.037350782            2 
  292000    1.1410657   -6.6658789    125.19453  0.035729032  0.037328665            3 
  293000    1.1575234   -6.6851545    125.50672  0.035695881  0.037306779            1 
  294000    1.1321109   -6.6913561    125.48862  0.035569338  0.037284107            2 
  295000    1.1470673   -6.7127301    126.40554   0.03570778  0.037262246            1 
  296000    1.1445507    -6.724661    126.57735  0.035635514  0.037241189            3 
  297000    1.1704928   -6.7077488    127.21989  0.035695817  0.037220858            2 
  298000    1.1516204   -6.6952235    127.93139  0.035774998  0.037200559            2 
  299000    1.1356509   -6.7046545     127.8422  0.035630491  0.037180908            2 
  300000    1.1379486   -6.7300257    128.26461  0.035629057  0.037160819            2 
  301000    1.1330762   -6.6988964    128.84413  0.035671133  0.037140132            3 
  302000     1.137016   -6.6948571    128.92665  0.035575787   0.03711937            1 
  303000    1.1245777   -6.6985901    129.22326   0.03553995  0.037096989            2 
  304000    1.1583839   -6.7159739    129.42678  0.035478832  0.037075046            3 
  305000    1.1504507     -6.68253    129.34529  0.035340244  0.037052449            3 
  306000    1.1751923    -6.689441    130.13905  0.035440917  0.037029267            3 
  307000    1.1233603    -6.691646    130.36718    0.0353874  0.037005058            1 
  308000    1.1334408     -6.71206    130.39382  0.035279712  0.036980393            2 
  309000    1.1181546   -6.7185554    130.42903  0.035175035  0.036954117            2 
  310000    1.1364545   -6.6873808    131.24483  0.035280868  0.036928775            4 
  311000    1.1305074   -6.7173306    131.28099  0.035177113  0.036904179            3 
  312000    1.1408305   -6.7620761    131.54437  0.035134714  0.036879191            4 
  313000    1.1173965   -6.6988291     132.7711  0.035349068  0.036854116            2 
  314000    1.1157301   -6.7357448    132.79621  0.035243157  0.036830983            2 
  315000    1.1552366    -6.692656    133.50052  0.035317597  0.036808486            4 
  316000    1.1257168   -6.7071698    133.97259  0.035330323  0.036787132            5 
  317000    1.0671033   -6.7166012    134.22971  0.035286464  0.036766274            3 
  318000     1.124559   -6.7135393    134.66617  0.035289876  0.036744222            2 
  319000     1.111503   -6.7184106    135.06023  0.035282192  0.036723086            3 
  320000    1.1353567   -6.7470359    135.48975  0.035283789   0.03670142            2 
  321000    1.1217599   -6.7480074    135.25538  0.035113027  0.036679518            2 
  322000     1.111058   -6.7358824    135.64036  0.035103614  0.036656186            2 
  323000    1.1425896   -6.7186353    135.96971  0.035079905  0.036632842            2 
  324000    1.1452865   -6.7555956    136.43787  0.035092046  0.036610065            2 
  325000    1.1201099   -6.7144963    136.97591  0.035122028  0.036587653            2 
  326000    1.1180637   -6.7057868    137.26129  0.035087241  0.036565576            3 
  327000    1.1102331   -6.7503848    137.23068  0.034972141  0.036543305            2 
  328000    1.1278372   -6.7496345    138.10916   0.03508871  0.036520379            2 
  329000    1.1229004   -6.7495066    138.29709  0.035029659  0.036496873            2 
  330000    1.1211096    -6.696187    139.07236  0.035119284  0.036475223            2 
  331000    1.1164571   -6.7425521    139.36725  0.035087424  0.036454021            2 
  332000     1.115316   -6.7616587    139.66809  0.035057252  0.036432379            3 
  333000     1.130332   -6.7320792    140.46703  0.035151909  0.036412753            3 
  334000    1.1207327   -6.7535128    140.86082  0.035144916  0.036393936            2 
  335000    1.1139285   -6.7617257    140.93041  0.035057316  0.036375055            2 
  336000    1.1166964   -6.7568436    141.04866  0.034982307  0.036355537            4 
  337000     1.128422   -6.7350057    141.32282  0.034946296  0.036334623            3 
  338000    1.1228709     -6.73853    141.61616  0.034915226  0.036313502            2 
  339000    1.0952016   -6.7576839    141.94322   0.03489263  0.036291487            3 
  340000    1.1240337   -6.7690695    141.91784  0.034783785  0.036268809            4 
  341000     1.150111   -6.7493662    142.74945  0.034885007  0.036246671            3 
  342000    1.1187537   -6.7493991    143.27744  0.034911657  0.036223917            2 
  343000    1.1389461   -6.7296895    143.19984   0.03479102  0.036201073            3 
  344000    1.1055948   -6.7533409     143.5892  0.034784204  0.036178348            2 
  345000    1.0974987   -6.7457172    143.79485  0.034733055  0.036155789            3 
  346000    1.0842569   -6.7480343    144.25822  0.034744272  0.036132537            2 
  347000    1.1160676   -6.7213156    144.48136  0.034697732  0.036109955            1 
  348000    1.1106608   -6.7682402    144.52947  0.034609548  0.036085908            1 
  349000    1.1026978   -6.7356638    145.47616  0.034736428  0.036062468            2 
  350000    1.1198539   -6.7443274    145.53351  0.034650836  0.036039556            3 
  351000     1.101212   -6.7570418    145.98158  0.034658495  0.036017131            2 
  352000    1.1074542   -6.7757848    146.32224  0.034640681  0.035994503            1 
  353000    1.0996496   -6.7506686    146.85064  0.034667291  0.035971632            3 
  354000    1.0842834   -6.7293234    147.29651   0.03467432   0.03594891            2 
  355000    1.0997011   -6.7366373    147.13807  0.034539452  0.035925954            3 
  356000    1.1042262    -6.795223     147.4951  0.034526007  0.035902347            1 
  357000     1.122751    -6.747769    147.40398  0.034408026  0.035878405            1 
  358000    1.1075382   -6.7683486    148.22375  0.034502735  0.035854513            1 
  359000    1.1137427   -6.7579761    148.11745  0.034381952  0.035831396            1 
  360000    1.1149829   -6.7428839    148.71969  0.034425855  0.035807649            2 
  361000    1.1080289   -6.7352129    149.29448  0.034463177  0.035783764            2 
  362000    1.1128663   -6.7479098    149.34906  0.034380538  0.035759548            3 
  363000    1.0971427   -6.7641236    149.20137  0.034251921  0.035735717            2 
  364000    1.1131272    -6.758917    149.97744  0.034335494  0.035711511            2 
  365000     1.129777    -6.778943    150.23377  0.034299948  0.035687459            3 
  366000    1.1095667   -6.7794213     150.6425  0.034299293  0.035663711            2 
  367000    1.1107863    -6.770556    150.93495   0.03427224  0.035640149            8 
  368000    1.1023911   -6.7440596    151.63563  0.034337779  0.035617286            1 
  369000    1.1210812   -6.7746073    151.96543  0.034319202  0.035594151            2 
  370000    1.1134987   -6.7912943    152.71159  0.034394502    0.0355713            1 
  371000    1.1182238   -6.7473479    153.36633  0.034448862  0.035548875            2 
  372000     1.102229   -6.8085663    153.10422   0.03429754  0.035525895            4 
  373000    1.0812551   -6.7718408    153.02143  0.034187093  0.035502323            2 
  374000    1.1055458   -6.7380696    153.80156  0.034269509  0.035478979            1 
  375000    1.1059109   -6.7693877    154.08574  0.034241275  0.035457022            2 
  376000    1.1119981   -6.7534229    154.64991  0.034275246  0.035435823            1 
  377000    1.0727708   -6.7908379     155.1561  0.034296219   0.03541474            1 
  378000    1.1020515   -6.8043178    154.79053  0.034124896  0.035393982            5 
  379000    1.1096178     -6.73224    155.80748  0.034258461  0.035373496            4 
  380000    1.0944723   -6.7606651    156.15988  0.034245587  0.035353535            2 
  381000    1.0952233   -6.7867834    156.81779  0.034299603  0.035333999            2 
  382000    1.1059617   -6.7679578     157.0091  0.034251548  0.035314243            2 
  383000    1.1115609   -6.7977007    157.03185  0.034167068  0.035294075            5 
  384000    1.1038294   -6.7332003    157.17429  0.034109004  0.035273509            2 
  385000    1.0797503   -6.7618195    158.22105  0.034246981  0.035252337            3 
  386000     1.094732   -6.7741812    157.87436   0.03408341  0.035231168            4 
  387000     1.096761    -6.793124    158.22663  0.034071196  0.035210108            2 
  388000    1.0976661   -6.7493932    158.89364   0.03412664  0.035189531            2 
  389000    1.1160942   -6.7902766     159.1297  0.034089482  0.035169197            4 
  390000    1.1180792    -6.771591    159.96375  0.034180287  0.035148979            2 
  391000    1.0904545    -6.816383    160.09071  0.034119929  0.035129641            4 
  392000    1.0855855    -6.779476    160.72624  0.034167993  0.035110525            2 
  393000    1.0950515   -6.8067469    161.13415  0.034167546  0.035092119            1 
  394000    1.1015298   -6.8103067    160.95049  0.034041981  0.035073227            3 
  395000    1.0964788   -6.7562024     162.0739  0.034192807  0.035055031            1 
  396000    1.0756611   -6.8242747    161.51873  0.033989632  0.035035896            2 
  397000    1.1232524   -6.7708445     162.1461  0.034035705  0.035017048            2 
  398000     1.100996   -6.8026518    163.11991  0.034154085   0.03499837            2 
  399000    1.0921624   -6.7699005    162.58744  0.033957276  0.034980197            2 
  400000    1.1042447   -6.7928971    163.34922  0.034031087  0.034961712            2 
  401000    1.1083475   -6.7967834    164.08444  0.034099012  0.034943898            4 
  402000    1.1039587   -6.7811634    164.13981  0.034025665  0.034925567            4 
  403000    1.0650664   -6.8230135    164.54562   0.03402515  0.034906851            2 
  404000    1.0944086   -6.8207516    164.05905  0.033840564  0.034888355            2 
  405000    1.0766707   -6.7656598    165.81409  0.034118125  0.034869357            2 
  406000    1.0964985   -6.7570376    165.14654  0.033897073  0.034850668            4 
  407000    1.1165575   -6.8141201    165.39605  0.033864875  0.034832172            3 
  408000    1.1097937   -6.7913389    166.10693  0.033927069  0.034813986            2 
  409000    1.1051328   -6.8221089     165.8822  0.033798329  0.034795889            2 
  410000    1.1011291     -6.81777    166.78375  0.033899137  0.034777994            1 
  411000    1.0861855   -6.7845074    167.20287  0.033901636  0.034759577            1 
  412000    1.0738096   -6.7485777    167.60836  0.033901366   0.03474226            3 
  413000    1.0831759   -6.7881362    168.19565  0.033937781  0.034724873            2 
  414000    1.0988113   -6.8091662    168.58309  0.033933794  0.034707823            2 
  415000    1.0727453   -6.8253816    168.54063  0.033843499  0.034690313            2 
  416000    1.0871337   -6.7933792    169.30303  0.033914869  0.034672705            2 
  417000    1.1021016    -6.771989    169.38831  0.033850581  0.034655423            9 
  418000    1.0972358   -6.7990623     169.6851  0.033828769   0.03463803            3 
  419000    1.0788759   -6.8109923    170.15821  0.033842127  0.034620715            3 
  420000    1.0972668   -6.7804948    169.98801  0.033727779  0.034603934            2 
  421000    1.0571451   -6.8155215     170.4637  0.033741825  0.034586845            6 
  422000    1.0838956    -6.788577    171.05281  0.033778201  0.034569248            1 
  423000    1.0948101   -6.7891262    171.09184  0.033706036  0.034550921            2 
  424000    1.0876043   -6.7823378    171.36115  0.033679471  0.034532577            4 
  425000    1.0804395   -6.8136736    171.29578  0.033587408  0.034514214            3 
  426000    1.0800929   -6.8105833    171.97185  0.033640815  0.034495537            2 
  427000    1.0966249   -6.7573582    172.94722  0.033752385  0.034478196            2 
  428000    1.1056859   -6.8273531    172.33085  0.033553514  0.034460756            2 
  429000    1.0956304   -6.8170598    172.92074  0.033589888  0.034442224            1 
  430000    1.0876288   -6.8125959    173.45289    0.0336149  0.034423582            1 
  431000       1.0869   -6.7745353    173.92617  0.033628416   0.03440555            2 
  432000    1.0916893   -6.7970599    175.14095  0.033784905  0.034387781            2 
  433000    1.0800381   -6.8229795    173.84497  0.033457462  0.034369976            2 
  434000    1.0932883   -6.8160185    175.46999  0.033692394  0.034352949            9 
  435000    1.0860653   -6.7900335    175.45449  0.033611971  0.034335972            4 
  436000    1.0868671   -6.8098506    175.95761  0.033631042   0.03431923            2 
  437000    1.0809403   -6.8179517    176.44528  0.033647079  0.034302827            2 
  438000     1.084115   -6.7786374    176.93291  0.033663035  0.034286229            3 
  439000    1.0903915   -6.8165937    176.57307  0.033518047  0.034270253            3 
  440000    1.0870647   -6.7914307    177.35929  0.033590776  0.034254184            1 
  441000    1.0896332   -6.8140435     177.5572  0.033552003  0.034237686            2 
  442000    1.0663808   -6.7912502    177.42258  0.033450713  0.034220461            7 
  443000    1.0689825   -6.8181598    178.03266  0.033489966  0.034203333            4 
  444000    1.0718596   -6.8181733    178.29088  0.033463003  0.034186416            1 
  445000    1.0694378   -6.8280942    178.42164  0.033412292  0.034170381            2 
  446000    1.0895616   -6.7840254    179.37058  0.033514682  0.034153748            2 
  447000    1.0865022   -6.8298348    179.35239  0.033436315  0.034136708            4 
  448000    1.0690923   -6.8386831    179.72912  0.033431757  0.034119518            2 
  449000    1.0931979   -6.8385759    179.83272  0.033376525  0.034102456            4 
  450000    1.0924073   -6.8478742    179.88496  0.033312029  0.034085212            2 
  451000    1.0631268   -6.8429549    180.49859   0.03335155  0.034068604            8 
  452000    1.0782401   -6.8514913    181.18084  0.033403548  0.034051574            2 
  453000    1.0599525   -6.8142099    180.92332  0.033282435   0.03403441            3 
  454000    1.0365373   -6.8440546    181.50023  0.033315021  0.034016577            2 
  455000    1.0759426    -6.855597    181.14297  0.033176368  0.033998743            3 
  456000    1.0566534    -6.805044    182.27175  0.033309896  0.033980815            4 
  457000     1.072878    -6.836739    182.05063  0.033196686  0.033962784            3 
  458000    1.0891438    -6.848634      182.106  0.033134279  0.033944579            2 
  459000    1.0694807   -6.8427801    182.58019  0.033148182  0.033926117            3 
  460000    1.0652699   -6.8444064    182.95945  0.033144829  0.033907704            4 
  461000    1.0495902   -6.8297919    182.98469  0.033077493  0.033889375            1 
  462000     1.077327   -6.8069369    183.83111   0.03315857  0.033871257            2 
  463000    1.0667946    -6.839539    183.61839  0.033048666  0.033852578            2 
  464000    1.0479154   -6.8505564    184.53739  0.033142491  0.033833961            2 
  465000    1.0413975   -6.8175403    184.72032     0.033104  0.033815431            4 
  466000     1.077288   -6.8451607    184.96202  0.033076184  0.033796822            2 
  467000    1.0710021   -6.8464114    184.87128  0.032989165  0.033777886            4 
  468000    1.0750331   -6.8418466     184.9177   0.03292694  0.033758854            3 
  469000    1.0546653   -6.8376153    185.56749  0.032972191   0.03373934            1 
  470000    1.0875256   -6.8674439    184.91713  0.032786726   0.03372041            3 
  471000    1.0837406   -6.8318123    186.22009  0.032947646  0.033701147            4 
  472000    1.0683753   -6.8491409    185.99313  0.032837769  0.033681914            4 
  473000    1.0472562    -6.840318    186.06279  0.032780619  0.033662072            2 
  474000    1.0836838   -6.8282951    186.60725  0.032807182  0.033642697            2 
  475000    1.0806051   -6.8625907    186.61424   0.03273934  0.033623106            2 
  476000    1.0605039   -6.8648542    186.81812  0.032706253  0.033603106            7 
  477000    1.0698733   -6.8220466    187.52055  0.032760403  0.033584296            3 
  478000    1.0503623   -6.8317893    187.93327  0.032763819  0.033565189            2 
  479000    1.0601913   -6.8301114    188.38594  0.032774172  0.033545887            4 
  480000    1.0475851   -6.8563551    188.71144  0.032762402  0.033526593            2 
  481000    1.0666288   -6.8067319    189.35505  0.032805795  0.033508228            2 
  482000    1.0612486   -6.8515914    188.96799  0.032670815  0.033489797            4 
  483000     1.034813   -6.8265843    189.95676  0.032773767  0.033471552            3 
  484000    1.0509093    -6.865518    190.10026  0.032730761  0.033453193            2 
  485000    1.0767509   -6.8565754    189.88906  0.032626986   0.03343454            4 
  486000    1.0591258   -6.8155917    190.60281  0.032682238  0.033415536            3 
  487000    1.0658916   -6.8493144    190.27203  0.032558526  0.033396389            4 
  488000    1.0654839   -6.8658509    189.90153  0.032428541  0.033376378            5 
  489000    1.0583519   -6.8563524    190.56257  0.032474875  0.033355804            2 
  490000    1.0479722   -6.8559006    189.94139  0.032302958  0.033334754            4 
  491000    1.0596959     -6.87174    190.93077  0.032405087  0.033312782            2 
  492000    1.0738594   -6.8729498    191.27461  0.032397461  0.033291251            2 
  493000    1.0467791   -6.8065685    192.40608  0.032523001   0.03327119            3 
  494000    1.0549589   -6.8269227    191.86928  0.032366613  0.033250897            2 
  495000    1.0570835   -6.8888719    192.74511  0.032448672  0.033230422            2 
  496000    1.0550342   -6.8899081     192.5011  0.032342254   0.03320978            2 
  497000     1.069371   -6.8650303    193.43392  0.032433588  0.033189376            4 
  498000    1.0489514   -6.8907628    193.18925  0.032327519  0.033169014            1 
  499000    1.0587273   -6.8539375    192.93049  0.032219521  0.033148315            2 
  500000    1.0295545   -6.8533813    193.68264   0.03228044  0.033127895            2 
  501000    1.0447974   -6.8606095    193.87953  0.032248758  0.033107547            3 
  502000    1.0572076   -6.8649978     193.8564  0.032180677  0.033086855            1 
  503000    1.0411629   -6.8738489     194.2875  0.032188121   0.03306594            3 
  504000     1.031414   -6.8716628    194.90645  0.032226596  0.033045389            2 
  505000    1.0426571   -6.8584337    195.10893  0.032196193  0.033024731            3 
  506000    1.0666089   -6.8889328    194.83773    0.0320879  0.033003389            3 
  507000    1.0535986   -6.8601107    195.53656  0.032139475    0.0329828            2 
  508000     1.073904   -6.8437597    195.57545  0.032082586  0.032962135            5 
  509000    1.0574059   -6.8820733    196.58446  0.032184751  0.032941952            1 
  510000    1.0491246   -6.8433438    197.21464  0.032224614  0.032921613            2 
  511000    1.0302478   -6.9016159    196.46801  0.032039792  0.032901159            1 
  512000    1.0535992   -6.8931503    197.10832  0.032081432  0.032881458            2 
  513000    1.0294962    -6.873019    197.36885  0.032061217  0.032861451            3 
  514000    1.0476845   -6.8829237    197.52352  0.032023916  0.032841745            6 
  515000    1.0602035   -6.8644249    198.06571  0.032049468  0.032821831            4 
  516000    1.0250039   -6.9145812      198.158   0.03200226  0.032802168            2 
  517000    1.0431563   -6.8744898    199.27259  0.032120018  0.032782573            2 
  518000      1.04341   -6.8800893    198.87999  0.031994851  0.032762738            3 
  519000    1.0451852   -6.8532388    199.85019  0.032088983  0.032743239            3 
  520000    1.0493992    -6.858149    199.64408  0.031994243  0.032723963            3 
  521000    1.0529688   -6.8729438    200.27711  0.032034087  0.032703799            2 
  522000    1.0308536   -6.8589173    200.42694  0.031996639  0.032684439            4 
  523000    1.0250925   -6.8855594    199.83306  0.031840832  0.032664569            2 
  524000     1.056743   -6.9103495    200.50816   0.03188743  0.032644394            4 
  525000    1.0560597   -6.9180831    200.60146  0.031841502  0.032624879            2 
  526000    1.0681531   -6.9381898    200.58845  0.031778905  0.032604949            2 
  527000    1.0570919   -6.8695995    201.41161  0.031848768  0.032585248            1 
  528000    1.0418821   -6.8933631    201.30616  0.031771805   0.03256593            5 
  529000    1.0510492   -6.8481811     202.4275   0.03188839  0.032546221            5 
  530000    1.0360264    -6.906793    202.68698  0.031869022  0.032527222            2 
  531000    1.0433671   -6.8978343    202.23775  0.031738504    0.0325075            4 
  532000    1.0493478   -6.8707819    202.93652  0.031788302  0.032488064            3 
  533000    1.0042964   -6.8903946    203.42747   0.03180542  0.032468531            3 
  534000    1.0229763   -6.9317391    203.04704  0.031686492  0.032448915            3 
  535000    1.0138077   -6.8948799    203.50983   0.03169935  0.032428881            3 
  536000    1.0397556   -6.9211017    203.95666  0.031709679  0.032409117            2 
  537000    1.0559887   -6.8975027     203.6772  0.031607263   0.03238919            4 
  538000    1.0535955   -6.9166915    204.14435  0.031620873  0.032368947            3 
  539000    1.0251679   -6.8925316    204.49717  0.031616754  0.032348841            2 
  540000    1.0362293   -6.8731719    204.86276  0.031614624  0.032329087            3 
  541000    1.0281355   -6.9125689    204.77598  0.031542819  0.032308825            1 
  542000    1.0327273   -6.8832266    204.94119  0.031510024  0.032287899            2 
  543000    1.0494594   -6.9108631    203.88453   0.03128983  0.032266739            3 
  544000    1.0145032   -6.8716946    204.44294  0.031317852  0.032244781            3 
  545000    1.0266077    -6.933931    204.78159  0.031312169  0.032222787            2 
  546000     1.026144   -6.8852894    205.15961  0.031312516  0.032200823            5 
  547000    1.0528738   -6.9006416    205.26809    0.0312718  0.032178968            6 
  548000    1.0263659    -6.911676      206.037  0.031331661  0.032157433            6 
  549000       1.0271   -6.8699462     206.3476  0.031321737  0.032135729            3 
  550000    1.0317352   -6.9181573    205.68571  0.031164501  0.032113352            4 
  551000    1.0592406   -6.8982753     205.8762  0.031136751  0.032090522            3 
  552000    1.0305975   -6.8964815    206.39704  0.031158974  0.032067875            2 
  553000    1.0223704   -6.8970062    206.45457  0.031111298   0.03204566            2 
  554000    1.0487936   -6.9319846    206.80079  0.031107218  0.032023363            4 
  555000    1.0358718   -6.8890664      207.673  0.031182133  0.032001655            2 
  556000    1.0165828   -6.9042154     207.8988  0.031159892  0.031980105            1 
  557000    1.0163084   -6.8944696    207.71643  0.031076665  0.031958807            1 
  558000     1.060918   -6.9012126    208.60858  0.031154209  0.031937771            3 
  559000    1.0490418   -6.9110542    208.65576   0.03110551  0.031916117            3 
  560000    1.0330431    -6.903009    208.65391  0.031049689  0.031894652            2 
  561000    1.0275565   -6.9032599    207.97479  0.030893462  0.031872483            3 
  562000    1.0320017   -6.9008447    208.35346   0.03089464  0.031849956            3 
  563000     1.052876   -6.9362994    209.26173  0.030974205  0.031827276            4 
  564000    1.0270268   -6.9103516    208.77158  0.030846865   0.03180455            4 
  565000    1.0277919   -6.9340486      208.817  0.030798968  0.031781801            4 
  566000    1.0300114   -6.9011089    209.71851  0.030877284   0.03175921            3 
  567000    1.0097637   -6.9287176    209.96429  0.030858949  0.031736744            1 
  568000    1.0219864   -6.8997092    210.78888  0.030925598  0.031714136            1 
  569000     1.031652    -6.944823    209.40408  0.030668435  0.031691562            5 
  570000    1.0183435   -6.9289183    210.34921  0.030752809  0.031668597            2 
  571000     1.027975   -6.9365431    211.44821  0.030859342  0.031646459            2 
  572000    1.0321955   -6.8993162    211.90537  0.030871994   0.03162486            2 
  573000    1.0259013    -6.943129    211.59363  0.030772779  0.031603344            1 
  574000    1.0221613   -6.9091033    212.14634   0.03079941  0.031581792            1 
  575000    1.0492177   -6.9270435    212.56966  0.030807198  0.031560524            2 
  576000    1.0314796   -6.9145654    212.83388  0.030791939  0.031539268            3 
  577000      1.02454   -6.9258701    212.80603  0.030734551  0.031517814            1 
  578000    1.0270412   -6.9203879    213.07065  0.030719529  0.031496204            4 
  579000    1.0494149   -6.9616114    213.17106  0.030680924  0.031474645            2 
  580000    1.0323151   -6.9361575    214.13947  0.030767165  0.031453381            5 
  581000    1.0183278   -6.9213382    213.56782  0.030632217  0.031432334            2 
  582000    1.0001131   -6.9343204    213.64902  0.030591211  0.031411114            4 
  583000     1.040131   -6.9429885    213.53223  0.030522046  0.031389443            4 
  584000    1.0143643   -6.9407476    213.97733  0.030533294   0.03136735            2 
  585000    1.0306964   -6.9050728    214.21967  0.030515622  0.031345192            2 
  586000    1.0399257   -6.9540103    214.40506  0.030489912  0.031323072            3 
  587000    1.0244622   -6.9142779     214.4259  0.030440929  0.031301082            2 
  588000    1.0212074   -6.9659092    214.66559  0.030423127  0.031279295            2 
  589000   0.99933342   -6.9355904    215.38182   0.03047281  0.031257773            3 
  590000   0.98971373    -6.943436    214.50401  0.030297176  0.031236338            4 
  591000    1.0049235   -6.9385861    215.37272  0.030368404  0.031214714            4 
  592000    1.0167096   -6.9632334    215.69505  0.030362479  0.031193238            3 
  593000    1.0207604   -6.9238819    216.52351  0.030427699  0.031171573            2 
  594000    1.0258289   -6.9636249    216.35243  0.030352473  0.031149485            1 
  595000    1.0308291   -6.9226411    216.82786  0.030368047  0.031127887            1 
  596000    1.0089809    -6.964272    216.95834  0.030335338  0.031106666            2 
  597000    1.0082952   -6.9551262     217.5789  0.030371147  0.031085498            5 
  598000    1.0249821   -6.9543789    217.72429  0.030340619  0.031064307            2 
  599000     1.009007     -6.95032    218.04201   0.03033417  0.031043073            3 
  600000    1.0523741   -6.9424318    218.33573  0.030324407  0.031022093            7 
  601000    1.0202129   -6.9573164    218.45499  0.030290486  0.031000672            3 
  602000    1.0141098   -6.9633748    218.82393  0.030291242  0.030979563            3 
  603000    1.0193552   -6.9656729    219.82265  0.030379028  0.030958694            3 
  604000    1.0104336   -6.9690938    219.25034  0.030249771  0.030938199            3 
  605000   0.99732408   -6.9365182    220.36449  0.030353235  0.030917788            3 
  606000    1.0303366   -6.9214932    220.79965  0.030362989  0.030897606            2 
  607000    1.0225522   -6.9811549    220.13918  0.030222292  0.030877508            4 
  608000    1.0009994   -6.9593107    220.97426  0.030287043  0.030857705            5 
  609000    1.0245898   -6.9766042    220.88097  0.030224545  0.030837385            2 
  610000   0.99775366   -6.9718597    220.91546  0.030179708  0.030817195            8 
  611000    1.0155552   -6.9432511    222.01421   0.03028017  0.030796661            3 
  612000   0.99184608    -6.927338    221.21193  0.030121451  0.030776388            3 
  613000     1.027028   -6.9283318    222.41787  0.030236251  0.030756304            2 
  614000   0.99930191   -6.9622408    221.79559   0.03010255  0.030736104            5 
  615000   0.98481651   -6.9378122     222.2348  0.030113117  0.030715994            2 
  616000    1.0228223    -6.985228    222.12994  0.030050046  0.030695606            9 
  617000   0.99203555   -6.9674854    221.80747  0.029957788  0.030674738            2 
  618000    1.0280467   -6.9751449    223.10617  0.030084434  0.030654116            3 
  619000   0.99329273   -6.9640556    222.83351  0.029999126  0.030633726            2 
  620000    1.0066442   -6.9819451    222.90508   0.02996036  0.030612912            2 
  621000    1.0280788   -6.9241475    223.36831  0.029974277  0.030592531            2 
  622000   0.99179347   -6.9978596    223.39738  0.029929981  0.030571636            4 
  623000    1.0046697   -6.9827049    223.03611  0.029833616  0.030550598            4 
  624000    1.0041753   -6.9600749    223.87342  0.029897626  0.030529939            3 
  625000    1.0212142   -7.0099763    223.66095   0.02982146  0.030509153            3 
  626000    1.0142598   -6.9570014    224.11983  0.029834909  0.030488797            2 
  627000    1.0051341   -6.9844487    225.02402  0.029907499   0.03046835            2 
  628000    1.0044195   -6.9730946    225.10718   0.02987091  0.030447895            2 
  629000    1.0077663   -6.9802538    224.65584  0.029763624  0.030427131            2 
  630000     1.008392   -6.9568326    225.30165  0.029801806   0.03040637            3 
  631000   0.99387111    -6.942797    225.55817  0.029788454   0.03038593            5 
  632000    1.0157683   -6.9618251     225.7096  0.029761287  0.030365281            2 
  633000    1.0088426   -6.9946068    225.84724  0.029732391  0.030344844            2 
  634000    1.0037055   -6.9926914    226.26105  0.029739885  0.030324579            4 
  635000    1.0058546   -6.9792565    226.22748  0.029688646  0.030304338            3 
  636000   0.98610426   -6.9754666    227.41301  0.029797303  0.030284563            3 
  637000   0.97776269   -7.0188856    227.13266  0.029713848   0.03026474            2 
  638000     1.013559    -6.969165    227.78944  0.029753062  0.030244958            3 
  639000    1.0128487   -6.9595263    228.05516  0.029741152  0.030225441            3 
  640000    1.0007888   -6.9893148    227.86349  0.029669725  0.030205753            2 
  641000   0.98746131   -6.9807076    228.37449  0.029689871  0.030186104            2 
  642000   0.99624127   -6.9811808    228.25441  0.029628039    0.0301666            2 
  643000   0.98860664   -6.9948804    229.37641  0.029727373  0.030147629            3 
  644000    1.0136823    -6.982042     229.6795  0.029720433  0.030128805            3 
  645000   0.99080016   -7.0163576    229.62483  0.029667291  0.030110231            3 
  646000    0.9873415   -6.9687462    230.64532  0.029753009  0.030091691            3 
  647000    1.0022729    -6.983656     230.4919  0.029687262  0.030073191            5 
  648000     0.987597   -6.9893379    230.59597  0.029654832  0.030054717            4 
  649000   0.98009448   -7.0002617    231.55148  0.029731828  0.030036317            2 
  650000    0.9918472   -6.9637429    230.55191  0.029557937  0.030017755            3 
  651000   0.98555635   -7.0049557    231.44074  0.029626311  0.029998905            5 
  652000    1.0056566   -6.9732462    231.43076  0.029579596  0.029980031            3 
  653000    1.0116331   -6.9979569    230.92033  0.029469159  0.029961153            3 
  654000     1.017352   -6.9914849    232.35436  0.029606825   0.02994201            2 
  655000    1.0079667   -7.0062352    231.77391  0.029487775  0.029923009            5 
  656000   0.99781285    -7.027197    232.57454   0.02954453  0.029904339            3 
  657000   0.98754311   -6.9856172    232.63176  0.029506819  0.029885839            4 
  658000   0.96501523   -6.9897397    233.13596  0.029525831  0.029867498            3 
  659000   0.99967216   -6.9830011    232.78654  0.029436842  0.029849154            2 
  660000   0.98033459   -6.9968796    233.45006  0.029476017  0.029830991            3 
  661000   0.98729639   -7.0019826    233.97035  0.029497019  0.029812647            2 
  662000   0.98352957   -6.9701126    234.33543  0.029498417  0.029794476            4 
  663000     1.003676   -6.9959974    234.03553   0.02941623  0.029776084            2 
  664000    1.0011439   -7.0181595    234.60333  0.029443189  0.029757689            4 
  665000   0.99800945   -7.0077712    234.22268  0.029351213  0.029739626            3 
  666000   0.98315256   -6.9927245    235.04679  0.029410259  0.029721509            3 
  667000    1.0027921   -6.9977903    235.06876  0.029368911  0.029703558            5 
  668000   0.99147741   -7.0028329    235.47273  0.029375341  0.029685721            3 
  669000   0.98197959   -6.9780574     236.1353  0.029413964  0.029668015            7 
  670000   0.99343153    -6.993577    235.23254  0.029257779  0.029649954            2 
  671000    0.9931658   -6.9929203    235.94769  0.029302992  0.029631897            3 
  672000   0.97753527   -7.0127776     235.9953   0.02926529  0.029613738            3 
  673000   0.97512865   -7.0331972     235.9455  0.029215639  0.029595523            3 
  674000   0.97756629    -7.000095    237.13666  0.029319568  0.029577634            3 
  675000   0.98208528   -6.9848374    237.14867  0.029277613   0.02955972            2 
  676000   0.95467006   -7.0252409    237.40151  0.029265472  0.029541526            6 
  677000   0.99313601   -6.9918459    237.19063  0.029196286  0.029523331            2 
  678000   0.98966719    -7.006568    237.14413  0.029147508  0.029505072            4 
  679000   0.98224521    -6.990665    238.37414   0.02925554  0.029486874            6 
  680000   0.99601409   -7.0071262    238.19761  0.029190884  0.029469235            3 
  681000   0.98610028   -6.9823761    239.02071  0.029248741  0.029451304            4 
  682000   0.98275051   -7.0166203    238.74618  0.029172309  0.029433478            2 
  683000   0.97897736   -7.0313009     238.0311   0.02904235  0.029415324            5 
  684000   0.98440261    -7.014422    238.64442  0.029074612  0.029397062            2 
  685000   0.94927794   -7.0184946    238.65127  0.029033001  0.029379234            2 
  686000   0.99800472    -7.026762    239.62873  0.029109418  0.029361262            3 
  687000   0.99777501   -7.0185322    239.59846  0.029063375  0.029343333            6 
  688000   0.97248842   -7.0512285    239.94484  0.029063086   0.02932507            2 
  689000   0.99678468   -7.0302066    240.28145  0.029061616  0.029307102            3 
  690000   0.97430874   -7.0074785    240.64515  0.029063424  0.029289685            2 
  691000   0.96814949   -7.0480662    240.51508  0.029005677  0.029271944            3 
  692000   0.96543606   -7.0420197    240.74751  0.028991752  0.029254114            4 
  693000   0.96558684   -7.0297959    241.16828  0.029000515   0.02923608            3 
  694000   0.97728477   -7.0409406    240.64538  0.028895939  0.029218107            4 
  695000   0.95756722   -7.0138586    241.35267  0.028939169  0.029200246            3 
  696000   0.94866072   -7.0503411     241.6127  0.028928724  0.029182537            5 
  697000   0.99351613     -7.03342    241.17457  0.028834836  0.029164757            4 
  698000   0.98817121   -7.0197932    242.66801  0.028971826  0.029146907            4 
  699000   0.97823262   -7.0961933    241.65097  0.028809128  0.029129065            3 
  700000   0.97644361   -7.0214829    242.74353  0.028898039  0.029111232            3 
  701000   0.97957423   -6.9972826    242.96392  0.028883014  0.029093737            4 
  702000   0.97801162   -7.0702153    242.43216  0.028778746  0.029076096            3 
  703000    1.0002323   -7.0204288    243.39682  0.028852159   0.02905865            3 
  704000   0.95943413   -7.0509204     243.0054  0.028764843  0.029040741            2 
  705000   0.97309847   -7.0545818    243.16888  0.028743366  0.029022516            2 
  706000   0.97585657   -6.9932983     243.1278  0.028697805  0.029004433            3 
  707000   0.97277622   -7.0583282    243.01819  0.028644294  0.028986028            4 
  708000   0.95378648   -7.0473175    243.54371  0.028665691  0.028967595            2 
  709000   0.97589627   -7.0073936    244.36884  0.028722242  0.028949397            3 
  710000   0.95623104   -7.0409653    243.81769    0.0286171  0.028931205            3 
  711000   0.98229569   -7.0629509     243.7465  0.028568507   0.02891281            4 
  712000   0.99387703   -7.0634019    244.12204  0.028572336  0.028894645            4 
  713000   0.96410753   -7.0619002    243.95125  0.028512302  0.028876204            3 
  714000   0.97774588   -7.0108986    244.16329  0.028497116  0.028857441            3 
  715000   0.98327582   -7.0756994    244.05641  0.028444803  0.028838791            6 
  716000   0.97267663   -7.0771645     245.2291  0.028541562  0.028820063            3 
  717000   0.94961794    -7.068043    244.99258  0.028474266  0.028801717            3 
  718000   0.96663513    -7.039464    244.92068  0.028426263  0.028783241            3 
  719000   0.97614149   -7.0240565    245.61287  0.028466953  0.028764811            5 
  720000   0.95420181   -7.0257698    245.77735  0.028446452  0.028746378            7 
  721000   0.96572587   -7.0458139    246.21332  0.028457388  0.028728289            4 
  722000   0.98574786   -7.0550392    246.20423  0.028416924  0.028710343            3 
  723000   0.97232934   -7.0830355    246.81089  0.028447544  0.028692593            3 
  724000   0.94843788    -7.064984     247.0129  0.028431504  0.028674655            2 
  725000   0.97716969   -7.0254056    248.02375  0.028508477  0.028657147            4 
  726000   0.96880916   -7.0544734    247.55431  0.028415325  0.028639527            7 
  727000   0.96436027     -7.02493    247.82822  0.028407636  0.028622211            3 
  728000   0.96361595   -7.0589931    247.77692  0.028362742  0.028604629            2 
  729000   0.96876718   -7.0631837    247.61518  0.028305348  0.028586749            2 
  730000   0.96289945    -7.101038    248.09129  0.028320924  0.028568753            2 
  731000   0.95725637   -7.0555332    248.89434  0.028373727   0.02855119            3 
  732000   0.97242444   -7.0710608    249.39791  0.028392294   0.02853376            3 
  733000   0.95120922   -7.0596876    248.54062  0.028256096  0.028516285            3 
  734000    0.9723254   -7.0418155    249.35596  0.028310168  0.028499075            9 
  735000   0.97437603   -7.0561199    249.52078  0.028290338  0.028481985            2 
  736000   0.98115942   -7.0665778    249.57194  0.028257693  0.028464713            6 
  737000   0.96310247   -7.0659807    249.54585  0.028216401   0.02844731            3 
  738000   0.95241523    -7.100412    249.93658  0.028222287  0.028429699            1 
  739000    0.9464296   -7.0802302    249.80544   0.02816931  0.028411747            5 
  740000    0.9369518   -7.0793587    249.39948  0.028085527  0.028393844            4 
  741000   0.95986616    -7.089058    250.10646  0.028127133  0.028376042            5 
  742000   0.96752663   -7.0353027    250.85607  0.028173413  0.028358272            2 
  743000   0.95811599    -7.042953    251.39042  0.028195426  0.028340446            4 
  744000   0.96176618   -7.0434718    250.61051  0.028070174  0.028322762            4 
  745000   0.96517081   -7.0380352    251.24303  0.028103247  0.028304856            3 
  746000    0.9414301   -7.1044095     251.0945  0.028048984  0.028286919            3 
  747000   0.95631546   -7.0700516    250.86236  0.027985538  0.028268861            5 
  748000   0.97159221    -7.054258     251.9958  0.028074398   0.02825114            4 
  749000   0.94356505   -7.0917573    251.24959  0.027953893  0.028233233            4 
  750000   0.96797081   -7.0552337    252.56084  0.028062315   0.02821525            6 
  751000    0.9663345   -7.0747524     252.5509  0.028023846  0.028197407            2 
  752000   0.94386243   -7.0996333    252.13363  0.027940341  0.028179535            2 
  753000   0.96439139   -7.0791329    252.33077  0.027925052  0.028161659            4 
  754000   0.96176079   -7.0886231    253.18409  0.027982327  0.028143995            2 
  755000   0.94933627   -7.0470952     253.3536  0.027963974  0.028126435            2 
  756000   0.94667089   -7.0830116    252.16668  0.027796151  0.028108636            5 
  757000    0.9546866   -7.0591834    252.60277  0.027807438  0.028090545            4 
  758000   0.95742297    -7.044117    253.18544  0.027834811  0.028072515            3 
  759000   0.96705541   -7.0790215    253.51714  0.027834557  0.028054849            5 
  760000   0.95285729   -7.0708174    253.76013  0.027824576  0.028037157            4 
  761000   0.94256505   -7.0551939    253.59358  0.027769775  0.028019443            4 
  762000   0.95555372   -7.0271588    254.21998  0.027801835  0.028001723            2 
  763000   0.95790089   -7.0868239    253.68026   0.02770645   0.02798379            3 
  764000    0.9317375   -7.0742292    253.10349  0.027607274  0.027965471            3 
  765000   0.93139109   -7.0852732    253.55819  0.027620718  0.027947185            3 
  766000   0.92661078   -7.0721372    254.12857  0.027646711  0.027929121           16 
  767000   0.96444806   -7.0935738    254.00488  0.027597228   0.02791076            3 
  768000   0.93385729   -7.0947725    254.22373   0.02758504  0.027892209            5 
  769000   0.95297546    -7.078925    254.71552  0.027602462  0.027873932            8 
  770000    0.9716507   -7.1181706    254.39934  0.027532396   0.02785562            5 
  771000   0.95854988   -7.0950608    255.35971  0.027600488  0.027837249            2 
  772000   0.93362221   -7.0589899    255.80352  0.027612642  0.027819049            3 
  773000   0.95797378   -7.0874808    254.62204  0.027449551   0.02780075            3 
  774000   0.95493286   -7.1067398    254.66085  0.027418266  0.027782218            5 
  775000    0.9289673   -7.1079855    255.09116  0.027429156  0.027763872            2 
  776000   0.95875983   -7.0868719    256.01914  0.027493465  0.027745701            2 
  777000   0.94936293   -7.1225256    256.52339  0.027512161  0.027727747            5 
  778000   0.94847099   -7.1350968    256.66741  0.027492225  0.027709601            3 
  779000   0.94235749   -7.1122014     257.0474  0.027497583  0.027691667            3 
  780000   0.94847549   -7.0884885    256.63823  0.027418614  0.027673654            5 
  781000   0.95286596    -7.132487    256.54423  0.027373477  0.027655578            4 
  782000   0.96010386   -7.0703271    257.19678  0.027408012  0.027637655            6 
  783000   0.93487014   -7.0927665    258.00338  0.027458853  0.027619677            4 
  784000   0.94779585   -7.1115755    257.31969  0.027351157  0.027601956            2 
  785000   0.95405985     -7.09093    258.00033   0.02738857   0.02758424            4 
  786000   0.93309031   -7.1002014    257.81348  0.027333914  0.027566574            4 
  787000   0.95372366   -7.0955258    258.32087  0.027352908  0.027548927            3 
  788000   0.96147502   -7.1031059    258.37944  0.027324391  0.027531218            2 
  789000   0.93273656   -7.1102002    258.99969  0.027355269   0.02751365            3 
  790000     0.944097   -7.1004491    259.14922  0.027336416  0.027496318            3 
  791000   0.93454968   -7.0590418    259.54979  0.027344057  0.027478977            1 
  792000    0.9506321   -7.1069512    258.02482  0.027149076   0.02746137            5 
  793000   0.93149957    -7.114258    259.17328  0.027235527  0.027443465            5 
  794000   0.93841519   -7.1020784    258.87818  0.027170254  0.027425487            5 
  795000   0.93464119   -7.1246857     258.9088  0.027139288  0.027407602            1 
  796000   0.93204605    -7.092865    259.20117  0.027135801  0.027389539            4 
  797000   0.91944613   -7.1007545     259.5965  0.027143088  0.027371573            2 
  798000   0.95382469    -7.126361    259.31509  0.027079688  0.027353221            3 
  799000   0.93246145    -7.116171    259.98109  0.027115258  0.027335316            2 
  800000   0.93861352   -7.1397455    259.21992  0.027002075  0.027317184            3 
  801000   0.95180891   -7.1290089    260.58392  0.027110271  0.027299251            3 
  802000   0.93754742   -7.1223333    260.27396   0.02704426  0.027281087            3 
  803000    0.9275084   -7.0993661    260.77089  0.027062151  0.027263315            2 
  804000   0.90369048   -7.0793751    260.66502  0.027017519   0.02724529            3 
  805000    0.9263786   -7.1942507    259.54048  0.026867544  0.027226911            3 
  806000   0.92186862   -7.1189367    260.34494  0.026917385  0.027208513            3 
  807000   0.92040792   -7.1174531    261.14037  0.026966168  0.027190305            3 
  808000   0.91909221   -7.1180611    261.85015  0.027005998  0.027172431            3 
  809000   0.93439648   -7.0928946    261.41692   0.02692799  0.027154519            2 
  810000   0.93234176    -7.142148    260.94044  0.026845724  0.027136543           10 
  811000   0.94208559    -7.143988    261.45544   0.02686554  0.027118292            2 
  812000   0.93666541   -7.1437777    262.11713  0.026900363  0.027100207            4 
  813000   0.92919778   -7.1191969    262.54808  0.026911447  0.027082199            4 
  814000   0.90379909   -7.1545108    261.79556  0.026801348  0.027064064            5 
  815000   0.93289448   -7.1212018    262.08318  0.026797871  0.027046053            2 
  816000   0.92828882   -7.1261961    262.40766  0.026798168  0.027028115            5 
  817000   0.92008578   -7.1136517     262.7598  0.026801286  0.027010152            7 
  818000    0.9168097    -7.130316    262.75149  0.026767674  0.026992114            4 
  819000   0.93788281   -7.1211658     263.2963  0.026790425  0.026974239            3 
  820000   0.95597859   -7.1120765    263.34731  0.026762938  0.026956495            2 
  821000   0.94317211    -7.105516     263.3299  0.026728573  0.026938679            5 
  822000   0.93306973   -7.1212539    264.15184  0.026779384  0.026920893            3 
  823000   0.91541804   -7.1313612    263.97512  0.026728951  0.026903009            4 
  824000   0.93167171   -7.1468888    264.36594  0.026736038  0.026885051            2 
  825000   0.92797812    -7.132894    263.93021  0.026659617  0.026867089            4 
  826000   0.92056987   -7.0962748     264.6563  0.026700596  0.026849341            4 
  827000   0.92778017   -7.1180069    264.45361  0.026647885  0.026831681            5 
  828000   0.91624657   -7.1299799    264.26942  0.026597164  0.026813906            7 
  829000   0.93926498    -7.158408    264.19527  0.026557627  0.026796021            3 
  830000   0.90472905   -7.1255718    264.64766   0.02657105  0.026778137            9 
  831000   0.90328117   -7.1255102    264.79075  0.026553424  0.026760139            4 
  832000   0.94071836   -7.1376643    265.36927  0.026579454  0.026742404            2 
  833000   0.92116236   -7.1263508     265.0748  0.026518088  0.026724707            1 
  834000   0.91190623   -7.1421315     264.9815  0.026476969  0.026706921            5 
  835000   0.92644856   -7.1541096    265.26172  0.026473226  0.026688995            5 
  836000   0.94606883   -7.1302278    265.69214  0.026484464  0.026671308            6 
  837000   0.92922404   -7.1345708    265.87271    0.0264708  0.026653534            2 
  838000   0.92522822   -7.1540537    266.51144  0.026502729  0.026635705            4 
  839000   0.91049075   -7.1765021    266.16141  0.026436374  0.026617757            3 
  840000     0.925506   -7.1476034    266.11477  0.026400275  0.026599921            2 
  841000   0.92882172    -7.152997    265.72816  0.026330574  0.026582005            3 
  842000   0.92469414    -7.145602    266.24286  0.026350243  0.026564023            3 
  843000   0.91647271   -7.1622154    266.82682  0.026376712  0.026546279            3 
  844000   0.90930189   -7.1497169    266.87342  0.026350061  0.026528515            5 
  845000   0.92601419   -7.1622067    266.93474  0.026324925  0.026510439            4 
  846000   0.90876978   -7.1254235    267.83361  0.026382349  0.026492786            2 
  847000   0.89703591   -7.1607965    266.84677  0.026254109  0.026475058            4 
  848000   0.91855236   -7.1619068    266.98559  0.026236791  0.026457353            6 
  849000    0.9245594   -7.1816001    268.33489  0.026338328  0.026439726            3 
  850000   0.89822371   -7.1598273    268.93907  0.026366575  0.026422278            2 
  851000   0.91873317   -7.1522353    268.73638  0.026315744  0.026404775           16 
  852000   0.91365918   -7.1567209     268.5079   0.02626251  0.026387216            3 
  853000   0.91828358   -7.1469025    269.20069  0.026299403  0.026369822            5 
  854000   0.93287218   -7.1814825    268.92097  0.026241313  0.026352272            5 
  855000   0.92518384   -7.1298921     269.4171  0.026258977  0.026334831            8 
  856000   0.88669717   -7.1654212    268.91204  0.026179131   0.02631761            3 
  857000   0.90694257    -7.176298    269.60302  0.026215774  0.026300355            5 
  858000   0.90222625   -7.1530254     269.8492   0.02620913  0.026283307            2 
  859000   0.89893359   -7.2032968    269.52207  0.026146883  0.026265978            6 
  860000   0.90334576   -7.1421222    270.16743  0.026179014  0.026248709            3 
  861000   0.91159479   -7.1635082    269.72831  0.026106108  0.026231486            4 
  862000   0.89194142   -7.1927854    270.04552  0.026106489  0.026214132            1 
  863000     0.904338   -7.1197263    270.97878  0.026166355  0.026197084            3 
  864000   0.90965552   -7.1574564    270.76425  0.026115379  0.026179967            2 
  865000   0.93058535   -7.1789288    270.44909  0.026054825  0.026162849            4 
  866000   0.91402459   -7.1555359     270.6108    0.0260403  0.026145412            3 
  867000   0.92369094   -7.1876432    270.71393  0.026020177  0.026128162            2 
  868000   0.90998014    -7.167631    270.62877  0.025982025  0.026110959            3 
  869000   0.92084165   -7.1656211    270.87765  0.025975992  0.026093813            3 
  870000   0.90475977   -7.1483281     271.9008  0.026044138   0.02607683            1 
  871000   0.91558078   -7.1717683    271.47632  0.025973624  0.026059759            8 
  872000   0.92311564   -7.1726711    271.59174  0.025954868  0.026042617           10 
  873000   0.91749832   -7.1888779    272.77654  0.026038234  0.026025488            2 
  874000   0.91093974   -7.1922344    272.32473  0.025965363  0.026008576            2 
  875000   0.90262248    -7.182915    272.63525  0.025965262  0.025991548            3 
  876000   0.90246348   -7.1859109    272.26786  0.025900671   0.02597455            4 
  877000   0.89507585    -7.204748    272.20074  0.025864761  0.025957225            2 
  878000   0.90175389   -7.1752052    272.17225  0.025832597  0.025939924            2 
  879000   0.92276705   -7.1363431    272.69901  0.025853149  0.025922687            4 
  880000   0.90415648   -7.1741051    272.26652  0.025782814  0.025905423            4 
  881000   0.90635286   -7.1572826    272.29776  0.025756504  0.025888095            3 
  882000   0.90964828    -7.175779    272.36341  0.025733504  0.025870742            2 
  883000   0.90699322   -7.1634946    273.48511  0.025810222  0.025853351            2 
  884000   0.89177485   -7.1986265    272.46439  0.025684803  0.025835914            4 
  885000   0.89280631   -7.2189284    273.33978  0.025738209  0.025818445            4 
  886000   0.89810452   -7.1819244     273.3577  0.025710845  0.025801113            3 
  887000   0.89995639   -7.2239389     273.3522  0.025681341   0.02578374            4 
  888000   0.89598158   -7.1799417    273.52317  0.025668466  0.025766433            4 
  889000   0.88881941   -7.2008635    273.79927  0.025665473  0.025749131            7 
  890000   0.89512325   -7.1833634     274.0625  0.025661282  0.025731584            5 
  891000   0.89125255   -7.1935338    273.95694  0.025622609   0.02571422            5 
  892000    0.9310323   -7.1907663    273.62102  0.025562502  0.025696982            2 
  893000   0.89566177   -7.1942951    274.26897  0.025594343  0.025679647            2 
  894000   0.89517341   -7.1913481    273.97337  0.025538159  0.025662332            4 
  895000   0.88152603    -7.209192    274.12447  0.025523693  0.025645031            3 
  896000   0.89699337   -7.1944101    274.54755  0.025534556  0.025627618            3 
  897000   0.88389209   -7.1756701    275.52678  0.025597063  0.025610244            3 
  898000   0.88853341   -7.2078528    274.99837  0.025519522  0.025592938            8 
  899000   0.90743109   -7.2052625    275.44964  0.025532966  0.025575655            4 
  900000   0.89166434   -7.2132451    274.68862  0.025434132  0.025558369            7 
  901000   0.90211948   -7.2041774    274.92427  0.025427698  0.025540935            4 
  902000   0.91625152   -7.2061821    275.66065   0.02546754  0.025523585            7 
  903000   0.89951293   -7.2077978    275.31621   0.02540755  0.025506388            4 
  904000   0.89521774   -7.2135729    276.07802   0.02544967  0.025489219            4 
  905000   0.87759836   -7.1629507    276.28981  0.025441051  0.025472102            2 
  906000     0.902838   -7.2115446     276.2407  0.025408453  0.025455025            6 
  907000   0.90550702   -7.2425007     276.5662  0.025410345   0.02543768           14 
  908000    0.8865062   -7.1894236    276.55352  0.025381196  0.025420467            4 
  909000    0.9080992   -7.2373509     276.5493  0.025352888  0.025403099            6 
  910000   0.89608746     -7.19147    276.10124  0.025283996  0.025385958            7 
  911000   0.89040586   -7.2142972    276.76166  0.025316654  0.025368724            5 
  912000   0.88709978   -7.2027435    276.51509  0.025266364  0.025351254            6 
  913000   0.90329903   -7.2157889     277.1444   0.02529613  0.025334122            5 
  914000   0.88614131   -7.2573076    276.63085  0.025221631  0.025316883            3 
  915000   0.88310273   -7.2454906    276.99533  0.025227261   0.02529967            4 
  916000   0.89122044   -7.2153119    277.53006  0.025248368  0.025282671            4 
  917000   0.88178656   -7.2341329    277.29224  0.025199222  0.025265697            2 
  918000   0.89990362   -7.1950236    278.91838  0.025319388  0.025248751            4 
  919000   0.85861694    -7.207462    278.09263   0.02521696  0.025231882            2 
  920000   0.89364773   -7.2216385    277.78848     0.025162   0.02521496            2 
  921000   0.87622314   -7.1920763    278.53204  0.025201958  0.025198144            4 
  922000   0.90428976   -7.2245273     278.5293  0.025174377  0.025181177            2 
  923000   0.87718666   -7.1812067    278.24227  0.025121188  0.025164041            6 
  924000   0.87948389   -7.2308735    277.48877  0.025026043  0.025146983            4 
  925000   0.89854893   -7.1950681    278.64733  0.025103363  0.025129903            2 
  926000    0.9063618   -7.2143782    278.54835  0.025067346  0.025112929           13 
  927000   0.86952425   -7.2265365    278.04123  0.024994717  0.025095785            5 
  928000   0.87588115   -7.2298787    278.94809  0.025049218   0.02507856            3 
  929000   0.88632715   -7.2526986    278.81603  0.025010408  0.025061445            5 
  930000   0.90103182   -7.2258617    279.11354  0.025010174  0.025044229            3 
  931000      0.88553   -7.2087278    279.00507  0.024973601  0.025027011            4 
  932000   0.88548851   -7.2423606    278.45438  0.024897566  0.025009658            3 
  933000   0.87124873   -7.2167178    278.61801  0.024885496  0.024992126            2 
  934000   0.87410669   -7.2291624    279.05546  0.024897882  0.024974704            4 
  935000   0.86233281   -7.2167034    279.24542  0.024888183  0.024957244            3 
  936000   0.87346884   -7.2428341    278.87393   0.02482852   0.02493971            2 
  937000   0.89393232   -7.2380104    279.16699  0.024828086  0.024922026            4 
  938000   0.87841429   -7.2367266    278.33916   0.02472807  0.024904316            2 
  939000   0.87002716   -7.2265206    278.72623  0.024736087  0.024886594            6 
  940000   0.87020433   -7.2055892    279.01257  0.024735157  0.024868969            4 
  941000   0.87603039   -7.2739447    279.51736  0.024753575  0.024851254            4 
  942000   0.85987231   -7.2298949     279.5808  0.024732909  0.024833664            5 
  943000   0.88998289   -7.2214236    280.22273  0.024763409  0.024816157            2 
  944000   0.88209249   -7.2377308    280.34771  0.024748209  0.024798946            8 
  945000   0.89745169   -7.2357195     280.8552  0.024766772  0.024781691            5 
  946000   0.86854115   -7.2413889     280.6325  0.024720974  0.024764486            4 
  947000   0.89088366   -7.2375967    280.86699  0.024715505  0.024747387            5 
  948000   0.87368542   -7.1832912    280.94575  0.024696357  0.024730295            2 
  949000   0.86172431   -7.2142171    281.27308  0.024699076  0.024713221            8 
  950000   0.89370084   -7.2365252    280.25402  0.024583686  0.024696044            6 
  951000   0.87816186   -7.2342688    280.29765  0.024561659  0.024678565            3 
  952000   0.88139107   -7.2813253      280.215  0.024528624  0.024661136            2 
  953000   0.87011521   -7.2436843    281.62591   0.02462626  0.024643796            3 
  954000   0.87502557   -7.2512179    280.51175  0.024503123  0.024626505            5 
  955000   0.86833722   -7.2440941    281.20164  0.024537665  0.024609268            5 
  956000   0.87379428   -7.2503219    281.51536  0.024539345  0.024592125            2 
  957000   0.87778951   -7.2376008     281.7896  0.024537583  0.024575019            5 
  958000   0.87078693   -7.2616752    281.66715  0.024501318  0.024557938            4 
  959000   0.86667739   -7.2477835    281.99239  0.024504031  0.024541022            5 
  960000    0.8706764   -7.2492595    281.81173  0.024462823   0.02452404            2 
  961000   0.85661147   -7.2540242    281.99364  0.024453142  0.024506996            7 
  962000   0.85595666   -7.2652886    282.62585  0.024482489  0.024490035            5 
  963000   0.86291417   -7.2519692    283.35555  0.024520211  0.024473158            5 
  964000   0.86019887   -7.2744816    282.66434  0.024435022  0.024456277            4 
  965000   0.86935752   -7.2606711    282.40729  0.024387503  0.024439274            4 
  966000   0.86502129   -7.2793745    283.46242   0.02445328  0.024422277            7 
  967000   0.87102724   -7.2853841    283.20464  0.024405777  0.024405352            7 
  968000   0.89197553   -7.2304379     283.9038  0.024440754  0.024388559            1 
  969000   0.85476718   -7.2369668    283.54085  0.024384318  0.024371805            3 
  970000    0.8859082   -7.2770289    283.54654  0.024359669   0.02435512            5 
  971000   0.87173215   -7.2416512    284.68278  0.024432095  0.024338582            3 
  972000   0.84920273   -7.2658905    284.33575  0.024377208  0.024322062            4 
  973000   0.87766848   -7.2548274    284.67879  0.024381534  0.024305522            4 
  974000   0.86228948   -7.2407288    284.65999  0.024354893  0.024288972            3 
  975000   0.86061048   -7.2457411    283.97789  0.024271614  0.024272413            2 
  976000   0.85951254   -7.2688942    283.98527  0.024247376  0.024255864            7 
  977000   0.86902687   -7.2733099    284.74323  0.024287208  0.024239207            1 
  978000    0.8913289   -7.2748098    285.30533   0.02431027  0.024222723            6 
  979000   0.89402709   -7.2998878    284.71448  0.024235145  0.024206135            5 
  980000   0.87522179   -7.2863684    285.52189  0.024279072  0.024189683            4 
  981000   0.86788497    -7.282402    285.37502  0.024241847  0.024173255            5 
  982000   0.87199476   -7.2860605    285.51452  0.024228999  0.024156774            5 
  983000   0.87651258   -7.2478649    285.90684  0.024237609   0.02414041            4 
  984000    0.8407656    -7.264765    286.14172  0.024232869   0.02412406            3 
  985000   0.87130852   -7.2384782    286.49657  0.024238289  0.024107739            6 
  986000   0.87488159    -7.260443    286.10395  0.024180523   0.02409147            5 
  987000   0.85576741   -7.2895139    285.69572  0.024121557  0.024075173            4 
  988000   0.86436005   -7.2919273    285.85959  0.024110964  0.024058917            4 
  989000   0.83983457   -7.2507674    286.82276  0.024167742  0.024042507            4 
  990000   0.86747723    -7.294894    286.00332  0.024074353  0.024026094            3 
  991000    0.8430897   -7.2740463    286.11802  0.024059706  0.024009898            7 
  992000    0.8510526   -7.3110857    286.41508  0.024060407  0.023993666            3 
  993000   0.86883376   -7.3152615     286.3663  0.024032083  0.023977278            8 
  994000   0.84642103   -7.2858479    287.20772  0.024078447  0.023960983            2 
  995000   0.87287094   -7.2866184    286.95382  0.024032983  0.023944802            4 
  996000   0.84611995   -7.2800538    287.63375  0.024065742  0.023928587            6 
  997000   0.84076924   -7.3004558    286.29959  0.023930089  0.023912261            4 
  998000   0.86494524   -7.2971434    287.23973  0.023984613  0.023895851            5 
  999000   0.84038777   -7.2972812    286.56237  0.023904102  0.023879444            6 
 1000000    0.8281082   -7.2843587    287.48235  0.023956863  0.023862899            7 
 1001000   0.84294614   -7.2888788    286.92113  0.023886208  0.023846428            3 
 1002000   0.83812127   -7.3183614    287.15404   0.02388174  0.023829792            4 
 1003000   0.85835935   -7.2497039    288.04136  0.023931652  0.023813442            4 
 1004000   0.86419492   -7.2636885    288.20742  0.023921599  0.023797157            4 
 1005000   0.86999502   -7.2681245    287.72121   0.02385748  0.023780894           11 
 1006000   0.84097417   -7.3050565    287.68678  0.023830913  0.023764573            4 
 1007000   0.84400784   -7.3029083    287.54732  0.023795707   0.02374829            5 
 1008000   0.86256805   -7.3087341    287.52292  0.023770083  0.023732086            6 
 1009000   0.86413455   -7.2958461    288.83617  0.023854986  0.023715756            5 
 1010000   0.84470042   -7.2930556    289.05804  0.023849673  0.023699486            4 
 1011000   0.84866015   -7.2840729    289.23867  0.023840972  0.023683374            6 
 1012000   0.85883898   -7.3187155    288.88311  0.023788135  0.023667102            4 
 1013000   0.85252825   -7.3095482    288.65207  0.023745646  0.023650909            3 
 1014000   0.84515229   -7.3107596    288.57837  0.023716171  0.023634692            3 
 1015000   0.84472511   -7.3251925    288.73257  0.023705465   0.02361846            2 
 1016000   0.86680802    -7.292199     288.0675  0.023627584  0.023602237            3 
 1017000   0.84515649   -7.3061199    289.92525  0.023756576  0.023585996            2 
 1018000   0.85174214   -7.3186626    289.58653  0.023705512  0.023569921            5 
 1019000   0.84636911   -7.3278695    289.23167  0.023653228  0.023553655            4 
 1020000   0.86100628   -7.2438585    289.51531  0.023653212  0.023537447            5 
 1021000    0.8421137   -7.3255102    289.19618  0.023603997  0.023521233            2 
 1022000   0.85872002   -7.2948654     290.0176   0.02364788  0.023505105            4 
 1023000   0.84588949   -7.3043409    289.70971  0.023599683  0.023489122            4 
 1024000   0.82790184   -7.2720822    291.16763  0.023695282  0.023473172            2 
 1025000   0.84820145   -7.3339108    289.79171  0.023560302  0.023457188            7 
 1026000   0.82283788   -7.3253599    290.65585  0.023607525  0.023441181            3 
 1027000    0.8333059   -7.3074756    290.38447  0.023562518  0.023425255            6 
 1028000   0.85712625   -7.2856141    291.24046  0.023608986  0.023409351            4 
 1029000   0.83888283   -7.2984297     291.2018  0.023582912  0.023393515            3 
 1030000   0.84114311    -7.330346    290.95017  0.023539658  0.023377642            5 
 1031000    0.8355763   -7.3206891    291.04365  0.023524381  0.023361819            3 
 1032000   0.84203102    -7.350293    290.61399  0.023466892  0.023346025            6 
 1033000   0.83581282   -7.3322224    291.17721   0.02348961  0.023330172            3 
 1034000   0.84901512   -7.3225015    291.52175  0.023494661  0.023314344            3 
 1035000   0.84458586   -7.3281576    291.03637   0.02343288  0.023298433            4 
 1036000   0.83664334   -7.3471214    291.64251  0.023459018  0.023282428            5 
 1037000   0.82682849   -7.3313908    291.33266  0.023411496  0.023266484            4 
 1038000   0.83599523   -7.3306125     291.0412  0.023365543  0.023250552            5 
 1039000   0.84710601    -7.328165    291.90173  0.023412073  0.023234624            4 
 1040000   0.83938366   -7.3090346    292.05057  0.023401488  0.023218653            3 
 1041000   0.84085713   -7.3024285    292.38293  0.023405614    0.0232028            4 
 1042000   0.83413756   -7.3279803     291.9045  0.023344889  0.023186898            5 
 1043000   0.83900123   -7.2917934    291.50142  0.023290302  0.023171027            3 
 1044000   0.84063506   -7.3349055    292.03712  0.023310753  0.023155035            6 
 1045000   0.84162632   -7.3278904    291.14053  0.023216948  0.023138974            3 
 1046000   0.85149004   -7.3228767    291.78377  0.023245998  0.023123011            3 
 1047000     0.840269   -7.3324004    292.23746  0.023259906   0.02310705            4 
 1048000   0.82777846   -7.3442817     291.9091  0.023211602  0.023090929            3 
 1049000   0.83084497   -7.3550984    292.11948  0.023206187  0.023074771            2 
 1050000   0.82764127   -7.3232301    292.49564   0.02321394  0.023058842           11 
 1051000   0.83390059   -7.3086985    293.03275  0.023234439  0.023042986            6 
 1052000   0.82142219   -7.3347132    292.29262  0.023153724  0.023027214            3 
 1053000   0.84344804   -7.3464054    293.33997  0.023214623  0.023011398            6 
 1054000   0.84223229   -7.3459799    293.28929   0.02318859  0.022995588           12 
 1055000   0.83060437   -7.3254138    293.62587  0.023193197   0.02297984            5 
 1056000   0.82966168   -7.3151237    292.78361  0.023104767  0.022964074            6 
 1057000   0.81960689   -7.3447351    293.55778  0.023143944  0.022948292            4 
 1058000   0.83068277   -7.3377258    293.98224  0.023155501  0.022932619            3 
 1059000    0.8318681   -7.3373267    294.31803  0.023160059  0.022916976            2 
 1060000    0.8342116   -7.3642246    294.05927  0.023117867  0.022901407            3 
 1061000   0.82368143   -7.3098902     294.6632  0.023143512  0.022885897            3 
 1062000   0.82166614   -7.3544195    294.67234  0.023122438  0.022870305            2 
 1063000   0.82942547   -7.3186663    294.80148  0.023110809  0.022854738            8 
 1064000   0.82937314   -7.3431081    294.14503  0.023037675  0.022839164            5 
 1065000   0.81583112   -7.3636574    294.09281  0.023011957  0.022823519            7 
 1066000   0.82087042     -7.33147    294.44856   0.02301818  0.022808021            8 
 1067000   0.82626143   -7.3187683    294.68399  0.023014995  0.022792531            6 
 1068000   0.81553374   -7.3523265    294.75122   0.02299869  0.022777041            7 
 1069000   0.81986396   -7.3341471    295.00374  0.022996861  0.022761472            4 
 1070000   0.82921545   -7.3291401    295.09205  0.022982247  0.022746054            5 
 1071000   0.82797857   -7.3506688    295.26605  0.022974327  0.022730462            4 
 1072000   0.80817859    -7.330474    295.26788  0.022953038  0.022714959            3 
 1073000   0.80801772   -7.3512783    294.55983  0.022876657  0.022699315            5 
 1074000    0.8190468   -7.3581994    295.37127  0.022918317   0.02268373            3 
 1075000   0.84839652   -7.3576716    294.89597  0.022860153  0.022668194            3 
 1076000   0.81874492   -7.3383357    295.62769  0.022895577  0.022652702            2 
 1077000   0.82268201    -7.359135    294.82455  0.022812175  0.022637109           10 
 1078000   0.81245126   -7.3616886     295.2637  0.022824961  0.022621514           10 
 1079000   0.85621531   -7.3154726    296.07923  0.022866792  0.022605899            4 
 1080000   0.82614684    -7.366538    295.44689  0.022796828  0.022590268            3 
 1081000   0.83409507   -7.3548838    295.33006  0.022766733  0.022574611            3 
 1082000   0.81078306    -7.349249    295.35263   0.02274743  0.022558906            4 
 1083000   0.81650259   -7.3260045    295.22357  0.022716495  0.022543225            3 
 1084000   0.83576516   -7.3603418    295.32727  0.022703511  0.022527557            4 
 1085000   0.82875393   -7.3344234    295.86971  0.022724248  0.022511836            2 
 1086000    0.8248045   -7.3701794    295.35263  0.022663646  0.022496117            5 
 1087000   0.81501004   -7.3930213    296.31482  0.022716561  0.022480386            6 
 1088000    0.8191163    -7.373359    295.72672  0.022650638  0.022464738            2 
 1089000   0.83176498   -7.3519594    296.49747  0.022688818   0.02244912            6 
 1090000   0.82312087   -7.3300939    296.10874  0.022638283  0.022433583            7 
 1091000   0.81401794   -7.3441338    296.84906   0.02267408  0.022418008            5 
 1092000   0.81682481    -7.366151    296.46815  0.022624248  0.022402435            4 
 1093000   0.79927533    -7.340858    296.80756  0.022629427  0.022386719            6 
 1094000   0.81662368   -7.3913316    296.09536  0.022554491   0.02237102            5 
 1095000   0.83189919   -7.3412095    296.37402    0.0225551    0.0223553            4 
 1096000    0.8320142   -7.3649045    296.47537  0.022542227  0.022339482            3 
 1097000   0.82878122   -7.3657663    296.94597  0.022557427  0.022323754            3 
 1098000   0.82529576    -7.386693    296.53545  0.022505726  0.022308043            5 
 1099000   0.78483243    -7.388163    296.31345  0.022468414  0.022292245            9 
 1100000   0.81847742   -7.3748375    296.74836  0.022480936  0.022276503            7 
 1101000   0.82824474   -7.3779509    295.98954  0.022403083  0.022260804            3 
 1102000   0.81690836   -7.3852763    297.00724  0.022459713  0.022245036            5 
 1103000   0.81325359   -7.3625806    296.67795  0.022414472  0.022229304            2 
 1104000   0.80556754   -7.3686922     297.5007  0.022456273  0.022213659            3 
 1105000   0.80046536   -7.3962874    296.88049  0.022389177  0.022197957            3 
 1106000   0.81533295   -7.3866864    296.68984  0.022354569  0.022182329            3 
 1107000   0.81152398   -7.3967429    296.52418  0.022321905  0.022166555            2 
 1108000   0.80858628   -7.3895025    296.82535   0.02232441  0.022150813            5 
 1109000   0.82208846   -7.4107505    297.40302  0.022347687  0.022135176            4 
 1110000   0.81060083   -7.3733099    297.61656  0.022343585  0.022119623            3 
 1111000   0.80173312   -7.3845186    297.86211  0.022341892  0.022104074            3 
 1112000   0.80186229   -7.3723732    297.89165  0.022324014  0.022088488            5 
 1113000    0.8161584   -7.3795108    297.41349  0.022268156  0.022073016            2 
 1114000   0.80369615   -7.3662865    298.20958  0.022307719  0.022057546            6 
 1115000   0.79394191   -7.3432835    298.61205  0.022317792  0.022042248            3 
 1116000   0.81271777   -7.3720051    298.56812  0.022294513  0.022026909            7 
 1117000   0.81120197    -7.388019    298.42208  0.022263659  0.022011604            2 
 1118000   0.82435582   -7.3892312    297.66876  0.022187594  0.021996202            5 
 1119000   0.80004942   -7.4264247    298.07893  0.022198312  0.021980776            6 
 1120000     0.791634   -7.4256614    298.57789  0.022215617  0.021965427            2 
 1121000   0.80782149   -7.3876566    298.91786  0.022221072  0.021950144            5 
 1122000   0.79473409   -7.3937928    299.13022  0.022217039  0.021935077            5 
 1123000   0.79273093   -7.4180751    298.74386  0.022168586   0.02191992            4 
 1124000   0.78826591   -7.3988154    298.75038  0.022149346  0.021904682            8 
 1125000    0.7925677   -7.4124481    299.30502  0.022170742  0.021889409            5 
 1126000   0.79215516    -7.442198    298.60054  0.022098915  0.021874111            5 
 1127000   0.81463656   -7.4091704    299.37753  0.022136759  0.021858815            3 
 1128000   0.79720202   -7.4074873    298.88999  0.022081117  0.021843589            4 
 1129000   0.81864881   -7.4033486    299.70035  0.022121372   0.02182837            3 
 1130000   0.81071404   -7.4211985     299.8371  0.022111881  0.021813126           13 
 1131000   0.80300264   -7.3869293    300.78798  0.022162392  0.021798057            3 
 1132000   0.79130128   -7.4023071     300.2281  0.022101597  0.021783033            3 
 1133000   0.80035639   -7.4308298    300.14933  0.022076296  0.021768027            5 
 1134000   0.78448606   -7.4066419    299.73821  0.022026618  0.021752916            6 
 1135000   0.81863563   -7.4353565    299.79187   0.02201115  0.021737711            5 
 1136000   0.81477406   -7.3937518    300.52881  0.022045834  0.021722596            5 
 1137000   0.78460115   -7.4337624    300.08617  0.021994002  0.021707523            8 
 1138000   0.78915593   -7.4425808    299.46648  0.021929297  0.021692313            3 
 1139000   0.80014867   -7.4190189    300.63731  0.021995706   0.02167714            7 
 1140000   0.79498423   -7.4043056    300.61533  0.021974805  0.021661977            8 
 1141000    0.8023591   -7.3985863    300.51906  0.021948515  0.021646991            4 
 1142000   0.80995218   -7.4174454    300.80377  0.021950071  0.021631976            3 
 1143000   0.79269389   -7.4318999    300.95242  0.021941705  0.021616838            3 
 1144000   0.80240144    -7.402767    301.43482  0.021957665  0.021601917            3 
 1145000   0.80404455   -7.4049376    301.63462  0.021953029  0.021586961            6 
 1146000    0.8011463    -7.395285    300.95337  0.021884335  0.021571989            5 
 1147000   0.80803939   -7.4036386    301.80122  0.021926854  0.021557041            4 
 1148000   0.81077092   -7.4124057    301.25397  0.021868029  0.021542036            3 
 1149000   0.80573593   -7.4185874    300.55755  0.021798488  0.021526973            7 
 1150000   0.80238649   -7.3993705    301.36648  0.021838151  0.021511967            4 
 1151000   0.79780221    -7.392329    301.63124  0.021838346  0.021496984            6 
 1152000   0.79309953   -7.3979524    301.40864  0.021803287  0.021482008            3 
 1153000   0.79512308   -7.4134133    301.32562  0.021778377  0.021467004            3 
 1154000   0.81629969   -7.4212277    301.22531  0.021752261  0.021451831            6 
 1155000   0.79651187   -7.3996743    301.68365  0.021766497  0.021436702            4 
 1156000   0.77717627   -7.4368043    301.44568  0.021730513   0.02142151            4 
 1157000   0.78733775    -7.424711    301.09469  0.021686451  0.021406301            7 
 1158000   0.77416199    -7.447784    300.71602  0.021640474  0.021391094            7 
 1159000   0.79485394   -7.4208453    301.49356  0.021677708  0.021375915            6 
 1160000   0.79006574   -7.4182326    301.79118  0.021680401  0.021360804            7 
 1161000   0.80603876   -7.4079205    302.11809  0.021685192  0.021345757            4 
 1162000   0.80237729    -7.413219    302.16219  0.021669692  0.021330713            4 
 1163000   0.78749782   -7.4224099    301.80107  0.021625184   0.02131574            5 
 1164000   0.78256686   -7.4490431    302.03316  0.021623222  0.021300748            3 
 1165000   0.77721192   -7.4190932    301.27107  0.021550148   0.02128567            5 
 1166000   0.80875836   -7.4038082    302.20448  0.021598376  0.021270626            4 
 1167000   0.79517067   -7.4119675    302.56686  0.021605745  0.021255554            7 
 1168000   0.78722221   -7.4381561     301.6213  0.021519784  0.021240506            4 
 1169000   0.79807667   -7.4030181     301.5476  0.021496122  0.021225349            8 
 1170000   0.77996253   -7.4365445    302.22825  0.021526228  0.021210254            4 
 1171000   0.79009515   -7.4576138    301.69962  0.021470226  0.021195088            5 
 1172000   0.78251249   -7.4563131     301.6106  0.021445577  0.021179886            8 
 1173000   0.78598241   -7.4430501    301.59791  0.021426393  0.021164647            5 
 1174000   0.76836402   -7.4587341    302.05478  0.021440572  0.021149431            6 
 1175000    0.7890536   -7.4476056    301.26281  0.021366156  0.021134181            2 
 1176000    0.7931382   -7.4405465    302.95908  0.021468189  0.021118948            4 
 1177000   0.76293154   -7.4278667     302.5472  0.021420787  0.021103812            2 
 1178000   0.77694094   -7.4129533     302.1991  0.021377978  0.021088837            6 
 1179000   0.78834978   -7.4488314     302.6889  0.021394466  0.021073878            4 
 1180000   0.77668078   -7.4094416    302.78436  0.021383076  0.021058884            4 
 1181000    0.7886255   -7.4458638    302.65404  0.021355775  0.021043875            2 
 1182000    0.7982832   -7.4465722    302.66696  0.021338618  0.021028815            7 
 1183000   0.77802348   -7.4471022    303.05525  0.021347933  0.021013713            4 
 1184000   0.78623817   -7.4737323    302.44423  0.021286897  0.020998587            6 
 1185000   0.76169644   -7.4406273    303.06622  0.021312674  0.020983466            5 
 1186000    0.7754585   -7.4558755    302.59513  0.021261603  0.020968387            6 
 1187000   0.78124234   -7.4822289    302.95885  0.021269226   0.02095331            7 
 1188000   0.78688569   -7.4760857    302.75721  0.021237178  0.020938343            3 
 1189000   0.77444756   -7.4659849     303.2161  0.021251479  0.020923448            5 
 1190000   0.78797058   -7.4392569    303.55219  0.021257156  0.020908544           11 
 1191000   0.76024691   -7.4456859    303.21796  0.021215922  0.020893662            3 
 1192000   0.80475293   -7.4441958    303.33063     0.021206  0.020878798            4 
 1193000    0.7939076   -7.4731734    303.37131  0.021191066  0.020863867            4 
 1194000   0.76256449   -7.5025812    303.61835   0.02119056  0.020848901            3 
 1195000    0.7768575    -7.480455    303.46832  0.021162365  0.020833989            4 
 1196000   0.79571003   -7.4525049    303.43238  0.021142167  0.020819156            3 
 1197000   0.79501864   -7.4716603    303.94568   0.02116024  0.020804314            4 
 1198000    0.7956418   -7.4501345    304.61452  0.021189101  0.020789639            3 
 1199000   0.76281138   -7.4624591    303.74609  0.021111071  0.020774862            5 
 1200000   0.78366556   -7.4840163    303.77858  0.021095735  0.020760051            4 
 1201000   0.76478304   -7.4580875     304.2734  0.021112504  0.020745302           11 
 1202000   0.75558579   -7.4588735    304.93555  0.021140845  0.020730635            6 
 1203000   0.76194981   -7.4818101    303.72298  0.021039275  0.020715878            4 
 1204000   0.78139566    -7.474217    303.69566   0.02101991   0.02070108            4 
 1205000   0.78771761   -7.4816158    304.43193  0.021053384  0.020686256            3 
 1206000   0.77144475   -7.4588868     304.1472  0.021016252  0.020671491            4 
 1207000   0.78931555   -7.4759056    304.14203  0.020998483   0.02065675            4 
 1208000   0.76497766    -7.508107    303.55644  0.020940704  0.020641914            6 
 1209000   0.78240315   -7.4756873    304.60237  0.020995477  0.020627096            3 
 1210000   0.76638408   -7.4794139    304.37988  0.020962802  0.020612293            3 
 1211000   0.77396211   -7.4707233    304.55198  0.020957334  0.020597512            3 
 1212000   0.77324888   -7.4948848     304.7131  0.020951121  0.020582818            4 
 1213000   0.76696127    -7.467065    304.71764  0.020934161   0.02056817            4 
 1214000    0.7514652   -7.4618511    305.27983  0.020955507  0.020553513            5 
 1215000   0.77962254   -7.4483235    305.02143  0.020920537  0.020538902            4 
 1216000   0.77288724   -7.4859963    305.41138  0.020930056  0.020524317            3 
 1217000   0.76196248   -7.4796778    305.53193  0.020921112  0.020509716            6 
 1218000   0.75438105   -7.4582951    306.23861  0.020952286  0.020495119            4 
 1219000   0.76904432   -7.4602216    305.61948  0.020892773  0.020480572            3 
 1220000   0.76740581   -7.4925004    305.35465  0.020857558  0.020466088            5 
 1221000   0.77407227   -7.4390795    305.73142   0.02086619  0.020451617            5 
 1222000    0.7755619   -7.4787907     305.7251  0.020848684  0.020437181            4 
 1223000    0.7711894   -7.4899959    305.97162  0.020848434  0.020422667            2 
 1224000   0.75408601   -7.5044825    305.56008  0.020803382  0.020408216            5 
 1225000   0.75971584   -7.4579989    306.53266  0.020852562  0.020393787            3 
 1226000   0.75854988   -7.4855262    305.74946  0.020782318  0.020379376            4 
 1227000   0.76405853   -7.4757152    306.77018  0.020834704  0.020365039            7 
 1228000   0.75882608   -7.4851811    306.55016  0.020802807    0.0203507            3 
 1229000   0.76421725   -7.4832725    307.11806  0.020824387   0.02033647            9 
 1230000   0.74945583   -7.4944351    306.42728  0.020760656  0.020322162            6 
 1231000    0.7531752   -7.4972615    306.46968  0.020746661  0.020307854            4 
 1232000   0.75616261   -7.4994539    306.79653   0.02075193  0.020293499            5 
 1233000   0.76237177   -7.4829195    306.78238  0.020734143  0.020279259            3 
 1234000   0.76504117   -7.4678476    307.11943  0.020740102  0.020264969            6 
 1235000   0.74992126   -7.5039468    306.58104   0.02068698  0.020250625            6 
 1236000    0.7733594   -7.4928653    307.55743  0.020736073  0.020236321            3 
 1237000   0.74815044   -7.5116972     306.7361  0.020663979  0.020222074            3 
 1238000   0.76307643   -7.5276153    306.80246  0.020651754  0.020207769            5 
 1239000   0.75227808   -7.4830988     306.3296  0.020603282   0.02019342            7 
 1240000    0.7791528   -7.5015876    306.82725  0.020620111  0.020179066            2 
 1241000   0.75847953    -7.506763    306.74349  0.020597871  0.020164768            5 
 1242000   0.76439033   -7.4935572     307.3992  0.020625282   0.02015047           17 
 1243000   0.76826313   -7.4815953    307.18896  0.020594594  0.020136225            8 
 1244000   0.76732464   -7.4993741    307.63647  0.020608016  0.020121942            7 
 1245000   0.75668004   -7.5372563    306.94341  0.020545075  0.020107656            5 
 1246000    0.7645757   -7.5291484    306.85081  0.020522393  0.020093378            5 
 1247000   0.75799766   -7.4972816    306.76316  0.020500078  0.020079086            4 
 1248000   0.76528761   -7.5048953     307.0686  0.020504046  0.020064907            4 
 1249000   0.74425101   -7.4946401    308.08401  0.020555378  0.020050719            3 
 1250000   0.74990773    -7.491818    307.32957  0.020488638  0.020036627           11 
 1251000   0.75380061   -7.5215296    307.25574  0.020467342  0.020022461            4 
 1252000   0.75016124   -7.5048804    307.24675  0.020450396  0.020008281            3 
 1253000   0.75074186   -7.5293899     307.3137  0.020438527  0.019994037            3 
 1254000   0.74171488    -7.504628    307.78597  0.020453613  0.019979761            5 
 1255000   0.76047944   -7.5195402    307.76898  0.020436187  0.019965552            7 
 1256000    0.7380642   -7.5553751    307.04689  0.020372007  0.019951275            5 
 1257000   0.74651607   -7.5260962    308.19634  0.020432003  0.019937015            4 
 1258000   0.74714487   -7.4853507    308.36068  0.020426648  0.019922903            4 
 1259000   0.76910798   -7.4854078    308.01785  0.020387732  0.019908782            3 
 1260000   0.75600368   -7.5058469    307.38029  0.020329384  0.019894661            9 
 1261000   0.73297664   -7.5070172    307.30963  0.020308593  0.019880512            4 
 1262000   0.73703428   -7.5206382    308.20894  0.020351885  0.019866366            3 
 1263000   0.73845809   -7.5219569    308.37245  0.020346559  0.019852301            6 
 1264000   0.73592935   -7.5246247    308.53464  0.020341155  0.019838217            4 
 1265000   0.74895724   -7.5127499    308.54338  0.020325651  0.019824121            7 
 1266000   0.76868413   -7.5368642    307.73026  0.020256073  0.019810036            4 
 1267000   0.74788482   -7.5339167    308.44819  0.020287305  0.019795889            5 
 1268000   0.75385399   -7.5377015      308.192  0.020254469  0.019781718            7 
 1269000   0.73283028   -7.5252954    308.29594  0.020245334  0.019767595            5 
 1270000     0.746119   -7.5057575    308.29278  0.020229185  0.019753516            7 
 1271000   0.76107326   -7.5450366    307.98038  0.020192786  0.019739415            9 
 1272000   0.76546171    -7.524938    308.87491  0.020235515  0.019725283            6 
 1273000   0.74846389   -7.5271047     308.3011  0.020182057  0.019711172            5 
 1274000     0.753361   -7.5368804    308.70108  0.020192378  0.019696969            6 
 1275000   0.74530894   -7.5299028    307.83849  0.020120163  0.019682806            6 
 1276000   0.74612221   -7.5512801    308.07749  0.020120003  0.019668656            9 
 1277000   0.74816799   -7.5690244    308.51078  0.020132523  0.019654524            5 
 1278000   0.76236713   -7.5334062    308.35718  0.020106754  0.019640375            7 
 1279000   0.74431258   -7.5433352    308.37299  0.020092063  0.019626184            3 
 1280000   0.74759604   -7.5367075     308.4596  0.020082005  0.019612002            5 
 1281000   0.74700321   -7.5537773    308.39984  0.020062441  0.019597774            2 
 1282000   0.74946609   -7.5156024    309.35103  0.020108621  0.019583668            3 
 1283000   0.73355304   -7.5480812    307.41336  0.019967093  0.019569535            5 
 1284000   0.72837361    -7.550697    308.84517  0.020044468  0.019555376            9 
 1285000   0.74320323   -7.5338276    308.39427  0.019999628  0.019541186            9 
 1286000   0.73941416   -7.5328372    308.91802  0.020018016  0.019527079            8 
 1287000   0.73614169   -7.5285664    308.82988  0.019996755  0.019512983            2 
 1288000   0.72231936   -7.5637556    308.32113  0.019948313  0.019498782            8 
 1289000   0.72765662   -7.5401824    308.21094  0.019925714  0.019484624            9 
 1290000   0.73818712   -7.5336401    309.00483  0.019961553  0.019470526           13 
 1291000   0.75360227   -7.5241806    308.95159  0.019942653  0.019456453            7 
 1292000   0.74517178    -7.511696    308.43287  0.019893761  0.019442417            4 
 1293000    0.7401065   -7.5567084    308.96356  0.019912578  0.019428419            8 
 1294000   0.75554021    -7.561589    309.06101  0.019903465  0.019414393            6 
 1295000   0.72435395    -7.527173    308.96346  0.019881819   0.01940048            9 
 1296000   0.74716282   -7.5741588    310.20214  0.019946125  0.019386603            6 
 1297000   0.72373994   -7.5425262    309.33125  0.019874791  0.019372695            8 
 1298000   0.71538742   -7.5469834    309.53574  0.019872608  0.019358832           23 
 1299000   0.74702097   -7.5330478     309.9892    0.0198864  0.019345012            6 
 1300000   0.71720176   -7.5485845    310.38776  0.019896651  0.019331196            7 
 1301000   0.73816573   -7.5385575       309.71  0.019837945  0.019317368            6 
 1302000    0.7113726   -7.5705741    309.91227  0.019835655  0.019303543            6 
 1303000   0.73083688   -7.5598163    309.91629  0.019820689  0.019289687           12 
 1304000   0.72031404   -7.5564547    309.98742  0.019810035  0.019275845            5 
 1305000   0.74866827   -7.5567545    309.68281  0.019775403  0.019262044            7 
 1306000   0.72513948   -7.5430103     309.4289   0.01974406   0.01924819            5 
 1307000   0.72501228   -7.5409744    310.08719  0.019770925  0.019234336            5 
 1308000   0.72121254   -7.5517489    310.11485  0.019757572  0.019220458            4 
 1309000   0.73195166   -7.5637283    310.22113  0.019749245  0.019206615            3 
 1310000   0.72961444    -7.558125     310.0203  0.019721393  0.019192915            7 
 1311000   0.71934772   -7.5682405    310.36655  0.019728359  0.019179153            5 
 1312000   0.74801117   -7.5632074    310.68019  0.019733244    0.0191654            7 
 1313000   0.73911146    -7.562628    310.44616  0.019703361  0.019151688            5 
 1314000   0.73261658   -7.5542181    310.87427  0.019715517  0.019138035           11 
 1315000   0.72150861   -7.5590666    311.03051  0.019710425  0.019124401            8 
 1316000   0.73350578   -7.5787344    311.03631  0.019695815  0.019110745            6 
 1317000   0.72480144   -7.5506953    310.74437  0.019662387  0.019097165            7 
 1318000   0.72128623   -7.5422638    310.44489  0.019628534  0.019083545            4 
 1319000   0.72781452   -7.5638844    310.32051  0.019605794  0.019069911            3 
 1320000   0.74692837   -7.6084805    310.74446  0.019617706  0.019056285            3 
 1321000   0.74033238   -7.5822795    311.66667  0.019661031  0.019042669           11 
 1322000   0.72854132    -7.579454    311.19295  0.019616298  0.019029052            4 
 1323000     0.720201   -7.5622673    310.61261  0.019564916  0.019015455            3 
 1324000    0.7429095   -7.5667328     310.4359  0.019539017  0.019001837            6 
 1325000    0.7339972   -7.5687376    310.99547  0.019559463  0.018988224            5 
 1326000   0.72584709   -7.5808045    310.92072  0.019540015  0.018974598            3 
 1327000    0.7226494   -7.5615453    310.95476  0.019527428  0.018961006           13 
 1328000   0.72226647     -7.60942    311.44569   0.01954353   0.01894745            4 
 1329000   0.72359415   -7.5782713    310.93346  0.019496706  0.018933843           14 
 1330000   0.71209687   -7.6040875    310.87129  0.019478151  0.018920248            4 
 1331000   0.72860651    -7.609399    311.55995  0.019506634  0.018906668            6 
 1332000   0.72860862   -7.5698129    311.89042  0.019512664  0.018893132            4 
 1333000   0.71136963   -7.5901316    311.88693  0.019497808  0.018879714            9 
 1334000   0.72815984   -7.5692347    311.63355  0.019467363  0.018866253            7 
 1335000   0.73269686   -7.5646192    311.71431  0.019457822  0.018852798            3 
 1336000   0.71772921   -7.5804141    311.90598  0.019455213  0.018839397            6 
 1337000    0.7173307   -7.5814023    311.43874   0.01941154  0.018825975            4 
 1338000   0.70266163   -7.5615977    311.84796  0.019422519  0.018812556            4 
 1339000   0.72791567   -7.5622657     311.9445  0.019414022  0.018799167            5 
 1340000   0.71682031    -7.583226    312.34375  0.019424362  0.018785806            4 
 1341000    0.7099145   -7.5797115    312.17258   0.01939924  0.018772401           20 
 1342000   0.71044821   -7.5751028    312.28082  0.019391506  0.018759039           11 
 1343000   0.70222078   -7.5712275    312.47561  0.019389154  0.018745687            6 
 1344000   0.72092835   -7.6026244    312.55047  0.019379369  0.018732365            9 
 1345000   0.72449087   -7.6019322    312.20408  0.019343499  0.018719031            4 
 1346000    0.7099091   -7.5909967    312.22477  0.019330409  0.018705681            4 
 1347000   0.70708552   -7.6005285    312.54574  0.019335916   0.01869235            5 
 1348000   0.73263096   -7.6020989    311.97835  0.019286496  0.018679009            3 
 1349000     0.715541   -7.6038736    312.78676  0.019322137  0.018665684            5 
 1350000   0.71687099   -7.5870808    312.12316  0.019266862  0.018652304            5 
 1351000   0.71223421   -7.5993625    312.08535  0.019250268  0.018638936           10 
 1352000   0.71560056   -7.5975482    311.56548  0.019203987  0.018625566           15 
 1353000    0.7224014   -7.6011822     312.6943  0.019259319  0.018612211            5 
 1354000   0.68752519   -7.5910016    312.16945  0.019212792  0.018598851            4 
 1355000   0.71080575   -7.6072477     312.3692  0.019210898   0.01858549            4 
 1356000   0.71395912   -7.5959837    311.98049  0.019172842  0.018572119            4 
 1357000   0.72208972   -7.6256978    312.29531  0.019178047   0.01855876            4 
 1358000   0.72367064   -7.6025067    312.67613  0.019187293  0.018545399            5 
 1359000   0.70704406   -7.5992903    312.19953   0.01914395   0.01853211            8 
 1360000   0.71171872    -7.613779    311.84999  0.019108455  0.018518815           11 
 1361000   0.70777813   -7.6005566    312.58421  0.019139371  0.018505498            6 
 1362000   0.69346408   -7.6266495    312.34123  0.019110452  0.018492182            3 
 1363000   0.71878811   -7.5999205    312.45316  0.019103274  0.018478786            5 
 1364000   0.70161201   -7.6018097    312.84307  0.019113091   0.01846543            6 
 1365000   0.70027607   -7.6090775    312.28484  0.019065009  0.018452091            7 
 1366000   0.69246515   -7.5675107     312.1281   0.01904149  0.018438708            9 
 1367000    0.7128495   -7.6010221    312.17099  0.019030175   0.01842535            5 
 1368000   0.72091002   -7.5961263    312.54164  0.019038843  0.018411997            6 
 1369000   0.69535832   -7.6011386    312.18812  0.019003416  0.018398629            7 
 1370000    0.6993567   -7.6106779    312.21233  0.018991018   0.01838528            6 
 1371000   0.70632682   -7.6113884    312.29282  0.018982058  0.018371961           10 
 1372000   0.71130455    -7.619604    311.95415  0.018947652  0.018358663            6 
 1373000   0.71047029   -7.5994781     312.7315  0.018981033  0.018345412           10 
 1374000    0.7265292   -7.6198222    312.75741   0.01896879  0.018332127            4 
 1375000   0.70746019   -7.6270123    313.14068  0.018978223  0.018318913            4 
 1376000    0.7010041   -7.6185986    312.64044  0.018934135  0.018305726            6 
 1377000   0.70605784   -7.5925124    312.32896  0.018901535   0.01829251           11 
 1378000    0.6967478   -7.6294877    312.27336  0.018884456  0.018279272            6 
 1379000   0.70966536   -7.6302767    312.71722  0.018897584  0.018266018            9 
 1380000   0.69488428   -7.6369235    313.12068  0.018908254  0.018252795            6 
 1381000   0.70163129   -7.6176916    312.86735  0.018879276  0.018239604           12 
 1382000   0.69875286   -7.6248525    313.14176  0.018882161  0.018226435            4 
 1383000   0.70196878   -7.6195631    312.96315  0.018857746  0.018213269            5 
 1384000   0.70196139   -7.6211517    312.58846  0.018821559  0.018200042            4 
 1385000   0.71870824   -7.5999643    312.74024  0.018817102  0.018186841            4 
 1386000   0.70173921   -7.6180314    312.48212  0.018788006  0.018173638            6 
 1387000   0.69479117   -7.6101015    313.44276  0.018832177  0.018160432            8 
 1388000   0.70359172   -7.6375802    312.18345  0.018743002  0.018147192            4 
 1389000   0.68528311   -7.6334524    312.40065  0.018742539  0.018133942            9 
 1390000   0.69467696   -7.6250513    312.61561  0.018741943  0.018120673            7 
 1391000   0.70062385   -7.6261098    312.46348  0.018719355  0.018107436            5 
 1392000   0.70106121   -7.6496047    312.54049  0.018710518   0.01809423            6 
 1393000   0.70006847   -7.6401538    312.34741  0.018685535  0.018080978            7 
 1394000   0.69629307   -7.6310448    312.76805  0.018697277  0.018067728            9 
 1395000   0.69860733   -7.6478995    312.91273  0.018692517  0.018054555            7 
 1396000   0.69852764   -7.6330423    313.15301   0.01869347  0.018041373            8 
 1397000   0.70028133   -7.6705719    312.82269  0.018660385  0.018028182            4 
 1398000   0.70154801   -7.6299531    312.75987  0.018643292   0.01801498            5 
 1399000   0.68672565   -7.6397239    313.42357    0.0186695  0.018001793            5 
 1400000   0.67870603   -7.6574442    313.46059  0.018658369  0.017988637            3 
 1401000   0.70063399   -7.6296033     312.9449  0.018614377  0.017975503            3 
 1402000   0.70566711   -7.6424295    313.20945  0.018616824  0.017962376            6 
 1403000   0.70697151   -7.6214507    313.25929  0.018606515  0.017949258            4 
 1404000   0.68894165   -7.6370732    312.74445  0.018562705  0.017936147            4 
 1405000    0.6977159   -7.6617887    312.82324  0.018554166  0.017923003            4 
 1406000   0.69091905   -7.6637167    313.22972  0.018565062  0.017909811            4 
 1407000   0.69197456   -7.6352605    313.44371  0.018564541  0.017896726            4 
 1408000   0.69365839   -7.6172454    313.69129  0.018566009  0.017883649            5 
 1409000   0.69767529   -7.6546195    313.38065   0.01853446  0.017870568            2 
 1410000    0.7081804   -7.6438944    313.15204  0.018507804   0.01785746            8 
 1411000   0.67534877   -7.6870972    312.86386  0.018477667  0.017844352            4 
 1412000   0.69251475    -7.646726    312.77019  0.018459053  0.017831256            4 
 1413000   0.68800057     -7.67808    313.21253  0.018472076  0.017818186            9 
 1414000   0.69347082   -7.6708762    313.82894  0.018495341  0.017805112            6 
 1415000   0.68323843   -7.6616273    313.92775  0.018488089  0.017792029            6 
 1416000    0.6871893   -7.6562132    313.46671    0.0184479  0.017778987            4 
 1417000   0.69993273   -7.6647596    313.74686  0.018451356  0.017765936           13 
 1418000    0.6897758   -7.6899795    313.79693  0.018441286  0.017752882            8 
 1419000   0.68720997   -7.6852662    313.61071  0.018417355  0.017739838            4 
 1420000   0.69516621   -7.6695562    314.32437  0.018446266   0.01772683           11 
 1421000   0.69198437   -7.6664794    313.96947  0.018412472  0.017713845            5 
 1422000   0.70329598   -7.6666538    313.91753   0.01839648  0.017700849            8 
 1423000   0.68339089    -7.660314    313.09492  0.018335378  0.017687895           10 
 1424000   0.67427911   -7.6986411    313.33232  0.018336395  0.017674917            8 
 1425000   0.67821386   -7.6804167    313.36394  0.018325377  0.017661932            8 
 1426000   0.69253555   -7.6844644    313.59045  0.018325762  0.017648962           10 
 1427000    0.6862882   -7.6701146    313.67171  0.018317666  0.017636011           11 
 1428000   0.67691162   -7.6628994    314.15323  0.018332938  0.017623084           10 
 1429000   0.69250878   -7.6705731    313.36648  0.018274229   0.01761015           11 
 1430000   0.68185844   -7.6841994    313.47943  0.018268032  0.017597185            9 
 1431000   0.68056722   -7.6996273    313.47386  0.018254942  0.017584215           12 
 1432000   0.67302938   -7.7069779    314.12828  0.018280277  0.017571262           12 
 1433000   0.67165881   -7.6759145    314.06533   0.01826386  0.017558322            9 
 1434000   0.67216878   -7.6659913    313.82495  0.018237154  0.017545374            5 
 1435000   0.67648685   -7.6701436    314.05956   0.01823807  0.017532432            5 
 1436000   0.67069559    -7.663124    314.34501  0.018241934  0.017519544            6 
 1437000   0.66776101     -7.67435    313.91663  0.018204398  0.017506622            3 
 1438000   0.66837317   -7.6809476    313.78567  0.018184149  0.017493708            9 
 1439000   0.68532876   -7.6868808     313.6025  0.018160905  0.017480831           20 
 1440000   0.68281474    -7.702709    314.31941  0.018189781  0.017467982            4 
 1441000   0.67603981   -7.6990919     313.8972  0.018152741  0.017455087            4 
 1442000   0.67946872   -7.6996271    313.81311  0.018135293  0.017442205            5 
 1443000   0.68292398   -7.6810572    314.19764  0.018144932   0.01742936            3 
 1444000     0.675423   -7.7106184    313.88351  0.018114237   0.01741655            3 
 1445000   0.67220491   -7.7004674    314.00245  0.018108561  0.017403704            6 
 1446000   0.67109877   -7.7193904     313.7157  0.018079513  0.017390868            6 
 1447000    0.6717141   -7.7241284    313.37196  0.018047222  0.017378053            5 
 1448000   0.67592091   -7.6914149    313.52937  0.018043817  0.017365206            4 
 1449000   0.67393234   -7.7028692    313.54525  0.018032278  0.017352369            5 
 1450000   0.67946955   -7.6912071    313.87221  0.018038633  0.017339576           10 
 1451000   0.67947103   -7.6991031    313.74698  0.018019008  0.017326764            8 
 1452000    0.6606536   -7.6748042    314.94705  0.018075473  0.017313941            6 
 1453000   0.68701777   -7.7420649    313.67382   0.01799001  0.017301133            7 
 1454000   0.66919516    -7.709558    314.19185  0.018007328  0.017288364            5 
 1455000   0.67631815    -7.698663    313.53611  0.017957394  0.017275574            8 
 1456000   0.67300332   -7.7184106    314.32654  0.017990301  0.017262796            5 
 1457000   0.67287811   -7.7206487    313.82196  0.017949094  0.017249982            9 
 1458000   0.65267533   -7.7324853    313.82562  0.017936993  0.017237173           11 
 1459000   0.68529983   -7.7102049    314.33864     0.017954  0.017224361            7 
 1460000   0.67057781   -7.7324431    314.04569  0.017924982  0.017211555            7 
 1461000   0.66240853   -7.7171367    314.10868  0.017916306  0.017198794            8 
 1462000   0.67806345   -7.7067931    313.83909  0.017888685  0.017186019            9 
 1463000   0.67541557   -7.7165118    314.35256  0.017905705  0.017173233            7 
 1464000   0.66428263   -7.7101929    313.97387  0.017871919  0.017160438            4 
 1465000   0.66692759   -7.6986376    313.96527   0.01785923   0.01714765            9 
 1466000   0.67164978   -7.7087412    314.27607  0.017864715  0.017134884            9 
 1467000   0.65387841   -7.6890139    313.78348  0.017824556  0.017122117            4 
 1468000   0.66500667   -7.7177342    313.71677  0.017808627  0.017109361            6 
 1469000   0.65775774   -7.6886321      314.723  0.017853585  0.017096608            6 
 1470000    0.6687542   -7.7236125    313.77568  0.017787737  0.017083887            6 
 1471000    0.6655901   -7.7212855    314.02641  0.017789849  0.017071177            8 
 1472000   0.67124467   -7.7288617    314.57008  0.017808542   0.01705846            9 
 1473000   0.65780363   -7.7276278    314.14485  0.017772395  0.017045752            6 
 1474000   0.65979568   -7.7237941    313.79509  0.017740564  0.017033032            6 
 1475000   0.68140815   -7.7206563    314.00423  0.017740352  0.017020288            5 
 1476000   0.65868834   -7.7384265    313.36088   0.01769201  0.017007556            3 
 1477000   0.66243914   -7.7235137    313.94057  0.017712738  0.016994822            4 
 1478000   0.66680369   -7.7133237    313.95113  0.017701349  0.016982068            3 
 1479000   0.67511223   -7.7053004    313.90243  0.017686637  0.016969336            7 
 1480000   0.66308257   -7.7373205     313.9711  0.017678553  0.016956605            5 
 1481000   0.67863989   -7.7380207    313.48294  0.017639148  0.016943856            7 
 1482000   0.66215868   -7.7535099    313.49879  0.017628137  0.016931103           19 
 1483000   0.65798939   -7.7188886    314.02981  0.017646089  0.016918392            5 
 1484000   0.65577932   -7.7137958    314.52125  0.017661795  0.016905679            6 
 1485000   0.66591609   -7.7288978    314.14026  0.017628522  0.016893019            7 
 1486000   0.66385483   -7.7202778    314.49999  0.017636832  0.016880349            6 
 1487000   0.66386535   -7.7386339    314.63373  0.017632467  0.016867693            9 
 1488000    0.6622633   -7.7153602    314.26777  0.017600122  0.016855034           14 
 1489000   0.66078874   -7.7230902      314.353  0.017593071  0.016842372           11 
 1490000    0.6560319   -7.7132074    314.75092  0.017603519  0.016829779            4 
 1491000   0.65427212   -7.7129457     313.9875  0.017549044  0.016817208            4 
 1492000   0.66606217   -7.7012545    314.30579   0.01755506  0.016804635            5 
 1493000   0.64013392   -7.7265528    314.18628  0.017536631  0.016792087            6 
 1494000   0.67034983   -7.7077908    314.23135  0.017527407  0.016779502            6 
 1495000   0.66014879   -7.7080624    314.33179  0.017521282  0.016766923           13 
 1496000   0.66167901   -7.7253145    313.79356  0.017479588   0.01675435            6 
 1497000   0.65459474    -7.702022    314.53479  0.017509173  0.016741731            6 
 1498000   0.63358023   -7.7188034    314.44521  0.017492502  0.016729156            8 
 1499000   0.66410488   -7.7086543    314.54289  0.017486262  0.016716608            6 
 1500000   0.66170834   -7.7319681    313.78754  0.017432641  0.016704055            6 
 1501000   0.66717291   -7.7170742    314.90462  0.017483046  0.016691541            5 
 1502000   0.66702702   -7.7384482    313.82966  0.017411766  0.016678995            5 
 1503000   0.66787798   -7.7275154     314.2936  0.017425904  0.016666436            4 
 1504000   0.66211151   -7.7404855    314.35938  0.017417962  0.016653879           16 
 1505000   0.65669635   -7.7530241    314.10691  0.017392409  0.016641313            8 
 1506000   0.65648511   -7.7390145    314.09441  0.017380169  0.016628715            8 
 1507000   0.64117688   -7.7277842    313.55675  0.017338905  0.016616119           10 
 1508000   0.65879531   -7.7220956    313.96313  0.017349863  0.016603512            7 
 1509000   0.65989695   -7.7482173    313.84327  0.017331746  0.016590907            4 
 1510000   0.65520795    -7.734691    313.80231  0.017318008  0.016578295            7 
 1511000    0.6550542   -7.7342552    314.31632  0.017334895   0.01656569           15 
 1512000   0.62525671   -7.7481245    312.99286  0.017250488  0.016553139            5 
 1513000   0.63936526   -7.7716818    313.10538  0.017245284  0.016540531            7 
 1514000   0.65085614   -7.7501504    313.99251  0.017282723  0.016527936            9 
 1515000    0.6490736   -7.7476851    313.39338   0.01723836  0.016515328            4 
 1516000   0.64134162   -7.7433337    314.06999  0.017264181  0.016502754            8 
 1517000   0.64003304   -7.7549457    313.79612  0.017237756  0.016490216            6 
 1518000   0.65489125   -7.7380718    313.83823  0.017228713  0.016477692            6 
 1519000   0.64114473   -7.7137888    313.81037  0.017215842   0.01646516            8 
 1520000   0.64712237   -7.7243472    313.85137  0.017206764  0.016452623            5 
 1521000   0.64628449   -7.7428827    313.28661  0.017164508  0.016440048            4 
 1522000   0.64608924   -7.7573615    313.37048  0.017157823  0.016427507            5 
 1523000   0.62971968   -7.7259853    313.54198  0.017155941  0.016414998            6 
 1524000   0.63583422   -7.7657382    313.41521  0.017137752  0.016402476            4 
 1525000   0.64340377   -7.7439823    313.97654  0.017157188  0.016389948            8 
 1526000   0.64122778   -7.7486359    313.81901  0.017137342  0.016377475            6 
 1527000    0.6360802   -7.7402084    313.45992  0.017106523  0.016365039            3 
 1528000   0.64277953   -7.7603556    313.66801  0.017106676  0.016352614            5 
 1529000   0.66213886   -7.7331927    313.87463  0.017106749  0.016340205            6 
 1530000   0.63916984   -7.7310997    314.06726   0.01710606  0.016327743            4 
 1531000   0.62820723   -7.7926876    313.99541  0.017090976  0.016315297            5 
 1532000   0.65878132   -7.7703486    314.00192  0.017080174  0.016302847            5 
 1533000    0.6343775    -7.763562     313.6556  0.017050207  0.016290403           11 
 1534000   0.64053101    -7.747232    314.00173  0.017057895  0.016278009            7 
 1535000   0.63984617   -7.7694489    314.31613  0.017063851  0.016265601            6 
 1536000   0.62848319    -7.766124    314.15658  0.017044085  0.016253189           14 
 1537000   0.63423704   -7.7595159    314.12371  0.017031214  0.016240754           10 
 1538000   0.63104519   -7.7646572     314.0789  0.017017712  0.016228364            5 
 1539000   0.65023679   -7.7841445    314.17839  0.017012042  0.016215938            8 
 1540000   0.63915274   -7.7728347    313.60518  0.016969977  0.016203531            8 
 1541000   0.63896333   -7.7692441    313.62264  0.016959909   0.01619112            9 
 1542000   0.63739074   -7.7757473     313.7611  0.016956393  0.016178706            8 
 1543000   0.63380051   -7.7487914    313.57473  0.016935339  0.016166302            9 
 1544000    0.6352832   -7.7738313    313.03524  0.016895253  0.016153907            4 
 1545000   0.64098884   -7.7854614    313.63519  0.016916677  0.016141517            6 
 1546000   0.63906873   -7.7703474    314.38273  0.016946029  0.016129163            7 
 1547000   0.63947917   -7.7833073    313.59693  0.016892746  0.016116797            5 
 1548000   0.63588019   -7.7672214    313.22247  0.016861675  0.016104453            4 
 1549000   0.65847734   -7.7843897    313.27662  0.016853703  0.016092087            7 
 1550000    0.6254982    -7.788568    313.79811  0.016870866  0.016079714            4 
 1551000    0.6311836   -7.8007231    313.62158  0.016850504  0.016067345            5 
 1552000   0.62014334   -7.7999612    314.33681   0.01687805  0.016055002            5 
 1553000   0.61534071   -7.7847704    313.40794  0.016817339  0.016042634           10 
 1554000    0.6351645   -7.7922517    313.37967  0.016805001  0.016030302            4 
 1555000   0.62139444   -7.7843553    312.96363  0.016771899  0.016017952            7 
 1556000   0.63417326   -7.7897549    313.12178   0.01676959  0.016005636            7 
 1557000   0.63678974   -7.7827519     313.7749  0.016793775  0.015993328            6 
 1558000   0.64621053   -7.8064582     313.6886  0.016778381  0.015981062            6 
 1559000    0.6310374   -7.7826154    313.91605  0.016779776  0.015968763            5 
 1560000    0.6364516   -7.8157752    313.19525  0.016730516  0.015956464            5 
 1561000   0.62375734   -7.7952659    314.32975  0.016780363  0.015944145           12 
 1562000   0.63166281   -7.7930412    313.23406  0.016711164  0.015931852            5 
 1563000   0.62253506   -7.8041717    313.47714  0.016713433  0.015919568            8 
 1564000   0.62172078   -7.8001544    313.65482  0.016712213  0.015907294            4 
 1565000   0.63230573   -7.8020579    313.27961  0.016681555  0.015895011            4 
 1566000   0.62449499   -7.8042698    313.50924  0.016683122  0.015882767            4 
 1567000   0.60973444   -7.8092837    314.16275   0.01670723   0.01587052            5 
 1568000   0.63637119   -7.8071103    313.57749   0.01666547  0.015858266           10 
 1569000   0.62554086   -7.8061391    312.66775   0.01660653  0.015846028            5 
 1570000   0.63326137   -7.8073861    313.39511   0.01663456  0.015833836            9 
 1571000   0.62821014   -7.8110091    313.63173  0.016636523  0.015821626            5 
 1572000   0.62774051   -7.7917865    313.81994  0.016635917  0.015809432            4 
 1573000   0.62752742   -7.7790451     313.7427  0.016621249  0.015797273            6 
 1574000   0.60687812   -7.7774994    313.76471  0.016611855  0.015785126            5 
 1575000   0.62326118   -7.8196634    313.60883   0.01659306  0.015772967           10 
 1576000   0.61494232   -7.8218324    313.81359  0.016593358  0.015760821            8 
 1577000   0.60844975   -7.8051845    313.55445  0.016569142  0.015748705            9 
 1578000   0.62443084   -7.7884502    314.29596  0.016597801  0.015736606            5 
 1579000   0.63030283   -7.7910933    314.16956  0.016580618  0.015724528            8 
 1580000   0.62643004   -7.7719533    314.29254  0.016576611  0.015712473            6 
 1581000   0.62583043   -7.7793185    313.99385  0.016550382  0.015700447            4 
 1582000   0.61503006   -7.7854843    313.69101  0.016523968  0.015688418            8 
 1583000   0.62831412   -7.8268118    313.84762  0.016521774  0.015676406           18 
 1584000   0.62478239    -7.820664    314.53737  0.016547631  0.015664369           11 
 1585000   0.63125509   -7.8228746    313.70977  0.016493679  0.015652335            6 
 1586000   0.61892532   -7.8024031    313.72717  0.016484193  0.015640292            7 
 1587000    0.6209011   -7.8374752    314.37991  0.016508082  0.015628286            6 
 1588000   0.62657662   -7.7898746    314.12843   0.01648449  0.015616324            5 
 1589000   0.62233837   -7.7897015    314.01107   0.01646796  0.015604369            5 
 1590000   0.61633261   -7.8028276    314.20348  0.016467688  0.015592408            6 
 1591000   0.61582303   -7.8173981    313.70153  0.016431046  0.015580437            6 
 1592000   0.61873068   -7.8209921    313.51177  0.016410792  0.015568444            9 
 1593000   0.63967911   -7.8032985    313.44266  0.016396875  0.015556466            5 
 1594000   0.62338931   -7.8093207    313.70873  0.016400498  0.015544468            6 
 1595000   0.62840599   -7.8207289    313.43277  0.016375798  0.015532472           11 
 1596000   0.61124296   -7.8274771     313.4481  0.016366338  0.015520465            9 
 1597000   0.61406213   -7.8248809    313.38097  0.016352587  0.015508496            8 
 1598000   0.63192216   -7.8273288    313.67443  0.016357657  0.015496514            7 
 1599000   0.61271853   -7.8375097    313.81315  0.016354656   0.01548454            8 
 1600000    0.6128145   -7.8293692    313.18076  0.016311498  0.015472584            7 
 1601000   0.61961041   -7.7985586    313.85795  0.016336558   0.01546064            9 
 1602000   0.62289829   -7.8402515    313.98181  0.016332803  0.015448706            4 
 1603000   0.61641958   -7.8011009    313.80672  0.016313512    0.0154368           15 
 1604000   0.59877935   -7.8220666    313.71749  0.016298706  0.015424892           18 
 1605000   0.61054494    -7.820256    314.25515  0.016316467  0.015412992           15 
 1606000    0.6089483   -7.8089381    313.73111  0.016279115  0.015401129           13 
 1607000   0.61234966   -7.8150287    313.67472  0.016266061   0.01538924           10 
 1608000   0.61598226   -7.8458921    314.07153   0.01627651  0.015377365            8 
 1609000   0.60225865   -7.8249408    313.62894  0.016243471   0.01536547           13 
 1610000   0.60636457   -7.8428319      313.624  0.016233126  0.015353606           16 
 1611000   0.61007255   -7.8140315    314.05535  0.016245363  0.015341769           17 
 1612000   0.61408513   -7.8356698    313.99668  0.016232252  0.015329939            7 
 1613000   0.60842731    -7.837759    313.49256  0.016196144  0.015318106           12 
 1614000    0.5921492   -7.8280533    314.11206  0.016218095  0.015306281            5 
 1615000   0.61009144   -7.8286799    314.21071  0.016213143  0.015294444           15 
 1616000   0.61149433   -7.8483104     313.8104  0.016182467   0.01528264           10 
 1617000   0.62585642   -7.8344561    313.44971  0.016153871  0.015270824           11 
 1618000   0.59861724   -7.8541345     313.8196  0.016162938   0.01525902           10 
 1619000   0.61275939   -7.8558044    313.96629  0.016160505  0.015247214            5 
 1620000   0.61973545   -7.8631068    313.60722  0.016132059  0.015235429            9 
 1621000   0.60845334   -7.8416521    313.35244  0.016109009  0.015223649            8 
 1622000   0.60218139   -7.8468657    313.62638  0.016113151  0.015211889            9 
 1623000   0.59970131   -7.8319795    313.41783  0.016092516  0.015200115            5 
 1624000   0.60332232   -7.8704713    313.31931  0.016077551  0.015188351           14 
 1625000   0.61031565   -7.8371513    314.06238  0.016105763  0.015176586            6 
 1626000   0.60200106   -7.8466177    313.24075  0.016053749  0.015164846            5 
 1627000   0.60182462   -7.8339772    313.57879  0.016061196  0.015153089            8 
 1628000   0.60736462   -7.8515434    314.12658   0.01607937  0.015141363           14 
 1629000   0.60573326   -7.8426315    314.03307  0.016064716  0.015129642            7 
 1630000    0.6055416   -7.8458639    313.47449  0.016026303  0.015117913           12 
 1631000   0.59373591   -7.8570765    313.80103  0.016033161   0.01510618            7 
 1632000   0.59693729   -7.8627311     313.1772  0.015991483   0.01509449            8 
 1633000   0.60792211   -7.8528998    312.90506  0.015967803  0.015082801           15 
 1634000   0.59718824   -7.8474138    313.19214  0.015972671  0.015071119           12 
 1635000   0.60006106   -7.8537205    313.14369  0.015960433  0.015059437           25 
 1636000    0.6036063   -7.8487643    313.39004  0.015963225   0.01504776           13 
 1637000   0.60335249   -7.8667761    313.54777  0.015961503  0.015036074           14 
 1638000   0.59315605   -7.8656898    313.53408  0.015951062  0.015024407            5 
 1639000   0.60374886   -7.8666684    313.21816  0.015925267  0.015012742           11 
 1640000   0.60027122    -7.858375    313.68457  0.015939257  0.015001081           23 
 1641000   0.59682403   -7.8590834    313.44472  0.015917364  0.014989429           17 
 1642000   0.59776037   -7.8634005    313.11386  0.015890878  0.014977779            5 
 1643000   0.60860647   -7.8641262    313.01374  0.015876128  0.014966116           12 
 1644000   0.59383873   -7.8760921    312.68722   0.01584992  0.014954436           21 
 1645000    0.5936676   -7.8755487    313.03006  0.015857652  0.014942792            5 
 1646000   0.59404327   -7.8923513    313.22165  0.015857718  0.014931146           11 
 1647000   0.59958446   -7.8850148    313.02954   0.01583837  0.014919521           12 
 1648000   0.59309816   -7.8750803    313.11137  0.015832897  0.014907888           11 
 1649000   0.59356934   -7.8682148    313.20359  0.015827956  0.014896271           10 
 1650000   0.59790904   -7.8639658    313.02702  0.015809445  0.014884663            9 
 1651000   0.59479769   -7.8786132    313.23794  0.015810516  0.014873042            6 
 1652000   0.60363235   -7.8644281    313.16477  0.015797254  0.014861415            5 
 1653000   0.60469015    -7.882993    313.03338  0.015781074  0.014849823           11 
 1654000   0.58997783    -7.881426    312.77827   0.01575868  0.014838212            9 
 1655000   0.60701406   -7.8727641    312.50926  0.015735612  0.014826622           14 
 1656000   0.59306899   -7.8701182     313.1932  0.015760527  0.014815036            8 
 1657000   0.59018878   -7.8824708     313.1944  0.015751076  0.014803474           14 
 1658000   0.59377526   -7.8797731    312.73131    0.0157183  0.014791922            8 
 1659000   0.59516022   -7.8878066    312.83048  0.015713808  0.014780355            8 
 1660000    0.6005576   -7.8884172    313.27482  0.015726647  0.014768795           10 
 1661000   0.58978178   -7.8886422    313.07782  0.015707296  0.014757262            9 
 1662000   0.59195144   -7.8826101    312.58528  0.015673149  0.014745737           11 
 1663000   0.58026321    -7.902604    312.84612  0.015676795  0.014734215           11 
 1664000   0.59727816   -7.8927668    313.01539  0.015675851  0.014722699            8 
 1665000   0.58717752   -7.8990149    312.68624  0.015649962  0.014711178           11 
 1666000      0.59193   -7.8718418    312.66855  0.015639683  0.014699682           13 
 1667000   0.58532082   -7.8956288    313.01329  0.015647535  0.014688185           15 
 1668000   0.58119405   -7.9176626    313.01297  0.015638138  0.014676695            6 
 1669000   0.57981423   -7.8863981    313.07115  0.015631673   0.01466522            7 
 1670000   0.59549201   -7.9041217     312.8244      0.01561  0.014653752           17 
 1671000   0.58667132   -7.8779021    313.06078  0.015612447  0.014642308           18 
 1672000   0.59295064    -7.897845    312.67018  0.015583641  0.014630856           17 
 1673000   0.58032056   -7.9059526    312.85754  0.015583659  0.014619406            8 
 1674000   0.58251825   -7.8925503    312.99208  0.015581047  0.014607921           11 
 1675000   0.58088663   -7.9189928    312.81725  0.015563047   0.01459647           11 
 1676000   0.57463426   -7.9145476     312.9998  0.015562838  0.014585035            7 
 1677000   0.58128024   -7.8920381    313.51836  0.015579326  0.014573602           14 
 1678000   0.59354934    -7.896388    312.70589  0.015529693  0.014562196           16 
 1679000    0.5788039   -7.8757442     312.6189  0.015516125  0.014550796           14 
 1680000   0.58904795    -7.882065    313.06484   0.01552901  0.014539405           14 
 1681000   0.58507518   -7.9001929    313.44881  0.015538807  0.014528038           12 
 1682000   0.58146758   -7.9123185    312.93576   0.01550415   0.01451669           11 
 1683000   0.57665136   -7.9029745    312.94659  0.015495474  0.014505346           18 
 1684000   0.56856001   -7.9060033    313.43659   0.01551052   0.01449402           12 
 1685000   0.58619519   -7.9022449    313.55387  0.015507115  0.014482694           11 
 1686000   0.56894262   -7.9182791    312.73519  0.015457453  0.014471367           16 
 1687000   0.57582333   -7.9026983    312.86734  0.015454818  0.014460052           14 
 1688000   0.56881458   -7.9319922     313.1237  0.015458319  0.014448749           11 
 1689000   0.58675088   -7.9191928    312.66645  0.015426606  0.014437448            9 
 1690000   0.57576458   -7.9067016    312.28214  0.015398528  0.014426161            9 
 1691000   0.57700454   -7.9195813    312.38339  0.015394411  0.014414876           15 
 1692000   0.57790358   -7.9040704    312.84871   0.01540823  0.014403594           15 
 1693000   0.57708556   -7.8985713    312.97687  0.015405437  0.014392318           12 
 1694000   0.58444003   -7.9089284    313.55322  0.015424696  0.014381092           11 
 1695000   0.57939619   -7.9231462     312.8301  0.015380044  0.014369873           12 
 1696000   0.56517451   -7.8987635    312.65002  0.015362127   0.01435865           14 
 1697000   0.57764859   -7.9189102    312.72399  0.015356707  0.014347423           14 
 1698000   0.56717637   -7.9437277    312.80705   0.01535174  0.014336203           10 
 1699000   0.57246945   -7.8937531    312.70705  0.015337799  0.014324986           14 
 1700000   0.57690937   -7.9192445    312.55427  0.015321288  0.014313791           16 
 1701000    0.5774017   -7.9251278    312.58765  0.015313916  0.014302598           11 
 1702000   0.58167432   -7.9259754    312.59346  0.015305203  0.014291421           12 
 1703000   0.57351321   -7.9222598    312.72693  0.015302747  0.014280245           26 
 1704000   0.57577365   -7.8980097    312.72096  0.015293474  0.014269066           16 
 1705000   0.57884332   -7.9428349    312.54524  0.015275916  0.014257896           12 
 1706000    0.5755414   -7.9135503    312.18351  0.015249292  0.014246732           10 
 1707000   0.56276559   -7.9101503    312.57044  0.015259248  0.014235583           12 
 1708000   0.57174716   -7.9224412    312.79962  0.015261496  0.014224456           13 
 1709000   0.57110802   -7.9082177    313.57195  0.015290226  0.014213345           10 
 1710000   0.56239324   -7.9140914    313.24365  0.015265285  0.014202217           17 
 1711000   0.56600112   -7.9247048    312.69619    0.0152297    0.0141911           13 
 1712000   0.57006078   -7.9220638     312.6767  0.015219855      0.01418           20 
 1713000    0.5697564   -7.9113708    312.67109  0.015210697  0.014168928            9 
 1714000   0.56085183   -7.9396685    312.69403  0.015202938   0.01415786           17 
 1715000   0.56145487   -7.9156731    312.62597  0.015190766  0.014146787           10 
 1716000   0.55452377    -7.925682    312.78746  0.015189756  0.014135736           12 
 1717000   0.56695617   -7.9361202    312.42671  0.015163401  0.014124689           14 
 1718000    0.5756277    -7.934125    312.60041     0.015163  0.014113605           18 
 1719000   0.56200843   -7.9201114    312.28961  0.015139113  0.014102562           10 
 1720000   0.55892906   -7.8982183    312.37382  0.015134391  0.014091494           15 
 1721000   0.56524481   -7.9420889    312.04696  0.015109769  0.014080442           16 
 1722000   0.57142022   -7.9510235    313.18557  0.015156096  0.014069412           13 
 1723000   0.55638732   -7.9324242    312.29226  0.015104095  0.014058377            9 
 1724000   0.55812256   -7.9599678    312.46804   0.01510383  0.014047346           16 
 1725000   0.55370717    -7.946984    312.66305  0.015104495  0.014036316           10 
 1726000   0.57035204   -7.9273775    312.25493  0.015076039  0.014025312           14 
 1727000   0.55321395   -7.9234215    312.40239  0.015074425  0.014014313           11 
 1728000    0.5672465   -7.9503957    312.20253  0.015056064  0.014003327           11 
 1729000   0.56970151   -7.9249608    312.95031  0.015083396  0.013992355           12 
 1730000   0.55423588   -7.9410325    312.44498  0.015050336  0.013981402           16 
 1731000   0.55735531   -7.9270111    312.22363  0.015030986  0.013970458            7 
 1732000   0.55692364   -7.9308699    312.70143  0.015045296  0.013959516           16 
 1733000   0.55418075   -7.9569855    312.68749  0.015035944  0.013948596           15 
 1734000    0.5648214   -7.9532436    312.71048  0.015028377  0.013937655           20 
 1735000   0.55861088   -7.9454712    312.50896  0.015010037  0.013926748           13 
 1736000   0.56518761   -7.9560404    312.63645   0.01500751  0.013915835           13 
 1737000   0.56758994   -7.9349825     312.4371  0.014989306  0.013904944           17 
 1738000   0.55861132   -7.9554075    312.72826  0.014994642  0.013894054           13 
 1739000   0.55881726   -7.9439232    312.80809  0.014989845  0.013883181           12 
 1740000   0.55881132   -7.9620819    312.28075  0.014955975  0.013872317           12 
 1741000   0.55171405   -7.9634977    312.67109  0.014966068  0.013861465           12 
 1742000   0.56084041   -7.9693388     312.6676   0.01495731  0.013850609           14 
 1743000   0.56107502   -7.9482024    312.53641  0.014942456   0.01383977           11 
 1744000   0.54612238   -7.9360864    312.84944  0.014948845  0.013828933           18 
 1745000    0.5546254   -7.9636075    312.57418  0.014927134  0.013818108           21 
 1746000   0.55061182   -7.9499376    312.69681  0.014924437  0.013807291           21 
 1747000   0.54986679   -7.9685346    312.46549   0.01490486  0.013796467            8 
 1748000   0.55034655   -7.9455361    312.28319  0.014887643  0.013785651           16 
 1749000   0.54898394   -7.9368698    312.30357  0.014880101  0.013774853           12 
 1750000   0.55627562   -7.9358851    312.40013  0.014876197  0.013764072           12 
 1751000   0.55764001   -7.9492846    312.91576  0.014892241  0.013753303           11 
 1752000   0.55698713   -7.9489985    312.58632  0.014868071  0.013742537           12 
 1753000   0.55877938    -7.945935    312.16592  0.014839605  0.013731789            9 
 1754000   0.55216869   -7.9687986    312.44877  0.014844582  0.013721015           11 
 1755000   0.56078231   -7.9637423    312.26986  0.014827629  0.013710256           15 
 1756000   0.54777932    -7.961665    312.19438  0.014815603  0.013699518           17 
 1757000   0.55303418   -7.9673417    312.26688  0.014810609  0.013688781            9 
 1758000   0.54864116   -7.9620452    312.60087  0.014818016  0.013678045            5 
 1759000   0.55404169   -7.9610513    312.52887  0.014806181  0.013667333           15 
 1760000   0.54918366   -7.9488438    312.44893  0.014793983  0.013656614           12 
 1761000   0.55720026   -7.9595202    312.29892  0.014778484  0.013645918           19 
 1762000   0.56042902   -7.9486331    312.61306  0.014784954  0.013635229            7 
 1763000   0.54425627   -7.9624987    311.97549  0.014746431  0.013624544            9 
 1764000   0.54040185   -7.9618983    312.54603  0.014765024  0.013613871           13 
 1765000   0.53891173   -7.9661181    312.43455  0.014751395  0.013603203            9 
 1766000   0.54106388   -7.9813208    312.18507   0.01473127  0.013592542           16 
 1767000   0.53906375   -7.9717661    311.72606  0.014701286  0.013581883           13 
 1768000   0.54503971   -7.9771817    311.89729  0.014701041  0.013571233           17 
 1769000   0.55500647   -7.9600883    312.28203  0.014710855   0.01356059            9 
 1770000   0.55731394   -7.9638837    311.92181  0.014685584  0.013549974           11 
 1771000   0.55616303   -7.9597854    312.59556  0.014708995  0.013539366            8 
 1772000   0.54775728   -7.9727543    312.08751  0.014676802  0.013528759            6 
 1773000   0.54132681   -7.9713986    311.76525  0.014653377  0.013518155           19 
 1774000   0.54006022   -7.9620066    311.41717  0.014628766  0.013507568           15 
 1775000   0.54951417   -7.9700443    312.24892  0.014659574  0.013496992           14 
 1776000   0.54438814   -7.9507216    312.07017  0.014642932  0.013486408           13 
 1777000   0.53965235   -7.9697478    311.68407  0.014616586  0.013475845           13 
 1778000   0.54407051   -7.9622256    311.94685  0.014620681  0.013465277           16 
 1779000   0.54965369   -7.9720465    311.97219   0.01461365  0.013454724           22 
 1780000   0.54074378   -7.9881845    311.90679  0.014602378  0.013444171           24 
 1781000    0.5433954   -7.9837528    312.42587  0.014618467  0.013433627           23 
 1782000   0.53610695   -7.9696799    312.07658  0.014593929  0.013423079           25 
 1783000   0.53083601   -7.9718827    312.56875  0.014608747   0.01341254           21 
 1784000   0.54678286   -7.9743686    311.89474  0.014569074  0.013402031           17 
 1785000   0.53749641   -7.9934317    311.57654  0.014546057  0.013391531           16 
 1786000   0.53914311   -7.9949786    311.34123  0.014526933  0.013381034           13 
 1787000   0.54687865   -7.9863313    311.92412  0.014545986  0.013370533           14 
 1788000    0.5296726   -7.9913949    311.52911   0.01451944  0.013360032           16 
 1789000   0.54316227   -7.9883322    311.87417  0.014527397  0.013349548           16 
 1790000   0.52971799   -7.9987202    311.79413  0.014515556  0.013339081           14 
 1791000   0.54576994    -7.998939    311.85492  0.014510279  0.013328639           24 
 1792000   0.53798048   -7.9973874     311.7748  0.014498456  0.013318186           18 
 1793000   0.53907552   -7.9956659    311.61822  0.014483093   0.01330775           22 
 1794000   0.53811101   -7.9819754    312.02489   0.01449391   0.01329732           26 
 1795000   0.53125997   -7.9789109    311.81066   0.01447589  0.013286896           22 
 1796000   0.53477862   -8.0004232    312.08596  0.014480603   0.01327647           25 
 1797000   0.53636016   -7.9856975    311.60489  0.014450236  0.013266054           18 
 1798000     0.536418   -7.9691224    311.91111  0.014456392  0.013255653           18 
 1799000   0.53261911   -7.9834314    311.88118  0.014446969  0.013245257           17 
 1800000   0.53858623   -8.0079743    311.76472  0.014433552  0.013234853           19 
 1801000   0.53345416   -7.9908132     311.6295  0.014419281  0.013224463           17 
 1802000   0.54833721   -7.9890896    312.26667  0.014440745   0.01321409           19 
 1803000   0.53565366   -7.9955124    311.71733  0.014407346  0.013203739           15 
 1804000   0.53371068   -7.9940746    311.88046  0.014406895   0.01319338           10 
 1805000   0.53436818   -8.0081217    311.85088  0.014397548  0.013183032            9 
 1806000   0.52369443   -8.0074101    310.96786  0.014348831  0.013172681           16 
 1807000   0.53056888   -8.0142724    311.65466  0.014372563  0.013162339           13 
 1808000   0.53190959   -8.0137997    311.38651  0.014352254  0.013152025           12 
 1809000   0.52941614   -7.9988497     311.8764  0.014366888  0.013141715           18 
 1810000   0.52992963   -8.0219159     311.8009  0.014355474  0.013131425           15 
 1811000    0.5338084   -8.0052898    311.53198  0.014335173  0.013121134           24 
 1812000   0.53668624    -7.992595    311.41229  0.014321757  0.013110855           22 
 1813000   0.52281773   -7.9987183    311.50557  0.014318145  0.013100597           15 
 1814000   0.52669713   -7.9976969    311.46329   0.01430831  0.013090317           19 
 1815000   0.53176391     -8.00152    311.49122  0.014301709  0.013080067           12 
 1816000   0.52751653   -8.0058893    311.68927  0.014302922  0.013069814           18 
 1817000    0.5329449   -8.0085556    311.67647  0.014294463  0.013059559           16 
 1818000   0.51634311   -8.0143822    311.65894  0.014285797  0.013049316           13 
 1819000   0.52353079    -8.005979    311.64626  0.014277362  0.013039095           23 
 1820000   0.52778355   -8.0124071    311.45397  0.014260713  0.013028867           25 
 1821000    0.5253183   -8.0067105    311.23651   0.01424293  0.013018646           17 
 1822000   0.52460236   -8.0258927    311.78019  0.014259979  0.013008452           17 
 1823000   0.52448949   -8.0146251    311.17953  0.014224699  0.012998268           24 
 1824000   0.52779275   -8.0052068    311.27649  0.014221331  0.012988072           23 
 1825000   0.51920857   -8.0350393    311.52985  0.014225107  0.012977908           29 
 1826000   0.53105022   -8.0005429    311.67871  0.014224111  0.012967757           14 
 1827000    0.5112101    -8.006045    311.57043  0.014211386  0.012957611           17 
 1828000    0.5301041   -8.0242893    311.51552  0.014201109  0.012947463           19 
 1829000   0.52705329   -7.9961906    311.66132  0.014199987  0.012937328           21 
 1830000   0.52098153   -8.0428966    311.75565  0.014196523  0.012927212           20 
 1831000    0.5208849   -8.0054108    310.95777  0.014152456  0.012917107           18 
 1832000   0.52075433   -8.0289779    311.93368  0.014189123  0.012907009           21 
 1833000   0.51957274   -8.0202359    311.39597  0.014156936  0.012896907           10 
 1834000   0.52214692   -8.0221977    311.39658  0.014149245  0.012886826           22 
 1835000   0.50537062   -8.0075486    311.47663  0.014145169  0.012876744           16 
 1836000   0.52060593   -8.0212618    311.30454  0.014129654  0.012866689           23 
 1837000   0.52056016   -8.0231952    311.60719  0.014135692   0.01285662           17 
 1838000    0.5214655   -8.0303074    311.41511  0.014119292  0.012846563           16 
 1839000   0.52203255   -8.0299895    311.52177  0.014116448  0.012836518           22 
 1840000   0.52531778   -8.0418768    311.42546  0.014104414   0.01282648           20 
 1841000   0.50928211   -8.0261579     311.6863   0.01410856  0.012816457           20 
 1842000   0.52090139    -8.020149     311.2521  0.014081257  0.012806441           15 
 1843000   0.51555315   -8.0295094    310.77476  0.014052033  0.012796426           11 
 1844000   0.51584077   -8.0297587    311.23837  0.014065364  0.012786426           20 
 1845000   0.50938725   -8.0268957    311.35957  0.014063214  0.012776435           25 
 1846000   0.51455629    -8.004515    311.58314  0.014065689  0.012766443           18 
 1847000   0.51401975   -8.0322384    311.50495  0.014054546  0.012756464           19 
 1848000   0.52379948   -8.0075452     311.4547  0.014044675  0.012746498           22 
 1849000   0.52364731   -8.0324029    311.33422  0.014031648  0.012736545           12 
 1850000   0.51417879   -8.0246758    311.24705  0.014020137  0.012726595           11 
 1851000   0.51140309   -8.0310345    311.64558  0.014030505  0.012716653           17 
 1852000    0.5197151   -8.0251153    311.34966  0.014009614  0.012706716           22 
 1853000    0.5056973   -8.0325935    311.05407   0.01398876  0.012696789           15 
 1854000   0.51400567     -8.02015    311.32311  0.013993308  0.012686884           21 
 1855000   0.51838113   -8.0270672    310.80649  0.013962556   0.01267698           24 
 1856000   0.51325828   -8.0242297    311.11352  0.013968818  0.012667079           20 
 1857000    0.5153564   -8.0597742    311.48893  0.013978143   0.01265718           37 
 1858000   0.50475938   -8.0311926    311.10975  0.013953613  0.012647295           21 
 1859000   0.51406281   -8.0333115    310.77631   0.01393116   0.01263743           20 
 1860000    0.5149364   -8.0374697    310.79471  0.013924494  0.012627569           16 
 1861000   0.51412731   -8.0404095    311.26074   0.01393788  0.012617695           23 
 1862000   0.50091536   -8.0389437    311.38118  0.013935785   0.01260784           21 
 1863000   0.50181922   -8.0355502    311.17746  0.013919192  0.012597993           14 
 1864000   0.51499299   -8.0316639    312.04609  0.013950558  0.012588164           15 
 1865000   0.51351277   -8.0288383    311.16703  0.013903799  0.012578336           17 
 1866000   0.49829147   -8.0232908      311.281  0.013901438  0.012568528           21 
 1867000   0.51195065   -8.0298453    310.82093  0.013873457  0.012558721           23 
 1868000   0.51210261   -8.0435788    310.64993  0.013858401  0.012548924           20 
 1869000   0.51919856   -8.0460646    311.24445  0.013877494  0.012539122           23 
 1870000   0.51596934   -8.0420276    310.81418  0.013850899  0.012529333           18 
 1871000   0.52478058   -8.0457681    311.28591  0.013864507  0.012519569           22 
 1872000   0.50023903   -8.0278948    311.04455  0.013846357  0.012509802           23 
 1873000   0.51246294   -8.0471406    310.72807  0.013824883  0.012500035           17 
 1874000   0.50675629   -8.0507347    311.36342  0.013845759  0.012490281           19 
 1875000   0.50505771   -8.0511052    311.15435  0.013829082  0.012480533           18 
 1876000   0.51013402   -8.0539958    310.83609  0.013807573  0.012470801           29 
 1877000   0.50646736   -8.0418237    310.76679   0.01379714  0.012461072            8 
 1878000   0.50649306    -8.056045    310.52127  0.013778899  0.012451346           26 
 1879000   0.50446575    -8.062167    311.20185   0.01380175  0.012441634           25 
 1880000   0.50001677   -8.0300085    310.65654  0.013770237  0.012431934           31 
 1881000   0.49965542   -8.0432248    311.14626  0.013784612   0.01242224           34 
 1882000   0.49777644   -8.0472174    310.79944  0.013761931  0.012412549           34 
 1883000   0.50958065   -8.0707961    311.34594  0.013778808  0.012402875           24 
 1884000   0.49829559   -8.0439821    310.69324  0.013742624  0.012393218           23 
 1885000    0.4983095   -8.0492606    311.02372  0.013749943  0.012383561           28 
 1886000   0.49739854   -8.0650333    310.73954  0.013730096  0.012373907           24 
 1887000   0.49124523   -8.0618404    311.09315  0.013738436  0.012364273           22 
 1888000   0.50515242   -8.0704433    310.91074  0.013723108  0.012354642           18 
 1889000    0.5061588   -8.0346735    310.70361  0.013706706  0.012345016           38 
 1890000   0.49049652   -8.0684445    310.55643  0.013692964    0.0123354           33 
 1891000   0.49723755   -8.0685088    310.90216  0.013700959  0.012325784           31 
 1892000   0.49170541   -8.0589159    310.95367  0.013695986  0.012316172           14 
 1893000   0.50103833   -8.0647823    310.98212  0.013690003  0.012306573           27 
 1894000   0.49739579   -8.0578759    310.99415  0.013683305  0.012296996           32 
 1895000   0.50512871    -8.044618    310.62101  0.013659675  0.012287406           24 
 1896000   0.49468168   -8.0634658    311.10146  0.013673587  0.012277827           22 
 1897000    0.5060717   -8.0615583    311.04051  0.013663702  0.012268273           15 
 1898000   0.49770788   -8.0400795    311.05324  0.013657062  0.012258727           27 
 1899000   0.48891004   -8.0701057    310.96558  0.013646023  0.012249189           15 
 1900000   0.49616142   -8.0516457    310.21321  0.013605842   0.01223964           20 
 1901000   0.49822492   -8.0480321    310.68774  0.013619487  0.012230101            9 
 1902000    0.4971324   -8.0691803    310.80853  0.013617619  0.012220571           18 
 1903000    0.4909527   -8.0592214    310.60857  0.013601707  0.012211053           26 
 1904000   0.49449996   -8.0536801    310.24739  0.013578755  0.012201545           10 
 1905000   0.49260585   -8.0858345    310.58264  0.013586292  0.012192044           17 
 1906000   0.48471319   -8.0565098    311.00111   0.01359746  0.012182553           20 
 1907000   0.48048694   -8.0607284    310.74326  0.013579062  0.012173072           16 
 1908000   0.49887451   -8.0611459    310.88074   0.01357795  0.012163592           23 
 1909000   0.49104311   -8.0645649    310.92288  0.013572677  0.012154132           20 
 1910000   0.48935869   -8.0744014    310.28799   0.01353787  0.012144676           23 
 1911000   0.48506529   -8.0584556    310.22526  0.013528051   0.01213523            9 
 1912000   0.48897331   -8.0727508    310.80115  0.013546075  0.012125792           10 
 1913000   0.49769859   -8.0774774    311.08954  0.013551557  0.012116362           15 
 1914000   0.49305278   -8.0737841    310.75599  0.013529954  0.012106945           16 
 1915000   0.49960873    -8.086877    310.37922  0.013506493  0.012097525           31 
 1916000   0.49139957   -8.0669571    310.96826  0.013525063  0.012088119           17 
 1917000   0.49060876   -8.0817947    310.82664  0.013511852  0.012078713           18 
 1918000   0.48014294   -8.0724013    310.34573  0.013483912  0.012069326           15 
 1919000   0.49221925   -8.0594688    310.27062  0.013473624  0.012059938           12 
 1920000   0.48556127    -8.089916    310.11068  0.013459665  0.012050558           25 
 1921000   0.49501232   -8.0710077    310.71516  0.013478881  0.012041185           31 
 1922000   0.48739785   -8.0589686     309.9557   0.01343894  0.012031821           14 
 1923000   0.48125208   -8.0793709    310.85252  0.013470814  0.012022466           15 
 1924000   0.48401672   -8.0656173     310.5451  0.013450498  0.012013117           11 
 1925000   0.48274972   -8.0792581    310.26414  0.013431348  0.012003788           27 
 1926000   0.48470461   -8.0803633    310.59253  0.013438583  0.011994463           20 
 1927000   0.46673356   -8.0893607    310.58901  0.013431457  0.011985142           15 
 1928000   0.49334202   -8.0949712    310.61977   0.01342582  0.011975836           18 
 1929000   0.48341228    -8.077383     310.6571  0.013420472  0.011966527           26 
 1930000   0.48470314   -8.0867709    310.60637  0.013411328  0.011957238           12 
 1931000   0.48939188   -8.0928446    310.23088  0.013388179  0.011947948           29 
 1932000   0.48370815   -8.0837777    310.33853  0.013385893  0.011938676           12 
 1933000   0.47520999   -8.0703354    310.37712  0.013380631  0.011929403           28 
 1934000   0.47964567   -8.0872167    310.59508  0.013383104  0.011920137           35 
 1935000   0.47753516   -8.0658017    310.29283  0.013363171  0.011910884           17 
 1936000   0.47279007   -8.0852185    310.18788  0.013351751  0.011901637           11 
 1937000   0.46931231   -8.0993792    310.08359  0.013340371  0.011892393           23 
 1938000   0.47788569   -8.0827725     310.2688  0.013341452  0.011883158           16 
 1939000   0.48164213   -8.0872614    310.18187  0.013330835  0.011873928           24 
 1940000    0.4759772   -8.0899193    310.45388  0.013335648  0.011864713           15 
 1941000   0.47377796   -8.0906376    310.35154  0.013324383  0.011855512           31 
 1942000   0.46646146   -8.0956996    310.59904  0.013328143  0.011846311           10 
 1943000   0.48109433   -8.0785809    309.94568  0.013293261  0.011837129           28 
 1944000   0.48141006    -8.096032     310.3093  0.013302011  0.011827952           14 
 1945000   0.48314415   -8.0875778    310.34685   0.01329678  0.011818777           10 
 1946000   0.47189002   -8.0793377    310.22419  0.013284695  0.011809605           18 
 1947000   0.47277653   -8.0925204    310.89648  0.013306646  0.011800452            9 
 1948000   0.47420503   -8.0892857     310.2051  0.013270239  0.011791306           16 
 1949000    0.4743041   -8.0990242    310.30509  0.013267705  0.011782169           13 
 1950000   0.48246627   -8.1017441    310.34903  0.013262779  0.011773043           20 
 1951000   0.47014888   -8.0777631    310.03996   0.01324278  0.011763916           12 
 1952000   0.47475525   -8.0922287    309.85352  0.013228036  0.011754801            8 
 1953000     0.464356   -8.1078238    310.33778  0.013241926   0.01174569           13 
 1954000   0.46857905   -8.1055412    310.47211  0.013240878  0.011736593            9 
 1955000   0.47075027   -8.0837717    309.92904  0.013210957  0.011727498            8 
 1956000   0.47396121   -8.0976529    309.97629  0.013206215  0.011718403           14 
 1957000   0.48184032   -8.0962208    309.97091  0.013199238  0.011709328           11 
 1958000   0.46416494   -8.1111197    310.08076  0.013197172  0.011700254           21 
 1959000     0.472709   -8.1146195    309.98066  0.013186178  0.011691188           12 
 1960000   0.47366451   -8.1145703    310.17034  0.013187514  0.011682143           11 
 1961000   0.46759337    -8.093869    309.55819  0.013154776  0.011673099           22 
 1962000   0.47489716   -8.0993651    310.31589  0.013180254  0.011664065           12 
 1963000   0.47039929   -8.0923577    310.10743   0.01316469  0.011655033           21 
 1964000   0.47339298   -8.0749464    310.06242  0.013156077  0.011646005           18 
 1965000   0.47595253   -8.1114463    309.81871  0.013139046  0.011636994           12 
 1966000   0.46525263   -8.1004575     310.4062  0.013157265  0.011627985           18 
 1967000    0.4650123   -8.1206236    309.86922  0.013127826  0.011618981           12 
 1968000   0.47659856   -8.1262939    310.07143  0.013129718  0.011609976           17 
 1969000   0.47531211   -8.0997935    309.75858  0.013109809   0.01160099           12 
 1970000   0.46447559   -8.1039516    309.78322  0.013104197  0.011592016           13 
 1971000   0.47996891   -8.1326596    310.18714  0.013114626   0.01158305           11 
 1972000   0.46800971   -8.1128933    310.20535  0.013108745  0.011574086           29 
 1973000   0.45371465   -8.1139928    309.85881  0.013087464  0.011565134           13 
 1974000   0.46048783   -8.1126314    309.87006  0.013081309  0.011556195           24 
 1975000    0.4687176   -8.1172331    310.16833  0.013087271  0.011547262           13 
 1976000   0.46820495   -8.1136104    310.11883   0.01307856  0.011538332           13 
 1977000   0.46351775   -8.1144585    310.25379  0.013077634  0.011529406           22 
 1978000   0.46029702   -8.1084956    309.63686  0.013045031    0.0115205           15 
 1979000   0.45898057   -8.1103421    309.93978  0.013051195  0.011511583           13 
 1980000   0.46080686   -8.1050264    309.93912  0.013044576   0.01150269           12 
 1981000   0.46203775   -8.1035083    310.00028  0.013040564  0.011493807           16 
 1982000   0.45585164   -8.1204486     309.9249  0.013030815  0.011484928           19 
 1983000   0.46264211   -8.1074225     309.9387  0.013024823  0.011476051           25 
 1984000    0.4558709   -8.1099746    309.75174  0.013010406   0.01146718           12 
 1985000   0.45871953   -8.1141626    309.59086  0.012997097  0.011458335           22 
 1986000   0.46540374   -8.1114975    310.00737   0.01300803  0.011449497           28 
 1987000   0.46730725   -8.1231223     310.3409  0.013015471  0.011440661           14 
 1988000    0.4634774   -8.1202583    309.87933  0.012989576  0.011431831            7 
 1989000   0.45482105   -8.1179163    309.61786  0.012972091  0.011422997            8 
 1990000   0.45814837   -8.1277379    309.88937  0.012976942  0.011414185           21 
 1991000   0.46059062   -8.1109559    309.77446  0.012965614  0.011405377           12 
 1992000    0.4660222   -8.1101401    309.50927  0.012948012  0.011396579           17 
 1993000   0.45811703   -8.1240848    309.46614  0.012939712  0.011387787           21 
 1994000   0.45229445   -8.1294521    310.00511  0.012955747  0.011379002           16 
 1995000   0.45455035   -8.1287694    310.03595  0.012950541  0.011370232           11 
 1996000   0.45365083   -8.1042796    309.73554  0.012931511  0.011361455           20 
 1997000   0.45519233   -8.1170067     309.7816  0.012926957  0.011352694            9 
 1998000   0.45527631    -8.113023    309.71234  0.012917598  0.011343944            7 
 1999000   0.44867533   -8.1323868    309.42931  0.012899338  0.011335198           14 
 2000000   0.44781871   -8.1265965    309.65205  0.012902169   0.01132646           25 
 2001000    0.4580437   -8.1180717    309.77615  0.012900889  0.011317731           14 
 2002000   0.45123436   -8.1244889    309.99669  0.012903625  0.011309015           16 
 2003000   0.45582382     -8.12914    309.69667  0.012884701  0.011300299           26 
 2004000    0.4582889   -8.1265601    309.54561   0.01287199  0.011291591           24 
 2005000   0.45237441   -8.1301642    309.82161  0.012877041  0.011282894           17 
 2006000   0.45581323   -8.1251936    309.57905  0.012860545  0.011274204           27 
 2007000   0.44752914      -8.1283    310.03934  0.012873249  0.011265526           27 
 2008000   0.45297458   -8.1273341    309.47652  0.012843481  0.011256861           30 
 2009000   0.45576146   -8.1266767    309.09148  0.012821117  0.011248198           23 
 2010000   0.45341532   -8.1288964    309.74188  0.012841703  0.011239533           22 
 2011000   0.44699508   -8.1229219    309.68992  0.012833164   0.01123089           16 
 2012000   0.44621619   -8.1334979    309.66165  0.012825615  0.011222258           15 
Loop time of 4511.92 on 48 procs for 2000000 steps with 4000 atoms

Performance: 76597.184 tau/day, 443.271 timesteps/s
99.4% CPU use with 48 MPI tasks x no OpenMP threads

MPI task timing breakdown:
Section |  min time  |  avg time  |  max time  |%varavg| %total
---------------------------------------------------------------
Pair    | 286.28     | 299.67     | 313.1      |  36.0 |  6.64
Neigh   | 29.048     | 29.967     | 31.217     |   8.9 |  0.66
Comm    | 268.02     | 284.03     | 296.58     |  42.9 |  6.30
Output  | 4.2727     | 4.2741     | 4.3035     |   0.2 |  0.09
Modify  | 3839.4     | 3850.2     | 3862.4     |   8.9 | 85.33
Other   |            | 43.81      |            |       |  0.97

Nlocal:        83.3333 ave          91 max          75 min
Histogram: 1 3 2 8 6 9 9 6 2 2
Nghost:        1907.56 ave        1930 max        1880 min
Histogram: 1 4 1 5 7 11 6 5 6 2
Neighs:        11991.2 ave       14135 max       10810 min
Histogram: 4 7 11 6 9 8 1 1 0 1
FullNghs:      23982.7 ave       26493 max       21443 min
Histogram: 1 3 5 7 9 6 7 5 3 2

Total # of neighbors = 1151168
Ave neighs/atom = 287.79200
Neighbor list builds = 107525
Dangerous builds = 0

#clear
#
#next RN
#
#jump SELF
Total wall time: 1:15:15
