
units lj                  # Use reduced LJ style units
atom_style atomic         # Uncharged point particles
atom_modify map hash      # Needed for indexing of clusters etc
                          # Used to be able to find where atoms are in relation to each other.

lattice fcc 1.0 spacing 1 1 1
Lattice spacing in x,y,z = 1.5874011 1.5874011 1.5874011
region box block 0 10 0 10 0 10 units lattice
create_box 2 box
Created orthogonal box = (0.0000000 0.0000000 0.0000000) to (15.874011 15.874011 15.874011)
  3 by 4 by 4 MPI processor grid
create_atoms 1 box
Created 4000 atoms
  using lattice units in orthogonal box = (0.0000000 0.0000000 0.0000000) to (15.874011 15.874011 15.874011)
  create_atoms CPU = 0.003 seconds
set type 1 type/fraction 2 0.17 78393
Setting atom values ...
  712 settings made for type/fraction
mass 1 1.0
mass 2 1.0
pair_style lj/cut  3.5
pair_modify tail  yes
pair_coeff 1  1  1.0  1.0   # Intearaction between 1 and 1 set with epsilon = 1 and sigma = 1
pair_coeff 1  2  1.5  0.8
pair_coeff 2  2  0.5  0.88

write_data data.0
System init for write_data ...
Neighbor list info ...
  update every 1 steps, delay 10 steps, check yes
  max neighbors/atom: 2000, page size: 100000
  master list distance cutoff = 3.8
  ghost atom cutoff = 3.8
  binsize = 1.9, bins = 9 9 9
  1 neighbor lists, perpetual/occasional/extra = 1 0 0
  (1) pair lj/cut, perpetual
      attributes: half, newton on
      pair build: half/bin/atomonly/newton
      stencil: half/bin/3d
      bin: standard
WARNING: Not all mixed pair coeffs generated from mixing. Use write_data with 'pair ij' option to store all pair coeffs. (../write_data.cpp:312)


#############################
#   M E L T   S Y S T E M   #
#############################

velocity all create 2.4 2750902 mom yes dist gaussian # Assign velocities
                                                    # Temperature 2.4, random number seed, zero linear momentum
                                                                                # Gaussian distribution

timestep 0.002   # simulation timestep
thermo 1000       # output thermodynamic data every 1000 steps bf 100

# Define a fix  in this case with index 1 applied to all
# particles in the simulation. This fix is for simulations
# in the anisotropic NPT ensemble. Note that we use the MTK
# correction.
fix 1 all npt temp 2.4 2.4 0.1 iso 5.68 5.68 0.5 mtk yes tchain 5 pchain 5 # Use NPT ensemble
                                                                         # Set temperature and pressure and damping
                                                                         # Numbers of thermostats in chain and in barostat
run 10000          # run for 10000 steps
Per MPI rank memory allocation (min/avg/max) = 3.642 | 3.644 | 3.648 Mbytes
Step Temp E_pair E_mol TotEng Press Volume 
       0          2.4   -7.2317907            0   -3.6326907   -3.4668638         4000 
    1000    2.4178645   -4.8177097            0   -1.1918196    5.6807276    4558.2848 
    2000    2.3973913    -4.784122            0   -1.1889341    5.6430761    4581.3391 
    3000    2.3627116   -4.7787004            0   -1.2355191    5.6725566    4565.4584 
    4000    2.3807056   -4.7985443            0   -1.2283787    5.5931428    4566.1447 
    5000    2.4145371   -4.8007857            0   -1.1798855    5.3916483    4589.1963 
    6000    2.4292222     -4.77481            0   -1.1318876    5.8184307    4554.7994 
    7000    2.4515128   -4.7624834            0   -1.0861335      5.70959    4584.8767 
    8000    2.4276407    -4.828298            0   -1.1877473    5.8004486    4534.0093 
    9000     2.380801   -4.7534417            0   -1.1831329    5.9164662    4561.8608 
   10000    2.4254595   -4.8256802            0   -1.1884005    5.6406623    4556.1706 
Loop time of 2.30205 on 48 procs for 10000 steps with 4000 atoms

Performance: 750636.899 tau/day, 4343.964 timesteps/s
99.5% CPU use with 48 MPI tasks x no OpenMP threads

MPI task timing breakdown:
Section |  min time  |  avg time  |  max time  |%varavg| %total
---------------------------------------------------------------
Pair    | 0.95812    | 1.0157     | 1.1438     |   3.5 | 44.12
Neigh   | 0.19523    | 0.20371    | 0.23136    |   1.5 |  8.85
Comm    | 0.6717     | 0.81064    | 0.88363    |   4.9 | 35.21
Output  | 0.00023987 | 0.00024591 | 0.00031064 |   0.0 |  0.01
Modify  | 0.23659    | 0.25701    | 0.30199    |   3.5 | 11.16
Other   |            | 0.0147     |            |       |  0.64

Nlocal:        83.3333 ave          93 max          75 min
Histogram: 3 2 7 11 6 4 7 2 4 2
Nghost:        1503.81 ave        1543 max        1462 min
Histogram: 2 2 3 7 9 8 6 8 2 1
Neighs:        8365.00 ave        9514 max        7225 min
Histogram: 2 1 6 9 9 6 4 4 4 3

Total # of neighbors = 401520
Ave neighs/atom = 100.38000
Neighbor list builds = 907
Dangerous builds = 211

# Equilibrate just above the melting temperature to avoid step fn in T

fix 1 all npt temp 1.25 1.25 0.1 iso 5.68 5.68 0.5 mtk yes tchain 5 pchain 5
run 2000
Per MPI rank memory allocation (min/avg/max) = 3.642 | 3.644 | 3.648 Mbytes
Step Temp E_pair E_mol TotEng Press Volume 
   10000    2.4254595   -4.8256802            0   -1.1884005    5.6406623    4556.1706 
   11000    1.2410551   -6.4367039            0   -4.5755866    5.9265315    3737.3622 
   12000    1.2004272   -6.4709174            0   -4.6707267      5.75052    3732.7118 
Loop time of 0.496109 on 48 procs for 2000 steps with 4000 atoms

Performance: 696620.942 tau/day, 4031.371 timesteps/s
99.6% CPU use with 48 MPI tasks x no OpenMP threads

MPI task timing breakdown:
Section |  min time  |  avg time  |  max time  |%varavg| %total
---------------------------------------------------------------
Pair    | 0.21955    | 0.23947    | 0.27948    |   2.3 | 48.27
Neigh   | 0.031461   | 0.033565   | 0.039299   |   0.8 |  6.77
Comm    | 0.12522    | 0.16958    | 0.19515    |   2.9 | 34.18
Output  | 4.7164e-05 | 5.1417e-05 | 0.00015215 |   0.0 |  0.01
Modify  | 0.038194   | 0.048777   | 0.059811   |   2.7 |  9.83
Other   |            | 0.004669   |            |       |  0.94

Nlocal:        83.3333 ave          90 max          71 min
Histogram: 1 0 0 5 7 6 7 13 5 4
Nghost:        1722.02 ave        1751 max        1690 min
Histogram: 3 2 1 8 8 7 10 4 2 3
Neighs:        10237.4 ave       11282 max        8368 min
Histogram: 1 0 0 4 6 8 9 10 6 4

Total # of neighbors = 491395
Ave neighs/atom = 122.84875
Neighbor list builds = 140
Dangerous builds = 12

#############################
# L I N E A R  Q U E N C H  #
#############################

# Define solid atoms. This closely follows ten Wolde  Ruiz-Montero and Frenkel  Faraday Discuss  1996  104  93-110
# Compute components of the per-atom q6 vector
compute q6 all orientorder/atom degrees 1 6 components 6 nnn NULL cutoff 1.3 # compute the Q6 parameter.
                                                                             # Use all neighbours within 1.3 unit cell.

# get number of connections
compute coord_number all coord/atom orientorder q6 0.5

# An atom is solid if it has 8 or more connections (of a possible 14)
variable is_solid atom c_coord_number>=8
group solid dynamic all var is_solid    # Must be dynamic to update
dynamic group solid defined

# do clustering
compute cluster solid cluster/atom 1.3 # Create a cluster where all atoms within are solid and max 1.3 units from another member

# define chunks one chunk per cluster
compute clus_chunks solid chunk/atom c_cluster nchunk every compress yes  # Says which atoms are in which chunk

# count the size of each chunk
compute size_chunks solid property/chunk clus_chunks count


# Find the maximum entry in the vector of chunk sizes
variable max_n equal max(c_size_chunks)


# Thermo style which includes this variable
# thermo_style custom step temp pe vol v_max_n

thermo ${N}  # Print the thermo information every 100 steps
thermo 1000  

# Reset the npt fix at a lower temperature (below freezing)
fix 1  all npt temp  ${temp} ${temp}  0.1  iso  5.68  5.68  0.5  mtk yes tchain  5  pchain  5
fix 1  all npt temp  0.45 ${temp}  0.1  iso  5.68  5.68  0.5  mtk yes tchain  5  pchain  5
fix 1  all npt temp  0.45 0.45  0.1  iso  5.68  5.68  0.5  mtk yes tchain  5  pchain  5

dump dmp2 all dcd ${N} traj.dcd
dump dmp2 all dcd 1000 traj.dcd


compute msd all msd com yes
variable twopoint equal c_msd[4]/6/(step*dt+1.0e-6)
fix 9 all vector 10 c_msd[4]
variable fit equal slope(f_9)/6/(10*dt)
thermo_style custom step temp pe c_msd[4] v_twopoint v_fit v_max_n

fix 1 all npt temp 1.25 ${temp} 0.1 iso 5.68 5.68 0.5 mtk yes tchain 5 pchain 5
fix 1 all npt temp 1.25 0.45 0.1 iso 5.68 5.68 0.5 mtk yes tchain 5 pchain 5
run 2000000 # 5000000  # Run for this many steps
Neighbor list info ...
  update every 1 steps, delay 10 steps, check yes
  max neighbors/atom: 2000, page size: 100000
  master list distance cutoff = 3.8
  ghost atom cutoff = 3.8
  binsize = 1.9, bins = 9 9 9
  4 neighbor lists, perpetual/occasional/extra = 1 3 0
  (1) pair lj/cut, perpetual
      attributes: half, newton on
      pair build: half/bin/atomonly/newton
      stencil: half/bin/3d
      bin: standard
  (2) compute orientorder/atom, occasional
      attributes: full, newton on
      pair build: full/bin/atomonly
      stencil: full/bin/3d
      bin: standard
  (3) compute coord/atom, occasional
      attributes: full, newton on
      pair build: full/bin/atomonly
      stencil: full/bin/3d
      bin: standard
  (4) compute cluster/atom, occasional
      attributes: full, newton on
      pair build: full/bin/atomonly
      stencil: full/bin/3d
      bin: standard
Per MPI rank memory allocation (min/avg/max) = 9.765 | 9.774 | 9.782 Mbytes
Step Temp PotEng c_msd[4] v_twopoint v_fit v_max_n 
   12000    1.2004272   -6.4709174 1.8532315e-30 1.2869663e-32 8.3333333e+20            3 
   13000    1.2580878   -6.4753396   0.54396099 0.0034869293  0.044926117            2 
   14000    1.2338987   -6.4698718    1.0887263 0.0064805135  0.044121975            2 
   15000    1.2361108    -6.445845    1.5818784  0.008788213  0.044428326            2 
   16000      1.24889   -6.4876574    2.0815935  0.010841633  0.043082715            2 
   17000    1.2107821   -6.4533158    2.5853013  0.012673045  0.042728003            1 
   18000    1.2410931   -6.4551539    3.0870094   0.01429171  0.042541784            2 
   19000    1.2712028   -6.4856388    3.5744783  0.015677536  0.042211819            2 
   20000    1.2435406   -6.4716523    4.0796908  0.016998711  0.042174285            1 
   21000    1.2353103   -6.4274374     4.588175  0.018207043  0.042079943            2 
   22000    1.2320466   -6.4316735    5.2075867  0.019725707  0.042248597            3 
   23000    1.2517731     -6.49106    5.6844529  0.020595843  0.042561713            5 
   24000    1.2480566   -6.4755736    6.1854556  0.021477276  0.042640215            2 
   25000    1.2336046   -6.4818162    6.6951814  0.022317271  0.042654292            2 
   26000    1.2442064   -6.5159329    7.3660233  0.023609049  0.042843655            3 
   27000      1.26438   -6.5240259    7.8782356  0.024315542   0.04314758            2 
   28000    1.2453587   -6.4160385     8.492632   0.02527569  0.043506791            2 
   29000    1.2599382   -6.4485825    8.8826932   0.02552498  0.043598117            1 
   30000    1.2189877   -6.4973488    9.3908877  0.026085799  0.043590926            4 
   31000    1.2580688   -6.5257855     9.991532  0.026858956  0.043664418            4 
   32000    1.2153531   -6.4610769    10.577884  0.027546572  0.043777134            2 
   33000    1.2288149   -6.4397612    11.304105   0.02854572   0.04398932            1 
   34000    1.2172254    -6.479058    11.891592  0.029146058  0.044249345            3 
   35000    1.2289722   -6.4902683     12.43456  0.029606096    0.0445127            2 
   36000    1.2710392   -6.4569237    12.982931   0.03005308  0.044749422            1 
   37000    1.2081042   -6.4711503    13.566222  0.030554554  0.044933717            2 
   38000    1.2446761   -6.4994936    14.097099  0.030914691  0.045108431            2 
   39000     1.254162     -6.41586    14.614844    0.0312283  0.045211829            2 
   40000    1.2314064   -6.4835193     15.09954  0.031457375   0.04528873            2 
   41000    1.2153504   -6.4999841    15.402831  0.031306567  0.045275288            2 
   42000    1.2541548   -6.5324084    15.836966  0.031422552  0.045169334            2 
   43000    1.2443428   -6.5130594    16.342536  0.031671581  0.045031038            1 
   44000     1.213746   -6.4782726    16.825665  0.031866789  0.044891772            1 
   45000     1.247724   -6.4747309    17.375187  0.032176271  0.044762404            3 
   46000     1.264322   -6.4591038    17.906767  0.032439795  0.044656854            1 
   47000    1.2277445    -6.482324    18.335398   0.03250957  0.044550429            5 
   48000    1.2555407   -6.4650415    18.783939  0.032611005  0.044427098            2 
   49000    1.2385589   -6.4795042    19.203444  0.032658918  0.044275659            3 
   50000    1.2152636   -6.4719141    19.703389  0.032838981  0.044130227            1 
   51000    1.2532663   -6.4998766    20.229329  0.033054458  0.043999962            4 
   52000    1.2195543   -6.4920536    20.690852  0.033158416   0.04386352            1 
   53000    1.2388888   -6.4696227    21.224577  0.033371976  0.043760668            1 
   54000    1.2731537   -6.5154298     21.65025  0.033410879  0.043652965            2 
   55000    1.2331564   -6.4923564    22.328722  0.033831396  0.043573992            1 
   56000    1.2485475   -6.4725782    22.915741  0.034100804   0.04353073            1 
   57000    1.2404289   -6.4621417    23.508756  0.034369526  0.043498233            1 
   58000    1.2461279   -6.4966163    23.981382  0.034456008  0.043463109            3 
   59000    1.2186057   -6.4744535    24.459192  0.034546881  0.043428087            2 
   60000    1.2581892   -6.4879985    24.920799  0.034612221  0.043398135            3 
   61000    1.2041638   -6.5018602    25.567545   0.03492834  0.043388742            2 
   62000    1.2191861   -6.5313123     26.04143  0.035001922  0.043381031            4 
   63000    1.2180628   -6.5501926    26.497596   0.03504973  0.043360165            3 
   64000    1.2370394   -6.4885337    26.981286  0.035131883  0.043327961            1 
   65000    1.2082871   -6.5127012    27.442025  0.035182083  0.043291964            4 
   66000     1.233745   -6.4857507    28.161754   0.03555777  0.043279238            3 
   67000    1.2228918   -6.4899668    28.646741  0.035630275  0.043277141            4 
   68000    1.2390437    -6.497771     29.08878  0.035648014  0.043262741            2 
   69000    1.2221973   -6.5102893     29.71486  0.035887512  0.043244015            1 
   70000    1.2252974   -6.5133818    30.186084  0.035935814  0.043241297            1 
   71000    1.1967586   -6.4724106    30.828457  0.036183635  0.043236466            1 
   72000    1.2129284   -6.5378008    31.413895  0.036358674  0.043260262            2 
   73000    1.2190712   -6.5091814    31.829426  0.036334961  0.043273644            2 
   74000    1.2414083   -6.5050707    32.368325  0.036450816  0.043279486            2 
   75000    1.2091527   -6.4648808    33.031263  0.036701403  0.043289551            4 
   76000    1.2090147   -6.5515283    33.353889  0.036572247   0.04329217            2 
   77000    1.2192623   -6.5053645    33.804407  0.036584856  0.043286498            2 
   78000    1.2044078    -6.515367    34.391352  0.036742897  0.043278533            2 
   79000    1.2345919   -6.5080413    34.977023  0.036895593  0.043271782            2 
   80000    1.2307118   -6.5016584    35.580802  0.037063335  0.043278798            4 
   81000     1.224996   -6.5002467    36.121715  0.037162258  0.043282732            2 
   82000    1.2042696   -6.5128512    36.482011  0.037075214  0.043293038            3 
   83000    1.2057789   -6.5288891    36.949483  0.037097875  0.043285297            2 
   84000    1.2130327   -6.5163853    37.490262   0.03719272   0.04327752            2 
   85000    1.2362806   -6.5211939    37.858354  0.037116033  0.043263641            2 
   86000    1.2076836   -6.4717052      38.2928  0.037105426  0.043244247            4 
   87000    1.2041753   -6.4912394    38.873453  0.037235108  0.043221811            3 
   88000    1.2018258   -6.5072357    39.315707  0.037230783  0.043212768            1 
   89000     1.216295   -6.5046708    39.810475  0.037275725   0.04319698            3 
   90000     1.203131   -6.5160893    40.314713  0.037328438  0.043172193            2 
   91000    1.2296385   -6.5421323    40.764617  0.037330235  0.043149568            3 
   92000    1.2351323   -6.4927546    41.288849   0.03739932  0.043121338            1 
   93000    1.2092421   -6.5135473    42.113304  0.037735935  0.043109372            2 
   94000    1.2528542   -6.5235267    42.565097  0.037735015  0.043109129            1 
   95000    1.2115175   -6.5403049    42.971344  0.037694161  0.043109201            5 
   96000    1.2345473   -6.5121138    43.556323  0.037809308  0.043103409            3 
   97000    1.2057211    -6.544632    44.201216  0.037973553  0.043104113            1 
   98000    1.2336568   -6.5609602    44.846727  0.038134972  0.043108339            1 
   99000    1.2161151   -6.5644932    45.268694  0.038104961  0.043116599            4 
  100000    1.2110918   -6.5027387    45.977614  0.038314678  0.043127138            3 
  101000    1.1912974   -6.5503897    46.481044  0.038350696  0.043141324            4 
  102000    1.2014689   -6.4877914    47.254628  0.038606722  0.043163291            3 
  103000    1.2060386   -6.5537291    47.378919  0.038332459    0.0431815            3 
  104000    1.2276381   -6.5292769    47.755794   0.03826586  0.043180409            1 
  105000    1.1995574   -6.5007843    48.310734  0.038341852  0.043172109            2 
  106000    1.2224942   -6.4959301    48.628031  0.038229584  0.043165892            3 
  107000    1.1939223   -6.5077985    49.217328  0.038331252  0.043154851            1 
  108000    1.1595512   -6.5403374    49.357261  0.038084306  0.043137103            1 
  109000     1.191119   -6.4999522    49.641908  0.037952529  0.043110187            2 
  110000    1.2157181   -6.5217137    50.256217  0.038072892   0.04308168            3 
  111000    1.2212786   -6.5441553    51.033782   0.03831365  0.043058056            3 
  112000    1.2239594   -6.5239444    51.306258  0.038174299  0.043036616            4 
  113000     1.189868   -6.5215344    52.017115  0.038360704  0.043016269            3 
  114000     1.199239   -6.5423734    51.841352  0.037895725  0.042982482            2 
  115000    1.1802771    -6.493834    52.403459  0.037973521  0.042944629            2 
  116000    1.1932547   -6.5314362    52.866388  0.037978727   0.04290432            2 
  117000    1.2315492   -6.5286338    53.469265  0.038083522  0.042865048            3 
  118000    1.2013769   -6.4888613    53.694309  0.037919709  0.042818636            3 
  119000    1.1575773   -6.5370039    54.034084  0.037838994  0.042769481            2 
  120000    1.2396309   -6.5205286    54.397779  0.037776235  0.042711367            1 
  121000    1.2284447   -6.5260528    54.814482  0.037751021  0.042654744            2 
  122000    1.1985947   -6.5174617    55.425641  0.037859044  0.042604412            1 
  123000    1.2059044   -6.5353824     55.74604  0.037768319  0.042556282            1 
  124000    1.1824707   -6.5600119    56.265548  0.037812868  0.042511185            2 
  125000    1.1989213   -6.5347216    57.167069  0.038111379  0.042466979            2 
  126000    1.2001784   -6.5299298     57.50153  0.038030112  0.042430459            3 
  127000    1.2092748   -6.5152127    58.086149  0.038114271  0.042393517            2 
  128000    1.2011815   -6.5120531    58.654308  0.038186399  0.042355165            2 
  129000    1.2057428   -6.5438985    58.915369  0.038059024  0.042319822            4 
  130000    1.2079015   -6.5603562    59.291054  0.038007085  0.042284093            4 
  131000    1.1873669   -6.5401691    59.849503  0.038072203  0.042249083            4 
  132000    1.1862073   -6.5343814    60.102915  0.037943759  0.042207703            1 
  133000    1.1983872   -6.5279732    60.724731  0.038048077  0.042166863            2 
  134000     1.216209    -6.590265    61.172815  0.038042795  0.042127656            4 
  135000    1.1883023   -6.5437654    61.612299  0.038032283  0.042092125            1 
  136000     1.193942   -6.5317651    62.386503  0.038227024  0.042057382            3 
  137000     1.170608     -6.52097    62.562253  0.038054898  0.042024895            1 
  138000    1.2070532   -6.6110607    63.106629  0.038107867  0.041993591            3 
  139000    1.2246919   -6.5470894    63.837732  0.038272021  0.041966539            2 
  140000    1.2052978   -6.5327428    64.358958  0.038308903  0.041940625            1 
  141000     1.197268   -6.5539031    64.582047  0.038169058  0.041916416            2 
  142000    1.1914082   -6.5687404    64.945308  0.038113444  0.041893242            2 
  143000    1.1826503   -6.5499213    65.416411  0.038121451  0.041864987            1 
  144000    1.2327317   -6.5775441     65.72196  0.038033542  0.041835211            2 
  145000    1.1841118    -6.591567    66.414023  0.038168979  0.041804757            3 
  146000    1.1893028   -6.5002281    67.074228  0.038284377  0.041779085            1 
  147000    1.1723299   -6.5442263    67.679097  0.038366835   0.04175236            2 
  148000    1.1857832   -6.5441425    68.163976  0.038380617  0.041731733            2 
  149000    1.2017906    -6.590734    68.638079  0.038388187   0.04171024            1 
  150000    1.2026606   -6.6029189    69.075614  0.038375341  0.041689298            1 
  151000    1.1620247   -6.5798198    69.108465  0.038139329  0.041661921            2 
  152000    1.2145671   -6.5715317    69.745536  0.038237684  0.041630326            3 
  153000    1.1938627   -6.5736301    70.187731  0.038228612  0.041603341            3 
  154000     1.211666   -6.5434066    70.777338  0.038299425  0.041577737            4 
  155000    1.1977512   -6.5713797    71.227454   0.03829433  0.041552714            1 
  156000    1.1763117   -6.5749901    71.843452  0.038377913  0.041531613            1 
  157000    1.1878072   -6.5708516    72.544062  0.038505341  0.041516224            3 
  158000    1.1803659    -6.555917    73.271156  0.038645125  0.041503685            3 
  159000    1.1947346   -6.5560788    73.627098  0.038588626  0.041496741            3 
  160000    1.1692496   -6.5562351    74.116202  0.038602189  0.041489385            2 
  161000    1.2108331   -6.5235971    75.023581  0.038832081  0.041485071            3 
  162000    1.2215707   -6.5392713    75.352108  0.038761372  0.041482242            2 
  163000     1.171043   -6.5698188    75.569289  0.038634606  0.041473206            1 
  164000    1.2120362    -6.544076    76.063927  0.038650369   0.04146119            2 
  165000    1.1913807   -6.5721401    76.631498  0.038702777  0.041450961            3 
  166000    1.1682128   -6.6292561    77.198923  0.038754479  0.041439789            5 
  167000    1.1868498   -6.5284784    77.668083  0.038756528  0.041432913            3 
  168000    1.1811048   -6.5515689    78.436413  0.038906951  0.041426339            3 
  169000      1.17216    -6.603802    78.643358  0.038778776  0.041419398            2 
  170000    1.1846077   -6.5799396    78.963653  0.038707673  0.041411483            1 
  171000      1.20476   -6.5385023    79.469483  0.038727818  0.041402511            1 
  172000     1.184723   -6.5560862    80.509288  0.039006438  0.041397207            1 
  173000    1.2017676   -6.6160037     80.63906  0.038843478  0.041394156            1 
  174000     1.195718    -6.550466    81.331497  0.038951866   0.04139355            3 
  175000    1.1852351   -6.5994714    81.559184  0.038837707  0.041389543            1 
  176000     1.150483   -6.5729107    81.769274  0.038716512   0.04137904            1 
  177000    1.1555497   -6.5990899    82.204413  0.038702643  0.041366503            2 
  178000    1.1799358   -6.5288194    82.839511  0.038782542  0.041355886            1 
  179000    1.1978793    -6.541266    83.449528  0.038849873  0.041343488            2 
  180000    1.1899554   -6.5543447    83.689279  0.038745037  0.041330899            2 
  181000    1.2039004    -6.593933    84.254973  0.038791424  0.041318352            4 
  182000     1.176665   -6.5524034    84.675067  0.038770635  0.041307137            1 
  183000    1.1885061   -6.5894292    84.986142  0.038700429  0.041292283            1 
  184000    1.1450324   -6.6041226    85.558069  0.038749125  0.041276476            3 
  185000    1.1739571   -6.6005093    85.364053  0.038452276  0.041260307            2 
  186000    1.1537685   -6.5829325    86.191033  0.038616054  0.041242477            2 
  187000     1.213368   -6.5667462    86.873292  0.038713588  0.041228649            2 
  188000    1.1671627   -6.6193858    87.644208  0.038849383  0.041216842            4 
  189000    1.1912408   -6.6209159    88.044964  0.038820531  0.041207434            3 
  190000    1.2003493   -6.5920528    88.461714  0.038798997  0.041199392            1 
  191000    1.1881658   -6.5937057    88.935809  0.038802709  0.041190893            3 
  192000    1.1528788   -6.5682814    89.575535   0.03887827  0.041184151            2 
  193000     1.179986   -6.6300694    89.730256  0.038743634  0.041174928            2 
  194000    1.1681994   -6.6338865    89.869161  0.038603591  0.041159352            3 
  195000    1.1641027   -6.6037405    90.569828  0.038705055  0.041143393            2 
  196000    1.1721364   -6.6321652    91.125585  0.038743871  0.041129464            3 
  197000     1.160186   -6.5779242    91.515313  0.038712061  0.041114785            1 
  198000    1.1924747   -6.6390284    91.473752  0.038499054  0.041098928            5 
  199000    1.1630407   -6.5829978    91.828411  0.038454108   0.04108083            3 
  200000    1.1872771   -6.5848551    92.609781  0.038587409   0.04106211            2 
  201000     1.152294   -6.5942234    92.874029  0.038504987  0.041044232            1 
  202000    1.1872081   -6.6029853    93.388008  0.038526406  0.041027215            2 
  203000    1.1999924   -6.5881201     93.75635  0.038487828  0.041009264            2 
  204000     1.147685   -6.6178514     94.15553  0.038462226  0.040990427            2 
  205000    1.1769716   -6.6370664    94.364112  0.038359395  0.040967932            2 
  206000    1.1786588   -6.6078915    95.265471  0.038537812  0.040946202            1 
  207000    1.1529374   -6.5954598    95.339037  0.038381255  0.040923884            1 
  208000    1.1837772   -6.5755943    96.069092   0.03848922  0.040901668            1 
  209000    1.1884824   -6.6490958    96.465498  0.038463117  0.040881496            1 
  210000    1.1804546   -6.6228405    97.106109   0.03853417   0.04086224            1 
  211000     1.189898   -6.6278634    97.782043    0.0386185  0.040846328            2 
  212000    1.1834833   -6.6240567    98.686657  0.038791925  0.040832861            2 
  213000    1.1718554   -6.6255371     99.22553   0.03882063  0.040822759            2 
  214000    1.1930773   -6.5904796     99.86387    0.0388878   0.04081774            5 
  215000    1.1880524    -6.592138    100.63828  0.039007085  0.040810375            2 
  216000     1.157659   -6.5920954    100.68018  0.038842661  0.040803755            1 
  217000    1.1731962   -6.6555276    101.07279  0.038814436   0.04079636            1 
  218000    1.1440724    -6.603095    101.77911  0.038906389   0.04078956            2 
  219000    1.1907512   -6.5568553    102.39694   0.03896383   0.04078177            2 
  220000    1.1835709   -6.5943161    102.41422  0.038793265  0.040771929            2 
  221000    1.1573998   -6.6003359    102.61175  0.038692213  0.040759745            2 
  222000    1.1543005   -6.6705008    102.73352  0.038563633  0.040743604            2 
  223000    1.1325776   -6.5716435    103.14248  0.038543527  0.040726965            3 
  224000    1.1713161   -6.5793308     103.7557  0.038599591  0.040710826            1 
  225000    1.2007559   -6.6138453     104.1087  0.038558777  0.040696319            2 
  226000    1.1615027   -6.6376261    104.61033   0.03857313  0.040682551            4 
  227000     1.161584   -6.6696082     104.7746  0.038463511  0.040665241            4 
  228000    1.1802345   -6.6582641    104.96093  0.038362913  0.040646156            3 
  229000    1.1471776   -6.6101321    105.70911  0.038467652  0.040626678            1 
  230000    1.1452052   -6.6146893    105.58924  0.038256971  0.040605138            1 
  231000    1.1628503   -6.6107711    105.78014  0.038160225  0.040581667            2 
  232000    1.1713588   -6.5883751    106.40782  0.038221198  0.040557844            1 
  233000    1.1597888   -6.6471861    106.36366  0.038041365   0.04053156            1 
  234000    1.1650696   -6.6297734    107.11816  0.038147492  0.040505919            6 
  235000     1.157557    -6.638419    107.72107  0.038198961  0.040480888            2 
  236000    1.1446222   -6.6260188    108.78538  0.038412916  0.040458767            3 
  237000    1.1469665   -6.5904491    109.04211  0.038341108  0.040439235            3 
  238000    1.1636023   -6.6075026    109.39065  0.038302047   0.04041844            3 
  239000    1.1812226   -6.6306823    109.41198  0.038149227  0.040397207            2 
  240000    1.1780025   -6.6146472    110.11388  0.038233986  0.040374792            2 
  241000    1.1500788   -6.6419521    110.54887  0.038225752  0.040352726            2 
  242000    1.1755247   -6.6519273    110.82769  0.038163806   0.04033242            2 
  243000    1.1565133   -6.6718906    111.53145  0.038248095  0.040312287            5 
  244000    1.1774694    -6.644725    111.51343  0.038085189  0.040291788            2 
  245000    1.1556013   -6.6641756    111.92172  0.038068613   0.04026864            2 
  246000    1.1323227   -6.6739164    112.23727  0.038020754  0.040243943            2 
  247000    1.1470362   -6.6450513    112.83771  0.038069403  0.040221349            3 
  248000    1.1331878   -6.6707727    113.18424  0.038032338  0.040199169            3 
  249000    1.1612087   -6.6329159    113.46989  0.037975199   0.04017569            4 
  250000     1.164498   -6.6215673    114.11722  0.038039073  0.040151877            1 
  251000    1.1560326   -6.6768416    113.82317  0.037789896  0.040127565            1 
  252000    1.1704921   -6.6217852    113.54822  0.037549014  0.040097293            2 
  253000    1.1521591   -6.7119005    114.17556  0.037607232   0.04006573            2 
  254000    1.1579299   -6.6284634    114.95675  0.037715468   0.04003544            2 
  255000    1.1463521   -6.6577538    115.05523   0.03759975  0.040006049            4 
  256000    1.1708928   -6.6373916    115.92339   0.03773548   0.03997712            1 
  257000    1.1421511   -6.6478886    116.10509  0.037647563  0.039947468            4 
  258000    1.1298963   -6.5985359    116.73299  0.037704456  0.039918306            2 
  259000    1.1301739   -6.6346747     116.9301  0.037622298  0.039889385            3 
  260000    1.1662385   -6.6452924    117.21226  0.037568031  0.039861336            2 
  261000    1.1475837   -6.6332111    117.94804  0.037659015  0.039831383            1 
  262000    1.1502349   -6.6574122    118.23985  0.037608095  0.039801967            2 
  263000    1.1683377   -6.6031195    118.68013  0.037604604  0.039772893            3 
  264000     1.163016   -6.6161888    118.35728  0.037360253  0.039743524            2 
  265000    1.1487545   -6.6678873    118.51566  0.037269076  0.039711678            4 
  266000    1.1533354   -6.6375796    119.30726  0.037376962  0.039678529            2 
  267000    1.1751738    -6.632916    119.62384  0.037335781  0.039645946            4 
  268000    1.1092445   -6.6567053    120.17458  0.037367719  0.039612909            2 
  269000    1.1437608   -6.6474306    120.30904  0.037270458  0.039580841            2 
  270000    1.1589236   -6.6338263    120.40709  0.037162682  0.039548063            1 
  271000    1.1413166   -6.6213589    121.22337   0.03727656  0.039515325            2 
  272000    1.1412364   -6.6594827    121.46527  0.037213623  0.039482397            6 
  273000    1.1351267   -6.6727837    121.79584  0.037178216  0.039450064            2 
  274000    1.1631499   -6.7085138    122.43013   0.03723544  0.039417737            4 
  275000    1.1381734   -6.6715356    122.83527  0.037222808  0.039386203            1 
  276000    1.1289717   -6.6781795    122.89381  0.037105619  0.039353426            1 
  277000    1.1478851   -6.6805873    122.83634  0.036954376  0.039318588            3 
  278000    1.1473027   -6.6615059    123.36025  0.036978493  0.039282848            3 
  279000    1.1304641   -6.6484247    123.54847  0.036902171  0.039247211            2 
  280000     1.148638   -6.6885752    123.96526  0.036894423  0.039211983            3 
  281000    1.1342083   -6.6841701    124.24981  0.036847511   0.03917753            2 
  282000    1.1474885   -6.6538425     125.2191  0.037003279  0.039142431            3 
  283000    1.1258207   -6.6813154    125.45812  0.036942908   0.03910887            2 
  284000    1.1357326   -6.6346567    126.03078  0.036980863  0.039076268            1 
  285000       1.1558   -6.6744736    126.48791   0.03698477   0.03904443            2 
  286000    1.1351474   -6.6887353    126.26829   0.03679146  0.039011158            9 
  287000    1.1480595   -6.6364876    127.35899  0.036979961  0.038979287            2 
  288000    1.1560222   -6.6527671    127.48442  0.036887852  0.038946703            6 
  289000    1.1291112   -6.6665158     127.9353  0.036890226  0.038913933            4 
  290000     1.112469   -6.6856787    128.38741  0.036892933  0.038881453            2 
  291000    1.1412626    -6.689589    128.53931  0.036809653  0.038850458            3 
  292000    1.1115326   -6.6821997    129.23421  0.036881908  0.038819238            2 
  293000    1.1320231    -6.695249    129.18227   0.03674126  0.038788146            3 
  294000    1.1450343   -6.6536495    129.60307  0.036735565   0.03875623            4 
  295000    1.1396077   -6.6561718    129.97483  0.036716054   0.03872568            5 
  296000     1.143807   -6.6714727    130.47145  0.036731826  0.038696022            3 
  297000    1.1150497   -6.6765509    131.11693  0.036789263  0.038665923            2 
  298000    1.1219094   -6.6720617    132.02095   0.03691861  0.038636702            2 
  299000    1.1185989   -6.6791283     132.2627  0.036862515  0.038609469            1 
  300000    1.1338375   -6.6918832    132.66564  0.036851565  0.038581841            2 
  301000    1.1241871   -6.6669406    133.03859  0.036832388  0.038554796            2 
  302000    1.1313653   -6.6800634    133.05808  0.036715806  0.038528541            2 
  303000    1.1319161   -6.6547036    133.78559  0.036794718  0.038500669            3 
  304000    1.1342026   -6.6823583    134.40351  0.036843067  0.038474036            3 
  305000    1.1336956   -6.6839154    134.45924  0.036737497  0.038448178            2 
  306000    1.1336053   -6.6723168    135.07884  0.036786177  0.038422492            3 
  307000    1.1467753   -6.6824151    135.50546  0.036782156  0.038396415            2 
  308000    1.1254326   -6.6488321    136.08467  0.036819445  0.038369407            2 
  309000    1.1222925    -6.687808    135.66828  0.036587993  0.038342898            1 
  310000    1.1376892   -6.6778245    136.70563  0.036748824  0.038317215            5 
  311000    1.1295874   -6.6487212    136.75666  0.036644336  0.038291842            1 
  312000    1.1274082   -6.6911491    136.70774   0.03651382   0.03826599            2 
  313000     1.118122   -6.7357109    137.41577  0.036585668  0.038240459            2 
  314000    1.1200666   -6.7006612     137.8848  0.036593631   0.03821466            2 
  315000    1.1263808   -6.6419593    138.22643   0.03656784  0.038189148            3 
  316000    1.1351512   -6.6511216    138.75506  0.036591525  0.038165217            2 
  317000    1.1317402   -6.7399675    138.91584  0.036518359  0.038140293            2 
  318000    1.1114146   -6.6898207    139.64569  0.036594783  0.038115405            2 
  319000    1.1179735   -6.6726163    139.96145  0.036562553  0.038089229            4 
  320000    1.1368033   -6.6780669     140.1538  0.036498386  0.038063311            2 
  321000    1.1321713   -6.6937889     140.2734  0.036415732  0.038037576            3 
  322000    1.1207709   -6.7165095    140.85028  0.036451936  0.038011834            5 
  323000    1.0991754   -6.6498113    141.24168  0.036440061  0.037985005            1 
  324000    1.1385337   -6.6987825    141.49055  0.036391602  0.037958474            3 
  325000    1.1160991    -6.720398    141.53102  0.036290004   0.03793259            2 
  326000    1.1011511   -6.6750112    142.53069  0.036434225  0.037905812            3 
  327000    1.1274221   -6.6996476    142.43976  0.036299632  0.037879025            3 
  328000    1.1201952   -6.6778886    142.59171  0.036227568  0.037852098            5 
  329000    1.1355759   -6.6829311    142.91786  0.036200066  0.037825187            4 
  330000    1.1386011     -6.70786    143.55138   0.03625035  0.037798304            1 
  331000    1.1200313   -6.6909893    144.24206  0.036314718  0.037771639            3 
  332000    1.1261548   -6.7018712    143.72046  0.036074414  0.037744365            2 
  333000    1.1150993   -6.7585137    143.49649  0.035910034  0.037714933            5 
  334000    1.1186324   -6.6836026    144.73794  0.036112259  0.037685328            2 
  335000     1.139809   -6.7254816    144.40951  0.035922764  0.037655097            1 
  336000    1.1010952   -6.7078097     144.5676  0.035855059  0.037625555            3 
  337000    1.0851069   -6.7238315    144.90969  0.035833256  0.037595283            1 
  338000    1.1145825   -6.7042271     145.8346  0.035955275  0.037565458            3 
  339000    1.1249519   -6.7414201    146.06737  0.035906433  0.037535596            2 
  340000    1.1300776   -6.6946348    146.36287  0.035873252   0.03750585            4 
  341000    1.0949464   -6.7487127    146.77752  0.035869384  0.037475651            1 
  342000    1.1163679   -6.7260961    146.78375  0.035766021  0.037446522            6 
  343000    1.0837259   -6.7414285    147.04024  0.035724063  0.037417453            1 
  344000    1.1006143   -6.7065951    147.98499  0.035849078  0.037388744            2 
  345000    1.1213666   -6.6585952    148.53443   0.03587788  0.037361158            1 
  346000    1.0944147   -6.7100878    148.62151  0.035795161  0.037333186            3 
  347000     1.125075   -6.7114077    148.80341  0.035735688  0.037305501            3 
  348000    1.1130196   -6.6851281    149.60695  0.035825419   0.03727813            3 
  349000    1.1097066   -6.6664172    149.86465  0.035784301  0.037250008            2 
  350000     1.108553   -6.7585919    150.42854   0.03581632  0.037222759            5 
  351000    1.1180096   -6.6920929    150.58737  0.035751987  0.037195595            2 
  352000    1.1102888   -6.7238397     151.0478  0.035759422  0.037169821            3 
  353000    1.1000203   -6.6925831    151.54075  0.035774491  0.037144887            2 
  354000     1.111536    -6.726321    151.70378  0.035711812  0.037119475            4 
  355000    1.1075828    -6.731148    152.50386  0.035799028  0.037093944            2 
  356000    1.1013273   -6.7184377     152.6927  0.035742674  0.037069245            3 
  357000    1.1225115    -6.702621    153.09715  0.035736962  0.037043845            2 
  358000    1.1119373   -6.7299903    153.33547  0.035692613  0.037017581            4 
  359000     1.087759   -6.7333546    153.66786  0.035670348  0.036991753            3 
  360000    1.1224317    -6.723952    154.28448  0.035713999  0.036966311            2 
  361000    1.0983329   -6.7293644    154.01783  0.035553516  0.036940789            2 
  362000    1.1119806   -6.7428579    154.44259  0.035553083   0.03691525            2 
  363000    1.0910522   -6.6941879    154.83211  0.035544561  0.036888883            5 
  364000     1.098183   -6.7220749    155.02418  0.035490883  0.036861524            1 
  365000     1.091021   -6.7373219    154.99538  0.035387073  0.036834088            3 
  366000    1.1066929   -6.7439901    155.18048  0.035332532   0.03680702            2 
  367000    1.0917067     -6.69652    156.11637  0.035448767  0.036779882            2 
  368000     1.115548   -6.6849212    156.80602  0.035508609  0.036754059            2 
  369000    1.0989331   -6.7400747     156.6186  0.035370053  0.036728773            4 
  370000    1.1182657   -6.6844862    157.48197  0.035468913  0.036703135            3 
  371000    1.1128076   -6.7190444    156.99655  0.035264275  0.036676698            6 
  372000    1.1366556   -6.7021269    157.63473   0.03531244  0.036649913            2 
  373000    1.1153031   -6.7423383    157.61926  0.035214313  0.036622866            2 
  374000    1.0886946   -6.6953378     158.0442  0.035214841  0.036595337            3 
  375000     1.117881   -6.7196713    158.55472  0.035234383  0.036567004            1 
  376000    1.1167882   -6.7419281    158.84672  0.035205391  0.036539325            2 
  377000    1.1066524   -6.7284632    159.32795   0.03521838  0.036512828            5 
  378000    1.1005063   -6.7185418     159.6542  0.035197133  0.036485968            4 
  379000    1.0926606   -6.7225558    159.82076  0.035140888  0.036459908            3 
  380000    1.0963639     -6.78443    159.85775  0.035056524  0.036433785            3 
  381000    1.0744364   -6.7510208    160.29963  0.035061161  0.036407215            4 
  382000    1.1177389    -6.746303    160.07086  0.034919472  0.036380012            2 
  383000    1.1159895   -6.7357658    161.39322  0.035116019  0.036354156            3 
  384000    1.1059898   -6.7967995    161.42661  0.035031815  0.036327326            2 
  385000    1.0698126   -6.7141354    161.81423  0.035024725  0.036300819            2 
  386000    1.0967188   -6.7394016    161.63987  0.034896345     0.036274            2 
  387000    1.1082144   -6.7108364    162.46339  0.034983504  0.036247202            2 
  388000    1.1051321   -6.7188449    163.12829  0.035036145  0.036220209            2 
  389000    1.1001383   -6.7419433    162.71786  0.034858152  0.036193526            5 
  390000    1.1169354   -6.7322402    163.39829  0.034914165  0.036166687            2 
  391000    1.0992214   -6.7046555    163.50669  0.034847973    0.0361395            2 
  392000    1.0941957    -6.748354    163.68466   0.03479691  0.036112268            6 
  393000    1.1143142   -6.7780884    163.79238  0.034731209  0.036084748            2 
  394000    1.1032313   -6.7546381     164.6545  0.034825401  0.036057889            2 
  395000    1.0880536   -6.7902064    164.14755  0.034630286  0.036030406            2 
  396000    1.0912919   -6.7599158    164.90028  0.034701237  0.036002478            1 
  397000    1.0905047   -6.7565619    165.08639  0.034652895  0.035974065            2 
  398000    1.0983604   -6.7742634    164.98466  0.034544527  0.035945155            2 
  399000     1.079484   -6.7580539    165.74853  0.034617488  0.035915309            4 
  400000    1.0891609   -6.7698635    165.84558  0.034551163  0.035886347            2 
  401000    1.0848248   -6.7379667    166.34531  0.034568851  0.035857402            1 
  402000    1.1245563   -6.7841899    167.43179  0.034708083  0.035829654            4 
  403000    1.0994397   -6.7673647    167.37967  0.034611181  0.035802579            4 
  404000    1.0917688    -6.775525    167.68123  0.034587712  0.035775754            3 
  405000    1.0840895   -6.7619558    167.79227  0.034525158  0.035748471            3 
  406000    1.0992185   -6.7633483    167.95481  0.034473483  0.035721428            2 
  407000     1.090892   -6.7659239    168.60064  0.034521015  0.035693809            2 
  408000    1.0944636   -6.7522763    168.22535  0.034359754  0.035666666            3 
  409000    1.0935346   -6.8032421    169.12558  0.034459165  0.035638798            3 
  410000    1.0893429    -6.752775    168.50357  0.034248692  0.035611442            2 
  411000    1.0713758   -6.7848437    169.38555   0.03434419  0.035583531            4 
  412000    1.0783801   -6.7458414    169.31977  0.034247526  0.035554916            3 
  413000    1.0863623   -6.7576892    169.72109  0.034245579  0.035526916            3 
  414000    1.0936216   -6.7750394    170.35655  0.034290771  0.035499198            2 
  415000    1.1038348   -6.7276426    170.48909  0.034234757  0.035471702            6 
  416000    1.0883734   -6.7993778    171.27304  0.034309503  0.035444352            2 
  417000    1.1126553   -6.7783583    171.03318  0.034179292  0.035417117            3 
  418000    1.1115483   -6.7576214    171.81162  0.034252716  0.035390573            2 
  419000    1.0918064   -6.7902289    172.42174  0.034292311  0.035363624            2 
  420000    1.0709082   -6.7734398    171.83648   0.03409454  0.035336121            7 
  421000    1.0752505   -6.7613874    172.32775  0.034110798  0.035308587            1 
  422000    1.0789419   -6.7962204    172.17685  0.034000168  0.035280419            3 
  423000     1.072992   -6.7517484    172.68305  0.034019513  0.035252203           11 
  424000     1.050056   -6.7413102    173.42646  0.034085389  0.035223603            2 
  425000    1.0925021    -6.753137    173.09076  0.033939366  0.035195424            3 
  426000    1.1038261   -6.7871557    173.52503  0.033944646  0.035167144            2 
  427000    1.0810675   -6.7794698    174.28376  0.034013224  0.035139378            3 
  428000    1.0793446   -6.7453123    173.99703  0.033877926   0.03511165            3 
  429000    1.0808534   -6.7696416    174.65651  0.033927061  0.035083375            3 
  430000    1.0790804   -6.7955314    175.36525  0.033985513  0.035055764            4 
  431000    1.0837503   -6.7949853    175.09087   0.03385361  0.035028325            5 
  432000    1.0838191   -6.7527391    175.62516   0.03387831  0.035001509            2 
  433000    1.0805919   -6.7669503    175.58315  0.033791984  0.034974562            3 
  434000    1.0853205   -6.7555019    176.50951  0.033891994  0.034947105            3 
  435000    1.0928909   -6.7573324    176.91407  0.033891583  0.034920367            2 
  436000    1.0973365   -6.7873637    176.66109    0.0337655  0.034893558            4 
  437000    1.0631164   -6.8000248    176.76954  0.033708913  0.034866724            2 
  438000    1.0672322   -6.7859419    177.90299    0.0338476  0.034839923            2 
  439000    1.0527744   -6.7636654    178.78701  0.033938309  0.034814088            3 
  440000    1.0829659   -6.7590571    177.98262   0.03370883  0.034787793            2 
  441000    1.0621977   -6.7720188    178.83389  0.033793252  0.034761944            2 
  442000    1.0946697   -6.8063986     179.0002  0.033748153  0.034736521            2 
  443000    1.0804706   -6.7815246    180.30056  0.033916583  0.034711616            2 
  444000    1.0614303     -6.77754    179.77803  0.033742122  0.034686835            4 
  445000    1.0835049    -6.784413    180.66893  0.033833132  0.034663559            3 
  446000    1.0852392   -6.7954474    181.20019  0.033856537   0.03463991            8 
  447000    1.0996437   -6.7950937    181.23833  0.033787907  0.034616226            5 
  448000    1.0606591   -6.7931801    181.74479  0.033806695   0.03459335            2 
  449000    1.0726843   -6.7918111    181.58785  0.033702274  0.034570401            1 
  450000    1.0656525   -6.7727096    182.86917  0.033864662  0.034546987            2 
  451000    1.0696006   -6.7453494    182.59676  0.033739238  0.034523975            5 
  452000    1.0998647   -6.7741744    182.67879  0.033679717  0.034501007            4 
  453000    1.0765772   -6.7844416    182.97397  0.033659671  0.034478025            2 
  454000    1.0648665   -6.8272991    183.09888  0.033608459  0.034454998            2 
  455000    1.0691516   -6.7786977    183.30184  0.033571766  0.034431172            1 
  456000    1.0577689   -6.8374815    183.40616  0.033517208  0.034407096            4 
  457000    1.0813245   -6.7541718    184.64409  0.033669601  0.034383808            2 
  458000    1.0519415   -6.7886828    184.27309  0.033528582  0.034360229            3 
  459000    1.0849844   -6.8054714    184.13064  0.033429673  0.034336299            7 
  460000    1.0858667   -6.8028135    184.95925   0.03350711  0.034312281            4 
  461000    1.0679717   -6.8095449    185.49113  0.033530573  0.034288591            3 
  462000    1.0707398    -6.810882    185.51916  0.033463051  0.034265243            2 
  463000    1.0765059   -6.7881718    185.72865  0.033428483  0.034241446            3 
  464000    1.0824204   -6.7977364    186.15669  0.033433313   0.03421789            3 
  465000    1.0746182   -6.7944085    186.51852  0.033426259  0.034194564            5 
  466000    1.0653241   -6.8304439    187.28668  0.033491896  0.034171971            4 
  467000    1.0626843   -6.8108511    187.89355   0.03352847  0.034150296            1 
  468000    1.0579411   -6.7720237    187.99569  0.033475015  0.034129139            3 
  469000    1.0521646   -6.8168526    188.46567  0.033487148  0.034107444            2 
  470000    1.0616038   -6.8093908    188.10821   0.03335252  0.034085871            1 
  471000    1.0815066   -6.7717753    188.93188  0.033427438  0.034064419            2 
  472000    1.0381167   -6.7967464    188.91793  0.033354154  0.034042809            2 
  473000    1.0787777   -6.7899508    189.99967  0.033474219  0.034021588            3 
  474000    1.0535296    -6.805529    189.53473  0.033321859   0.03400035            2 
  475000    1.0587909   -6.8149737    190.56958  0.033433259  0.033979064            4 
  476000     1.079632   -6.7864453     191.0718  0.033450946  0.033958045            4 
  477000    1.0474525   -6.8017471    191.46609  0.033449701  0.033937551            3 
  478000    1.0589094   -6.8174952    191.28845  0.033348753  0.033916968            5 
  479000    1.0630171   -6.8077034    191.93678  0.033391925  0.033896415            4 
  480000    1.0590768   -6.8814922    192.40094   0.03340294  0.033875673            4 
  481000    1.0518701   -6.8302409    192.70346  0.033385907  0.033856037            2 
  482000    1.0474238    -6.794255    192.75186   0.03332501  0.033836418            8 
  483000    1.0585157   -6.7876246    193.28738   0.03334841  0.033816682            2 
  484000    1.0516131   -6.7988795    193.75782  0.033360507  0.033796651            4 
  485000    1.0672688   -6.8000327    194.01005   0.03333506  0.033776675            4 
  486000    1.0515712     -6.78852    194.72933  0.033389803  0.033756979            3 
  487000     1.062397   -6.8319498    194.68596   0.03331382  0.033737544            5 
  488000     1.051814   -6.7823102    194.75194  0.033256821   0.03371753            6 
  489000     1.034605    -6.844955    194.44719  0.033136877  0.033697311            3 
  490000    1.0749829   -6.8696357    195.17323  0.033192727  0.033676982            3 
  491000     1.068735   -6.8686354    195.02771  0.033100425   0.03365699            5 
  492000    1.0742476   -6.8598061    195.55007  0.033121625  0.033636883            2 
  493000    1.0605484   -6.8212378    195.84644  0.033104538  0.033616946            4 
  494000    1.0741228   -6.7920328    196.32248  0.033117828  0.033597163            3 
  495000    1.0354466   -6.8035789    197.17139  0.033193837  0.033577572            3 
  496000    1.0731699   -6.8103655    197.31738  0.033151441  0.033558297            2 
  497000    1.0646477   -6.8221156    197.03818  0.033037925  0.033538621            2 
  498000    1.0441182   -6.8633111    197.12403  0.032985948   0.03351848            1 
  499000    1.0415257   -6.8340164    197.89617  0.033048792  0.033498256            3 
  500000    1.0714602   -6.8198253    198.47838  0.033079731  0.033477788            3 
  501000    1.0542419   -6.8393881     198.2064  0.032968463  0.033457501            3 
  502000    1.0409435   -6.8488436    198.87152  0.033013201  0.033437007            4 
  503000    1.0402558   -6.8388161    198.56089  0.032896105  0.033416771            4 
  504000     1.048634   -6.8428535    199.62079  0.033006083   0.03339688            2 
  505000     1.068446   -6.7953231    200.37573  0.033065302  0.033377865            1 
  506000    1.0444367   -6.8425003    200.01436  0.032940442  0.033358835            1 
  507000    1.0390588   -6.7921356    200.76946  0.032999582  0.033339529            2 
  508000    1.0345682   -6.8298501    200.67131  0.032918521  0.033320718            4 
  509000    1.0527907   -6.8492161    200.43791  0.032815637   0.03330121            4 
  510000    1.0492914   -6.8262959    201.11733  0.032862308  0.033281906            8 
  511000    1.0478014   -6.8048792     201.5171  0.032863193  0.033262388            1 
  512000    1.0656195   -6.8652173    201.45161  0.032788348  0.033243005            1 
  513000    1.0410574   -6.8134066    202.29535  0.032861493  0.033223763            4 
  514000    1.0490301    -6.872106     202.1722  0.032777593  0.033204226            2 
  515000    1.0441233   -6.8355671    203.35849  0.032905904  0.033184563            4 
  516000    1.0345345   -6.8837775    202.15005  0.032646972  0.033164962            5 
  517000    1.0030658   -6.8254856    203.43655  0.032791191  0.033145579            1 
  518000     1.057657   -6.8350777      203.291  0.032704472  0.033126222            2 
  519000    1.0213433   -6.8690263    203.53514  0.032680659  0.033107414            2 
  520000    1.0138003   -6.8318823    204.55598  0.032781407  0.033088666            2 
  521000    1.0450994   -6.8564285    204.73291  0.032746787  0.033070362            4 
  522000    1.0378794   -6.8569365    205.20446  0.032759333  0.033051536            3 
  523000    1.0597975   -6.8483046    204.95867  0.032657533  0.033032445            3 
  524000     1.039219   -6.8548216    205.40308  0.032665884  0.033013296            2 
  525000    1.0503427   -6.8775788    205.56932  0.032630051  0.032994372            6 
  526000    1.0440657   -6.8190262    205.38944  0.032539518  0.032975093            3 
  527000    1.0544375   -6.8583916    205.82889  0.032547263  0.032955898            1 
  528000     1.033835   -6.8593161    206.49376  0.032590555  0.032937137            3 
  529000    1.0378624   -6.7980207    207.00012  0.032608715  0.032918206            3 
  530000    1.0167255   -6.8817487    207.07831  0.032559482  0.032899157            2 
  531000    1.0395556   -6.8784079    207.06807  0.032496558  0.032880324            1 
  532000    1.0516628   -6.8523993    207.32504  0.032475727  0.032861286            4 
  533000    1.0330056   -6.8841548    207.83648  0.032494759  0.032842085            2 
  534000    1.0381291   -6.8487058    207.51062  0.032383055  0.032822352            4 
  535000    1.0367333   -6.8844572    207.63834  0.032342421  0.032802933            3 
  536000    1.0270317   -6.8721535    208.30897  0.032386345   0.03278315            4 
  537000    1.0358272   -6.8319055     208.6953  0.032385987  0.032763637            4 
  538000    1.0463694   -6.8868655    208.62252  0.032314517  0.032743733            2 
  539000    1.0386156   -6.8551503    209.59707  0.032405236  0.032723916            1 
  540000    1.0656466    -6.855142    209.56019  0.032339536  0.032704863            2 
  541000    1.0525523   -6.8595807    209.57951  0.032282735  0.032685914            3 
  542000    1.0347119   -6.8594508    209.91274  0.032274407  0.032666739            2 
  543000    1.0514627   -6.8403157    210.56632  0.032315273  0.032647751            2 
  544000    1.0416771   -6.8367458    211.02578  0.032326254  0.032628646            2 
  545000    1.0310463    -6.906951     210.2716  0.032151621  0.032608937            2 
  546000    1.0650884   -6.8584881    210.91159  0.032190413  0.032589313            6 
  547000    1.0257287   -6.8602534    211.43722  0.032211643  0.032569661            1 
  548000    1.0215277   -6.8901692    211.57813   0.03217429  0.032550616            2 
  549000    1.0464216   -6.8480125     211.7467  0.032141272  0.032531219            2 
  550000    1.0002662   -6.8795002    211.92722  0.032110185  0.032511687            2 
  551000    1.0143001   -6.8758732     212.3076  0.032109437  0.032491808            2 
  552000    1.0077292   -6.8432084    212.37121  0.032060872  0.032471892            2 
  553000    1.0533591   -6.8931836    212.63058   0.03204198  0.032451512            2 
  554000     1.034546   -6.8603783    212.18501  0.031917119  0.032431273            4 
  555000    1.0501536   -6.8652667    212.05182  0.031839613  0.032410411            3 
  556000    1.0363978   -6.9007742    212.32957  0.031823976  0.032389286            2 
  557000    1.0320564    -6.832405    213.09322  0.031881092  0.032368029            2 
  558000    1.0297302   -6.8853067    213.18343  0.031837429  0.032346753            2 
  559000    1.0369057   -6.8656647    213.59342  0.031841595  0.032325786            6 
  560000    1.0295954   -6.9023412    213.56024  0.031779797  0.032304644            4 
  561000    1.0380875   -6.8510598    214.05894  0.031797228  0.032283911            2 
  562000    1.0248184   -6.8417036     214.7069  0.031836728  0.032263208            2 
  563000    1.0262476   -6.8647399    215.33867  0.031873694  0.032242605            3 
  564000    1.0289728   -6.9019747    215.22589  0.031800515  0.032221735            2 
  565000    1.0136393   -6.9114894    215.32253  0.031758485  0.032200475            2 
  566000    1.0150826   -6.8721112     215.0626  0.031664105  0.032179638            3 
  567000     1.025072   -6.8459053    215.79976  0.031716603  0.032158722            3 
  568000    1.0229148   -6.8897566    216.04686  0.031697016   0.03213787            2 
  569000    1.0002308   -6.8947324    215.91681  0.031622263   0.03211671            2 
  570000     1.017968   -6.8747671     216.8902  0.031709094  0.032095582            2 
  571000    1.0366733   -6.9063328    216.07743  0.031534943  0.032074736            3 
  572000    1.0284298   -6.9191686    216.32689  0.031516156  0.032053369            2 
  573000    1.0216017   -6.8933779    216.68157  0.031512736  0.032031886            2 
  574000    1.0439221   -6.8817102    217.19795  0.031532804  0.032010859            4 
  575000    1.0188095   -6.8661096    217.42557  0.031510951  0.031989942            3 
  576000    1.0337773    -6.891884    217.53761  0.031472456  0.031968844            3 
  577000    1.0321591   -6.8698932    217.86169  0.031464716  0.031947222            4 
  578000    1.0617722   -6.8817087    217.74884  0.031394009  0.031925201            2 
  579000    1.0316442   -6.8745002    217.96981  0.031371591  0.031903264            2 
  580000   0.99349322   -6.8764863    217.88569  0.031305416  0.031881032            3 
  581000    1.0255627   -6.9164987    218.39599  0.031324726   0.03185932            2 
  582000    1.0314443    -6.917637    218.25479  0.031250685  0.031837811            3 
  583000    1.0211257   -6.9085179    218.75612  0.031268742  0.031815794            2 
  584000    1.0000566   -6.9070305    218.42361  0.031167753  0.031793639            3 
  585000   0.99418525   -6.8993624     218.8484  0.031174986  0.031771288            4 
  586000     1.044208   -6.9093937    219.96624  0.031280751  0.031749757            5 
  587000    1.0219947   -6.9017979    219.85205  0.031211251  0.031728285            2 
  588000     1.014371   -6.9240871    220.30443  0.031222283  0.031706507            3 
  589000    1.0422657   -6.8980726    220.45636  0.031190769  0.031684732            2 
  590000    1.0261618   -6.9048537    220.19176  0.031100531  0.031662505            3 
  591000    1.0337438   -6.9214443    219.72038   0.03098144  0.031639947            3 
  592000    1.0085286   -6.9079062    220.39204  0.031023655  0.031616904            2 
  593000   0.98971014   -6.9120374    220.19899  0.030944209  0.031594037            2 
  594000    1.0306515   -6.8749215    220.46705   0.03092972  0.031571574            3 
  595000    1.0388525   -6.9386489    220.97247  0.030948525  0.031548658            3 
  596000    1.0164056     -6.87029    220.91374  0.030888387  0.031525776            3 
  597000    1.0161046   -6.9368928    221.34148  0.030896354  0.031503129            3 
  598000    1.0209228   -6.9182019    221.94082  0.030928208  0.031480432            2 
  599000     1.004658   -6.9484875    221.74931  0.030849932  0.031457884            2 
  600000    1.0146817   -6.9289977     221.7745  0.030802014  0.031434894            3 
  601000   0.99360642    -6.928581    222.28208  0.030821142  0.031412485            3 
  602000      1.00229   -6.9260195    221.96273  0.030725737  0.031389875            3 
  603000    1.0408004   -6.9409137    222.78546  0.030788483  0.031367121            4 
  604000    1.0098016   -6.9285709    223.08041  0.030778203  0.031344447            3 
  605000   0.99988801     -6.91429    222.16827   0.03060169  0.031321803            3 
  606000    1.0113626    -6.886133    224.28833   0.03084273  0.031299306            2 
  607000    1.0151768   -6.9071828    223.76316  0.030719818  0.031276909            9 
  608000   0.98637627   -6.9175656    224.30079   0.03074298  0.031254206            3 
  609000   0.99780338   -6.9001683    223.82681  0.030627643   0.03123164            2 
  610000    1.0114487   -6.9752618    224.88541  0.030722051  0.031208689            2 
  611000    1.0030623   -6.9236837    224.33142  0.030596211  0.031186023            2 
  612000   0.99166657   -6.9258086    224.64075  0.030588338  0.031163594            5 
  613000   0.99748557   -6.9327749    224.83398  0.030564707  0.031141041            4 
  614000   0.99634536   -6.9276611    225.05164  0.030544467  0.031118338            3 
  615000    1.0137653   -6.9228681    225.84766  0.030602665  0.031096215            3 
  616000    1.0094045   -6.9280751    225.55037  0.030512767   0.03107419            3 
  617000    1.0098986   -6.9284997    225.97323  0.030520425  0.031052209            1 
  618000   0.99880322   -6.9227939    226.24081   0.03050712  0.031030316            4 
  619000    1.0273026   -6.9536168    226.77836  0.030530204  0.031008742            2 
  620000    1.0130356   -6.9076938    227.57516  0.030588059  0.030987265            3 
  621000   0.99302812   -6.9288863    228.14867  0.030615764   0.03096581            1 
  622000    1.0120964    -6.892101    228.49465  0.030612895  0.030944772            2 
  623000    1.0035829    -6.891214    228.30649  0.030538589  0.030924197            2 
  624000    1.0093534   -6.9107461    229.66646  0.030671269  0.030903723            3 
  625000    1.0163336   -6.9314575    230.27101  0.030702802  0.030883573            3 
  626000    1.0080996   -6.9315756    229.21275  0.030512879  0.030863268            3 
  627000    1.0067756   -6.9647909    228.79037  0.030408077  0.030842481            2 
  628000    1.0158312   -6.9427519    229.36856   0.03043638  0.030821512            2 
  629000    1.0168319   -6.9440924    229.79771  0.030444848  0.030800726            3 
  630000   0.99905237   -6.9235213    230.16881  0.030445609  0.030779984            4 
  631000    1.0129541   -6.9474247    230.57045  0.030450403  0.030759228            2 
  632000    1.0012629   -6.9299478    229.94126  0.030319258  0.030738402            5 
  633000   0.98500839   -6.9189994    231.10375  0.030424401   0.03071767            5 
  634000    1.0177869   -6.9296328    230.58632  0.030308402  0.030697288            3 
  635000    1.0246491   -6.9747564    230.17575  0.030206791  0.030676576            1 
  636000    1.0071018   -6.9203047    231.29236  0.030305602  0.030655843            3 
  637000    1.0017681   -6.9292391     232.0878  0.030362087  0.030635336            3 
  638000   0.98603888   -6.9423614    231.70465  0.030264452   0.03061507            5 
  639000     1.005846   -6.9660804    231.79206   0.03022849  0.030594119            3 
  640000    0.9971888   -6.9417118    232.34968  0.030253865   0.03057363            2 
  641000   0.99909745   -6.9518965     232.8056  0.030265938  0.030553399            2 
  642000    1.0002505   -6.9465873    232.62836   0.03019579  0.030532859            3 
  643000   0.98575935   -6.9538973    232.95666  0.030191376  0.030512413            1 
  644000   0.98653334   -6.9710437    233.37327  0.030198404   0.03049208            2 
  645000    1.0011052   -6.9574163    233.26043  0.030137007  0.030471935            3 
  646000   0.99338666   -6.9570355    234.02554  0.030189054  0.030451418            3 
  647000    1.0046655   -6.9696049    234.08254  0.030149735  0.030431364            1 
  648000   0.99726872   -6.9675527    233.75787  0.030061455   0.03041109            3 
  649000    1.0025139   -6.9814796    234.77897  0.030146247  0.030390955            6 
  650000   0.96050008   -6.9289145    235.16147  0.030148906  0.030370932            3 
  651000   0.99021775    -6.957821     235.1615  0.030102599  0.030350744            2 
  652000   0.98752484    -6.934814    235.55328  0.030106504  0.030330742            2 
  653000   0.98967337    -6.968009    234.64886   0.02994498  0.030310822            3 
  654000   0.99829824    -6.956459    235.54586  0.030013489  0.030290536            3 
  655000    0.9924744   -6.9930773    234.86771  0.029881388  0.030270512            4 
  656000    0.9796363   -6.9868597    236.30391  0.030018281  0.030250709            4 
  657000   0.99742376   -6.9857401    236.52001  0.030000002  0.030231373            3 
  658000    1.0005017   -6.9435676    236.94502  0.030008235  0.030211682            2 
  659000   0.99021262   -6.9647921    236.75635  0.029938841  0.030192344            4 
  660000     1.008865   -6.9676047    237.82521  0.030028436  0.030173079            3 
  661000    1.0065823   -6.9729423    237.15277  0.029898231  0.030153878            7 
  662000   0.96584294   -6.9536427    238.33884  0.030002371  0.030134614            1 
  663000   0.98590605    -6.955379    238.39153  0.029963742  0.030115051            2 
  664000    1.0063354   -6.9958723    237.86366  0.029852366  0.030095341            8 
  665000    1.0108408   -6.9531835     238.4646  0.029882782  0.030075723            2 
  666000    1.0196667   -6.9879888    238.01621  0.029781807  0.030056289            5 
  667000   0.99004016   -6.9582295    239.49039  0.029921338  0.030037171            2 
  668000   0.98536613   -6.9622754    239.24321  0.029845709  0.030018027            4 
  669000   0.99222762   -6.9836993    238.90657  0.029759164  0.029999015            3 
  670000   0.97909098   -6.9574962    239.71447  0.029815233  0.029979878            3 
  671000   0.98520854   -6.9796725    239.66925  0.029765183  0.029961195            4 
  672000   0.99009146   -6.9860287     239.9558  0.029756424  0.029942169            7 
  673000   0.97909903   -6.9956993    239.92265  0.029708104  0.029922908            2 
  674000   0.98034672   -6.9726553    240.85052  0.029778748  0.029903631            3 
  675000   0.98477447   -6.9842301    240.45656  0.029685995  0.029884278            5 
  676000   0.98861736   -7.0059571     240.3404  0.029627761  0.029864881            2 
  677000   0.97967846   -6.9794847    241.28223   0.02969993  0.029845174            2 
  678000   0.99286986   -6.9773352     241.2017  0.029646227  0.029825907            3 
  679000   0.98257412    -7.005306    241.51472  0.029640981  0.029806682            3 
  680000   0.98855542   -6.9456469    242.38136  0.029703598  0.029787332            3 
  681000   0.98633607   -6.9742837    241.60064  0.029564445  0.029767956            2 
  682000   0.98759518    -6.952586     241.5315  0.029512646  0.029748839            2 
  683000   0.94641616   -6.9946369     241.7156  0.029491899  0.029729582            3 
  684000   0.99215119   -7.0319995    242.36293  0.029527647  0.029710281            3 
  685000   0.99338441   -6.9809465    242.22314  0.029467536  0.029691044            5 
  686000   0.98202205   -6.9673473    242.70223  0.029482778  0.029671746            3 
  687000    0.9886371   -6.9524704    242.98163  0.029473755   0.02965252            3 
  688000   0.96346942   -6.9749303     243.1113  0.029446621  0.029633009            5 
  689000   0.96750712     -6.98942     243.2318  0.029418457  0.029613726            2 
  690000   0.95289241   -6.9800602    243.11058  0.029361181  0.029594155            3 
  691000   0.96088823   -6.9740364    243.78495  0.029400018  0.029574567            7 
  692000   0.96398175   -7.0080551    243.66366  0.029342927  0.029555166            2 
  693000   0.99689821   -6.9797164    244.82891  0.029440706  0.029535659            2 
  694000   0.95277926   -6.9655882    244.56463   0.02936655  0.029516561            1 
  695000   0.97348022   -7.0089225    245.43417  0.029428558  0.029497489            6 
  696000    0.9899964   -6.9656997    245.73497   0.02942229  0.029478717            3 
  697000   0.98742669   -6.9998654    245.22469  0.029319068  0.029459863            5 
  698000   0.98234838   -6.9965486     245.4168       0.0293  0.029440867            4 
  699000   0.98085289   -7.0014564    246.14773  0.029345223  0.029422135            2 
  700000   0.97619899   -6.9727965    246.47951  0.029342799  0.029403425            3 
  701000    0.9834738   -7.0194134    246.11165   0.02925721  0.029384793            5 
  702000   0.97129904   -6.9865167    246.70062  0.029285449  0.029366129            3 
  703000   0.98816933   -6.9657361    246.60569  0.029232538  0.029347715            3 
  704000   0.98685438   -7.0086006    247.06362   0.02924522  0.029329231            1 
  705000   0.95644477   -7.0201389    247.61054  0.029268385  0.029310434            4 
  706000   0.97390414   -6.9912713    246.96294  0.029150489  0.029291816            3 
  707000   0.96610332   -7.0088485    248.01532  0.029233301  0.029273514            3 
  708000   0.97526673   -6.9872183    247.58639  0.029141524  0.029255713            3 
  709000   0.97406768   -6.9976559    249.19672  0.029289694  0.029237643            3 
  710000   0.97661937   -6.9932168    248.82784  0.029205145  0.029219728            1 
  711000    1.0023572   -7.0360532    248.36674  0.029110026  0.029201817            2 
  712000   0.98689767   -6.9959372    249.53983  0.029206441   0.02918362            4 
  713000   0.97487579   -6.9821975    249.00223  0.029102645  0.029165446            4 
  714000   0.94337921   -7.0086023    248.90179  0.029050162  0.029147115            2 
  715000    0.9660519    -7.000613    248.94133  0.029014141  0.029128807            2 
  716000   0.97515074   -6.9986477       249.61  0.029051443  0.029110399            4 
  717000   0.95649992   -7.0051636    249.75095  0.029027307  0.029091826            3 
  718000    0.9574293   -7.0523291    249.31317  0.028936069  0.029073189            3 
  719000   0.97758693   -7.0265407    250.20848  0.028999592  0.029054524            4 
  720000   0.96821702   -7.0289796    250.32629  0.028972951  0.029035898            2 
  721000   0.97792296   -6.9963886    250.87046  0.028995661  0.029017596            4 
  722000   0.95119857   -7.0260742    250.88939  0.028957685  0.028999196            6 
  723000   0.95068442   -7.0144909    250.23996   0.02884278  0.028980526            5 
  724000   0.97410702   -7.0476713    250.76831  0.028863756  0.028962021            3 
  725000   0.96604651   -7.0234189    251.80817  0.028943468  0.028943864            1 
  726000   0.96793807   -7.0504012    251.73032  0.028894665  0.028925754            2 
  727000   0.98608956   -7.0167062    252.04429  0.028890909  0.028907818            5 
  728000   0.94750965   -6.9707739    252.80687  0.028938516  0.028890064            4 
  729000   0.94411525   -7.0370409    252.98625  0.028919324  0.028872016            5 
  730000   0.94922553   -7.0066884    252.60677  0.028836389  0.028854083            2 
  731000   0.92266454   -7.0531163    252.45411  0.028779538  0.028836162            4 
  732000   0.95995648   -7.0138365    252.88706   0.02878951   0.02881816            3 
  733000   0.97504673   -7.0185824    253.91741  0.028867373  0.028800485            3 
  734000   0.95770021   -7.0740188    253.49813  0.028780442  0.028782703            2 
  735000   0.95791892   -7.0380732    253.46001  0.028736963  0.028764978            4 
  736000    0.9752235   -7.0426951    254.15275  0.028776353  0.028747279            2 
  737000   0.96284423   -7.0538995    253.68113  0.028683981  0.028729365            3 
  738000   0.95153803    -7.035627    254.30288   0.02871532  0.028711406            2 
  739000   0.97617377   -7.0034275    254.45499  0.028693616  0.028693498            2 
  740000   0.99486726   -7.0022482    254.83192  0.028697288  0.028675649            3 
  741000   0.95097734   -7.0091922    255.11754  0.028690681  0.028657763            3 
  742000   0.94419784   -7.0383241    254.79773  0.028616098  0.028639769            3 
  743000    0.9427527   -7.0641004    254.65463  0.028561533  0.028621608            3 
  744000   0.96694396   -7.0553994    255.32225  0.028597922  0.028603548            3 
  745000   0.95884703   -6.9990943    256.23115  0.028661203  0.028585746            5 
  746000   0.95375099   -7.0080697    256.06846  0.028604609  0.028568077            3 
  747000   0.98300058   -7.0406419    255.58321  0.028512184  0.028550259            4 
  748000   0.95771811   -7.0389859    255.93849  0.028513646  0.028532048            3 
  749000   0.95849408   -7.0675248    257.20374  0.028616348  0.028514309            7 
  750000   0.95073413   -7.0443539    256.58817  0.028509797   0.02849672            3 
  751000   0.95245484   -7.0530912    256.86827  0.028502915  0.028478956            4 
  752000   0.97666988   -7.0710576    256.90868  0.028469491  0.028460979            3 
  753000   0.95685148    -7.078924    256.69568   0.02840811  0.028442771            8 
  754000   0.95126375   -7.0508751    256.50588  0.028349456  0.028424737            7 
  755000   0.95158472   -7.0161358    256.59934  0.028322223  0.028406288            4 
  756000   0.95742181   -7.0561437    257.16386  0.028346987  0.028387986            5 
  757000   0.95488927   -7.0411168    257.54828  0.028351858  0.028369641            4 
  758000   0.97193339   -7.0269497    256.98287  0.028252294  0.028351277            1 
  759000   0.94314388    -7.047136     257.3073  0.028250692  0.028332772            2 
  760000   0.96027931   -7.0535054    257.35091  0.028218302   0.02831431            3 
  761000   0.94041963   -7.0406754    258.78149  0.028337877  0.028296033            6 
  762000   0.95379885   -7.0351988    258.64741  0.028286025  0.028277935            6 
  763000   0.95865218   -7.0261612    259.51812   0.02834405  0.028259845            3 
  764000   0.93197115   -7.0548736    258.59772  0.028206557  0.028241752            4 
  765000   0.95704042   -7.0659611    259.15203  0.028230069  0.028223807            3 
  766000   0.94758062   -7.0666812    259.52499  0.028233789  0.028205913            2 
  767000   0.95469525   -7.0547567     260.3347  0.028284952  0.028188061            4 
  768000    0.9526195   -7.0396992    259.82807   0.02819315  0.028170536            9 
  769000   0.94832116   -7.0075322    260.97904  0.028281214  0.028153085            3 
  770000   0.93238909   -7.0253363    260.81086  0.028226283  0.028135624            2 
  771000    0.9149124   -7.0894624    260.49496   0.02815553  0.028118173            2 
  772000    0.9676117   -7.0360777    260.99251  0.028172767  0.028100898            2 
  773000   0.93035652   -7.0712467    261.35082  0.028174948   0.02808372            2 
  774000   0.91822051   -7.0798037    261.80621  0.028187576  0.028066387            2 
  775000   0.95523095   -7.0528264    261.80503  0.028151078  0.028049143            3 
  776000   0.94562818   -7.0529512    262.41482  0.028180285  0.028032369            2 
  777000     0.937496   -7.0260455    262.79803  0.028185116  0.028015584            2 
  778000   0.95041607   -7.0454522    263.14734  0.028186304  0.027998829            3 
  779000   0.92511087   -7.0809597    262.86353  0.028119762  0.027981642            4 
  780000    0.9410307   -7.0947747    262.16998  0.028009613  0.027964566            3 
  781000   0.93474851   -7.0460956    263.22464  0.028086283  0.027947351            3 
  782000   0.94822184   -7.0606093    263.84018  0.028115961  0.027930297            2 
  783000   0.94870368   -7.0988394    263.13459  0.028004959  0.027913351            1 
  784000   0.93476821   -7.0695452     262.9632  0.027951021  0.027896054            4 
  785000   0.94247571   -7.0608493    264.15767  0.028042215   0.02787874            3 
  786000   0.94548173   -7.0679395    263.77826  0.027966312  0.027861475            4 
  787000   0.93181988   -7.0726349    263.88913  0.027942517  0.027844283            3 
  788000   0.96107918   -7.0584758    263.92477  0.027910826  0.027826883            5 
  789000   0.92675537   -7.0679134    264.47397  0.027933457  0.027809691            3 
  790000   0.93051396   -7.0317374     264.0524  0.027853629  0.027792441            2 
  791000   0.96243687   -7.0480692    264.66585  0.027883044  0.027775226            2 
  792000   0.93051963   -7.0474616    264.82025  0.027864084  0.027758147            2 
  793000   0.94235623   -7.0979345    264.79028  0.027825797  0.027740716            3 
  794000   0.93535509   -7.0612069    265.48287  0.027863442  0.027723347            3 
  795000   0.92245551   -7.0766992    265.38835  0.027818486  0.027706263            2 
  796000   0.92638283   -7.0626818    265.66291  0.027812281   0.02768922            5 
  797000   0.94998108   -7.1121272    265.04623  0.027712906  0.027671778            2 
  798000    0.9232895   -7.1123401    264.90962  0.027663912  0.027654397            3 
  799000   0.96046637   -7.0498195    266.59052  0.027804602  0.027637166            4 
  800000   0.96437451   -7.0530258    266.28833  0.027738368  0.027620021            2 
  801000   0.93797918    -7.063769    266.91828  0.027769276   0.02760307            2 
  802000   0.94361847   -7.0673874    266.71018  0.027713028  0.027586064            5 
  803000   0.93493141   -7.0608197    267.33823  0.027743693  0.027568986            3 
  804000   0.90923287   -7.0519574    266.93784  0.027667686  0.027551818            8 
  805000   0.94280239   -7.0851886    267.18068  0.027658455  0.027534795            4 
  806000   0.91093265    -7.081335     267.2003  0.027626168  0.027517865            5 
  807000   0.94579563   -7.0732522    267.08409  0.027579935  0.027500659            4 
  808000    0.9394871   -7.1099654    267.59188  0.027598172   0.02748346            3 
  809000   0.94488004   -7.1090645    267.72057  0.027577315   0.02746632            7 
  810000   0.94464694   -7.0841871    268.26244  0.027599016  0.027449263            8 
  811000   0.93083202   -7.0552998    268.83265  0.027623577  0.027432326            5 
  812000   0.93659553    -7.085654    267.77904  0.027481429  0.027415234            6 
  813000   0.93666894   -7.0813212    269.32812  0.027606408  0.027398481            3 
  814000    0.9236844   -7.0882134    269.43625  0.027583564  0.027381748            4 
  815000   0.92922562   -7.0723039    269.85567  0.027592604  0.027365025            3 
  816000   0.91722825   -7.1096143    269.01653  0.027473093  0.027348196            3 
  817000   0.91662112   -7.0983156    269.77967  0.027517306  0.027331407            1 
  818000   0.93224478   -7.0775437    270.29112   0.02753577  0.027314638            4 
  819000   0.92224578   -7.0876779    269.78105   0.02745025  0.027298176            4 
  820000   0.89890098   -7.1052068    270.53802  0.027493701  0.027281532            2 
  821000   0.91660905   -7.0744447    270.54795  0.027461221  0.027264835           12 
  822000   0.90201735   -7.0851321    270.83348   0.02745676  0.027248108            2 
  823000   0.93384413   -7.1044482    270.23921  0.027363225  0.027231433            6 
  824000   0.93184322    -7.107338    270.70985  0.027377614  0.027214671            6 
  825000   0.91879585   -7.1164515    271.22288  0.027396251  0.027198154            2 
  826000   0.95358151   -7.1087666    270.93065  0.027333601  0.027181498            4 
  827000   0.94866684   -7.1035434    270.87857  0.027295302  0.027164781            3 
  828000   0.91039618   -7.0748516    271.23279  0.027297986   0.02714826            5 
  829000   0.91165557   -7.0944179    270.99793  0.027241449  0.027131562            2 
  830000   0.91777083   -7.1238682    271.90642  0.027299841  0.027114834            4 
  831000   0.90337686   -7.1149328    271.17944  0.027194087  0.027097968            2 
  832000   0.91715897    -7.124497    271.12533  0.027155983  0.027080988            4 
  833000    0.9082734   -7.1096426    271.44346  0.027155208  0.027063846            6 
  834000   0.90815573   -7.0919588    271.29219  0.027107533  0.027046848            3 
  835000   0.91937059     -7.07739    272.17612  0.027163285  0.027029639            5 
  836000   0.91605083   -7.0970979    271.95755  0.027109006  0.027012562            3 
  837000   0.91911549   -7.1323553    272.04909  0.027085732   0.02699554            4 
  838000   0.90751894   -7.1137748    272.63228  0.027111404  0.026978329            7 
  839000   0.90784232   -7.0831118    272.54208  0.027070132  0.026961087            5 
  840000   0.91494555   -7.0776532    273.54075   0.02713698  0.026943977            3 
  841000   0.91950532   -7.1045247    272.19977  0.026971836  0.026926685            9 
  842000   0.91782969   -7.1153597    272.74548  0.026993813  0.026909176            8 
  843000   0.91575257   -7.0988435    273.43275   0.02702973  0.026891844            3 
  844000   0.91222544   -7.1081123    272.86355  0.026941504  0.026874505            6 
  845000   0.90577433   -7.1292214    273.44006  0.026966476  0.026857311            3 
  846000    0.9174808   -7.1052808    274.44766  0.027033851  0.026840439            4 
  847000   0.92917449   -7.1525796     274.4826  0.027005372  0.026823505            4 
  848000   0.92582278   -7.1017714    274.26657  0.026952297  0.026806359            6 
  849000   0.89445128   -7.1418567    274.85514  0.026978322   0.02678916            2 
  850000    0.9177769   -7.0985262    274.81906  0.026943046  0.026772002            3 
  851000   0.91699994   -7.1071844    273.89834  0.026821224  0.026754856            3 
  852000    0.8972501   -7.1398182    275.16651  0.026913782  0.026737742            2 
  853000   0.93081938   -7.1326833     275.6905  0.026933421  0.026720544            4 
  854000   0.92334066   -7.1159732    274.64085  0.026799458  0.026703541            3 
  855000   0.90300905   -7.1489963    275.39843  0.026841952  0.026686531            5 
  856000   0.92275879   -7.1380228    274.94635  0.026766584   0.02666934            3 
  857000    0.9271488   -7.1328649    275.64913  0.026803688  0.026652282            2 
  858000   0.89478954   -7.0993936    275.23928  0.026732642  0.026635052            4 
  859000   0.90264387   -7.1041029    274.98142  0.026676505  0.026617897            4 
  860000    0.9045513    -7.124216    276.07149  0.026751114  0.026600494            2 
  861000   0.91151965   -7.1301621    275.69615  0.026683716  0.026583247            3 
  862000   0.88780675   -7.1355174    275.90495  0.026672946  0.026565999            4 
  863000   0.91551165    -7.160404    276.66692  0.026715616  0.026548769            7 
  864000   0.90086582   -7.1510265    275.94098  0.026614678  0.026531589            3 
  865000   0.92595045   -7.1351971    276.82047  0.026668638   0.02651463            3 
  866000   0.92914325   -7.1201862    276.64181  0.026620652  0.026497565            2 
  867000   0.89835214   -7.1487889    276.78128  0.026603353  0.026480481            9 
  868000    0.9178173   -7.1339877    276.56772    0.0265522  0.026463637            3 
  869000   0.89824369   -7.1291583    277.12743  0.026575319  0.026446831            2 
  870000   0.89355203    -7.144585    278.22272  0.026649686  0.026430138            2 
  871000   0.92246005   -7.1128245    278.74871  0.026669414  0.026413658            4 
  872000   0.92085414   -7.1434572    278.00386  0.026567647  0.026397191            3 
  873000   0.90045409   -7.1551787    278.51547  0.026586051   0.02638085            5 
  874000   0.91497744    -7.140616    278.62488  0.026566064  0.026364471            2 
  875000   0.90363137   -7.1501404    278.98306  0.026569815  0.026347992            5 
  876000   0.90549351   -7.1268381    278.95847  0.026537145  0.026331533            5 
  877000   0.90538293   -7.1194836    278.87551  0.026499004  0.026314913            3 
  878000   0.91496984   -7.1393767    280.09987   0.02658503   0.02629836            5 
  879000   0.88704155    -7.143434    279.33094  0.026481887  0.026281992            2 
  880000   0.91618399   -7.1467789    279.26686  0.026445725  0.026265589            3 
  881000    0.9090045   -7.1801055     279.0238  0.026392716  0.026249136            9 
  882000   0.90305542    -7.164725    279.77226  0.026433509  0.026232541            6 
  883000   0.89483784    -7.157068    279.24042   0.02635338  0.026215976            3 
  884000   0.91141887   -7.1412752    280.19075  0.026413155  0.026199387            2 
  885000   0.88882219   -7.1371655    280.61434  0.026423196  0.026182984            5 
  886000   0.90120347   -7.1474691    280.11147  0.026346075   0.02616627            3 
  887000   0.90059316   -7.1350404    281.21084  0.026419658  0.026149615            6 
  888000   0.89506194   -7.1315712    279.78249  0.026255864  0.026133073            1 
  889000   0.88710119   -7.1509007    280.06672  0.026252974  0.026116351            1 
  890000   0.89345585   -7.1363418    280.75135   0.02628758  0.026099874            7 
  891000   0.90140908   -7.1404174    280.64328  0.026247968  0.026083386            2 
  892000   0.89912489   -7.1733673    280.65646  0.026219774  0.026066807            2 
  893000   0.89398067   -7.1626289    281.39547  0.026259376  0.026050244            3 
  894000   0.90571372    -7.138824     281.5716  0.026246421  0.026033871            6 
  895000   0.91112673   -7.1616759    282.27316  0.026282417  0.026017754            6 
  896000   0.89404776   -7.1346793    282.80737  0.026302769  0.026001606            3 
  897000   0.89171301   -7.1765311     282.2996  0.026226272  0.025985517            3 
  898000   0.89499122   -7.1785563    283.58198   0.02631607  0.025969343            2 
  899000   0.90450336   -7.1701767    282.55839  0.026191916  0.025953233            3 
  900000   0.88655406   -7.1782559    282.43218  0.026151128  0.025937218            2 
  901000   0.90610809   -7.1539913    283.74074  0.026243132  0.025921281            7 
  902000   0.88949974   -7.1631209    284.15377  0.026252196  0.025905489            8 
  903000   0.89399413   -7.1702771    283.52946   0.02616551  0.025889634            6 
  904000   0.91326792    -7.152294    283.96013  0.026176266  0.025873866            3 
  905000   0.88757357   -7.1803468    284.21597  0.026170899  0.025857975            2 
  906000   0.89957095   -7.1786404    283.53214  0.026079116  0.025842025            4 
  907000   0.89492237   -7.1659434    283.96865  0.026090468  0.025826075            3 
  908000   0.88713657   -7.1864221     284.7008  0.026128928  0.025810149            3 
  909000   0.87859178   -7.1706751    284.43924  0.026076205   0.02579418            3 
  910000   0.88612712    -7.173556    284.12359  0.026018644  0.025778022            3 
  911000    0.8778906   -7.1703994    284.32663  0.026008656   0.02576193            4 
  912000   0.88878335   -7.1785789    284.42381  0.025989018  0.025745897            3 
  913000   0.87859103   -7.1506541    284.05344  0.025926747  0.025729644            4 
  914000   0.88926518   -7.1887643    285.35776  0.026017301  0.025713583            2 
  915000    0.8893067   -7.1684228    285.41295  0.025993894  0.025697709            5 
  916000   0.89195911   -7.1732923    285.87217  0.026007293  0.025681778            4 
  917000   0.90224023    -7.204851    285.47533  0.025942869  0.025665843            5 
  918000   0.89899423   -7.1654862    285.42313   0.02590987  0.025649757           10 
  919000    0.8966435   -7.1980354    285.65905  0.025903069  0.025633687            9 
  920000   0.87366947   -7.1722391    285.62642  0.025871958   0.02561754            8 
  921000   0.87573724   -7.1810254    285.87319  0.025866196  0.025601452            3 
  922000   0.88701386   -7.1890537    286.00851  0.025850371  0.025585352            3 
  923000   0.88299223   -7.1676178    285.77665  0.025801431  0.025569182            3 
  924000    0.8816416   -7.1884719    286.92176  0.025876782  0.025553012            5 
  925000   0.90949676   -7.1991129    286.54869  0.025815197  0.025536956            3 
  926000   0.89601493    -7.206235    286.16446  0.025752741  0.025520929            4 
  927000   0.87864763   -7.1726548    286.49999  0.025755123   0.02550469            5 
  928000   0.90721554   -7.1755994    286.80887  0.025755107  0.025488551            4 
  929000   0.89603572   -7.1838192    286.62089  0.025710521  0.025472518            6 
  930000    0.8699033   -7.1756125    286.51586  0.025673464  0.025456406            2 
  931000   0.89463687   -7.1981661    287.22802  0.025709633  0.025440444            3 
  932000   0.88216196   -7.2023784    287.60118  0.025715413  0.025424525            1 
  933000   0.89254817   -7.1509485    287.93796  0.025717932  0.025408747            9 
  934000   0.88292923   -7.1840412     288.2348  0.025716881  0.025392852            6 
  935000   0.87951332    -7.190152    288.65035  0.025726412  0.025376984            5 
  936000   0.86868175   -7.1842628    288.11751  0.025651488  0.025361316            4 
  937000   0.87268078   -7.1816332    288.87438  0.025691425  0.025345746            5 
  938000   0.87839193   -7.2026502    288.49358  0.025630204  0.025330004            5 
  939000   0.88102886   -7.2012801    289.07028   0.02565409  0.025314194            3 
  940000   0.90911123   -7.1983315    288.31322  0.025559683  0.025298207            3 
  941000   0.88729841   -7.1865725    288.25105  0.025527015  0.025282115            4 
  942000   0.89235872   -7.1746702    290.14932  0.025667845  0.025266242            3 
  943000    0.8730707   -7.1614745    289.33832  0.025568958  0.025250513            4 
  944000   0.88729874   -7.2213325    288.57098  0.025474134  0.025234501            3 
  945000   0.86870692   -7.1925082    289.12219  0.025495784  0.025218789            3 
  946000   0.87689479   -7.1890914    289.54943  0.025506468  0.025202927            3 
  947000   0.86101141   -7.2063917    288.90764  0.025423058  0.025187027            2 
  948000    0.8682461   -7.2098675    289.18142  0.025420307  0.025171102            7 
  949000   0.88029354   -7.1827455     289.9405  0.025460177  0.025155218            4 
  950000   0.87445707   -7.1903171    290.14532  0.025451344  0.025139231            5 
  951000   0.87293916   -7.2390658    289.80179  0.025394478  0.025123252            3 
  952000   0.87313742   -7.1965746    290.41569  0.025421542  0.025107154            4 
  953000   0.87221365   -7.2341097    289.26018  0.025293825   0.02509099            3 
  954000   0.85602968   -7.2248233    290.14077  0.025344232  0.025074824            5 
  955000   0.86168731   -7.2010864    290.18449  0.025321509   0.02505878            4 
  956000   0.88192085    -7.203451    290.02768  0.025281353  0.025042687            5 
  957000   0.85375496   -7.2339495    290.08655  0.025260062  0.025026614            3 
  958000   0.85645068   -7.2161999     290.8942  0.025303949  0.025010626            4 
  959000    0.8806326   -7.2131474    291.20924   0.02530494  0.024994658            5 
  960000   0.85705203   -7.2083997    291.31265  0.025287556  0.024978628            9 
  961000   0.87286766   -7.2111069    291.37746  0.025266863  0.024962625            2 
  962000   0.86615385   -7.2118097    290.90585  0.025199744  0.024946603           11 
  963000   0.88133345   -7.2271999    290.31376   0.02512234  0.024930477            3 
  964000   0.87176225   -7.1842884    291.69541  0.025215717  0.024914454            4 
  965000   0.86439895   -7.2001813    291.65476  0.025186076  0.024898456            3 
  966000   0.89352999   -7.2113165    292.14757  0.025202517  0.024882685            5 
  967000   0.87679113   -7.2200661    292.58209    0.0252139   0.02486692            4 
  968000   0.87150268   -7.2229041    291.78562  0.025119286  0.024851139            7 
  969000   0.88673282   -7.2036433      292.133  0.025123237  0.024835315            4 
  970000   0.89741213   -7.2283485    292.56874  0.025134771  0.024819461            4 
  971000   0.87039754   -7.1943025    292.40521  0.025094852  0.024803719            7 
  972000   0.86844868   -7.2366303    292.32875  0.025062479  0.024787963            6 
  973000   0.88186058   -7.2344521    291.96816  0.025005838  0.024772134            3 
  974000   0.85562873   -7.2279968     292.8069  0.025051925  0.024756113            4 
  975000   0.84851198   -7.2363587    292.70008  0.025017101  0.024740038            3 
  976000   0.86984853   -7.2273377    292.08132  0.024938637  0.024724108            5 
  977000   0.86421789    -7.219839    293.11718  0.025001465  0.024708401            3 
  978000   0.86558946   -7.2292603    293.13652   0.02497755   0.02469247            3 
  979000   0.88454147    -7.210307    293.56402  0.024988425  0.024676396            5 
  980000   0.84705671   -7.2518888    292.73869  0.024892746  0.024660241            5 
  981000   0.85453031   -7.2455987    292.85571  0.024877312  0.024644089            3 
  982000   0.86317576   -7.2439262    292.24807  0.024800413   0.02462783            2 
  983000   0.85884716   -7.2339608    293.84673   0.02491071   0.02461171            2 
  984000   0.86505821   -7.2327431    293.04613  0.024817592  0.024595833            4 
  985000   0.84761679   -7.2511377    293.53644  0.024833878  0.024579828            3 
  986000   0.85194585   -7.2497959    293.31353  0.024789852  0.024563618            7 
  987000   0.83031442   -7.2547204    293.76555    0.0248029  0.024547521            6 
  988000   0.84949912   -7.2276085    293.66176  0.024769042  0.024531407            3 
  989000   0.86009002   -7.2457819    294.44332  0.024809852  0.024515315            7 
  990000   0.83965138   -7.2304188    294.71045  0.024807277  0.024499411            6 
  991000     0.845403   -7.2633412    293.82385   0.02470769   0.02448342            2 
  992000   0.87173106   -7.2381788    295.07243  0.024787671  0.024467348            4 
  993000   0.86030947   -7.2220465    294.17485  0.024687382  0.024451398            3 
  994000   0.84777076   -7.2514337    294.83525  0.024717912  0.024435445            3 
  995000   0.85313187   -7.2200112    294.35732  0.024653042  0.024419363            3 
  996000   0.84834422   -7.2397335    294.69639  0.024656659  0.024403153            4 
  997000   0.85477089   -7.2654475    294.46362  0.024612472  0.024386844            6 
  998000   0.84808105   -7.2792267    294.15896  0.024562371  0.024370557            5 
  999000   0.87722717   -7.2442481    295.04873  0.024612006  0.024354326            5 
 1000000   0.84016131   -7.2480898    295.10271  0.024591892  0.024338155            3 
 1001000   0.88001265   -7.2678455    296.15241  0.024654713  0.024322154            6 
 1002000   0.84753572   -7.2559735    295.26838  0.024556585  0.024306071            3 
 1003000   0.84275722   -7.2344534    295.32631  0.024536915  0.024289901            6 
 1004000   0.85504177   -7.2481219    295.73217  0.024546163  0.024273817            5 
 1005000   0.84531683   -7.2288841    295.25781  0.024482405   0.02425768            2 
 1006000   0.85383369   -7.2384341    296.27732  0.024542521  0.024241571            2 
 1007000   0.84672421   -7.2280262    296.72135  0.024554895    0.0242256           14 
 1008000   0.85037352   -7.2587659    296.07422  0.024477036  0.024209541            2 
 1009000   0.84857694    -7.279725    296.15791  0.024459689   0.02419354            4 
 1010000   0.83330305   -7.2197043    296.06491  0.024427798  0.024177494            3 
 1011000   0.85990377     -7.23467    296.26396  0.024420043  0.024161472            8 
 1012000   0.85098181     -7.26537    297.11301  0.024465828   0.02414541            4 
 1013000    0.8304463   -7.2605301     296.4495  0.024387093  0.024129272            7 
 1014000    0.8604782   -7.2754878    296.00179  0.024326248  0.024113325            7 
 1015000   0.82682003   -7.2949514    296.51425  0.024344355  0.024097195            3 
 1016000   0.83109639   -7.2362113    296.63513  0.024330309  0.024081138            8 
 1017000   0.85536216   -7.2428242    297.81416  0.024402995  0.024065227            5 
 1018000   0.83343992   -7.2436509    297.45477  0.024349604  0.024049426            4 
 1019000   0.85341957   -7.2548233    297.81375  0.024355066  0.024033727            4 
 1020000   0.85865281   -7.2619276    296.78653  0.024247265  0.024017763            3 
 1021000   0.85427316   -7.2963781    297.71166  0.024299025  0.024001834            5 
 1022000   0.83205149   -7.2958918    297.04664  0.024221024  0.023985872            3 
 1023000   0.84041626   -7.2583555    297.65461  0.024246873   0.02396978            5 
 1024000   0.84141328   -7.2509488    297.28138  0.024192821   0.02395367            3 
 1025000   0.83450524   -7.2845047    297.43691  0.024181863  0.023937589            9 
 1026000   0.83670479   -7.2483696    297.87113  0.024193562  0.023921558            5 
 1027000   0.83837759   -7.3004406    297.86977  0.024169894  0.023905579            5 
 1028000   0.82370881   -7.2745838    297.34939  0.024104198  0.023889549            7 
 1029000   0.83429608   -7.2900086    297.13782   0.02406364  0.023873488            4 
 1030000   0.84133471      -7.2767    297.69815  0.024085611  0.023857315            3 
 1031000   0.83951668   -7.2930247    298.71744  0.024144636  0.023841217            8 
 1032000   0.85067484   -7.2630383    298.43767  0.024098649  0.023825294            3 
 1033000   0.82041474   -7.2491546    298.63994  0.024091638  0.023809219            4 
 1034000   0.84242056   -7.2697803    297.92605  0.024010804  0.023793187            6 
 1035000   0.85672113   -7.2815866    298.12257  0.024003428  0.023777168            2 
 1036000   0.84122607    -7.301069    298.56186  0.024015594  0.023761046            3 
 1037000   0.83495617   -7.2781794    298.52534    0.0239895  0.023744983            3 
 1038000   0.82322697   -7.2771814    298.79204    0.0239878  0.023728964            1 
 1039000   0.84294642   -7.2709883    299.03686  0.023984349  0.023712955            6 
 1040000   0.83423347   -7.2888503     298.9536  0.023954616  0.023696939            2 
 1041000   0.84286226    -7.269182     299.0879  0.023942355  0.023680928            2 
 1042000   0.83799224   -7.2780989    299.06482  0.023917532  0.023664913            7 
 1043000   0.85582822   -7.2745564    299.09612  0.023897101  0.023648914            5 
 1044000   0.84949892   -7.2811961    299.26716  0.023887864  0.023633025            4 
 1045000   0.84376433   -7.2765558    299.28684  0.023866574  0.023617106            8 
 1046000   0.84184151   -7.3218857    299.35543  0.023849221   0.02360119            3 
 1047000   0.84372572   -7.2770532    299.77441  0.023859791  0.023585277            6 
 1048000   0.84682208   -7.2933128    300.10153  0.023863035  0.023569354            4 
 1049000    0.8459308   -7.2990916     299.9325  0.023826859   0.02355354            6 
 1050000   0.83191483   -7.2746166    300.74073  0.023868312  0.023537713            3 
 1051000   0.83796481   -7.3039365    301.07756  0.023872309  0.023521844            6 
 1052000   0.82520788   -7.3219534    299.86961   0.02375393  0.023505696            4 
 1053000   0.83232614   -7.3065323    300.53919  0.023784361  0.023489583            4 
 1054000   0.81601331   -7.2702481    299.46106  0.023676554  0.023473643            5 
 1055000   0.84216767   -7.3206361    300.00867  0.023697368   0.02345774            4 
 1056000    0.8267877   -7.2938861    301.52539  0.023794617  0.023441947            6 
 1057000   0.84771237    -7.323502    301.04931  0.023734572  0.023426076            5 
 1058000   0.83366944   -7.3123257    300.86647  0.023697737  0.023410167            7 
 1059000   0.83096184   -7.3133409     300.9726  0.023683711  0.023394245            4 
 1060000   0.81344161   -7.2987096    301.90843  0.023734939  0.023378418            6 
 1061000   0.83081979   -7.3274336    301.06985  0.023646705  0.023362522            5 
 1062000   0.83011971   -7.2952674    300.88514  0.023609945  0.023346701            2 
 1063000   0.83415788   -7.3588054    300.65075  0.023569359  0.023330835            3 
 1064000   0.83106734   -7.3090011    300.95407  0.023570964  0.023315046            1 
 1065000   0.84352764   -7.2894483    301.38714  0.023582718  0.023299275            3 
 1066000   0.81811148   -7.3110953     302.1302  0.023618683  0.023283462            6 
 1067000    0.8410948    -7.311929     301.3438  0.023535129  0.023267614            6 
 1068000   0.82843317   -7.3017965    301.13885  0.023497101  0.023251775           10 
 1069000   0.82693762   -7.2943518    301.71523  0.023520052   0.02323609            4 
 1070000   0.81452904   -7.3160963    302.56582  0.023564316   0.02322034            3 
 1071000   0.79887992   -7.3304243     303.1279  0.023586049  0.023204608            5 
 1072000   0.81389357   -7.3104445    302.41008  0.023508246  0.023188882            4 
 1073000   0.81157397   -7.3523129    301.88109  0.023445254  0.023173073            9 
 1074000   0.81560484   -7.3503506    302.62161  0.023480882  0.023157233            3 
 1075000   0.81335606   -7.3049754     302.6971  0.023464891  0.023141488            4 
 1076000    0.8411759   -7.3205114     302.1825   0.02340323  0.023125854            9 
 1077000   0.82646923   -7.3494857    302.18325  0.023381557  0.023110012            4 
 1078000    0.8325515   -7.2965125    303.01429   0.02342411  0.023094296            3 
 1079000   0.79998852   -7.3080793    303.91506  0.023471969  0.023078725            7 
 1080000   0.81139089   -7.3309571    303.36226  0.023407582  0.023063232            6 
 1081000   0.82207115   -7.3064997    303.28351  0.023379857  0.023047696            4 
 1082000   0.81296101   -7.3317997     304.0499  0.023417275  0.023032213            5 
 1083000   0.82529175    -7.321789    304.08754  0.023398548  0.023016886            3 
 1084000   0.81064648   -7.2936873    304.71667  0.023425329  0.023001664            3 
 1085000   0.81218528   -7.3241351    304.23222   0.02336653   0.02298637            8 
 1086000   0.81035946   -7.3498185    303.44518  0.023284621  0.022971017            8 
 1087000   0.82150357   -7.3647011     304.2521  0.023325062  0.022955476            5 
 1088000   0.81049176   -7.3321301    304.59274  0.023329713  0.022940045            5 
 1089000   0.82688675   -7.3510931    304.49292  0.023300652  0.022924657            4 
 1090000   0.82203469    -7.327612    304.48989  0.023279043  0.022909205            8 
 1091000   0.79338832   -7.3417347    304.02281  0.023222029  0.022893769            4 
 1092000   0.81748551   -7.3260255     304.7469  0.023256021  0.022878364            4 
 1093000   0.81651345   -7.3438634    304.73673  0.023233968  0.022862941            3 
 1094000   0.82075035   -7.3450568    304.69706  0.023209709  0.022847488            5 
 1095000   0.82149688   -7.3551831    304.48894  0.023172674  0.022832004            2 
 1096000   0.80288281   -7.3413398    304.29771  0.023136991  0.022816503            6 
 1097000   0.81507331    -7.333908    304.80896  0.023154737  0.022800991            6 
 1098000   0.82812081   -7.3300985    304.93353  0.023143103   0.02278549            5 
 1099000   0.81091852   -7.3604557    304.46463   0.02308649  0.022769955            3 
 1100000   0.82026724   -7.3433398    305.08542  0.023112532   0.02275442            7 
 1101000   0.80503176   -7.3165844    305.14162  0.023095793  0.022739026            3 
 1102000   0.81457365   -7.3762942    305.08748  0.023070741  0.022723636            4 
 1103000   0.82955128   -7.3565909    305.92061  0.023112769   0.02270833            7 
 1104000   0.78708808   -7.3430678     305.0678   0.02302746  0.022692926            8 
 1105000   0.79501766    -7.341166    305.17443  0.023014663  0.022677625            4 
 1106000    0.7912005   -7.3290734    306.03757  0.023058889  0.022662371            4 
 1107000   0.82135765   -7.3391462    306.34099    0.0230609  0.022647179            3 
 1108000   0.83193072   -7.3642008    305.94719  0.023010469  0.022631946            3 
 1109000   0.83344111   -7.3160663    306.24744  0.023012282  0.022616741            4 
 1110000   0.82634368   -7.3597689    306.77331  0.023031029  0.022601586            4 
 1111000   0.80775974   -7.3455886    306.32906  0.022976977  0.022586389            6 
 1112000   0.79369984   -7.3260327    306.75682  0.022988371  0.022571195            3 
 1113000   0.81319105   -7.3467086    306.60146  0.022956084  0.022556028            3 
 1114000   0.80732462   -7.3482708    306.66027  0.022939877  0.022540859            4 
 1115000   0.81588549   -7.3559408    307.15396    0.0229562  0.022525678            4 
 1116000   0.80160397   -7.3805036    306.15765  0.022861234  0.022510476            3 
 1117000   0.80725214   -7.3546111    306.88358  0.022894925  0.022495279           11 
 1118000   0.81069058   -7.3522971    307.47164   0.02291828  0.022480124            4 
 1119000   0.79811465   -7.3713493    307.22437  0.022879384  0.022464921            4 
 1120000   0.81312093      -7.3484    308.01297  0.022917632   0.02244981            6 
 1121000   0.82482498   -7.3482204    307.56611  0.022863969  0.022434749            4 
 1122000    0.8037567   -7.3623403    306.78536  0.022785603   0.02241968            4 
 1123000   0.80608677   -7.3812702    307.63439  0.022828316  0.022404586            5 
 1124000   0.79156556    -7.372992    307.60271  0.022805658  0.022389535            6 
 1125000   0.79619685    -7.372866    307.63653  0.022787891  0.022374475            7 
 1126000   0.79206674   -7.3614091    308.10584  0.022802386  0.022359403            5 
 1127000   0.79333235   -7.3628839    308.18173  0.022787764  0.022344317            4 
 1128000   0.80240969   -7.3472889    307.64322  0.022727779  0.022329228            5 
 1129000   0.81283292    -7.321047    308.06556  0.022738822  0.022314201            3 
 1130000   0.80585124   -7.3664761    307.98519  0.022712772  0.022299042            6 
 1131000   0.78866265   -7.3912609    307.24496  0.022638149  0.022283849            3 
 1132000   0.80571762   -7.4015825    307.34298  0.022625367  0.022268629            6 
 1133000   0.80236493    -7.365868    307.76602  0.022636512  0.022253449            5 
 1134000   0.80596344   -7.3550357    307.50455  0.022597336  0.022238122            4 
 1135000   0.81693512   -7.3696174    308.22205  0.022630107  0.022222882            5 
 1136000   0.79397892    -7.328191    308.60492  0.022638272  0.022207737            4 
 1137000   0.80388288   -7.3561368    308.34639  0.022599413  0.022192651           11 
 1138000   0.79496143   -7.3628506    307.93074  0.022549117  0.022177475            4 
 1139000   0.79443488   -7.3800683    307.87809  0.022525468  0.022162281            3 
 1140000   0.78401867    -7.384046    308.18919   0.02252845   0.02214703            5 
 1141000   0.81498925   -7.3829238    307.35361  0.022447678  0.022131767            4 
 1142000   0.79323551    -7.371277    308.53214  0.022514021  0.022116484            5 
 1143000   0.79866836   -7.3818084    308.66205  0.022503795   0.02210118            3 
 1144000    0.7754972   -7.3716933     308.3675  0.022462668  0.022085838            3 
 1145000   0.81211385   -7.3794034     308.4329  0.022447809  0.022070522            5 
 1146000   0.79475889   -7.3506041    308.94173  0.022465222   0.02205527            5 
 1147000   0.78978127   -7.3958692    308.34441  0.022402238   0.02203999            3 
 1148000   0.80818972   -7.3549209      308.745  0.022411803  0.022024734            5 
 1149000   0.79448095    -7.368571    308.89111  0.022402895  0.022009505            4 
 1150000    0.7932385   -7.4007936    308.27476  0.022338751  0.021994206            7 
 1151000   0.80445762   -7.3731209    308.74534  0.022353413   0.02197886            2 
 1152000   0.81165733   -7.3986973    309.05084  0.022356108  0.021963544            7 
 1153000   0.79416108   -7.3671547    309.00357  0.022333302  0.021948217            3 
 1154000   0.80656863    -7.350991    309.21704  0.022329364  0.021932957            4 
 1155000   0.77472567   -7.3878208    309.46449  0.022327885  0.021917743            7 
 1156000   0.82108123   -7.4014201    309.40703  0.022304428  0.021902422            3 
 1157000   0.78157397   -7.3542431    308.74667  0.022237588  0.021887081            9 
 1158000    0.7831654   -7.3909648    308.42524  0.022195253  0.021871752            6 
 1159000   0.79789225   -7.3778121    308.97022  0.022215288  0.021856371            5 
 1160000   0.79648359   -7.3876747    309.01656  0.022199466  0.021840951            3 
 1161000   0.80043246   -7.3998392    308.97917  0.022177661  0.021825551            7 
 1162000   0.78227842   -7.4035786    308.59548  0.022131059   0.02181022            3 
 1163000   0.78170687   -7.3825019    309.24198  0.022158353  0.021794873            3 
 1164000   0.78716697   -7.3790224    309.42674  0.022152544  0.021779559           10 
 1165000   0.79034674   -7.4450843    309.15805   0.02211431  0.021764184            4 
 1166000   0.79580779    -7.401588     309.6869   0.02213314  0.021748908           11 
 1167000   0.78084827   -7.3911951    308.68284  0.022042476  0.021733571           14 
 1168000   0.78248248   -7.3871349     309.5312  0.022084133  0.021718167            9 
 1169000   0.80195931   -7.3876558    308.90254  0.022020426  0.021702624           14 
 1170000   0.76799529   -7.3865994     309.9753  0.022078013  0.021687283            9 
 1171000   0.79555474   -7.3933753    309.47478   0.02202354  0.021671956            5 
 1172000   0.78734703   -7.4114467    309.88569  0.022033966  0.021656602            3 
 1173000   0.78358019   -7.3726191    310.04808  0.022026718  0.021641383            5 
 1174000   0.76940816   -7.3804462     309.9047  0.021997778  0.021626167            4 
 1175000   0.78129012   -7.3744255    310.17715  0.021998379  0.021610964           10 
 1176000   0.79027409   -7.4102612    310.07564   0.02197248  0.021595653            5 
 1177000   0.78245035   -7.4066627    309.37006  0.021903856  0.021580329            6 
 1178000   0.77196579   -7.4180785    309.74413  0.021911724  0.021564992            2 
 1179000   0.79054911   -7.3910692    309.50816   0.02187646  0.021549577            4 
 1180000   0.78372143   -7.3910821    309.77025   0.02187643  0.021534189            5 
 1181000   0.79378856   -7.4063204    310.53171  0.021911636  0.021518904            6 
 1182000   0.80575751    -7.393308    310.90353  0.021919313  0.021503715            4 
 1183000   0.78898098    -7.376842    310.69771  0.021886286  0.021488473            6 
 1184000   0.78111099   -7.4028372    310.64386   0.02186401  0.021473212           10 
 1185000   0.79217326   -7.4164608    310.40636  0.021828858  0.021458061            3 
 1186000   0.77236625   -7.4202328    311.41201  0.021881114    0.0214428            6 
 1187000   0.78202859   -7.4322415    310.93338  0.021829078  0.021427645            4 
 1188000   0.78174707   -7.4310633    310.76164  0.021798656  0.021412414            3 
 1189000   0.77917061   -7.3989462    310.38121  0.021753659  0.021397194            3 
 1190000   0.79899029   -7.4133403    311.16525  0.021790284  0.021382056            5 
 1191000   0.77617123   -7.3834398    311.71225  0.021810261  0.021366947            6 
 1192000   0.77004555   -7.4505242    311.34835  0.021766523  0.021351849            2 
 1193000   0.78479999   -7.3996116    311.74738  0.021776151   0.02133678            6 
 1194000    0.7807008   -7.4236792    311.98872  0.021774757  0.021321675           20 
 1195000   0.78101455   -7.4110134    311.12192  0.021696089  0.021306598            8 
 1196000   0.77363387   -7.4344332    311.27441  0.021688574  0.021291481           13 
 1197000   0.77988639   -7.4144921    310.65015  0.021626994  0.021276373           14 
 1198000   0.77575822   -7.4329803     310.9292  0.021628353  0.021261314           14 
 1199000   0.75372772   -7.4382234    311.71544   0.02166496  0.021246214            3 
 1200000   0.77602389   -7.4056618    312.38295  0.021693261  0.021231214            5 
 1201000   0.77470101   -7.4530399    311.95309  0.021645372  0.021216253            6 
 1202000   0.77927103   -7.4373127    312.12651  0.021639387  0.021201196            8 
 1203000   0.79646555   -7.4214072    312.12524  0.021621311  0.021186138            7 
 1204000   0.78445821   -7.4266909    312.03355  0.021597006  0.021171211            5 
 1205000   0.76887651   -7.4377745    311.39387  0.021534846  0.021156211            3 
 1206000   0.78492644   -7.4119717      313.239  0.021644486  0.021141356            4 
 1207000     0.754877   -7.4282254    312.43222  0.021570852  0.021126495            8 
 1208000   0.78782168   -7.4231574    312.48782  0.021556831  0.021111695            4 
 1209000   0.77892053   -7.4207451     312.7317   0.02155581   0.02109689            4 
 1210000   0.75818921   -7.4208767    312.23874  0.021504046  0.021082058            5 
 1211000    0.7611477   -7.4221588    312.54255  0.021507194  0.021067243            4 
 1212000   0.79237362   -7.4421483    312.67603  0.021498627  0.021052408            2 
 1213000    0.7821799   -7.4237488    312.98876  0.021502388  0.021037575            6 
 1214000   0.77952002   -7.4293408    313.08873  0.021491538  0.021022823            9 
 1215000   0.76683794   -7.4335367    314.04334  0.021539324  0.021007992            5 
 1216000    0.7588971   -7.4188827     314.0474  0.021521889  0.020993228            3 
 1217000   0.78752313   -7.4183296    313.71268  0.021481284  0.020978471            4 
 1218000   0.77690697   -7.4475776    313.68723  0.021461907  0.020963744            3 
 1219000   0.75262555   -7.4429659    313.54873  0.021434833  0.020949118            4 
 1220000   0.77013608   -7.4554205    313.61785  0.021421984  0.020934448            8 
 1221000   0.74634211   -7.4447352    314.36247   0.02145526  0.020919835            4 
 1222000   0.76820955   -7.4343128    313.51327  0.021379792  0.020905171            3 
 1223000   0.74283499   -7.4532587    313.05181  0.021330867  0.020890473            4 
 1224000   0.77549542   -7.4410164    313.52596  0.021345722  0.020875823            4 
 1225000   0.78003797   -7.4396254    314.58221   0.02140015  0.020861231            4 
 1226000   0.76115678   -7.4412245    313.34106  0.021298332  0.020846657            3 
 1227000   0.77052971   -7.4410772    314.39605  0.021352625  0.020832024            6 
 1228000   0.76694965   -7.4507105    313.94315  0.021304503  0.020817448            5 
 1229000   0.74974624   -7.4693283    313.17317  0.021234958  0.020802801            5 
 1230000   0.74658324   -7.4410266    314.95263  0.021338254   0.02078815            5 
 1231000   0.75084793   -7.4680587    313.83998  0.021245598  0.020773474           10 
 1232000    0.7618037   -7.4549933     314.0244  0.021240828  0.020758763           11 
 1233000   0.75740477    -7.436888    315.08979  0.021295607  0.020744249           12 
 1234000   0.75349264   -7.4352192    314.03654  0.021207222  0.020729678            5 
 1235000   0.77054506   -7.4142221    314.72909  0.021236781  0.020715086           12 
 1236000   0.75931778   -7.4436417     314.0664  0.021174919  0.020700474            5 
 1237000   0.75250973   -7.4864054    314.23697  0.021169292  0.020685805            4 
 1238000   0.77056824   -7.4695052    314.71734  0.021184527   0.02067117            7 
 1239000   0.76739097   -7.4573915    314.36999  0.021144067  0.020656508            5 
 1240000   0.76885108   -7.4416248     314.8493  0.021159227  0.020641857            8 
 1241000   0.77439912   -7.4435911    314.50164  0.021118832  0.020627332            9 
 1242000   0.75919101   -7.4587958      314.672  0.021113258  0.020612748            6 
 1243000   0.76405846   -7.4643285    314.98435  0.021117213  0.020598172            4 
 1244000   0.76328302    -7.460522    315.02371  0.021102875  0.020583597            4 
 1245000   0.74888572    -7.438235    315.17059  0.021095756   0.02056904            3 
 1246000   0.77220573   -7.4591348    315.51099  0.021101591  0.020554497            5 
 1247000   0.75165455   -7.4416059     314.7281  0.021032351  0.020539903            4 
 1248000   0.76073619    -7.446425    314.97368  0.021031896  0.020525307            5 
 1249000   0.75691171   -7.4423806     314.9831  0.021015686  0.020510761           15 
 1250000   0.74960212   -7.4611926    314.65168  0.020976779  0.020496181            2 
 1251000   0.74612086   -7.4826348    314.92286  0.020978075  0.020481599            4 
 1252000   0.76846638   -7.4687402    314.79188  0.020952601  0.020466923            4 
 1253000   0.75756353   -7.4636744    314.21175  0.020897296  0.020452253            7 
 1254000   0.75699275   -7.4714328    314.80729  0.020920208  0.020437605            8 
 1255000   0.75186204   -7.4801862     314.9913  0.020915757  0.020423016            3 
 1256000   0.75525301   -7.4961772    314.80334  0.020886634  0.020408423            6 
 1257000   0.74287166   -7.4701908    314.64088  0.020859247  0.020393852            7 
 1258000   0.74971857   -7.4883387    314.50624  0.020833747  0.020379212            5 
 1259000   0.75028681   -7.4730811    314.56992  0.020821414  0.020364614            3 
 1260000   0.75690131   -7.4960342    315.02502  0.020834988  0.020349991            5 
 1261000    0.7364514   -7.5011238    314.92273  0.020811706  0.020335309            7 
 1262000   0.75855955   -7.4898361    315.43814  0.020829249  0.020320641            6 
 1263000   0.74149633   -7.4928426     314.9917    0.0207833  0.020306062            8 
 1264000   0.75454398   -7.4606088    315.67362  0.020811816   0.02029144            8 
 1265000   0.76121991   -7.5054303    315.56697  0.020788338  0.020276831            6 
 1266000   0.73141259   -7.4951255    315.09179  0.020740639  0.020262291            7 
 1267000   0.74654944   -7.5168828    315.49077  0.020750511  0.020247757           12 
 1268000   0.73654505   -7.5126769      315.675  0.020746254  0.020233195            6 
 1269000   0.74819793   -7.4965265    315.18339  0.020697622  0.020218564            6 
 1270000   0.74990303   -7.4889396    315.16768  0.020680294  0.020203914            4 
 1271000   0.73620074   -7.5014265     315.5927   0.02069189  0.020189282           10 
 1272000   0.73175114   -7.5015051    316.00057  0.020702344  0.020174768           10 
 1273000   0.75192873   -7.4807875    315.78416  0.020671914  0.020160201            7 
 1274000   0.77351607   -7.4690722    315.90205  0.020663399  0.020145776            4 
 1275000   0.74502825    -7.460265    316.53512   0.02068857  0.020131407            3 
 1276000   0.75771553   -7.4742487    315.97939  0.020636062  0.020117048            3 
 1277000   0.73776227   -7.4927661    316.64413  0.020663282   0.02010266           10 
 1278000    0.7453908   -7.5032623    316.52769  0.020639521  0.020088261            9 
 1279000    0.7469749   -7.5107206    316.44259  0.020617839  0.020073815            7 
 1280000   0.73708535    -7.499706    315.79277  0.020559425  0.020059342           12 
 1281000   0.75895794   -7.4960164    316.13445  0.020565603   0.02004488            8 
 1282000   0.73441928   -7.5043776    316.67005  0.020584376  0.020030486            8 
 1283000   0.73158149   -7.4920735    315.98759  0.020524006  0.020016121            6 
 1284000   0.73917478   -7.5271538    315.84063  0.020498483  0.020001761           10 
 1285000    0.7549664   -7.5175367    316.22842   0.02050768  0.019987386            4 
 1286000   0.74176764   -7.5224664    316.00678   0.02047737  0.019973053            4 
 1287000   0.74020479    -7.520592    316.60102  0.020499936  0.019958764            6 
 1288000   0.72727243   -7.4999227    316.03677  0.020447513   0.01994447            4 
 1289000    0.7463177   -7.4885814    317.50232  0.020526398  0.019930197           10 
 1290000   0.74450969   -7.4948628     317.0717  0.020482668  0.019915948            4 
 1291000   0.72036932   -7.4777442    316.95093  0.020459007  0.019901703            4 
 1292000   0.73848668   -7.4861208    316.11819   0.02038946  0.019887369           10 
 1293000   0.73598818   -7.5265049    316.14634  0.020375505  0.019873029            7 
 1294000   0.73605659    -7.516543    316.30773  0.020370153  0.019858683            6 
 1295000   0.75109259   -7.4824533    316.86551  0.020390316  0.019844344            7 
 1296000   0.73855441   -7.5326419     316.0795  0.020324042  0.019830014            5 
 1297000   0.75280755   -7.5056271    317.19554  0.020380079  0.019815669            8 
 1298000   0.74494497   -7.5230971    316.65687  0.020329794  0.019801343            8 
 1299000   0.76365994   -7.5059873    316.68117  0.020315702  0.019787068           13 
 1300000   0.72827459   -7.5397591    316.34785  0.020278708  0.019772717            9 
 1301000   0.72675819   -7.5166973    316.38314  0.020265382  0.019758318            7 
 1302000   0.71416639   -7.5078357    316.86084  0.020280392   0.01974393           14 
 1303000   0.75761151   -7.5178008    316.81255  0.020261739  0.019729558           23 
 1304000   0.74166911   -7.5425501    316.43433   0.02022203  0.019715157            5 
 1305000   0.73689465   -7.5085505    317.07698  0.020247572  0.019700783            3 
 1306000   0.74796001   -7.5533432    316.41634  0.020189914  0.019686345            5 
 1307000   0.73939618   -7.5485029    316.30143  0.020167141  0.019671909            7 
 1308000   0.73195156   -7.5393081    316.51483  0.020165318  0.019657411            7 
 1309000   0.74045714    -7.556554    316.27667  0.020134751  0.019642906            7 
 1310000    0.7317625   -7.5588981    316.30452  0.020121153  0.019628374            7 
 1311000   0.75216945   -7.5466652    317.26552   0.02016689  0.019613895            6 
 1312000   0.71540735   -7.5323752    317.49472  0.020166077  0.019599443            6 
 1313000   0.71619477   -7.5339153    316.14948  0.020065339  0.019585016            6 
 1314000   0.71980066   -7.5389072    317.48232  0.020134597  0.019570632            4 
 1315000   0.72575676   -7.5260641    316.91746  0.020083489  0.019556298            5 
 1316000   0.72517991   -7.5432814    316.54582  0.020044695  0.019541939           10 
 1317000   0.72799764   -7.5234849     316.9641  0.020055941  0.019527622           15 
 1318000   0.72126786   -7.5307737    317.39275  0.020067827  0.019513365           11 
 1319000   0.72367364   -7.5275435    317.59483   0.02006538  0.019499138           10 
 1320000   0.72809877   -7.5424763    317.35072  0.020034768  0.019484883            6 
 1321000   0.71828324   -7.5278153    316.98195  0.019996338  0.019470591            8 
 1322000    0.7295308   -7.5344029    316.89088  0.019975472   0.01945631           10 
 1323000    0.7329114   -7.5223875    316.67359  0.019946686  0.019442034            5 
 1324000   0.73437016   -7.5380338    316.91613  0.019946886  0.019427707            4 
 1325000   0.73802097   -7.5374428     317.4029  0.019962446  0.019413425            5 
 1326000   0.74591624   -7.5232764    316.76024  0.019907003  0.019399184            6 
 1327000   0.74233499    -7.512377    318.00103  0.019969921  0.019385023            3 
 1328000   0.72068024   -7.5337727    317.09878  0.019898267  0.019370832            4 
 1329000   0.75167442   -7.5288261    317.43926  0.019904644  0.019356669            7 
 1330000   0.72598475   -7.5415692    317.52028  0.019894755  0.019342477            6 
 1331000   0.72714386    -7.519156    317.47535  0.019876994  0.019328287            6 
 1332000   0.71717825   -7.5349029    317.53142  0.019865579  0.019314091            4 
 1333000   0.72049254   -7.5346762     316.9334  0.019813291  0.019299851            7 
 1334000   0.70116622   -7.5353355    317.76694  0.019850508  0.019285623            6 
 1335000   0.72007142   -7.5821872    317.13928  0.019796459  0.019271406            6 
 1336000   0.70858924   -7.5500448    317.53798  0.019806511  0.019257182            4 
 1337000   0.73406605   -7.5239752    318.48881   0.01985096  0.019243026           10 
 1338000   0.72601591   -7.5528273    317.37554  0.019766787  0.019228834           10 
 1339000   0.72801097   -7.5648438    317.63755  0.019768331  0.019214639            5 
 1340000   0.71657256   -7.5861758    317.88975  0.019769263  0.019200494            6 
 1341000   0.71918805   -7.5412847    317.75872  0.019746379  0.019186335            5 
 1342000   0.71937123   -7.5617056    317.84944  0.019737298  0.019172174            5 
 1343000   0.71801998   -7.5608087    317.19341  0.019681894  0.019157996            7 
 1344000    0.7174378   -7.5535468    318.15262  0.019726725  0.019143872            3 
 1345000   0.71290792   -7.5529042    317.71591     0.019685  0.019129789            4 
 1346000   0.71460377   -7.5230029    318.37126   0.01971095  0.019115782            3 
 1347000   0.71170195   -7.5682672    317.96816  0.019671378  0.019101751            3 
 1348000   0.71082939   -7.5495553    318.26584  0.019675188  0.019087625            7 
 1349000   0.70539895   -7.5874175    317.28592  0.019600069  0.019073464            8 
 1350000   0.71672935   -7.5715799    317.63538  0.019607122  0.019059318            7 
 1351000   0.71815443   -7.6068945    317.51759  0.019585344  0.019045177           14 
 1352000   0.70074908   -7.5764062    318.19215  0.019612435  0.019031065            5 
 1353000   0.71968889   -7.5408165    317.94288  0.019582587  0.019017032           12 
 1354000   0.70766162    -7.540266    318.15403   0.01958112  0.019003034            5 
 1355000   0.72809396   -7.5460222    317.98227  0.019556105   0.01898899            9 
 1356000   0.71506468    -7.542362    317.95272  0.019539867  0.018974941            4 
 1357000   0.70233732   -7.5745975    318.11242  0.019535275  0.018960906           11 
 1358000   0.72343124   -7.5757697    318.60994   0.01955142  0.018946908            7 
 1359000   0.70377976   -7.5679294    318.79088  0.019548129  0.018932911            8 
 1360000   0.71040994   -7.5845298    318.62233  0.019523427  0.018918905            8 
 1361000   0.70130191   -7.5905166    318.27207  0.019487636  0.018904905            9 
 1362000   0.71648698   -7.5818426    318.37701  0.019479748  0.018890877            7 
 1363000    0.7270267   -7.5692739    318.38659  0.019466043   0.01887689            6 
 1364000   0.71632582   -7.5431129    318.80096  0.019477087  0.018862893            4 
 1365000    0.7174916    -7.554024     319.0301  0.019476807   0.01884896            5 
 1366000    0.7055839   -7.5765718    318.95153  0.019457755  0.018835018            6 
 1367000   0.72632583   -7.5977893    318.07735  0.019390231  0.018820981            5 
 1368000   0.69789923   -7.5993873    317.26908   0.01932682  0.018806921           10 
 1369000    0.7136249   -7.5729999     318.1204  0.019364524  0.018792861            3 
 1370000   0.70221376   -7.5906834    318.18529  0.019354336  0.018778847            3 
 1371000   0.68876155   -7.5803518    318.10078  0.019335082  0.018764799            4 
 1372000   0.70482999   -7.5776756    317.58569  0.019289704  0.018750719            6 
 1373000   0.70956138   -7.5992248    317.11129  0.019246861  0.018736622            6 
 1374000   0.71140755   -7.6172999    318.03274   0.01928874  0.018722579            8 
 1375000   0.71246033   -7.5892894    318.48807  0.019302307  0.018708486           16 
 1376000   0.70108727   -7.5963854    318.27188  0.019275186  0.018694346            6 
 1377000   0.69855286   -7.5747473    317.67794  0.019225245  0.018680229            4 
 1378000   0.71312015   -7.6041986    317.85548  0.019222029  0.018666157            8 
 1379000   0.71032219    -7.613757     317.4633  0.019184391  0.018652083            5 
 1380000    0.7165373   -7.5900871    317.80481  0.019191112  0.018638067            5 
 1381000   0.70588794   -7.5875648    318.54142  0.019221664    0.0186241            8 
 1382000    0.6957696   -7.5843932    318.08427   0.01918019  0.018610175            6 
 1383000   0.70793976    -7.614404    318.52832  0.019193078  0.018596213            6 
 1384000   0.70818757   -7.5945677    318.14141  0.019155913  0.018582206            5 
 1385000   0.70171235   -7.5874952    317.94765  0.019130424  0.018568145            7 
 1386000   0.71598754   -7.6049352    317.69458  0.019101406  0.018554117            6 
 1387000   0.68383049   -7.6064841    318.50475   0.01913631  0.018540061            7 
 1388000   0.69839145   -7.6091981    318.20098  0.019104286   0.01852602            5 
 1389000    0.7078968   -7.5997645    318.48347   0.01910748  0.018511999            5 
 1390000   0.69122802   -7.5880456    318.47637  0.019093308  0.018497973            6 
 1391000   0.68506815   -7.6145754    318.41226   0.01907574  0.018483925            9 
 1392000   0.70415017   -7.6233929    317.50616  0.019007792  0.018469903            6 
 1393000   0.70255971   -7.6100126    317.46603  0.018991746  0.018455878           10 
 1394000   0.71011164   -7.5915803    318.55687  0.019043333  0.018441873            4 
 1395000   0.70494399   -7.5833507    318.45524  0.019023611  0.018427863            6 
 1396000   0.68482552   -7.6169818    317.94097  0.018979284  0.018413855            4 
 1397000    0.6966037   -7.5958626    317.73161   0.01895321  0.018399826            7 
 1398000   0.70260845   -7.6125897    317.81442  0.018944589  0.018385842            5 
 1399000   0.68360011   -7.6171405    318.46272  0.018969664   0.01837184            4 
 1400000   0.70677356   -7.6168853    318.54635  0.018961092  0.018357824            4 
 1401000   0.69622168   -7.6196265    317.96547  0.018913007  0.018343811            8 
 1402000   0.70595989   -7.6221768    318.73468  0.018945238  0.018329843            5 
 1403000    0.6752198   -7.6276599    318.43558  0.018913969  0.018315876            7 
 1404000   0.69472268   -7.6430463    318.36524  0.018896322   0.01830194            8 
 1405000   0.69187807   -7.6122988    318.34841  0.018881875  0.018287998            3 
 1406000   0.70555832   -7.6108332       317.67  0.018828236  0.018274113            6 
 1407000   0.68549549   -7.6349844     318.3008  0.018852215  0.018260214            4 
 1408000     0.704081   -7.6423452    318.72045  0.018863663   0.01824629            5 
 1409000   0.69238477   -7.6487877    318.50203  0.018837357  0.018232396            7 
 1410000   0.70064361   -7.6301034    318.83303   0.01884356   0.01821849            3 
 1411000   0.68535663   -7.6317094    318.50567  0.018810871  0.018204553            5 
 1412000    0.7019553   -7.6395427    318.14689  0.018776375  0.018190659            5 
 1413000   0.68153166   -7.6254266    318.01968  0.018755584  0.018176763            7 
 1414000   0.69475453   -7.6275875     318.3828   0.01876372  0.018162883            8 
 1415000   0.67448201     -7.61126    318.46065  0.018755044  0.018149014            5 
 1416000   0.68995298   -7.6033374    319.10172  0.018779527  0.018135204            5 
 1417000   0.68789316   -7.6137254    318.78495  0.018747645  0.018121404            5 
 1418000   0.66261255   -7.5994491    318.64366   0.01872612  0.018107573            7 
 1419000   0.69962842   -7.6090345    318.89581  0.018727731  0.018093797            7 
 1420000   0.69799496   -7.6458307    318.99584  0.018720413      0.01808            3 
 1421000     0.665722   -7.6267135    318.76244  0.018693552  0.018066261           10 
 1422000   0.69118019   -7.6041174      319.084   0.01869925  0.018052509            4 
 1423000   0.69527711   -7.6064406    318.23754  0.018636539  0.018038751            4 
 1424000   0.66720753   -7.5961372    318.36857   0.01863112  0.018025001            7 
 1425000   0.68406562   -7.6187636    318.97587   0.01865356  0.018011226            8 
 1426000   0.68925373   -7.6251778    319.01207  0.018642594  0.017997437            6 
 1427000   0.68462406    -7.619922    319.16772   0.01863862   0.01798364           14 
 1428000   0.66688306   -7.6113056    318.74132  0.018600684  0.017969854            5 
 1429000    0.6948931   -7.6595985    318.37918  0.018566549  0.017956067            5 
 1430000   0.68269557   -7.6101174    318.61031  0.018567034  0.017942315           10 
 1431000   0.67471595   -7.6415435    318.58707  0.018552706   0.01792858            6 
 1432000   0.68232098   -7.6393581    318.46465  0.018532627  0.017914862            7 
 1433000   0.67621171   -7.6477878    318.55588  0.018524999  0.017901173            5 
 1434000   0.68397796   -7.6316866    319.09977  0.018543687  0.017887519            3 
 1435000   0.68327114   -7.6210182    318.65283   0.01850481  0.017873878            7 
 1436000   0.68674781   -7.6359183    319.15185  0.018520883  0.017860257            8 
 1437000   0.67431127   -7.6255238    319.38155  0.018521315  0.017846619            4 
 1438000   0.67703137   -7.6555808    319.32665  0.018505253  0.017832991            4 
 1439000   0.68132588   -7.6293871    318.85316  0.018464974  0.017819379            7 
 1440000   0.67597597   -7.6235332    319.49951  0.018489555  0.017805785            6 
 1441000    0.6654828   -7.6392903    319.34235  0.018467635  0.017792216            8 
 1442000   0.68075194   -7.6635979    318.98267  0.018434042  0.017778611            6 
 1443000   0.68680589   -7.6431381    319.23075  0.018435594  0.017765027            6 
 1444000   0.67326571   -7.6303344     318.8001  0.018397974    0.0177515           12 
 1445000   0.68660274   -7.6268678    319.36517   0.01841783     0.017738            8 
 1446000   0.67371657   -7.6524281    319.50731  0.018413284  0.017724473           10 
 1447000   0.67516001   -7.6495354    318.49369  0.018342184  0.017710962            5 
 1448000   0.66533345   -7.6483066    319.23911  0.018372417  0.017697474            4 
 1449000   0.66302264   -7.6625401    319.16295  0.018355357  0.017683949            7 
 1450000   0.66773872   -7.6813041    318.85033  0.018324731  0.017670418            7 
 1451000   0.65587043   -7.6594748     319.5605  0.018352889   0.01765688            8 
 1452000   0.67627744   -7.6590777    318.81658  0.018297554  0.017643334            4 
 1453000   0.66807646   -7.6573673     319.0936  0.018300849   0.01762974            6 
 1454000   0.66710326   -7.6584105    319.31913  0.018301188  0.017616178            8 
 1455000   0.67744306   -7.6410368    319.01362  0.018271112  0.017602687            8 
 1456000   0.68319509   -7.6658177    319.25757  0.018272526  0.017589217           10 
 1457000   0.66649019   -7.6708975    319.59168  0.018279094  0.017575738            8 
 1458000   0.67762884   -7.6663252     319.2216  0.018245404  0.017562272            7 
 1459000    0.6787721   -7.6655859    319.07099  0.018224297  0.017548789            9 
 1460000   0.68236186   -7.6570791    318.91325  0.018202811   0.01753532            5 
 1461000   0.67240409   -7.6551385    318.89005  0.018189029  0.017521866            6 
 1462000   0.68228734   -7.6601763    318.47075  0.018152687  0.017508398            6 
 1463000   0.68065943   -7.6590464    318.81858  0.018160092  0.017494918            4 
 1464000   0.69232451    -7.682899    318.77784  0.018145369   0.01748141            4 
 1465000   0.68481429   -7.6767452    318.90316  0.018140111  0.017467922            7 
 1466000   0.65566336   -7.6515291    319.02587  0.018134713  0.017454472            9 
 1467000   0.68016243   -7.6533074    319.50498  0.018149567  0.017441051            6 
 1468000   0.66506949   -7.6752645    319.53045   0.01813865  0.017427653            4 
 1469000   0.66730482    -7.677841     319.2015  0.018107641   0.01741424           10 
 1470000   0.68413002    -7.665563    319.05303  0.018086906  0.017400862            6 
 1471000   0.66633103   -7.6717595    319.50132  0.018100007  0.017387489            5 
 1472000   0.66320582   -7.6813578    320.08426  0.018120712  0.017374124            7 
 1473000   0.66544464   -7.6534344    319.25324  0.018061396  0.017360749            6 
 1474000   0.66789896   -7.6864752    319.26542  0.018049831  0.017347403            5 
 1475000    0.6518241   -7.6712956    319.56386  0.018054455  0.017334104           13 
 1476000   0.67215011    -7.673067    318.70743   0.01799387  0.017320768           10 
 1477000   0.66992289   -7.6821741    319.03004  0.017999889  0.017307418           11 
 1478000   0.67377996   -7.6792791    319.41902  0.018009643  0.017294052            6 
 1479000   0.66137647   -7.6837292    319.19086   0.01798461  0.017280752            7 
 1480000   0.66618259   -7.6759877    319.32281  0.017979888  0.017267407            5 
 1481000   0.65698756   -7.6809848    319.60482  0.017983616  0.017254124            7 
 1482000   0.66217395   -7.7126165    319.52037  0.017966732  0.017240864            8 
 1483000   0.66050262   -7.6637056    319.66061  0.017962498  0.017227608            4 
 1484000   0.64994762    -7.699848    319.52164   0.01794259  0.017214346            8 
 1485000   0.65911871   -7.6994732    319.39954  0.017923655  0.017201077            6 
 1486000   0.64458029   -7.6854509    319.42326  0.017912924  0.017187823            8 
 1487000   0.65670177   -7.6912778    319.22762  0.017889914  0.017174595            4 
 1488000   0.66584509    -7.702919     319.6036  0.017898947  0.017161408            8 
 1489000   0.66241954   -7.6888341    319.46633  0.017879244   0.01714823            6 
 1490000   0.64953983   -7.6847655    319.53396  0.017871027  0.017135031            6 
 1491000   0.64529131   -7.7003585    319.96805  0.017883303   0.01712186            4 
 1492000   0.65336831   -7.6915099    320.03369  0.017874983  0.017108716            5 
 1493000   0.67376587   -7.7012773    319.53351  0.017835092  0.017095537            8 
 1494000    0.6686272   -7.6871544    319.25313  0.017807515  0.017082363            7 
 1495000   0.65918834   -7.7124196    318.96691   0.01777965  0.017069213            7 
 1496000   0.66326543   -7.6971532    319.76632  0.017812295  0.017056059           14 
 1497000   0.66968754   -7.7128025    319.57906  0.017789972  0.017042912           15 
 1498000   0.66627912   -7.6850801    320.07296  0.017805572  0.017029758           12 
 1499000   0.67090481   -7.6782672    319.59375  0.017767053  0.017016633            7 
 1500000   0.66764296   -7.6898003    319.67132  0.017759518  0.017003522           11 
 1501000   0.64906492    -7.703379    319.68291  0.017748329  0.016990402            5 
 1502000   0.65649352   -7.6787423    319.55969  0.017729677  0.016977291           13 
 1503000   0.66161775    -7.690562    319.24493  0.017700429  0.016964195           17 
 1504000    0.6502627   -7.6861113    319.19757  0.017686035  0.016951114            7 
 1505000   0.65537504   -7.6985883    319.40998  0.017686045  0.016938071           32 
 1506000   0.65774504   -7.6949171    320.75053   0.01774848   0.01692504           13 
 1507000   0.64795987   -7.7109955    320.08714  0.017700019  0.016912043           34 
 1508000   0.64746679   -7.7026941    320.01936  0.017684536  0.016899046           15 
 1509000    0.6637566   -7.7146958    319.38363  0.017637709  0.016886014            7 
 1510000   0.66413027   -7.6977662    319.36619  0.017625066  0.016872955           10 
 1511000   0.65348022   -7.7182223    319.50339  0.017620968  0.016859901           22 
 1512000    0.6538847   -7.7310076     319.6611  0.017618006   0.01684686           16 
 1513000   0.63445545   -7.7052235    320.06645  0.017628688  0.016833828           14 
 1514000   0.64709318   -7.7228776    319.38389  0.017579474  0.016820797           12 
 1515000   0.65915663   -7.7215617    319.41183  0.017569408  0.016807765           16 
 1516000   0.64918992   -7.7372024     319.4888  0.017562049  0.016794719            7 
 1517000    0.6554012   -7.7202393    319.54281  0.017553439  0.016781687            7 
 1518000   0.63806355   -7.7131745    319.79361  0.017555644  0.016768679           23 
 1519000   0.65316692    -7.729296    319.12079  0.017507175  0.016755714           12 
 1520000   0.64084895   -7.7112536    319.27295  0.017503999  0.016742741            6 
 1521000   0.65109463   -7.7414208     319.1989  0.017488434  0.016729764           10 
 1522000   0.65721356   -7.7136528     319.6441   0.01750132  0.016716793            5 
 1523000   0.65354319    -7.710745    319.63992    0.0174896  0.016703829           11 
 1524000   0.64234611   -7.7245135    319.67744  0.017480175   0.01669089            7 
 1525000    0.6555591   -7.7313082    318.94665  0.017428779  0.016677919            7 
 1526000   0.64922068   -7.7412682    319.40629  0.017442458   0.01666495            8 
 1527000   0.64442913    -7.741373    319.89017  0.017457442  0.016651998           17 
 1528000   0.65657055   -7.7308183    319.63509  0.017432106  0.016639051           18 
 1529000   0.64423691   -7.7151478     319.3775  0.017406666  0.016626134            7 
 1530000   0.63215897   -7.7570943    319.17533  0.017384277   0.01661325            8 
 1531000   0.63238707   -7.7309189    319.98818  0.017417166   0.01660035           11 
 1532000   0.63314464   -7.7394732    320.06813  0.017410146  0.016587487            6 
 1533000   0.63473072   -7.7391039     320.2516  0.017408763  0.016574639            8 
 1534000   0.63747123   -7.7269905    319.99798  0.017383636  0.016561816            9 
 1535000   0.63152333   -7.7136719    320.13391  0.017379691  0.016548994            8 
 1536000   0.65298248   -7.7296056    320.10543  0.017366831  0.016536227            7 
 1537000   0.64495259   -7.7346859    319.55709  0.017325802  0.016523459           10 
 1538000   0.63723546   -7.7295772    320.55946  0.017368848  0.016510697            9 
 1539000   0.63329352   -7.7142835    320.04029   0.01732945  0.016497958            8 
 1540000   0.63851642    -7.735163    319.78336  0.017304294  0.016485235            8 
 1541000   0.63866656    -7.750852     319.8716  0.017297837  0.016472514           11 
 1542000   0.64392081   -7.7517433    320.18498  0.017303555  0.016459771            9 
 1543000   0.65023061   -7.7350331    319.65848  0.017263906   0.01644705           18 
 1544000   0.64456766   -7.7138012    320.47424  0.017296753  0.016434354           16 
 1545000   0.65807844   -7.7466331    319.58416  0.017237549   0.01642165           13 
 1546000   0.64037306   -7.7378735    319.81387  0.017238781  0.016408946            8 
 1547000   0.63459481   -7.7390031    320.22905  0.017250003  0.016396248           12 
 1548000   0.62580094   -7.7701809    320.10659  0.017232267  0.016383566           12 
 1549000    0.6115901   -7.7419927    320.02399  0.017216699  0.016370908            9 
 1550000   0.63438604   -7.7144613    320.38972  0.017225254  0.016358263           15 
 1551000   0.63539757   -7.7577049     320.4607  0.017217962   0.01634561           12 
 1552000   0.62955898   -7.7520928    320.36884  0.017201935  0.016332958            9 
 1553000   0.64175911   -7.7486389    320.12982  0.017178033  0.016320333            9 
 1554000   0.63128856    -7.725113    319.58206  0.017137605  0.016307697            6 
 1555000   0.64635226   -7.7315529    320.00077  0.017149023  0.016295095           12 
 1556000   0.64077024    -7.767677    320.09285  0.017142934  0.016282495           26 
 1557000   0.63299516   -7.7516687    319.99104  0.017126474  0.016269894           19 
 1558000   0.63442495   -7.7564467    320.37061  0.017135784  0.016257324            5 
 1559000   0.62644791   -7.7449075    320.12181  0.017111493  0.016244749            8 
 1560000    0.6314043   -7.7449474     319.9297  0.017090262  0.016232194           17 
 1561000   0.63369572   -7.7619457    319.74147  0.017069265  0.016219641            6 
 1562000   0.62878655   -7.7561492    320.27734  0.017086926  0.016207083            9 
 1563000   0.62914075   -7.7507292    319.82464  0.017051857  0.016194529            8 
 1564000   0.62234465   -7.7508531     320.2404  0.017063108  0.016181988            5 
 1565000   0.63173841   -7.7646666    319.85225  0.017031536  0.016169439            9 
 1566000   0.62058078   -7.7760412    319.55385  0.017004781  0.016156881            4 
 1567000   0.62885919   -7.7535984    319.96124  0.017015595  0.016144346            9 
 1568000   0.63243311   -7.7608321     319.7375  0.016992852  0.016131831            4 
 1569000   0.62699434   -7.7395805    319.84613  0.016987791  0.016119304            7 
 1570000   0.62197531   -7.7628546     320.4101  0.017006906  0.016106795            8 
 1571000    0.6201172   -7.7559141    319.43277  0.016944238    0.0160943            6 
 1572000   0.62319088   -7.7408735    320.16781  0.016972424  0.016081822            7 
 1573000   0.63181645   -7.7843603    319.79299  0.016941777  0.016069357            7 
 1574000   0.61321739    -7.761055    319.97764   0.01694079  0.016056902            6 
 1575000   0.61700597   -7.7449796    320.29638  0.016946898  0.016044414            8 
 1576000   0.62164345   -7.7545037    319.61341  0.016900032  0.016031929            5 
 1577000   0.62756894     -7.77656    319.46119  0.016881272  0.016019452            6 
 1578000   0.62467309   -7.7624361    319.83357  0.016890239  0.016006977            6 
 1579000   0.62362252   -7.7601113    319.50026  0.016861952  0.015994504            6 
 1580000   0.61785075   -7.7702624    319.57454  0.016855197  0.015982043            9 
 1581000   0.62507871   -7.7815135    319.90371  0.016861886  0.015969583            5 
 1582000   0.61937208    -7.776217    319.89898  0.016850979   0.01595712            8 
 1583000   0.61612726   -7.7924074     319.2748  0.016807475  0.015944636           12 
 1584000   0.62324687   -7.7839079    319.68414  0.016818399   0.01593218           11 
 1585000   0.61063377   -7.7857376    319.61931   0.01680438   0.01591973            5 
 1586000   0.62112875   -7.8067078    319.76405   0.01680139  0.015907284            9 
 1587000   0.62321887   -7.7714042    319.31059  0.016766992  0.015894842            8 
 1588000   0.62140765    -7.780664    319.44051  0.016763251  0.015882427            6 
 1589000   0.61922451   -7.7755196    319.82737   0.01677299  0.015870004            6 
 1590000   0.62674267   -7.7991846    319.68826   0.01675515  0.015857594           11 
 1591000   0.62636156   -7.7817452    320.04557  0.016763334  0.015845173            8 
 1592000   0.61721906   -7.7817286    318.92932  0.016694374  0.015832781           15 
 1593000   0.61309514   -7.7977275    319.41746   0.01670943  0.015820401            7 
 1594000   0.59884635   -7.7942618    319.86687  0.016722442  0.015808036           13 
 1595000   0.60978789   -7.7715298    319.64245  0.016700233  0.015795678           10 
 1596000   0.61690804   -7.7712762    319.68283  0.016691877  0.015783339            9 
 1597000   0.61396134   -7.7797439    319.65241  0.016679838  0.015771004           11 
 1598000   0.61247857   -7.7971872    319.11405  0.016641325  0.015758658           10 
 1599000   0.62681602   -7.7950774    319.90607  0.016672194  0.015746327            8 
 1600000   0.61875401    -7.806466    319.97705  0.016665471  0.015734002            7 
 1601000   0.62798464   -7.8004544    319.55243   0.01663296  0.015721691           13 
 1602000   0.61733441   -7.8076469    319.26918  0.016607843  0.015709385           11 
 1603000   0.61563774   -7.8095203    319.61643  0.016615535  0.015697101            6 
 1604000   0.61323937   -7.7866884    319.91419  0.016620646  0.015684835            9 
 1605000    0.6195641   -7.7785475    319.29223  0.016577997  0.015672586            6 
 1606000   0.60827674    -7.783082    319.44516   0.01657561  0.015660308            3 
 1607000   0.61370255   -7.7896605     320.0718  0.016597791  0.015648065            4 
 1608000   0.61503484   -7.8135182    319.79252  0.016572995   0.01563583            7 
 1609000   0.61600502   -7.8045084    319.49682  0.016547381  0.015623604            3 
 1610000   0.61277921   -7.8278481    319.74047  0.016549714  0.015611372            5 
 1611000   0.61429181   -7.8236833    319.80179  0.016542613  0.015599151           10 
 1612000   0.61069895   -7.8022119    319.13807  0.016498039  0.015586905            8 
 1613000   0.60988177   -7.8197259    319.67712   0.01651566  0.015574665           13 
 1614000   0.61018505   -7.8220937    319.24746  0.016483244  0.015562464            9 
 1615000   0.60752473   -7.8060933    319.44748  0.016483358   0.01555025           12 
 1616000   0.61465872   -7.8200427    319.65998  0.016484116  0.015538075            8 
 1617000   0.61068056   -7.8082976    319.66622  0.016474244  0.015525899            9 
 1618000   0.61259778   -7.8158946    319.29195  0.016444785  0.015513742            5 
 1619000   0.60090031   -7.8196529    320.10691  0.016476576   0.01550159           11 
 1620000   0.60651095   -7.8168875    319.57798  0.016439197  0.015489432            7 
 1621000   0.61702126   -7.7926855    319.28657  0.016414074  0.015477295            7 
 1622000   0.59433644   -7.7986505    319.53134   0.01641653  0.015465172            6 
 1623000   0.60464295    -7.813028    319.70121  0.016415137  0.015453079           14 
 1624000   0.60752363   -7.8149809    319.49857  0.016394631  0.015440955            9 
 1625000   0.62209175   -7.8084146    319.63587  0.016391583  0.015428835            5 
 1626000    0.5939579    -7.836067    319.15582  0.016356899   0.01541673            6 
 1627000   0.60766099   -7.8311768    320.11219   0.01639583  0.015404615            7 
 1628000   0.60560344   -7.8195539    318.81045  0.016319126  0.015392501            9 
 1629000   0.59955975   -7.8280207    319.37028  0.016337747  0.015380391           13 
 1630000   0.60106878   -7.8154295    319.68366  0.016343745  0.015368308           12 
 1631000   0.59399404   -7.8122861    319.73065  0.016336125  0.015356206            6 
 1632000   0.60237038   -7.8400602    319.91619   0.01633559  0.015344135            6 
 1633000   0.60882917    -7.823724    319.45769  0.016302189  0.015332073            8 
 1634000   0.59773386   -7.8447105    319.03883   0.01627085  0.015320025            9 
 1635000   0.60164077     -7.82302    319.09621  0.016263823   0.01530799            5 
 1636000   0.60423706   -7.8382683     319.1725  0.016257768  0.015295959            7 
 1637000   0.59733721   -7.8198643    318.81922  0.016229852  0.015283933           13 
 1638000   0.59908802   -7.8268534     319.7219  0.016265868  0.015271911            6 
 1639000   0.59980748    -7.837081    319.53348  0.016246364  0.015259885            4 
 1640000   0.59768697   -7.8400131    319.28268  0.016223713  0.015247883            8 
 1641000   0.59225685   -7.8346181    319.56297   0.01622806  0.015235864           15 
 1642000   0.59337607   -7.8259648    319.49596  0.016214777  0.015223873            9 
 1643000   0.60827863   -7.8336559     319.1516  0.016187442  0.015211878           12 
 1644000   0.59750717   -7.8523353    319.26852  0.016183522  0.015199885            5 
 1645000   0.60045862   -7.8463395    318.77399  0.016148632  0.015187898            8 
 1646000   0.59259601   -7.8483069    319.50598   0.01617588  0.015175911            5 
 1647000   0.58676354   -7.8441792    319.48308    0.0161649  0.015163942            6 
 1648000   0.60073357   -7.8419078    319.85677  0.016173987  0.015152004            4 
 1649000   0.58687505   -7.8521544    318.99533  0.016120645  0.015140086            9 
 1650000   0.59332892   -7.8335434    319.51868  0.016137307  0.015128153            4 
 1651000   0.60445658   -7.8405396    319.14339   0.01610859  0.015116246            7 
 1652000   0.58645771   -7.8233131    318.61305  0.016072087  0.015104313            9 
 1653000    0.5837202   -7.8237515    319.03299  0.016083534  0.015092392           12 
 1654000   0.59256682   -7.8475333    318.86244  0.016065218  0.015080491           12 
 1655000   0.59726388   -7.8647053    319.77344  0.016101382  0.015068602           11 
 1656000   0.59823848   -7.8541625    319.16824  0.016061203  0.015056737            5 
 1657000   0.57442757    -7.848795    319.89149  0.016087884  0.015044898           10 
 1658000   0.59356005   -7.8333732    319.47076  0.016057035  0.015033055            7 
 1659000   0.59157295   -7.8255488    319.51511  0.016049584  0.015021218            8 
 1660000   0.59188213   -7.8423375    319.14122  0.016021146  0.015009413            6 
 1661000   0.58332572   -7.8339779    319.29276  0.016019103  0.014997592           10 
 1662000   0.58903199   -7.8434325    319.41259  0.016015473  0.014985779           14 
 1663000   0.57968974   -7.8451423    319.32813   0.01600161  0.014973974            9 
 1664000   0.59359504   -7.8429339    319.18875  0.015985014  0.014962185           13 
 1665000   0.59927025   -7.8556407    319.69034  0.016000518  0.014950395            8 
 1666000    0.5984354   -7.8407186    319.28679  0.015970728  0.014938613            8 
 1667000   0.58808699   -7.8582788    318.82629  0.015938127  0.014926849           12 
 1668000   0.57839176   -7.8581721    318.73393  0.015923957  0.014915084           15 
 1669000   0.58682883   -7.8484928    318.95394  0.015925401   0.01490333            9 
 1670000   0.59319119   -7.8384809     319.5715  0.015946682  0.014891592           15 
 1671000   0.59527947   -7.8519435    318.94756  0.015906022  0.014879859           11 
 1672000   0.59509579   -7.8498143    318.75802  0.015887062   0.01486815           14 
 1673000   0.59469043   -7.8563561    319.18346  0.015898757  0.014856434            7 
 1674000   0.59340979   -7.8686041    319.30236  0.015895179   0.01484472            9 
 1675000   0.58184524   -7.8624111    319.07744  0.015874499  0.014833014           12 
 1676000   0.58972602     -7.84761     319.3206  0.015877118  0.014821338           18 
 1677000   0.58045751   -7.8865847    319.16712  0.015860024  0.014809665            7 
 1678000   0.58596902   -7.8835358      319.271  0.015855731  0.014797978           10 
 1679000   0.57998488   -7.8716635    318.90846  0.015828294  0.014786285            5 
 1680000   0.57576787   -7.8650291    318.86818  0.015816874  0.014774623            8 
 1681000   0.58552234   -7.8656858    318.90118  0.015809101  0.014762974            7 
 1682000   0.58764831   -7.8668447    319.51509  0.015830117  0.014751329            7 
 1683000    0.5929114   -7.8851561    318.65887  0.015778316  0.014739682           10 
 1684000   0.59768843   -7.8817935    318.93913  0.015782815  0.014728029           11 
 1685000   0.58671214   -7.8939922    318.81959  0.015767536  0.014716399           15 
 1686000   0.57779304   -7.8616891     318.8667  0.015760513  0.014704788           10 
 1687000   0.57597607   -7.8782304    318.79639  0.015747697  0.014693166           11 
 1688000   0.58475299   -7.8796511    318.65553  0.015731414  0.014681537           16 
 1689000    0.5812792   -7.8618825    318.30737  0.015704922  0.014669913            7 
 1690000   0.58439169    -7.874228    318.61665   0.01571088  0.014658311           20 
 1691000   0.56862555   -7.8843592    318.67392  0.015704411  0.014646708           20 
 1692000   0.58211555   -7.8896384    318.80604  0.015701637  0.014635125           20 
 1693000   0.57831325    -7.883973    318.21244  0.015663144  0.014623545           18 
 1694000   0.58260133   -7.9107978    318.47299  0.015666715  0.014611987            7 
 1695000   0.58239611   -7.8661319    318.28635  0.015648296  0.014600398           16 
 1696000   0.57328498   -7.8866101     317.7535  0.015612888  0.014588844            7 
 1697000   0.57317049   -7.8939709    318.80654  0.015655399  0.014577296           10 
 1698000    0.5721022   -7.9018866    318.87741  0.015649657  0.014565764           27 
 1699000   0.58065675   -7.8884281    318.71258  0.015632361  0.014554252           10 
 1700000   0.57512559   -7.8942284    319.20806  0.015647454   0.01454275           22 
 1701000   0.57517217   -7.8880759    318.88003  0.015622184  0.014531267            6 
 1702000   0.56371979   -7.8927372    318.74463  0.015606376  0.014519811            7 
 1703000   0.57665921   -7.8747358    318.80228  0.015600033  0.014508336           10 
 1704000   0.56815622   -7.8773563    319.02337   0.01560169  0.014496862           11 
 1705000   0.56647158   -7.8993577    318.34772  0.015559517  0.014485398            9 
 1706000   0.57193706   -7.8887178    318.91819  0.015578262  0.014473932            9 
 1707000   0.57136757   -7.8871358    319.15715  0.015580802  0.014462492           17 
 1708000   0.56618166   -7.8961254    318.19519  0.015524746  0.014451031           19 
 1709000   0.57215946   -7.8937421    318.73365  0.015541918  0.014439603            5 
 1710000   0.57311483   -7.9009764    318.59094  0.015525874  0.014428168            5 
 1711000   0.57233242   -7.8939969     318.2764  0.015501481  0.014416753            5 
 1712000   0.57531797   -7.8951456     317.9307  0.015475599  0.014405343            5 
 1713000   0.58243128   -7.9013751    318.46075   0.01549235   0.01439394            9 
 1714000    0.5603676   -7.8943195    318.48019  0.015484256  0.014382543            5 
 1715000   0.56314845   -7.8898416    318.99735  0.015500357  0.014371159           11 
 1716000   0.56114147   -7.9213217    318.88706  0.015485968  0.014359783           10 
 1717000    0.5573847   -7.8891636    318.11832  0.015439639  0.014348422            8 
 1718000   0.57675003   -7.9066436    318.30171  0.015439547   0.01433706            8 
 1719000   0.57331686   -7.9108588    318.19317  0.015425304  0.014325698            8 
 1720000   0.54463875   -7.8968738    318.64061  0.015438014  0.014314344           10 
 1721000   0.56819665   -7.9221397    318.40068  0.015417426  0.014302997            6 
 1722000    0.5724958   -7.9185323    318.64595  0.015420342  0.014291661            7 
 1723000   0.56047512   -7.9201707      317.982   0.01537928  0.014280329            5 
 1724000   0.56769043   -7.9114162    318.77796  0.015408834  0.014269007            6 
 1725000   0.56482491   -7.9056121    318.66362  0.015394378  0.014257692            8 
 1726000   0.57094188   -7.9192277     318.4629  0.015375768  0.014246393            9 
 1727000   0.55738358   -7.9218961    318.58738  0.015372871  0.014235082           13 
 1728000   0.56920192   -7.9395916    318.20893  0.015345724  0.014223797           11 
 1729000   0.56057188   -7.9093867    318.06174  0.015329754  0.014212508            9 
 1730000   0.57423467     -7.92072    318.12807  0.015324088  0.014201217            9 
 1731000   0.55015842   -7.9441873    318.21315  0.015319331  0.014189952            6 
 1732000   0.54913422   -7.9240756    318.51063    0.0153248  0.014178688            9 
 1733000   0.55357332   -7.9167711    318.27803  0.015304772  0.014167435            9 
 1734000   0.56021745   -7.9068733    318.29173  0.015296604  0.014156204            8 
 1735000   0.56530765   -7.9254933    317.40309  0.015245105  0.014144993           12 
 1736000   0.56370669   -7.9142247    318.34378   0.01528148  0.014133775           12 
 1737000   0.56057797   -7.9053419    317.98743  0.015255586  0.014122569            6 
 1738000   0.56271915   -7.9183254    317.58428  0.015227478  0.014111365           10 
 1739000   0.56506525   -7.9222561    318.36993   0.01525637  0.014100168            5 
 1740000   0.55461698   -7.9283782    318.15399   0.01523726  0.014088978           10 
 1741000   0.55368396   -7.9144122    318.38657   0.01523964  0.014077815           10 
 1742000    0.5579899   -7.9378872    318.36752  0.015229981   0.01406662            8 
 1743000   0.56389412   -7.9355499    317.48025  0.015178822  0.014055434            8 
 1744000    0.5559713   -7.9265447    317.79875  0.015185338  0.014044251           13 
 1745000   0.56039939   -7.9186507    317.99986   0.01518624  0.014033084           11 
 1746000   0.56023758   -7.9377121    318.04779  0.015179829  0.014021924           12 
 1747000   0.55530788   -7.9148223    317.75687  0.015157264  0.014010773           13 
 1748000   0.56090492   -7.9316257    317.95376  0.015157979  0.013999645           14 
 1749000   0.55929517   -7.9331637    318.08204  0.015155424  0.013988508            9 
 1750000   0.55583944   -7.9522278    317.80758  0.015133694  0.013977396            9 
 1751000   0.53778183   -7.9444942    318.60486  0.015162996  0.013966291            9 
 1752000   0.55953021   -7.9371688    317.58724  0.015105938  0.013955184            8 
 1753000   0.54509502   -7.9451468    317.88499  0.015111475  0.013944083           10 
 1754000   0.55642687   -7.9467268    317.49048  0.015084116   0.01393299           10 
 1755000   0.54849692    -7.935906    318.07265  0.015103165  0.013921903           12 
 1756000   0.56092272   -7.9390725    317.60755  0.015072492  0.013910831           16 
 1757000   0.54911207   -7.9543566    317.42746  0.015055372  0.013899766            8 
 1758000   0.54395138   -7.9559431    317.90855  0.015069613  0.013888708           11 
 1759000   0.54429624    -7.932243    317.80163   0.01505598  0.013877656           10 
 1760000   0.54953001   -7.9412923    317.73374  0.015044211  0.013866597           11 
 1761000   0.54338318   -7.9476681     317.9568  0.015046224  0.013855559            7 
 1762000   0.54420264   -7.9324244    318.28037  0.015052987  0.013844548            7 
 1763000   0.55010248   -7.9429731    317.76965  0.015020308  0.013833536            8 
 1764000   0.54145673   -7.9220064     317.9156  0.015018689  0.013822544            3 
 1765000    0.5669788   -7.9343766    317.74227  0.015001996  0.013811567            7 
 1766000   0.55293808   -7.9561216    317.76262  0.014994461  0.013800582            6 
 1767000   0.55607471   -7.9457653    317.55885  0.014976365  0.013789593            8 
 1768000   0.53831669   -7.9458271    317.33278  0.014957239  0.013778626            8 
 1769000   0.54742673   -7.9525017    317.79775  0.014970687  0.013767649            8 
 1770000   0.54419752   -7.9482151    318.07251  0.014975165   0.01375671            7 
 1771000   0.54109728   -7.9495164    317.51807  0.014940621  0.013745755            7 
 1772000   0.56185078   -7.9599387    317.18487   0.01491652  0.013734809           10 
 1773000   0.54681502   -7.9491358    317.37067  0.014916839  0.013723886            6 
 1774000   0.54937446    -7.941524    317.86557  0.014931678  0.013712966            5 
 1775000   0.54782848   -7.9634181    317.34388  0.014898774  0.013702043            6 
 1776000   0.55213733   -7.9557715    317.40619  0.014893309  0.013691141           10 
 1777000   0.54479723   -7.9585221    317.46026  0.014887463  0.013680251            9 
 1778000   0.54827658   -7.9395819    318.03987  0.014906255  0.013669372           16 
 1779000   0.55261281   -7.9714732    316.92477  0.014845642  0.013658499            7 
 1780000   0.55108508   -7.9613373     317.5153  0.014864949  0.013647631           10 
 1781000   0.53863712   -7.9511286     316.4314  0.014805886  0.013636763            9 
 1782000   0.55265262   -7.9663666    317.06637  0.014827271   0.01362592           14 
 1783000   0.54635064   -7.9354045    317.38663  0.014833924  0.013615095            9 
 1784000     0.548831   -7.9565496    317.48632  0.014830265  0.013604279           10 
 1785000   0.54039414   -7.9344796    317.44681  0.014820112  0.013593466            9 
 1786000    0.5388601   -7.9675016    317.42143  0.014810631  0.013582651           11 
 1787000   0.54434365   -7.9503273    317.27717  0.014795615   0.01357184            7 
 1788000    0.5460851   -7.9556739    317.78278  0.014810905  0.013561042            8 
 1789000   0.53765979   -7.9706857    317.72014  0.014799709  0.013550274           12 
 1790000   0.53004894   -7.9752724    317.63249   0.01478736  0.013539491           10 
 1791000   0.53766944   -7.9669952    317.44385  0.014770326  0.013528728            9 
 1792000   0.53994399   -7.9845714    317.71564  0.014774723  0.013517986            8 
 1793000   0.52346708   -7.9546062    317.15687  0.014740512  0.013507247           11 
 1794000   0.53884323   -7.9739274    317.91587  0.014767552  0.013496513           11 
 1795000   0.53048266   -7.9538801    317.05312  0.014719272  0.013485796            8 
 1796000   0.53789849   -7.9886445    317.26513  0.014720914  0.013475097           11 
 1797000   0.53213824   -7.9667164    317.73084  0.014734318  0.013464389            6 
 1798000   0.54282794   -7.9674219    316.86038  0.014685779  0.013453696           10 
 1799000   0.52946236   -7.9944459    317.96005  0.014728555   0.01344301           11 
 1800000   0.53830825   -7.9735159    317.17148  0.014683865  0.013432323           11 
 1801000   0.53367762   -7.9739093    318.10947  0.014719113  0.013421658           10 
 1802000   0.53145947   -7.9736209    317.38458  0.014677422   0.01341099           12 
 1803000   0.52065526   -7.9747854    316.95485   0.01464942  0.013400325           11 
 1804000   0.54250584   -7.9524055    317.04852  0.014645627  0.013389681           15 
 1805000   0.54138874   -7.9790587     317.4343  0.014655323  0.013379047           10 
 1806000   0.52722111   -7.9855668    317.22453  0.014637529  0.013368429           10 
 1807000   0.52650681   -7.9738128    317.92053  0.014661526  0.013357817            9 
 1808000   0.53933146   -7.9743813     317.0641  0.014613943  0.013347213           15 
 1809000    0.5412245   -7.9669776    316.60631  0.014584776  0.013336623           11 
 1810000   0.53694448   -7.9835836    316.95276  0.014592668   0.01332604            8 
 1811000   0.52609438   -7.9573414    317.23498  0.014597597  0.013315472           16 
 1812000   0.52542051   -7.9682418    316.99921  0.014578698  0.013304899           10 
 1813000   0.53182493   -7.9873094    316.93597   0.01456775  0.013294345            6 
 1814000   0.53039994   -7.9884644    317.34016  0.014578287  0.013283807            9 
 1815000   0.52677447   -7.9821359    317.60587  0.014582455  0.013273264           10 
 1816000    0.5214919   -7.9818402    317.71316  0.014579348   0.01326274            6 
 1817000   0.53159207   -7.9565272    316.99306  0.014538298  0.013252225           14 
 1818000   0.54139526   -7.9810012    316.98281  0.014529832  0.013241729           11 
 1819000   0.52599144   -7.9675828    316.94723  0.014520214  0.013231235            7 
 1820000   0.52948924   -7.9749305     317.0032  0.014514798  0.013220755            7 
 1821000   0.52417441   -7.9859104    317.22154   0.01451682  0.013210284           17 
 1822000    0.5180552   -7.9759873     316.4229  0.014472324  0.013199828           13 
 1823000   0.53432281   -7.9737787     317.2875  0.014503908  0.013189359            5 
 1824000   0.52777304   -7.9750657     316.8595  0.014476403  0.013178922            7 
 1825000   0.52029014   -7.9814413    317.28853  0.014488061  0.013168485           12 
 1826000    0.5156906   -7.9796694    317.40648  0.014485509  0.013158058            7 
 1827000   0.51804848   -7.9804041    317.20708  0.014468486   0.01314764           12 
 1828000   0.52912964   -7.9850472     316.8873  0.014445993  0.013137223            6 
 1829000   0.52789956   -7.9953452    317.46412  0.014464376  0.013126811           11 
 1830000   0.50750974   -7.9761779    317.01841  0.014436175  0.013116415            6 
 1831000   0.51471788   -7.9849395    317.01402  0.014428091  0.013106026           15 
 1832000   0.51665735   -7.9884369    316.84258  0.014412417  0.013095633           15 
 1833000   0.52927397   -7.9829232    317.30772  0.014425701   0.01308526            9 
 1834000   0.51418572   -7.9895329    316.66016  0.014388412  0.013074901            9 
 1835000   0.52472471   -7.9900902    316.99514  0.014395783  0.013064546            9 
 1836000   0.52004673   -7.9672325    317.06234  0.014390992  0.013054197           15 
 1837000   0.52253739   -8.0022392    316.93367  0.014377321  0.013043855            9 
 1838000   0.53822825   -7.9950237    316.72983  0.014360257  0.013033532            9 
 1839000   0.52099693   -7.9853635    316.90156   0.01436023  0.013023213            9 
 1840000   0.53316107   -7.9814188    317.54039  0.014381358  0.013012903            7 
 1841000   0.50992819   -7.9804047    316.53501  0.014328038  0.013002613           12 
 1842000   0.52046712    -7.990477    316.90493  0.014336995  0.012992326           10 
 1843000   0.52370006    -8.002623    316.79079  0.014324055   0.01298204            8 
 1844000   0.51969604   -7.9937773    316.62228  0.014308671  0.012971765            9 
 1845000   0.51999103   -7.9855157    316.67088  0.014303111  0.012961497            9 
 1846000   0.51805508   -7.9885763    317.21493  0.014319923  0.012951246            9 
 1847000   0.52270095   -7.9994241    316.91815   0.01429878     0.012941           10 
 1848000   0.51119639   -8.0052193    316.79096  0.014285307  0.012930759            9 
 1849000   0.51530119    -7.998944    317.22739   0.01429725  0.012920536            9 
 1850000    0.5100831   -8.0047382    317.14452  0.014285789  0.012910316            6 
 1851000   0.52208775   -8.0037123    316.61837  0.014254384  0.012900097            9 
 1852000   0.51164663   -7.9878874    316.53655  0.014243005   0.01288989            8 
 1853000   0.50425158   -8.0093782    316.95457  0.014254118  0.012879695           11 
 1854000   0.50435158   -7.9999707    316.95176  0.014246303  0.012869509            8 
 1855000   0.51943087   -8.0098068    316.44999  0.014216082  0.012859336            7 
 1856000   0.51573292   -8.0139468    317.00747  0.014233453  0.012849174            7 
 1857000   0.51599323   -7.9894402    316.50682  0.014203322  0.012839009            7 
 1858000   0.51084749   -8.0086339    316.60534  0.014200096  0.012828858           10 
 1859000   0.51803371   -8.0045036    317.10166  0.014214706  0.012818718            5 
 1860000   0.50419226   -8.0074706    316.61485  0.014185253  0.012808588            7 
 1861000      0.50453   -7.9965234    316.94125  0.014192247  0.012798462            6 
 1862000   0.51102743   -8.0137978    317.09369  0.014191447  0.012788355           13 
 1863000   0.51234367    -8.015884    316.69865  0.014166159  0.012778253           11 
 1864000   0.50493959   -7.9977554    316.70724  0.014158943  0.012768155            6 
 1865000   0.51184687   -8.0045497    316.68696  0.014150445  0.012758079           10 
 1866000   0.51282699   -8.0058545    317.19551  0.014165573  0.012748003            5 
 1867000   0.52279573   -8.0190723    317.04726  0.014151368  0.012737952            5 
 1868000   0.49697402   -8.0128063    316.42478  0.014116023  0.012727891            7 
 1869000   0.50585946   -8.0017787    316.39225   0.01410702  0.012717852           10 
 1870000   0.49975075   -8.0023333    316.91302  0.014122683  0.012707803            8 
 1871000   0.49476276   -8.0224828    317.24612  0.014129972  0.012697782            9 
 1872000   0.50467313   -8.0192895    316.56462  0.014092086  0.012687757            5 
 1873000   0.50063367   -8.0078461    316.07459   0.01406276  0.012677729            7 
 1874000   0.50195393   -8.0113736    316.73973  0.014084833  0.012667729            7 
 1875000   0.50596317   -8.0043449    316.53088  0.014068039  0.012657732           13 
 1876000   0.50056998    -8.027314    316.33419  0.014051803  0.012647743            9 
 1877000   0.49922804   -8.0314999    316.41742  0.014048012  0.012637752           13 
 1878000   0.51426182   -8.0176172     316.8132  0.014058094  0.012627784            9 
 1879000   0.50950801   -8.0312331    317.13235  0.014064766  0.012617818           12 
 1880000   0.50941579   -7.9969899    316.75113  0.014040387  0.012607862           12 
 1881000   0.50272091    -8.030959     316.4074  0.014017694  0.012597909            6 
 1882000   0.49787925    -8.017316    316.88609  0.014031442  0.012587965           10 
 1883000   0.50626202   -8.0124561    316.13391  0.013990702  0.012578034           10 
 1884000   0.50595966    -8.013272    316.48056  0.013998609  0.012568117            7 
 1885000   0.49913627   -8.0250549    316.27189  0.013981958  0.012558217            8 
 1886000   0.50043991   -8.0014722    316.49808  0.013984539  0.012548316           10 
 1887000   0.51159089   -8.0195349    316.40683  0.013973098  0.012538418           13 
 1888000   0.49427353   -8.0362488    316.43936  0.013967133  0.012528532            8 
 1889000   0.49254398   -8.0217544    316.43355  0.013959483  0.012518655            8 
 1890000   0.49600926   -7.9991169    316.54331  0.013956936  0.012508796           12 
 1891000   0.49001333   -8.0199294    316.27442  0.013937706   0.01249894           12 
 1892000   0.50128544   -8.0082984    316.29356  0.013931182  0.012489095           11 
 1893000   0.49803895   -8.0171148     316.5894  0.013936846  0.012479253            9 
 1894000     0.494012   -8.0198008    316.93761  0.013944808  0.012469417           13 
 1895000   0.50110504    -8.008026    316.82256   0.01393239   0.01245959           11 
 1896000   0.49240647   -8.0345297    316.74993   0.01392185  0.012449778           11 
 1897000   0.49794256   -8.0183396    316.44368  0.013901058  0.012439983           12 
 1898000   0.50839528   -8.0120453    316.40569  0.013892066  0.012430181            9 
 1899000   0.48745256   -8.0428084    316.42752  0.013885708  0.012420395           15 
 1900000   0.49331794   -8.0213104    316.03626   0.01386124  0.012410616            9 
 1901000   0.49416946   -8.0301422    316.41478  0.013870541  0.012400855           11 
 1902000   0.48384428    -8.021325    316.23052  0.013855175  0.012391106            8 
 1903000   0.49042675    -8.022097    316.37432  0.013854192  0.012381369           14 
 1904000   0.48872098   -8.0405958    316.73992  0.013862917  0.012371627            8 
 1905000   0.50328788    -8.046586    316.44919  0.013842922  0.012361892           12 
 1906000   0.49062547    -8.029967    316.54655  0.013839916  0.012352161            8 
 1907000   0.49589222   -8.0351548    315.91464  0.013805045  0.012342458            9 
 1908000   0.49415692   -8.0299888    315.85622  0.013795258  0.012332755           22 
 1909000   0.49134059   -8.0339299    316.53453  0.013817641   0.01232308            8 
 1910000   0.48555697   -8.0341622    316.79137  0.013821613  0.012313397           12 
 1911000    0.4899902   -8.0337813    316.28215  0.013792175  0.012303715            8 
 1912000   0.49252453   -8.0211848    316.24188  0.013783206  0.012294055            9 
 1913000   0.50606291   -8.0378899    316.44338  0.013784779  0.012284395           15 
 1914000   0.49743903   -8.0332689    316.24084  0.013768758  0.012274735           19 
 1915000   0.48685331   -8.0385504    316.33847  0.013765817  0.012265096           14 
 1916000   0.49449215    -8.031637    316.32991   0.01375826  0.012255445           12 
 1917000   0.47986431   -8.0288053    316.31493  0.013750432  0.012245817           17 
 1918000   0.49347219   -8.0447209    315.82053  0.013721782  0.012236197            4 
 1919000   0.48449418   -8.0542896    316.49151  0.013743769  0.012226587           18 
 1920000   0.47655731   -8.0392044    315.94207  0.013712763  0.012216984            8 
 1921000   0.48145622   -8.0554764    316.07101  0.013711218  0.012207399           11 
 1922000    0.4880363   -8.0436872    316.18204  0.013708899  0.012197819            8 
 1923000   0.48555255   -8.0454422    315.51047  0.013672667  0.012188246           13 
 1924000   0.49539808   -8.0432587    315.93928  0.013684134  0.012178679           14 
 1925000   0.48162932   -8.0551726    316.91912  0.013719442  0.012169129           14 
 1926000   0.47510882   -8.0280813    315.90206  0.013668313  0.012159588           17 
 1927000    0.4790374   -8.0542277    316.50946  0.013687488  0.012150059           16 
 1928000   0.49004471   -8.0466485    316.08768  0.013662158  0.012140535           11 
 1929000   0.48331611   -8.0584047    316.56684  0.013675775  0.012131027           15 
 1930000   0.47316159   -8.0292432    316.22329  0.013653855  0.012121519           15 
 1931000   0.47970955   -8.0434084    315.97456   0.01363605   0.01211201            6 
 1932000   0.47753648   -8.0467747    316.16166  0.013637063  0.012102511           10 
 1933000    0.4691562   -8.0464854    316.59711   0.01364878  0.012093034           19 
 1934000   0.48885706   -8.0412373    316.22042  0.013625492  0.012083569           10 
 1935000   0.48521894   -8.0270666    315.82244  0.013601311  0.012074106           12 
 1936000   0.47362951   -8.0550056     316.3816  0.013618354  0.012064656           12 
 1937000   0.47820832   -8.0430265    316.04783  0.013596964   0.01205521           11 
 1938000   0.46911747   -8.0502115    316.24053  0.013598234  0.012045782            6 
 1939000   0.47991497   -8.0408571     315.6744   0.01356689  0.012036354           11 
 1940000   0.47576115    -8.063813    316.17755   0.01358151  0.012026935           14 
 1941000   0.46794899   -8.0477993    315.80264  0.013558417  0.012017522            9 
 1942000   0.47879664   -8.0357374    315.97831  0.013558973  0.012008127            6 
 1943000   0.46433025    -8.054796    316.31922  0.013566616  0.011998734            6 
 1944000    0.4862658   -8.0446584    316.08966  0.013549797  0.011989353           11 
 1945000   0.47911977   -8.0526742    315.99936  0.013538962  0.011979978            9 
 1946000   0.47107124   -8.0700161    315.62377   0.01351592  0.011970608            9 
 1947000   0.47684795   -8.0677542     315.4595  0.013501947  0.011961242           13 
 1948000   0.47144862   -8.0565447    315.93404  0.013515317  0.011951895           14 
 1949000   0.48397092   -8.0559483    316.06141  0.013513828  0.011942554           12 
 1950000   0.46842801   -8.0693152     315.7505  0.013493611  0.011933226            6 
 1951000   0.48425818   -8.0414282    316.08519   0.01350099  0.011923903           21 
 1952000   0.47837671   -8.0619788     316.7536  0.013522609  0.011914597            8 
 1953000   0.47930573   -8.0610954    316.10168  0.013487868  0.011905305           10 
 1954000   0.47421488   -8.0527425    315.94824  0.013474422  0.011896008           12 
 1955000   0.46997741   -8.0459533    315.87078  0.013464228  0.011886714           10 
 1956000   0.47159838   -8.0618738    315.71232  0.013450593  0.011877434           15 
 1957000   0.48419082   -8.0694916    315.81916  0.013448269  0.011868148           12 
 1958000   0.47605092   -8.0605304    315.86355   0.01344329  0.011858874           12 
 1959000   0.47184841    -8.058387    315.48211  0.013420202  0.011849626            7 
 1960000   0.45935601   -8.0686571    315.47009  0.013412844  0.011840376            9 
 1961000   0.47028347    -8.052733    315.52707  0.013408426  0.011831133            7 
 1962000   0.47280685   -8.0636791    315.86444  0.013415921  0.011821904           16 
 1963000   0.46103877   -8.0696993    315.71129  0.013402585  0.011812684           11 
 1964000   0.46644835   -8.0683248    315.97153  0.013406803  0.011803464            7 
 1965000   0.46708183   -8.0730193    315.85104   0.01339487  0.011794249           12 
 1966000   0.46550868   -8.0712865    316.25484  0.013405173  0.011785045           15 
 1967000   0.47300701   -8.0851193     315.8538  0.013381368  0.011775855           10 
 1968000   0.47487928   -8.0655734      315.679  0.013367166   0.01176668            7 
 1969000    0.4643903   -8.0596361    316.10831  0.013378547  0.011757511           11 
 1970000    0.4604945    -8.058504    316.18219  0.013374881  0.011748351            8 
 1971000   0.46069907   -8.0557379    315.62793  0.013344661  0.011739197            8 
 1972000   0.45120945   -8.0720763    315.64763  0.013338727  0.011730051            8 
 1973000   0.46449038   -8.0820874    316.15467  0.013353382  0.011720906            9 
 1974000   0.46472571   -8.0733745    315.88376  0.013335181  0.011711767            8 
 1975000   0.46927617   -8.0756989     316.1698  0.013340498  0.011702644           10 
 1976000   0.45926656   -8.0725969    315.64388  0.013311567  0.011693519            9 
 1977000   0.46985412    -8.076206    315.68659  0.013306634  0.011684412           14 
 1978000   0.46735175   -8.0792269    315.66637  0.013299055  0.011675312           10 
 1979000   0.47030184   -8.0615807    315.28807  0.013276405  0.011666215           15 
 1980000    0.4683416   -8.0659728     315.7989  0.013291199  0.011657122           14 
 1981000    0.4628933   -8.0702705    315.54843  0.013273954  0.011648047           18 
 1982000    0.4566456   -8.0711673    315.66151  0.013272011  0.011638978           12 
 1983000   0.44789435   -8.0665839    314.87772   0.01323238   0.01162991           11 
 1984000    0.4695506   -8.0780898    315.52568  0.013252927  0.011620853           11 
 1985000   0.46794702   -8.0644455    315.78234  0.013257025  0.011611806           10 
 1986000   0.46007874   -8.0825231    315.71857  0.013247674   0.01160277           10 
 1987000   0.44821466   -8.0862442     315.7555  0.013242556  0.011593738            7 
 1988000   0.45309397   -8.0709085    315.70148   0.01323363  0.011584721           10 
 1989000    0.4604512   -8.0775368    316.14435  0.013245532  0.011575716           15 
 1990000   0.45642619   -8.0830555    315.55506  0.013214199  0.011566718           15 
 1991000   0.44902258   -8.0833281    315.85509  0.013220119  0.011557731            6 
 1992000   0.46956184   -8.0774663    315.82303  0.013212141   0.01154875            8 
 1993000   0.44892379    -8.093704     315.6327  0.013197554  0.011539776           15 
 1994000   0.45970534   -8.0695841    315.50172  0.013185461  0.011530801           10 
 1995000   0.46550323   -8.0934641    315.68127  0.013186352  0.011521841           11 
 1996000   0.46774689   -8.0806415    315.48788  0.013171672  0.011512884           11 
 1997000   0.45004336   -8.0831581    315.66149   0.01317232  0.011503947           12 
 1998000   0.45274268   -8.0827765    315.44082  0.013156524  0.011495013           10 
 1999000   0.44673031   -8.0919593    315.57465  0.013155522  0.011486084           11 
 2000000   0.46175378   -8.0828772    315.67722  0.013153218  0.011477165           10 
 2001000   0.43994765   -8.0694855     315.2413   0.01312849  0.011468258            8 
 2002000   0.45618878   -8.0900863    315.37656  0.013127562   0.01145936           12 
 2003000   0.44480787   -8.0885011    315.65171  0.013132456  0.011450468            9 
 2004000   0.44804684   -8.1031808    315.45753  0.013117828  0.011441584           11 
 2005000   0.45058968   -8.0962422    315.26858  0.013103432  0.011432701            8 
 2006000   0.46084316   -8.0938112    315.55926  0.013108976  0.011423833            9 
 2007000   0.44946151   -8.0972061     315.5488   0.01310201  0.011414973           12 
 2008000   0.45121682    -8.074889    315.68352  0.013101076  0.011406119           16 
 2009000   0.45290081    -8.080138    315.64866  0.013093108  0.011397277           11 
 2010000   0.44652687   -8.0945075    314.82135  0.013052295  0.011388442           14 
 2011000    0.4460176   -8.0783951    315.81186   0.01308685  0.011379611            7 
 2012000    0.4410471   -8.0920507    315.32747  0.013060283  0.011370796            7 
Loop time of 4502.46 on 48 procs for 2000000 steps with 4000 atoms

Performance: 76757.959 tau/day, 444.201 timesteps/s
99.4% CPU use with 48 MPI tasks x no OpenMP threads

MPI task timing breakdown:
Section |  min time  |  avg time  |  max time  |%varavg| %total
---------------------------------------------------------------
Pair    | 285.18     | 297.37     | 315.76     |  40.1 |  6.60
Neigh   | 28.742     | 29.663     | 30.601     |   8.6 |  0.66
Comm    | 260.91     | 281.22     | 294.97     |  43.2 |  6.25
Output  | 4.0034     | 4.0048     | 4.0406     |   0.3 |  0.09
Modify  | 3834.2     | 3846       | 3855.1     |   6.8 | 85.42
Other   |            | 44.21      |            |       |  0.98

Nlocal:        83.3333 ave          93 max          76 min
Histogram: 1 3 13 6 7 8 6 2 1 1
Nghost:        1894.65 ave        1921 max        1871 min
Histogram: 4 4 4 2 8 11 8 3 3 1
Neighs:        11890.0 ave       13545 max       10355 min
Histogram: 1 3 2 11 14 4 4 4 4 1
FullNghs:      23779.5 ave       26539 max       21392 min
Histogram: 1 1 10 10 7 5 8 1 4 1

Total # of neighbors = 1141414
Ave neighs/atom = 285.35350
Neighbor list builds = 107540
Dangerous builds = 0

#clear
#
#next RN
#
#jump SELF
Total wall time: 1:15:05
