
units lj                  # Use reduced LJ style units
atom_style atomic         # Uncharged point particles
atom_modify map hash      # Needed for indexing of clusters etc
                          # Used to be able to find where atoms are in relation to each other.

lattice fcc 1.0 spacing 1 1 1
Lattice spacing in x,y,z = 1.5874011 1.5874011 1.5874011
region box block 0 10 0 10 0 10 units lattice
create_box 2 box
Created orthogonal box = (0.0000000 0.0000000 0.0000000) to (15.874011 15.874011 15.874011)
  3 by 4 by 4 MPI processor grid
create_atoms 1 box
Created 4000 atoms
  using lattice units in orthogonal box = (0.0000000 0.0000000 0.0000000) to (15.874011 15.874011 15.874011)
  create_atoms CPU = 0.003 seconds
set type 1 type/fraction 2 0.81 78393
Setting atom values ...
  3229 settings made for type/fraction
mass 1 1.0
mass 2 1.0
pair_style lj/cut  3.5
pair_modify tail  yes
pair_coeff 1  1  1.0  1.0   # Intearaction between 1 and 1 set with epsilon = 1 and sigma = 1
pair_coeff 1  2  1.5  0.8
pair_coeff 2  2  0.5  0.88

write_data data.0
System init for write_data ...
Neighbor list info ...
  update every 1 steps, delay 10 steps, check yes
  max neighbors/atom: 2000, page size: 100000
  master list distance cutoff = 3.8
  ghost atom cutoff = 3.8
  binsize = 1.9, bins = 9 9 9
  1 neighbor lists, perpetual/occasional/extra = 1 0 0
  (1) pair lj/cut, perpetual
      attributes: half, newton on
      pair build: half/bin/atomonly/newton
      stencil: half/bin/3d
      bin: standard
WARNING: Not all mixed pair coeffs generated from mixing. Use write_data with 'pair ij' option to store all pair coeffs. (../write_data.cpp:312)


#############################
#   M E L T   S Y S T E M   #
#############################

velocity all create 2.4 9580093 mom yes dist gaussian # Assign velocities
                                                    # Temperature 2.4, random number seed, zero linear momentum
                                                                                # Gaussian distribution

timestep 0.002   # simulation timestep
thermo 1000       # output thermodynamic data every 1000 steps bf 100

# Define a fix  in this case with index 1 applied to all
# particles in the simulation. This fix is for simulations
# in the anisotropic NPT ensemble. Note that we use the MTK
# correction.
fix 1 all npt temp 2.4 2.4 0.1 iso 5.68 5.68 0.5 mtk yes tchain 5 pchain 5 # Use NPT ensemble
                                                                         # Set temperature and pressure and damping
                                                                         # Numbers of thermostats in chain and in barostat
run 10000          # run for 10000 steps
Per MPI rank memory allocation (min/avg/max) = 3.642 | 3.644 | 3.648 Mbytes
Step Temp E_pair E_mol TotEng Press Volume 
       0          2.4   -3.6458899            0 -0.046789881   -3.2123361         4000 
    1000    2.4480429   -2.9989955            0    0.6721509    5.6117447    3808.4155 
    2000    2.4067947   -2.9712598            0   0.63802978    5.4350471    3845.8176 
    3000    2.4233219   -2.9641897            0   0.66988437    5.6508325    3833.9569 
    4000    2.4096178   -2.9882616            0   0.62526149    5.4987746    3824.0272 
    5000    2.4113965   -2.9574348            0   0.65875562    5.7550598    3811.5953 
    6000    2.3322137   -2.9281631            0   0.56928294    5.9728179    3791.4686 
    7000     2.390921   -2.9707077            0   0.61477726    5.7803773    3802.7126 
    8000    2.3994539   -3.0062154            0   0.59206562    5.6317625    3804.5271 
    9000    2.3619796   -2.9666655            0   0.57541822    5.5532744    3812.6183 
   10000    2.4396029   -2.9502086            0   0.70828088    5.6907646    3826.5678 
Loop time of 2.75706 on 48 procs for 10000 steps with 4000 atoms

Performance: 626754.723 tau/day, 3627.053 timesteps/s
99.5% CPU use with 48 MPI tasks x no OpenMP threads

MPI task timing breakdown:
Section |  min time  |  avg time  |  max time  |%varavg| %total
---------------------------------------------------------------
Pair    | 1.1418     | 1.2089     | 1.2756     |   2.9 | 43.85
Neigh   | 0.21035    | 0.21775    | 0.23197    |   0.9 |  7.90
Comm    | 0.77722    | 0.90285    | 1.025      |   6.9 | 32.75
Output  | 0.00024417 | 0.00024957 | 0.00031766 |   0.0 |  0.01
Modify  | 0.33597    | 0.41177    | 0.49683    |   8.5 | 14.94
Other   |            | 0.01553    |            |       |  0.56

Nlocal:        83.3333 ave          91 max          71 min
Histogram: 1 1 1 2 8 8 5 10 7 5
Nghost:        1692.81 ave        1725 max        1666 min
Histogram: 3 4 4 9 5 12 6 2 1 2
Neighs:        9982.19 ave       11287 max        8419 min
Histogram: 2 3 2 5 8 6 8 7 6 1

Total # of neighbors = 479145
Ave neighs/atom = 119.78625
Neighbor list builds = 902
Dangerous builds = 202

# Equilibrate just above the melting temperature to avoid step fn in T

fix 1 all npt temp 1.25 1.25 0.1 iso 5.68 5.68 0.5 mtk yes tchain 5 pchain 5
run 2000
Per MPI rank memory allocation (min/avg/max) = 3.644 | 3.645 | 3.649 Mbytes
Step Temp E_pair E_mol TotEng Press Volume 
   10000    2.4396029   -2.9502086            0   0.70828088    5.6907646    3826.5678 
   11000    1.2377197   -4.3901582            0   -2.5340427    5.8587765    2925.9253 
   12000    1.2468866   -4.4146133            0   -2.5447509    5.4403174    2935.7658 
Loop time of 0.624541 on 48 procs for 2000 steps with 4000 atoms

Performance: 553366.515 tau/day, 3202.353 timesteps/s
99.6% CPU use with 48 MPI tasks x no OpenMP threads

MPI task timing breakdown:
Section |  min time  |  avg time  |  max time  |%varavg| %total
---------------------------------------------------------------
Pair    | 0.28737    | 0.30664    | 0.32479    |   1.6 | 49.10
Neigh   | 0.040109   | 0.041836   | 0.043317   |   0.4 |  6.70
Comm    | 0.20897    | 0.22666    | 0.24535    |   2.1 | 36.29
Output  | 5.3e-05    | 5.4448e-05 | 7.2072e-05 |   0.0 |  0.01
Modify  | 0.038402   | 0.04452    | 0.050741   |   1.8 |  7.13
Other   |            | 0.004835   |            |       |  0.77

Nlocal:        83.3333 ave          90 max          72 min
Histogram: 2 0 4 3 2 4 14 9 3 7
Nghost:        2025.40 ave        2055 max        2004 min
Histogram: 4 4 12 4 6 7 3 5 2 1
Neighs:        13013.9 ave       14511 max       10682 min
Histogram: 1 0 4 1 10 7 5 8 8 4

Total # of neighbors = 624665
Ave neighs/atom = 156.16625
Neighbor list builds = 141
Dangerous builds = 10

#############################
# L I N E A R  Q U E N C H  #
#############################

# Define solid atoms. This closely follows ten Wolde  Ruiz-Montero and Frenkel  Faraday Discuss  1996  104  93-110
# Compute components of the per-atom q6 vector
compute q6 all orientorder/atom degrees 1 6 components 6 nnn NULL cutoff 1.3 # compute the Q6 parameter.
                                                                             # Use all neighbours within 1.3 unit cell.

# get number of connections
compute coord_number all coord/atom orientorder q6 0.5

# An atom is solid if it has 8 or more connections (of a possible 14)
variable is_solid atom c_coord_number>=8
group solid dynamic all var is_solid    # Must be dynamic to update
dynamic group solid defined

# do clustering
compute cluster solid cluster/atom 1.3 # Create a cluster where all atoms within are solid and max 1.3 units from another member

# define chunks one chunk per cluster
compute clus_chunks solid chunk/atom c_cluster nchunk every compress yes  # Says which atoms are in which chunk

# count the size of each chunk
compute size_chunks solid property/chunk clus_chunks count


# Find the maximum entry in the vector of chunk sizes
variable max_n equal max(c_size_chunks)


# Thermo style which includes this variable
# thermo_style custom step temp pe vol v_max_n

thermo ${N}  # Print the thermo information every 100 steps
thermo 1000  

# Reset the npt fix at a lower temperature (below freezing)
fix 1  all npt temp  ${temp} ${temp}  0.1  iso  5.68  5.68  0.5  mtk yes tchain  5  pchain  5
fix 1  all npt temp  0.45 ${temp}  0.1  iso  5.68  5.68  0.5  mtk yes tchain  5  pchain  5
fix 1  all npt temp  0.45 0.45  0.1  iso  5.68  5.68  0.5  mtk yes tchain  5  pchain  5

dump dmp2 all dcd ${N} traj.dcd
dump dmp2 all dcd 1000 traj.dcd


compute msd all msd com yes
variable twopoint equal c_msd[4]/6/(step*dt+1.0e-6)
fix 9 all vector 10 c_msd[4]
variable fit equal slope(f_9)/6/(10*dt)
thermo_style custom step temp pe c_msd[4] v_twopoint v_fit v_max_n

fix 1 all npt temp 1.25 ${temp} 0.1 iso 5.68 5.68 0.5 mtk yes tchain 5 pchain 5
fix 1 all npt temp 1.25 0.45 0.1 iso 5.68 5.68 0.5 mtk yes tchain 5 pchain 5
run 500000 # 5000000  # Run for this many steps
Neighbor list info ...
  update every 1 steps, delay 10 steps, check yes
  max neighbors/atom: 2000, page size: 100000
  master list distance cutoff = 3.8
  ghost atom cutoff = 3.8
  binsize = 1.9, bins = 8 8 8
  4 neighbor lists, perpetual/occasional/extra = 1 3 0
  (1) pair lj/cut, perpetual
      attributes: half, newton on
      pair build: half/bin/atomonly/newton
      stencil: half/bin/3d
      bin: standard
  (2) compute orientorder/atom, occasional
      attributes: full, newton on
      pair build: full/bin/atomonly
      stencil: full/bin/3d
      bin: standard
  (3) compute coord/atom, occasional
      attributes: full, newton on
      pair build: full/bin/atomonly
      stencil: full/bin/3d
      bin: standard
  (4) compute cluster/atom, occasional
      attributes: full, newton on
      pair build: full/bin/atomonly
      stencil: full/bin/3d
      bin: standard
Per MPI rank memory allocation (min/avg/max) = 9.832 | 9.839 | 9.844 Mbytes
Step Temp PotEng c_msd[4] v_twopoint v_fit v_max_n 
   12000    1.2468866   -4.4146133 1.105983e-30 7.6804371e-33 8.3333333e+20            3 
   13000    1.2420156   -4.4074977   0.79675248 0.0051073875  0.066448991            2 
   14000    1.2481888   -4.3931147     1.590454 0.0094669875  0.066198683            2 
   15000    1.2281143   -4.4126621    2.3778666   0.01321037  0.065621593            2 
   16000     1.240771   -4.4235831    3.2257729    0.0168009   0.06687203            3 
   17000    1.2188679   -4.4628718    4.0316597  0.019763037  0.067305703            2 
   18000    1.2752325   -4.4321144    4.8719493   0.02255532  0.067601538            2 
   19000    1.2325675   -4.4262344    5.5557046  0.024367125  0.067169849            1 
   20000    1.2184871   -4.4242114    6.3312063  0.026380026  0.066473561            3 
   21000    1.2520233   -4.4649237    7.1440519  0.028349412  0.066407756            2 
   22000    1.2417198   -4.4174393    8.0276155  0.030407634  0.066388137            2 
   23000    1.2593728   -4.4536291    8.9004907  0.032248154  0.066664119            1 
   24000    1.2418028   -4.4565025    9.6691637  0.033573484  0.066792799            2 
   25000    1.2121758   -4.4266456    10.487647  0.034958823   0.06686811            2 
   26000    1.2509859    -4.436992    11.277874   0.03614703  0.066947978            1 
   27000     1.220668   -4.4443901    12.115705  0.037394149  0.067041319            2 
   28000    1.2167518   -4.4190001    12.974083  0.038613342  0.067230329            2 
   29000    1.2266816   -4.4648954    13.827807  0.039735076  0.067395843            4 
   30000    1.2411915   -4.4577788    14.725843  0.040905119  0.067575713            1 
   31000    1.2302477   -4.4759984     15.46917   0.04158379  0.067839247            3 
   32000    1.2034157   -4.4822189    16.159527  0.042082102  0.067885186            2 
   33000    1.2212759   -4.4713362    16.858773  0.042572658  0.067743108            3 
   34000    1.2231109    -4.467024    17.742522  0.043486573  0.067636889            2 
   35000    1.1997774   -4.4726526    18.489293  0.044022125  0.067518561            4 
   36000    1.2103048   -4.4521623    19.269487  0.044605293   0.06740555            1 
   37000    1.2018431   -4.4701162    19.961044  0.044957306  0.067252901            1 
   38000    1.1994572    -4.468162    20.803514  0.045621742  0.067131228            3 
   39000    1.2031835    -4.482194    21.505374  0.045951654  0.067014027            3 
   40000    1.2112823    -4.463733     22.21481  0.046280853  0.066862028            2 
   41000    1.2224279   -4.5192573    22.975801  0.046698783  0.066712963            3 
   42000    1.2138148    -4.510634    23.789439  0.047201268  0.066549893            1 
   43000    1.1921425    -4.502494    24.595512   0.04766572  0.066434376            2 
   44000    1.1996949   -4.5297676     25.22646  0.047777385  0.066345433            2 
   45000    1.2058377   -4.5175376    26.260368  0.048630311  0.066274546            2 
   46000    1.1947856   -4.4771057     27.02935  0.048966213  0.066230983            3 
   47000    1.1548082   -4.5274435    27.826691  0.049338105  0.066203267            2 
   48000    1.1951408   -4.5225173    28.760954  0.049932212  0.066199682            6 
   49000    1.1933832    -4.512011    29.319251  0.049862671  0.066158513            3 
   50000     1.182327   -4.5033907    30.070945  0.050118241   0.06609116            3 
   51000    1.1910036    -4.532697    31.053389  0.050740832  0.066046693            2 
   52000    1.1799176    -4.516691    31.934268  0.051176711  0.066063065            3 
   53000    1.1836018   -4.5299483    32.864983  0.051674502  0.066106682            3 
   54000    1.1761648   -4.5059623    33.569284   0.05180445  0.066173323            2 
   55000    1.1821205   -4.5369912    34.613709  0.052445013  0.066266706            2 
   56000    1.1760946   -4.5253513    35.392583  0.052667533   0.06633417            3 
   57000    1.1840767   -4.4899179    36.236994  0.052978061  0.066408244            3 
   58000    1.1619845   -4.5137419    36.897961  0.053014311  0.066463692            4 
   59000    1.1757425   -4.5192632    37.829582  0.053431612  0.066489205            3 
   60000     1.168318   -4.5407898    38.330788  0.053237205  0.066506487            3 
   61000    1.1926965   -4.5349934    39.384354  0.053803762  0.066546368            4 
   62000    1.1768299   -4.5298243    40.079352  0.053870097  0.066585232            2 
   63000     1.159013   -4.5175682    40.583214  0.053681499   0.06658598            3 
   64000    1.1697634   -4.5302089    41.215509  0.053666027  0.066537706            1 
   65000    1.1626563   -4.5719691     42.08313  0.053952731  0.066476544            3 
   66000    1.1528331   -4.5459246    42.863907  0.054121094  0.066427075            4 
   67000    1.2031231   -4.5769369    43.569128  0.054190457  0.066389577            4 
   68000    1.1515235   -4.5298039     44.50712  0.054543039  0.066342135            4 
   69000    1.1703092   -4.5554823    45.098455  0.054466732  0.066284164            3 
   70000    1.1283546   -4.5678673    45.620865  0.054310554  0.066214331            2 
   71000    1.1764001    -4.579889    46.388671  0.054446797   0.06613259            4 
   72000    1.1846638   -4.5959097     46.87336  0.054251573  0.066053851            4 
   73000    1.1713332   -4.5583097    47.771468  0.054533638  0.065962338            2 
   74000    1.1582261   -4.5907473     48.24985  0.054335417  0.065850812            1 
   75000    1.1748543   -4.5647441    48.982837  0.054425374  0.065742156            2 
   76000    1.1531165   -4.5877392    49.547441  0.054328334  0.065605749            8 
   77000    1.1351363   -4.5708327    50.256159  0.054389782   0.06547073            2 
   78000    1.1329719   -4.5690133    51.007448  0.054495137  0.065336974            2 
   79000    1.1242973   -4.6129185    51.379639  0.054197931  0.065207308            1 
   80000    1.1349244   -4.5865375    51.847192  0.054007492  0.065035885            2 
   81000    1.1386354   -4.5990452    52.239064  0.053743892  0.064844021            4 
   82000    1.1454995   -4.5793683    53.156081  0.054020407  0.064679995            2 
   83000    1.1536842   -4.6246882    53.827516   0.05404369  0.064512179            2 
   84000    1.1419443   -4.6285785    54.448431    0.0540163  0.064357001            3 
   85000    1.1621611   -4.5730585    55.183421  0.054101393   0.06418257            3 
   86000    1.1232916   -4.6060789    55.923983  0.054189906  0.064025996            2 
   87000    1.1410546   -4.6295038    56.336594  0.053962254  0.063873883            2 
   88000     1.144561   -4.6401421    57.089871  0.054062378  0.063728142            3 
   89000    1.1195888   -4.6228522    57.899551  0.054213063  0.063583353            3 
   90000    1.1261727   -4.6266898    58.314302  0.053994723  0.063437286            2 
   91000    1.1171571   -4.6162683    59.272608  0.054278945     0.063286            3 
   92000     1.118245   -4.6128293    59.594753  0.053980754  0.063148253            4 
   93000    1.1276685   -4.5893866    60.748697  0.054434316   0.06301765            2 
   94000    1.1482299   -4.6072743    61.806717  0.054793189  0.062905525            1 
   95000    1.1214131   -4.6539589     62.23752  0.054594316  0.062807827            1 
   96000    1.0967214    -4.653181    62.879943  0.054583283  0.062708943            2 
   97000     1.088126   -4.6410615    63.457315  0.054516593   0.06261458            2 
   98000    1.1180369   -4.6445975    63.990166  0.054413406  0.062512941            3 
   99000    1.1262378   -4.6418056    64.806611  0.054551019  0.062406333            5 
  100000    1.0928799   -4.6587083    65.257337  0.054381114  0.062296534            4 
  101000    1.1037411   -4.6684937    65.825482  0.054311454  0.062182417            4 
  102000    1.1235653   -4.6554048    66.415615  0.054261123  0.062083836            4 
  103000    1.0894364   -4.6548616    66.963779  0.054177815  0.061960367            1 
  104000     1.098983   -4.6620528    67.700834  0.054247463  0.061830836            4 
  105000    1.0853449   -4.6530085    68.092801  0.054041905  0.061699508            2 
  106000    1.0934965   -4.6887101    68.224298  0.053635454  0.061556179            2 
  107000    1.0951904   -4.6618176    69.180667  0.053879024  0.061419924            2 
  108000    1.0773245   -4.6792061    69.808923   0.05386491  0.061283939            3 
  109000    1.1233571   -4.6593945    70.211182  0.053678273   0.06114634            6 
  110000    1.0959584    -4.666796    70.829901  0.053659016  0.061004724            3 
  111000    1.0658278   -4.6973835    71.507035   0.05368396  0.060867432            3 
  112000    1.0868068   -4.6754445    71.760828  0.053393473  0.060734432            2 
  113000      1.09193   -4.6857275    72.856981  0.053729337   0.06059845            3 
  114000    1.0737946   -4.6889448    73.234713  0.053534147  0.060469668            3 
  115000    1.0906187   -4.6872835    74.271229  0.053819731  0.060342088            3 
  116000    1.0658919   -4.7190638    74.440641  0.053477472  0.060219224            3 
  117000    1.0960651   -4.6999323    75.161505  0.053533835  0.060098888            3 
  118000    1.0932425   -4.7019214    75.379927  0.053234412  0.059979743            3 
  119000    1.0679397   -4.6975556    76.184875  0.053350752  0.059849709            5 
  120000    1.0916067   -4.6936422    76.496751  0.053122744  0.059722457            4 
  121000    1.0612818   -4.7084049     77.03301  0.053053037  0.059590516            4 
  122000    1.0589176   -4.6771578    77.644745  0.053036028  0.059450942            7 
  123000     1.073555   -4.7215553    78.124588  0.052929938  0.059306038            3 
  124000    1.0770947   -4.7209291    78.003923  0.052421991  0.059164049            3 
  125000    1.0553283   -4.7146681    79.115248  0.052743498  0.059022016            3 
  126000     1.091814   -4.7067973    79.812485  0.052786035  0.058883966            2 
  127000    1.0764207   -4.7197407    80.301038  0.052690969  0.058753906            2 
  128000    1.0611028   -4.7334771    80.529917  0.052428331  0.058614542            4 
  129000    1.0817751     -4.74833    80.889895  0.052254454  0.058474968            2 
  130000     1.064878   -4.7484481    81.173682  0.052034411    0.0583237            4 
  131000     1.064778   -4.7169254    81.930113  0.052118392  0.058177943            1 
  132000    1.0495575   -4.7565375      82.3742  0.052003914   0.05803385            4 
  133000     1.073417   -4.7442362     82.98142  0.051993371  0.057894066            3 
  134000    1.0517083   -4.7485681    82.820133  0.051505058  0.057749703            2 
  135000    1.0419169   -4.7509074    84.251251  0.052006945  0.057609353            2 
  136000    1.0834507   -4.7633108    84.505947  0.051780604   0.05746985            3 
  137000    1.0323771   -4.7550871    85.426357  0.051962504  0.057335886            4 
  138000    1.0839871   -4.7382023    85.938417  0.051895179  0.057204272            3 
  139000    1.0358077   -4.7662209    86.184144  0.051669151  0.057075001            1 
  140000    1.0567086   -4.7499091    87.071364  0.051828193  0.056952796            3 
  141000    1.0395452   -4.7585613    87.411574  0.051661687  0.056825237            2 
  142000    1.0326594   -4.7848565     87.77904  0.051513521  0.056697172            2 
  143000    1.0456127   -4.7755958    88.496339  0.051571293  0.056566818            1 
  144000    1.0422974   -4.7573902    88.808311  0.051393698  0.056442761            3 
  145000    1.0567002   -4.7928839    88.966907  0.051130406  0.056312507            4 
  146000    1.0477967   -4.7938896    89.585128  0.051133064  0.056183171            3 
  147000    1.0151063   -4.7490557    90.233628   0.05115285  0.056052098            3 
  148000    1.0320727   -4.8062373    90.460532  0.050934984  0.055919255            4 
  149000    1.0360464   -4.8061566    90.822121  0.050795369  0.055791254            2 
  150000    0.9944331   -4.7993305    91.668067  0.050926704  0.055662407            6 
  151000    1.0161544   -4.8021861     91.66579  0.050588184  0.055533635            2 
  152000     1.055596   -4.8389896    92.125009  0.050507132  0.055402053            4 
  153000    1.0203082   -4.8093933    92.902136  0.050600292  0.055271517            2 
  154000     1.000464    -4.808347    93.559002  0.050627165  0.055146095            3 
  155000    1.0324531   -4.8214385    93.706685  0.050379938  0.055020968            3 
  156000     1.029079   -4.7921695    94.290463  0.050368837  0.054895868            3 
  157000    1.0125178   -4.8369082    94.117905  0.049956425  0.054765779           10 
  158000    1.0201231   -4.8173256     94.69947  0.049946977  0.054629395            2 
  159000   0.99398248   -4.8632876    94.973918  0.049776686  0.054489961            4 
  160000    1.0011516   -4.8379728    95.322156  0.049646956  0.054348353            3 
  161000    1.0324884    -4.835145    95.517804  0.049439857  0.054203798            3 
  162000   0.99143429   -4.8837859    95.833426   0.04929703  0.054058806            2 
  163000    1.0039177   -4.8534632    96.387369  0.049277796  0.053915026            5 
  164000    1.0175022   -4.8411486    96.787184   0.04918048  0.053772672            3 
  165000    1.0148593   -4.8332139    97.198098  0.049089948   0.05362675            7 
  166000    1.0001691   -4.8360241    97.717467  0.049054953  0.053485354            3 
  167000   0.97752194   -4.8753568    98.043216   0.04892376  0.053343199            2 
  168000    1.0110109   -4.8315665    98.720658   0.04896858  0.053202436            4 
  169000    1.0001443   -4.8524785    98.928896  0.048781507  0.053062881            3 
  170000    1.0252427   -4.8515532    99.308542  0.048680658  0.052920705            2 
  171000   0.98604569   -4.8485328    99.781274  0.048626352  0.052779193            3 
  172000   0.98310836   -4.8867973    99.703825  0.048306117  0.052635384            4 
  173000   0.99352722   -4.9065035    99.946408  0.048143742  0.052490933            3 
  174000   0.97936387   -4.8327689    100.63702  0.048197806  0.052348804            3 
  175000    1.0012929   -4.8755549    101.36971  0.048271291  0.052213728            4 
  176000   0.98252482   -4.8507559    101.10503    0.0478717  0.052071534            4 
  177000    0.9873312   -4.9158388    101.18439    0.0476386  0.051931118            6 
  178000   0.98534447   -4.8681887    102.14789  0.047822044    0.0517883            7 
  179000   0.99194628     -4.87275    102.48059   0.04770977  0.051648522            2 
  180000   0.99681174   -4.8768881    103.12607  0.047743551  0.051507614            3 
  181000   0.99066301   -4.9038813    103.04949  0.047444515  0.051375562            4 
  182000   0.98115569   -4.8840223    103.58914  0.047430923  0.051239607            4 
  183000    0.9959351   -4.8819296    104.03667  0.047375531  0.051105959            2 
  184000   0.95907451   -4.9058561    104.43842  0.047300011  0.050973063            2 
  185000   0.99085605   -4.9264243    104.88018  0.047243326  0.050838953            3 
  186000   0.95211446   -4.9062151    104.88665  0.046992228  0.050703771            3 
  187000   0.97863476   -4.9072455    105.55501  0.047038774  0.050569399            2 
  188000   0.97165611   -4.9223353    106.04002  0.047003555   0.05043768            5 
  189000   0.94641649   -4.9233333    106.33565  0.046885207  0.050308031            2 
  190000   0.97545619   -4.9122657    106.71489  0.046804776  0.050177523            4 
  191000   0.95202104   -4.9067507    107.08623  0.046721739  0.050050219            4 
  192000   0.94638698     -4.94018    107.28985  0.046566775   0.04992139            3 
  193000   0.95737963   -4.9152706    107.55797  0.046441264   0.04979365            5 
  194000     0.944425   -4.9326987    108.14716  0.046454967  0.049666971            2 
  195000   0.95460766   -4.9124173    108.54912  0.046388511  0.049542408            3 
  196000   0.96694744   -4.9233932    109.26984  0.046458265  0.049421576            1 
  197000   0.95189648   -4.9586739    109.71768   0.04641188  0.049299515            3 
  198000   0.96560973   -4.9664078    109.74308  0.046188165  0.049179269            2 
  199000   0.97884876   -4.9487139    110.04147  0.046081018  0.049057808            5 
  200000   0.96124375   -4.9767759    110.13621  0.045890088   0.04893917            4 
  201000   0.95685327   -4.9335822    111.05478  0.046042611  0.048815951            2 
  202000   0.95969915   -4.9785127    110.69122  0.045664695  0.048693475            3 
  203000   0.94672746   -4.9505493    111.53701  0.045786949   0.04857105            5 
  204000   0.94629053    -4.962428    111.65285  0.045609825  0.048449997            4 
  205000   0.94663707   -4.9394528    112.29955  0.045650223  0.048332685            2 
  206000   0.93730683   -4.9795832    112.73402  0.045604379  0.048218632            3 
  207000   0.93603575   -4.9642984    113.43677  0.045666975  0.048105031            5 
  208000   0.92824664   -4.9450022     113.4778  0.045463862  0.047992358            2 
  209000   0.93920145   -4.9574849     113.6952  0.045333016   0.04787706            3 
  210000    0.9183923   -4.9964747    113.91158  0.045203006  0.047762078            4 
  211000   0.95875306   -4.9537401    114.76504  0.045325844   0.04764885            4 
  212000   0.92103498   -5.0328162    114.34726  0.044947823  0.047537586            2 
  213000   0.94126255   -5.0180188    115.54406  0.045205031  0.047426226            4 
  214000   0.94217178   -5.0296716    115.59862  0.045015037  0.047317209            4 
  215000   0.93023107   -5.0118411    115.99833  0.044960591  0.047209149            4 
  216000   0.91966123   -5.0241503    116.73841  0.045037968  0.047104749            7 
  217000   0.91359424   -5.0051235    116.87112  0.044881382   0.04700263            5 
  218000   0.90005087   -4.9765707    117.45921  0.044900308  0.046900243            3 
  219000   0.90156659   -5.0218867    117.68139  0.044779828  0.046797202            5 
  220000   0.90998407   -5.0450973    117.63396  0.044558318  0.046692731            8 
  221000    0.9196744   -5.0102352    118.49756  0.044682337  0.046588965            4 
  222000   0.91108161   -5.0413375    118.23587  0.044382834  0.046483263            6 
  223000   0.90395083   -5.0287861    118.91558  0.044437809  0.046377446            6 
  224000   0.92359783   -5.0194448    119.08321   0.04430179  0.046272077            3 
  225000   0.90185608   -5.0115277    119.21602   0.04415408  0.046169856            6 
  226000    0.8901607   -4.9967215    120.08732  0.044279986  0.046066651            4 
  227000   0.90388796   -5.0348174    119.92177  0.044024146  0.045961645            8 
  228000    0.9099931   -5.0408554     120.0456  0.043876317  0.045857331            5 
  229000   0.89118594   -5.0551825    120.21136  0.043745036  0.045751828            6 
  230000   0.89781188    -5.049332    120.65423  0.043715301  0.045644386            7 
  231000   0.89196834   -5.0804758    121.30342  0.043760253  0.045538894            3 
  232000   0.89035907   -5.0342752    121.38975  0.043602641  0.045436023            3 
  233000   0.91510578   -5.0417562    122.55648  0.043832789  0.045335437            4 
  234000   0.88937805   -5.0657326    122.31793  0.043560515   0.04523508            6 
  235000    0.8861956   -5.0515402     122.5514  0.043457943   0.04513603            6 
  236000   0.87294414   -5.0563347    123.10587  0.043469586  0.045038006            3 
  237000   0.88877906    -5.043821    123.54344  0.043440029  0.044941334            5 
  238000   0.87673891   -5.1016577    123.24927  0.043154506  0.044842349            6 
  239000   0.88626054   -5.0457828    124.21471  0.043310568   0.04474672            3 
  240000   0.88217887   -5.0729826    124.13718  0.043103187  0.044650792            8 
  241000    0.8854437   -5.1029108    124.71839  0.043125308  0.044554417            5 
  242000    0.8919006   -5.1082307    125.15984  0.043099118  0.044458234            3 
  243000   0.86670163   -5.0883989    125.44804  0.043020588  0.044362969            4 
  244000   0.87373177   -5.1077356    125.64471  0.042911443  0.044267656            3 
  245000   0.87583121   -5.0711359    126.44273  0.043007732  0.044173897            3 
  246000   0.87350019    -5.090492    125.96701  0.042671752  0.044079027            4 
  247000   0.87661706   -5.0930999    126.61006  0.042715945  0.043984024            4 
  248000    0.8697926   -5.1349047    126.55196  0.042524182  0.043889009            4 
  249000   0.85637835   -5.1119822    126.70288  0.042403909  0.043792825            5 
  250000   0.86482175   -5.1269276    126.75536  0.042251788   0.04369555            3 
  251000   0.86752666   -5.0944968    127.26349  0.042252154  0.043599834            7 
  252000   0.85538631   -5.1396778    127.19922  0.042063233  0.043503459            7 
  253000   0.86380297   -5.1109699    127.66653    0.0420509  0.043406222           10 
  254000   0.85532325   -5.1408819    127.78398  0.041923879  0.043307466            4 
  255000   0.85059215   -5.1234413    127.63181  0.041709742  0.043209698            6 
  256000   0.85837335   -5.1313513    128.28541  0.041759573  0.043110562            6 
  257000   0.86166106   -5.1316588    128.64304  0.041713049  0.043014924            8 
  258000   0.85363907   -5.1590776    129.17562  0.041723391  0.042917585            7 
  259000   0.85502952   -5.1359738    129.18977  0.041566851  0.042821094            6 
  260000   0.83985527   -5.1533796    129.14222  0.041391738  0.042725087            5 
  261000   0.86053547   -5.1213859    129.66105  0.041398804  0.042630199            3 
  262000   0.85850538   -5.1589085     129.8091  0.041287882  0.042533926            2 
  263000   0.85865009   -5.1389096    130.36494  0.041307014  0.042439285            8 
  264000    0.8470705   -5.1458579    130.90501  0.041321026  0.042346027            7 
  265000   0.86266399   -5.1656008    130.46442  0.041026549  0.042250845            4 
  266000   0.84015889    -5.190435     130.9012  0.041009148  0.042155914            3 
  267000   0.83204924   -5.1624776    131.11615  0.040922642  0.042060024            4 
  268000   0.83465414   -5.1778021    131.20756  0.040798369  0.041965989           12 
  269000   0.82803115   -5.1567115    131.30535  0.040676998  0.041868698            7 
  270000   0.84614305   -5.1702339    131.62063  0.040623651  0.041771681            4 
  271000   0.83521667   -5.2157729    130.91668  0.040257282  0.041674026            7 
  272000   0.82760175   -5.1857269    132.02147  0.040447754  0.041575432            3 
  273000   0.84398767   -5.1859554    131.99333  0.040291003  0.041478579            9 
  274000   0.83149675   -5.2011821    132.46192  0.040286471  0.041382751            6 
  275000   0.86099514   -5.1904997    132.62576  0.040189624  0.041286156            5 
  276000   0.83851193   -5.1761081    132.63976  0.040048236  0.041189809           13 
  277000   0.81828676   -5.1986301    133.11252  0.040045884  0.041093846            8 
  278000   0.85488784   -5.2298778     132.7436  0.039791247  0.040997152            4 
  279000   0.82394672   -5.1801012    133.30024  0.039814887   0.04090038            4 
  280000   0.82802916   -5.2298151    133.19881  0.039642503  0.040803225            7 
  281000   0.80605387   -5.2133798    133.03739  0.039453556  0.040704855            3 
  282000   0.80436897   -5.1856009    133.71634  0.039514285  0.040605359            4 
  283000   0.81820765   -5.1932853    133.58162  0.039334989  0.040506337            3 
  284000    0.8128545   -5.2231819     133.6541  0.039217752  0.040407803            7 
  285000   0.81659046   -5.2442292    134.20734  0.039241911  0.040309247            6 
  286000   0.80735389   -5.2177944    134.58812  0.039215653  0.040211765            5 
  287000   0.80841975    -5.233589    134.81274  0.039144232  0.040114764            4 
  288000    0.8186046   -5.2465797    134.30372   0.03886103  0.040017294            8 
  289000   0.80812093   -5.2339125    134.54444  0.038795974  0.039919036            5 
  290000   0.80950514   -5.2488456    134.63186  0.038687317  0.039822277            4 
  291000   0.79986323   -5.2724116    134.45064  0.038502473  0.039723491            6 
  292000   0.80331447    -5.284456     134.7506  0.038456222  0.039624643           11 
  293000   0.78293388   -5.2447307    134.95737  0.038383779  0.039526508            6 
  294000    0.7950965   -5.2638894    135.53342  0.038416501  0.039428809            7 
  295000   0.81346956    -5.272132    136.00953  0.038420772  0.039333641            6 
  296000   0.77216546   -5.2606029    136.14217  0.038328313  0.039239032            4 
  297000   0.79658443   -5.2761129    136.44337  0.038283774  0.039144271            5 
  298000   0.78351595   -5.2894666    136.84711  0.038268209   0.03905061            6 
  299000   0.80534586    -5.267664    136.98706  0.038179225  0.038957063            2 
  300000    0.7798414   -5.2986319    136.56925  0.037935904   0.03886372           10 
  301000   0.79788608   -5.2832744    137.43542  0.038049672  0.038770472            9 
  302000   0.77444986   -5.3170282    137.21126  0.037861828  0.038678283            7 
  303000   0.77745205   -5.3035263    137.42022  0.037794339  0.038585431            6 
  304000   0.78404579   -5.2880987    137.60748  0.037721349  0.038492458            7 
  305000   0.79375994   -5.2889216    138.23138  0.037768135  0.038400533           11 
  306000   0.77444736   -5.3362675    137.85156  0.037541275  0.038308688            6 
  307000    0.7822096   -5.2985427    138.08567  0.037482537  0.038216427            8 
  308000   0.78383408    -5.304779    138.42886  0.037453697  0.038124698            6 
  309000   0.78139245   -5.3269629    138.83777  0.037442765  0.038033214            7 
  310000   0.77865051    -5.335874    138.72907  0.037292761  0.037942421            5 
  311000   0.78737111    -5.352489    138.95415  0.037233158   0.03785162            4 
  312000   0.75911272    -5.324723    139.29683  0.037205351  0.037760887            6 
  313000   0.76673472   -5.3344655    139.09278  0.037032157  0.037670445            5 
  314000   0.78140863   -5.3319094    139.20822  0.036944856  0.037579835            7 
  315000    0.7756947   -5.3473059    139.60154  0.036931625  0.037490018            5 
  316000    0.7656489   -5.3522401    139.71163  0.036843785  0.037399623            9 
  317000   0.76446639   -5.3075354    140.07351  0.036822689  0.037309548            7 
  318000   0.78046024   -5.3456983    140.03021  0.036695548  0.037220271            4 
  319000   0.75835778      -5.3771    139.81125  0.036523315  0.037129838           14 
  320000   0.75903954   -5.3530529    140.40175  0.036562956  0.037039559           12 
  321000   0.74829844   -5.3704132    140.44478  0.036460223   0.03695037            6 
  322000    0.7491874   -5.3505951    140.62916  0.036394709  0.036861239            4 
  323000   0.75948349   -5.3405076    140.80969   0.03632861  0.036772064            5 
  324000    0.7393289   -5.3241436    140.83665  0.036223417  0.036682963            7 
  325000   0.77094098   -5.3434049    141.01498  0.036157688  0.036593961            4 
  326000    0.7454118   -5.3467877    140.97467  0.036036469  0.036504953            7 
  327000   0.74277791   -5.3846813    140.94289  0.035918167  0.036416187            6 
  328000   0.74021531   -5.3953818    140.83749  0.035781883  0.036326998           11 
  329000   0.75582825    -5.367565    141.40975  0.035818073  0.036237987            4 
  330000   0.74227379   -5.3851823    141.74342  0.035793792  0.036148992            5 
  331000   0.74306483   -5.3754082    141.84635  0.035711568  0.036060964            5 
  332000   0.72714501   -5.3831348    141.90965  0.035619893   0.03597373            5 
  333000   0.73064662   -5.3664099    142.65963  0.035700608  0.035886821            7 
  334000   0.73062959   -5.4029168    142.21551  0.035482913   0.03580024            4 
  335000   0.74541968    -5.392184     142.6067  0.035474304  0.035713231           11 
  336000   0.72528868   -5.4265046     142.5383   0.03535176   0.03562639            6 
  337000   0.73256131    -5.400152    143.09327  0.035384091  0.035539888            7 
  338000   0.73053745    -5.407983    142.71142  0.035185261  0.035454168            4 
  339000   0.71084482   -5.4024817    143.17603  0.035195681  0.035367843            5 
  340000   0.73617978   -5.4057109    143.02598  0.035055386  0.035282494            6 
  341000   0.73167237   -5.4069709    143.17126   0.03498809  0.035195775            7 
  342000    0.7176848   -5.4336521    142.91516  0.034823382  0.035110013            5 
  343000   0.72174664   -5.4487529    143.32535  0.034821513  0.035024254            6 
  344000   0.71801211   -5.4296789    143.30919  0.034716373  0.034939453            6 
  345000   0.71268874   -5.4352363    143.65588  0.034699489   0.03485451            9 
  346000   0.70828596   -5.4137144    143.96838  0.034674466  0.034770564            9 
  347000   0.70678234   -5.4259414    144.00174   0.03458255  0.034685927            8 
  348000   0.69480852   -5.4351763    143.43979  0.034348608  0.034599412           14 
  349000   0.70985268   -5.4396639    143.93041  0.034367337  0.034513867           13 
  350000   0.69438148   -5.4620267    144.16012  0.034323837  0.034428151           10 
  351000   0.71302919   -5.4597785    143.69721  0.034116146  0.034343473           12 
  352000    0.7082445   -5.4310426     144.3829  0.034181557   0.03425901            9 
  353000   0.69268237   -5.4582532    144.19066  0.034039344  0.034174498            7 
  354000   0.70117389   -5.4840463    144.05107  0.033910328  0.034090247           10 
  355000   0.70564508   -5.4606891    144.28231  0.033869086  0.034004991            4 
  356000   0.69087474   -5.4865393    144.18901  0.033752108   0.03392092           10 
  357000   0.69854181   -5.4945674     144.7822  0.033796033  0.033837316            9 
  358000   0.68536324   -5.4933971    144.56039  0.033649996  0.033753683            9 
  359000   0.70472435   -5.4654489    144.78245   0.03360781  0.033670295            9 
  360000   0.69384279   -5.4919391    144.78573  0.033515216   0.03358617           13 
  361000   0.70208168   -5.4957928    144.87391  0.033442732  0.033502278            7 
  362000   0.69742662   -5.4956267    144.78667  0.033330264   0.03341845           14 
  363000   0.68046558   -5.4903831    145.09593  0.033309442  0.033334882           10 
  364000   0.69658727   -5.4929214    144.89926  0.033172908   0.03325073            5 
  365000   0.69569113   -5.5031074    145.07751   0.03312272  0.033166405            9 
  366000   0.68145174   -5.5062601     145.0833  0.033033539  0.033082586            9 
  367000   0.67734982   -5.4809301    145.36844  0.033008273  0.032998973            5 
  368000   0.67738759   -5.5056818     145.2634  0.032894791  0.032916097            8 
  369000    0.6668672   -5.5328264     145.8569   0.03293968  0.032833116           11 
  370000   0.68460917   -5.5234604    145.58168  0.032788667  0.032750285            8 
  371000   0.66149833   -5.5307617    145.77385  0.032743453  0.032667522            9 
  372000   0.67199507   -5.5302543    145.56357  0.032608327  0.032584575            9 
  373000   0.67415928   -5.5276854    146.23444  0.032670786  0.032502651            6 
  374000   0.68632917   -5.5660079    146.10911  0.032555506  0.032420674           15 
  375000   0.66418185   -5.5553001    145.94154  0.032431453  0.032338093           12 
  376000   0.66570573   -5.5418584    146.04126  0.032367301  0.032256196            8 
  377000   0.67227838   -5.5670925    146.23267  0.032323755   0.03217515            9 
  378000   0.67151706   -5.5351788    146.51056  0.032299507  0.032094676           16 
  379000   0.66713364   -5.5631968    146.73545  0.032263732  0.032014828           17 
  380000    0.6681151   -5.5796471    146.68408  0.032167561  0.031935146           19 
  381000    0.6645189   -5.5668822    146.74639   0.03209676  0.031855298           18 
  382000   0.65492249     -5.59547    146.61881  0.031984907  0.031775724            6 
  383000   0.66402919   -5.5871016    146.74334   0.03192849  0.031696583           21 
  384000   0.65589105    -5.561268    147.14681  0.031932901  0.031617537           11 
  385000   0.65373729   -5.5871854    146.75483  0.031765114  0.031538659           15 
  386000   0.65008075   -5.5881038    146.93141  0.031720944  0.031459083           16 
  387000   0.64803942   -5.5817614    147.22095  0.031701325  0.031379281           11 
  388000   0.65363308   -5.6049647    146.91763  0.031554474  0.031299969           18 
  389000    0.6525999   -5.5952044    147.01168  0.031493505  0.031220928           11 
  390000   0.65433379   -5.6174153    147.04845  0.031420609  0.031141944            7 
  391000   0.63974783   -5.6261021    147.59711  0.031457184  0.031063041            5 
  392000   0.62045662   -5.5973545     147.3193  0.031317879  0.030984455           25 
  393000   0.63606068    -5.620628    146.91836  0.031153172  0.030906253            9 
  394000   0.65172402   -5.6294683    147.10991  0.031114618  0.030827767            7 
  395000   0.63101382   -5.6171436     147.6636  0.031152658  0.030749261           10 
  396000   0.63490833   -5.6355895    147.29293  0.030995988  0.030670354           15 
  397000   0.63673978   -5.6210906    147.00316  0.030857087  0.030591347            9 
  398000   0.63921064   -5.6225297    147.13324  0.030806793  0.030513024           13 
  399000   0.63220928   -5.6338549     147.2245  0.030748643  0.030434739           17 
  400000   0.63687937   -5.6216337    147.51858  0.030733038  0.030356511           23 
  401000   0.63144105   -5.6206782    147.45601  0.030643393  0.030278427            7 
  402000   0.62368503   -5.6322252    147.75253  0.030628635  0.030200248            5 
  403000   0.62451942   -5.6500827     147.4735  0.030494935  0.030122248           10 
  404000   0.62556965   -5.6679295    147.54538  0.030434279  0.030044837           11 
  405000   0.62201172   -5.6580586    147.62958  0.030376456  0.029967426           10 
  406000   0.62357663   -5.6632591    147.32314  0.030238739  0.029890192           10 
  407000   0.61528913   -5.6605911    148.00493   0.03030404  0.029813027           10 
  408000   0.61789082   -5.6559748     147.7287  0.030173346   0.02973638           12 
  409000   0.61401019   -5.6580869    147.98959  0.030152727  0.029660266           16 
  410000   0.62199877   -5.6708229    147.75381  0.030031261   0.02958412           16 
  411000   0.61569726    -5.632297    148.39019  0.030087224  0.029507989            7 
  412000    0.6106965   -5.6765143    148.08931   0.02995334  0.029431957           19 
  413000   0.61697993   -5.6993234    147.87236  0.029837037  0.029356048           10 
  414000   0.60888625   -5.6859672    148.14966  0.029820785   0.02928016           19 
  415000   0.60476762    -5.685986    148.08959  0.029736864  0.029204531            9 
  416000   0.60059243   -5.6818698    148.37324  0.029722204  0.029128748           23 
  417000   0.59732122   -5.6792724    148.11786  0.029599891  0.029053015           40 
  418000   0.59763005   -5.7131207    148.04841  0.029515234  0.028977562           16 
  419000   0.61409733   -5.7075943     147.8037  0.029396123  0.028901845           25 
  420000   0.59092276   -5.7379604    147.90962  0.029347147  0.028826209           13 
  421000    0.5823205   -5.7131565    147.92912  0.029281299  0.028750647           12 
  422000   0.59170962   -5.7270123    148.06468  0.029238681  0.028674647           40 
  423000   0.60308586   -5.7333181    147.76505   0.02911053  0.028598673           14 
  424000   0.59084474   -5.7118265    148.15391    0.0291183  0.028522902           17 
  425000   0.58947499   -5.7425129    147.73215  0.028967088  0.028447471           10 
  426000   0.58301631   -5.7578436    147.99821  0.028951136  0.028371727           11 
  427000   0.58398041   -5.7372875    148.15002  0.028912962  0.028296472            9 
  428000   0.58883627   -5.7567596    147.74515  0.028766579  0.028221318           18 
  429000   0.57895677   -5.7435369    148.20692  0.028789224  0.028146409           16 
  430000   0.57724498     -5.73884    148.12266  0.028705941  0.028071707           16 
  431000   0.58226006   -5.7412293    147.83729  0.028584163  0.027996941           15 
  432000   0.57609913   -5.7726505    147.72507  0.028496349  0.027922326           14 
  433000   0.56353879   -5.7742018    147.47332  0.028382087  0.027847354           22 
  434000   0.56270415   -5.7474252    147.93677  0.028405677   0.02777266           16 
  435000   0.57619194   -5.7596663    148.08857  0.028369458   0.02769825           17 
  436000   0.56416447   -5.7988424    147.64819   0.02822022   0.02762377           20 
  437000   0.56252382   -5.8000862    147.85297  0.028194694  0.027549422           24 
  438000   0.56179695   -5.7871011    147.87324  0.028134178  0.027475143           18 
  439000   0.56949239   -5.7878452    147.89645  0.028074497  0.027401462           32 
  440000    0.5679665   -5.7773876    148.05974  0.028041617   0.02732788           16 
  441000   0.54978252   -5.7880276    147.68457  0.027907138  0.027254073           21 
  442000   0.56776404    -5.795283     147.6747  0.027842138   0.02718021           19 
  443000   0.55107895   -5.7993395    147.62871  0.027770638  0.027106549           38 
  444000   0.56435416   -5.8054119    147.58517   0.02769992  0.027033221           23 
  445000   0.55726641   -5.7831819    147.79804  0.027677536  0.026960044           24 
  446000   0.55781991   -5.8201993    147.79261  0.027614463  0.026887123           55 
  447000    0.5694396   -5.8051835    147.80742  0.027555448  0.026814418           29 
  448000   0.55768324    -5.822312     147.7438  0.027482106  0.026742129           35 
  449000   0.55274508   -5.8121222    148.11537   0.02748986  0.026669611           29 
  450000   0.55571873   -5.8101687    147.61331  0.027335799  0.026596723           24 
  451000   0.55594557   -5.8086105    147.95328  0.027338004  0.026524124           28 
  452000   0.54416297   -5.8086002    147.73344  0.027236991  0.026451937           33 
  453000    0.5398183   -5.8486729    147.42992  0.027121031  0.026379791           31 
  454000   0.55611595   -5.8508695    147.51337  0.027076609  0.026307582           13 
  455000   0.54719122   -5.8535177    147.28189  0.026974706  0.026235542           15 
  456000   0.53479599   -5.8364236    147.58207  0.026970407  0.026163469           22 
  457000   0.53447335   -5.8501817    147.55928  0.026907236  0.026091532           24 
  458000   0.54296543   -5.8495035    147.67498  0.026869538   0.02601986           24 
  459000   0.52620662   -5.8508569    147.11453  0.026709246  0.025948056           13 
  460000   0.54306351   -5.8576835    147.50233  0.026721436  0.025876151           37 
  461000    0.5272336   -5.8696857    147.20314  0.026609389  0.025804462           84 
  462000   0.53404764   -5.8949302    147.37954   0.02658361  0.025732639           58 
  463000   0.53506582   -5.8810259    147.41423  0.026532439  0.025660951           28 
  464000   0.52642406   -5.8868942    147.18911  0.026434826  0.025589568           13 
  465000   0.52431729   -5.8668922    147.68081  0.026466094  0.025518745           18 
  466000    0.5152614   -5.8794924     147.2993  0.026341076   0.02544804           26 
  467000   0.51536435   -5.9001523    147.35529  0.026294663  0.025377795           16 
  468000    0.5225983   -5.9026407    147.15473  0.026202764  0.025307685           33 
  469000   0.52025054   -5.8981715    147.51011  0.026210041   0.02523747           19 
  470000   0.51422397   -5.8810999    147.63221  0.026175924  0.025167506           18 
  471000   0.50993313   -5.9069442    147.25498  0.026053605   0.02509764           56 
  472000   0.51727109   -5.9147983     147.1965  0.025988082   0.02502772           44 
  473000   0.50851764   -5.8995702    147.14016  0.025923213  0.024958076           41 
  474000    0.5143779   -5.9126681    147.25672  0.025889015  0.024888559           45 
  475000   0.50898356   -5.9246781    147.06332  0.025800582  0.024819189           70 
  476000   0.50352838   -5.9085716    147.33007  0.025793079  0.024750011           83 
  477000   0.51137205   -5.9353508     147.0813  0.025695545  0.024680818          107 
  478000   0.49943709   -5.9081657    146.98908  0.025625711  0.024611763           80 
  479000   0.49567763   -5.9262777    146.97088  0.025569047  0.024542861          130 
  480000   0.50406546   -5.9270331    147.02399  0.025524998  0.024474097           93 
  481000   0.48612342   -5.9351958    147.25156  0.025511359  0.024405724           79 
  482000   0.50905189   -5.9261009     147.0002  0.025414972  0.024337406           82 
  483000   0.49785634   -5.9469784    147.09867  0.025379342  0.024269203           96 
  484000   0.48754009   -5.9619843    146.51043  0.025225625  0.024200983          111 
  485000   0.48792105   -5.9479032    146.83267  0.025228981  0.024132951          122 
  486000   0.49768368   -5.9672552    146.72536   0.02515867  0.024065208          152 
  487000   0.48833937   -5.9648186    146.72604  0.025107125  0.023997544          153 
  488000    0.5014112   -5.9569604    146.61952  0.025037486  0.023930152          172 
  489000   0.48797683   -5.9619387    146.82598   0.02502147  0.023862792          292 
  490000   0.48005032   -5.9938063    146.68701  0.024946771  0.023795571          108 
  491000   0.49783545   -5.9805536     146.3654  0.024841378  0.023728467          108 
  492000   0.48547208    -5.968378    146.59231   0.02482932  0.023661554           75 
  493000   0.47659706   -5.9803134    146.71133  0.024799076  0.023594534          373 
  494000   0.47504959   -5.9652713    146.61797  0.024733126  0.023527624          161 
  495000   0.47520985   -5.9937821    146.86787   0.02472523  0.023460827          146 
  496000   0.47618563   -5.9949538    146.34904  0.024588212  0.023394444          207 
  497000   0.47315619   -5.9967544    146.55417  0.024573134  0.023328189          401 
  498000   0.47119379   -6.0175976    146.43265  0.024503456  0.023262114          148 
  499000   0.49165314   -5.9907778    146.50934  0.024467158  0.023196143          316 
  500000   0.45635115   -6.0058122     146.4186  0.024403099  0.023130387          320 
  501000   0.47066413   -6.0058425    146.37551  0.024347224  0.023064807          250 
  502000   0.46322048   -6.0152923    146.15524  0.024262158  0.022999227          423 
  503000   0.46065938   -6.0232753     146.4124  0.024256527  0.022933829          186 
  504000    0.4607501   -6.0170781    146.32434   0.02419384  0.022868677          399 
  505000   0.46039785   -6.0259635    146.33353  0.024147447  0.022803605          216 
  506000   0.45326199   -6.0258957    145.96506  0.024039042  0.022738608          409 
  507000   0.45998603   -6.0424078    145.93672   0.02398697  0.022673755          267 
  508000    0.4569733   -6.0422342    146.12467  0.023970583  0.022609143          229 
  509000   0.46429165   -6.0234604    146.38925  0.023966807  0.022544864          465 
  510000   0.45486276   -6.0440629    145.97358  0.023851892  0.022480812          405 
  511000   0.45673788   -6.0417614    145.88756  0.023791186  0.022416683          509 
  512000   0.44818292   -6.0392667    145.93967  0.023753202  0.022352996          483 
Loop time of 1271.42 on 48 procs for 500000 steps with 4000 atoms

Performance: 67955.755 tau/day, 393.262 timesteps/s
99.4% CPU use with 48 MPI tasks x no OpenMP threads

MPI task timing breakdown:
Section |  min time  |  avg time  |  max time  |%varavg| %total
---------------------------------------------------------------
Pair    | 87.535     | 93.642     | 100.02     |  31.8 |  7.37
Neigh   | 8.6298     | 8.9508     | 9.4956     |   6.4 |  0.70
Comm    | 80.075     | 89.113     | 96.604     |  38.5 |  7.01
Output  | 0.94503    | 0.94585    | 0.97241    |   0.4 |  0.07
Modify  | 1061.5     | 1066.4     | 1071.8     |   6.9 | 83.88
Other   |            | 12.35      |            |       |  0.97

Nlocal:        83.3333 ave          90 max          79 min
Histogram: 8 5 7 8 6 4 2 3 3 2
Nghost:        2341.83 ave        2365 max        2314 min
Histogram: 1 2 2 5 10 7 10 7 3 1
Neighs:        16070.8 ave       17419 max       14642 min
Histogram: 2 5 3 5 6 9 5 8 2 3
FullNghs:      32142.5 ave       34750 max       30116 min
Histogram: 4 4 7 11 5 6 4 2 2 3

Total # of neighbors = 1542840
Ave neighs/atom = 385.71000
Neighbor list builds = 26879
Dangerous builds = 0

#clear
#
#next RN
#
#jump SELF
Total wall time: 0:21:15
