
units lj                  # Use reduced LJ style units
atom_style atomic         # Uncharged point particles
atom_modify map hash      # Needed for indexing of clusters etc
                          # Used to be able to find where atoms are in relation to each other.

lattice fcc 1.0 spacing 1 1 1
Lattice spacing in x,y,z = 1.5874011 1.5874011 1.5874011
region box block 0 10 0 10 0 10 units lattice
create_box 2 box
Created orthogonal box = (0.0000000 0.0000000 0.0000000) to (15.874011 15.874011 15.874011)
  3 by 4 by 4 MPI processor grid
create_atoms 1 box
Created 4000 atoms
  using lattice units in orthogonal box = (0.0000000 0.0000000 0.0000000) to (15.874011 15.874011 15.874011)
  create_atoms CPU = 0.002 seconds
set type 1 type/fraction 2 0.67 78393
Setting atom values ...
  2693 settings made for type/fraction
mass 1 1.0
mass 2 1.0
pair_style lj/cut  3.5
pair_modify tail  yes
pair_coeff 1  1  1.0  1.0   # Intearaction between 1 and 1 set with epsilon = 1 and sigma = 1
pair_coeff 1  2  1.5  0.8
pair_coeff 2  2  0.5  0.88

write_data data.0
System init for write_data ...
Neighbor list info ...
  update every 1 steps, delay 10 steps, check yes
  max neighbors/atom: 2000, page size: 100000
  master list distance cutoff = 3.8
  ghost atom cutoff = 3.8
  binsize = 1.9, bins = 9 9 9
  1 neighbor lists, perpetual/occasional/extra = 1 0 0
  (1) pair lj/cut, perpetual
      attributes: half, newton on
      pair build: half/bin/atomonly/newton
      stencil: half/bin/3d
      bin: standard
WARNING: Not all mixed pair coeffs generated from mixing. Use write_data with 'pair ij' option to store all pair coeffs. (../write_data.cpp:312)


#############################
#   M E L T   S Y S T E M   #
#############################

velocity all create 2.4 9622624 mom yes dist gaussian # Assign velocities
                                                    # Temperature 2.4, random number seed, zero linear momentum
                                                                                # Gaussian distribution

timestep 0.002   # simulation timestep
thermo 1000       # output thermodynamic data every 1000 steps bf 100

# Define a fix  in this case with index 1 applied to all
# particles in the simulation. This fix is for simulations
# in the anisotropic NPT ensemble. Note that we use the MTK
# correction.
fix 1 all npt temp 2.4 2.4 0.1 iso 5.68 5.68 0.5 mtk yes tchain 5 pchain 5 # Use NPT ensemble
                                                                         # Set temperature and pressure and damping
                                                                         # Numbers of thermostats in chain and in barostat
run 10000          # run for 10000 steps
Per MPI rank memory allocation (min/avg/max) = 3.642 | 3.644 | 3.648 Mbytes
Step Temp E_pair E_mol TotEng Press Volume 
       0          2.4   -4.3445498            0  -0.74544977   -3.8717164         4000 
    1000     2.417941   -4.0303718            0  -0.40436708    5.8910619    3612.6588 
    2000    2.3850949    -4.032606            0  -0.45585806    5.5825433    3630.2885 
    3000    2.3544819   -4.0104879            0  -0.47964791    5.3473114    3658.1707 
    4000    2.3996595   -4.0407219            0  -0.44213256    5.5556491    3635.9895 
    5000    2.4204364   -4.0108633            0  -0.38111631    5.6163622    3639.4129 
    6000    2.4621709   -3.9936783            0   -0.3013452    5.9294114    3623.7874 
    7000    2.3962538   -4.0203759            0  -0.42689381    5.5251588    3651.0451 
    8000    2.3651898   -4.0653751            0  -0.51847733    5.7309767    3598.9323 
    9000    2.3740167   -3.9370274            0  -0.37689263    5.8556708    3670.4532 
   10000    2.4259515   -3.9954832            0  -0.35746575    5.6482459    3650.0049 
Loop time of 2.591 on 48 procs for 10000 steps with 4000 atoms

Performance: 666924.669 tau/day, 3859.518 timesteps/s
99.7% CPU use with 48 MPI tasks x no OpenMP threads

MPI task timing breakdown:
Section |  min time  |  avg time  |  max time  |%varavg| %total
---------------------------------------------------------------
Pair    | 1.22       | 1.2549     | 1.3101     |   2.0 | 48.43
Neigh   | 0.21744    | 0.22347    | 0.2383     |   0.7 |  8.62
Comm    | 0.80658    | 0.8645     | 0.90265    |   2.5 | 33.37
Output  | 0.00024798 | 0.00025297 | 0.00033235 |   0.0 |  0.01
Modify  | 0.21483    | 0.23273    | 0.24377    |   1.6 |  8.98
Other   |            | 0.01513    |            |       |  0.58

Nlocal:        83.3333 ave          94 max          72 min
Histogram: 1 1 3 6 11 11 10 1 2 2
Nghost:        1750.10 ave        1772 max        1727 min
Histogram: 3 1 5 7 7 8 7 3 3 4
Neighs:        10464.6 ave       12675 max        8918 min
Histogram: 2 2 9 9 13 7 4 0 1 1

Total # of neighbors = 502302
Ave neighs/atom = 125.57550
Neighbor list builds = 911
Dangerous builds = 223

# Equilibrate just above the melting temperature to avoid step fn in T

fix 1 all npt temp 1.25 1.25 0.1 iso 5.68 5.68 0.5 mtk yes tchain 5 pchain 5
run 2000
Per MPI rank memory allocation (min/avg/max) = 3.644 | 3.646 | 3.650 Mbytes
Step Temp E_pair E_mol TotEng Press Volume 
   10000    2.4259515   -3.9954832            0  -0.35746575    5.6482459    3650.0049 
   11000    1.2449158   -5.9124713            0   -4.0455645    5.8750271    2766.5342 
   12000    1.2340884   -5.9939212            0   -4.1432514    5.8013697    2749.0123 
Loop time of 0.662847 on 48 procs for 2000 steps with 4000 atoms

Performance: 521387.465 tau/day, 3017.289 timesteps/s
99.7% CPU use with 48 MPI tasks x no OpenMP threads

MPI task timing breakdown:
Section |  min time  |  avg time  |  max time  |%varavg| %total
---------------------------------------------------------------
Pair    | 0.29713    | 0.32177    | 0.37777    |   2.4 | 48.54
Neigh   | 0.041126   | 0.043795   | 0.050494   |   0.7 |  6.61
Comm    | 0.1916     | 0.24839    | 0.27309    |   2.8 | 37.47
Output  | 5.3545e-05 | 5.4953e-05 | 7.2854e-05 |   0.0 |  0.01
Modify  | 0.036701   | 0.044062   | 0.049621   |   1.9 |  6.65
Other   |            | 0.004769   |            |       |  0.72

Nlocal:        83.3333 ave          89 max          78 min
Histogram: 5 4 4 3 9 7 5 5 2 4
Nghost:        2124.17 ave        2151 max        2100 min
Histogram: 2 1 11 5 8 8 5 3 3 2
Neighs:        13892.5 ave       15055 max       12512 min
Histogram: 2 3 2 8 7 5 7 5 4 5

Total # of neighbors = 666841
Ave neighs/atom = 166.71025
Neighbor list builds = 144
Dangerous builds = 11

#############################
# L I N E A R  Q U E N C H  #
#############################

# Define solid atoms. This closely follows ten Wolde  Ruiz-Montero and Frenkel  Faraday Discuss  1996  104  93-110
# Compute components of the per-atom q6 vector
compute q6 all orientorder/atom degrees 1 6 components 6 nnn NULL cutoff 1.3 # compute the Q6 parameter.
                                                                             # Use all neighbours within 1.3 unit cell.

# get number of connections
compute coord_number all coord/atom orientorder q6 0.5

# An atom is solid if it has 8 or more connections (of a possible 14)
variable is_solid atom c_coord_number>=8
group solid dynamic all var is_solid    # Must be dynamic to update
dynamic group solid defined

# do clustering
compute cluster solid cluster/atom 1.3 # Create a cluster where all atoms within are solid and max 1.3 units from another member

# define chunks one chunk per cluster
compute clus_chunks solid chunk/atom c_cluster nchunk every compress yes  # Says which atoms are in which chunk

# count the size of each chunk
compute size_chunks solid property/chunk clus_chunks count


# Find the maximum entry in the vector of chunk sizes
variable max_n equal max(c_size_chunks)


# Thermo style which includes this variable
# thermo_style custom step temp pe vol v_max_n

thermo ${N}  # Print the thermo information every 100 steps
thermo 1000  

# Reset the npt fix at a lower temperature (below freezing)
fix 1  all npt temp  ${temp} ${temp}  0.1  iso  5.68  5.68  0.5  mtk yes tchain  5  pchain  5
fix 1  all npt temp  0.45 ${temp}  0.1  iso  5.68  5.68  0.5  mtk yes tchain  5  pchain  5
fix 1  all npt temp  0.45 0.45  0.1  iso  5.68  5.68  0.5  mtk yes tchain  5  pchain  5

dump dmp2 all dcd ${N} traj.dcd
dump dmp2 all dcd 1000 traj.dcd


compute msd all msd com yes
variable twopoint equal c_msd[4]/6/(step*dt+1.0e-6)
fix 9 all vector 10 c_msd[4]
variable fit equal slope(f_9)/6/(10*dt)
thermo_style custom step temp pe c_msd[4] v_twopoint v_fit v_max_n

fix 1 all npt temp 1.25 ${temp} 0.1 iso 5.68 5.68 0.5 mtk yes tchain 5 pchain 5
fix 1 all npt temp 1.25 0.45 0.1 iso 5.68 5.68 0.5 mtk yes tchain 5 pchain 5
run 500000 # 5000000  # Run for this many steps
Neighbor list info ...
  update every 1 steps, delay 10 steps, check yes
  max neighbors/atom: 2000, page size: 100000
  master list distance cutoff = 3.8
  ghost atom cutoff = 3.8
  binsize = 1.9, bins = 8 8 8
  4 neighbor lists, perpetual/occasional/extra = 1 3 0
  (1) pair lj/cut, perpetual
      attributes: half, newton on
      pair build: half/bin/atomonly/newton
      stencil: half/bin/3d
      bin: standard
  (2) compute orientorder/atom, occasional
      attributes: full, newton on
      pair build: full/bin/atomonly
      stencil: full/bin/3d
      bin: standard
  (3) compute coord/atom, occasional
      attributes: full, newton on
      pair build: full/bin/atomonly
      stencil: full/bin/3d
      bin: standard
  (4) compute cluster/atom, occasional
      attributes: full, newton on
      pair build: full/bin/atomonly
      stencil: full/bin/3d
      bin: standard
Per MPI rank memory allocation (min/avg/max) = 9.848 | 9.852 | 9.856 Mbytes
Step Temp PotEng c_msd[4] v_twopoint v_fit v_max_n 
   12000    1.2340884   -5.9939212 3.1578102e-30 2.1929237e-32 8.3333333e+20            4 
   13000    1.2538219   -5.9520882   0.55549334 0.0035608546  0.046362866            1 
   14000    1.2373948   -6.0033107    1.0517884 0.0062606452  0.043164659            2 
   15000    1.2583383   -5.9940611    1.6005039 0.0088916883  0.043606187            3 
   16000    1.2430943   -5.9727156    2.0768355  0.010816851  0.043329023            2 
   17000    1.2272994   -5.9437266    2.6549474  0.013014448  0.043454053            5 
   18000     1.247367    -5.994131    3.2352687  0.014978095  0.044260932            3 
   19000    1.2627871   -6.0139613     3.765824  0.016516771  0.044510602            4 
   20000    1.2597502    -6.051151    4.2579613  0.017741505  0.044582621            3 
   21000    1.2349885   -6.0441155    4.7925026  0.019017867  0.044547049            2 
   22000    1.2378401   -6.1070074    5.2943082  0.020054197  0.044300133            2 
   23000    1.2371963   -6.0010165    5.9125157  0.021422158   0.04435555            3 
   24000    1.2372769   -6.0846694    6.4774489  0.022491141  0.044644121            3 
   25000    1.2271355    -6.038019    7.0219203  0.023406401  0.044905242            4 
   26000    1.2417557   -6.0668445    7.4829478  0.023983807  0.044883807            2 
   27000    1.2025109   -6.0227952    7.9335966  0.024486409  0.044682621            6 
   28000    1.2099744   -6.0789654    8.3772899   0.02493241  0.044373728            2 
   29000    1.2250553   -6.0183757    8.9572458  0.025739212   0.04418287            5 
   30000    1.2197658   -6.0974928    9.3475125  0.025965312  0.043961846            3 
   31000    1.2289035   -6.0885222    9.8160859  0.026387327  0.043693184            2 
   32000    1.2010904   -6.1162507     10.33554  0.026915468  0.043468561            3 
   33000    1.2244578   -6.0673152    10.785969  0.027237296  0.043233176            2 
   34000    1.2023939   -6.0718876    11.302619  0.027702497  0.043000695            3 
   35000    1.2109318   -6.0671394    11.697668   0.02785159  0.042811176            1 
   36000    1.2020824   -6.0527273    12.197336  0.028234574  0.042604533            1 
   37000    1.2082676    -6.063899    12.741377  0.028696795  0.042448737            2 
   38000    1.2360292   -6.1005139    13.309003   0.02918641  0.042353496            2 
   39000     1.209156   -6.0840565    13.841941  0.029576797  0.042316014            9 
   40000    1.2070315   -6.0705891    14.428908  0.030060225  0.042301351            2 
   41000    1.1906442   -6.1391351    14.923412  0.030332138  0.042318141            3 
   42000    1.1864877    -6.113383     15.52418  0.030801944   0.04235405            5 
   43000    1.1703069   -6.0532223    16.097033    0.0311958  0.042426459            3 
   44000    1.1913679   -6.0624183    16.669868   0.03157172  0.042517234            2 
   45000    1.2000421    -6.120859    17.117144  0.031698415   0.04258826            8 
   46000     1.196959   -6.1015148    17.560235   0.03181202  0.042624379            4 
   47000    1.1653426   -6.1080131    18.187107  0.032246644  0.042652952            1 
   48000    1.1700833   -6.1523914    18.666869  0.032407759   0.04267998            4 
   49000    1.1599291   -6.1156165    19.185614  0.032628594  0.042723286            3 
   50000    1.2027487   -6.1027581    19.684052  0.032806753  0.042761053            2 
   51000     1.181767   -6.1330389    20.174172  0.032964333  0.042770454            2 
   52000     1.203355   -6.1254451    20.656117  0.033102751  0.042767428            4 
   53000    1.2045069   -6.1098128    21.105337  0.033184492   0.04276613            4 
   54000    1.1740012   -6.1422405    21.398593   0.03302252  0.042731716            3 
   55000    1.1587123   -6.1694005    21.918017  0.033209116  0.042669299            3 
   56000    1.1617015   -6.0795804    22.440929   0.03339424  0.042599402            2 
   57000    1.1703881   -6.1714303    22.605652  0.033049199  0.042505152            5 
   58000     1.158819   -6.2074137    22.925749  0.032939294   0.04236924            1 
   59000    1.1628759   -6.1613155    23.452439  0.033124914  0.042224449            3 
   60000    1.1654014   -6.1946266    23.898389  0.033192207  0.042079225            2 
   61000     1.149037   -6.1126617    24.421204  0.033362301  0.041943818            1 
   62000     1.156114   -6.1550218    24.591907  0.033053638  0.041805794            4 
   63000    1.1603167   -6.1635897    24.885844  0.032917783  0.041635772            2 
   64000    1.1423699   -6.1894394    25.259152  0.032889521  0.041462349            2 
   65000    1.1609213   -6.1931265     25.98872  0.033318871  0.041309822            2 
   66000     1.130845   -6.1499438    26.257838  0.033153836  0.041180054            4 
   67000    1.1615643   -6.1992348    26.611066   0.03309834  0.041039538            3 
   68000    1.1482043   -6.1714808    27.143666  0.033264297   0.04089366            2 
   69000     1.174606   -6.2083454    27.530794  0.033249751  0.040750616            3 
   70000    1.1785288   -6.1994247    27.940264  0.033262218    0.0406139            3 
   71000    1.1300515   -6.2109743    28.270764  0.033181647  0.040466872            6 
   72000    1.1696835   -6.2297517    28.633793  0.033140964  0.040331183            5 
   73000    1.1529619   -6.2134802      28.9891   0.03309258  0.040188063            3 
   74000    1.1627068   -6.1919147    29.215891  0.032900778  0.040034806            4 
   75000    1.1604597   -6.2140934    29.733837  0.033037597  0.039879241            2 
   76000     1.149256   -6.2031552    30.012888  0.032908869  0.039728443            2 
   77000    1.1790676   -6.2241959    30.295032  0.032786831  0.039577855            4 
   78000    1.1687494   -6.2056325    30.850531  0.032959969  0.039430262            2 
   79000    1.1425225   -6.1803378    31.280113    0.0329959  0.039290804            2 
   80000    1.1471618   -6.2092436    31.673278  0.032992998  0.039150817            2 
   81000    1.1509509   -6.2045302    32.176947  0.033103854  0.039018803            5 
   82000    1.1248267    -6.207393    32.487591  0.033015844  0.038897259            3 
   83000    1.1285719   -6.2876524    32.743108  0.032874606  0.038772262            3 
   84000    1.1322814   -6.2360402    33.175601  0.032912302  0.038641855            2 
   85000    1.1501114   -6.2536855    33.544509  0.032886774  0.038506474            1 
   86000    1.1117751   -6.2374778    33.875502  0.032825098  0.038387775            2 
   87000     1.130968   -6.2845834    34.147127  0.032707976  0.038266568            1 
   88000    1.1329973   -6.2710836    34.507232  0.032677303  0.038142877            5 
   89000    1.1293905   -6.2431161    34.991291  0.032763381   0.03802433            2 
   90000    1.1100361   -6.2901599     35.40749  0.032784713  0.037909575            4 
   91000    1.1283694   -6.2602754    35.956929  0.032927591  0.037802797            2 
   92000    1.1192414   -6.2673969    36.181675  0.032773256  0.037695682            3 
   93000     1.106464   -6.3158589    36.523993  0.032727592  0.037590361            3 
   94000    1.1121469   -6.2763602    36.768128  0.032595858  0.037475947            4 
   95000    1.1098136   -6.3080727    37.122738  0.032563805  0.037361014            4 
   96000     1.116882   -6.3077569    37.399424  0.032464777  0.037250428            3 
   97000    1.1020381   -6.3138259    37.928836  0.032584911  0.037141001            2 
   98000    1.1167474   -6.2944358    38.327579  0.032591478  0.037041943            8 
   99000    1.1174723   -6.2803427    38.890261   0.03273591  0.036948316            3 
  100000    1.0917894   -6.3123658    39.192766  0.032660638   0.03685345            3 
  101000    1.0842015   -6.3440953    39.402213  0.032510076  0.036758351            2 
  102000     1.111088   -6.3257612    39.847925  0.032555494  0.036666899            5 
  103000    1.0958275   -6.3040774     40.33005   0.03262949  0.036574437            8 
  104000    1.0763308   -6.3403632    40.849647  0.032732089   0.03649887            5 
  105000    1.0962379   -6.3150013    41.228957  0.032721394  0.036428659            3 
  106000    1.0870249   -6.3407077    41.612768   0.03271444  0.036361624            2 
  107000    1.0683295   -6.3345337    42.271962  0.032922088  0.036299146            4 
  108000    1.0989791   -6.3804803    42.276843  0.032621021   0.03622817            6 
  109000    1.1000388   -6.3458088    42.809288  0.032728813  0.036162041            3 
  110000    1.0832126   -6.3345973    43.205783  0.032731653  0.036104106            3 
  111000    1.0863038   -6.3744087    43.278714  0.032491527  0.036036701            1 
  112000    1.0801269   -6.3626745    43.692235  0.032509103  0.035959545            2 
  113000     1.056256   -6.3838663    43.867076  0.032350351  0.035887265            6 
  114000    1.0981664   -6.3622479    44.317737  0.032396007  0.035809474            3 
  115000    1.0649747   -6.3802101    44.634601  0.032343914  0.035726265            2 
  116000    1.0885467    -6.371776    44.865305  0.032230822  0.035645357            2 
  117000     1.104431   -6.3726667    45.390313  0.032329283  0.035566946            5 
  118000    1.0794376   -6.3959771    45.710416  0.032281367  0.035494843            5 
  119000    1.0834168   -6.3601595    46.143581  0.032313432  0.035427621            3 
  120000     1.087119   -6.3477437    46.740621  0.032458765  0.035364605            2 
  121000    1.0578188   -6.3973452    46.873505  0.032282028  0.035297261            6 
  122000    1.0874608   -6.3883568     47.12607  0.032189939  0.035227499            4 
  123000    1.0814539   -6.4248739    47.212194  0.031986581  0.035154313            4 
  124000    1.0551112   -6.3980667    47.694433   0.03205271  0.035084592            3 
  125000     1.076221   -6.4269601    47.820931   0.03188062  0.035008344            6 
  126000    1.0727522   -6.4341899    48.408024  0.032015889  0.034932909            5 
  127000    1.0848119   -6.4173713    48.605171  0.031893157  0.034862212            4 
  128000    1.0630486    -6.422604    48.779818  0.031757694  0.034783612            2 
  129000    1.0741356   -6.4422665    48.928195  0.031607361  0.034702382            2 
  130000    1.0574285   -6.4132477    49.210077  0.031544921   0.03461825            6 
  131000    1.0805938   -6.4564253    49.420117  0.031437733  0.034531889            5 
  132000    1.0707765   -6.4633668      49.6672  0.031355556  0.034444666            4 
  133000    1.0612586   -6.4738188    50.026324  0.031344815  0.034357945            5 
  134000    1.0571443   -6.4861027    50.464643  0.031383484  0.034275133            8 
  135000     1.056232   -6.4149326    50.876256  0.031405096  0.034196232            5 
  136000    1.0534056   -6.4216052    51.585634  0.031608844  0.034122591            3 
  137000     1.039875   -6.4544462    51.534459  0.031346994  0.034053023            4 
  138000    1.0530337   -6.4528359    51.946854  0.031368873  0.033979668            9 
  139000    1.0525675   -6.5098326     52.09761  0.031233579  0.033904291           13 
  140000    1.0432702   -6.4670151    52.288344  0.031124014  0.033823577            2 
  141000    1.0435182   -6.5160566     52.46433  0.031007287  0.033743367            3 
  142000    1.0492096   -6.4377179    52.695363  0.030924509  0.033659641            3 
  143000     1.028275   -6.4942452    52.839034  0.030791978  0.033574352            4 
  144000    1.0335408   -6.4953446    53.226062  0.030802119  0.033490948            3 
  145000    1.0500272   -6.5209581    53.593528  0.030800878  0.033406479            8 
  146000    1.0504161   -6.5126157    53.678006  0.030638131   0.03332214            3 
  147000    1.0264888   -6.4964904    53.995377  0.030609624  0.033237514            4 
  148000    1.0203725   -6.4715076    54.338501  0.030596003  0.033151373            5 
  149000     1.010066   -6.4716083    54.876904  0.030691781  0.033069593            3 
  150000    1.0097918   -6.4951928    54.828809   0.03046045   0.03298649            7 
  151000     1.024566   -6.4906305    55.181348  0.030453282  0.032902343            5 
  152000    1.0077546   -6.5253619    55.395008   0.03037007  0.032819915            2 
  153000    1.0082996   -6.5578241    55.737396  0.030358059  0.032739475            3 
  154000    1.0370194   -6.5567943    55.761356  0.030173894  0.032658192            3 
  155000    1.0257108   -6.5644202    55.888208  0.030047424  0.032572289            5 
  156000    1.0444807   -6.5494044    56.340977  0.030096676  0.032486522            6 
  157000    1.0140974   -6.5372437    56.625095  0.030055783   0.03240357            6 
  158000    1.0207689   -6.5702756    56.885774  0.030003045  0.032320467            7 
  159000     1.039385   -6.6185877    57.055475  0.029903289  0.032239803            3 
  160000    1.0275107   -6.5775137    57.304322  0.029846001  0.032157309            4 
  161000    1.0127621   -6.5702259    57.407658  0.029714109  0.032073762            4 
  162000    1.0294568   -6.5618234    57.856083  0.029761359  0.031988278            2 
  163000   0.99801894   -6.5948926    57.798242  0.029549204  0.031902488            5 
  164000    1.0280582   -6.5738516    58.021318  0.029482377  0.031815015            5 
  165000   0.99627918   -6.6211528    58.346894  0.029468128  0.031727365            8 
  166000   0.99456321   -6.5690714    58.725954  0.029480901  0.031640664            2 
  167000    1.0007754   -6.6084988    58.831725  0.029357148   0.03155778           10 
  168000   0.99335353   -6.6068109    58.905487  0.029218992  0.031471607            5 
  169000   0.99708957   -6.5805627    59.152816  0.029168055  0.031384628            7 
  170000    1.0022994   -6.5562681    59.543113    0.0291878  0.031298584            3 
  171000    1.0226235   -6.6240925    59.371935  0.028933691  0.031212078            5 
  172000   0.97962751   -6.6307791    59.305425  0.028733248  0.031122053            8 
  173000     0.964052   -6.5661476    59.920394  0.028863388  0.031030398            5 
  174000    0.9971642   -6.6063907    59.861872  0.028669479  0.030939412            6 
  175000    0.9770843   -6.6309044    60.239125  0.028685298  0.030847772            4 
  176000    0.9891665   -6.6064674    60.669926   0.02872629  0.030758468            3 
  177000   0.99001566   -6.5770171     60.76278  0.028607712  0.030670745            5 
  178000   0.97441747   -6.6271248    60.723369  0.028428543  0.030578552            5 
  179000     1.005391   -6.6571123    61.227222  0.028504293  0.030489814            3 
  180000   0.98112471   -6.6551026    61.462402  0.028454816  0.030402741            6 
  181000   0.98618011   -6.6478043    61.371047  0.028255546  0.030314535            6 
  182000   0.98129295   -6.6340434    61.672777  0.028238451   0.03022488            2 
  183000   0.96856001   -6.6803007    61.647437  0.028072603  0.030135355            6 
  184000   0.96886586   -6.6700622     61.87263  0.028022024  0.030046512            9 
  185000   0.97048534   -6.6764614    62.041323  0.027946542  0.029956712            6 
  186000   0.97675754   -6.6486829    62.407375  0.027960293  0.029868157           15 
  187000   0.94618904   -6.6531341    62.593784  0.027893843  0.029780296            3 
  188000   0.97940613    -6.638298     62.81731  0.027844552  0.029693894            4 
  189000   0.95812046   -6.7125396    62.869043  0.027720036  0.029606762            5 
  190000   0.96943049   -6.6894092    63.294615  0.027760796   0.02952248            4 
  191000   0.98492341   -6.7035209     63.47223  0.027692945  0.029437921            6 
  192000   0.97027947   -6.7215262    63.543123  0.027579481  0.029351132            4 
  193000    0.9584074   -6.6881996    63.729952   0.02751725  0.029264492            5 
  194000   0.94344639   -6.7226436     63.54798  0.027297242  0.029176425            5 
  195000    0.9705618   -6.7014718    63.868852  0.027294381  0.029088069            5 
  196000   0.95097884   -6.7225379    63.932853  0.027182335  0.029001368            5 
  197000   0.93479567   -6.7366006    64.120757   0.02712384  0.028912405            4 
  198000   0.94969683   -6.6953139    64.132964  0.026991988   0.02882255            5 
  199000   0.96144892   -6.7202494    64.347978  0.026946389  0.028732313            8 
  200000   0.98109228   -6.7173599    64.470461  0.026862692  0.028642916            3 
  201000   0.94519762   -6.7377699    64.471119   0.02672932  0.028552455            4 
  202000   0.95402928   -6.7243695    64.715488  0.026697809  0.028461189            5 
  203000   0.92692787   -6.7144909    64.859568  0.026625438  0.028370364            3 
  204000   0.94073281    -6.777309    64.990067   0.02654823  0.028278956            4 
  205000   0.95107938   -6.7680121    64.955917  0.026404844  0.028187088            2 
  206000   0.94703505   -6.7695235    65.362761  0.026441246  0.028095413            5 
  207000   0.93108098   -6.7900156    65.363243  0.026313705  0.028005212            9 
  208000    0.9480491   -6.7752707    65.618326  0.026289394  0.027915073            4 
  209000   0.93980547   -6.7843675    65.522495  0.026125397    0.0278253            6 
  210000   0.92882593   -6.7918891    65.954393  0.026172378  0.027735792            3 
  211000   0.91995756   -6.7919339    65.810232  0.025991403  0.027647866            6 
  212000   0.92693379   -6.7927024    65.995292  0.025941546  0.027559522            4 
  213000   0.93106895   -6.8250689    66.146837  0.025879044  0.027471453            9 
  214000    0.9420369   -6.7804861    66.482043  0.025888646  0.027383196            4 
  215000    0.9515603   -6.7762609    66.589424  0.025809854  0.027296447            3 
  216000   0.91646651   -6.7718358    66.721543  0.025741336  0.027208362            3 
  217000    0.9438646    -6.823783    66.751784  0.025634326  0.027119118            4 
  218000   0.91409277   -6.8216382    66.645646  0.025476164  0.027030054            9 
  219000   0.91399343    -6.826664     66.84469  0.025435575  0.026941519            8 
  220000   0.92265846   -6.8199276    67.044137  0.025395506   0.02685287            9 
  221000   0.91652754   -6.7984003    67.248671  0.025357719  0.026764251            5 
  222000   0.92410677   -6.7878734    67.522073  0.025346124  0.026677909            4 
  223000   0.92283063   -6.8261803    67.311631  0.025153823  0.026591686            5 
  224000   0.91526595   -6.7987423    67.646376  0.025166063  0.026504461            4 
  225000   0.91862358   -6.8705255    67.549915  0.025018487  0.026418661            7 
  226000   0.90932382   -6.8636894       67.586  0.024921091  0.026330552            8 
  227000   0.89107633   -6.8632242    67.909149  0.024929937  0.026243956            7 
  228000   0.89108282   -6.8766189    67.879419  0.024809729  0.026157645            7 
  229000   0.90082203   -6.8641283    68.249528  0.024836073   0.02607118            5 
  230000    0.9017503   -6.8891279    68.267014  0.024734425  0.025985458            8 
  231000   0.89750242   -6.8785642    68.514254  0.024716542  0.025901274            4 
  232000    0.8989385   -6.9160541    68.699083  0.024676395  0.025817182            4 
  233000   0.91772343   -6.8458816    68.825357   0.02461565  0.025734422            3 
  234000   0.87362915    -6.864726    68.954634  0.024556493  0.025652381            8 
  235000   0.88877959    -6.867963    69.138258  0.024517113  0.025571245           12 
  236000   0.90694594   -6.8783756    69.180094  0.024427999  0.025489161            7 
  237000   0.88485033   -6.8952837    69.366756  0.024390561  0.025407222            3 
  238000   0.88142285   -6.9160884    69.570072  0.024359269  0.025326569            9 
  239000   0.86816793    -6.893913    69.595138  0.024266087  0.025246111            5 
  240000   0.88743021   -6.8749275    69.771058  0.024226062  0.025166527            6 
  241000   0.90176727   -6.9378985    69.728809   0.02411093  0.025087125            8 
  242000   0.87565377   -6.8986728    70.044592  0.024120038  0.025008583            9 
  243000   0.85852046   -6.8728597     70.28316  0.024102593  0.024930827            7 
  244000   0.88426109   -6.9296996    70.059446  0.023927406   0.02485226            8 
  245000   0.88678365   -6.9419483    70.369048   0.02393505  0.024774272           12 
  246000   0.87767367   -6.9032325    70.810073  0.023987152  0.024697811           11 
  247000   0.87524257   -6.9388618    70.681393  0.023846624  0.024622772            6 
  248000   0.86147241   -6.9133718    71.267682  0.023947474  0.024547796            7 
  249000   0.85704428   -6.9452679    71.164708  0.023816837  0.024474595            5 
  250000   0.85979574   -6.9369011    71.128263  0.023709421  0.024400685           10 
  251000   0.89181874   -6.9672186    71.230567  0.023648927  0.024327124           12 
  252000   0.88584772   -6.9617454    71.272256  0.023568868  0.024253344            8 
  253000   0.85727592   -6.9233805    71.681026  0.023610351  0.024180774           16 
  254000    0.8553928   -6.9628268    71.590043  0.023487547  0.024108597            7 
  255000   0.86589109   -6.9898488    71.638217  0.023411182  0.024035134            5 
  256000   0.83662977   -7.0072172    71.439765  0.023255132   0.02396102            4 
  257000   0.87542304   -7.0015893    71.723749  0.023256728  0.023887076            8 
  258000   0.87196904   -6.9577632    71.960511  0.023243059  0.023813346            5 
  259000   0.84672668   -6.9923841    72.103746  0.023199403  0.023741216            6 
  260000    0.8591915   -6.9860318    71.952134  0.023061581  0.023668826            6 
  261000   0.84977207   -6.9954533    72.071366  0.023011292  0.023595607            7 
  262000   0.84086356   -7.0021462    72.147265  0.022947603  0.023522103            7 
  263000   0.84578679    -7.023021     72.29892  0.022908403  0.023449353            6 
  264000   0.84109829   -6.9904108    72.361341  0.022841332  0.023376704            5 
  265000   0.85512186   -7.0032304    72.475695  0.022791099  0.023304628            6 
  266000   0.83872224   -7.0279313     72.47447  0.022705034  0.023232434            6 
  267000   0.85306898     -7.03607    72.410737  0.022600105  0.023160722           20 
  268000   0.84803389   -7.0578424    72.348604  0.022496456  0.023088433           10 
  269000   0.82713105   -7.0239878     72.61529  0.022495443  0.023016133           12 
  270000   0.83493415    -7.042211    72.627006  0.022415743  0.022944036            8 
  271000   0.82788888   -7.0357633    72.954275  0.022433664    0.0228715            9 
  272000   0.83900769   -7.0632878    72.564053  0.022231634  0.022798947           17 
  273000   0.83326663   -7.0785898    72.656373   0.02217838  0.022725926            6 
  274000   0.83094675   -7.0712489    72.985421  0.022197512   0.02265309           18 
  275000    0.8272319   -7.0929898    73.024144  0.022128528  0.022580129           17 
  276000   0.82435329   -7.1023146    72.839481  0.021992597  0.022507132            9 
  277000    0.8013766   -7.0981412    72.937901   0.02194281   0.02243435           11 
  278000   0.82889248    -7.080712     73.03539  0.021893102  0.022361983           12 
  279000   0.82992922   -7.0945503    73.251901  0.021879301  0.022290035           12 
  280000   0.83769567   -7.1201358    72.996879  0.021725262  0.022217837           11 
  281000   0.82770678   -7.1059145    73.339549   0.02174957  0.022145982           11 
  282000   0.81148807   -7.0651769    73.455601  0.021706738  0.022074865           13 
  283000   0.81775251   -7.1039767    73.350043  0.021598953   0.02200422           11 
  284000   0.81926112   -7.1122514    73.460582  0.021555335  0.021933978            9 
  285000   0.80690297    -7.098747    73.536611  0.021501933  0.021863777           10 
  286000   0.80482904   -7.1157588    73.526828  0.021423901  0.021793979            6 
  287000   0.80855299   -7.1176917    73.493483  0.021339571    0.0217238            9 
  288000    0.8046921   -7.0724281    73.901268  0.021383469  0.021653371           15 
  289000   0.80578313   -7.1156503    73.583563  0.021217867   0.02158311           12 
  290000   0.80464672   -7.1400403    73.780289  0.021201232  0.021513051           10 
  291000   0.80835428   -7.1515889     73.78991  0.021131131  0.021442926            9 
  292000    0.7857888   -7.1695901    73.685711  0.021029027  0.021372919           10 
  293000   0.81180921   -7.1714277    73.680101   0.02095566  0.021302828           13 
  294000   0.79911733   -7.1489629    73.962477  0.020964421  0.021232522           14 
  295000   0.80656591   -7.1941102    73.710622   0.02082221  0.021162208            6 
  296000   0.80491622   -7.1609024    73.971496  0.020825309  0.021092025           12 
  297000    0.7876889   -7.1723582    74.128256  0.020799174   0.02102278           11 
  298000   0.80242981    -7.167731    73.944765  0.020678066  0.020952965            9 
  299000   0.80127831   -7.1899206    73.884368  0.020592076  0.020882752           22 
  300000   0.79576858   -7.2081032    73.861181  0.020516995  0.020811984            6 
  301000   0.76855323   -7.2264826    73.743874  0.020416355  0.020741224           10 
  302000   0.78815465   -7.2160449    73.854761  0.020379349  0.020670443           14 
  303000   0.78057535   -7.2211667    73.802954  0.020297842   0.02059951           21 
  304000   0.76850374   -7.2000862    74.022767  0.020291329  0.020528881           15 
  305000   0.77704232   -7.2139228    73.989936  0.020215829  0.020458453           10 
  306000   0.77434353   -7.2264739    74.009664  0.020155137  0.020388792           11 
  307000   0.78711344   -7.2054561    74.029921  0.020094984  0.020319308           26 
  308000   0.76701631   -7.2272139    73.953612  0.020009094  0.020249996           20 
  309000   0.77426745   -7.2391622    74.090303  0.019981204  0.020180198           22 
  310000   0.77918706   -7.2404839    73.969879  0.019884376  0.020111055           20 
  311000    0.7517283   -7.2484635    73.955039  0.019816463  0.020042376           38 
  312000   0.75903205   -7.2744004    73.872003   0.01973077  0.019973296           19 
  313000   0.75158768   -7.2596947    74.034456  0.019710984  0.019904051           21 
  314000   0.77522601   -7.2447935    74.221938  0.019697967  0.019835787           22 
  315000   0.78200901   -7.2474577    74.007564  0.019578721  0.019767427           18 
  316000   0.74866686   -7.2454035    74.127408  0.019548367  0.019698875           11 
  317000   0.75253963   -7.2537794    74.256979  0.019520762  0.019630399           23 
  318000   0.76130363    -7.294329    74.172303  0.019437186   0.01956242           12 
  319000   0.75592323   -7.2917199    74.144978  0.019369116  0.019494377            8 
  320000   0.76129944   -7.2867975    74.338797  0.019359062  0.019426797           17 
  321000   0.73648538   -7.2601763    74.490469  0.019338128  0.019359629           10 
  322000   0.75960506   -7.2641851    74.386033  0.019251044  0.019292999           16 
  323000    0.7451224   -7.2905707    74.265899  0.019160449  0.019226179           11 
  324000   0.76821899   -7.2864262    74.348571  0.019122575  0.019159699           14 
  325000    0.7680333   -7.2892171    74.331597  0.019059384  0.019093202           11 
  326000   0.76605567   -7.2989461    74.530831  0.019051848   0.01902714           20 
  327000   0.73811231   -7.3232891    74.480869  0.018980853  0.018961007           23 
  328000   0.75890782   -7.3307477    74.302956  0.018877784  0.018895332           12 
  329000   0.72819588   -7.3332971    74.402236  0.018845551   0.01882941           16 
  330000   0.73140905   -7.3576386    74.364512  0.018778917  0.018763544           22 
  331000   0.74451727   -7.3543595    74.545078  0.018767643  0.018698342           12 
  332000   0.74888101   -7.3615414    74.486711  0.018696463  0.018632976           18 
  333000   0.74348865   -7.3749855    74.477929   0.01863812  0.018568023           12 
  334000   0.73336942   -7.3684903     74.40168  0.018563293  0.018503288           24 
  335000    0.7202203    -7.383796    74.259155  0.018472427  0.018438294           16 
  336000   0.72082842   -7.3726833     74.52926  0.018484439  0.018373289           17 
  337000   0.73083453    -7.371635     74.48116  0.018417695    0.0183087           29 
  338000   0.71478656   -7.3917318    74.526395  0.018374358  0.018244198           21 
  339000   0.74004719   -7.3680508    74.464766  0.018305006  0.018179938           22 
  340000   0.73091366    -7.397246    74.392998  0.018233578  0.018115838           11 
  341000   0.73826159   -7.3816259     74.64125  0.018240775  0.018052005           16 
  342000   0.72785723   -7.3750414    74.468724  0.018145401  0.017988441           20 
  343000    0.7139158     -7.38128    74.616048  0.018128291  0.017925101           19 
  344000   0.71849951   -7.4010649     74.37241  0.018016572  0.017861761           16 
  345000   0.72739272   -7.4126103    74.364357  0.017962405  0.017798467           21 
  346000   0.71934808   -7.3911943    74.530906  0.017950604   0.01773515           20 
  347000   0.71383178   -7.4159928    74.342955  0.017853736  0.017672008           16 
  348000   0.71425434   -7.4177962    74.358288  0.017806103  0.017609249           30 
  349000   0.71802214   -7.4439995    74.417037  0.017769111  0.017546502           35 
  350000    0.7155482   -7.4120849    74.488093   0.01773526  0.017484048           45 
  351000   0.71586754   -7.4295046    74.407589  0.017665619  0.017421893           54 
  352000   0.70629084   -7.4606668    74.480474  0.017632688   0.01736004           21 
  353000   0.70893377   -7.4244947    74.367554   0.01755608  0.017298615           25 
  354000   0.70882943   -7.4427821    74.524839  0.017543512   0.01723757           25 
  355000   0.71688624   -7.4615154    74.494607  0.017486997  0.017176161           22 
  356000   0.69151931     -7.43964     74.55435  0.017451861    0.0171153           26 
  357000   0.70524649   -7.4515888    74.421484  0.017371962  0.017054365           24 
  358000   0.71337682   -7.4552348    74.625535  0.017370935  0.016993419           51 
  359000   0.70059793   -7.4513756    74.482002   0.01728923  0.016932852           28 
  360000   0.68621148   -7.4530553    74.403401  0.017223009  0.016872521           54 
  361000   0.70166678   -7.4657281    74.578447  0.017215708  0.016812292           72 
  362000   0.69941421   -7.4639145    74.491588  0.017148156  0.016752622           65 
  363000   0.68775909   -7.4686803    74.461852  0.017094089   0.01669325           66 
  364000   0.67233315   -7.4796271    74.476901  0.017050573  0.016633836           52 
  365000    0.6869252    -7.477347    74.403437  0.016987086  0.016574669           29 
  366000   0.68194805   -7.4656744    74.657073  0.016998423  0.016515796           55 
  367000   0.67727185   -7.5038365    74.443936  0.016903709  0.016456918           38 
  368000   0.67305254   -7.5132055     74.38164  0.016843668  0.016398303           45 
  369000   0.70437075   -7.4943009    74.470046  0.016817987   0.01633994           53 
  370000   0.68337084   -7.5142948    74.369492  0.016749886  0.016281803           44 
  371000   0.67319259   -7.5045439    74.475106   0.01672846  0.016223751           47 
  372000   0.68015343   -7.5093154    74.389896  0.016664403  0.016165985           39 
  373000   0.66991471    -7.559186     74.31113  0.016602129  0.016108462           21 
  374000   0.67220902   -7.5332336    74.519515   0.01660417  0.016051067           23 
  375000   0.67164766   -7.5405205    74.440588  0.016542353  0.015993992           39 
  376000   0.66323703   -7.5404574    74.590842  0.016531658  0.015937205           39 
  377000   0.66051686   -7.5590334    74.210013  0.016403628  0.015880524           21 
  378000   0.66525332   -7.5791188    74.470825   0.01641773   0.01582388           73 
  379000    0.6584476   -7.5725491    74.551193  0.016392083  0.015767387           41 
  380000    0.6588236    -7.556126    74.448275  0.016326376  0.015711369           47 
  381000   0.65289814   -7.5546513    74.665277  0.016330988  0.015655495           59 
  382000   0.65554285   -7.5589935    74.533237  0.016259432  0.015599988           25 
  383000   0.65984623   -7.5692675    74.397493  0.016187444  0.015544625           24 
  384000   0.65317867   -7.6015107     74.58046  0.016184996  0.015489328           27 
  385000   0.64392901   -7.5857242    74.448063  0.016114299  0.015434015           35 
  386000   0.64875304   -7.5816311     74.36064  0.016053679  0.015378787           39 
  387000   0.66113716   -7.5688063    74.391237  0.016018785  0.015323999           28 
  388000   0.66529547   -7.5880211    74.503481  0.016001607  0.015269255           20 
  389000   0.65019354   -7.6031422    74.436033  0.015946022  0.015214695           37 
  390000   0.64903314   -7.5940314      74.1969  0.015854038  0.015160347           27 
  391000   0.64854091   -7.6278087     74.43418  0.015864062  0.015106246           31 
  392000   0.65477116   -7.6181043    74.268495  0.015788371  0.015052292           22 
  393000   0.63473868   -7.6189418    74.371982   0.01577014  0.014998636           24 
  394000   0.64539252   -7.5974276     74.27493  0.015709588  0.014945083           58 
  395000    0.6493138   -7.6174329    74.368966  0.015689655  0.014891832           46 
  396000    0.6410695   -7.6189174    74.167926  0.015607729  0.014838756           35 
  397000   0.62769493    -7.610122     74.29165  0.015594385  0.014785843           38 
  398000   0.63492637   -7.6315984    74.386026  0.015574963  0.014733147           46 
  399000   0.62963633   -7.6334165    74.295618  0.015517046   0.01468052           56 
  400000   0.62428965   -7.6410361    74.228397  0.015464249  0.014628107           47 
  401000   0.63673026   -7.6331855    74.351148  0.015451195   0.01457602           39 
  402000    0.6227512   -7.6599332    74.216117  0.015384767  0.014523989           33 
  403000   0.60869927   -7.6430431    74.315276  0.015367096  0.014472197           88 
  404000   0.62494221   -7.6501104    74.250272   0.01531565  0.014420601           32 
  405000   0.61432152   -7.6516861    74.235683  0.015274832   0.01436902           41 
  406000   0.62527116   -7.6428356    74.284328  0.015247194  0.014317852           30 
  407000   0.62306971    -7.655671    74.170838  0.015186494  0.014266796           37 
  408000   0.62451989   -7.6829081    74.184318  0.015152026   0.01421583           72 
  409000   0.61255195   -7.6770331    74.073707  0.015092442  0.014165044           50 
  410000   0.62994082    -7.683662    74.080895  0.015057092  0.014114433           41 
  411000   0.61087266    -7.668921    74.223261  0.015049323  0.014064057           83 
  412000   0.60370629   -7.7037289    73.967293  0.014961022   0.01401379           90 
  413000   0.61570705   -7.6837407    73.973084  0.014925965  0.013963689           74 
  414000   0.60630881   -7.6754422    74.146775  0.014924874  0.013913826           80 
  415000    0.6015522   -7.6821602    74.072377  0.014873971  0.013864205           65 
  416000   0.61294941   -7.6886781    73.963849  0.014816476   0.01381479           37 
  417000   0.61850964   -7.6999395    74.106704  0.014809493  0.013765425           80 
  418000   0.58070067   -7.7012265    74.082691  0.014769277  0.013716416           70 
  419000   0.60435324   -7.6926673     74.08867  0.014735217  0.013667739           88 
  420000    0.5781087    -7.702197     73.98593  0.014679748  0.013619158           71 
  421000   0.60697982   -7.7099826    74.085614  0.014664611  0.013570787          109 
  422000   0.60074128   -7.6925478    73.837293  0.014580824   0.01352256           90 
  423000   0.59940655   -7.7054341    74.054984   0.01458924  0.013474488           90 
  424000   0.59280838   -7.7363133    74.050545  0.014553959  0.013426639          102 
  425000   0.59881373   -7.7105964     74.08614  0.014526694  0.013378896          129 
  426000   0.58582179   -7.7149041    74.018564  0.014479375  0.013331529          105 
  427000   0.59888777   -7.7406465    73.897223  0.014421784  0.013284377           75 
  428000   0.59053803   -7.7224642     74.03098  0.014414132  0.013237337          111 
  429000   0.58486144   -7.7255408    73.916299  0.014358255   0.01319052          126 
  430000   0.58383653   -7.7277244    74.101862  0.014360826  0.013143953           93 
  431000   0.57827409   -7.7330008    73.976241  0.014303218  0.013097538          153 
  432000   0.58870231   -7.7597149    73.952748  0.014265576  0.013051244          171 
  433000   0.60194972   -7.7404126    73.819904  0.014207064  0.013005169          174 
  434000    0.5786765   -7.7569087    73.776868  0.014166065  0.012959248          172 
  435000   0.57138111   -7.7533351    73.949684  0.014166606  0.012913491          131 
  436000   0.56468041    -7.751336    73.802017   0.01410589  0.012867989          103 
  437000   0.56925515   -7.7572688    73.978558  0.014107277  0.012822735          142 
  438000   0.57605455   -7.7795903    73.864454  0.014053359  0.012777668          137 
  439000   0.56974248   -7.7849426    73.909129  0.014029827  0.012732813          131 
  440000    0.5617276   -7.7563587    73.872518  0.013991007  0.012688014           89 
  441000   0.56735012   -7.7740328    73.856235  0.013956205  0.012643528           94 
  442000   0.55816708   -7.7777689    73.817289  0.013917287  0.012599165          128 
  443000   0.55321869   -7.7685188    73.994673  0.013919239  0.012555057          136 
  444000   0.56513244   -7.7776279    73.916662  0.013873247  0.012511086          132 
  445000   0.55795759   -7.7839936    73.954104  0.013849083  0.012467323          167 
  446000   0.55580687   -7.7912893    73.871086   0.01380252  0.012423753          142 
  447000   0.56375963   -7.7916634    73.935238  0.013783601    0.0123803          185 
  448000   0.56497356   -7.8081318    73.723776    0.0137135  0.012337036          102 
  449000    0.5549957   -7.8008391     73.74177  0.013686297  0.012293885          119 
  450000   0.55350391   -7.7866167    73.665818  0.013641818  0.012250842          109 
  451000   0.53545665   -7.8017167    73.886236  0.013652298  0.012208005          137 
  452000   0.54856544   -7.8324965    73.608346   0.01357086  0.012165382          200 
  453000   0.55030324   -7.8094149     73.65061  0.013548677  0.012122956          169 
  454000   0.54601808   -7.8176557    73.684342  0.013525026   0.01208068          125 
  455000   0.54096166   -7.8074268    73.672901  0.013493205  0.012038521          212 
  456000   0.55100576   -7.8275287    73.634899   0.01345667  0.011996641          245 
  457000   0.53309364   -7.8250192    73.662338  0.013432228  0.011954812          145 
  458000    0.5416122   -7.8403331    73.820932  0.013431756  0.011913188          380 
  459000   0.54452091   -7.8413775    73.638762  0.013369419  0.011871712          278 
  460000   0.52192915    -7.821063    73.639823  0.013340548  0.011830451          310 
  461000   0.53669613   -7.8581688    73.428279  0.013273369  0.011789332          311 
  462000   0.52235458   -7.8436457     73.67181  0.013288566  0.011748436          258 
  463000   0.51690605   -7.8449838    73.625411  0.013251514  0.011707612          252 
  464000   0.52826104   -7.8598238    73.634529  0.013224592  0.011667127          252 
  465000   0.52881026   -7.8531716    73.740816    0.0132152  0.011626803          179 
  466000   0.51259307   -7.8421356    73.515676   0.01314658  0.011586606          195 
  467000   0.51636026   -7.8477471    73.488501   0.01311358  0.011546646          270 
  468000   0.51523403   -7.8442856    73.620683  0.013109096  0.011506771          215 
  469000   0.51116657   -7.8596851    73.581502  0.013074183   0.01146704          296 
  470000   0.51210407   -7.8524871    73.523068  0.013036005  0.011427556          123 
  471000   0.51264215   -7.8649593    73.521382  0.013008029  0.011388239          193 
  472000   0.51078766    -7.884012    73.418781  0.012962355  0.011349094          287 
  473000   0.50696538   -7.8808103    73.596521  0.012966265  0.011310105          314 
  474000   0.50192683   -7.8864552     73.56852  0.012933987  0.011271342          223 
  475000   0.50201347   -7.8870068    73.541155  0.012901957  0.011232723          195 
  476000    0.5169934   -7.8975882    73.482524  0.012864588  0.011194293          188 
  477000   0.50635274    -7.901709    73.529516  0.012845827  0.011156004          108 
  478000   0.50430641   -7.8815604     73.65493  0.012840818  0.011117906          246 
  479000   0.49978356   -7.8788148    73.413239  0.012771962  0.011080017          139 
  480000   0.49221343   -7.9007094    73.553316  0.012769673  0.011042196          222 
  481000   0.52195364   -7.8975084    73.413792  0.012718952  0.011004639          129 
  482000   0.50453863   -7.9143129    73.505768  0.012708466  0.010967172          302 
  483000   0.49750159   -7.9094275    73.444512  0.012671586  0.010929848          153 
  484000   0.49952837   -7.9158147     73.41433  0.012640208  0.010892702           90 
  485000   0.49274282   -7.9148724    73.380743  0.012608375  0.010855695          169 
  486000   0.50089458   -7.9270355    73.381375   0.01258254  0.010818829          158 
  487000   0.48909727   -7.9308519    73.441914  0.012567063  0.010782121          246 
  488000   0.48321606   -7.9239389    73.369224  0.012528897  0.010745635          244 
  489000   0.49502228     -7.91141    73.546925  0.012533559  0.010709273          198 
  490000   0.49503147   -7.9235418     73.47422  0.012495616  0.010673067          382 
  491000   0.49768691   -7.9222053    73.340034  0.012447392  0.010636973          377 
  492000   0.48202121   -7.9283363     73.41733  0.012435185  0.010601039          208 
  493000   0.47782797   -7.9219262    73.415627  0.012409673  0.010565251          236 
  494000    0.4973715   -7.9401439    73.380951  0.012378703  0.010529596          268 
  495000   0.47287794   -7.9509872    73.361422  0.012350408  0.010494096          333 
  496000   0.47057626   -7.9269297    73.227183  0.012302954  0.010458755          425 
  497000   0.47292361   -7.9411342    73.232054  0.012279016  0.010423555          208 
  498000   0.47469096   -7.9468971    73.296507  0.012265145    0.0103885          392 
  499000   0.46660946   -7.9576581    73.337927  0.012247483  0.010353589          320 
  500000   0.45787089   -7.9412309    73.292243  0.012215374  0.010318799          312 
  501000   0.46241608   -7.9633705    73.189397  0.012173885  0.010284214          345 
  502000    0.4590782   -7.9585337    73.268728  0.012162803  0.010249742          391 
  503000    0.4711795   -7.9592035    73.144754  0.012118084  0.010215504          199 
  504000   0.46642582   -7.9483584    73.336869  0.012125805  0.010181339          264 
  505000   0.45600194   -7.9602423    73.238375   0.01208554  0.010147408          195 
  506000    0.4488631   -7.9581303     73.30399  0.012072462  0.010113526          401 
  507000   0.46276755   -7.9732685    73.280928   0.01204486  0.010079759          308 
  508000   0.45160349   -7.9587528    73.224112  0.012011829   0.01004616          170 
  509000   0.45389586    -7.986035    73.166556  0.011978808  0.010012708          172 
  510000   0.45400859    -7.965714    73.194684  0.011959916  0.009979348          289 
  511000   0.45419472   -7.9813952    73.134415  0.011926682 0.0099461229          351 
  512000   0.44301695   -7.9812871    73.209652  0.011915633 0.0099130987          398 
Loop time of 1309.83 on 48 procs for 500000 steps with 4000 atoms

Performance: 65962.807 tau/day, 381.729 timesteps/s
99.4% CPU use with 48 MPI tasks x no OpenMP threads

MPI task timing breakdown:
Section |  min time  |  avg time  |  max time  |%varavg| %total
---------------------------------------------------------------
Pair    | 94.024     | 100.19     | 109.14     |  30.8 |  7.65
Neigh   | 9.1296     | 9.5136     | 9.8507     |   6.1 |  0.73
Comm    | 82.063     | 92.003     | 98.034     |  31.7 |  7.02
Output  | 0.99686    | 0.99774    | 1.0198     |   0.3 |  0.08
Modify  | 1090.2     | 1094.2     | 1098.8     |   5.6 | 83.54
Other   |            | 12.91      |            |       |  0.99

Nlocal:        83.3333 ave          92 max          77 min
Histogram: 3 4 6 9 7 6 9 1 2 1
Nghost:        2427.40 ave        2450 max        2410 min
Histogram: 2 5 6 8 8 9 4 3 2 1
Neighs:        16795.9 ave       19366 max       14650 min
Histogram: 3 4 4 11 6 4 10 4 1 1
FullNghs:      33592.4 ave       37075 max       30935 min
Histogram: 3 5 5 10 6 10 5 1 2 1

Total # of neighbors = 1612436
Ave neighs/atom = 403.10900
Neighbor list builds = 26695
Dangerous builds = 0

#clear
#
#next RN
#
#jump SELF
Total wall time: 0:21:53
