
units lj                  # Use reduced LJ style units
atom_style atomic         # Uncharged point particles
atom_modify map hash      # Needed for indexing of clusters etc
                          # Used to be able to find where atoms are in relation to each other.

lattice fcc 1.0 spacing 1 1 1
Lattice spacing in x,y,z = 1.5874011 1.5874011 1.5874011
region box block 0 10 0 10 0 10 units lattice
create_box 2 box
Created orthogonal box = (0.0000000 0.0000000 0.0000000) to (15.874011 15.874011 15.874011)
  3 by 4 by 4 MPI processor grid
create_atoms 1 box
Created 4000 atoms
  using lattice units in orthogonal box = (0.0000000 0.0000000 0.0000000) to (15.874011 15.874011 15.874011)
  create_atoms CPU = 0.010 seconds
set type 1 type/fraction 2 0.99 78393
Setting atom values ...
  3965 settings made for type/fraction
mass 1 1.0
mass 2 1.0
pair_style lj/cut  3.5
pair_modify tail  yes
pair_coeff 1  1  1.0  1.0   # Intearaction between 1 and 1 set with epsilon = 1 and sigma = 1
pair_coeff 1  2  1.5  0.8
pair_coeff 2  2  0.5  0.88

write_data data.0
System init for write_data ...
Neighbor list info ...
  update every 1 steps, delay 10 steps, check yes
  max neighbors/atom: 2000, page size: 100000
  master list distance cutoff = 3.8
  ghost atom cutoff = 3.8
  binsize = 1.9, bins = 9 9 9
  1 neighbor lists, perpetual/occasional/extra = 1 0 0
  (1) pair lj/cut, perpetual
      attributes: half, newton on
      pair build: half/bin/atomonly/newton
      stencil: half/bin/3d
      bin: standard
WARNING: Not all mixed pair coeffs generated from mixing. Use write_data with 'pair ij' option to store all pair coeffs. (../write_data.cpp:312)


#############################
#   M E L T   S Y S T E M   #
#############################

velocity all create 2.4 8172548 mom yes dist gaussian # Assign velocities
                                                    # Temperature 2.4, random number seed, zero linear momentum
                                                                                # Gaussian distribution

timestep 0.002   # simulation timestep
thermo 1000       # output thermodynamic data every 1000 steps bf 100

# Define a fix  in this case with index 1 applied to all
# particles in the simulation. This fix is for simulations
# in the anisotropic NPT ensemble. Note that we use the MTK
# correction.
fix 1 all npt temp 2.4 2.4 0.1 iso 5.68 5.68 0.5 mtk yes tchain 5 pchain 5 # Use NPT ensemble
                                                                         # Set temperature and pressure and damping
                                                                         # Numbers of thermostats in chain and in barostat
run 10000          # run for 10000 steps
Per MPI rank memory allocation (min/avg/max) = 3.642 | 3.644 | 3.648 Mbytes
Step Temp E_pair E_mol TotEng Press Volume 
       0          2.4   -2.7429598            0   0.85614022   -1.7792645         4000 
    1000    2.3874213   -1.4943228            0    2.0859139    5.6910634    4245.4237 
    2000     2.455877   -1.5391455            0     2.143749    5.3989707    4264.6673 
    3000    2.3664208   -1.4835126            0    2.0652312    5.5587865    4286.0898 
    4000    2.4098043   -1.4849589            0    2.1288439    5.6162963    4270.3692 
    5000    2.4290152   -1.5264046            0    2.1162074    5.4717383    4263.4544 
    6000     2.436846   -1.5318322            0    2.1225229    5.6603972    4211.9161 
    7000    2.4409035   -1.4878071            0    2.1726327    5.7384713    4236.6356 
    8000    2.3354935   -1.4969116            0    2.0054527    5.6544561    4239.0347 
    9000     2.369799   -1.5179981            0    2.0358117    5.7080884    4222.8337 
   10000    2.4522328    -1.482414            0    2.1950157    5.8580357    4228.7638 
Loop time of 2.38783 on 48 procs for 10000 steps with 4000 atoms

Performance: 723668.336 tau/day, 4187.895 timesteps/s
99.6% CPU use with 48 MPI tasks x no OpenMP threads

MPI task timing breakdown:
Section |  min time  |  avg time  |  max time  |%varavg| %total
---------------------------------------------------------------
Pair    | 1.0009     | 1.0857     | 1.212      |   3.5 | 45.47
Neigh   | 0.20205    | 0.20963    | 0.22405    |   1.1 |  8.78
Comm    | 0.72665    | 0.83019    | 0.92528    |   4.6 | 34.77
Output  | 0.0002421  | 0.00024619 | 0.00030392 |   0.0 |  0.01
Modify  | 0.19678    | 0.24745    | 0.28675    |   5.2 | 10.36
Other   |            | 0.01467    |            |       |  0.61

Nlocal:        83.3333 ave          97 max          72 min
Histogram: 2 0 6 12 14 3 4 3 2 2
Nghost:        1578.50 ave        1600 max        1551 min
Histogram: 1 3 2 5 6 12 6 4 4 5
Neighs:        9017.23 ave       10800 max        7460 min
Histogram: 1 2 6 10 12 5 5 5 1 1

Total # of neighbors = 432827
Ave neighs/atom = 108.20675
Neighbor list builds = 909
Dangerous builds = 204

# Equilibrate just above the melting temperature to avoid step fn in T

fix 1 all npt temp 1.25 1.25 0.1 iso 5.68 5.68 0.5 mtk yes tchain 5 pchain 5
run 2000
Per MPI rank memory allocation (min/avg/max) = 3.643 | 3.645 | 3.649 Mbytes
Step Temp E_pair E_mol TotEng Press Volume 
   10000    2.4522328    -1.482414            0    2.1950157    5.8580357    4228.7638 
   11000    1.2408182   -2.3295899            0  -0.46882788    5.5391356    3325.8243 
   12000    1.2167004   -2.3381551            0  -0.51356069    5.6347786    3301.7416 
Loop time of 0.561302 on 48 procs for 2000 steps with 4000 atoms

Performance: 615711.100 tau/day, 3563.143 timesteps/s
99.7% CPU use with 48 MPI tasks x no OpenMP threads

MPI task timing breakdown:
Section |  min time  |  avg time  |  max time  |%varavg| %total
---------------------------------------------------------------
Pair    | 0.24597    | 0.26995    | 0.29127    |   1.6 | 48.09
Neigh   | 0.03766    | 0.03931    | 0.041715   |   0.4 |  7.00
Comm    | 0.18055    | 0.20423    | 0.23125    |   2.2 | 36.39
Output  | 5.0801e-05 | 5.2245e-05 | 6.6699e-05 |   0.0 |  0.01
Modify  | 0.039198   | 0.043163   | 0.046638   |   0.9 |  7.69
Other   |            | 0.0046     |            |       |  0.82

Nlocal:        83.3333 ave          91 max          73 min
Histogram: 1 0 3 4 2 13 11 10 3 1
Nghost:        1866.92 ave        1897 max        1841 min
Histogram: 2 2 8 10 7 4 8 2 3 2
Neighs:        11581.3 ave       13321 max        9983 min
Histogram: 1 2 6 8 10 9 7 4 0 1

Total # of neighbors = 555904
Ave neighs/atom = 138.97600
Neighbor list builds = 142
Dangerous builds = 14

#############################
# L I N E A R  Q U E N C H  #
#############################

# Define solid atoms. This closely follows ten Wolde  Ruiz-Montero and Frenkel  Faraday Discuss  1996  104  93-110
# Compute components of the per-atom q6 vector
compute q6 all orientorder/atom degrees 1 6 components 6 nnn NULL cutoff 1.3 # compute the Q6 parameter.
                                                                             # Use all neighbours within 1.3 unit cell.

# get number of connections
compute coord_number all coord/atom orientorder q6 0.5

# An atom is solid if it has 8 or more connections (of a possible 14)
variable is_solid atom c_coord_number>=8
group solid dynamic all var is_solid    # Must be dynamic to update
dynamic group solid defined

# do clustering
compute cluster solid cluster/atom 1.3 # Create a cluster where all atoms within are solid and max 1.3 units from another member

# define chunks one chunk per cluster
compute clus_chunks solid chunk/atom c_cluster nchunk every compress yes  # Says which atoms are in which chunk

# count the size of each chunk
compute size_chunks solid property/chunk clus_chunks count


# Find the maximum entry in the vector of chunk sizes
variable max_n equal max(c_size_chunks)


# Thermo style which includes this variable
# thermo_style custom step temp pe vol v_max_n

thermo ${N}  # Print the thermo information every 100 steps
thermo 1000  

# Reset the npt fix at a lower temperature (below freezing)
fix 1  all npt temp  ${temp} ${temp}  0.1  iso  5.68  5.68  0.5  mtk yes tchain  5  pchain  5
fix 1  all npt temp  0.45 ${temp}  0.1  iso  5.68  5.68  0.5  mtk yes tchain  5  pchain  5
fix 1  all npt temp  0.45 0.45  0.1  iso  5.68  5.68  0.5  mtk yes tchain  5  pchain  5

dump dmp2 all dcd ${N} traj.dcd
dump dmp2 all dcd 1000 traj.dcd


compute msd all msd com yes
variable twopoint equal c_msd[4]/6/(step*dt+1.0e-6)
fix 9 all vector 10 c_msd[4]
variable fit equal slope(f_9)/6/(10*dt)
thermo_style custom step temp pe c_msd[4] v_twopoint v_fit v_max_n

fix 1 all npt temp 1.25 ${temp} 0.1 iso 5.68 5.68 0.5 mtk yes tchain 5 pchain 5
fix 1 all npt temp 1.25 0.45 0.1 iso 5.68 5.68 0.5 mtk yes tchain 5 pchain 5
run 500000 # 5000000  # Run for this many steps
Neighbor list info ...
  update every 1 steps, delay 10 steps, check yes
  max neighbors/atom: 2000, page size: 100000
  master list distance cutoff = 3.8
  ghost atom cutoff = 3.8
  binsize = 1.9, bins = 8 8 8
  4 neighbor lists, perpetual/occasional/extra = 1 3 0
  (1) pair lj/cut, perpetual
      attributes: half, newton on
      pair build: half/bin/atomonly/newton
      stencil: half/bin/3d
      bin: standard
  (2) compute orientorder/atom, occasional
      attributes: full, newton on
      pair build: full/bin/atomonly
      stencil: full/bin/3d
      bin: standard
  (3) compute coord/atom, occasional
      attributes: full, newton on
      pair build: full/bin/atomonly
      stencil: full/bin/3d
      bin: standard
  (4) compute cluster/atom, occasional
      attributes: full, newton on
      pair build: full/bin/atomonly
      stencil: full/bin/3d
      bin: standard
Per MPI rank memory allocation (min/avg/max) = 9.810 | 9.817 | 9.822 Mbytes
Step Temp PotEng c_msd[4] v_twopoint v_fit v_max_n 
   12000    1.2167004   -2.3381551 4.2273084e-30 2.9356307e-32 8.3333333e+20            1 
   13000     1.265716   -2.3039762     1.172626 0.0075168333  0.099383254            1 
   14000    1.2202756   -2.3064644    2.4586863  0.014635037   0.10442923            1 
   15000    1.2587616   -2.3510362    3.7719095  0.020955052   0.10657697            1 
   16000    1.2340287   -2.3101976    5.1770746  0.026963929   0.10867177            1 
   17000    1.2426046   -2.3069598    6.5368866  0.032043561   0.11055103            1 
   18000    1.2353447   -2.3271648    7.6448191   0.03539268   0.10953348            3 
   19000    1.2486411   -2.3320214    8.8762197  0.038930787   0.10823046            2 
   20000    1.2597942   -2.3398185    10.361038   0.04317099   0.10816708            2 
   21000    1.2174873   -2.3330483    11.606272  0.046056635   0.10843882            2 
   22000    1.2254424   -2.3193612    12.902196  0.048871955   0.10853668            1 
   23000    1.2253921   -2.3096129     14.18214  0.051384564   0.10831925            3 
   24000    1.2308138   -2.3532575    15.434125  0.053590712   0.10835273            1 
   25000    1.2307706   -2.3249597    16.689274  0.055630912   0.10812741            2 
   26000    1.2192256   -2.3460891    18.111113  0.058048437   0.10793265            4 
   27000    1.2175487    -2.369105     19.27191  0.059481201   0.10784944            1 
   28000    1.2265451   -2.3476371     20.39693  0.060705148   0.10761154            1 
   29000     1.195777   -2.3697513    21.709898  0.062384763   0.10724477            2 
   30000    1.2220594    -2.377812    22.899162  0.063608782    0.1069168            2 
   31000    1.2275119   -2.3333884    24.204868  0.065066848    0.1066706            2 
   32000    1.2116256   -2.3688155    25.549469  0.066535074   0.10648926            1 
   33000    1.1810598    -2.355185    26.682419  0.067379846   0.10631122            1 
   34000    1.2126653   -2.3547024    27.914248  0.068417273   0.10624044            1 
   35000    1.2301514   -2.3692045    29.047275  0.069160177   0.10606996            1 
   36000    1.2053284   -2.3824987    30.358985  0.070275426   0.10577881            2 
   37000    1.2124461   -2.3793346     31.40064   0.07072216   0.10558507            1 
   38000    1.2017634   -2.3562577    32.701566  0.071713959   0.10532411            2 
   39000    1.2241838    -2.327045    34.059807  0.072777365   0.10505723            2 
   40000    1.1885351   -2.3992354    35.152205   0.07323376   0.10482752            1 
   41000    1.2021092   -2.3678229    35.994906  0.073160376   0.10458671            2 
   42000    1.1956518   -2.3676636    37.326879  0.074061268   0.10430567            1 
   43000       1.1937   -2.3673364    38.015971  0.073674362   0.10395607            1 
   44000    1.1928975   -2.3533283    39.432184  0.074682165   0.10346984            1 
   45000    1.2056297    -2.389076    40.363142  0.074746559   0.10311379            1 
   46000    1.1967374   -2.3783008    41.344557  0.074899558   0.10269784            2 
   47000    1.1983921   -2.3849425    42.478538  0.075316555   0.10227425            4 
   48000    1.1944995   -2.3714818    43.456808  0.075445846   0.10192268            1 
   49000    1.1663567   -2.3819333    44.713416  0.076043223   0.10151952            5 
   50000    1.2189752   -2.3717016    46.006538  0.076677563   0.10115559            2 
   51000    1.1669252   -2.3926791    47.335483  0.077345559   0.10089611            1 
   52000    1.1919655    -2.375179    48.272666  0.077360041    0.1006379            1 
   53000    1.1836626   -2.3672105    49.154327  0.077286677   0.10034138            1 
   54000    1.1632148   -2.3800063    50.161408  0.077409579   0.10000595            1 
   55000    1.2056516   -2.3818246    51.991442  0.078774911  0.099764238            3 
   56000    1.1880119   -2.4136466    53.152586  0.079096109  0.099622351            1 
   57000     1.174877   -2.3838368    54.327829   0.07942665   0.09948844            1 
   58000    1.1466432   -2.3914938    55.490135  0.079727205   0.09938396            1 
   59000     1.160253   -2.3826369    56.432006  0.079706222  0.099281511            2 
   60000    1.1739741   -2.3810498     57.65751  0.080079874  0.099207046            1 
   61000    1.1765833   -2.3981519    58.542038  0.079975461   0.09910528            4 
   62000    1.1668278     -2.35403    59.843214  0.080434427  0.098984998            2 
   63000     1.176496   -2.3992862    61.126806  0.080855563  0.098838618            1 
   64000    1.1697688   -2.3832728    61.947986  0.080661439  0.098705044            5 
   65000    1.1829895   -2.3843793    63.233959  0.081069177  0.098548046            1 
   66000    1.1538106   -2.4085222    64.131274   0.08097383  0.098389855            1 
   67000    1.1702638   -2.4021117    65.067242  0.080929405  0.098239316            2 
   68000    1.1617593   -2.4045352    66.037435  0.080928228  0.098116083            3 
   69000    1.1528896   -2.4014283    67.156251  0.081106583  0.097969917            2 
   70000    1.1513741   -2.4209279    68.380299  0.081405117   0.09781359            1 
   71000    1.1689315   -2.3812773    69.289525  0.081325733   0.09763715            1 
   72000    1.1492193   -2.3874718    70.312707  0.081380448  0.097468441            1 
   73000    1.1410093    -2.440438    71.417064  0.081526328  0.097308768            1 
   74000     1.140087   -2.4107376    72.618287  0.081777349   0.09716411            3 
   75000    1.1523265   -2.4063851    73.807056  0.082007839  0.097005074            1 
   76000    1.1552429   -2.4064981    74.848027  0.082070204  0.096875272            2 
   77000    1.1406875   -2.4311922    76.701326  0.083010093  0.096784579            1 
   78000    1.1404162   -2.4268275    77.887363  0.083212994  0.096748791            3 
   79000    1.1731819   -2.4235665    79.051096  0.083387232  0.096719749            3 
   80000    1.1353517   -2.4607015    80.310353  0.083656617  0.096687797            1 
   81000    1.1435192   -2.4275811    81.332577   0.08367549  0.096646414            1 
   82000    1.1019408   -2.4104705    82.075155   0.08340971  0.096581692            1 
   83000    1.1386727   -2.4111444    82.569138  0.082900741  0.096508406            2 
   84000    1.1066747   -2.3966691    84.121826  0.083454192  0.096412676            2 
   85000     1.123209   -2.4481887    84.919445  0.083254357  0.096305914            3 
   86000    1.1188943   -2.4384083    85.683074  0.083026234  0.096164331            4 
   87000    1.1232842   -2.4612885    86.762846  0.083106174  0.096014729            2 
   88000    1.1021372   -2.4559118    87.649751  0.083001658  0.095874213            3 
   89000    1.1307127   -2.4148095    88.759927  0.083108545  0.095747324            2 
   90000    1.1234764   -2.4223547    89.775371  0.083125343  0.095616788            1 
   91000    1.1222971   -2.4348065    90.612056  0.082978073   0.09548716            2 
   92000    1.1343515   -2.4382314    92.143214  0.083463056  0.095361764            2 
   93000    1.1047547   -2.4379863    92.555821  0.082935323  0.095232788            2 
   94000    1.0893175   -2.4405054    93.461888  0.082856283  0.095073386            2 
   95000     1.116854   -2.4440636    94.638721  0.083016421  0.094921314            1 
   96000    1.1126749   -2.4516092    95.309562  0.082733995  0.094769748            5 
   97000     1.084113   -2.4764781    96.817603  0.083176634  0.094625222            2 
   98000    1.1140501   -2.4482849    98.162367    0.0834714  0.094501195            2 
   99000    1.1195549   -2.4582435    98.989185   0.08332423  0.094376923            3 
  100000    1.0858203   -2.4630082    100.05853  0.083382105  0.094254186            2 
  101000    1.1176668   -2.4581921    101.35393  0.083625351  0.094157812            1 
  102000    1.1216046   -2.4665592    101.90813  0.083258273    0.0940406            1 
  103000    1.0977282   -2.4844445    103.33816  0.083606928  0.093928298            2 
  104000    1.1301634   -2.4707358    103.38807  0.082843003  0.093806759            1 
  105000    1.1171741   -2.4544044    104.79803  0.083173038   0.09367005            2 
  106000    1.1057446   -2.4726755    105.99941   0.08333287  0.093524597            3 
  107000    1.1132735   -2.4827738    106.58951  0.083013639  0.093381972            1 
  108000    1.0762656   -2.4685763    107.80857  0.083185627   0.09325066            1 
  109000    1.1074802   -2.4889985    108.75187  0.083143635  0.093118461            3 
  110000    1.1014895   -2.4759019    109.67438  0.083086653  0.093000516            2 
  111000    1.1087608   -2.4827463    110.34291  0.082840021  0.092869527            1 
  112000    1.0816211   -2.4752181    111.38857  0.082878401  0.092723682            2 
  113000    1.0396578   -2.4415047     112.4194  0.082905159  0.092580591            1 
  114000    1.0741989   -2.4933333    113.31921  0.082835679  0.092445019            2 
  115000    1.0970414   -2.4455517    114.85856   0.08323084  0.092322419            3 
  116000    1.1074035   -2.4771966    115.55284  0.083012097  0.092202357            1 
  117000    1.0767663   -2.4844885     115.7175  0.082419868   0.09206938            3 
  118000    1.0621256   -2.4989159     116.9395   0.08258439  0.091937214            2 
  119000    1.0735997   -2.4876183    118.44283  0.082943158  0.091806342            2 
  120000    1.0866461   -2.5034461     119.1435  0.082738543  0.091676061            1 
  121000    1.0853987   -2.5017276    120.35768  0.082890964  0.091569561            1 
  122000    1.0476212    -2.489271    121.64202  0.083088812  0.091458172            3 
  123000    1.0621905    -2.484945     122.5131  0.083003454  0.091347888            2 
  124000    1.0885922    -2.482932    122.74388  0.082489164  0.091233273            1 
  125000    1.0909174   -2.5055506    124.49212  0.082994746  0.091122671            1 
  126000    1.0761907   -2.5263295    125.92534  0.083283953  0.091012672            4 
  127000    1.0653115     -2.50268    126.07523  0.082726527   0.09088953            3 
  128000     1.034485   -2.5021747    127.24499   0.08284179  0.090773924            2 
  129000    1.0652968   -2.4938883    127.89472  0.082619327  0.090652387            2 
  130000     1.040694   -2.5585653     128.8565  0.082600321  0.090538972            3 
  131000     1.062641   -2.5460203     129.8916  0.082628244  0.090413252            2 
  132000    1.0587382   -2.5227436    130.75968  0.082550304  0.090293584            3 
  133000    1.0570829   -2.5356573    131.65061  0.082487853  0.090183235            3 
  134000    1.0662691   -2.5272705    132.84999   0.08261815  0.090075328            4 
  135000      1.03709   -2.5064141    134.09273  0.082773289  0.089968657            1 
  136000    1.0544377   -2.5305365    135.17917  0.082830373  0.089869935            2 
  137000    1.0245271   -2.5301977    135.52292  0.082434868  0.089762936            3 
  138000    1.0503224   -2.5212443    136.89276  0.082664708  0.089663124            1 
  139000    1.0449593   -2.5051215    137.67116  0.082536669  0.089563048            2 
  140000    1.0184754   -2.5357635    138.61842  0.082510963  0.089455989            3 
  141000    1.0548794   -2.5165373    139.56252  0.082483758  0.089359249            1 
  142000      1.04203   -2.5439457    139.96718  0.082140363  0.089254423            4 
  143000    1.0511339   -2.5195459    140.82926  0.082068333  0.089143483            5 
  144000    1.0356249   -2.5235291    142.20293   0.08229336  0.089043696            4 
  145000    1.0270826   -2.5283077    143.70553  0.082589384   0.08894029            3 
  146000    1.0241326   -2.5704424    143.19491  0.081732254  0.088833208            2 
  147000    1.0458021   -2.5638517    144.63965  0.081995267  0.088723572            2 
  148000    1.0093297   -2.5526978    145.26177  0.081791535   0.08861242            1 
  149000    1.0227359   -2.5284585    146.61092  0.081997158  0.088505321            1 
  150000    1.0240756   -2.5596984    147.15668   0.08175371  0.088395522            3 
  151000    1.0279481   -2.5322718    148.65236  0.082037724  0.088293344            3 
  152000     1.014677   -2.5612734    149.53979  0.081984532  0.088196267            3 
  153000    1.0617341   -2.5625317    150.29748  0.081861371  0.088088765            2 
  154000    1.0067167   -2.5920845    150.71132  0.081553744  0.087991924            3 
  155000    1.0213632   -2.5838993    151.84199  0.081635478  0.087889926            1 
  156000     1.024586   -2.5602376    153.37645  0.081931866  0.087794798            1 
  157000    1.0244048   -2.5559134    153.53484  0.081494076  0.087697645            2 
  158000    1.0241279   -2.5513312    154.92763  0.081712887  0.087604906            1 
  159000    1.0047719   -2.5796553    155.71172  0.081609914  0.087508289            4 
  160000   0.99357982   -2.5696512    156.58567  0.081555037  0.087411468            2 
  161000    1.0427324   -2.5731178    157.57201  0.081559011  0.087312674            1 
  162000    1.0188399   -2.5984067    158.85122  0.081713589  0.087218256            2 
  163000    1.0069095   -2.5671537    159.45631  0.081521629  0.087125256            2 
  164000    1.0007801   -2.5878055    160.19291  0.081398836   0.08702822            2 
  165000    1.0183231   -2.5842343    160.75577  0.081189784  0.086925231            2 
  166000    1.0201549     -2.58162    160.86785  0.080756952  0.086820146            2 
  167000    0.9965884   -2.5584528    161.89351  0.080785185  0.086711873            2 
  168000   0.98309773   -2.5693483    163.50479  0.081103567  0.086603605            2 
  169000    1.0180405   -2.6084007     163.1082  0.080428105  0.086492046            3 
  170000   0.99436404   -2.5873194      164.518  0.080646077  0.086381699            2 
  171000   0.99522148   -2.6063883    164.58513  0.080207178  0.086265003            3 
  172000   0.99927426   -2.6034063    165.57916  0.080222461    0.0861448            1 
  173000   0.99689689   -2.6100714    165.74774  0.079839953  0.086024417            2 
  174000   0.98471278   -2.5993069    167.03168  0.079996013  0.085892326            1 
  175000   0.98826849   -2.6107482     167.9352  0.079969142  0.085764938            2 
  176000   0.97428706    -2.593022    168.78105  0.079915269  0.085638965            1 
  177000   0.96936601   -2.5991553    168.83909  0.079491096  0.085513012            1 
  178000   0.98103869   -2.6017798     169.7774    0.0794838  0.085383598            3 
  179000   0.97589869   -2.6108362    170.00504  0.079145736  0.085250369            2 
  180000    0.9760066    -2.599403    171.73035  0.079504793  0.085121429            3 
  181000   0.98839928   -2.6094084    171.88409  0.079136321  0.084994295            2 
  182000   0.97105815   -2.5959715    173.38485  0.079388669  0.084865852            2 
  183000   0.99266345    -2.635283    173.70344  0.079099929  0.084743125            8 
  184000   0.98201554   -2.6185643    175.31166  0.079398396  0.084624134            3 
  185000   0.95838743   -2.5881983    175.66869  0.079130039  0.084502685            1 
  186000   0.95149849   -2.6350678    176.02475  0.078864135  0.084377814            3 
  187000    0.9793223   -2.6110264    176.21649  0.078527846  0.084248729            4 
  188000   0.97548931   -2.6230667     178.1832  0.078981915  0.084118106            2 
  189000   0.96751129   -2.6189843    178.08514  0.078520785  0.083986861            3 
  190000   0.96275667   -2.5936126    178.69848  0.078376527    0.0838581            4 
  191000   0.96660496   -2.6373073    178.96103   0.07808073  0.083727547            2 
  192000   0.95423965   -2.6196476    180.95203  0.078538209  0.083601933            3 
  193000    0.9746383   -2.6435688    180.65821   0.07800441  0.083477974            5 
  194000   0.95832676   -2.5975099    182.70047  0.078479585  0.083354018            2 
  195000   0.95165013   -2.6327333    183.36934  0.078362966  0.083233675            5 
  196000   0.94024495   -2.6672002    183.03937  0.077822863  0.083109389            6 
  197000   0.95006333    -2.651311    183.68604   0.07770137  0.082988588            3 
  198000   0.95422889   -2.6468146    185.15729  0.077928152  0.082876696            8 
  199000   0.97298208   -2.6403281    186.13245  0.077944911  0.082760164            1 
  200000   0.93966078   -2.6351302    186.93662  0.077890257  0.082643465            3 
  201000   0.93911794    -2.633316    186.96081  0.077512772  0.082522224            2 
  202000   0.95767892   -2.6537405    187.76023  0.077458842  0.082399087            2 
  203000   0.92205458   -2.6496023    189.19411  0.077665891  0.082276746            4 
  204000   0.94376856    -2.654523    189.56842  0.077438078  0.082157785            2 
  205000    0.9652173   -2.6610344    190.36968  0.077386047  0.082039538            3 
  206000   0.92411569   -2.6688106    191.37349  0.077416462  0.081926162            2 
  207000   0.94941994   -2.6555713    192.76862  0.077604114  0.081814218            4 
  208000   0.92947939   -2.6574974    192.69118   0.07719999  0.081701021            1 
  209000   0.91805776   -2.6660227     193.0917  0.076990311  0.081580236            1 
  210000   0.93782239   -2.6352873    194.69116  0.077258395  0.081458257            4 
  211000   0.93020749   -2.6481372    194.05423   0.07664069  0.081342444            2 
  212000   0.93312929   -2.6567027    194.75535  0.076554777  0.081220347            2 
  213000    0.9017315   -2.6607815    195.40599  0.076449918  0.081099953            2 
  214000   0.90455206   -2.6329342    197.14405  0.076769489  0.080983272            2 
  215000   0.91431451    -2.655634    196.74884  0.076259242  0.080862925            4 
  216000   0.93953549   -2.6881863    197.51502  0.076201781  0.080740874            3 
  217000   0.92023989   -2.6779336    198.78284  0.076337494  0.080619116            5 
  218000   0.92770694   -2.6861414    199.04346  0.076086949  0.080494944            4 
  219000   0.91646112   -2.6846271    199.77905  0.076019426  0.080371102            3 
  220000   0.91748567   -2.6621668    200.41329  0.075914123  0.080248702            1 
  221000   0.92157679   -2.6578262    201.27914  0.075897113  0.080127357            2 
  222000   0.91299529   -2.6790329    200.93516  0.075426111  0.079997681            1 
  223000    0.9071694   -2.6886778    201.52565  0.075308538  0.079868186            4 
  224000   0.92438178    -2.683356    201.63435   0.07501278  0.079737155            3 
  225000   0.90982724   -2.6880632     202.6689  0.075062556  0.079604025            3 
  226000   0.89430848   -2.6912272    203.11843  0.074896177  0.079471844            4 
  227000   0.89178888   -2.7062826    203.51091   0.07471032  0.079337138            7 
  228000   0.88026165   -2.6840019    204.69689  0.074816116  0.079200869            1 
  229000   0.92420539   -2.6962228    204.98099   0.07459279  0.079067727            5 
  230000   0.91916853   -2.7130439    205.62214  0.074500775   0.07893263            3 
  231000   0.90623729   -2.7049105    205.45546   0.07411813  0.078794375            3 
  232000   0.90859372   -2.7050538    206.72227   0.07425369  0.078655985            4 
  233000   0.89765145   -2.7222667    206.34133   0.07379876  0.078516137            2 
  234000   0.89253513   -2.7163412     208.2614  0.074167164  0.078379407            5 
  235000   0.90657873   -2.7038595    207.42716   0.07355573  0.078241126            2 
  236000   0.90851381   -2.7035388    209.04239  0.073814405  0.078106751            2 
  237000   0.90883809   -2.7063191    208.73017  0.073393167  0.077971462            2 
  238000   0.86426931   -2.7267544    210.08355  0.073558667  0.077834121            2 
  239000   0.88978312   -2.7226659     211.2446  0.073655718  0.077700972            2 
  240000   0.88205533   -2.6964946    210.85015  0.073211859  0.077569584            2 
  241000   0.87898584   -2.7386354    211.29694  0.073062565  0.077430114            4 
  242000   0.88642221   -2.7334944    211.99708   0.07300175   0.07728864            2 
  243000   0.88148715   -2.7331491    212.82035  0.072983659  0.077147698            5 
  244000   0.87969856   -2.7274837    212.82546  0.072686291  0.077010001            3 
  245000   0.89654936   -2.7178728    213.77443   0.07271239  0.076875297            6 
  246000   0.87249415   -2.7477195    214.34175  0.072608995  0.076739673            4 
  247000    0.8871449   -2.7280181    215.05003   0.07255399  0.076605497            8 
  248000   0.86260687   -2.7237595    215.17449  0.072303255  0.076473088            4 
  249000   0.85915208   -2.7342615    215.77679  0.072214454  0.076340168           10 
  250000   0.87049954   -2.7296865    217.12042  0.072373472  0.076207869            3 
  251000   0.85808463   -2.7545944    217.14224  0.072092376  0.076076881            3 
  252000   0.86037416   -2.7275843    218.17937  0.072149264   0.07594748            3 
  253000   0.86952233   -2.7221052    219.15695  0.072186084  0.075819828            3 
  254000   0.87651308   -2.7523729     219.2803  0.071942355  0.075689207            7 
  255000    0.8607409   -2.7640824    219.40716  0.071701685  0.075556471            2 
  256000   0.85836253   -2.7825539    219.88236  0.071576289  0.075420739            5 
  257000   0.86777755   -2.7494806    220.38483  0.071460708  0.075284546            4 
  258000   0.85867244   -2.7728595     220.9022  0.071350839  0.075152051            5 
  259000   0.84787517   -2.7460433    221.09677  0.071137957  0.075018247            8 
  260000   0.83933706   -2.7489471    222.96839  0.071464228  0.074883237            3 
  261000   0.85606469   -2.7771737    221.36658  0.070678984  0.074747871            3 
  262000   0.84518717   -2.7614539    223.24587  0.071006956  0.074612527            3 
  263000   0.84008993   -2.7586911     222.7644   0.07058441    0.0744771            3 
  264000   0.85341942   -2.7620516    223.37198  0.070508831  0.074339702            2 
  265000   0.82556577   -2.7710567    223.26254  0.070208345  0.074201823            3 
  266000   0.81410876   -2.7676574     224.3651  0.070289819  0.074063116            2 
  267000   0.84670267   -2.7655473    224.63138  0.070109668  0.073923739            3 
  268000   0.84108549   -2.7654951    224.67671  0.069862162  0.073785047            3 
  269000   0.85040479   -2.7682001    226.11047  0.070046613  0.073649279            3 
  270000   0.83081232    -2.806936    226.97509   0.07005404  0.073516657            3 
  271000   0.82860839   -2.7861258    227.36975  0.069916898  0.073383328            5 
  272000   0.83545062   -2.7846603    226.54485  0.069407124  0.073248852            3 
  273000   0.82991406   -2.7629682    227.52928  0.069453382  0.073111747            3 
  274000   0.83653208   -2.7864475    228.02787  0.069351543  0.072973196            3 
  275000    0.8376307   -2.8133233     227.6012  0.068970062   0.07283606            4 
  276000   0.82383085   -2.7723464    229.13714  0.069183918  0.072696711            3 
  277000   0.83898141    -2.814909    228.98842  0.068889417   0.07255715            4 
  278000   0.81876063   -2.8141306    229.40742  0.068767212  0.072416704            2 
  279000   0.81940525    -2.809118    229.86945  0.068658737  0.072276703            4 
  280000   0.80292304    -2.786317    230.68047  0.068654901  0.072137199            3 
  281000   0.80808536   -2.7991596    231.62746  0.068691417  0.072002583            2 
  282000   0.82173943   -2.8100827    232.32939  0.068655258  0.071867773            5 
  283000   0.82844037    -2.812429    233.01637  0.068614951  0.071736922            3 
  284000   0.80741942   -2.8308888    232.36108  0.068181069  0.071603514            7 
  285000   0.80661097   -2.8136306    234.10818  0.068452683  0.071469557            2 
  286000    0.8070419   -2.8150541    234.07062  0.068202396  0.071337934            3 
  287000   0.82046394    -2.816999    234.15845  0.067990258  0.071207127            5 
  288000   0.81114142    -2.809305    234.32765  0.067803138  0.071076409            3 
  289000   0.79787175   -2.8363226    234.99819  0.067761878  0.070943106            4 
  290000    0.8055135    -2.817404     235.2872  0.067611264  0.070808376            4 
  291000   0.81375198   -2.8454795    234.83198  0.067248563  0.070675926            3 
  292000   0.77734212   -2.8243359     235.8152  0.067298858  0.070540857            3 
  293000   0.79840615   -2.8392097    235.86419  0.067083104  0.070407356            4 
  294000   0.81133024   -2.8405875    237.26156  0.067251008  0.070272741            6 
  295000   0.78521197   -2.8291641    236.96893  0.066940376  0.070141421            2 
  296000   0.80823815   -2.8342225     237.5896  0.066888963  0.070008033            2 
  297000   0.79486465   -2.8420565     237.5661  0.066657154  0.069875113            2 
  298000   0.79055632   -2.8520243     239.0418  0.066846141  0.069743196            5 
  299000   0.78963532   -2.8301403    239.49593  0.066749145  0.069613563            3 
  300000   0.79154267   -2.8696343    239.44917  0.066513659  0.069482502            2 
  301000   0.79611122   -2.8334078    240.72645  0.066646303  0.069353153            5 
  302000   0.77546416   -2.8303235    240.58621  0.066386922  0.069225323            4 
  303000   0.78179167   -2.8123364    242.57699  0.066715343  0.069099111            5 
  304000   0.78758465   -2.8683586    241.39339  0.066171432  0.068973297            3 
  305000   0.77883798   -2.8633508    241.74564  0.066050722  0.068844408            5 
  306000   0.78750954   -2.8793732    241.67115  0.065814582  0.068716279            4 
  307000   0.79038455   -2.8795929    242.59998  0.065852328   0.06858674            6 
  308000    0.7991756    -2.857567    243.56823  0.065900494  0.068458955            6 
  309000   0.78391509   -2.8743496     243.1341  0.065570147  0.068329905            4 
  310000    0.7650615   -2.8726387    244.10324   0.06561915  0.068201644            4 
  311000   0.76610055   -2.8771018     243.9758  0.065374008  0.068073891            7 
  312000   0.77925957   -2.8908449    243.87633  0.065137907   0.06794556            6 
  313000   0.77780988   -2.8903744    244.74432  0.065160893  0.067816102            5 
  314000    0.7633325   -2.8826237    245.62163  0.065186207  0.067685674            4 
  315000   0.75157696   -2.8783687    245.62528  0.064980232  0.067556878            5 
  316000   0.75937687   -2.8579586    246.50328  0.065006138  0.067428488            3 
  317000   0.78225027    -2.900786    246.09819  0.064694582  0.067300733            5 
  318000   0.76794044   -2.8884345    245.77164  0.064405566  0.067169784            3 
  319000   0.76289564   -2.8777303    247.51411   0.06465886  0.067040027            3 
  320000   0.75307193   -2.9031433     246.4581  0.064181796  0.066910053            3 
  321000   0.76430082   -2.8994857    247.37638  0.064220244   0.06677977            3 
  322000    0.7632681   -2.8992535    247.57338  0.064071786  0.066650695            5 
  323000   0.75933473   -2.8845342    249.12022  0.064272503  0.066523089            3 
  324000   0.75830875   -2.9024853      248.793   0.06398997  0.066394992            8 
  325000   0.76232058   -2.8907554    248.59051  0.063741157  0.066267553            4 
  326000   0.74457319   -2.8969913    249.77175  0.063847585  0.066140684            5 
  327000   0.76177028   -2.9281199    249.45154   0.06357073  0.066012553            3 
  328000   0.73161778   -2.9233954    250.31068  0.063595193   0.06588477            5 
  329000   0.74879048   -2.8918782    250.14379  0.063359624  0.065756013            9 
  330000   0.73986176    -2.901856    250.68611  0.063304573  0.065629144            7 
  331000   0.75684368    -2.884015    250.44583  0.063052826  0.065500814            4 
  332000   0.75599582   -2.9154986    251.02285  0.063007745   0.06537177            4 
  333000   0.73811325   -2.9232024    251.19842  0.062862468  0.065243749            3 
  334000   0.73515494   -2.9226343    251.40527  0.062725866  0.065115519            5 
  335000   0.73073463   -2.9292214    251.36797  0.062529345  0.064986891            3 
  336000   0.73755045   -2.9243185    252.17278  0.062542852  0.064858461            3 
  337000   0.73637546   -2.9300249    252.50582  0.062439619  0.064729161            4 
  338000   0.73531409   -2.9340838    252.42138  0.062234068  0.064601201            5 
  339000   0.72826027   -2.9234569    254.22051   0.06249275  0.064474325            3 
  340000   0.73140532   -2.9175491    254.44803  0.062364713  0.064349119            5 
  341000   0.72610444   -2.9327339    253.87255  0.062041191  0.064223175            3 
  342000   0.70654557   -2.9132519    254.68644  0.062058101  0.064098897            9 
  343000   0.71447624   -2.9566296    254.82338  0.061910442  0.063974072            4 
  344000   0.73127925   -2.9417603     254.6809  0.061695955  0.063848413            3 
  345000   0.71747649   -2.9417106    255.51586  0.061718806  0.063723964            5 
  346000   0.72106773   -2.9393871    255.40065  0.061512682  0.063598131            6 
  347000   0.72154481   -2.9639476    255.26826  0.061303617  0.063471488           13 
  348000   0.70314403   -2.9339943    255.57261  0.061200337    0.0633452            5 
  349000    0.7138395   -2.9400044    257.24602  0.061424551  0.063219324            5 
  350000   0.71033219   -2.9379889    257.12565  0.061220392   0.06309442            2 
  351000   0.72194836   -2.9420302    257.61807  0.061162884  0.062971428            7 
  352000   0.70810296   -2.9687043    257.61417  0.060988202  0.062848168            4 
  353000   0.68657461   -2.9427946    258.61248  0.061051105  0.062724385            3 
  354000    0.6901927   -2.9725694    257.51569  0.060620454  0.062601034            3 
  355000   0.69585724   -2.9676872    258.78334  0.060747264  0.062478904            2 
  356000   0.68172128   -2.9796933    257.88981  0.060367466  0.062357395            5 
  357000   0.70333525   -2.9715789    258.37709  0.060312113  0.062234081            5 
  358000   0.69573867   -2.9669884    258.64608  0.060206256  0.062110323            3 
  359000   0.70511066   -2.9759132    259.15701  0.060157151  0.061987586            3 
  360000   0.70785538   -2.9747371    259.35627  0.060036173  0.061863407            4 
  361000   0.68158404   -2.9744969    259.45757  0.059893252  0.061738958            8 
  362000   0.69578113   -2.9959795    260.44901  0.059956033  0.061615128            4 
  363000   0.69552891   -2.9985211    259.67003  0.059612036  0.061492005            3 
  364000   0.68080466    -2.977927    260.75591  0.059696866  0.061369859            4 
  365000   0.69189661   -3.0026923    262.08199   0.05983607  0.061247869            4 
  366000   0.68964691   -2.9987892    260.92915  0.059410098  0.061126164            4 
  367000   0.69066093   -2.9840721    261.95331   0.05948077  0.061005034            5 
  368000   0.66482764   -2.9850205    262.28297  0.059393788  0.060884678            5 
  369000    0.6748863   -2.9803458    261.82942  0.059130402  0.060763479            5 
  370000   0.66307758   -3.0012633    261.70243  0.058941988  0.060643177            3 
  371000   0.66673957   -3.0108296    262.18732  0.058892031  0.060522272            8 
  372000   0.68111917   -3.0193659    263.03525  0.058923666  0.060401327            9 
  373000   0.67455946   -3.0118695    263.02801  0.058764078  0.060279686            5 
  374000   0.67214203   -3.0120209    262.83234  0.058563357   0.06015839            4 
  375000   0.66720361   -3.0101309    262.99985   0.05844441  0.060038156           10 
  376000   0.65956142   -3.0185171    264.11355  0.058535804  0.059917541           10 
  377000   0.66304516    -3.017017    263.50508   0.05824604  0.059797935            9 
  378000   0.64863507   -3.0288535    264.34302   0.05827668  0.059677434            6 
  379000   0.64946563   -3.0359405    264.04267  0.058056876  0.059558493            4 
  380000   0.66099202    -3.017368    265.22108  0.058162518  0.059438589            8 
  381000   0.66106544   -3.0601282    264.95925  0.057952591  0.059318763            6 
  382000   0.67079308   -3.0592941     263.9728  0.057585689  0.059198506           13 
  383000   0.65292095   -3.0442561    264.51031  0.057552287  0.059078628            3 
  384000    0.6449896   -3.0328281    265.41012  0.057597683  0.058959044            9 
  385000     0.662329     -3.04518    265.69177  0.057509042  0.058839966            5 
  386000   0.66076138   -3.0316246    265.67841   0.05735717  0.058721752            4 
  387000   0.63822283   -3.0438975     265.9366  0.057264557   0.05860339            7 
  388000   0.65735309   -3.0492473     266.3074  0.057196607  0.058485059            4 
  389000   0.64556805   -3.0398769    267.15659  0.057231488  0.058366587           11 
  390000   0.65096315   -3.0537279    267.30102  0.057115602  0.058248226            4 
  391000   0.65620562   -3.0484039    266.22778  0.056740789  0.058129321           17 
  392000   0.64804615   -3.0632969    266.78366  0.056714214   0.05801001            5 
  393000   0.63871705    -3.039966    266.38471  0.056485307  0.057890871            7 
  394000    0.6425316   -3.0577418    266.68748  0.056405982  0.057772475            6 
  395000   0.63023102   -3.0514584    268.12786   0.05656706  0.057654101            5 
  396000   0.63587555   -3.0768272    268.12737  0.056424111  0.057537601            8 
  397000   0.64380995   -3.0869693    267.41183  0.056131786   0.05741981            4 
  398000   0.63887407   -3.0772854     268.2041  0.056156637  0.057301258            5 
  399000   0.64816498   -3.0873634    267.75996  0.055923132  0.057182288            8 
  400000   0.63766306   -3.0661991    268.71274  0.055981821  0.057065758            5 
  401000   0.63856434   -3.1038693    268.72523   0.05584481  0.056948445            7 
  402000   0.63677573   -3.0764874    268.93911  0.055750229  0.056830969            7 
  403000    0.6259899   -3.0970588    268.54621  0.055530647  0.056714463            7 
  404000   0.61321171   -3.1028346    268.81954  0.055449576  0.056596754            8 
  405000   0.63577054   -3.1294947    268.45082  0.055236794  0.056478468           10 
  406000   0.61119461    -3.090294    268.80572  0.055173588  0.056359496            3 
  407000   0.61422437   -3.0977507    268.99923  0.055077648  0.056241966           11 
  408000   0.61443205   -3.1001846    269.65436  0.055076463  0.056124054            7 
  409000    0.6103259   -3.1077245    269.51943  0.054914309  0.056005567            6 
  410000   0.61416481   -3.1053263    269.58506  0.054793712  0.055887261            5 
  411000   0.60838135   -3.0923339    269.75948  0.054695759  0.055768897            9 
  412000   0.60035045   -3.1173879     269.2207  0.054454025  0.055650163           14 
  413000   0.61762648   -3.1119696    268.98752  0.054275124  0.055531853           11 
  414000   0.59650555   -3.1086327    269.48709  0.054244584  0.055413018            9 
  415000   0.60495202   -3.1114669    269.65392  0.054147373  0.055293404            5 
  416000   0.60441046   -3.1246159    269.20838   0.05392796  0.055174354           14 
  417000   0.61297669   -3.1245145    270.10672  0.053978162  0.055054369            7 
  418000   0.59331963   -3.1222378    269.47159  0.053722407  0.054934619           13 
  419000   0.59786253   -3.1375208    269.37033  0.053574052  0.054813413           14 
  420000   0.60147795    -3.132671    269.36685  0.053445803   0.05469337            9 
  421000   0.59377548   -3.1343062    269.51402  0.053347984  0.054573056            6 
  422000   0.59970215   -3.1445425    269.22157  0.053163817  0.054452608            8 
  423000   0.58548099   -3.1427845    268.89937  0.052974659  0.054331553            8 
  424000   0.58877267   -3.1470755     269.1628  0.052901494   0.05421055            6 
  425000   0.58453714   -3.1551557    269.78527  0.052899073  0.054089446            6 
  426000   0.58569848   -3.1340425     269.8042  0.052778599  0.053968591            6 
  427000   0.58020866   -3.1550087    270.27297   0.05274648  0.053848451           11 
  428000   0.57580718   -3.1292025     270.3578  0.052639759  0.053727903            4 
  429000   0.57682047   -3.1275075    270.23974  0.052494122  0.053607691            8 
  430000   0.59284482   -3.1381453    269.87164  0.052300705  0.053488034            6 
  431000   0.58746237   -3.1461008    270.24593  0.052251727  0.053367922            9 
  432000   0.57601645   -3.1336506    270.20257   0.05212241  0.053248362           14 
  433000   0.57499646   -3.1773438     270.0314  0.051969092  0.053128529            6 
  434000   0.57780087   -3.1629025    270.88994  0.052014197  0.053009045           16 
  435000   0.58779133   -3.1676897    270.67259  0.051852986  0.052889918           15 
  436000   0.56665694    -3.149558    270.84171  0.051766381  0.052771484           11 
  437000   0.56650344   -3.1730176    271.86555  0.051843163  0.052654158           16 
  438000   0.57048149   -3.1792513    270.90916  0.051542839  0.052536382           13 
  439000   0.56785327   -3.1755973    270.61113  0.051368855  0.052418642            9 
  440000   0.57096196   -3.1802487    271.64956  0.051448781  0.052301203            5 
  441000   0.55273714    -3.174626    272.27264  0.051449856  0.052184716            8 
  442000   0.55952282   -3.1775837    271.11453  0.051115107  0.052067955           16 
  443000    0.5555079   -3.1975972    271.43231  0.051059502  0.051951313            7 
  444000   0.55571464   -3.1859621    272.34073  0.051115001  0.051835464           21 
  445000   0.56003448   -3.1864733    270.63907  0.050681474  0.051718168            9 
  446000   0.55642772   -3.1849957    270.94034  0.050624129   0.05160046           10 
  447000   0.55018313   -3.1966846    271.50463  0.050616075  0.051483068            8 
  448000    0.5422998   -3.2128898    272.39261  0.050668268  0.051365732            9 
  449000   0.54417018   -3.1893529    272.01781  0.050485859  0.051249263           12 
  450000   0.55264797   -3.1936711    272.46623   0.05045671  0.051133401           14 
  451000   0.54488659   -3.2189782    271.96911  0.050252976  0.051017571            8 
  452000   0.54314604   -3.2166914    271.12172  0.049985568  0.050901232           11 
  453000   0.53807205   -3.2236325    271.18612  0.049887072  0.050785025            9 
  454000   0.53677418   -3.2328912    272.85924  0.050084296  0.050668692           11 
  455000   0.54590466   -3.2165901    272.40405  0.049890852  0.050552925           22 
  456000   0.53949779   -3.2070765    271.84893  0.049679995  0.050437691           10 
  457000   0.54389428   -3.2251858    272.49741  0.049689534  0.050322813           19 
  458000   0.52389705   -3.2193915    272.90836  0.049655815  0.050208534            9 
  459000   0.52907868   -3.2274627    273.43803  0.049643796  0.050094966            9 
  460000   0.52841891    -3.215135     273.6948  0.049582391  0.049981362            6 
  461000   0.53067803   -3.2316478    273.32884  0.049408683  0.049868423            5 
  462000     0.528582   -3.2463269    273.85001  0.049395745  0.049756282            9 
  463000   0.51347046   -3.2510902    273.44434  0.049216043  0.049644715           10 
  464000   0.52068521   -3.2384553    273.95867  0.049202348  0.049532864           25 
  465000   0.52260544   -3.2731129    273.93078  0.049091538   0.04942124           14 
  466000   0.52056542   -3.2326381    273.51158  0.048911227  0.049309608            9 
  467000   0.53159871   -3.2649035    273.37465  0.048782058  0.049197965           14 
  468000   0.51866257   -3.2570535    274.07897  0.048803235  0.049086625            7 
  469000   0.51210391   -3.2583567    274.13538    0.0487092  0.048975064           15 
  470000   0.52332349   -3.2595855     273.5746  0.048506134  0.048864329           11 
  471000   0.52611224   -3.2520033    274.17423  0.048509241   0.04875322           10 
  472000    0.5031403   -3.2574442    273.57036  0.048299852  0.048642464            9 
  473000   0.50435152   -3.2644461    273.74129  0.048227853  0.048531565            8 
  474000   0.51151706   -3.2667505    273.39084  0.048064493  0.048421018           19 
  475000   0.51611358   -3.2671023    274.56871  0.048169948  0.048310739           18 
  476000   0.49979574   -3.2624663    274.40243  0.048039641  0.048200215           14 
  477000   0.50774989   -3.2838167     273.7479  0.047824581  0.048090109           10 
  478000   0.50435728   -3.2943406    273.63287  0.047704476  0.047979766           18 
  479000   0.50065687   -3.2911344    273.96783  0.047663158  0.047869225           14 
  480000   0.49323821    -3.288008    273.67747   0.04751345  0.047759304           10 
  481000   0.50118392   -3.2794667    273.77885  0.047432232   0.04764917            9 
  482000   0.48567523   -3.2821342    273.99957  0.047371987  0.047539621            7 
  483000   0.48503123   -3.3057898    274.11071  0.047293083  0.047430442            9 
  484000    0.4889801   -3.2741959    273.59156  0.047105984  0.047321587           13 
  485000   0.50301812   -3.3035577      274.645  0.047189863  0.047212522           12 
  486000    0.4967468   -3.2926327    274.79503   0.04711849  0.047103815            9 
  487000   0.49474655    -3.292239    274.32067  0.046940566   0.04699489            8 
  488000   0.49342627   -3.3124812    273.66104  0.046731735  0.046885637           18 
  489000   0.49039218    -3.312901    274.63535  0.046802206  0.046776482           29 
  490000   0.47964615   -3.3135128    274.38761   0.04666456  0.046667879           11 
  491000   0.49215954   -3.3154629     273.8523  0.046478667  0.046559328           11 
  492000   0.47888077   -3.3151352    274.18586  0.046440694  0.046450829           21 
  493000   0.49075015   -3.3187684    274.47418   0.04639523  0.046343047           28 
  494000   0.46940749   -3.3244412    273.83286  0.046193127  0.046235296           10 
  495000   0.48517528   -3.3351597    274.15943  0.046154785  0.046127823           13 
  496000   0.47511881   -3.3194955    273.59597  0.045967065  0.046020488           17 
  497000   0.47665817   -3.3347503    273.34716  0.045832857  0.045912901           23 
  498000   0.47047637    -3.349805    274.21147  0.045885453  0.045805396           26 
  499000   0.46914839   -3.3357016    273.65788  0.045701049  0.045697899           19 
  500000   0.47304635   -3.3378453    274.16987  0.045694978  0.045591275           15 
  501000   0.46791114   -3.3200308    274.58791  0.045673305  0.045484949           21 
  502000   0.46962605   -3.3353366    274.67535  0.045596837  0.045378503           40 
  503000    0.4595226   -3.3442118    274.01939  0.045397513  0.045271943           24 
  504000   0.44686596   -3.3654242    273.97461  0.045300034  0.045165569           24 
  505000   0.45966595   -3.3490146    274.23902  0.045253964   0.04505904           17 
  506000     0.458176   -3.3549535    274.15321  0.045150397  0.044952897           23 
  507000   0.45926093   -3.3591562    273.98901  0.045034355  0.044846978           26 
  508000    0.4586793   -3.3678527    274.33012   0.04500166  0.044741408           23 
  509000   0.44757279   -3.3723848    273.66767  0.044804792  0.044635391           42 
  510000   0.46951561   -3.3764588     273.9977  0.044770866   0.04452946           55 
  511000   0.45932561   -3.3779295    273.90499  0.044668132  0.044423445           22 
  512000   0.44296061    -3.382402    273.43002  0.044503584  0.044317724           13 
Loop time of 1206.23 on 48 procs for 500000 steps with 4000 atoms

Performance: 71628.035 tau/day, 414.514 timesteps/s
99.4% CPU use with 48 MPI tasks x no OpenMP threads

MPI task timing breakdown:
Section |  min time  |  avg time  |  max time  |%varavg| %total
---------------------------------------------------------------
Pair    | 76.383     | 82.47      | 91.037     |  37.1 |  6.84
Neigh   | 8.0655     | 8.4003     | 8.7627     |   5.5 |  0.70
Comm    | 74.938     | 82.892     | 90.168     |  38.8 |  6.87
Output  | 0.87926    | 0.87969    | 0.88873    |   0.1 |  0.07
Modify  | 1017.6     | 1021.3     | 1023.6     |   4.8 | 84.67
Other   |            | 10.29      |            |       |  0.85

Nlocal:        83.3333 ave          89 max          75 min
Histogram: 1 2 0 2 7 12 6 13 1 4
Nghost:        2174.81 ave        2194 max        2159 min
Histogram: 3 2 11 4 5 7 10 3 2 1
Neighs:        14320.8 ave       15481 max       12333 min
Histogram: 1 0 1 7 3 7 12 6 4 7
FullNghs:      28641.0 ave       30791 max       25860 min
Histogram: 3 0 1 5 9 7 11 8 0 4

Total # of neighbors = 1374769
Ave neighs/atom = 343.69225
Neighbor list builds = 27156
Dangerous builds = 0

#clear
#
#next RN
#
#jump SELF
Total wall time: 0:20:09
