
units lj                  # Use reduced LJ style units
atom_style atomic         # Uncharged point particles
atom_modify map hash      # Needed for indexing of clusters etc
                          # Used to be able to find where atoms are in relation to each other.

lattice fcc 1.0 spacing 1 1 1
Lattice spacing in x,y,z = 1.5874011 1.5874011 1.5874011
region box block 0 10 0 10 0 10 units lattice
create_box 2 box
Created orthogonal box = (0.0000000 0.0000000 0.0000000) to (15.874011 15.874011 15.874011)
  3 by 4 by 4 MPI processor grid
create_atoms 1 box
Created 4000 atoms
  using lattice units in orthogonal box = (0.0000000 0.0000000 0.0000000) to (15.874011 15.874011 15.874011)
  create_atoms CPU = 0.014 seconds
set type 1 type/fraction 2 0.09 78393
Setting atom values ...
  390 settings made for type/fraction
mass 1 1.0
mass 2 1.0
pair_style lj/cut  3.5
pair_modify tail  yes
pair_coeff 1  1  1.0  1.0   # Intearaction between 1 and 1 set with epsilon = 1 and sigma = 1
pair_coeff 1  2  1.5  0.8
pair_coeff 2  2  0.5  0.88

write_data data.0
System init for write_data ...
Neighbor list info ...
  update every 1 steps, delay 10 steps, check yes
  max neighbors/atom: 2000, page size: 100000
  master list distance cutoff = 3.8
  ghost atom cutoff = 3.8
  binsize = 1.9, bins = 9 9 9
  1 neighbor lists, perpetual/occasional/extra = 1 0 0
  (1) pair lj/cut, perpetual
      attributes: half, newton on
      pair build: half/bin/atomonly/newton
      stencil: half/bin/3d
      bin: standard
WARNING: Not all mixed pair coeffs generated from mixing. Use write_data with 'pair ij' option to store all pair coeffs. (../write_data.cpp:312)


#############################
#   M E L T   S Y S T E M   #
#############################

velocity all create 2.4 1741580 mom yes dist gaussian # Assign velocities
                                                    # Temperature 2.4, random number seed, zero linear momentum
                                                                                # Gaussian distribution

timestep 0.002   # simulation timestep
thermo 1000       # output thermodynamic data every 1000 steps bf 100

# Define a fix  in this case with index 1 applied to all
# particles in the simulation. This fix is for simulations
# in the anisotropic NPT ensemble. Note that we use the MTK
# correction.
fix 1 all npt temp 2.4 2.4 0.1 iso 5.68 5.68 0.5 mtk yes tchain 5 pchain 5 # Use NPT ensemble
                                                                         # Set temperature and pressure and damping
                                                                         # Numbers of thermostats in chain and in barostat
run 10000          # run for 10000 steps
Per MPI rank memory allocation (min/avg/max) = 3.642 | 3.644 | 3.648 Mbytes
Step Temp E_pair E_mol TotEng Press Volume 
       0          2.4   -7.7460071            0   -4.1469071   -2.9736732         4000 
    1000    2.4193675   -4.5732545            0  -0.94511052    5.6650457    4881.1881 
    2000    2.4022116   -4.5732481            0  -0.97083156    5.7070504    4878.6107 
    3000    2.4097721   -4.6003875            0  -0.98663299    5.5702744    4880.8431 
    4000    2.4172629   -4.6185514            0  -0.99356359    5.8401087    4843.2203 
    5000    2.3968376   -4.5579944            0  -0.96363674    6.1514867     4827.967 
    6000    2.3783894   -4.6243699            0   -1.0576777    5.4966425    4873.4663 
    7000    2.4437287   -4.6314051            0  -0.96672844    5.6739123    4847.1036 
    8000    2.4168163   -4.5802525            0  -0.95593439    5.8878332    4847.8493 
    9000    2.4113122   -4.6113852            0  -0.99532115    6.0618771    4808.4035 
   10000    2.4458694   -4.6035802            0  -0.93569333    5.4658803    4901.5596 
Loop time of 2.15245 on 48 procs for 10000 steps with 4000 atoms

Performance: 802807.676 tau/day, 4645.878 timesteps/s
99.7% CPU use with 48 MPI tasks x no OpenMP threads

MPI task timing breakdown:
Section |  min time  |  avg time  |  max time  |%varavg| %total
---------------------------------------------------------------
Pair    | 0.89284    | 0.95073    | 1.0295     |   2.6 | 44.17
Neigh   | 0.19008    | 0.19744    | 0.21622    |   0.9 |  9.17
Comm    | 0.68263    | 0.74966    | 0.82183    |   3.6 | 34.83
Output  | 0.00023954 | 0.00024364 | 0.00030872 |   0.0 |  0.01
Modify  | 0.20503    | 0.24037    | 0.26714    |   3.9 | 11.17
Other   |            | 0.014      |            |       |  0.65

Nlocal:        83.3333 ave          92 max          75 min
Histogram: 3 0 11 3 8 10 1 6 3 3
Nghost:        1436.27 ave        1456 max        1416 min
Histogram: 2 2 3 7 9 5 11 6 1 2
Neighs:        7755.08 ave        8755 max        6877 min
Histogram: 3 1 9 5 11 7 6 1 2 3

Total # of neighbors = 372244
Ave neighs/atom = 93.061000
Neighbor list builds = 909
Dangerous builds = 223

# Equilibrate just above the melting temperature to avoid step fn in T

fix 1 all npt temp 1.25 1.25 0.1 iso 5.68 5.68 0.5 mtk yes tchain 5 pchain 5
run 2000
Per MPI rank memory allocation (min/avg/max) = 3.642 | 3.644 | 3.648 Mbytes
Step Temp E_pair E_mol TotEng Press Volume 
   10000    2.4458694   -4.6035802            0  -0.93569333    5.4658803    4901.5596 
   11000    1.2416029   -6.1512381            0   -4.2892994    5.6972122    4022.3922 
   12000    1.2514451   -6.1402222            0   -4.2635238    5.8605718    4010.8727 
Loop time of 0.462794 on 48 procs for 2000 steps with 4000 atoms

Performance: 746769.194 tau/day, 4321.581 timesteps/s
99.7% CPU use with 48 MPI tasks x no OpenMP threads

MPI task timing breakdown:
Section |  min time  |  avg time  |  max time  |%varavg| %total
---------------------------------------------------------------
Pair    | 0.20516    | 0.22064    | 0.24017    |   1.5 | 47.68
Neigh   | 0.030928   | 0.033187   | 0.035138   |   0.5 |  7.17
Comm    | 0.13518    | 0.15682    | 0.17488    |   2.1 | 33.89
Output  | 4.7829e-05 | 4.9295e-05 | 6.3532e-05 |   0.0 |  0.01
Modify  | 0.043322   | 0.047774   | 0.05144    |   1.1 | 10.32
Other   |            | 0.004324   |            |       |  0.93

Nlocal:        83.3333 ave          89 max          77 min
Histogram: 5 1 6 7 1 10 3 4 1 10
Nghost:        1639.79 ave        1660 max        1620 min
Histogram: 3 5 2 7 4 11 4 6 3 3
Neighs:        9516.81 ave       10520 max        8420 min
Histogram: 3 1 4 9 8 4 5 6 3 5

Total # of neighbors = 456807
Ave neighs/atom = 114.20175
Neighbor list builds = 144
Dangerous builds = 14

#############################
# L I N E A R  Q U E N C H  #
#############################

# Define solid atoms. This closely follows ten Wolde  Ruiz-Montero and Frenkel  Faraday Discuss  1996  104  93-110
# Compute components of the per-atom q6 vector
compute q6 all orientorder/atom degrees 1 6 components 6 nnn NULL cutoff 1.3 # compute the Q6 parameter.
                                                                             # Use all neighbours within 1.3 unit cell.

# get number of connections
compute coord_number all coord/atom orientorder q6 0.5

# An atom is solid if it has 8 or more connections (of a possible 14)
variable is_solid atom c_coord_number>=8
group solid dynamic all var is_solid    # Must be dynamic to update
dynamic group solid defined

# do clustering
compute cluster solid cluster/atom 1.3 # Create a cluster where all atoms within are solid and max 1.3 units from another member

# define chunks one chunk per cluster
compute clus_chunks solid chunk/atom c_cluster nchunk every compress yes  # Says which atoms are in which chunk

# count the size of each chunk
compute size_chunks solid property/chunk clus_chunks count


# Find the maximum entry in the vector of chunk sizes
variable max_n equal max(c_size_chunks)


# Thermo style which includes this variable
# thermo_style custom step temp pe vol v_max_n

thermo ${N}  # Print the thermo information every 100 steps
thermo 1000  

# Reset the npt fix at a lower temperature (below freezing)
fix 1  all npt temp  ${temp} ${temp}  0.1  iso  5.68  5.68  0.5  mtk yes tchain  5  pchain  5
fix 1  all npt temp  0.45 ${temp}  0.1  iso  5.68  5.68  0.5  mtk yes tchain  5  pchain  5
fix 1  all npt temp  0.45 0.45  0.1  iso  5.68  5.68  0.5  mtk yes tchain  5  pchain  5

dump dmp2 all dcd ${N} traj.dcd
dump dmp2 all dcd 1000 traj.dcd


compute msd all msd com yes
variable twopoint equal c_msd[4]/6/(step*dt+1.0e-6)
fix 9 all vector 10 c_msd[4]
variable fit equal slope(f_9)/6/(10*dt)
thermo_style custom step temp pe c_msd[4] v_twopoint v_fit v_max_n

fix 1 all npt temp 1.25 ${temp} 0.1 iso 5.68 5.68 0.5 mtk yes tchain 5 pchain 5
fix 1 all npt temp 1.25 0.45 0.1 iso 5.68 5.68 0.5 mtk yes tchain 5 pchain 5
run 500000 # 5000000  # Run for this many steps
Neighbor list info ...
  update every 1 steps, delay 10 steps, check yes
  max neighbors/atom: 2000, page size: 100000
  master list distance cutoff = 3.8
  ghost atom cutoff = 3.8
  binsize = 1.9, bins = 9 9 9
  4 neighbor lists, perpetual/occasional/extra = 1 3 0
  (1) pair lj/cut, perpetual
      attributes: half, newton on
      pair build: half/bin/atomonly/newton
      stencil: half/bin/3d
      bin: standard
  (2) compute orientorder/atom, occasional
      attributes: full, newton on
      pair build: full/bin/atomonly
      stencil: full/bin/3d
      bin: standard
  (3) compute coord/atom, occasional
      attributes: full, newton on
      pair build: full/bin/atomonly
      stencil: full/bin/3d
      bin: standard
  (4) compute cluster/atom, occasional
      attributes: full, newton on
      pair build: full/bin/atomonly
      stencil: full/bin/3d
      bin: standard
Per MPI rank memory allocation (min/avg/max) = 9.748 | 9.754 | 9.757 Mbytes
Step Temp PotEng c_msd[4] v_twopoint v_fit v_max_n 
   12000    1.2514451   -6.1402222 2.5728698e-30 1.7867151e-32 8.3333333e+20            1 
   13000    1.2548611   -6.1892139   0.56729935 0.0036365342  0.046545258            3 
   14000     1.232553   -6.1842054    1.0900302 0.0064882748  0.045126603            2 
   15000    1.2504089   -6.1765968    1.5766316 0.0087590644  0.043282502            7 
   16000      1.26251   -6.1692883     2.085394  0.010861427  0.042570567            8 
   17000    1.2316517   -6.1766577    2.6532026  0.013005895  0.043186963            2 
   18000     1.238888   -6.1579204    3.1955596  0.014794257  0.043523751            3 
   19000    1.2580233   -6.1948142    3.7203617  0.016317375  0.043736697            4 
   20000    1.2385124   -6.2024963    4.1886138  0.017452557  0.043546302            2 
   21000    1.2354932    -6.175366    4.7240944  0.018746406  0.043409385            3 
   22000    1.2331178   -6.1917539    5.2187019   0.01976781  0.043244371            2 
   23000    1.2283673   -6.2176417    5.7272744  0.020750994  0.043180448            2 
   24000    1.2334275    -6.241133     6.252917  0.021711517  0.043177038            3 
   25000    1.2273999   -6.1980594    6.7779696  0.022593231  0.043208463            3 
   26000     1.232765   -6.2391297    7.2257829   0.02315956  0.043108828            3 
   27000    1.2189385   -6.2056996    7.7053353  0.023781899  0.043000425            2 
   28000     1.232535   -6.2129605    8.2101439  0.024434952  0.042800392            2 
   29000    1.2063653   -6.2616197    8.6960125  0.024988541  0.042672062            2 
   30000    1.2196964   -6.2189709     9.241414  0.025670594  0.042571077            3 
   31000    1.2521098   -6.2816145    9.8339834  0.026435439  0.042594893            3 
   32000    1.2095245   -6.2229592    10.488651  0.027314195  0.042728107            2 
   33000    1.1963402   -6.2479527    11.011952  0.027807959  0.042901467            2 
   34000    1.1891004   -6.2683904    11.478514  0.028133613  0.043021641            4 
   35000    1.2302062   -6.2322084    12.134388    0.0288914  0.043148167            2 
   36000    1.1932091   -6.2442322    12.674642  0.029339448  0.043313171            2 
   37000    1.2342007   -6.2459286    13.258867  0.029862313  0.043465109            3 
   38000    1.1887417    -6.249794      13.7273  0.030103728  0.043617092            3 
   39000     1.218414    -6.264015    14.094639  0.030116749  0.043638961            2 
   40000    1.1966022   -6.2523827    14.496267  0.030200556  0.043584372            2 
   41000    1.1871183   -6.2366173    15.024952   0.03053852  0.043493276            2 
   42000    1.2041221   -6.2575229    15.538207  0.030829775  0.043426411            4 
   43000    1.2000327   -6.2213239    16.005305  0.031018032  0.043362039            3 
   44000    1.2106621   -6.2882001    16.448199  0.031151892  0.043269247            4 
   45000    1.2231373   -6.3125762    16.741093  0.031002024   0.04315123            4 
   46000    1.2067123   -6.2957439    17.228389   0.03121085  0.042993786            5 
   47000    1.1715657   -6.3060392    17.664751   0.03132048  0.042818559            3 
   48000    1.2002722   -6.2792201    18.188884  0.031577923  0.042674176            4 
   49000     1.205854   -6.2898175    18.820998  0.032008499  0.042565437            2 
   50000    1.2368295   -6.2995539    19.367733  0.032279554  0.042475097            2 
   51000    1.1765956   -6.2820094    19.768111  0.032300835  0.042397831            3 
   52000    1.1676805   -6.2900573    20.251759  0.032454741  0.042307685            2 
   53000    1.1822799   -6.2919246    20.610748  0.032406837  0.042226602            2 
   54000    1.1963222   -6.2778907    21.090195  0.032546597  0.042122915            3 
   55000    1.1845275   -6.2862859    21.605369  0.032735408  0.042016994            7 
   56000    1.1778574   -6.3153951    22.062053  0.032830435  0.041921144            4 
   57000    1.1887235   -6.2649993     22.64269  0.033103347  0.041850742            2 
   58000    1.1624906   -6.2984421     23.10451  0.033196135  0.041796713            1 
   59000    1.1968113   -6.2789582    23.715512  0.033496486  0.041737126            2 
   60000    1.1435343   -6.3743712    24.071912  0.033433211  0.041693434            1 
   61000    1.1744941   -6.3128261    24.557326   0.03354826  0.041648932            3 
   62000    1.1606012   -6.3212023    25.110638  0.033750858  0.041607052            3 
   63000    1.1582042   -6.3487825    25.553567  0.033801014  0.041568718            2 
   64000    1.1419587   -6.3296443    25.843983  0.033651019  0.041522917            3 
   65000    1.1414249   -6.3750959    26.316235  0.033738762  0.041454903            3 
   66000    1.1593561   -6.3005937    26.898511  0.033962766  0.041399977            2 
   67000    1.1632911    -6.339464    27.316886  0.033976226  0.041345642            4 
   68000    1.1609354   -6.3255519    28.054104   0.03438003  0.041317181            2 
   69000    1.1476858   -6.3696294     28.29468  0.034172319  0.041287619            2 
   70000    1.1491067   -6.3286628    28.622042  0.034073859  0.041231093            3 
   71000    1.1477137   -6.3500225    29.079581  0.034130964  0.041173998            4 
   72000    1.1732345   -6.3198061    29.702669  0.034378089  0.041119004            2 
   73000    1.1652226   -6.3298374    30.162285  0.034431832  0.041079296            1 
   74000    1.1130369   -6.3572573    30.615165  0.034476537  0.041042365            8 
   75000    1.1305195   -6.3426849    31.313555  0.034792839  0.041015669            1 
   76000    1.1522809   -6.3773134    31.679877  0.034736707  0.040991081            5 
   77000    1.1696987   -6.3303499    32.113735  0.034755124  0.040962259            2 
   78000    1.1248028   -6.3376179    32.404476  0.034620167  0.040904853            2 
   79000    1.1241554   -6.3745639    32.740048  0.034535915   0.04084086            2 
   80000    1.1428626   -6.3783371    33.102626  0.034481902  0.040776889            4 
   81000    1.1690899    -6.350432    33.402615   0.03436483  0.040706392            2 
   82000     1.118345   -6.4019039    33.785916   0.03433528   0.04062336            4 
   83000      1.12176   -6.3881661    34.068657  0.034205479  0.040534751            2 
   84000    1.1398176    -6.325926     34.68978  0.034414465  0.040441718            2 
   85000    1.1336218   -6.4083591     34.76588  0.034084196    0.0403407            2 
   86000    1.1035628   -6.3884468    35.182759  0.034091821  0.040235128            1 
   87000    1.1201266   -6.4005681    35.736925  0.034230771  0.040135498            4 
   88000    1.1298498   -6.4081079    36.137251  0.034220881  0.040037215            3 
   89000    1.1560341   -6.4119856    36.289738  0.033979155  0.039925363            4 
   90000     1.101633   -6.3737748    36.681762  0.033964595  0.039808055            3 
   91000    1.1082859   -6.3553326    37.094287  0.033969127  0.039691327            3 
   92000    1.1116243   -6.4087418    37.455138  0.033926755    0.0395837            3 
   93000    1.1320108   -6.3817304    37.899215   0.03395987   0.03947676            3 
   94000    1.1459354   -6.4197056     38.22705  0.033889228  0.039365338            3 
   95000     1.107501   -6.3943546    38.734548  0.033977674  0.039258677            3 
   96000    1.1138001   -6.4155633     39.11111  0.033950616  0.039154915            4 
   97000    1.1201329   -6.4488498    39.446884  0.033889076   0.03905748            2 
   98000     1.089081   -6.4239435    39.978473    0.0339953  0.038968172            2 
   99000    1.1141938   -6.4111669    40.349893  0.033964556  0.038883136            5 
  100000    1.1347621   -6.4038615    40.999568  0.034166306  0.038808777            5 
  101000    1.1033791   -6.4489108    41.328483  0.034099408  0.038735348           10 
  102000    1.1030127   -6.4329772    41.621302  0.034004331   0.03866142            2 
  103000    1.0916706   -6.4569675    41.897749  0.033897855  0.038578539            2 
  104000    1.1022222   -6.4693409    42.158628  0.033780951  0.038498187            3 
  105000    1.0996354   -6.4939436    42.661429  0.033858276  0.038410639            4 
  106000    1.1168516   -6.4405866    43.021136  0.033821648  0.038327695            8 
  107000    1.1355446   -6.4712525    43.214027  0.033655784  0.038238949            2 
  108000     1.079224    -6.431166    43.822373  0.033813559  0.038154994            3 
  109000    1.1131256   -6.4149504    44.253243  0.033832755  0.038075494            2 
  110000    1.0914619   -6.4630921    44.405663  0.033640653  0.037988477            2 
  111000    1.0975238   -6.4582469    44.749536  0.033595748  0.037898687            6 
  112000    1.0868712   -6.4542513    45.260402  0.033675895  0.037813269            3 
  113000    1.1116745   -6.4644929    45.572239  0.033607845  0.037733229            4 
  114000    1.0915732   -6.4975081    45.945837  0.033586138  0.037653477            6 
  115000    1.0962804   -6.4636907     46.39982  0.033623058  0.037573138            2 
  116000    1.0937142   -6.4766643    46.509989  0.033412349  0.037490732            4 
  117000    1.0813491   -6.4940912    46.820374  0.033347844  0.037403594            5 
  118000    1.0852282   -6.5172747    47.271526  0.033383846  0.037314423            3 
  119000    1.0756764   -6.5069552     47.41657  0.033204881  0.037227536            5 
  120000    1.0690529   -6.4789536    47.845953  0.033226356  0.037139433            4 
  121000    1.0894615   -6.5091475    48.189895  0.033188633  0.037049647            3 
  122000    1.0831209   -6.5067168    48.320446  0.033005769  0.036960925            4 
  123000    1.0559111   -6.4914021    48.535497  0.032883128   0.03686506            2 
  124000     1.058475   -6.4823271    48.989266  0.032922894  0.036767347            6 
  125000    1.0638695    -6.501449     49.18574  0.032790493  0.036674045            3 
  126000    1.0593743   -6.5349173    49.560389  0.032778035  0.036580327            4 
  127000    1.0897751   -6.4775052     50.29713  0.033003366  0.036491914            4 
  128000    1.0800133   -6.4841035    50.331353  0.032767808  0.036404396           12 
  129000    1.0779364   -6.4994784    50.683942  0.032741564  0.036317305            4 
  130000    1.0602102     -6.54989    51.202125  0.032821875  0.036232372            7 
  131000    1.0608872   -6.5331004    51.550058  0.032792658  0.036149949            3 
  132000    1.0463491   -6.5075567    51.744898  0.032667234  0.036066087            3 
  133000    1.0558136   -6.5416398    51.960143  0.032556481  0.035979189            3 
  134000    1.0673092   -6.5141514    52.316252  0.032534982  0.035893865            3 
  135000    1.0393376   -6.5121975    52.794352  0.032589106  0.035807583            3 
  136000    1.0300097    -6.561106    52.907628   0.03241889   0.03572427            3 
  137000    1.0570618   -6.5478666    53.360648  0.032457815  0.035642375            3 
  138000    1.0451167    -6.590212    53.786873  0.032479996  0.035563435            3 
  139000    1.0281813   -6.5468923    54.105788  0.032437523  0.035485815            2 
  140000    1.0476497   -6.5676771    54.413194  0.032388806  0.035407141            3 
  141000    1.0340032   -6.5359222    54.783763  0.032378111  0.035326072            4 
  142000    1.0274118   -6.5264219    54.925485  0.032233266  0.035245555            2 
  143000     1.047302   -6.5664756    55.145494  0.032136068  0.035162142            3 
  144000    1.0620823   -6.5559585    55.521423  0.032130453  0.035078932            7 
  145000    1.0232603   -6.5812157    55.819566   0.03208021  0.034997302            3 
  146000    1.0276781   -6.5747228     56.07669  0.032007243  0.034915648            3 
  147000     1.060843   -6.5894693    56.196322  0.031857325  0.034830986            6 
  148000    1.0376185   -6.5268029    56.560498  0.031847127  0.034745635            8 
  149000    1.0219321   -6.5876091    56.765669  0.031748137  0.034662199            5 
  150000    1.0450975   -6.5766682    57.000664  0.031667035  0.034578477            4 
  151000    1.0301477   -6.5841865    57.306245  0.031625963  0.034491861            2 
  152000    1.0072967   -6.5819465     57.62226  0.031591151  0.034408217            3 
  153000    1.0056777     -6.58097    58.017633  0.031600018  0.034325363            3 
  154000    1.0179255     -6.58598    58.319825  0.031558347  0.034245195            4 
  155000    1.0031073   -6.5829132    58.659679  0.031537462  0.034165709            4 
  156000     1.002955   -6.5915585      59.0056  0.031520085  0.034088172           12 
  157000    1.0216159   -6.5982688    59.312122  0.031482018   0.03401062            5 
  158000    1.0006522   -6.6080793    59.537496  0.031401633  0.033932414            3 
  159000    1.0356365   -6.6420843    59.694848  0.031286608   0.03385299            6 
  160000    1.0098235   -6.6098758    60.182468  0.031345035  0.033773853            6 
  161000    1.0006923   -6.6209189    60.580566  0.031356401  0.033701732            3 
  162000    1.0244921    -6.625085    60.883242   0.03131854  0.033630478            5 
  163000    1.0132336   -6.6237739    61.231236  0.031304313  0.033561248            5 
  164000    1.0143116   -6.6331187    61.495239  0.031247581  0.033491742            7 
  165000    1.0166747    -6.609053    61.696083  0.031159638   0.03342278            4 
  166000   0.99787172   -6.5954425    62.235195  0.031242567  0.033354183            4 
  167000   0.99756802   -6.6458195     62.40197  0.031138707  0.033287511            3 
  168000    1.0222194   -6.6283716    62.665639  0.031084146  0.033220187            3 
  169000   0.99848688   -6.6394836    63.076736  0.031102927  0.033154927            3 
  170000   0.98289137   -6.6744843    63.541643  0.031147864  0.033090548            3 
  171000    1.0034562   -6.6571184    63.582802  0.030985771  0.033025056            6 
  172000    1.0044003   -6.6504662    64.059173  0.031036421  0.032959939            4 
  173000   0.98957718   -6.6910345    64.229573  0.030939101  0.032897531            3 
  174000    0.9792446   -6.6453165    64.416229  0.030850685   0.03283405            3 
  175000    1.0028436   -6.6312174    65.052015   0.03097715  0.032773645            4 
  176000   0.99321093   -6.6608785    65.178259  0.030860918     0.032713            3 
  177000   0.99336082   -6.6343505     65.39423  0.030788244   0.03264955            4 
  178000   0.99090302   -6.7128813    65.485289  0.030657907  0.032585136            9 
  179000   0.98523049   -6.6588155    65.838383  0.030651016  0.032521163            2 
  180000   0.97412124   -6.6964754    66.246913  0.030669867  0.032459021           13 
  181000   0.97542311    -6.684742    66.499631  0.030616773  0.032395901           11 
  182000   0.98835854   -6.6920838    66.650463  0.030517611   0.03233388            7 
  183000   0.95119735   -6.6484428    67.098463  0.030554856  0.032271526            3 
  184000   0.99525013   -6.6789289    67.291633  0.030476283  0.032210615            6 
  185000   0.95550513   -6.6967957    67.710645  0.030500291  0.032148289            4 
  186000   0.97643216   -6.6811774    67.925625  0.030432628  0.032088653            5 
  187000   0.98256563   -6.6811995    68.204496  0.030394161  0.032028224            4 
  188000   0.96840999   -6.6953509    68.571197  0.030395034  0.031967985            2 
  189000    0.9641936   -6.7084872    68.565178   0.03023156  0.031908174            6 
  190000   0.98071633   -6.7023562    68.563522   0.03007172   0.03184525            4 
  191000   0.95742162   -6.6809841    68.860984  0.030044059  0.031781344            4 
  192000   0.96442078   -6.7055615    69.185803   0.03002856  0.031716645           10 
  193000   0.94759149   -6.7125772    69.296665   0.02992084  0.031651461            8 
  194000   0.96624486   -6.7437845    69.242394  0.029743296  0.031584601            4 
  195000   0.96144182   -6.7273485    69.416223  0.029665052  0.031514923            3 
  196000   0.93646516   -6.7350965    69.896277  0.029717805  0.031445592            3 
  197000   0.94188882    -6.734313    69.956376  0.029592376  0.031376493            3 
  198000   0.96846937   -6.7363397    70.275204  0.029577106  0.031306311            4 
  199000   0.96844361   -6.6963804    70.450522  0.029501894  0.031236626            5 
  200000   0.95397435   -6.7743431    70.543652  0.029393188  0.031166488            6 
  201000   0.93606251   -6.7500633    70.601611  0.029270983  0.031095818            6 
  202000   0.94954867   -6.7535017    70.842159  0.029225313  0.031025564            6 
  203000   0.94657532   -6.7272545    71.326714   0.02928026  0.030953814            8 
  204000   0.94816772   -6.7347155    71.262676   0.02911057  0.030882079            4 
  205000   0.94019067   -6.7402845    71.021217  0.028870413  0.030808019            4 
  206000   0.94299554   -6.7671482    71.266851  0.028829632  0.030732278            4 
  207000   0.95993474    -6.780574    71.678516  0.028856085  0.030655742            3 
  208000   0.94619322   -6.7429768    71.987206  0.028841028   0.03057963            8 
  209000   0.93305721   -6.7433831    71.893775   0.02866578   0.03050436            6 
  210000    0.9343875   -6.7595794    71.891552  0.028528393  0.030427523            7 
  211000   0.93478469   -6.7251326    72.112615  0.028480496  0.030350627            3 
  212000    0.9309349   -6.7519544    72.549845  0.028518021  0.030274886            9 
  213000   0.93990406   -6.7834145    72.611569  0.028408282  0.030199063            4 
  214000   0.91895555   -6.7768166    72.861849  0.028372994  0.030123095            5 
  215000   0.90941728   -6.7840862    73.151327  0.028353227  0.030047769            7 
  216000   0.91262972   -6.7701572    73.382013  0.028310962  0.029971951            5 
  217000   0.93546243   -6.8090876    73.315056  0.028154783  0.029897691            7 
  218000   0.94011424     -6.79604    73.661296  0.028157988  0.029822368            8 
  219000   0.92901697   -6.7822731    73.789086  0.028078039  0.029746118           10 
  220000   0.91515791   -6.7760765    73.825938   0.02796437  0.029671291            9 
  221000   0.92094716   -6.8064886    73.887573  0.027861076  0.029596663            4 
  222000   0.91711732    -6.791591    74.435048  0.027941084  0.029522014            4 
  223000   0.91441565   -6.8163684    74.240796  0.027743197  0.029446587            5 
  224000   0.90838072   -6.8331594    74.635759  0.027766279  0.029372326            6 
  225000   0.90752872   -6.8154591    74.908561  0.027743911   0.02929828            6 
  226000   0.90733862   -6.8191215    74.984834  0.027649275  0.029223627            6 
  227000   0.89927989   -6.8208186     75.29592  0.027641674  0.029149044           11 
  228000   0.90032824   -6.8195565    75.386205  0.027553437  0.029075068            5 
  229000   0.88371837   -6.8690958    75.044575  0.027308797  0.028998844            6 
  230000   0.89630379   -6.8251818    75.387268  0.027314228  0.028921425            4 
  231000   0.88680447   -6.8809191    75.456782  0.027221061  0.028844836            5 
  232000   0.89035014    -6.832662    75.588683  0.027151107   0.02876704            4 
  233000   0.91143367   -6.8274718    75.508091  0.027005755  0.028689151            7 
  234000   0.88859046   -6.8514717    75.651633  0.026941465  0.028610895           11 
  235000   0.88184479   -6.8581819    75.947526  0.026931747  0.028532399            5 
  236000   0.89482947   -6.8464219    76.019145  0.026842918  0.028454262            7 
  237000   0.88621243   -6.8528641    76.372893  0.026854041  0.028376315            6 
  238000   0.90325812   -6.8288853    76.687495  0.026851364  0.028299763            4 
  239000   0.90267586   -6.8476049    76.760556  0.026764489  0.028223584           13 
  240000   0.88556772   -6.8539974    76.951528  0.026719281  0.028147353            8 
  241000   0.90096044   -6.8467593    77.057963  0.026645215  0.028071762            4 
  242000   0.89553888    -6.884042    77.043848  0.026530251  0.027996088            7 
  243000   0.87694761    -6.878853    77.261552  0.026495731  0.027920049            3 
  244000   0.88272527   -6.8244225    77.406669  0.026436704  0.027844489            5 
  245000   0.86713963   -6.8704221    77.675482  0.026420232  0.027769351            3 
  246000   0.88789804   -6.9015419    77.649886  0.026304162  0.027693606            4 
  247000   0.86907958   -6.8776371     77.74167  0.026228634  0.027617611            9 
  248000   0.84719369   -6.8869257    77.821202  0.026149597  0.027541578            6 
  249000   0.87929717   -6.9009317    77.944545  0.026085858  0.027464696            7 
  250000   0.86024965   -6.8754409    77.814244  0.025938081  0.027387179           14 
  251000   0.88100963     -6.90502    77.907123  0.025865579   0.02731017            5 
  252000   0.87246484   -6.8816385    78.080646   0.02582032  0.027233162           11 
  253000   0.86166429   -6.9186752    78.295152  0.025788917  0.027156891           11 
  254000   0.84886968   -6.9029783    78.483101  0.025749049  0.027081307            8 
  255000   0.86777425   -6.9375104    78.534683  0.025664929  0.027005266            8 
  256000   0.84193744   -6.9458671    78.538265  0.025565841  0.026928617            7 
  257000   0.85506373   -6.9386441     78.80373  0.025552441     0.026852           10 
  258000   0.85909932   -6.8935449    78.959933  0.025503854  0.026775424            5 
  259000    0.8738827   -6.9092707    79.048642  0.025433926  0.026699429            5 
  260000   0.86354853   -6.9031341    78.895184  0.025286918  0.026623177            4 
  261000     0.831973   -6.9383236    79.075286  0.025247537  0.026545541            5 
  262000   0.85444638   -6.9352613    79.125236   0.02516706  0.026468382            9 
  263000    0.8606605   -6.9273302    79.012631  0.025035688  0.026390865           11 
  264000   0.84837575   -6.9565445    79.165897  0.024989235  0.026312801            5 
  265000   0.84576172    -6.935857    79.195313  0.024904186   0.02623513            8 
  266000   0.83979957   -6.9174131    79.423539  0.024882061  0.026157599            9 
  267000   0.83598819   -6.9492734    79.432421  0.024791642  0.026080286           11 
  268000   0.84660651   -6.9487165    79.559701  0.024738713  0.026003629            6 
  269000    0.8274786   -6.9549347    79.747592  0.024704954  0.025926748            6 
  270000   0.83546929    -6.990795    79.752908  0.024615095  0.025849947            5 
  271000   0.81377099    -6.980049    80.030904  0.024609749  0.025773047            6 
  272000   0.84229166   -6.9590159    80.201742  0.024571612  0.025696939            7 
  273000   0.82923036   -6.9349585    80.229893  0.024490199  0.025621146            7 
  274000   0.82143273   -6.9852801     80.21086   0.02439503   0.02554612           10 
  275000   0.81066158    -6.978721    80.381351  0.024357985  0.025470878           11 
  276000   0.83486729   -6.9782234     80.41445  0.024279725  0.025396482            6 
  277000    0.8241713   -6.9927458    80.786698  0.024304061  0.025322826            9 
  278000   0.82889121   -6.9988006    80.885866  0.024246363  0.025250168            7 
  279000   0.82933094   -6.9836005    80.885377  0.024159312  0.025177307           10 
  280000   0.80997858   -6.9885951    80.881464  0.024071864  0.025104436            8 
  281000   0.82311523   -7.0060416    81.325459   0.02411787  0.025032145            6 
  282000   0.82094489   -7.0167824    81.413197  0.024058273   0.02496037           15 
  283000   0.82120828   -7.0067201    81.423401  0.023976266   0.02488862            8 
  284000   0.81611508   -6.9614737     81.37829  0.023878606  0.024817604            8 
  285000   0.82100622   -7.0245214    81.578341  0.023853316  0.024746459           11 
  286000    0.8020238   -7.0174084    81.747494    0.0238192    0.0246765            5 
  287000   0.83067146   -7.0336148    81.857066  0.023768022  0.024605724            8 
  288000   0.81832386   -7.0093404    81.933455  0.023707597  0.024535243            5 
  289000    0.8179649   -6.9989449    82.300739   0.02373147  0.024465461            8 
  290000   0.79855417   -7.0128068    82.433011  0.023687647  0.024396539            4 
  291000   0.80312853   -7.0201802    82.570077  0.023645497  0.024328138            4 
  292000   0.81767237   -7.0314251    82.585166  0.023568826  0.024260121            6 
  293000   0.79204365   -7.0333559    82.565097  0.023482678  0.024192114            5 
  294000   0.81123931    -7.045689    82.518505  0.023389599   0.02412362            7 
  295000   0.79130501    -7.056784    82.567334  0.023324106  0.024055283           11 
  296000   0.79107381   -7.0412245    82.683631  0.023278049  0.023987165            9 
  297000   0.79005615   -7.0208864    82.859753  0.023249089  0.023919204            5 
  298000   0.79515856   -7.0262425    82.766553  0.023145009  0.023851198           11 
  299000    0.8133477   -7.0521615    82.900484  0.023104929   0.02378281           13 
  300000   0.79471935   -7.0534059    82.908219  0.023030061  0.023714895            6 
  301000   0.81258177   -7.0670934    83.120265  0.023012255  0.023647377            5 
  302000   0.79629146   -7.0638574    83.192913  0.022956102  0.023579643           10 
  303000   0.76018628   -7.0805984    83.268314  0.022901076  0.023511768            8 
  304000   0.76476471   -7.0598607    83.381111  0.022856664  0.023444357            7 
  305000   0.76173063   -7.0839406    83.272455  0.022752037  0.023376669            7 
  306000   0.77989613   -7.0984824    83.202173  0.022658544  0.023309166            8 
  307000   0.77807963   -7.0928273    83.229353  0.022592115  0.023241711            7 
  308000   0.76497918    -7.081484     83.52077  0.022597611  0.023174589            5 
  309000   0.77633624   -7.0979352    83.420236  0.022497367  0.023107107           10 
  310000   0.77278586   -7.1183439    83.533779  0.022455317  0.023039485           14 
  311000   0.78592702   -7.0832033    83.528845  0.022381791  0.022972331           14 
  312000   0.76508243   -7.1054089    83.539265  0.022312838  0.022905006           13 
  313000   0.76424543   -7.1033716    83.570959  0.022249989  0.022837911            6 
  314000   0.78231828   -7.1099235    83.742783   0.02222473   0.02277123            9 
  315000   0.77984207    -7.104431    83.766279  0.022160391  0.022704598            9 
  316000   0.76435241   -7.1025466    83.810156  0.022101834  0.022638152            9 
  317000   0.76882074   -7.1156682    83.884671  0.022051701  0.022571707            9 
  318000   0.76872125   -7.0973691    84.054931  0.022026974   0.02250515            6 
  319000     0.760515   -7.1202153    83.922839  0.021923417  0.022438642            7 
  320000   0.74667303   -7.0913841    83.889232  0.021846154  0.022371875           15 
  321000   0.75056146   -7.1576218    83.882249  0.021776285  0.022305018            9 
  322000   0.75956298   -7.1449653    84.112458  0.021768234   0.02223828            8 
  323000   0.75959422   -7.1472843    83.999887  0.021671797  0.022171825            4 
  324000   0.75524126   -7.1395449    84.102722  0.021631359  0.022105267           10 
  325000    0.7480623   -7.1340248    84.006185  0.021540047  0.022039042            7 
  326000    0.7418199   -7.1100134    84.276917  0.021543179  0.021972991           18 
  327000   0.73490113   -7.1469466    84.051283  0.021419797  0.021907104           27 
  328000   0.73955039   -7.1616936    84.228806  0.021399595  0.021841203           10 
  329000   0.74715996   -7.1333321    84.205507  0.021328649  0.021775628           13 
  330000   0.73898981   -7.1775288    84.336636   0.02129713  0.021709959           11 
  331000   0.74385924   -7.1503514    84.376167  0.021242741  0.021644915           22 
  332000   0.74880213   -7.1834071    84.493855  0.021208297  0.021580033            6 
  333000    0.7418444     -7.17007    84.468293  0.021138211   0.02151508           21 
  334000   0.71981201   -7.1805831    84.567065  0.021099567  0.021450144           13 
  335000   0.74859097   -7.1884474    84.498379  0.021019497  0.021385552           17 
  336000     0.729365   -7.1875985    84.498264  0.020956911  0.021321131           11 
  337000   0.71953204   -7.1862826    84.398852  0.020870141  0.021256598           29 
  338000   0.70394001   -7.1844449    84.534116  0.020841745  0.021192098           17 
  339000   0.73475675   -7.1825081    84.435134  0.020755933  0.021127612           14 
  340000   0.71221608   -7.1936603     84.67838  0.020754505  0.021063511           11 
  341000    0.7218776   -7.1949612    84.540282  0.020659893  0.020999406            5 
  342000   0.71506018   -7.1812048    84.805921  0.020664211  0.020935298           16 
  343000   0.72205797   -7.2130588    84.887189   0.02062371  0.020871617           30 
  344000   0.72263666   -7.2116832    84.748565  0.020530176  0.020808118           12 
  345000   0.71383033   -7.2347538    84.875709  0.020501379  0.020744936           13 
  346000    0.7063296    -7.197566    84.956432  0.020461568  0.020682196           23 
  347000   0.71358519    -7.212541    85.067504  0.020429276  0.020619672            9 
  348000   0.70519431   -7.2286947    84.980237  0.020349674   0.02055733           11 
  349000   0.72917082   -7.2257211    85.079345   0.02031503  0.020494974           11 
  350000   0.71543498   -7.2260664       84.879  0.020209286  0.020432713           19 
  351000   0.69696058   -7.2493731    85.032787  0.020188221  0.020370312           10 
  352000   0.70024656   -7.2466027      84.9709  0.020116217  0.020307907           12 
  353000   0.68892221   -7.2178821    84.869243  0.020035232   0.02024568            7 
  354000   0.69804177   -7.2375206    85.120141  0.020037698  0.020183796            7 
  355000   0.69224841   -7.2608833    85.146007  0.019987326  0.020121589           11 
  356000   0.70435235   -7.2323017    85.240383  0.019953273   0.02005944           28 
  357000   0.69408384   -7.2367768    85.127506  0.019871033  0.019997653           22 
  358000   0.70379339    -7.278394    85.236967  0.019841007  0.019936241           11 
  359000   0.69861136    -7.248583    85.027994  0.019737232  0.019874998           16 
  360000   0.68199324   -7.2419409    85.150147  0.019710682  0.019813668           16 
  361000   0.67364787   -7.2662764    85.090858  0.019642396  0.019752775           14 
  362000   0.68339831   -7.2577275    85.281605  0.019632045  0.019692063           14 
  363000   0.69599684   -7.2585768    85.299368   0.01958204  0.019631412           19 
  364000   0.69190529   -7.2691297    85.404174  0.019552238  0.019571219           13 
  365000   0.68338769   -7.2913303    85.276679  0.019469561   0.01951074           25 
  366000   0.68165934   -7.3168411    85.430032  0.019451282   0.01945075           23 
  367000   0.66160573   -7.2707911    85.410592  0.019393867  0.019391068           11 
  368000   0.67413205   -7.2982261    85.441101  0.019348075  0.019331387           15 
  369000   0.68667441   -7.2826551    85.664619   0.01934612  0.019272244           16 
  370000   0.69323496   -7.3183045    85.765213  0.019316489  0.019213652           19 
  371000   0.67414356   -7.3061454    85.650683  0.019238698  0.019155389           28 
  372000   0.66441286   -7.2920109    85.723185  0.019203222  0.019097025           29 
  373000   0.66542788   -7.2910741    85.697896  0.019146089  0.019038926           14 
  374000   0.67685094   -7.2941312       85.546  0.019061052  0.018980551           24 
  375000   0.67579328   -7.3391704    85.625199  0.019027822  0.018922419           15 
  376000   0.67549512   -7.3266222    85.795902  0.019015049  0.018864436            9 
  377000   0.66965742   -7.3207364    85.590474  0.018919203  0.018806368           16 
  378000   0.66458375   -7.3112863    85.685587  0.018890121  0.018748813           10 
  379000   0.65483984   -7.3284676    85.609411  0.018823529  0.018691196           14 
  380000   0.65231716   -7.2999685    85.798427  0.018815444  0.018633892            9 
  381000   0.66614335   -7.3214359    85.652629  0.018734171  0.018576516           11 
  382000   0.67350816   -7.3170191    85.576469  0.018668514  0.018519155           15 
  383000   0.66353549   -7.3353371    85.602366  0.018625406   0.01846182           13 
  384000   0.65013961   -7.3392255    85.674925  0.018592649  0.018404816           27 
  385000   0.64611075   -7.3582224    85.869994  0.018586579  0.018348069            8 
  386000   0.64936042   -7.3464174    85.698598  0.018501424   0.01829145           14 
  387000   0.66125919   -7.3322189    85.768493  0.018468668  0.018235178           11 
  388000   0.64182698   -7.3443035    85.697551  0.018405831  0.018179003           11 
  389000   0.64603721   -7.3268145    85.881377  0.018397896  0.018123083           13 
  390000   0.64114674   -7.3530938    86.054565  0.018387727  0.018067724           18 
  391000   0.63651723   -7.3328735     85.94268  0.018316854  0.018012514            9 
  392000   0.63397397   -7.3466656    86.357199  0.018358248  0.017957672           13 
  393000   0.64145193   -7.3778629    85.852691  0.018204557  0.017902974           24 
  394000   0.63366584     -7.36183    86.048491  0.018199765  0.017848282           19 
  395000   0.63610266   -7.3753946    85.965963  0.018136279  0.017793874           26 
  396000   0.64496424   -7.3836937    86.125876  0.018124132  0.017739656           17 
  397000   0.61803478   -7.3594451    86.207977  0.018095713  0.017685486            8 
  398000   0.62030881   -7.3722072    86.243233  0.018057628    0.0176315           33 
  399000   0.62772339    -7.380263    86.071593  0.017976523   0.01757764           34 
  400000   0.63045418   -7.3895987    85.995402  0.017915709  0.017524144           59 
  401000   0.62815634    -7.394102    86.074075   0.01788738  0.017470559           47 
  402000   0.61353907   -7.4003666    86.123829  0.017853198  0.017417102           71 
  403000   0.62064865   -7.4075552    85.941013  0.017771095  0.017363684           27 
  404000   0.61747932   -7.4071964    86.061638  0.017751988  0.017310205           16 
  405000   0.62102753   -7.3923084    85.959671  0.017687175  0.017256945           19 
  406000    0.6261697    -7.405431    85.927231  0.017636952  0.017203933           29 
  407000   0.61733675   -7.4171545    86.031203  0.017614906  0.017150941           37 
  408000   0.62064475   -7.4150978    85.983128  0.017561913  0.017097884           47 
  409000   0.61842886   -7.4283154    86.061269  0.017534896  0.017044999           22 
  410000   0.61704298   -7.4255195    86.072213  0.017494352  0.016992441           27 
  411000   0.60402115   -7.4414454    85.955526  0.017428128  0.016939848           17 
  412000   0.63189156    -7.444902    85.898442   0.01737428  0.016887522           28 
  413000   0.61483258   -7.4280308    85.905423  0.017333621  0.016835351           25 
  414000   0.60402992   -7.4617566    85.920621  0.017294811   0.01678293           15 
  415000   0.61006344   -7.4505998    85.711583  0.017211161  0.016730826           22 
  416000   0.60754246   -7.4588323    85.769485  0.017181387  0.016678743           31 
  417000   0.58064212   -7.4336602    85.823875  0.017151054  0.016626897           26 
  418000   0.62155658   -7.4323549    85.832445  0.017111732  0.016575276           20 
  419000   0.59628384   -7.4568651    85.720008   0.01704853  0.016523739           57 
  420000   0.60037213   -7.4570431    85.924285  0.017048469  0.016472426           31 
  421000   0.59430774   -7.4332976    85.681473  0.016959912  0.016421234           31 
  422000   0.59543886   -7.4610277    85.852559  0.016953507  0.016370092           18 
  423000   0.59196244    -7.460716     86.00461  0.016943383  0.016319326           31 
  424000   0.59239302   -7.4822907    85.988446  0.016900245  0.016268628           18 
  425000   0.59426867    -7.485948    85.835279  0.016830447  0.016218156           21 
  426000   0.57517266   -7.4631004    85.949044  0.016813193  0.016167838           20 
  427000   0.59992556   -7.4758895     85.88802  0.016761909  0.016117534           39 
  428000   0.58021224   -7.4970485    85.724297  0.016690868  0.016067371           30 
  429000    0.5802552   -7.5010749    85.842271  0.016674878  0.016017231           20 
  430000   0.58022977   -7.5100212    85.802904   0.01662847   0.01596727           31 
  431000   0.57291553   -7.4974801    85.801058  0.016589532  0.015917409           43 
  432000    0.5839544   -7.4883246    85.797809  0.016550503  0.015867777           40 
  433000   0.56961376   -7.4913718    85.876759  0.016527475  0.015818444           66 
  434000   0.57728757   -7.4894119    85.813882   0.01647732   0.01576932           41 
  435000   0.56066947   -7.5079673    85.764807   0.01643004  0.015720299           37 
  436000   0.57546099   -7.4770716    85.613867  0.016363507  0.015671397           23 
  437000   0.56223142   -7.5086199    85.765923  0.016355058  0.015622585           28 
  438000    0.5705335   -7.5093873    85.848094  0.016333351  0.015573873           89 
  439000   0.55545324   -7.5252296    85.656801  0.016259833  0.015525413           74 
  440000    0.5626412   -7.5261095    85.857076   0.01626081  0.015477118           48 
  441000    0.5751469   -7.5332873    85.729521  0.016199834  0.015428882           96 
  442000   0.56459013   -7.5221775    85.688312  0.016155413  0.015380792           90 
  443000   0.56662117   -7.5210467    85.671197  0.016115726  0.015332819           39 
  444000   0.56514222   -7.5324003     85.47263   0.01604216     0.015285          117 
  445000   0.55165398   -7.5451669    85.660234  0.016041242  0.015237236           82 
  446000   0.55413519   -7.5408519    85.670236  0.016007144  0.015189625           77 
  447000   0.55793553    -7.544752    85.588356  0.015956069  0.015142233           73 
  448000   0.55272608   -7.5661327    85.663961  0.015934517  0.015095004          115 
  449000    0.5445046   -7.5342951    85.536124  0.015875301    0.0150478           48 
  450000   0.54446018   -7.5315502    85.729603  0.015875852   0.01500074           23 
  451000   0.55271862   -7.5503486    85.454402  0.015789801  0.014953919          122 
  452000   0.53003255   -7.5321179    85.612304  0.015783979  0.014907173          146 
  453000   0.54204354   -7.5585817    85.610976  0.015748892  0.014860539           66 
  454000   0.54574541   -7.5547463    85.664812  0.015724084  0.014814153           63 
  455000   0.54132282   -7.5617608    85.546411  0.015667841  0.014767875           53 
  456000   0.54907216   -7.5745718     85.67906  0.015657723  0.014721804          137 
  457000   0.53443948   -7.5617914    85.480689  0.015587288  0.014675742          129 
  458000   0.53462445   -7.5593567    85.625309  0.015579569  0.014629832           88 
  459000    0.5263648   -7.5670111    85.515425  0.015525676  0.014584197          120 
  460000   0.53074836   -7.5850759    85.392664  0.015469685  0.014538641          124 
  461000   0.53357687   -7.5880175    85.496905  0.015454972  0.014493268           98 
  462000   0.53676046   -7.5903081    85.475219  0.015417608  0.014447984           86 
  463000   0.53673568   -7.5804264    85.484732  0.015386021  0.014402931          132 
  464000   0.53079563   -7.5784493    85.443173  0.015345397  0.014357937          156 
  465000   0.51699075   -7.5886623    85.356288  0.015296826  0.014313185          170 
  466000   0.51575033   -7.5869362    85.396835  0.015271251  0.014268607           61 
  467000   0.52316844   -7.5852782    85.533846  0.015262999  0.014224168          110 
  468000    0.5148205   -7.6086962    85.447501  0.015215011  0.014179861           70 
  469000   0.51773976   -7.5876253    85.502128  0.015192276  0.014135656          127 
  470000   0.50673964   -7.6125502    85.559699  0.015170159  0.014091652           67 
  471000   0.51202407   -7.6238343    85.402097  0.015110067  0.014047795          105 
  472000   0.52410858   -7.5993927    85.422666  0.015081685  0.014004063           86 
  473000   0.51038796   -7.6019163     85.43749  0.015052412  0.013960565          191 
  474000   0.51458911   -7.6101526    85.469625  0.015026305  0.013917286          109 
  475000   0.51182108    -7.619947    85.452983  0.014991751  0.013874077          159 
  476000   0.51257873   -7.6393246    85.572828  0.014981237  0.013830999           95 
  477000   0.51567542   -7.6195236    85.468634  0.014931627  0.013787996          186 
  478000   0.50904862   -7.6204114    85.302967  0.014871507   0.01374518          141 
  479000   0.50718641   -7.6469599    85.385608  0.014854838  0.013702558           76 
  480000    0.5015296   -7.6283225    85.305892  0.014810051  0.013660131          108 
  481000   0.49631614   -7.6369822    85.254445  0.014770347  0.013617775           76 
  482000   0.50302587   -7.6297381    85.288136  0.014745528   0.01357559           98 
  483000   0.48841604   -7.6509976    85.336711   0.01472338   0.01353352           82 
  484000   0.49352611   -7.6342859    85.445615   0.01471171  0.013491652          122 
  485000   0.50070098   -7.6460316    85.353347  0.014665524  0.013449944           49 
  486000   0.48469146   -7.6577546    85.196371  0.014608431   0.01340825           80 
  487000   0.49723916   -7.6431466    85.369168  0.014608003  0.013366738          207 
  488000   0.48208142   -7.6466961    85.196217  0.014548534  0.013325341          107 
  489000   0.49038682   -7.6441656    85.154176  0.014511618   0.01328413          189 
  490000   0.49375749   -7.6645378    85.301001  0.014506973  0.013243049           93 
  491000   0.49760864   -7.6503766     85.15701  0.014452989  0.013202106          111 
  492000   0.48201696   -7.6543545    85.030012  0.014402102  0.013161291           84 
  493000   0.48082438   -7.6702237    85.225675  0.014405963  0.013120559          130 
  494000   0.46912495   -7.6622298    85.211176  0.014374355  0.013080004           49 
  495000   0.47642649   -7.6696336    85.134141  0.014332347  0.013039648           65 
  496000   0.47823547   -7.6577233     85.16885  0.014309283  0.012999361           69 
  497000   0.48418324   -7.6493588    85.124833  0.014273111  0.012959328           89 
  498000   0.47101244    -7.660192    85.221509  0.014260627  0.012919352          122 
  499000   0.46711884   -7.6960573    85.184082  0.014225799  0.012879526           64 
  500000   0.46712484   -7.6781485    85.158058   0.01419301  0.012839904           75 
  501000    0.4676954   -7.6798463    85.127053  0.014159523   0.01280042          114 
  502000   0.46864926    -7.665315    85.070996  0.014122011  0.012761143          100 
  503000   0.46222242   -7.6820191    85.010902   0.01408398  0.012721961           91 
  504000   0.46651754   -7.6949325    84.960809  0.014047753  0.012682931          116 
  505000   0.46125834   -7.6994094    85.105379  0.014043792  0.012644045          146 
  506000   0.45268064   -7.6946783     85.00875  0.014000123  0.012605227          239 
  507000   0.45202607   -7.7047778    85.047989  0.013978959   0.01256659          210 
  508000   0.45841668   -7.6970977    85.055584  0.013952688  0.012528039           87 
  509000   0.44725649    -7.707198     85.03479  0.013921871  0.012489603          175 
  510000   0.44433626   -7.7180242    84.968908  0.013883808  0.012451312           97 
  511000   0.44848945   -7.7099556    84.935078  0.013851122  0.012413175          142 
  512000   0.44462271   -7.7097469    84.962972  0.013828609  0.012375186          180 
Loop time of 1087.47 on 48 procs for 500000 steps with 4000 atoms

Performance: 79450.773 tau/day, 459.785 timesteps/s
99.4% CPU use with 48 MPI tasks x no OpenMP threads

MPI task timing breakdown:
Section |  min time  |  avg time  |  max time  |%varavg| %total
---------------------------------------------------------------
Pair    | 66.972     | 71.919     | 79.048     |  30.7 |  6.61
Neigh   | 6.6071     | 6.8778     | 7.234      |   4.1 |  0.63
Comm    | 57.196     | 64.877     | 71.303     |  35.8 |  5.97
Output  | 0.78343    | 0.78396    | 0.79244    |   0.1 |  0.07
Modify  | 926.49     | 930.71     | 935.21     |   6.3 | 85.59
Other   |            | 12.3       |            |       |  1.13

Nlocal:        83.3333 ave          90 max          77 min
Histogram: 4 0 4 11 6 1 16 3 2 1
Nghost:        1805.79 ave        1828 max        1784 min
Histogram: 2 3 5 5 8 11 3 6 3 2
Neighs:        11069.5 ave       12756 max       10015 min
Histogram: 5 5 10 7 7 4 5 3 1 1
FullNghs:      22139.0 ave       23858 max       20529 min
Histogram: 5 2 7 4 5 6 6 10 1 2

Total # of neighbors = 1062674
Ave neighs/atom = 265.66850
Neighbor list builds = 26959
Dangerous builds = 0

#clear
#
#next RN
#
#jump SELF
Total wall time: 0:18:10
