
units lj                  # Use reduced LJ style units
atom_style atomic         # Uncharged point particles
atom_modify map hash      # Needed for indexing of clusters etc
                          # Used to be able to find where atoms are in relation to each other.

lattice fcc 1.0 spacing 1 1 1
Lattice spacing in x,y,z = 1.5874011 1.5874011 1.5874011
region box block 0 10 0 10 0 10 units lattice
create_box 2 box
Created orthogonal box = (0.0000000 0.0000000 0.0000000) to (15.874011 15.874011 15.874011)
  3 by 4 by 4 MPI processor grid
create_atoms 1 box
Created 4000 atoms
  using lattice units in orthogonal box = (0.0000000 0.0000000 0.0000000) to (15.874011 15.874011 15.874011)
  create_atoms CPU = 0.003 seconds
set type 1 type/fraction 2 0.53 78393
Setting atom values ...
  2126 settings made for type/fraction
mass 1 1.0
mass 2 1.0
pair_style lj/cut  3.5
pair_modify tail  yes
pair_coeff 1  1  1.0  1.0   # Intearaction between 1 and 1 set with epsilon = 1 and sigma = 1
pair_coeff 1  2  1.5  0.8
pair_coeff 2  2  0.5  0.88

write_data data.0
System init for write_data ...
Neighbor list info ...
  update every 1 steps, delay 10 steps, check yes
  max neighbors/atom: 2000, page size: 100000
  master list distance cutoff = 3.8
  ghost atom cutoff = 3.8
  binsize = 1.9, bins = 9 9 9
  1 neighbor lists, perpetual/occasional/extra = 1 0 0
  (1) pair lj/cut, perpetual
      attributes: half, newton on
      pair build: half/bin/atomonly/newton
      stencil: half/bin/3d
      bin: standard
WARNING: Not all mixed pair coeffs generated from mixing. Use write_data with 'pair ij' option to store all pair coeffs. (../write_data.cpp:312)


#############################
#   M E L T   S Y S T E M   #
#############################

velocity all create 2.4 9622624 mom yes dist gaussian # Assign velocities
                                                    # Temperature 2.4, random number seed, zero linear momentum
                                                                                # Gaussian distribution

timestep 0.002   # simulation timestep
thermo 1000       # output thermodynamic data every 1000 steps bf 100

# Define a fix  in this case with index 1 applied to all
# particles in the simulation. This fix is for simulations
# in the anisotropic NPT ensemble. Note that we use the MTK
# correction.
fix 1 all npt temp 2.4 2.4 0.1 iso 5.68 5.68 0.5 mtk yes tchain 5 pchain 5 # Use NPT ensemble
                                                                         # Set temperature and pressure and damping
                                                                         # Numbers of thermostats in chain and in barostat
run 10000          # run for 10000 steps
Per MPI rank memory allocation (min/avg/max) = 3.642 | 3.644 | 3.648 Mbytes
Step Temp E_pair E_mol TotEng Press Volume 
       0          2.4   -5.1225569            0   -1.5234569   -4.1795691         4000 
    1000    2.4120159   -4.7534085            0   -1.1362892    5.6491166    3682.8777 
    2000    2.4194014   -4.7928535            0   -1.1646586     5.700511    3656.5725 
    3000    2.3954868     -4.93794            0   -1.3456081     5.832349    3590.2128 
    4000    2.3931754   -4.8056516            0   -1.2167859     5.950337    3627.7345 
    5000    2.3914522   -4.7371895            0   -1.1509079     5.739685    3690.1309 
    6000    2.3827184   -4.7794582            0   -1.2062741    5.9934057    3643.2167 
    7000    2.3804681    -4.808218            0   -1.2384086    5.5876508    3649.8354 
    8000    2.4212171   -4.8210469            0   -1.1901293    5.8079941    3640.6037 
    9000    2.3901777   -4.8113536            0   -1.2269833    5.5301473    3661.6426 
   10000    2.4315225   -4.8258354            0   -1.1794635    5.9154178    3635.2066 
Loop time of 2.64139 on 48 procs for 10000 steps with 4000 atoms

Performance: 654201.255 tau/day, 3785.887 timesteps/s
99.6% CPU use with 48 MPI tasks x no OpenMP threads

MPI task timing breakdown:
Section |  min time  |  avg time  |  max time  |%varavg| %total
---------------------------------------------------------------
Pair    | 1.2051     | 1.2675     | 1.3925     |   3.2 | 47.99
Neigh   | 0.21593    | 0.22299    | 0.23786    |   0.8 |  8.44
Comm    | 0.74418    | 0.88735    | 0.96715    |   4.3 | 33.59
Output  | 0.00025128 | 0.00025536 | 0.00032129 |   0.0 |  0.01
Modify  | 0.22344    | 0.24728    | 0.28736    |   3.2 |  9.36
Other   |            | 0.01602    |            |       |  0.61

Nlocal:        83.3333 ave          93 max          72 min
Histogram: 1 1 4 4 9 12 5 7 4 1
Nghost:        1746.96 ave        1785 max        1704 min
Histogram: 1 1 3 5 12 11 3 8 3 1
Neighs:        10501.3 ave       12092 max        8649 min
Histogram: 1 2 2 3 12 9 10 7 0 2

Total # of neighbors = 504064
Ave neighs/atom = 126.01600
Neighbor list builds = 900
Dangerous builds = 176

# Equilibrate just above the melting temperature to avoid step fn in T

fix 1 all npt temp 1.25 1.25 0.1 iso 5.68 5.68 0.5 mtk yes tchain 5 pchain 5
run 2000
Per MPI rank memory allocation (min/avg/max) = 3.644 | 3.646 | 3.649 Mbytes
Step Temp E_pair E_mol TotEng Press Volume 
   10000    2.4315225   -4.8258354            0   -1.1794635    5.9154178    3635.2066 
   11000    1.2558332   -6.9323062            0   -5.0490274    5.7133049    2833.1003 
   12000    1.2364663   -7.0439678            0    -5.189732    5.6505486    2803.8262 
Loop time of 0.659037 on 48 procs for 2000 steps with 4000 atoms

Performance: 524401.891 tau/day, 3034.733 timesteps/s
99.6% CPU use with 48 MPI tasks x no OpenMP threads

MPI task timing breakdown:
Section |  min time  |  avg time  |  max time  |%varavg| %total
---------------------------------------------------------------
Pair    | 0.30025    | 0.32366    | 0.36439    |   2.4 | 49.11
Neigh   | 0.041163   | 0.043535   | 0.04685    |   0.6 |  6.61
Comm    | 0.19672    | 0.24171    | 0.26707    |   3.1 | 36.68
Output  | 5.3771e-05 | 5.5081e-05 | 6.8734e-05 |   0.0 |  0.01
Modify  | 0.041945   | 0.044907   | 0.047735   |   0.8 |  6.81
Other   |            | 0.00517    |            |       |  0.78

Nlocal:        83.3333 ave          89 max          78 min
Histogram: 4 5 7 5 6 4 5 3 4 5
Nghost:        2084.21 ave        2101 max        2056 min
Histogram: 2 1 2 4 3 8 6 8 9 5
Neighs:        13605.7 ave       15118 max       12521 min
Histogram: 7 3 6 9 8 3 5 1 4 2

Total # of neighbors = 653074
Ave neighs/atom = 163.26850
Neighbor list builds = 142
Dangerous builds = 12

#############################
# L I N E A R  Q U E N C H  #
#############################

# Define solid atoms. This closely follows ten Wolde  Ruiz-Montero and Frenkel  Faraday Discuss  1996  104  93-110
# Compute components of the per-atom q6 vector
compute q6 all orientorder/atom degrees 1 6 components 6 nnn NULL cutoff 1.3 # compute the Q6 parameter.
                                                                             # Use all neighbours within 1.3 unit cell.

# get number of connections
compute coord_number all coord/atom orientorder q6 0.5

# An atom is solid if it has 8 or more connections (of a possible 14)
variable is_solid atom c_coord_number>=8
group solid dynamic all var is_solid    # Must be dynamic to update
dynamic group solid defined

# do clustering
compute cluster solid cluster/atom 1.3 # Create a cluster where all atoms within are solid and max 1.3 units from another member

# define chunks one chunk per cluster
compute clus_chunks solid chunk/atom c_cluster nchunk every compress yes  # Says which atoms are in which chunk

# count the size of each chunk
compute size_chunks solid property/chunk clus_chunks count


# Find the maximum entry in the vector of chunk sizes
variable max_n equal max(c_size_chunks)


# Thermo style which includes this variable
# thermo_style custom step temp pe vol v_max_n

thermo ${N}  # Print the thermo information every 100 steps
thermo 1000  

# Reset the npt fix at a lower temperature (below freezing)
fix 1  all npt temp  ${temp} ${temp}  0.1  iso  5.68  5.68  0.5  mtk yes tchain  5  pchain  5
fix 1  all npt temp  0.45 ${temp}  0.1  iso  5.68  5.68  0.5  mtk yes tchain  5  pchain  5
fix 1  all npt temp  0.45 0.45  0.1  iso  5.68  5.68  0.5  mtk yes tchain  5  pchain  5

dump dmp2 all dcd ${N} traj.dcd
dump dmp2 all dcd 1000 traj.dcd


compute msd all msd com yes
variable twopoint equal c_msd[4]/6/(step*dt+1.0e-6)
fix 9 all vector 10 c_msd[4]
variable fit equal slope(f_9)/6/(10*dt)
thermo_style custom step temp pe c_msd[4] v_twopoint v_fit v_max_n

fix 1 all npt temp 1.25 ${temp} 0.1 iso 5.68 5.68 0.5 mtk yes tchain 5 pchain 5
fix 1 all npt temp 1.25 0.45 0.1 iso 5.68 5.68 0.5 mtk yes tchain 5 pchain 5
run 2000000 # 5000000  # Run for this many steps
Neighbor list info ...
  update every 1 steps, delay 10 steps, check yes
  max neighbors/atom: 2000, page size: 100000
  master list distance cutoff = 3.8
  ghost atom cutoff = 3.8
  binsize = 1.9, bins = 8 8 8
  4 neighbor lists, perpetual/occasional/extra = 1 3 0
  (1) pair lj/cut, perpetual
      attributes: half, newton on
      pair build: half/bin/atomonly/newton
      stencil: half/bin/3d
      bin: standard
  (2) compute orientorder/atom, occasional
      attributes: full, newton on
      pair build: full/bin/atomonly
      stencil: full/bin/3d
      bin: standard
  (3) compute coord/atom, occasional
      attributes: full, newton on
      pair build: full/bin/atomonly
      stencil: full/bin/3d
      bin: standard
  (4) compute cluster/atom, occasional
      attributes: full, newton on
      pair build: full/bin/atomonly
      stencil: full/bin/3d
      bin: standard
Per MPI rank memory allocation (min/avg/max) = 9.842 | 9.848 | 9.852 Mbytes
Step Temp PotEng c_msd[4] v_twopoint v_fit v_max_n 
   12000    1.2364663   -7.0439678 2.5594592e-30 1.7774022e-32 8.3333333e+20            2 
   13000    1.2781351   -7.0505507   0.44205832 0.0028337071  0.035174273            4 
   14000    1.2479599   -7.0318408   0.84091577 0.0050054509  0.034165626            3 
   15000    1.2376604   -7.0223689      1.25343 0.0069634996  0.033739363            4 
   16000    1.2377334    -7.075057    1.6709975 0.0087031118  0.033932972            2 
   17000    1.2355072   -7.0010294    2.0653382  0.010124207  0.034146762            2 
   18000    1.2245005   -7.0630883    2.4276808  0.011239263  0.033835385            2 
   19000    1.2471908   -7.0389834    2.8459275  0.012482138  0.033699439            4 
   20000    1.2432139   -7.0017076    3.2227494  0.013428122  0.033528351            2 
   21000    1.2296958   -7.0651282    3.6119809  0.014333257  0.033359786            7 
   22000    1.2304763   -7.0374606    4.0413064  0.015307978  0.033260153            2 
   23000    1.2485475   -7.0367193    4.4123192  0.015986663   0.03321844            3 
   24000    1.2560354   -7.0070041    4.8454074  0.016824331       0.0332            4 
   25000    1.2358037   -7.0597107    5.1852227  0.017284075  0.033152005            3 
   26000    1.2486288   -7.0384128    5.6008092  0.017951311  0.033067457            2 
   27000    1.2300876   -7.0559779    5.8681366  0.018111532  0.032895205            2 
   28000    1.2213435   -7.0370454    6.1671417  0.018354588  0.032630272            3 
   29000    1.2385532   -7.0601256    6.5272391  0.018756434  0.032312039            1 
   30000    1.2499167   -7.0509241    6.8577744  0.019049373  0.031992406            2 
   31000    1.2451338   -7.0307315    7.3080012  0.019645164  0.031767547            2 
   32000    1.2184729   -7.0577843    7.6005224  0.019793027  0.031619226            1 
   33000    1.2331907   -7.0664467    8.0281946  0.020273218  0.031503991            1 
   34000    1.2530265    -7.057366    8.3938056  0.020573053  0.031439632            1 
   35000    1.2605719   -7.0682737     8.800785   0.02095425  0.031381645            3 
   36000    1.2425456   -7.0110093    9.1751619    0.0212388  0.031374673            3 
   37000    1.2415175   -7.0389926    9.4967309  0.021389033  0.031309285            1 
   38000    1.2377556   -7.0256238    9.9574345  0.021836479  0.031276507            1 
   39000    1.2043428   -7.0763887    10.278048  0.021961641  0.031276784            2 
   40000    1.2379519   -7.0175041    10.739981  0.022374961   0.03127657            2 
   41000    1.2306921   -7.0388052    11.088337   0.02253727   0.03125651            2 
   42000    1.2532246    -7.014807    11.564463  0.022945362  0.031302309            2 
   43000     1.237094     -7.05804    12.002536  0.023260727  0.031382602            2 
   44000    1.2386728   -7.0943978    12.296494  0.023288814  0.031448217            2 
   45000    1.1904015   -7.0540544    12.689975  0.023499953  0.031495883            3 
   46000    1.2269398   -7.0593114     13.06838  0.023674602  0.031516338            1 
   47000    1.2524775   -7.0390024    13.403881  0.023765747  0.031529635            4 
   48000    1.2945397   -7.0256971    13.704243  0.023792089  0.031504262            4 
   49000    1.2377619   -7.0765073    14.042445  0.023881709  0.031476945            2 
   50000    1.2272669   -7.0579713    14.464275  0.024107125  0.031466266            1 
   51000    1.2501132   -7.0664756    14.862546  0.024285206  0.031461047            5 
   52000    1.2243752    -7.027703    15.320322  0.024551798  0.031471285            4 
   53000    1.1891775   -7.0622638    15.627397  0.024571379  0.031460596            2 
   54000    1.2177073   -7.0801195    16.002882  0.024695805  0.031474838            2 
   55000    1.2332605   -7.1323339    16.434574  0.024900869  0.031495816            2 
   56000    1.2649412   -7.0618207    16.967216  0.025248834  0.031534024            1 
   57000    1.2231707   -7.0744719    17.354066  0.025371441  0.031578702            1 
   58000    1.2321582   -7.0458071    17.800596  0.025575569  0.031627893            2 
   59000    1.2213767   -7.0590588    18.109071  0.025577784  0.031662426            3 
   60000    1.2471482   -7.0709377    18.544615   0.02575641  0.031699283            2 
   61000    1.2243739   -7.0505547     18.86254  0.025768498  0.031730739            3 
   62000    1.2041345   -7.0730066     19.29806  0.025938253  0.031752071            2 
   63000    1.2177511   -7.0679682    19.641645  0.025981012  0.031774404            3 
   64000    1.2402378   -7.0887846    19.898183  0.025909092  0.031792927            3 
   65000    1.2128606    -7.095692     20.26521  0.025981039  0.031791276            2 
   66000    1.2314299     -7.10496    20.601561  0.026012072  0.031778145            1 
   67000    1.2467924   -7.0547195    20.881823  0.025972417  0.031757125            2 
   68000    1.1938364   -7.1177156    21.277883  0.026075837  0.031727211            1 
   69000    1.2337113   -7.0475617    21.732502  0.026246983  0.031712793            5 
   70000    1.2057446   -7.0744335     22.30042  0.026548119  0.031717137            2 
   71000    1.2304382   -7.1329351    22.524495  0.026437201  0.031715281            2 
   72000    1.2238896   -7.0330604     23.02531  0.026649664  0.031715443            1 
   73000    1.1857675   -7.0336612    23.460329  0.026781197  0.031729988            2 
   74000    1.2080746   -7.1230991    23.794003  0.026795048  0.031738271            1 
   75000    1.2231612   -7.0693768    24.147544  0.026830604  0.031747858            5 
   76000    1.2352179   -7.0989319    24.470826  0.026832046  0.031749266            3 
   77000    1.2490909    -7.055995    25.040217  0.027099802  0.031759054            2 
   78000    1.2194418   -7.0887682    25.376767  0.027111931   0.03177211            4 
   79000    1.2199875    -7.115904    25.729341  0.027140654  0.031780549            3 
   80000    1.2073348   -7.0778009    26.204218  0.027296061  0.031791966            1 
   81000    1.2140529   -7.0716655    26.589417  0.027355367   0.03180976            4 
   82000      1.24203   -7.0288344    26.839647  0.027276064  0.031815447            1 
   83000    1.2264201   -7.0727738    27.302549  0.027412198  0.031817229            2 
   84000    1.2164427   -7.1025427    27.509399  0.027291071  0.031809956            7 
   85000    1.2126993   -7.0543086    28.000517  0.027451487  0.031806566            3 
   86000    1.2332203   -7.0859777    28.308994  0.027431196  0.031803868            4 
   87000    1.2243835   -7.0989648    28.641345  0.027434238  0.031809159            3 
   88000    1.2128099   -7.1369816    29.116901  0.027572823  0.031808958            2 
   89000    1.2191331   -7.0709125    29.521346  0.027641709  0.031811072            2 
   90000     1.228466   -7.1192834    30.102282  0.027872484  0.031822081            1 
   91000    1.1983705   -7.0856679    30.516942  0.027945917  0.031842853            5 
   92000    1.2104851   -7.0642563    31.114263  0.028183209  0.031871353            2 
   93000    1.2323634   -7.0464299     31.52773  0.028250654  0.031900508            3 
   94000    1.2249595   -7.0912416    31.928467  0.028305378  0.031934267            1 
   95000    1.2057665    -7.101724    32.400312  0.028421326   0.03197088            2 
   96000     1.215304   -7.0710024    33.049467  0.028688773  0.032009466            3 
   97000    1.2098602   -7.1162065    33.334725   0.02863808  0.032055301            2 
   98000    1.2209339   -7.0976208    33.769538  0.028715594  0.032103418            6 
   99000     1.245417   -7.1190358    34.380678  0.028939965  0.032149068            2 
  100000    1.1973822    -7.127553    34.662927  0.028885772   0.03220373            2 
  101000    1.2255228   -7.0978514    35.181361  0.029027525  0.032248095            3 
  102000    1.2312835   -7.1173391    35.503761  0.029006341  0.032291427            2 
  103000    1.2028334   -7.1342085    35.775404  0.028944501  0.032320404            2 
  104000     1.214491   -7.1350238    35.984586  0.028833802  0.032348931            2 
  105000    1.2239541   -7.1574672    36.157568  0.028696482   0.03236209            2 
  106000    1.2228144    -7.086914    36.723581   0.02887074  0.032374279            6 
  107000    1.1897457   -7.1191536    36.959688  0.028784803  0.032382217            2 
  108000    1.2203886   -7.1580739    37.177878  0.028686634  0.032387439            2 
  109000    1.2059175   -7.0785916    37.725529  0.028842147  0.032391478            2 
  110000    1.1968064   -7.1272485      38.0292      0.02881  0.032390329            2 
  111000    1.2156503   -7.1195326     38.34494  0.028787492  0.032386921            3 
  112000    1.2139411   -7.1258805    38.636477  0.028747379   0.03237887            3 
  113000    1.1910078   -7.1271168    38.896763  0.028684928  0.032366548            1 
  114000    1.2182217   -7.1654054    39.165595   0.02862982  0.032354397            2 
  115000    1.2033604   -7.1227866    39.644995  0.028728257   0.03234569            1 
  116000    1.1987247     -7.11051    40.211748   0.02888775  0.032336065            2 
  117000    1.2209096    -7.170552     40.57286  0.028898049  0.032334982            1 
  118000    1.1941837   -7.0872161    41.104032  0.029028271  0.032333548            3 
  119000    1.2214927   -7.1074814     41.40091  0.028992234  0.032333971            4 
  120000    1.2270166   -7.1329538    41.749588  0.028992769  0.032335637            2 
  121000    1.2207525   -7.1702282    42.311103  0.029139878  0.032334834            3 
  122000    1.2105263   -7.1648142    42.690376  0.029160093  0.032341181            3 
  123000    1.2050335   -7.1560953    43.164694  0.029244372  0.032348415            1 
  124000    1.1785656   -7.1476692    43.382533  0.029154928  0.032350765            1 
  125000    1.1953553   -7.2085003    43.648007  0.029098671  0.032350258            4 
  126000    1.2148663   -7.1368683    44.476776  0.029415857  0.032359327            4 
  127000     1.194522    -7.128287    44.772582  0.029378334  0.032369012            2 
  128000    1.2274165   -7.1152258    45.057585  0.029334365  0.032371078            3 
  129000    1.2015642   -7.1506041    45.298483  0.029262586  0.032368344            3 
  130000    1.2243484   -7.1482198    45.613081  0.029239155  0.032361281            2 
  131000    1.1959194   -7.1585088    46.117505  0.029336835   0.03235733            3 
  132000    1.1913226   -7.1527514    46.524625  0.029371606  0.032354783            3 
  133000     1.200609   -7.1119652    46.948861  0.029416579  0.032353069            4 
  134000    1.2316445   -7.1592716    46.959246  0.029203511   0.03234601           10 
  135000    1.2007179   -7.1567685    47.468772  0.029301711  0.032336712            3 
  136000    1.1637075   -7.1198452    47.851486  0.029320763  0.032328742            6 
  137000    1.1909808   -7.1339101    48.137671  0.029280822  0.032319256            4 
  138000    1.2178973   -7.0985718     48.58434   0.02933837  0.032311491            4 
  139000    1.1996983   -7.1860195    48.912202  0.029323862  0.032303663            3 
  140000    1.2072533   -7.1237403    49.147081  0.029254215  0.032292886            3 
  141000    1.2110627   -7.1676302    49.497104  0.029253608  0.032282034            2 
  142000    1.2084776   -7.1254571    50.168323  0.029441504  0.032273927            5 
  143000    1.2154148   -7.2433217    50.071599  0.029179254   0.03226427            2 
  144000    1.2026854   -7.1708888    50.537201  0.029246065  0.032253198            2 
  145000    1.2096217   -7.1394466    50.821751  0.029207903  0.032236128            1 
  146000    1.1703833   -7.1563619    51.104242  0.029169088  0.032219825            3 
  147000      1.19084   -7.1440682    51.631736  0.029269692  0.032204465            1 
  148000    1.1745375   -7.1232412    52.155572  0.029366876  0.032190044            4 
  149000    1.2015128   -7.1904425    52.340262  0.029273077  0.032179641            1 
  150000    1.2021426   -7.1716363    52.880052  0.029377807  0.032164278            3 
  151000    1.2071467    -7.263632     52.94312  0.029218057  0.032150043            3 
  152000      1.19355   -7.1774189    53.637421  0.029406481  0.032137445            3 
  153000    1.1989946   -7.2119303    53.840107  0.029324677  0.032128247            2 
  154000     1.192706   -7.1865341    53.930788  0.029183327  0.032113168            3 
  155000    1.1962519   -7.1272189    54.705906  0.029411777  0.032096349            6 
  156000    1.1660132   -7.1453476    54.741125  0.029242054   0.03207937            2 
  157000    1.1842834   -7.2156422    54.630868  0.028997276  0.032059208            2 
  158000    1.2078121   -7.1361396    55.548998  0.029297994  0.032038977            2 
  159000     1.182683   -7.1882552    55.815044  0.029253167  0.032021827            2 
  160000     1.177291   -7.1831872    56.180557  0.029260707  0.032003014            6 
  161000    1.1695656   -7.1858338    56.510931  0.029249964  0.031985686            2 
  162000    1.2295657   -7.1739989    57.057454  0.029350542  0.031970259            1 
  163000    1.2076366   -7.1581505    57.358945  0.029324614  0.031955134            4 
  164000     1.185768   -7.2006762    57.607235  0.029271969  0.031940048            2 
  165000    1.1963559   -7.1633917    58.068496  0.029327523  0.031923692            1 
  166000    1.1934825     -7.13931    58.457006  0.029345887  0.031907217            2 
  167000     1.191778   -7.2059437    58.478197  0.029180737  0.031890315            2 
  168000    1.1889726    -7.197149    58.729115  0.029131506  0.031869689            1 
  169000    1.1796016   -7.2156608    59.139181  0.029161332  0.031848701            2 
  170000    1.1838755   -7.2442803    59.287177  0.029062342  0.031825183            3 
  171000    1.1698501   -7.1748471     60.01347   0.02924633  0.031805273            3 
  172000     1.195848   -7.1741275    60.471091  0.029298009   0.03178802            2 
  173000    1.1714361   -7.1810956    60.578887  0.029180581  0.031769946            1 
  174000     1.190814   -7.2181083    61.205609  0.029313031  0.031754337            2 
  175000    1.2015832   -7.1724735    61.740072  0.029400034  0.031739817            2 
  176000    1.1763326    -7.181578    61.777941  0.029250919  0.031723363            2 
  177000    1.1928591   -7.1794665    61.764636  0.029079395  0.031701274            2 
  178000    1.1790021   -7.1987519    61.854505  0.028958102  0.031676156            1 
  179000    1.1726168   -7.1667124    62.123415  0.028921515  0.031649575            2 
  180000    1.2099698   -7.1947506    62.539767  0.028953596  0.031622873            1 
  181000    1.1911032   -7.1932333    62.805344  0.028915904  0.031595621            3 
  182000     1.206166   -7.2159568    62.917991  0.028808604  0.031565698            4 
  183000    1.1874055   -7.2387071    63.250152  0.028802437  0.031534076            1 
  184000    1.1840154   -7.1749301    63.813873  0.028901211  0.031504379            3 
  185000    1.1653517    -7.206733    64.006121  0.028831586  0.031475341            3 
  186000    1.2021684    -7.163592    64.322909  0.028818508  0.031446928            1 
  187000    1.1769226   -7.1824264    64.659357   0.02881433  0.031417661            2 
  188000    1.1907265   -7.1693588    65.021799  0.028821719  0.031389336            2 
  189000    1.1938446    -7.190261    64.988882   0.02865471  0.031356152            2 
  190000    1.1770837   -7.1875812    65.508054  0.028731602  0.031322507            1 
  191000    1.1841215   -7.1998626    65.478607  0.028568327   0.03128801            1 
  192000    1.1693557    -7.223708     65.95923  0.028628138  0.031254975            3 
  193000    1.1740833   -7.2264262    66.205029  0.028585936  0.031221929            2 
  194000    1.1969305     -7.23342    66.634461   0.02862305  0.031188413            2 
  195000    1.1716075   -7.2108037    66.578429   0.02845232  0.031153904            2 
  196000    1.1743709   -7.2060852    67.194613  0.028569138  0.031119453            3 
  197000    1.1707256   -7.1731879    67.621549  0.028604716  0.031085684            7 
  198000     1.196633   -7.1947022    67.941498  0.028594907  0.031052823            5 
  199000    1.1842143   -7.1962463    68.155568  0.028540858  0.031020389            2 
  200000    1.1630455   -7.2022425    68.499323  0.028541385  0.030988298            2 
  201000    1.1394344   -7.2226701    68.673814   0.02847173  0.030955571            5 
  202000    1.1616927   -7.2304819    69.057012  0.028488866  0.030924765            3 
  203000    1.1626985   -7.2866027    69.189823  0.028403047  0.030892842            3 
  204000    1.1868377   -7.2104991    69.700527  0.028472438  0.030862134            5 
  205000    1.1634913   -7.2424151    70.023077  0.028464666  0.030831192            4 
  206000    1.1523892    -7.215005     70.44123  0.028495643  0.030798562            2 
  207000    1.1506132   -7.2057678    70.336357  0.028315764  0.030768003            3 
  208000    1.1699715   -7.1789823    71.046603  0.028464184  0.030736693            2 
  209000    1.1881998   -7.2497189    70.976445  0.028300018  0.030704575            5 
  210000     1.161303   -7.2461058    71.202526  0.028254971   0.03067159            4 
  211000    1.1958138   -7.2068805    71.743029   0.02833453  0.030637874            2 
  212000    1.1743419   -7.2637873    71.960434  0.028286334  0.030604926            1 
  213000    1.1864047    -7.196537    72.525575  0.028374638  0.030574007            2 
  214000    1.1519607   -7.2666498    72.512507  0.028236958  0.030542446            2 
  215000    1.1670605   -7.1995233    72.981968  0.028287584  0.030511213            3 
  216000    1.1683392   -7.1863538     73.25246   0.02826098  0.030480766            2 
  217000    1.1566954   -7.2470029    73.148986  0.028091008  0.030448977            6 
  218000    1.1819002   -7.2621889    73.552544  0.028116416  0.030416649            2 
  219000      1.17272   -7.2197087     73.87764  0.028111735  0.030382677            1 
  220000    1.1892032   -7.2618154    74.253663  0.028126387  0.030350586            2 
  221000    1.1609386   -7.2607082    74.606607  0.028132205  0.030319153            3 
  222000    1.1524644   -7.2329212    74.916609   0.02812185  0.030289644            2 
  223000    1.1772075   -7.2334763    75.062324  0.028050196  0.030257571            2 
  224000    1.1601544   -7.2544977    75.210848  0.027980226  0.030222946            2 
  225000    1.1663334   -7.2729066    75.359629  0.027910974  0.030188667            1 
  226000    1.1492218   -7.2508639    75.721622  0.027920952   0.03015406            3 
  227000     1.154112    -7.301357    75.738541  0.027804163  0.030119047            1 
  228000    1.1634873   -7.2395588    76.517088  0.027966772  0.030085003            3 
  229000    1.1677379   -7.2861333    76.649547  0.027892848  0.030051598            2 
  230000    1.1621922    -7.219446    77.350923  0.028025697  0.030019835            3 
  231000    1.1639773   -7.2571382    77.199731  0.027849831  0.029986729            2 
  232000    1.1724862   -7.2622251    77.484807  0.027832186  0.029952845            2 
  233000    1.1555095   -7.2508534     78.21906  0.027975343  0.029921268            3 
  234000    1.1580372   -7.2303603    78.371391   0.02791004  0.029889764            2 
  235000    1.1422166   -7.2538924    78.620663  0.027879668  0.029859578            3 
  236000    1.1237283     -7.25613    78.942261  0.027875092  0.029830135            2 
  237000    1.1534301   -7.2779123    79.201878  0.027848761  0.029801157            2 
  238000    1.1387411   -7.2247463    79.828618  0.027951197  0.029772825            2 
  239000     1.123253   -7.2420991    80.256323  0.027983376  0.029746367            3 
  240000    1.1930206   -7.1844238    80.796738  0.028054423   0.02972186            1 
  241000    1.1736432   -7.2749886    80.463127  0.027822658  0.029695805            2 
  242000    1.1544615   -7.2955196    80.893557  0.027855908  0.029669967            1 
  243000    1.1370323   -7.2420974    81.800277  0.028052221  0.029646651            2 
  244000    1.1713387   -7.2671263    81.863419  0.027958818  0.029623625            2 
  245000    1.1615802   -7.2948604     82.01904  0.027897632  0.029600124            2 
  246000    1.1814563   -7.2453114    82.304966  0.027881086  0.029575822            1 
  247000     1.160098    -7.258655    82.246131  0.027748357  0.029550718            3 
  248000    1.1737025    -7.336795    82.735974  0.027801066  0.029525648            1 
  249000    1.1684025   -7.3068707    83.048901  0.027794144  0.029501861            2 
  250000    1.1608241   -7.2457876    83.757287  0.027919096  0.029476563            1 
  251000    1.1628033    -7.267458    83.698312  0.027788284  0.029452193            2 
  252000    1.1642085   -7.2976614    83.902647  0.027745584  0.029427336            3 
  253000    1.1691359   -7.2977045      84.3262  0.027775428  0.029401451            5 
  254000    1.1673193   -7.3029281    84.389982  0.027687002   0.02937643            3 
  255000     1.151636   -7.2992266    84.741511  0.027693304  0.029351558            3 
  256000    1.1518131   -7.2646529    85.294311  0.027765075  0.029327089            2 
  257000    1.1472642   -7.2721757    85.661095  0.027775971   0.02930348            2 
  258000    1.1647889   -7.2626202      86.0447  0.027792216  0.029280815            2 
  259000    1.1732947   -7.2990108    86.247034  0.027750011  0.029257051            4 
  260000    1.1679545   -7.2389957    86.533312  0.027735036  0.029234424            2 
  261000     1.161877    -7.291678    86.984655  0.027772878  0.029212292            2 
  262000    1.1658016   -7.2524927    87.485202  0.027826082   0.02919099            5 
  263000    1.1508537   -7.2622619    87.531142  0.027734836  0.029169769            6 
  264000    1.1606697   -7.2643227    87.881992  0.027740528  0.029148602            2 
  265000    1.1455394    -7.289479    88.309297  0.027770219  0.029127851            3 
  266000     1.157839    -7.317077    88.558605  0.027743924  0.029106689            4 
  267000    1.1511484   -7.2281234    89.102715  0.027809836  0.029086008            3 
  268000    1.1127278   -7.3489617     88.80775   0.02761435  0.029065212            1 
  269000    1.1713016   -7.3330807    89.350167   0.02767973  0.029043212            3 
  270000    1.1577541   -7.3704176     89.51301  0.027627472  0.029021747            2 
  271000    1.1378076   -7.2906187    90.055278  0.027692275  0.029000883            3 
  272000    1.1476546   -7.2816356    90.508418  0.027729295  0.028980921           11 
  273000    1.1429295   -7.3132536    90.623984  0.027662999  0.028961083            1 
  274000    1.1437341   -7.2761077     90.75143    0.0276008  0.028939879            3 
  275000    1.1460949   -7.2779266      90.9033  0.027546454  0.028917862            3 
  276000    1.1202875   -7.3092849    90.921529  0.027452152  0.028893911            3 
  277000     1.162627   -7.2915436     91.07249  0.027398463  0.028869379            3 
  278000    1.1543879   -7.3276826    91.604498  0.027459382  0.028845471            1 
  279000     1.142096   -7.2659052    91.886919  0.027445316  0.028823051            3 
  280000    1.1672173     -7.28458    91.976184  0.027373864  0.028800303            3 
  281000     1.124867   -7.2907191    92.308805   0.02737509  0.028776789            4 
  282000    1.1656475    -7.290547     92.73063  0.027402668  0.028753304            1 
  283000    1.1489627   -7.2973036    92.615397  0.027271907  0.028730359            2 
  284000    1.1461395   -7.2981725    93.022482  0.027295329  0.028705708            4 
  285000    1.1631231   -7.3319772    92.922664  0.027170369  0.028680981            2 
  286000    1.1369005   -7.2936115    93.412035  0.027217959  0.028655855            6 
  287000     1.149346   -7.3213849    93.627861   0.02718579  0.028631103            5 
  288000    1.1579803   -7.3210709    93.884752  0.027165727    0.0286068            5 
  289000    1.1556561   -7.3273404    94.223417  0.027169382  0.028582203            3 
  290000    1.1483117   -7.3039317    94.274091  0.027090256  0.028557109            3 
  291000    1.1371437   -7.3129083    94.855493  0.027163658  0.028532781            2 
  292000    1.1344376    -7.313619    95.344875  0.027210295  0.028509235            3 
  293000    1.1482794    -7.293086    95.465378    0.0271517  0.028486446            2 
  294000    1.1262059   -7.2782074    95.668669   0.02711697  0.028461887            2 
  295000    1.1381205   -7.3069849    95.904664  0.027091713  0.028437249            2 
  296000    1.1674526   -7.3140141    96.001373  0.027027414  0.028413391            3 
  297000    1.1521776   -7.3008759    96.395526  0.027047005  0.028389362            2 
  298000    1.1414649   -7.2875325    96.289667  0.026926641  0.028364936            2 
  299000    1.1517208   -7.3206056      96.8139  0.026982692   0.02834091            2 
  300000    1.1307464   -7.3124605    97.123175   0.02697866  0.028315413            4 
  301000    1.1231476   -7.3096123    96.965934  0.026845497  0.028290302            3 
  302000    1.1376586   -7.3304702     97.53663  0.026914081  0.028265588            2 
  303000    1.1273895    -7.287269    98.132444  0.026989121  0.028241096            4 
  304000    1.1559474   -7.3149037    98.009752  0.026866708  0.028216499            3 
  305000    1.1279595   -7.3178944    98.107406  0.026805302  0.028191315            2 
  306000    1.1251926   -7.3599387    98.317394  0.026774889  0.028165473            5 
  307000    1.1270466   -7.3229982    98.620111  0.026769845  0.028138952            2 
  308000    1.1405213   -7.2946386    99.232171  0.026848531  0.028112661            2 
  309000    1.1487326   -7.3519249    99.021035  0.026704702  0.028087389            8 
  310000    1.1381791   -7.3004186     99.69016   0.02679843  0.028061718            3 
  311000     1.150416   -7.3132118    99.843888  0.026753453  0.028036335            4 
  312000    1.1535219   -7.2958898    99.889856  0.026679983  0.028011126            3 
  313000    1.1274759   -7.3236905    100.17764  0.026671362  0.027984877            2 
  314000    1.1415011   -7.3214682    100.12027  0.026571197  0.027958519            3 
  315000    1.1272753   -7.3241818    100.05898  0.026470631  0.027931405            1 
  316000    1.1582846   -7.3237248    100.37602   0.02647047  0.027903734            1 
  317000    1.1523714   -7.3452915    100.42172   0.02639898  0.027876276            1 
  318000    1.1386321   -7.3259716     100.8508  0.026428408  0.027847609            2 
  319000    1.0997468   -7.3305859    101.08617  0.026407045  0.027818812            2 
  320000    1.1255694   -7.3948307    101.34748  0.026392572  0.027790893            1 
  321000    1.1089507   -7.3149354    101.76983  0.026419997  0.027763459            2 
  322000     1.127179   -7.2694218    102.15509  0.026437654  0.027736864            4 
  323000    1.1108168   -7.3451468    102.32088  0.026398575  0.027710262            2 
  324000    1.1297214   -7.3134536    102.85783  0.026455204  0.027683986            4 
  325000    1.1170063   -7.3152049    103.22288  0.026467404  0.027658469            2 
  326000    1.1225881    -7.346353    103.14387  0.026366019  0.027633544            4 
  327000    1.1170797   -7.3697088    103.31672  0.026329438   0.02760799            6 
  328000    1.1207281   -7.3256249    103.52676   0.02630253   0.02758279            3 
  329000    1.1202979   -7.3266286    103.86017  0.026307034  0.027557544            2 
  330000    1.1314603   -7.3109585    104.14446  0.026299105  0.027532201            2 
  331000     1.119347    -7.385473    104.44782  0.026296026  0.027507374            4 
  332000    1.1213789   -7.3628292    104.39022  0.026202364  0.027481568            6 
  333000    1.1462135    -7.380974    104.65307  0.026189457  0.027454554            6 
  334000    1.1096378   -7.3390793    105.37084  0.026290131   0.02742936            6 
  335000    1.1136239   -7.3537166    105.28497  0.026190291   0.02740367           13 
  336000    1.1287011   -7.4008394    105.62166  0.026195849  0.027378297            2 
  337000    1.1072184   -7.3456807    105.87824  0.026181562  0.027354088            3 
  338000       1.0932   -7.3732645    106.27287  0.026201399  0.027329941            2 
  339000    1.1164256   -7.3705732    105.95635  0.026046301  0.027304622            3 
  340000    1.1095679   -7.3397055    106.60054  0.026127582  0.027278662            3 
  341000     1.115898   -7.3545159    106.87106  0.026117073   0.02725243            2 
  342000     1.117238   -7.3748261    106.51895   0.02595491  0.027225502            3 
  343000    1.0652031   -7.3427249    107.07223  0.026013662  0.027199104            4 
  344000    1.1292456   -7.3404824    107.54813  0.026053326  0.027172976            1 
  345000    1.1280258   -7.3488412    107.62474  0.025996313  0.027147096            3 
  346000    1.1092695   -7.3424139    107.84927  0.025975256  0.027121186            4 
  347000     1.137544   -7.3982309    107.54227  0.025826674  0.027094529            2 
  348000    1.0916821   -7.3082587    108.18974  0.025907505  0.027068201            2 
  349000    1.1116737   -7.3885916    108.12306  0.025817351  0.027042415            4 
  350000    1.1020466   -7.3675862    108.67165  0.025874203  0.027016723            3 
  351000    1.1114899   -7.3096693    109.33446  0.025957849   0.02699171            4 
  352000    1.0862437   -7.3220454    109.22355  0.025857848  0.026966796            2 
  353000    1.1020238   -7.3852765    109.35976  0.025816752  0.026941149            3 
  354000    1.1348047   -7.3651549    109.44373  0.025763591  0.026915453            4 
  355000    1.0882804   -7.3970744    109.48957  0.025701778  0.026889826            4 
  356000    1.1110193   -7.3583506    110.02794  0.025755604  0.026864076            2 
  357000    1.0855291   -7.3733626    110.17193  0.025717071  0.026838368            3 
  358000    1.1430159   -7.3494041    110.50961  0.025723837  0.026813038            1 
  359000    1.0953466   -7.3584801    110.29707  0.025602849  0.026786907            3 
  360000    1.1204199   -7.3565135    110.17338  0.025503097  0.026760029            1 
  361000    1.1079248    -7.371265    110.41783  0.025488881  0.026732871            1 
  362000    1.1017711   -7.3687116    111.09068  0.025573361  0.026705932            2 
  363000    1.1150984   -7.3430054    111.29351  0.025549475  0.026679772            1 
  364000      1.10146   -7.3864246    111.22522  0.025463648  0.026653493            2 
  365000    1.1208729   -7.4064801     111.5185  0.025460844   0.02662641            6 
  366000    1.1007677   -7.3848226    111.77356  0.025449354  0.026599521            6 
  367000    1.1263316    -7.391389     111.9341  0.025416461  0.026573235            2 
  368000    1.1046948   -7.4360986    111.65617  0.025284459  0.026545623            2 
  369000    1.1071193   -7.3563593    112.93627  0.025505029  0.026518682            4 
  370000     1.061819   -7.4320413    112.66569  0.025375155  0.026492551            3 
  371000    1.1352926   -7.4497692    112.69427  0.025313178  0.026465672            2 
  372000    1.1246919   -7.3571797     113.3235  0.025386089  0.026439382            4 
  373000    1.0952264    -7.368129    113.40301  0.025335793  0.026412967            3 
  374000    1.0923667   -7.4277658    113.21102  0.025225271  0.026386254            3 
  375000    1.0850194   -7.4431805    113.30641  0.025179203  0.026358902            7 
  376000     1.108668   -7.3752071    113.94369  0.025253476  0.026331873            4 
  377000    1.1127038   -7.4342639    113.67368  0.025126808  0.026305154            3 
  378000    1.0971788   -7.4118295    113.94452  0.025120044  0.026277877            3 
  379000    1.1055713   -7.4589754    113.82883  0.025028326  0.026250068            1 
  380000    1.1286472   -7.3908952    114.88524  0.025194132  0.026222932            2 
  381000    1.0814979   -7.3856992    114.72296   0.02509251  0.026196473            2 
  382000     1.094583   -7.4250013    114.89004  0.025063272  0.026170167            3 
  383000     1.081244   -7.3978262    115.33396   0.02509442    0.0261435            2 
  384000    1.1192773   -7.4268466    115.55966  0.025078051   0.02611754            2 
  385000     1.116409    -7.425331    116.14361   0.02513931  0.026091961            2 
  386000    1.0822287   -7.4405793    115.88168  0.025017634  0.026065939            2 
  387000      1.13313   -7.4438389    116.22004  0.025025848  0.026039736            2 
  388000    1.1130234   -7.4192637    116.55531  0.025033356  0.026013287            6 
  389000    1.0988819   -7.4252689    116.00379  0.024850855  0.025986667            4 
  390000    1.1146659   -7.3977799    116.58975  0.024912339  0.025960054            3 
  391000    1.0835583   -7.4389339    116.99904  0.024935856  0.025933749            4 
  392000    1.0870696   -7.4179482    116.80757  0.024831542  0.025907163            4 
  393000    1.0733074   -7.4214015    117.26144  0.024864597  0.025880998            2 
  394000    1.0843208   -7.4265986    117.57503  0.024867815  0.025854244            6 
  395000    1.0809061   -7.4613408    116.92852  0.024668464  0.025827153            4 
  396000    1.0952295    -7.374892    118.41874  0.024919769  0.025800602            2 
  397000    1.0970036   -7.4162726    118.11547   0.02479334  0.025774833            2 
  398000    1.0951642   -7.3828807    118.83934   0.02488261   0.02574967            2 
  399000    1.1171691   -7.4168852    119.16249  0.024887737  0.025724752            2 
  400000    1.0783238   -7.3885702    119.10153  0.024812819  0.025699994            6 
  401000    1.1105722    -7.384714    119.49241  0.024832171  0.025675555            3 
  402000    1.0794165   -7.4630584    119.29506  0.024729489  0.025650738            4 
  403000    1.0839088   -7.4792439    119.34671  0.024678806  0.025625987            1 
  404000    1.0828099   -7.3905016    119.86967  0.024725592  0.025601315            2 
  405000    1.1197371   -7.3991538     120.5884  0.024812427  0.025577257            7 
  406000    1.1007759   -7.4322173    120.00539  0.024631649  0.025552084            1 
  407000    1.0790972   -7.4442502    120.21959  0.024614986   0.02552656            8 
  408000    1.1126662   -7.4493722    120.50533  0.024613017  0.025501772            2 
  409000    1.1130483   -7.4335181    120.36912  0.024525085  0.025477087            4 
  410000    1.0858288    -7.423162    120.98248  0.024589935  0.025452079            3 
  411000    1.0564817   -7.4120835    121.55628  0.024646447   0.02542744            4 
  412000    1.0646695    -7.448246    121.47167  0.024569512  0.025403452            2 
  413000    1.0874091   -7.4653296    121.67582  0.024551215  0.025379612            3 
  414000     1.085337   -7.4297288    122.03291   0.02456379  0.025356097            2 
  415000    1.1071717   -7.4185365    122.75335  0.024649267  0.025332924            1 
  416000    1.0819159   -7.4229163    122.46489  0.024532229  0.025309621            3 
  417000    1.0841027   -7.4648195     122.4912  0.024478658   0.02528587            2 
  418000    1.0866688   -7.4800621    123.21171  0.024563738  0.025263292            4 
  419000    1.0738581   -7.5339752    122.87097  0.024437345  0.025239954            6 
  420000    1.0957864   -7.4465114     122.9129   0.02438748  0.025216011            3 
  421000    1.0985993   -7.4335443    123.68312  0.024482011  0.025192527            3 
  422000    1.0780729   -7.4860531    123.71246   0.02442979  0.025169295            3 
  423000    1.0627118   -7.4973859    123.67895  0.024365435  0.025146317            5 
  424000    1.1022549   -7.4960455    124.30771  0.024431547  0.025123649            3 
  425000    1.0816905   -7.4772966    124.83511  0.024477472   0.02510176            3 
  426000    1.0760932   -7.4637382    125.02924  0.024457988  0.025080267            5 
  427000    1.0792873   -7.4871243    125.06951   0.02440857  0.025058539            3 
  428000    1.0829688   -7.4888978    125.25828  0.024388294  0.025036865            5 
  429000     1.081929   -7.4612638    125.42908  0.024364623  0.025015458            6 
  430000    1.0903023   -7.4525867    125.85398  0.024390306  0.024994402            1 
  431000    1.0977757   -7.4600939    126.47661  0.024454101  0.024973324            4 
  432000    1.0630954   -7.4628527    126.46983  0.024396187  0.024952323            2 
  433000    1.0817827    -7.448567    126.60984  0.024366789  0.024931295            3 
  434000    1.0593524   -7.4460535    127.03842  0.024392937  0.024910398            2 
  435000    1.0772081   -7.4477072    126.49355  0.024232481  0.024889304            2 
  436000    1.0622832   -7.4843226     127.0972  0.024292278  0.024867171            3 
  437000    1.0828247   -7.4360235    127.33447  0.024281935  0.024845528            2 
  438000    1.0701102   -7.4814748    127.43265  0.024245177   0.02482459            4 
  439000    1.0624663   -7.4388413    127.79616  0.024258953  0.024803747            2 
  440000    1.0670452   -7.4896891    127.80638  0.024205754  0.024783399            1 
  441000    1.0857333   -7.4490336    128.20047  0.024225335  0.024762839            3 
  442000     1.070528   -7.4796616     128.4514  0.024217836  0.024742247            2 
  443000    1.0563536    -7.439939    128.68171  0.024206492  0.024721652            3 
  444000    1.0907626   -7.4965214     128.9921  0.024210229   0.02470119            2 
  445000     1.097661   -7.5044589    128.96665  0.024151059  0.024680161            4 
  446000    1.0654048   -7.4451344    129.58296  0.024212062  0.024659856            2 
  447000     1.084944   -7.4828232     129.5616  0.024153914  0.024640151            2 
  448000    1.0883506   -7.4571797    129.97927  0.024177691  0.024620441            3 
  449000    1.0718263   -7.4670289    130.60353  0.024239705  0.024601215            2 
  450000    1.0617458   -7.5001188    130.19273  0.024109764  0.024581677            4 
  451000    1.0638793   -7.4894428     130.6321  0.024137491  0.024562215            7 
  452000    1.0682432   -7.5135886     130.8817  0.024130106  0.024543099            6 
  453000    1.0836622   -7.4869731    131.52231  0.024194685  0.024524198            5 
  454000    1.0791443   -7.5101438    131.58507  0.024152912  0.024505708            3 
  455000    1.0805099   -7.5261895      131.894   0.02415641  0.024487364            3 
  456000    1.0571024   -7.4756778    132.51766  0.024217408  0.024469606            4 
  457000    1.0508658   -7.4925895    132.49073  0.024159505  0.024451792            2 
  458000    1.0745812   -7.4737459    132.63514  0.024133032  0.024434202            3 
  459000    1.0652616   -7.5013476    132.67227  0.024087195  0.024416662            3 
  460000    1.0473152   -7.5133552    133.29231  0.024147158  0.024399255            4 
  461000    1.0666934   -7.5084327    133.64807  0.024159087  0.024382015            7 
  462000    1.0642067   -7.4326412    133.81924  0.024137669  0.024364833            2 
  463000    1.0627715   -7.4665917    133.88224  0.024096875  0.024347623            2 
  464000    1.0546844   -7.5404237    133.70027  0.024012261  0.024330808            2 
  465000    1.0639435   -7.4734036     134.1959  0.024049444  0.024313996           13 
  466000    1.0705279   -7.4697882    134.79809  0.024105523  0.024297272            3 
  467000    1.0682304   -7.4836453    134.54191  0.024008192   0.02427984            2 
  468000    1.0577059   -7.5318117    134.62496  0.023971681  0.024262206            5 
  469000    1.0645666   -7.4627143    135.21172  0.024024825  0.024244957            2 
  470000    1.1021115   -7.5020622    135.47307  0.024020048  0.024228435            6 
  471000    1.0653477    -7.498372    135.38729  0.023953872  0.024211899            5 
  472000     1.059303   -7.5070646    135.98732  0.024009061  0.024195399            2 
  473000    1.0521255   -7.4778446    136.15476  0.023987801  0.024179186            3 
  474000    1.0383066   -7.4911388    136.83424  0.024056652  0.024163702            3 
  475000      1.05788   -7.5508438    136.47667  0.023943275  0.024147811            6 
  476000    1.0678347   -7.5005358    137.12914  0.024007202  0.024131541            7 
  477000    1.0474576   -7.4991138     137.4014  0.024004438  0.024115489            3 
  478000    1.0457872   -7.5045856      137.176  0.023914924  0.024099829            3 
  479000    1.0938909   -7.5255024    137.44179  0.023911237  0.024083466            3 
  480000    1.0780241    -7.513707    137.48748  0.023869354  0.024066847            3 
  481000    1.0714883   -7.5083319    137.20653  0.023771055   0.02405017            8 
  482000    1.0772837   -7.4582786    137.94212  0.023848915  0.024033449            5 
  483000    1.0419438   -7.4990851    137.85523  0.023784545  0.024016696            6 
  484000    1.0628292   -7.5057522    137.85658  0.023735637  0.023999361            5 
  485000    1.0614592   -7.4846411    138.77099  0.023843813    0.0239826            3 
  486000    1.0424743   -7.5293289    138.39777  0.023730756  0.023965601            4 
  487000    1.0481298   -7.5450269    138.68541  0.023731248  0.023948773            3 
  488000    1.0542115   -7.5154524    139.30334  0.023788139   0.02393214            3 
  489000    1.0506576   -7.5408009    139.17807  0.023718144  0.023915735            2 
  490000    1.0549292   -7.4815108    139.67268  0.023753858  0.023899301            2 
  491000    1.0565945   -7.5230832    139.84162  0.023734152  0.023882494            7 
  492000     1.048024   -7.5544712    139.62974  0.023650024  0.023865564            4 
  493000    1.0774864   -7.5491443    139.97296  0.023660067  0.023848759            3 
  494000    1.0418558   -7.5234968    140.27721  0.023663496  0.023832095            7 
  495000    1.0573867   -7.5173507    140.48382  0.023650476  0.023815746            3 
  496000    1.0459928   -7.5163358    140.39815  0.023588399   0.02379933            2 
  497000    1.0496972    -7.509417    141.21283  0.023677537  0.023782912            4 
  498000    1.0782367   -7.5134361    141.16313  0.023621674  0.023766269            6 
  499000    1.0352039   -7.5324666    140.85686  0.023523189  0.023749128            3 
  500000     1.054765   -7.5316677    141.32039  0.023553398  0.023732256            5 
  501000    1.0333513   -7.5132558    141.39398  0.023518626  0.023715443            2 
  502000    1.0539398   -7.5457587    141.88998  0.023554114  0.023698321            3 
  503000    1.0634706   -7.5547564    141.02359  0.023363749  0.023681418            5 
  504000    1.0335636   -7.5349484    142.17141  0.023507178   0.02366451            6 
  505000    1.0438941   -7.5170781    142.46859  0.023509669  0.023647974            3 
  506000    1.0491042   -7.5194997    142.37228  0.023447345  0.023631279            3 
  507000    1.0382561   -7.5252866    142.95782  0.023497341  0.023614467            3 
  508000    1.0357911   -7.5648777    142.17027  0.023321894   0.02359747            4 
  509000    1.0589644   -7.5295001    142.27587  0.023293365  0.023580104            2 
  510000    1.0554238    -7.538542    142.64078  0.023307317   0.02356242            3 
  511000    1.0657927    -7.606278    142.12793  0.023178071  0.023544315           12 
  512000    1.0488946   -7.5650227    142.61373   0.02321187  0.023526177            4 
  513000    1.0345323   -7.5207729    143.46814  0.023305415   0.02350784            3 
  514000    1.0507772   -7.5559844    143.08221  0.023197506  0.023489987            6 
  515000     1.046921   -7.5565627    143.44036  0.023210414  0.023472032            2 
  516000    1.0453125   -7.5819566    142.91372  0.023080381  0.023454247            3 
  517000    1.0267764    -7.533138    144.04954  0.023218817  0.023436452            3 
  518000    1.0432071    -7.581074    143.51121  0.023087389  0.023418751            4 
  519000    1.0632292    -7.547238    144.50124  0.023201868  0.023401061            3 
  520000    1.0693914   -7.5604239    143.87636  0.023057108  0.023382939            4 
  521000    1.0517451   -7.5641556    144.18894   0.02306285  0.023364542            7 
  522000    1.0472459   -7.5280107    144.62653  0.023088526  0.023346779            2 
  523000    1.0394794   -7.6023192    144.18476  0.022973991  0.023328498            2 
  524000    1.0241981   -7.5777991     144.5521  0.022988566  0.023310266            2 
  525000    1.0438054   -7.5350047    145.32029  0.023066713  0.023291892            2 
  526000    1.0277787   -7.5851404    145.13335  0.022993243  0.023274307            5 
  527000    1.0348253   -7.5831961    145.65044  0.023031379  0.023256796            2 
  528000     1.036861   -7.6089481    145.69964  0.022995523   0.02323965            8 
  529000    1.0521116    -7.592827    145.84825  0.022975465  0.023222192            2 
  530000    1.0524819   -7.6085078    145.46347  0.022871615  0.023204215            2 
  531000    1.0560288   -7.5714645    146.14588  0.022935637   0.02318617            2 
  532000    1.0393202   -7.6012342    146.03319  0.022874873  0.023168247            6 
  533000    1.0534558   -7.5551947    146.71922  0.022939214  0.023150262            4 
  534000    1.0438724   -7.5435354    146.92231  0.022927951  0.023132706            6 
  535000    1.0303695   -7.6071353    147.16352  0.022922666  0.023114806            6 
  536000    1.0366771   -7.6117814    146.78921  0.022821706  0.023096897            6 
  537000    1.0193496   -7.5990156    146.99749  0.022811529  0.023079222            2 
  538000    1.0259516   -7.6050444    146.90344  0.022754561  0.023061122            6 
  539000    1.0367502   -7.5783077    147.49479  0.022803771  0.023042916            5 
  540000    1.0295658     -7.58759    147.55234  0.022770422  0.023025027            4 
  541000    1.0390706   -7.5833841    148.12912  0.022817177  0.023007103            3 
  542000    1.0397772   -7.5940643    147.90078  0.022739972  0.022989359            3 
  543000    1.0296711   -7.5881872    148.18556  0.022741798  0.022971748            4 
  544000    1.0239969   -7.6088697    148.51657  0.022750701  0.022953715            2 
  545000    1.0361036    -7.619831    148.29045  0.022674381   0.02293568            4 
  546000    1.0094491   -7.6356695    148.61942  0.022683062  0.022917792            8 
  547000    1.0122219   -7.6459743    148.65489  0.022646998  0.022899818            5 
  548000    1.0512361   -7.5651365    149.60535  0.022750205  0.022882655            4 
  549000    1.0390061   -7.6144609     149.5582  0.022701609  0.022865557            3 
  550000    1.0290492   -7.6120976    149.51268  0.022653437  0.022848598            6 
  551000    1.0307254   -7.5753674    150.06125  0.022695289  0.022831659            2 
  552000    1.0273128   -7.5946926    149.85699  0.022623338  0.022814707            2 
  553000    1.0208063   -7.6194866    150.44335  0.022670788  0.022797878            3 
  554000    1.0160096   -7.6107807    150.77069  0.022679106  0.022781226            6 
  555000    1.0410902   -7.5972363    150.89278  0.022656574  0.022764703            4 
  556000    1.0449075   -7.5842172      151.264  0.022671462  0.022748219            6 
  557000    1.0245153   -7.5949466    151.21764  0.022623824  0.022731621           26 
  558000    1.0631517   -7.5974869    151.28163  0.022592836  0.022715305            6 
  559000    1.0291976   -7.5773309    151.25527  0.022548489  0.022699035            5 
  560000   0.99614641   -7.5766884    151.81523  0.022591552  0.022682496            5 
  561000    1.0369002   -7.5719063     151.5936   0.02251836  0.022665953            6 
  562000    1.0053331   -7.6191376    151.74059  0.022500087  0.022649335            3 
  563000    1.0584401   -7.6325457    151.82342  0.022472383  0.022632718            2 
  564000    1.0309649   -7.6531559    152.10234   0.02247375  0.022616175            3 
  565000    1.0108793   -7.6325535    152.22352  0.022451847  0.022599346            4 
  566000      1.02317   -7.6445633    151.58054  0.022317512  0.022581925            7 
  567000    1.0173708   -7.6136196    152.45456  0.022406607  0.022564715            3 
  568000    1.0390545   -7.5625766    152.73823  0.022408777  0.022547313            8 
  569000    1.0144519   -7.6197033    152.63068  0.022353645  0.022529792            4 
  570000    1.0404742   -7.6498409    152.42205  0.022283926  0.022511892            4 
  571000    1.0208354   -7.5963076     153.0427  0.022335479  0.022493995            2 
  572000     1.018053   -7.5904194    152.90243  0.022275995  0.022476145            4 
  573000    1.0015044   -7.6081159    152.68801  0.022205936  0.022458174            2 
  574000    1.0082444   -7.6226724    153.12394  0.022230537  0.022440495            4 
  575000    1.0283127   -7.6417111    152.81671   0.02214735  0.022422837            3 
  576000    1.0402751   -7.6658851     153.3101   0.02218028  0.022405107            2 
  577000    1.0036459   -7.6459235    153.37739  0.022151559   0.02238743            6 
  578000    1.0437649   -7.6320838    154.03831  0.022208522  0.022369856            3 
  579000    1.0260907   -7.6177137    154.26398  0.022202645  0.022352579            3 
  580000    1.0303224   -7.6253519    154.29668  0.022169063  0.022335214            2 
  581000    1.0171871   -7.6690325    154.54827  0.022166993  0.022317961            3 
  582000    1.0238832   -7.6656169    154.55353  0.022129658  0.022300708            1 
  583000    1.0405672   -7.6426094     154.2165  0.022043525  0.022283163            3 
  584000    1.0143776   -7.6525627    154.58277  0.022058044  0.022265526            4 
  585000    1.0303351   -7.6640377    154.56814  0.022018254  0.022247652            7 
  586000    1.0263742   -7.6534156    154.57482  0.021981629  0.022229603            6 
  587000    1.0382075   -7.6214119     155.2526  0.022040403    0.0222115            3 
  588000    1.0064358   -7.6259533    155.31482  0.022011738   0.02219387            3 
  589000    1.0252718   -7.6088195    155.41346  0.021988322   0.02217634            5 
  590000    1.0209948   -7.6210823      155.456  0.021957062  0.022158483            2 
  591000   0.99508849   -7.6228678    155.97427  0.021992988  0.022140857            4 
  592000    1.0416031   -7.6700843    155.29511  0.021860235  0.022122962            4 
  593000     1.015196   -7.6164767    156.07272  0.021932647  0.022105329            6 
  594000    1.0202498   -7.6269079     156.5559   0.02196351  0.022087975            4 
  595000    1.0142295   -7.6644967      156.165  0.021871848  0.022070272            3 
  596000    1.0165271   -7.6360658    156.90063  0.021938008  0.022052828            3 
  597000    1.0044976   -7.6296959    156.81263  0.021888977  0.022035468            2 
  598000    1.0236667   -7.6604279    157.25955  0.021914653  0.022018384            1 
  599000    1.0348952   -7.6544114    157.33076  0.021887974    0.0220013            3 
  600000    1.0490282    -7.631584    157.60254  0.021889242  0.021984655            4 
  601000    1.0110341   -7.6482068    158.11177  0.021923429   0.02196782            4 
  602000    1.0185777   -7.6869833    157.80458  0.021844488  0.021951167            2 
  603000    1.0167614   -7.6946534    157.89732  0.021821078  0.021934181            3 
  604000    1.0361759   -7.6640364    158.30651  0.021841405  0.021917387            8 
  605000    1.0212175   -7.6563831    158.37177  0.021814293  0.021900622            4 
  606000    1.0243697   -7.6425057    158.71736   0.02182582  0.021883922            5 
  607000    1.0067718   -7.6131602    158.90314  0.021815368  0.021867289            5 
  608000    1.0063796   -7.6804952    158.96908  0.021788525  0.021850714            7 
  609000    1.0276972   -7.6548303     159.3484  0.021804653  0.021834248            2 
  610000    0.9955693   -7.6668609    159.01142  0.021722871  0.021817603            4 
  611000   0.98397737   -7.6937754     158.7945  0.021657734   0.02180102            3 
  612000    1.0000284   -7.6654985    159.43303   0.02170929  0.021784023            2 
  613000    1.0089161   -7.6581892    159.31487  0.021657813  0.021767147            6 
  614000    1.0182502   -7.6653864    159.39999  0.021634093  0.021750209            9 
  615000    1.0178609   -7.6421215    160.06597  0.021689156  0.021733593            8 
  616000    1.0044292   -7.6576047    159.63487  0.021595627  0.021716993            4 
  617000    1.0181827   -7.6396537    159.68438  0.021567312  0.021699836            9 
  618000     1.010704    -7.654196    159.97275  0.021571299  0.021682658            4 
  619000    1.0126504   -7.6660555    159.81112  0.021514691  0.021665321            5 
  620000    1.0171427   -7.6891663    159.74766   0.02147146  0.021648011            7 
  621000    1.0134771   -7.6801549    160.10495   0.02148483   0.02163068            4 
  622000    1.0318851   -7.6635237    160.20958  0.021464306  0.021613528            2 
  623000   0.99684078   -7.6712804    160.54831  0.021475162  0.021596302           13 
  624000    1.0130879   -7.6517433    160.65866  0.021455484  0.021579134            4 
  625000    1.0135238   -7.6727546    160.88198   0.02145093  0.021561939            4 
  626000     1.009811    -7.656907    160.87901  0.021416268   0.02154453            6 
  627000   0.99473039   -7.6938519    160.62851  0.021348819  0.021527324            7 
  628000   0.99897173   -7.6887028    161.17252  0.021387012  0.021510063            4 
  629000    0.9837864    -7.670043     161.5592   0.02140424   0.02149297            1 
  630000    1.0026517   -7.6644106    162.04499  0.021434523  0.021476024            4 
  631000   0.99271118   -7.6621103    161.68393  0.021352869  0.021459049            4 
  632000    1.0163768   -7.6426284    162.15097  0.021380666  0.021442193            3 
  633000    1.0004646   -7.6668896    161.73088  0.021291585  0.021425536            1 
  634000    1.0012303   -7.6922605    162.46166  0.021354057  0.021408575            6 
  635000    1.0154596   -7.6793188    162.47847  0.021322634  0.021391474            2 
  636000    1.0083678   -7.7253011    161.63266  0.021178284  0.021374171            1 
  637000    1.0163504   -7.6917212    162.63731  0.021276467  0.021356935            4 
  638000    1.0225098   -7.6503346    162.93033  0.021281391  0.021339785            2 
  639000   0.98853554   -7.6882159    162.63184   0.02120916  0.021322565           11 
  640000   0.96896601   -7.7250094    162.37446  0.021142508  0.021305353            4 
  641000    1.0208086   -7.7090336    162.68197  0.021149501  0.021288049            3 
  642000     0.991586   -7.7135619    162.56129  0.021100894  0.021270718            3 
  643000   0.99751245   -7.6518765    163.27204  0.021160192  0.021253777            5 
  644000   0.98069999    -7.680062    163.11716  0.021107293  0.021236861            3 
  645000    1.0124601   -7.6978374    163.28742  0.021096566  0.021219939            3 
  646000    1.0036436   -7.6756389    163.65104  0.021110815  0.021203163            2 
  647000   0.98939282   -7.6704933    163.58565  0.021069764  0.021186366            6 
  648000   0.97289903   -7.6901764    163.89593  0.021077151   0.02116955            4 
  649000   0.99516627   -7.6817918    164.25383  0.021090631  0.021152505            6 
  650000    1.0130505   -7.7049907    163.77523  0.020996824   0.02113507            2 
  651000   0.99103331   -7.7356135    163.92251  0.020983424  0.021117816            9 
  652000   0.98223248   -7.7301827    163.70736  0.020923743  0.021100326           10 
  653000   0.99391311   -7.7347165    163.76195  0.020898666  0.021082931            4 
  654000    1.0073578   -7.7402015     164.4229  0.020950931  0.021065926            5 
  655000    0.9960786   -7.6927992    164.94353  0.020985182  0.021049109            5 
  656000    1.0060259   -7.6889893    165.54441  0.021029523  0.021032393            2 
  657000    1.0289457   -7.7054546    164.93077  0.020919682  0.021015505            6 
  658000   0.98027151   -7.7082198     165.6214  0.020975355  0.020998674            3 
  659000   0.97882212   -7.7005008     165.0276  0.020868437  0.020981774            2 
  660000    0.9834028   -7.7269274    165.64158  0.020914341   0.02096512            4 
  661000   0.98807255   -7.6802435    165.87169   0.02091171  0.020948355            4 
  662000    0.9986252   -7.7112276    165.59838  0.020845717  0.020931415            7 
  663000   0.98745003   -7.7447932    165.55337  0.020808619  0.020914692            4 
  664000    1.0097806    -7.730425    165.94515  0.020826449  0.020897532            4 
  665000   0.97291184   -7.7527969    165.99024  0.020800782  0.020880323            6 
  666000    0.9997186   -7.7278478    166.20204  0.020796051  0.020863423            3 
  667000   0.99239279   -7.7210559    166.29788  0.020776846  0.020846523            7 
  668000   0.98736265   -7.7271264    166.27261   0.02074259  0.020829616            8 
  669000    1.0123734   -7.7131374    166.70012  0.020764838  0.020812883            5 
  670000    1.0013981   -7.7360374    167.05755  0.020778302  0.020796397            3 
  671000   0.97154919   -7.7078832     166.8659  0.020723534  0.020779935            6 
  672000   0.98386109   -7.6942429    167.58108  0.020781383  0.020763626            2 
  673000   0.96783863   -7.7432172    167.32558  0.020718868  0.020747367            3 
  674000   0.99265808   -7.7456739    167.46958  0.020705932  0.020731041            4 
  675000   0.98714873   -7.7161029    168.49751  0.020802162   0.02071509            2 
  676000   0.98111917   -7.7218542    168.15942  0.020729712  0.020699264            6 
  677000   0.95924973   -7.7272339     168.5727  0.020749962  0.020683427            8 
  678000   0.98321581   -7.7163829    168.50766  0.020711364  0.020667448            5 
  679000   0.98700378   -7.6874936    169.23605  0.020770257  0.020651478           14 
  680000   0.98085687   -7.6959426    168.75754  0.020681072  0.020635708            6 
  681000   0.97516469   -7.7735131    168.20304  0.020582849  0.020619535            3 
  682000   0.97097702    -7.752732    168.55459  0.020595625  0.020603089            4 
  683000   0.99126159   -7.7243081    169.03748  0.020624387  0.020586647            1 
  684000   0.98555952   -7.7719762    168.61184  0.020542379  0.020570355            5 
  685000    1.0157261      -7.7759    168.79916  0.020535177   0.02055399            6 
  686000   0.97288973   -7.7602488     168.8051  0.020505964  0.020537771            4 
  687000   0.97856157    -7.708845    169.60788  0.020573494  0.020521466            4 
  688000   0.98267857    -7.754036    169.19376   0.02049343  0.020505151            3 
  689000   0.97006473   -7.7638818    169.38188  0.020486439  0.020488687            7 
  690000   0.99513338   -7.7729259    169.48281  0.020468938  0.020472288            4 
  691000   0.98978172   -7.7566917    169.12266  0.020395883   0.02045613            4 
  692000    1.0024908   -7.7517634    169.67841  0.020433335  0.020439935            3 
  693000   0.96798797   -7.7332825    169.99201   0.02044156  0.020423954            4 
  694000   0.99243133   -7.7105391    170.07554  0.020422134  0.020407901            3 
  695000   0.97286623   -7.6987235    170.35846  0.020426674  0.020391992            6 
  696000   0.95469418   -7.7701029    169.83548  0.020334708  0.020375878            3 
  697000   0.96617737   -7.7923545    170.05335  0.020331581  0.020359583            2 
  698000    0.9720107   -7.8009294    170.22244  0.020322641  0.020343265            3 
  699000    1.0017475   -7.7948362    170.51721  0.020328708  0.020326854            7 
  700000   0.97654273   -7.7389241     170.6747  0.020318417  0.020310762            6 
  701000   0.98794965   -7.7765997    170.78735  0.020302823  0.020294613            2 
  702000   0.96820509   -7.7483746    170.98416  0.020297265   0.02027843            6 
  703000   0.93251332   -7.7746795    171.68041  0.020350926  0.020262374            3 
  704000    1.0014881    -7.752208    171.00078  0.020241569  0.020246016            7 
  705000   0.97721661    -7.801519    170.99754  0.020212475  0.020229646            7 
  706000   0.99149718   -7.7749034     171.4863  0.020241536  0.020213475            9 
  707000   0.99338043   -7.7731602    171.57452  0.020223306  0.020197264            3 
  708000   0.97753079   -7.7573389    172.17626  0.020265567  0.020181446            3 
  709000   0.95647458   -7.7388285    171.74222  0.020185968  0.020165599            5 
  710000   0.97324981   -7.8211403    171.84219  0.020169271  0.020149514            3 
  711000   0.97649653   -7.8141841     171.7134  0.020125809  0.020133468            7 
  712000    0.9723345   -7.7863062    171.86095  0.020114812  0.020117572            6 
  713000   0.95507266   -7.7914966    172.34639  0.020143337  0.020101631            6 
  714000   0.95015078   -7.7715824    172.43409   0.02012536  0.020085392            5 
  715000   0.97597547   -7.8053988     172.3235  0.020084324  0.020069317            6 
  716000   0.97399608   -7.7826617    172.62148  0.020090954  0.020053283            4 
  717000   0.97124722   -7.8070397    172.63514  0.020064521   0.02003728            6 
  718000   0.96063348   -7.8204745    172.38851  0.020007951  0.020021397            4 
  719000   0.96523077   -7.8543167      172.459  0.019988294  0.020005281            3 
  720000   0.96584468    -7.795545    172.97226  0.020019938  0.019988976            4 
  721000   0.96960696   -7.7928814    173.47809  0.020050634  0.019973058           10 
  722000   0.94426881   -7.7728837    172.86853  0.019952508  0.019957229            3 
  723000   0.95312904   -7.8012054    173.06734  0.019947827  0.019941439            4 
  724000   0.96683983    -7.789172    173.50549  0.019970706   0.01992565            7 
  725000   0.96077809   -7.7798338    174.08404   0.02000966  0.019909862            2 
  726000    0.9651488   -7.7703892    173.93341  0.019964808  0.019894302            4 
  727000   0.96671617   -7.8008794    174.09984  0.019956423  0.019878659            6 
  728000   0.95573118   -7.7872181    174.05708  0.019924116  0.019862919            5 
  729000   0.97401275   -7.7883045    174.26295  0.019920319  0.019847175            4 
  730000   0.96974315   -7.8304113    173.88284  0.019849639  0.019831505            6 
  731000   0.96786408   -7.8098133    174.46759  0.019889146  0.019815913            5 
  732000   0.95454849   -7.8270418    174.24922  0.019837115   0.01980007            7 
  733000    0.9511077   -7.8195761    174.49028  0.019837458  0.019784257            3 
  734000   0.96078874   -7.7704428    174.36904  0.019796666  0.019768605            3 
  735000   0.97095174   -7.7995819    175.04311  0.019846157  0.019752874            3 
  736000   0.96661924   -7.8007223    175.19396  0.019836273  0.019737078            5 
  737000   0.98454724   -7.8402475    174.94549  0.019781263  0.019721385            5 
  738000     0.952084    -7.843948    174.92059  0.019751648   0.01970555            8 
  739000   0.97176157   -7.8571811    174.60134   0.01968892  0.019689679           13 
  740000   0.94722708   -7.7957305    175.43513  0.019756208  0.019673922            3 
  741000   0.94775155   -7.8497033    175.13265   0.01969553  0.019658139            3 
  742000   0.96254282    -7.828584    175.62014  0.019723735  0.019642578           12 
  743000   0.95721239    -7.830258     175.7032  0.019706505  0.019626982           10 
  744000   0.95746617   -7.7899562    175.89946     0.019702  0.019611347            3 
  745000   0.94181168   -7.8266982    175.76133  0.019660105  0.019595741            8 
  746000   0.97851966   -7.8481651    175.65171  0.019621505  0.019580017            6 
  747000   0.97614672   -7.8497515     176.1723  0.019653313  0.019564211            3 
  748000   0.97692566   -7.8544093    175.97488  0.019605044  0.019548245            2 
  749000   0.95317207   -7.8428913    176.10444  0.019593285  0.019532301            3 
  750000   0.93790889   -7.8518961    176.08695  0.019565217   0.01951635            9 
  751000   0.93503057   -7.8351369    176.19273  0.019550902  0.019500593            8 
  752000   0.96731387   -7.8787599    176.03153   0.01950704  0.019484874            5 
  753000   0.96555218    -7.864394    176.36275   0.01951779  0.019469106            7 
  754000    0.9514255   -7.8307761    176.48516  0.019505434  0.019453309            4 
  755000   0.95480832   -7.8474157    176.08714  0.019435666  0.019437496            3 
  756000   0.94962165   -7.8514488    176.81321  0.019489993  0.019421437            3 
  757000   0.95334896   -7.8339387    176.82589  0.019465642  0.019405516           17 
  758000   0.96144535    -7.863922    176.79372  0.019436425  0.019389524           16 
  759000   0.96375746   -7.8225348     176.6028  0.019389855  0.019373516            5 
  760000   0.93510139   -7.8359683    176.70092    0.0193751   0.01935743            4 
  761000   0.94939274   -7.8266295    177.00655  0.019383109  0.019341454            6 
  762000   0.92948926   -7.8469466    177.01826  0.019358952  0.019325368            6 
  763000   0.95209925   -7.8389296    177.37723  0.019372786   0.01930947            6 
  764000   0.94630961    -7.836449    177.17884   0.01932579  0.019293657            4 
  765000   0.95602578   -7.8157213    177.70813  0.019358184  0.019277894            5 
  766000   0.93928753   -7.8499107    178.11462  0.019377134  0.019262056            9 
  767000   0.95081319   -7.8449663    177.11571  0.019243341  0.019245968           10 
  768000   0.94408804   -7.8330037    177.89865  0.019303239  0.019230129            8 
  769000    0.9432559   -7.8179772    178.29823  0.019321438  0.019214272            4 
  770000   0.95522531   -7.8857235    177.82391  0.019245012  0.019198553            6 
  771000   0.95412718   -7.8666742    178.04514  0.019243963  0.019182801           10 
  772000   0.95081535   -7.8239368    178.64761  0.019284069  0.019167171            4 
  773000   0.94542817   -7.8207577    179.02562  0.019299872  0.019151538           14 
  774000   0.93880944   -7.8705967    178.00073  0.019164592  0.019135895            6 
  775000   0.95110279   -7.8111192    179.10423  0.019258519  0.019120323            3 
  776000     0.960792   -7.8734235    178.54464  0.019173608   0.01910465            3 
  777000   0.93909745   -7.8631738    178.52095  0.019146391  0.019088818            6 
  778000   0.94667058   -7.8981675    178.65846   0.01913651   0.01907286            4 
  779000   0.95547559    -7.819313    179.09985  0.019159163  0.019056957            4 
  780000    0.9326371   -7.8734962    178.66936  0.019088607  0.019041245           12 
  781000   0.93977975   -7.8629856    179.20676  0.019121507  0.019025579            5 
  782000   0.95906874    -7.838101     179.6617  0.019145535  0.019010011            7 
  783000   0.95926564   -7.8497264    179.39916  0.019093142  0.018994408            7 
  784000   0.93903669   -7.8434244    179.74512  0.019105561  0.018978739            4 
  785000   0.93113131   -7.8737089    179.25111   0.01902878  0.018963134            5 
  786000   0.95282305   -7.8752757    179.36953  0.019017125  0.018947462           12 
  787000   0.95361142   -7.8634786    179.43481  0.018999874  0.018931901           10 
  788000   0.94330458   -7.8587379    179.62949   0.01899635  0.018916278            6 
  789000   0.94766564   -7.8900521    179.54519   0.01896337  0.018900698            4 
  790000   0.94305092   -7.8750464    180.42163  0.019031817  0.018884992            1 
  791000   0.94526319   -7.8489744    179.46231  0.018906691  0.018869406            6 
  792000   0.94958667   -7.8617202    180.32978  0.018974093  0.018853772            4 
  793000   0.94300997   -7.9242413     180.0902   0.01892499  0.018838005            5 
  794000   0.92824403   -7.8878691    180.31592  0.018924845   0.01882238            9 
  795000   0.95305298   -7.9032321    180.11372  0.018879845  0.018806654            4 
  796000   0.94474837   -7.8952409    180.16356  0.018861344  0.018790726            7 
  797000   0.93410588     -7.91212    180.45539  0.018868192  0.018774985            6 
  798000   0.93425413   -7.9136216    179.78974  0.018775035  0.018759112           10 
  799000   0.92675663   -7.9087981    180.23349   0.01879782  0.018743189            5 
  800000   0.93332512    -7.883134    180.28455  0.018779641  0.018727349            3 
  801000   0.93329828   -7.9218472    180.27402    0.0187551  0.018711517            4 
  802000   0.94002885   -7.9255326    180.14939  0.018718764  0.018695683            6 
  803000   0.94822125   -7.8684005    180.61654  0.018743933  0.018680009            6 
  804000   0.92381283   -7.8936953    180.70666  0.018729961  0.018664374            5 
  805000   0.93695536   -7.8887679    181.07958  0.018745298  0.018648667            6 
  806000   0.92886171   -7.8927763    181.05038  0.018719022  0.018632893            5 
  807000   0.94822019   -7.9215202    180.38629   0.01862725  0.018617091            8 
  808000   0.95314788   -7.9034089    180.96651  0.018664037  0.018601116            4 
  809000    0.9378057   -7.8803454    181.51813  0.018697788  0.018585357            4 
  810000   0.93185374   -7.8905656    181.37281  0.018659754   0.01856974            5 
  811000   0.92847864    -7.902093    181.31997  0.018631317  0.018554087            7 
  812000    0.9271072   -7.8816451    181.54619  0.018631588  0.018538269            3 
  813000    0.9369692    -7.910115    181.66982  0.018621343  0.018522387            8 
  814000   0.94713051   -7.9216296    181.51536  0.018582653  0.018506549            9 
  815000   0.93730464   -7.9021404    181.58593  0.018567069  0.018490874            5 
  816000   0.93130645   -7.9121985    181.57308  0.018543002  0.018475068            3 
  817000    0.9294765   -7.9083771    181.78267  0.018541684   0.01845919           12 
  818000   0.94216926   -7.9235287    181.99958  0.018541114  0.018443343            7 
  819000   0.94481554    -7.906823    181.95256  0.018513691  0.018427449           13 
  820000   0.92504398    -7.912993    181.86222  0.018481933  0.018411653            6 
  821000   0.93828886   -7.9055108    181.70668  0.018443633  0.018395963            6 
  822000    0.9203348    -7.899535    182.03553  0.018454534   0.01838026            5 
  823000   0.93099194   -7.8890619    182.18991  0.018447743  0.018364632            4 
  824000    0.9359209   -7.9457902    181.83232  0.018389191  0.018348951            6 
  825000   0.93425562   -7.8924238    182.55241  0.018439637  0.018333233            6 
  826000   0.92970846   -7.9329171     182.1961  0.018381367  0.018317544            8 
  827000   0.92444474   -7.9369757    182.40144  0.018379831  0.018301884            5 
  828000   0.91357773    -7.904883    182.84637  0.018402412  0.018286282            6 
  829000     0.934899   -7.9072088    183.05952   0.01840164  0.018270968            4 
  830000   0.93535145   -7.9178326    182.99697   0.01837319  0.018255481            3 
  831000   0.91358765   -7.9290897    183.07453  0.018358858  0.018240035            7 
  832000   0.92286175   -7.9026967    183.11228  0.018340573   0.01822475            5 
  833000   0.92690208    -7.942675    182.95811  0.018303132  0.018209463            3 
  834000   0.92377974   -7.9410301     183.6344  0.018348761  0.018194259            4 
  835000   0.92507813   -7.9336692    183.30259  0.018293672  0.018179088            3 
  836000   0.91873273   -7.9497664    183.86407  0.018327759  0.018163906            6 
  837000   0.92061313   -7.9065928    184.09338  0.018328692  0.018148776            7 
  838000   0.93377563   -7.8670772    184.47041  0.018344313  0.018133984            5 
  839000   0.93441688   -7.8949692    184.47765  0.018323168  0.018119141            9 
  840000   0.93190357   -7.9326862    184.31764   0.01828548  0.018104307           12 
  841000   0.91618952   -7.9135073    184.58541   0.01829027  0.018089445            5 
  842000   0.92102975    -7.916647    184.74397  0.018284241  0.018074513            4 
  843000   0.92386552   -7.9490442    184.58893  0.018247225  0.018059633            4 
  844000   0.91666129   -7.9608466    184.29607  0.018196689  0.018044647            8 
  845000   0.91979219    -7.960212    184.19865  0.018165548  0.018029686           12 
  846000   0.92167641   -7.9615933    184.59817  0.018183429  0.018014819            4 
  847000   0.92078773   -7.9291006     185.4018  0.018241027  0.018000025            4 
  848000   0.92638598   -7.9252429    185.33984  0.018213427  0.017985293            6 
  849000    0.9168075   -7.9751451     185.3183  0.018189861  0.017970524           10 
  850000   0.92118516   -7.9634599    185.20221   0.01815708  0.017955488            5 
  851000   0.92948171   -7.9546172     185.6224   0.01817689  0.017940634            4 
  852000     0.901391    -7.935103    185.41254   0.01813503  0.017925843            3 
  853000   0.90056965    -7.945994    185.43583  0.018116045  0.017911077            5 
  854000   0.91575616     -7.93535    185.57469  0.018108381  0.017896256            5 
  855000   0.92691198   -7.9259798    186.14981  0.018143257  0.017881657           13 
  856000   0.92080404   -7.9191093    186.24087  0.018130926   0.01786706            7 
  857000   0.93011305   -7.9454664    185.54373   0.01804198  0.017852532            7 
  858000   0.89784737   -7.9878261    185.63853   0.01803016  0.017837856            5 
  859000   0.91803678   -7.9670748    185.74064  0.018019076   0.01782319            3 
  860000   0.91557441   -7.9503102    186.09244  0.018032213  0.017808431            6 
  861000   0.89897702   -7.9567194     186.3075  0.018032085  0.017793806            6 
  862000   0.90808762   -7.9621844    186.35897  0.018016141  0.017779212            5 
  863000   0.88143834   -7.9561293     187.1955  0.018076043  0.017764672            3 
  864000   0.92581979   -7.9774903    186.56192  0.017994012  0.017750023            5 
  865000   0.92537308   -7.9849365    186.48895  0.017966181  0.017735419            6 
  866000   0.90470879   -7.9822941    186.43466   0.01794021  0.017720918           10 
  867000   0.90095716   -7.9824107    185.84353    0.0178627  0.017706184            6 
  868000    0.9042806   -7.9874465    186.78469  0.017932478  0.017691562            4 
  869000   0.90034761   -7.9745104    186.75394  0.017908893  0.017677081            4 
  870000    0.9035825   -7.9687814    186.97802  0.017909772  0.017662719            7 
  871000   0.90390326   -7.9791304    187.07518  0.017898505  0.017648361            3 
  872000   0.89823904   -7.9443458    187.14154  0.017884321   0.01763381            3 
  873000   0.91373119   -7.9779442    186.82842  0.017833946  0.017619288            5 
  874000   0.90826858   -7.9887705    187.23512  0.017852319  0.017604825            7 
  875000   0.88206899   -7.9763595    187.61533  0.017868126   0.01759034            5 
  876000   0.91413665   -7.9638561    187.77642  0.017863053  0.017575939            8 
  877000   0.90625976   -7.9629022    188.11476  0.017874835  0.017561549            4 
  878000    0.9101605   -7.9904181    187.68345  0.017813539  0.017547182            9 
  879000   0.90888579   -7.9697966    188.18188  0.017840527   0.01753295            8 
  880000     0.898003   -7.9979021     187.5873  0.017763949  0.017518645            8 
  881000    0.8996256   -7.9741652    187.38824  0.017724956  0.017504135            6 
  882000   0.88709231   -7.9520418     187.8632  0.017749735  0.017489652            6 
  883000    0.8797702   -7.9430193    188.20221  0.017761628  0.017475362            7 
  884000   0.88632283   -7.9748004     187.7651   0.01770033  0.017460989            6 
  885000   0.89040548   -7.9520937    188.46148  0.017745902  0.017446553            6 
  886000   0.89873049   -7.9908121    188.09349  0.017691261  0.017432212           10 
  887000   0.89667587   -7.9582427    188.27126  0.017688017  0.017417928           14 
  888000   0.92416211    -7.971449    188.72165  0.017710365  0.017403711            5 
  889000   0.90595943   -7.9629352    188.65906  0.017684576  0.017389545            7 
  890000   0.92158424   -7.9684845    188.83055  0.017680764  0.017375409            5 
  891000    0.8997111   -7.9913471    188.52561  0.017632399  0.017361105            4 
  892000   0.89056134   -7.9547342     189.0385  0.017660547  0.017346856            5 
  893000   0.88429487   -8.0039784    188.67768  0.017607099  0.017332559            6 
  894000   0.89423596   -7.9544233    189.32894  0.017648112  0.017318322            4 
  895000   0.91681909   -7.9699605    189.09881  0.017606965  0.017304066            8 
  896000   0.88545601   -7.9919245    188.71224  0.017551362   0.01728982           13 
  897000   0.90893678   -8.0061345     189.0857   0.01756649  0.017275586            6 
  898000   0.90627855   -8.0170532    188.76296  0.017516978  0.017261384            5 
  899000   0.88180686   -7.9714281    189.28626  0.017546001  0.017247208            2 
  900000   0.89744156   -8.0363187    188.67861  0.017470241  0.017232923           11 
  901000   0.88880138   -7.9897775     189.3444  0.017512431  0.017218607           12 
  902000   0.89734268    -8.015208    189.42155  0.017500143  0.017204271            8 
  903000   0.85522237   -8.0064842    189.50515  0.017488478  0.017190012            9 
  904000   0.88031323   -8.0754099    188.69783  0.017394711  0.017175631            4 
  905000   0.88548987    -8.021906    188.75675  0.017380916   0.01716113            8 
  906000    0.9019656   -8.0017473    188.86569  0.017371753  0.017146477            5 
  907000    0.8832677   -8.0245417    189.41238  0.017402828  0.017131848            5 
  908000   0.91125573   -8.0139234    189.44195  0.017386376  0.017117299            6 
  909000   0.89159378   -8.0361675    189.00958  0.017327611  0.017102809           10 
  910000   0.90778622   -8.0464494    188.58583  0.017269765  0.017088316           16 
  911000   0.89098688   -8.0572609    189.09588  0.017297464  0.017073779            4 
  912000   0.87930484   -8.0165315    189.41208   0.01730739  0.017059237            5 
  913000   0.88536692   -8.0481468    189.01038  0.017251769  0.017044809            6 
  914000   0.89884798   -8.0388538    189.46921  0.017274727  0.017030293            5 
  915000   0.88840288   -8.0608927     189.5237   0.01726081  0.017015757           11 
  916000    0.8742232    -8.026705    189.77774  0.017265078  0.017001191            6 
  917000    0.8896211   -8.0810232    188.93188  0.017169382  0.016986684            5 
  918000   0.89302071   -8.0254307    189.92058   0.01724043  0.016972209            8 
  919000   0.87447099   -8.0448408    189.80355  0.017211058  0.016957747            7 
  920000   0.88115668   -8.0262508    189.63028  0.017176656   0.01694329           13 
  921000   0.89943564    -8.017423      190.413  0.017228827  0.016928922           18 
  922000   0.88787096   -8.0142141    190.45489  0.017213927  0.016914615           14 
  923000   0.88645432   -8.0307931    190.89879  0.017235355  0.016900316            4 
  924000   0.88481374   -7.9865343     190.9374  0.017220184  0.016886221            9 
  925000   0.89327019   -8.0479261    190.37571  0.017150965  0.016872189            7 
  926000   0.87042602   -8.0336783    190.89645  0.017179306   0.01685813           11 
  927000   0.87781245   -8.0179477    191.31992  0.017198842  0.016844109           21 
  928000   0.88658649   -8.0367309    190.48677  0.017105493  0.016829946           17 
  929000    0.8674563   -8.0589334    190.45318  0.017084067  0.016815614           11 
  930000   0.89362395   -8.0851074    190.45079  0.017065483   0.01680132           11 
  931000   0.87277483   -8.0264686    190.94425  0.017091322  0.016787074            6 
  932000   0.86266413   -8.0738091     190.6248   0.01704442  0.016772999            7 
  933000   0.85734647    -8.034082    191.35841  0.017091677  0.016758986            6 
  934000   0.87325783   -8.0465528    190.98607  0.017040156  0.016744908           12 
  935000   0.90293334   -8.0403391    191.26661  0.017046935  0.016730924           13 
  936000    0.9014927   -8.0544543    191.13305  0.017016831  0.016716922            8 
  937000   0.89341688   -8.0350346    191.99694  0.017075502   0.01670311            5 
  938000   0.86687056   -8.0565936    191.71247  0.017032024   0.01668935            8 
  939000   0.88103458   -8.0703056    190.97773   0.01694868  0.016675329            7 
  940000   0.87879296   -8.0491512    191.51142  0.016977963  0.016661312           17 
  941000   0.88335463   -8.0302996    191.56808  0.016964938  0.016647235           18 
  942000   0.89482384   -8.0513992    191.91937  0.016978005  0.016633256            4 
  943000   0.87124701    -8.053845    191.88377  0.016956855  0.016619335           10 
  944000   0.86898914   -8.0103401    191.95668  0.016945328  0.016605498           10 
  945000   0.87822392   -8.0240788    191.94654  0.016926503  0.016591522            6 
  946000    0.8847045   -8.0719738    191.67941  0.016885078  0.016577456           25 
  947000    0.8700277   -8.0664966    191.44198  0.016846355  0.016563455            5 
  948000   0.89239799   -8.0534261    191.59772  0.016842275  0.016549447            4 
  949000   0.86747939   -8.0555772    191.64584  0.016828753  0.016535496            5 
  950000   0.87897137   -8.0401799    192.05244  0.016846705   0.01652147            5 
  951000   0.89122783   -8.0446999    192.10325  0.016833443  0.016507475            6 
  952000   0.87505549   -8.0923168    191.62339  0.016773756  0.016493386            8 
  953000   0.88174256   -8.0386769    192.18999  0.016805701  0.016479328            3 
  954000   0.86770333   -8.0706604    191.82072  0.016755828  0.016465369            4 
  955000    0.8598904   -8.0141449    192.41445  0.016790092  0.016451482           15 
  956000   0.87783033   -8.0187122    192.94105  0.016818432  0.016437689            8 
  957000   0.86779829   -8.0876378    192.11507  0.016728933  0.016423742            9 
  958000   0.88201277   -8.0713225     192.1783  0.016716971  0.016409768            7 
  959000     0.884105   -8.0864521    192.34167  0.016713736  0.016395755            8 
  960000   0.85669027   -8.0777807    192.11085  0.016676289  0.016381731           13 
  961000    0.8964213   -8.0888601    191.92468  0.016642793  0.016367658           17 
  962000   0.88462309   -8.0916995    192.06152  0.016637346  0.016353645           12 
  963000   0.85863337   -8.0928001     192.2339  0.016634986  0.016339578           14 
  964000   0.88081529   -8.0863602    192.58703  0.016648256  0.016325468           10 
  965000   0.85355196   -8.0758536    192.61247  0.016633201  0.016311527           16 
  966000    0.8639396   -8.0869213     192.0415  0.016566727  0.016297563            6 
  967000   0.87658048    -8.083366    192.35784  0.016576857   0.01628354            4 
  968000   0.85562762   -8.0870395    192.12143  0.016539379  0.016269523           10 
  969000   0.88962956   -8.0802823    192.16198  0.016525798  0.016255406            8 
  970000   0.85252042   -8.0901181    192.09303  0.016502838    0.0162413            9 
  971000   0.87588463   -8.1027335    192.20786  0.016495696  0.016227161            9 
  972000   0.85603673   -8.0810026    192.61497  0.016513629  0.016212977            3 
  973000   0.87081788   -8.0920094     192.1582  0.016457537  0.016198803            7 
  974000   0.87310275   -8.0821793    192.46073  0.016466524  0.016184523            6 
  975000   0.86706925   -8.1060073     191.8247  0.016395274  0.016170244            9 
  976000   0.85346503   -8.0967321    192.49605  0.016435797  0.016155905           10 
  977000   0.87871678   -8.1177504    192.40284  0.016411023  0.016141645           11 
  978000   0.86335571   -8.1121946    192.31881  0.016387083  0.016127368           11 
  979000   0.86752912   -8.1417528    191.97245  0.016340862  0.016113099            9 
  980000   0.86974013   -8.1293528    192.45923   0.01636558  0.016098841            7 
  981000   0.85766057   -8.0987296    192.49801  0.016352193  0.016084562            9 
  982000   0.85795429   -8.1238404    192.29831  0.016318594  0.016070283            8 
  983000   0.84429437   -8.1110433    192.20777  0.016294318  0.016056012            7 
  984000   0.86939597   -8.1566606    192.12554  0.016270794  0.016041765            9 
  985000    0.8635997   -8.1379536    192.32254  0.016270943  0.016027506           12 
  986000   0.86100589    -8.130251    192.55294  0.016273913  0.016013256           13 
  987000   0.86134799   -8.1171524    192.80137    0.0162784  0.015999059           13 
  988000   0.86394939   -8.1177872    192.95427   0.01627482  0.015984874           13 
  989000   0.85872978   -8.0936687    192.94987  0.016257993  0.015970569            7 
  990000   0.87045235   -8.1377047    192.59261  0.016211499  0.015956327           10 
  991000   0.86627123   -8.1331254    192.40748  0.016179573  0.015942062           25 
  992000   0.84891562   -8.1464805    192.67483  0.016185722  0.015927818           21 
  993000    0.8595646   -8.1142154    192.89171  0.016187622  0.015913572           21 
  994000   0.85590766   -8.1376244    192.93102  0.016174633  0.015899385           17 
  995000   0.85445723   -8.1681118    193.21087  0.016181815  0.015885204           15 
  996000   0.85147714   -8.1367858    192.57769  0.016112591  0.015871005           15 
  997000   0.87099739   -8.1491064    192.82945  0.016117473  0.015856775            9 
  998000   0.85194972    -8.121396    193.16621  0.016129443  0.015842631            9 
  999000    0.8477784   -8.1329935    193.48683  0.016140042  0.015828527            7 
 1000000    0.8519728   -8.0911608    193.31814  0.016109845  0.015814452           10 
 1001000   0.84397813   -8.1252688    193.19832  0.016083776  0.015800484           13 
 1002000   0.85642939   -8.1900459    193.02266  0.016053116  0.015786364           11 
 1003000   0.85725168   -8.1080509     193.5744  0.016082952  0.015772155            5 
 1004000   0.86256206   -8.1499358    193.24801  0.016039841  0.015758085            5 
 1005000   0.86042481   -8.1490928     192.8873  0.015993972  0.015743973            5 
 1006000   0.85149954   -8.1301098    193.89425  0.016061485  0.015729877            3 
 1007000   0.85041177   -8.1147353    193.54562  0.016016685  0.015715824            6 
 1008000   0.85225986   -8.1345709    193.41435  0.015989943  0.015701739            8 
 1009000   0.85466933   -8.1704428    193.64998  0.015993556  0.015687705            9 
 1010000   0.87652459   -8.1495094    193.53527  0.015968257  0.015673631           12 
 1011000   0.85309434   -8.1391034    193.34057  0.015936414    0.0156595           15 
 1012000   0.85976709   -8.1419736     193.7469  0.015954125    0.0156454           13 
 1013000   0.86986614   -8.1475073    193.11883  0.015886709  0.015631323           23 
 1014000   0.84627918   -8.1533856    193.74113  0.015922184  0.015617163           10 
 1015000   0.84837024   -8.1215096    193.60452  0.015895281  0.015603049            7 
 1016000   0.84095094   -8.1478308    193.63538  0.015882167  0.015588931            6 
 1017000   0.84370226   -8.1501375    193.95629  0.015892846  0.015574881            9 
 1018000   0.83449473   -8.1408005    193.95114  0.015876813  0.015560761            9 
 1019000   0.86255347   -8.1343127    193.87885  0.015855319  0.015546711           18 
 1020000   0.83644606    -8.152154    193.73911  0.015828359  0.015532703            6 
 1021000   0.83056776   -8.1525058    194.17789  0.015848669  0.015518762            7 
 1022000   0.85122406    -8.136052    194.11505  0.015828038  0.015504841           23 
 1023000   0.84877327   -8.1322674    194.02766  0.015805446  0.015491003           12 
 1024000   0.82741203    -8.149835     194.2001  0.015804044  0.015477116            9 
 1025000   0.86127079   -8.1776229    194.02799  0.015774633  0.015463265            8 
 1026000   0.84329258   -8.1755961    194.23476  0.015776052  0.015449418           15 
 1027000    0.8469553    -8.160627    194.07208  0.015747491  0.015435579           19 
 1028000   0.83873128   -8.1383585     194.2097  0.015743328  0.015421691           22 
 1029000   0.84153195   -8.1772895     194.2941  0.015734864  0.015407903           28 
 1030000   0.83431031   -8.1883799    194.25559  0.015716471  0.015393993           23 
 1031000     0.823432   -8.1627925    194.49146  0.015720293  0.015380185           17 
 1032000   0.85656373   -8.1620074    194.70226  0.015722082  0.015366421           24 
 1033000   0.83730478   -8.1342525     194.5254  0.015692595  0.015352692           27 
 1034000   0.85064294   -8.1712771    194.56887  0.015680921  0.015338915           30 
 1035000    0.8438023    -8.160377    194.57025  0.015665882  0.015325101           12 
 1036000   0.83459228   -8.1241056    194.74531  0.015664842  0.015311308           16 
 1037000   0.85580007   -8.1468091    194.73418  0.015648842  0.015297588           25 
 1038000   0.82296759   -8.1862301    194.24083  0.015594158  0.015283714           36 
 1039000   0.84493483   -8.1836203    193.81641  0.015545109  0.015269836           27 
 1040000   0.83450262   -8.1679193    194.57123  0.015590643  0.015255978           44 
 1041000   0.83044931   -8.2076313    194.17087  0.015543618  0.015242136           24 
 1042000   0.83007517   -8.2104136    194.42217  0.015548798  0.015228223           45 
 1043000   0.85196772   -8.2016457    193.73591  0.015479059  0.015214261           22 
 1044000   0.82811088   -8.1704125    194.88987  0.015556344  0.015200353           38 
 1045000   0.84331309   -8.1814638    194.49455  0.015509932  0.015186523           11 
 1046000   0.84870178   -8.1787726     194.6342   0.01550623   0.01517274           50 
 1047000    0.8289515   -8.1529675    194.72271  0.015498464  0.015159018           36 
 1048000   0.84022397   -8.2143255    194.44729  0.015461775  0.015145234           24 
 1049000   0.83491069   -8.1913403    194.58513  0.015457986  0.015131467           46 
 1050000   0.83228083    -8.177762    194.92162  0.015469969  0.015117729           50 
 1051000   0.82934281    -8.166475    195.22802  0.015479545  0.015104023           53 
 1052000   0.83098274    -8.176683    195.23744  0.015465577  0.015090315           49 
 1053000   0.82294438   -8.1779211    195.23001  0.015450301  0.015076652           48 
 1054000    0.8372657   -8.1636473    195.53353  0.015459641  0.015062976           51 
 1055000   0.81345817   -8.1565288    195.48455  0.015441118  0.015049364           57 
 1056000   0.84275024   -8.2076386    195.20658   0.01540456  0.015035668           70 
 1057000   0.82469612   -8.2213317     194.5056  0.015334721   0.01502187           66 
 1058000   0.83146013    -8.182476    195.05844  0.015363772  0.015008149           46 
 1059000   0.81608293   -8.1771576    195.11753  0.015353913  0.014994474           51 
 1060000   0.82900039   -8.2041965    195.31934  0.015355294  0.014980774           78 
 1061000   0.82269677   -8.1846294    195.47049  0.015352693  0.014967083           78 
 1062000   0.83395361   -8.2109728    195.17062  0.015314707  0.014953458           92 
 1063000   0.84558274    -8.234048    194.84526  0.015274793  0.014939723          114 
 1064000   0.81432432   -8.2147032    195.32554  0.015298053  0.014925959          103 
 1065000   0.81297074   -8.2307745    195.30925  0.015282414  0.014912196          111 
 1066000   0.83557199   -8.2267444    194.99688  0.015243658  0.014898516          106 
 1067000   0.82150671   -8.2232711    194.98009   0.01522806  0.014884734          107 
 1068000    0.8264869   -8.2396192    194.64078  0.015187327  0.014871055           98 
 1069000   0.83261055   -8.2477019    195.12804  0.015211104  0.014857359          111 
 1070000   0.83378138   -8.2213741    195.16913  0.015200088  0.014843701           79 
 1071000   0.84134406   -8.2245137    194.96244  0.015169813  0.014830009          111 
 1072000   0.84650483   -8.2497529    195.20003  0.015174132  0.014816295           98 
 1073000   0.81073037   -8.2642742    194.77277  0.015126807  0.014802604           93 
 1074000   0.82333687   -8.2309324    195.30909  0.015154336  0.014788875           75 
 1075000   0.83878047   -8.2472261    194.92259  0.015110278   0.01477515          106 
 1076000   0.80614963    -8.257869    195.28788  0.015124526  0.014761442          123 
 1077000   0.81739993   -8.2850537     194.8532  0.015076849  0.014747743          103 
 1078000     0.818957   -8.2453517    195.20736  0.015090241  0.014734012          115 
 1079000   0.82661275   -8.2219841     195.7048  0.015114674  0.014720389          110 
 1080000   0.81731685   -8.2887225     195.3046  0.015069799  0.014706705          114 
 1081000   0.83140223   -8.2970719    195.07766  0.015038365  0.014692991          120 
 1082000   0.82304265   -8.2493737    194.86002  0.015007703   0.01467933          121 
 1083000   0.81896757   -8.2717416    195.05942  0.015009189  0.014665608          149 
 1084000   0.81908156   -8.2509592    195.06807  0.014996008  0.014651893          143 
 1085000   0.82529641   -8.2811716     195.0811  0.014983187  0.014638228          132 
 1086000   0.83808322   -8.2954145    194.73544  0.014942867  0.014624565          148 
 1087000    0.8209017   -8.2841691    194.53724  0.014913925   0.01461082          164 
 1088000   0.82735443   -8.2754331    195.09337  0.014942813   0.01459713          102 
 1089000   0.83231663   -8.2722639    195.37798  0.014950871  0.014583397          131 
 1090000   0.83654524   -8.2649899    194.94137  0.014903774  0.014569718          141 
 1091000    0.8172998    -8.259012    194.60156  0.014864158  0.014556016          108 
 1092000   0.83402177   -8.2665374    195.33376  0.014906422  0.014542352          117 
 1093000   0.81046605   -8.2532098    194.97255  0.014865245  0.014528635          128 
 1094000   0.81273004   -8.2961108    194.34907  0.014804164  0.014514898          132 
 1095000   0.81379749   -8.2790276    195.52333   0.01488001  0.014501163          121 
 1096000   0.82089558   -8.2945191    195.15225  0.014838218  0.014487541          133 
 1097000   0.83464452   -8.3011821    194.96082   0.01481015  0.014473951          121 
 1098000   0.81335222   -8.2592568    195.44448   0.01483337    0.0144604          152 
 1099000   0.82953675   -8.2746335    194.98766  0.014785233   0.01444683          168 
 1100000   0.80726881   -8.3091618    195.12359   0.01478209  0.014433196          196 
 1101000   0.82691864   -8.2793376    195.09268  0.014766325  0.014419577          199 
 1102000   0.80097634   -8.2926718    194.98963  0.014745133  0.014405952          192 
 1103000   0.81573928   -8.2975881    195.29004  0.014754461    0.0143924          200 
 1104000   0.81368674     -8.30282    195.40058   0.01474944  0.014378815          192 
 1105000   0.80711461   -8.3058736    195.14031  0.014716464  0.014365225          189 
 1106000   0.81632575   -8.2911399    195.25503  0.014711802  0.014351677          195 
 1107000   0.80176434   -8.3156003    195.22895  0.014696549  0.014338043          194 
 1108000   0.80782778   -8.3353171    194.61503  0.014637111  0.014324372          217 
 1109000   0.82468511   -8.3099838    195.50741  0.014690969  0.014310719          260 
 1110000   0.82678254    -8.298882    195.39245  0.014669103  0.014297106          297 
 1111000   0.82152184   -8.3180432    195.00516   0.01462685  0.014283546          308 
 1112000   0.79180459   -8.3398498    194.95947  0.014610272    0.0142699          305 
 1113000    0.8273205   -8.3285834    195.27166  0.014620519  0.014256214          342 
 1114000   0.81438269   -8.3434827    195.56239  0.014629143  0.014242558          370 
 1115000   0.79422003   -8.3191613     194.7384  0.014554439  0.014228903          442 
 1116000   0.80889461   -8.3547703    195.27733  0.014581641  0.014215199          465 
 1117000   0.83397593   -8.3531424    195.00446  0.014548229  0.014201531          454 
 1118000     0.792609   -8.3667093    194.52489   0.01449947  0.014187873          476 
 1119000   0.80627278   -8.3889597     195.1156  0.014530503  0.014174119          517 
 1120000   0.81441482   -8.3486847    194.50583   0.01447216  0.014160344          540 
 1121000   0.80685521   -8.3802191     194.2685  0.014441607  0.014146566          564 
 1122000   0.80899069   -8.3842206    194.17906  0.014422093  0.014132773          550 
 1123000   0.81600824   -8.3773546    194.34452  0.014421528  0.014118995          568 
 1124000   0.81218922   -8.3886856    194.55832  0.014424549  0.014105227          599 
 1125000   0.81629886   -8.3930617    194.82593   0.01443155   0.01409145          670 
 1126000   0.80305958   -8.4025731    194.46865  0.014392292  0.014077616          705 
 1127000    0.8102411   -8.4014467    194.36117  0.014371574  0.014063775          689 
 1128000   0.81262771   -8.4015351    194.51808  0.014370425  0.014049957          748 
 1129000   0.80665047   -8.4558851    194.40993  0.014349715  0.014036116          686 
 1130000    0.7977062   -8.4464498    194.05719  0.014311002  0.014022274          704 
 1131000   0.80610047   -8.4414095     194.2284  0.014310964  0.014008454          769 
 1132000   0.80759649    -8.415886    194.49184  0.014317715  0.013994603          734 
 1133000    0.8165388   -8.4253929    194.12063  0.014277775  0.013980768          771 
 1134000   0.81210645    -8.453461    193.81753  0.014242911  0.013966941          803 
 1135000   0.79767749   -8.4598443    194.23956  0.014261348  0.013952998          869 
 1136000   0.78532478   -8.4558995    193.85745  0.014220763  0.013939062          903 
 1137000   0.80458473   -8.4600565    193.53289  0.014184468  0.013925096          899 
 1138000   0.79845496   -8.4672296    193.82498  0.014193393  0.013911087          910 
 1139000   0.79244675   -8.4705336    193.65017  0.014168143  0.013897093          976 
 1140000   0.81605916   -8.4471184     193.4953  0.014144393  0.013883166         1051 
 1141000   0.79666817   -8.4910613    193.98778  0.014167965  0.013869217         1057 
 1142000   0.79271488   -8.5066425    193.72034  0.014136043  0.013855228         1096 
 1143000   0.80087253   -8.5084442    193.79368  0.014129023  0.013841257         1097 
 1144000   0.81299956   -8.4983333    193.19263   0.01407289  0.013827198         1096 
 1145000   0.81787939   -8.5153555     193.3752  0.014073887   0.01381311         1231 
 1146000   0.78944404    -8.534665    193.21595  0.014050025  0.013799031         1258 
 1147000   0.79144929    -8.499647    193.15531   0.01403337  0.013784932         1245 
 1148000   0.80700884   -8.5349285    193.37567  0.014037142  0.013770798         1372 
 1149000   0.81017777   -8.5442476    193.56535  0.014038682  0.013756638         1411 
 1150000   0.79100698   -8.5533902    192.99817  0.013985375  0.013742516         1461 
 1151000   0.79330397   -8.5330517    193.30256  0.013995262  0.013728399         1443 
 1152000   0.77779389    -8.560195    193.36205  0.013987417  0.013714243         1514 
 1153000    0.7866331   -8.5784011    192.64833  0.013923701  0.013700053         1529 
 1154000     0.795966   -8.5760098    192.72633  0.013917268  0.013685868         1550 
 1155000   0.79323004   -8.6121062    192.44939  0.013885238  0.013671674         1622 
 1156000   0.79534961   -8.5903673    192.46535  0.013874377  0.013657448         1693 
 1157000   0.79338022   -8.6147208     192.5201  0.013866328  0.013643207         1730 
 1158000   0.81970661   -8.6399188    192.54177  0.013855913  0.013628931         1770 
 1159000   0.78186743   -8.6486658    192.37546     0.013832  0.013614614         1767 
 1160000    0.8055098   -8.6569854    192.04958  0.013796665   0.01360027         1855 
 1161000   0.79028989   -8.6734817    192.08273  0.013787161  0.013585885         1865 
 1162000    0.8138909   -8.6905475    192.01471  0.013770418   0.01357149         1991 
 1163000   0.80514987   -8.6548028    192.47169  0.013791322  0.013557096         2028 
 1164000    0.7865633   -8.7177707    191.84009  0.013734256   0.01354269         2105 
 1165000    0.7981025   -8.6678028    192.00441  0.013734221  0.013528262         2026 
 1166000   0.77175068   -8.6928517    191.68457  0.013699583  0.013513844         2130 
 1167000   0.79611807    -8.688315    191.78269   0.01369485  0.013499381         2149 
 1168000   0.78178121   -8.7249753    192.05158   0.01370231  0.013484939         2212 
 1169000   0.77769219   -8.7346172    191.53983  0.013654108   0.01347049         2222 
 1170000    0.7786857   -8.7397726    191.18642  0.013617266  0.013456032         2293 
 1171000   0.79212955   -8.7682751    191.32683   0.01361563  0.013441552         2430 
 1172000   0.77281098   -8.7841883    191.40453  0.013609537  0.013427067         2487 
 1173000   0.79297589   -8.7597818    191.38824  0.013596777  0.013412571         2534 
 1174000   0.77727294   -8.7697732    191.34172  0.013581893  0.013398092         2554 
 1175000   0.80125937   -8.7668472    191.28413  0.013566251  0.013383591         2648 
 1176000   0.77391965   -8.8091993    191.21272  0.013549654  0.013369069         2665 
 1177000   0.77701676   -8.8105202    191.37295  0.013549487  0.013354531         2563 
 1178000   0.76508512   -8.8164152     190.7804  0.013496067  0.013339912         2693 
 1179000   0.80584124   -8.8315933    190.76653  0.013483639  0.013325305         2685 
 1180000   0.77671338   -8.8193374     190.4833  0.013452211  0.013310717         2652 
 1181000   0.76746046    -8.846896    190.74384  0.013459204  0.013296116         2795 
 1182000   0.78409083    -8.859423    190.43448  0.013426007    0.0132815         2842 
 1183000   0.78279349   -8.8497452    190.59667  0.013426083   0.01326686         2767 
 1184000   0.76786008   -8.8645105    190.51127  0.013408732   0.01325222         2920 
 1185000   0.78967793   -8.8910749    190.24734  0.013378857   0.01323752         2950 
 1186000   0.78213299   -8.8763313    190.17945  0.013362806  0.013222833         2970 
 1187000   0.80338909   -8.9084359    190.03348    0.0133413  0.013208112         3079 
 1188000   0.77878101   -8.9283487     189.7902  0.013313005  0.013193371         3180 
 1189000    0.7907642   -8.9203483     189.6608  0.013292739  0.013178603         3214 
 1190000   0.78624777   -8.9306182    189.46556  0.013267897  0.013163797         3317 
 1191000   0.77542023   -8.9478853    189.85372  0.013283915  0.013148981         3314 
 1192000   0.79349122   -8.9864309    189.57174  0.013253058   0.01313416         3359 
 1193000   0.76740321   -8.9840232    189.23996  0.013218773  0.013119328         3414 
 1194000   0.76455671   -8.9513286    189.22756  0.013206837  0.013104527         3409 
 1195000   0.78520522   -8.9631414    189.41255  0.013208686  0.013089737         3328 
 1196000   0.76562337   -8.9662019    189.28145  0.013188507  0.013074943         3370 
 1197000     0.769335   -8.9782279    189.37242  0.013183822  0.013060169         3413 
 1198000   0.77184455   -8.9941435    188.92164  0.013141461  0.013045395         3373 
 1199000    0.7754322   -8.9642109    189.55197   0.01317431  0.013030624         3417 
 1200000   0.78196644   -8.9988615    189.41825  0.013154045  0.013015839         3457 
 1201000   0.75515483    -8.967082    189.23991  0.013130718  0.013001082         3496 
 1202000   0.76448383   -9.0109944     189.1858  0.013116043  0.012986324         3443 
 1203000   0.77854603    -8.989621    189.10596  0.013099609  0.012971587         3449 
 1204000   0.75092061   -8.9687913    189.44506    0.0131122  0.012956883         3433 
 1205000   0.75894806   -8.9942445    189.10193  0.013077588  0.012942187         3471 
 1206000   0.77511036   -8.9982205    189.34644   0.01308364  0.012927508         3494 
 1207000   0.78483067   -9.0125593    189.29442  0.013069209  0.012912849         3540 
 1208000   0.78339325   -8.9893677     189.0914  0.013044385  0.012898202         3536 
 1209000    0.7801653   -9.0056994      188.732  0.013008823   0.01288354         3502 
 1210000   0.77919316   -8.9941631    189.12891  0.013025407  0.012868873         3542 
 1211000   0.78892046   -9.0209289    188.90712  0.012999389  0.012854244         3546 
 1212000   0.77891734   -9.0229609     189.1158  0.013003012  0.012839594         3583 
 1213000   0.77409624   -9.0364052    189.04486  0.012987418  0.012824999         3550 
 1214000   0.76817607   -9.0158106    189.12122  0.012981962  0.012810402         3523 
 1215000   0.77874727   -9.0410015    188.80944  0.012949893  0.012795834         3574 
 1216000   0.76378888   -9.0256337    189.00191  0.012952433  0.012781261         3567 
 1217000   0.76543091    -9.038185    188.92872  0.012936779  0.012766698         3505 
 1218000   0.77975118   -9.0551138    188.76937  0.012915255  0.012752162         3534 
 1219000   0.76018494   -9.0278748    188.93018  0.012915654  0.012737642         3508 
 1220000   0.77648988   -9.0445043    188.69602  0.012889072  0.012723111         3522 
 1221000   0.79190238   -9.0589023    189.05162  0.012902786  0.012708607         3527 
 1222000   0.75719747   -9.0421694     188.8044  0.012875368   0.01269413         3577 
 1223000   0.77265341   -9.0649668    188.74655  0.012860899  0.012679644         3615 
 1224000   0.76752012   -9.0394323    188.78932  0.012853303   0.01266519         3593 
 1225000   0.75070532   -9.0578899    188.78449  0.012842482  0.012650715         3650 
 1226000   0.76140792    -9.035013    189.39802   0.01287371  0.012636272         3571 
 1227000   0.75666925   -9.0795612    188.40763  0.012795954  0.012621815         3661 
 1228000   0.76253787   -9.0721374    188.78285  0.012810997  0.012607378         3660 
 1229000   0.77486069   -9.0448083    188.74964  0.012798321  0.012592976         3608 
 1230000   0.75251871   -9.0639437    188.46744  0.012768797  0.012578562         3668 
 1231000   0.73244948   -9.0781562     188.6403  0.012770126  0.012564174         3675 
 1232000   0.76253865   -9.0479203     188.6827  0.012762629  0.012549819         3625 
 1233000   0.75314429   -9.0578247    189.22181  0.012788714  0.012535481         3665 
 1234000   0.77268702   -9.0653145    188.67069  0.012741132  0.012521149         3651 
 1235000   0.75464419   -9.0921975      188.753   0.01273637  0.012506843         3612 
 1236000   0.77101455   -9.0674457    188.78409  0.012728161  0.012492547         3655 
 1237000   0.75836878    -9.078309    188.45172  0.012695481  0.012478235         3675 
 1238000   0.76489914   -9.1134587    188.38446  0.012680699  0.012463932         3663 
 1239000   0.75002739    -9.067247    188.41073  0.012672231  0.012449668         3696 
 1240000   0.73208469    -9.093138    188.42623  0.012663053  0.012435411         3628 
 1241000   0.77123881   -9.0577991    188.51981  0.012659133  0.012421172         3675 
 1242000   0.75298582   -9.0969022    188.33313  0.012636415  0.012406961         3680 
 1243000   0.76778936   -9.1096626       188.62  0.012645481  0.012392784         3634 
 1244000   0.74287443   -9.0751718    188.52862  0.012629195  0.012378622         3634 
 1245000   0.77478338   -9.0719913    188.71451  0.012631493  0.012364486         3648 
 1246000   0.75901665   -9.0672801    188.68079  0.012619101  0.012350344         3660 
 1247000   0.74897542    -9.128159    188.34443  0.012586503  0.012336232         3641 
 1248000   0.75711291   -9.1021287    188.49246  0.012586302  0.012322136         3606 
 1249000   0.75111468   -9.0810725    188.64419  0.012586349  0.012308058         3595 
 1250000   0.74647399   -9.1142911    188.51342  0.012567562  0.012293986         3648 
 1251000    0.7530837    -9.107167    188.36352   0.01254753   0.01227993         3629 
 1252000   0.76191589   -9.0958796    188.40536  0.012540293  0.012265897         3642 
 1253000   0.74982344   -9.0777411    188.83191  0.012558653  0.012251885         3589 
 1254000   0.76178948   -9.1067939    188.46434  0.012524212  0.012237891         3637 
 1255000   0.76830547   -9.0983668    188.37072  0.012508016  0.012223885         3642 
 1256000   0.75746601   -9.0822263     188.8404   0.01252922  0.012209928         3644 
 1257000   0.75519071   -9.1019494    188.49513  0.012496362  0.012195976         3631 
 1258000   0.74754264   -9.0729819    188.52777  0.012488591  0.012182053         3634 
 1259000   0.74561024   -9.1079142    188.10118  0.012450436  0.012168159         3632 
 1260000   0.76167268   -9.1229591     188.4874  0.012466098  0.012154266         3707 
 1261000    0.7425317   -9.1070702    188.35023  0.012447147  0.012140389         3658 
 1262000   0.75872359   -9.1085041    188.22906  0.012429283  0.012126518         3692 
 1263000   0.76892999   -9.0931298    188.50671  0.012437761  0.012112669         3718 
 1264000   0.74869277   -9.1076041    187.98045  0.012393226  0.012098825         3671 
 1265000   0.74899973   -9.1442248    188.10479   0.01239162  0.012084996         3696 
 1266000   0.75684753   -9.1275038    188.36116  0.012398707  0.012071196         3691 
 1267000   0.74518149   -9.1392666    188.52828  0.012399913  0.012057404         3693 
 1268000   0.74217597   -9.1270324    188.09043  0.012361359  0.012043626         3670 
 1269000   0.72933379   -9.1153942    188.24074  0.012361488  0.012029865         3677 
 1270000   0.74733423    -9.106044     188.7107  0.012382592  0.012016131         3710 
 1271000   0.74069409     -9.15086    188.08452  0.012331794  0.012002404         3708 
 1272000   0.74524385   -9.1188927    187.91168  0.012310776  0.011988677         3693 
 1273000   0.74435236   -9.1486678    188.19536  0.012319675  0.011974988         3751 
 1274000   0.74767255   -9.1457525    188.16009  0.012307698  0.011961298         3690 
 1275000   0.75046061   -9.1261831    188.13729  0.012296555  0.011947639         3714 
 1276000   0.74413023   -9.1078653    188.47859  0.012309208  0.011934009         3728 
 1277000   0.74105066   -9.1166894    188.43496  0.012296721  0.011920394         3728 
 1278000   0.73135826   -9.1368612    188.35466  0.012281863  0.011906791         3747 
 1279000   0.74661102   -9.1217834    188.41256  0.012276033  0.011893204         3688 
 1280000   0.73193372   -9.1408459    188.48108  0.012270903  0.011879636         3726 
 1281000   0.76150827   -9.1539836    188.34167  0.012252256  0.011866078         3767 
 1282000   0.73843092   -9.1222077    188.64354   0.01226232  0.011852545         3697 
 1283000   0.74576734   -9.1370979    188.36991   0.01223499  0.011839036         3683 
 1284000   0.75150352   -9.1281915    188.31268  0.012221747  0.011825523         3687 
 1285000   0.74865328   -9.1346478    188.08008  0.012197152  0.011812024         3699 
 1286000   0.74327294   -9.1309477    188.15477  0.012192507  0.011798572         3692 
 1287000   0.72995287   -9.1414833    188.43616  0.012201253  0.011785124         3695 
 1288000   0.74878797   -9.1354593    188.12077  0.012171375  0.011771707         3709 
 1289000   0.73415873   -9.1508641     188.0146  0.012155069  0.011758303         3744 
 1290000   0.74482487   -9.1558937    188.13889  0.012153675  0.011744926         3733 
 1291000   0.72657532   -9.1333983    188.06877  0.012139734  0.011731569         3703 
 1292000   0.75214678   -9.1492647    188.03927  0.012128436  0.011718198         3723 
 1293000   0.75665539   -9.1615099     187.9739  0.012114842  0.011704851         3701 
 1294000   0.72315575   -9.1516272    187.98363  0.012106107  0.011691532         3672 
 1295000   0.73878664   -9.1414924     188.0183   0.01209899  0.011678214         3704 
 1296000    0.7322121   -9.1566811    188.07504  0.012093302   0.01166493         3704 
 1297000   0.73070369    -9.165451     188.0456  0.012082087  0.011651641         3756 
 1298000   0.75003207   -9.1662855    187.96275   0.01206746  0.011638379         3735 
 1299000   0.73971735   -9.1792383    188.21607   0.01207442  0.011625127         3725 
 1300000   0.72465846   -9.1789828    187.92949  0.012046762  0.011611877         3745 
 1301000   0.72967942   -9.1649569    187.99344  0.012041599  0.011598664         3732 
 1302000   0.72874244   -9.1488451    188.28229  0.012050838   0.01158546         3741 
 1303000   0.74532461   -9.1654336    187.89493  0.012016816  0.011572262         3747 
 1304000   0.71974259   -9.1799519    187.81567  0.012002535  0.011559084         3725 
 1305000   0.73432556   -9.1545831    187.96156  0.012002654  0.011545942         3729 
 1306000    0.7301757   -9.1658111    187.96452  0.011993652  0.011532801         3756 
 1307000   0.73424803   -9.1668319    187.93513  0.011982602  0.011519686         3742 
 1308000   0.72644984   -9.1901846    187.82384  0.011966351  0.011506576         3747 
 1309000   0.72574899   -9.1834055    187.95663  0.011965663  0.011493471         3749 
 1310000   0.73046394   -9.1678454    187.80128  0.011946647  0.011480386         3755 
 1311000   0.74530562   -9.1661301    187.92426  0.011945351  0.011467324         3759 
 1312000    0.7294705   -9.1785649    187.69562  0.011921724  0.011454282         3774 
 1313000   0.72988225   -9.1690489    187.83925   0.01192176   0.01144126         3759 
 1314000   0.73672369   -9.1701298    187.80203  0.011910327   0.01142824         3763 
 1315000   0.73244504   -9.1911869    187.77848  0.011899777  0.011415264         3760 
 1316000   0.75041462   -9.1787997    188.11573   0.01191209  0.011402302         3774 
 1317000   0.73548771   -9.1821758    187.80078  0.011883117  0.011389356         3738 
 1318000   0.71613427   -9.1746927    187.90155  0.011880472  0.011376425         3761 
 1319000    0.7101762   -9.2021951    187.86232  0.011868986  0.011363499         3751 
 1320000   0.72602498   -9.1958224    187.93009  0.011864274  0.011350593         3746 
 1321000    0.7265019   -9.1795049    187.99235   0.01185922  0.011337714         3789 
 1322000   0.72238884   -9.1643518    188.54241  0.011884922  0.011324846         3790 
 1323000   0.72543987   -9.2068219    187.72293  0.011824322  0.011312018         3800 
 1324000   0.72095067    -9.195441    187.63478  0.011809842  0.011299177         3791 
 1325000   0.73749954   -9.2176989    187.48767  0.011791677  0.011286367         3783 
 1326000   0.72990464   -9.1751989    187.91899  0.011809891  0.011273557         3753 
 1327000   0.71468154   -9.2037711    187.84114  0.011796103  0.011260775         3762 
 1328000    0.7298733   -9.1850211    187.93709  0.011793241  0.011248005         3750 
 1329000   0.71584832   -9.1988656    187.64771  0.011766222  0.011235263         3768 
 1330000   0.72879792   -9.1828987    188.04827  0.011782473  0.011222559         3743 
 1331000    0.7187622   -9.2141623    187.80797  0.011758576  0.011209845         3767 
 1332000   0.73875164   -9.1793355    187.54924  0.011733561  0.011197153         3785 
 1333000   0.70715424   -9.2004354    187.70407  0.011734438  0.011184483         3742 
 1334000   0.71472192   -9.2023058    187.51279  0.011713693  0.011171817         3740 
 1335000   0.71109498    -9.183018    187.50793  0.011704615  0.011159184         3779 
 1336000   0.71589739    -9.181192    187.48295  0.011694296   0.01114657         3762 
 1337000   0.70628476   -9.1994261    188.10713  0.011724454  0.011133975         3771 
 1338000   0.70236109   -9.1953391     187.6251  0.011685669  0.011121395         3779 
 1339000   0.71601736   -9.2175479    187.33631  0.011658969  0.011108802         3766 
 1340000   0.72219919    -9.232168    187.43324  0.011656296  0.011096247         3759 
 1341000   0.70564109   -9.2295022    187.58431  0.011656992  0.011083704         3770 
 1342000   0.73410576   -9.1982619    187.75275  0.011658765   0.01107118         3760 
 1343000    0.7326107   -9.2307856    187.23058  0.011617683  0.011058664         3734 
 1344000   0.71755292   -9.2025545    187.73568  0.011640357  0.011046181         3722 
 1345000   0.72179503   -9.1976255    187.84402  0.011638415  0.011033716         3796 
 1346000     0.709635   -9.2155078    187.62389   0.01161614  0.011021245         3802 
 1347000   0.72105264   -9.1943152    187.86337  0.011622331  0.011008812         3746 
 1348000   0.71507727   -9.2171161    187.78633  0.011608947  0.010996395         3722 
 1349000   0.72030412   -9.2074968    187.48956  0.011582009  0.010983992         3748 
 1350000   0.70589511   -9.2273056    187.44302  0.011570557  0.010971606         3777 
 1351000   0.71773597    -9.241795    187.26293  0.011550884  0.010959232         3789 
 1352000   0.71702197   -9.2217366    187.51482  0.011557866  0.010946875         3800 
 1353000   0.70476955   -9.2245211    187.49988  0.011548404  0.010934529         3789 
 1354000   0.70274697   -9.2347206    187.42233  0.011535102  0.010922198         3793 
 1355000   0.72796988   -9.1903334    187.96329  0.011559858  0.010909909         3743 
 1356000   0.70300393   -9.2153757    187.66669  0.011533105  0.010897624         3775 
 1357000   0.72404485   -9.2206576    187.87854  0.011537616  0.010885357         3823 
 1358000   0.71191278   -9.2392355    187.47172  0.011504155  0.010873122         3834 
 1359000   0.69501778   -9.2252116    187.95778  0.011525496  0.010860898         3780 
 1360000   0.72562299    -9.227172    187.25917  0.011474214  0.010848687         3783 
 1361000   0.71741775   -9.2316909    187.46212  0.011478209  0.010836504         3788 
 1362000   0.69967808   -9.1989647    187.78559  0.011489574   0.01082435         3777 
 1363000   0.70647194   -9.2278045    187.58796  0.011469061  0.010812188         3776 
 1364000   0.71348694   -9.2450008    187.55547  0.011458667  0.010800048         3775 
 1365000   0.70217462   -9.2344927    187.70691  0.011459518  0.010787921         3796 
 1366000   0.70023202   -9.2236779    187.86491  0.011460768  0.010775815         3750 
 1367000   0.71268196    -9.209537    187.99393  0.011460249  0.010763736         3780 
 1368000   0.70723078   -9.2082376    187.55618  0.011425206  0.010751648         3769 
 1369000    0.7095911   -9.2076822    187.77708  0.011430307  0.010739588         3726 
 1370000   0.69602223   -9.2207358    187.71815  0.011418379   0.01072754         3782 
 1371000   0.69080126   -9.2207132    187.62917  0.011404642  0.010715492         3779 
 1372000   0.70796153   -9.2266957    187.32223  0.011377686  0.010703469         3763 
 1373000   0.70211129   -9.2148698    187.68901  0.011391661  0.010691476         3780 
 1374000   0.71395829   -9.2449277    187.51594  0.011372873  0.010679482         3803 
 1375000   0.70962483   -9.2335748    187.28994  0.011350906  0.010667502         3788 
 1376000   0.70923588   -9.2487968    187.43757  0.011351597  0.010655544         3790 
 1377000   0.71078412   -9.2341155    187.27546  0.011333543  0.010643602         3801 
 1378000   0.72557503   -9.2345632    187.17735  0.011319385  0.010631679         3802 
 1379000   0.70929488   -9.2439157    187.33265  0.011320561  0.010619773         3800 
 1380000   0.70827856   -9.2317383    187.40469  0.011316708  0.010607871         3772 
 1381000   0.70586049   -9.2362043    187.74368   0.01132897  0.010595985         3784 
 1382000   0.69174716   -9.2118029    187.76413  0.011322005   0.01058411         3774 
 1383000   0.69640331   -9.2322424    187.41922  0.011293036  0.010572268         3747 
 1384000   0.69715839   -9.2454702    187.46923  0.011287887  0.010560448         3810 
 1385000   0.69745138   -9.2577614    187.09673  0.011257325  0.010548626         3787 
 1386000   0.71343626   -9.2495393    187.33029  0.011263245  0.010536837         3793 
 1387000    0.7046352   -9.2259339    187.12435  0.011242751  0.010525047         3779 
 1388000   0.69889785   -9.2398341    187.06274  0.011230952  0.010513281         3799 
 1389000   0.70175499   -9.2142928    187.04935  0.011222063  0.010501516         3763 
 1390000   0.68881439    -9.246939    187.36348  0.011232823   0.01048978         3772 
 1391000   0.70062135   -9.2605843    187.55319  0.011236113  0.010478076         3798 
 1392000   0.67948495   -9.2684597    187.09534  0.011200631  0.010466374         3794 
 1393000   0.70548747   -9.2699803    187.13341  0.011194868  0.010454687         3802 
 1394000   0.70088242   -9.2566299    187.30967  0.011197374  0.010443011         3821 
 1395000   0.71139416   -9.2393119    187.32838  0.011190465  0.010431352         3821 
 1396000    0.6927253   -9.2240413    187.29618  0.011180526  0.010419727         3818 
 1397000   0.70277939   -9.2298099    187.59201   0.01119017  0.010408117         3821 
 1398000   0.69943532   -9.2279954      187.178  0.011157487  0.010396516         3845 
 1399000   0.67936508   -9.2421161    186.84782  0.011129844  0.010384917         3802 
 1400000   0.68345604    -9.260842    187.10883  0.011137431  0.010373338         3814 
 1401000   0.69656301   -9.2446658    187.24322  0.011137475  0.010361785         3837 
 1402000   0.67908772   -9.2525357    187.25073  0.011129977  0.010350235         3796 
 1403000   0.68597633    -9.263262    187.16902  0.011117191  0.010338711         3795 
 1404000   0.69160553   -9.2399854    187.29219  0.011116583  0.010327191         3782 
 1405000   0.69141247   -9.2693829    187.06522  0.011095209  0.010315679         3836 
 1406000   0.67764071   -9.2533366    187.24582  0.011098022  0.010304214         3808 
 1407000   0.69487866   -9.2653576    187.41618  0.011100224  0.010292752         3809 
 1408000     0.686522   -9.2757616    187.27029  0.011083706  0.010281305         3832 
 1409000   0.68099645   -9.2585303    187.04589  0.011062567  0.010269865         3854 
 1410000   0.69068157   -9.2612496    187.28717  0.011068982  0.010258463         3819 
 1411000   0.68390101   -9.2749206    187.07971  0.011048884  0.010247059         3835 
 1412000   0.67900337   -9.2719407    187.08569  0.011041412  0.010235672         3830 
 1413000   0.67594021   -9.2629246    187.45276  0.011055246  0.010224305         3852 
 1414000   0.68325574   -9.2588711    187.15451  0.011029851  0.010212951         3855 
 1415000    0.6999469   -9.2457947     187.6706   0.01105245  0.010201618         3814 
 1416000   0.68251074   -9.2522361    187.19555  0.011016688  0.010190312         3832 
 1417000   0.68121041   -9.2684113     187.1609  0.011006875  0.010179021         3833 
 1418000   0.68714783   -9.2861988    187.24717  0.011004182  0.010167736         3822 
 1419000   0.69271778    -9.270579    187.10091  0.010987838   0.01015647         3824 
 1420000   0.67845829   -9.2669925    187.06529   0.01097801  0.010145213         3826 
 1421000   0.69442595   -9.2786952    187.14188  0.010974776   0.01013396         3824 
 1422000   0.69754976   -9.2651679    186.85712   0.01095037  0.010122727         3798 
 1423000   0.67775182   -9.2768101    186.84695   0.01094208  0.010111516         3824 
 1424000   0.68798204   -9.2948559    187.17557  0.010953626  0.010100324         3835 
 1425000   0.68490495    -9.269792     186.8828  0.010928819  0.010089143         3824 
 1426000   0.68749235    -9.250971    187.20875  0.010940203  0.010077977         3790 
 1427000   0.67404323    -9.277479    186.92611   0.01091603  0.010066834         3807 
 1428000   0.69210781   -9.2460061     187.1662  0.010922397  0.010055716         3801 
 1429000   0.68261714   -9.2640075    186.97453  0.010903577  0.010044603         3808 
 1430000   0.67717925   -9.2768125      186.927  0.010893182  0.010033503         3796 
 1431000   0.67675073   -9.2738697    187.31822  0.010908352  0.010022428         3817 
 1432000   0.66676045   -9.2880591    187.13421  0.010890026  0.010011365         3818 
 1433000   0.67812506    -9.250395    187.37265  0.010896293  0.010000306         3826 
 1434000   0.68086495   -9.2774206    187.12425  0.010874259 0.0099892713         3839 
 1435000   0.68830328    -9.247437    187.22276  0.010872402 0.0099782565         3858 
 1436000   0.68436361   -9.2788809    186.97338  0.010850358  0.009967257         3837 
 1437000   0.67544245   -9.2964014    186.98709  0.010843603 0.0099562592         3822 
 1438000   0.67037227   -9.2943402    186.98753  0.010836088 0.0099452781         3816 
 1439000   0.67049664   -9.2842492    187.29788   0.01084653 0.0099343257         3821 
 1440000   0.69127958   -9.2748358    187.01453    0.0108226 0.0099233857         3833 
 1441000   0.69713226   -9.2630949    187.03034  0.010816004 0.0099124664         3845 
 1442000   0.68491344   -9.3105854    186.75874  0.010792808  0.009901563         3828 
 1443000   0.67581161   -9.3125401    186.85326  0.010790787 0.0098906633         3862 
 1444000    0.6976074   -9.2856484    186.75819  0.010777827  0.009879781         3827 
 1445000   0.66738395   -9.2671887    187.07694  0.010788751 0.0098689159         3851 
 1446000   0.65947122   -9.2710259    186.72173  0.010760819 0.0098580587         3849 
 1447000    0.6816055      -9.2525    187.19164  0.010780444  0.009847227         3822 
 1448000    0.6706461   -9.2964736    186.97163  0.010760338 0.0098364167         3820 
 1449000   0.67154888   -9.2731987    186.83204  0.010744884 0.0098256187         3828 
 1450000   0.67675924   -9.3061776    187.02123  0.010748347  0.009814825         3849 
 1451000   0.67731949   -9.2909815    187.16268  0.010749063 0.0098040489         3836 
 1452000    0.6598717   -9.3078288    186.69252  0.010714677  0.009793292         3840 
 1453000    0.6794643   -9.2661281    187.23804  0.010738589 0.0097825412         3818 
 1454000   0.67249792   -9.2551555    187.05086  0.010720476 0.0097718133         3807 
 1455000   0.68544447    -9.296111    186.87831  0.010703225 0.0097611036         3851 
 1456000    0.6815552   -9.3090696     186.9386  0.010699325 0.0097504101         3829 
 1457000   0.67188132   -9.2838494    186.98895  0.010694861  0.009739723         3832 
 1458000   0.66671769   -9.2836743    186.97501  0.010686729 0.0097290468         3827 
 1459000   0.68349436   -9.2882377    186.73025  0.010665425 0.0097183969         3814 
 1460000   0.67218275   -9.2917006    187.04202  0.010675914 0.0097077545         3818 
 1461000    0.6770153   -9.3048441     186.9051  0.010660797 0.0096971367         3802 
 1462000   0.67164456   -9.3059889    186.98223  0.010657902 0.0096865215         3832 
 1463000   0.66198704   -9.2895121    186.81742  0.010641229 0.0096759416         3823 
 1464000   0.68271506   -9.3018699     186.7016  0.010627368  0.009665358         3858 
 1465000   0.66828071    -9.298092    186.48673  0.010607891 0.0096547931         3845 
 1466000   0.67954909   -9.3118584    186.57699  0.010605786  0.009644246         3828 
 1467000   0.66379322   -9.2780524    187.18796  0.010633263 0.0096337078         3841 
 1468000   0.66987828   -9.2683461    186.91168  0.010610336 0.0096231883         3822 
 1469000   0.68292353   -9.3212072    186.91553  0.010603332 0.0096126902         3803 
 1470000   0.65367794   -9.2927286     186.9242   0.01059661 0.0096022057         3847 
 1471000   0.67069383   -9.3082347    186.86682  0.010586155 0.0095917214         3842 
 1472000   0.66760024   -9.3168703    187.29391  0.010603142 0.0095812604         3845 
 1473000   0.67729471   -9.2902057    186.84028   0.01057028 0.0095708071         3827 
 1474000   0.66576849   -9.2920208    187.22647  0.010584943 0.0095603675         3848 
 1475000    0.6723467   -9.3199786    186.66229  0.010545892 0.0095499423         3841 
 1476000    0.6692801   -9.3164002     186.9333  0.010554048 0.0095395347         3819 
 1477000   0.67408867   -9.3084124    186.63123   0.01052986 0.0095291251         3851 
 1478000   0.66199406   -9.3011195    186.97418  0.010542072 0.0095187353         3829 
 1479000   0.65019395   -9.3014751    186.67319  0.010517985 0.0095083757         3845 
 1480000   0.67099302   -9.3102528    187.05999  0.010532657 0.0094980124         3838 
 1481000   0.67305542    -9.300473    186.74841  0.010508013 0.0094876685         3843 
 1482000   0.65676231    -9.296124    186.54036  0.010489224 0.0094773448         3837 
 1483000    0.6640975   -9.3112483    186.42604  0.010475727 0.0094670373         3838 
 1484000   0.65970062   -9.3243491    186.64053  0.010480712 0.0094567258         3830 
 1485000   0.66177335   -9.3183996    186.92858   0.01048982 0.0094464359         3853 
 1486000   0.66296902   -9.3188432    186.64548  0.010466884 0.0094361661         3834 
 1487000   0.66721208   -9.3199996    186.64125  0.010459608 0.0094259144         3854 
 1488000   0.65500073   -9.3101634    186.80867  0.010461955 0.0094156753         3844 
 1489000   0.64808558   -9.3083686     186.4467  0.010434671 0.0094054529         3843 
 1490000   0.66642354   -9.3507135    186.46012  0.010428419 0.0093952385         3843 
 1491000   0.65943018   -9.3179104    186.52147  0.010424853 0.0093850348         3837 
 1492000   0.65362144   -9.3376181    186.53655  0.010418708 0.0093748486         3839 
 1493000   0.66254857   -9.3055002    186.52902  0.010411309 0.0093646737         3854 
 1494000   0.65058995   -9.2863541    186.42626  0.010398609 0.0093545274         3869 
 1495000   0.65258712   -9.3365381    186.61944  0.010402421 0.0093443902         3837 
 1496000   0.65923813   -9.3032822    186.24073  0.010374372 0.0093342583         3838 
 1497000   0.65500426   -9.3200787    186.84274  0.010400954 0.0093241493         3804 
 1498000   0.66030519   -9.3193981    186.56578  0.010378603 0.0093140568         3822 
 1499000   0.66110087   -9.3180708    186.96246  0.010393733 0.0093039789         3824 
 1500000   0.64899667   -9.3056437     186.5458  0.010363656  0.009293909         3817 
 1501000   0.64188643   -9.3193599    186.44531  0.010351172  0.009283865         3847 
 1502000   0.65022531   -9.3257124    186.33631  0.010338233 0.0092738256         3839 
 1503000   0.64704782   -9.2840134     186.9152  0.010363451 0.0092638041         3835 
 1504000   0.65640976   -9.2982474    186.54618  0.010336113 0.0092538042         3836 
 1505000   0.65466624   -9.2995471       186.62  0.010333333 0.0092438035         3822 
 1506000   0.66187483   -9.3308472    186.74667  0.010333481 0.0092338198         3825 
 1507000    0.6736338   -9.3265766    186.68896  0.010323433 0.0092238551         3863 
 1508000    0.6573774    -9.317516    186.39798  0.010300507 0.0092138979         3817 
 1509000    0.6518039   -9.2969932    186.32526  0.010289665 0.0092039489         3852 
 1510000   0.64367289   -9.3276338    186.56174  0.010295902 0.0091940194         3832 
 1511000   0.64329182   -9.3271532    186.67749  0.010295471 0.0091840995         3841 
 1512000   0.65782154   -9.3274168    186.50594  0.010279207 0.0091741969         3816 
 1513000   0.62616254   -9.3264463    186.54967  0.010274822 0.0091643166         3824 
 1514000   0.63720218   -9.3482013    186.77377   0.01028037  0.009154446         3836 
 1515000   0.64728773   -9.3123974    186.72642   0.01027098 0.0091445851         3871 
 1516000   0.63115785   -9.3298412    186.42732  0.010247764 0.0091347412         3860 
 1517000   0.64400712   -9.3413185    186.67543  0.010254638 0.0091249032         3837 
 1518000   0.63467395   -9.3385039    186.47874  0.010237085 0.0091150854         3845 
 1519000    0.6517449   -9.3165842    186.47721  0.010230262 0.0091052687         3805 
 1520000   0.65862208   -9.3360172    186.60077  0.010230305 0.0090954688         3822 
 1521000   0.65617097   -9.3404264    186.61821  0.010224535 0.0090856904         3832 
 1522000   0.65975411   -9.3440945    186.33583  0.010202356 0.0090759233         3827 
 1523000   0.65060559   -9.3322737     186.5342  0.010206511 0.0090661619         3850 
 1524000   0.63647159   -9.3056406    186.65273  0.010206295 0.0090564119         3823 
 1525000   0.65056064   -9.3376115    186.64387  0.010199118  0.009046683         3847 
 1526000   0.63233098   -9.3534105    186.56044  0.010187879  0.009036967         3837 
 1527000   0.65204389   -9.3361691    186.60132  0.010183438 0.0090272639         3814 
 1528000    0.6425962   -9.3615237    186.40393  0.010166008 0.0090175798         3841 
 1529000   0.63722102   -9.3551078    186.09571  0.010142561 0.0090078998         3847 
 1530000   0.64573461     -9.34705    186.20596  0.010141937 0.0089982389         3825 
 1531000     0.647459     -9.34681    186.10577  0.010129859 0.0089885884         3839 
 1532000   0.62649053   -9.3450202    186.55418  0.010147638  0.008978956         3817 
 1533000   0.64617297    -9.340159    186.16317  0.010119764 0.0089693355         3854 
 1534000   0.64799103   -9.3382251    186.57196  0.010135374 0.0089597239         3837 
 1535000   0.63810096   -9.3470705    186.41974  0.010120507 0.0089501329         3838 
 1536000   0.64224618   -9.3378428    186.48747  0.010117593 0.0089405611         3834 
 1537000    0.6243957   -9.3447205    186.22578  0.010096822 0.0089309981         3832 
 1538000   0.64413966   -9.3129267    186.57986  0.010109442  0.008921442         3850 
 1539000   0.64906066   -9.3506548    186.44084  0.010095345 0.0089119053         3827 
 1540000    0.6481002    -9.357777    186.37951  0.010085472 0.0089023816         3853 
 1541000   0.62779273   -9.3447719    186.19244   0.01006881 0.0088928629         3826 
 1542000   0.63626994   -9.3493496    186.31517  0.010068913 0.0088833687         3848 
 1543000   0.63736819   -9.3473118    186.16674  0.010054371 0.0088738867         3841 
 1544000   0.63610281   -9.3670933    186.59028  0.010070719 0.0088644238         3813 
 1545000   0.63695476   -9.3652591    186.26968  0.010046908 0.0088549668         3843 
 1546000   0.62848907   -9.3625387    186.35192  0.010044842 0.0088455229         3841 
 1547000   0.64310033   -9.3755396    186.42348  0.010042204 0.0088360884         3841 
 1548000   0.62775852    -9.335898    186.43188  0.010036169 0.0088266695         3834 
 1549000    0.6395173   -9.3530405    186.35544  0.010025578 0.0088172639         3843 
 1550000   0.64506474   -9.3777225    186.44834  0.010024104 0.0088078645         3851 
 1551000   0.62420833   -9.3579256    186.42981  0.010016646 0.0087984891         3832 
 1552000    0.6363535   -9.3560458    186.43742    0.0100106 0.0087891099         3840 
 1553000   0.63885782   -9.3598717    186.37214  0.010000651 0.0087797528         3838 
 1554000   0.63497403   -9.3457901      186.329 0.0099919025 0.0087704049         3846 
 1555000   0.63252496   -9.3478772    186.55072 0.0099973592 0.0087610755         3831 
 1556000   0.63314589   -9.3466463    186.20155 0.0099722339 0.0087517587         3850 
 1557000   0.62997019   -9.3396216    186.31916 0.0099721239 0.0087424474         3874 
 1558000   0.63578616   -9.3501088    186.34247   0.00996697 0.0087331453         3856 
 1559000   0.62578554   -9.3543815    186.29959 0.0099582847 0.0087238602         3836 
 1560000   0.63453149   -9.3570516    186.34671 0.0099544182 0.0087145879         3857 
 1561000   0.61285945   -9.3725657    186.12722 0.0099363237 0.0087053237         3860 
 1562000   0.62577827   -9.3613696    186.29941  0.009939149 0.0086960673         3865 
 1563000   0.61770431   -9.3742982    186.45724  0.009941205  0.008686829         3830 
 1564000   0.61640764   -9.3645022    186.07376  0.009914416 0.0086776113         3877 
 1565000   0.63318423   -9.3611312    186.28687 0.0099194287 0.0086684115         3870 
 1566000   0.63185581   -9.3778285    186.05567 0.0099007915 0.0086592071         3838 
 1567000   0.62645967   -9.3610807    186.21567  0.009902982 0.0086500354         3853 
 1568000   0.63192483   -9.3679208    185.98463 0.0098843874 0.0086408649         3867 
 1569000    0.6403951   -9.3763722    186.12277 0.0098854245 0.0086317061         3844 
 1570000   0.60836134   -9.3672375      186.273  0.009887102 0.0086225635         3845 
 1571000   0.62727801   -9.3839581    185.92779  0.009862497 0.0086134286         3891 
 1572000   0.62850628   -9.3847566    186.60896 0.0098923324 0.0086043066         3884 
 1573000    0.6250783   -9.3640759    186.25205 0.0098671355 0.0085951978         3867 
 1574000   0.61383996   -9.3992019    185.83222 0.0098386391 0.0085860994         3879 
 1575000   0.62422732   -9.3569417     186.1886 0.0098512485 0.0085770148         3866 
 1576000   0.61335246   -9.3695345    186.07065 0.0098387612 0.0085679447         3852 
 1577000   0.62867129   -9.3835248    186.09958 0.0098340509 0.0085588897         3852 
 1578000   0.61177423   -9.3979267    186.18145 0.0098321426  0.008549844         3867 
 1579000   0.60967107   -9.3727856    186.21847 0.0098278695  0.008540817         3881 
 1580000   0.63465787   -9.3707138    186.07118 0.0098138806 0.0085317959         3846 
 1581000    0.6130673   -9.3895389    186.06688 0.0098074465 0.0085227895         3870 
 1582000   0.62039398   -9.3854959     186.2662 0.0098117466 0.0085137931         3875 
 1583000   0.62196862   -9.3838839    186.28708 0.0098066477 0.0085048118         3828 
 1584000   0.61896563   -9.3934538    186.11904 0.0097916163 0.0084958393         3879 
 1585000   0.61917143   -9.3902712    186.17902 0.0097885918 0.0084868796         3877 
 1586000   0.63410479   -9.3872153    186.26905 0.0097871508 0.0084779235         3889 
 1587000   0.61518576   -9.3768277    186.10522 0.0097723806 0.0084689866         3868 
 1588000   0.62133283   -9.3674146    186.22313 0.0097724143 0.0084600605         3879 
 1589000   0.62246391   -9.3959184    185.56187 0.0097315853 0.0084511481         3872 
 1590000   0.63983827   -9.3902388    186.19776 0.0097587926 0.0084422489         3869 
 1591000   0.61860592   -9.3846197    186.24387 0.0097550738 0.0084333664         3862 
 1592000   0.61427415   -9.3874514     186.1278 0.0097428706 0.0084244903         3855 
 1593000    0.6138184   -9.4021024    185.93569 0.0097267047 0.0084156233         3839 
 1594000   0.62238185   -9.3918027    186.16419 0.0097325486 0.0084067795         3850 
 1595000   0.61667173   -9.3936987    186.32202 0.0097346925 0.0083979449         3835 
 1596000   0.62197089   -9.3741881    186.06866 0.0097153643 0.0083891187         3856 
 1597000   0.60945624   -9.3645723     186.1193 0.0097119234 0.0083803137         3846 
 1598000    0.6208966   -9.3883739    185.91987 0.0096954459 0.0083715102         3857 
 1599000   0.62065079   -9.3974599     185.8692 0.0096867415 0.0083627207         3862 
 1600000   0.61965692   -9.3955978    185.83845 0.0096790859 0.0083539374         3843 
 1601000   0.60573044   -9.4063667    185.83302 0.0096727578 0.0083451731         3872 
 1602000   0.60354058   -9.3930504    185.96806 0.0096737445  0.008336425         3834 
 1603000   0.60943114   -9.4039117    186.02499 0.0096706692 0.0083276794         3837 
 1604000   0.61173169   -9.4023583     185.8518 0.0096556421 0.0083189514         3864 
 1605000   0.61131809   -9.3920083    185.92626 0.0096534923 0.0083102292         3838 
 1606000   0.60876215   -9.3871593     185.9312 0.0096477379  0.008301514         3854 
 1607000   0.60871036   -9.3730974    185.95519 0.0096429782 0.0082928164         3857 
 1608000   0.60815119    -9.394958    185.99847 0.0096392242  0.008284136         3830 
 1609000   0.61121064   -9.4140161    185.67936 0.0096167063  0.008275464         3848 
 1610000   0.60116848   -9.3995146    186.22315 0.0096388795 0.0082668049         3841 
 1611000   0.62012047   -9.3964886     185.8002  0.009611018 0.0082581534         3837 
 1612000   0.61460057   -9.4019688    186.19016 0.0096252149 0.0082495209         3856 
 1613000   0.61064275   -9.4048148    185.79633 0.0095989012 0.0082408987         3859 
 1614000   0.61284899   -9.3919408    185.77351 0.0095917754  0.008232282         3837 
 1615000   0.60653582   -9.3983378    186.15304 0.0096054199 0.0082236833         3842 
 1616000   0.61052305   -9.4039934    185.56132 0.0095689626 0.0082150904         3872 
 1617000   0.61259037   -9.4093669    185.92281 0.0095816743 0.0082065161         3836 
 1618000   0.61193373   -9.4112673    185.96749 0.0095780535 0.0081979484         3842 
 1619000     0.617543    -9.404071    185.68963 0.0095578354 0.0081893853         3827 
 1620000   0.61813671   -9.4369529    185.56695 0.0095456252 0.0081808417         3843 
 1621000   0.61389339   -9.4336775    185.38435  0.009530349 0.0081723027         3859 
 1622000   0.62033896   -9.4109472    185.68126 0.0095397277 0.0081637807         3857 
 1623000   0.61852901   -9.4087475    185.81971 0.0095409584 0.0081552717         3847 
 1624000   0.61115022   -9.4027642      185.707 0.0095293002 0.0081467675         3838 
 1625000   0.59945427   -9.3962873    185.86205 0.0095313869 0.0081382856         3844 
 1626000    0.5919854   -9.3905929     186.1027 0.0095378588 0.0081298121         3852 
 1627000   0.60835013   -9.4112279    185.83254 0.0095181591 0.0081213534         3839 
 1628000   0.60050946   -9.4015051     185.6401  0.009502462 0.0081129091         3839 
 1629000   0.59824311   -9.4035459    185.57019 0.0094930525 0.0081044735         3849 
 1630000   0.60545018   -9.4147181    185.99663 0.0095090302 0.0080960455         3816 
 1631000   0.60272492   -9.4204129    185.78238 0.0094922532 0.0080876239         3853 
 1632000   0.61013586   -9.4128013    185.76871 0.0094857389 0.0080792168         3839 
 1633000   0.61552924   -9.4040486    185.57915 0.0094702569 0.0080708214         3842 
 1634000   0.59782686   -9.4174571    186.01938 0.0094869123 0.0080624368         3852 
 1635000   0.60904478   -9.4057371    185.80148 0.0094700043 0.0080540686         3843 
 1636000   0.59615711   -9.4124126    185.64323 0.0094561546 0.0080457147         3847 
 1637000   0.59019296   -9.4149042    185.87165 0.0094620061 0.0080373632         3855 
 1638000    0.5928708   -9.4187689    185.97993 0.0094617386 0.0080290387         3848 
 1639000   0.59670541   -9.3998546    185.97028 0.0094554748 0.0080207104         3863 
 1640000   0.60223482   -9.4032139    185.73497 0.0094377528 0.0080123952         3877 
 1641000   0.60995719   -9.3992809    185.90874  0.009440826 0.0080040948         3818 
 1642000   0.61387109   -9.4011049    185.63037 0.0094209483 0.0079958061         3854 
 1643000   0.59076835   -9.4224637    186.00996 0.0094344675 0.0079875215         3847 
 1644000   0.59001065   -9.4421451    185.71944 0.0094140024 0.0079792501         3856 
 1645000   0.60276921   -9.4271315    185.59372 0.0094019106 0.0079709921         3853 
 1646000   0.59449401   -9.4158159    185.61987 0.0093975229 0.0079627421         3834 
 1647000   0.59543992   -9.4185507     185.6866 0.0093951931 0.0079545048         3852 
 1648000   0.59512054   -9.4508297    185.90362  0.009400466 0.0079462835         3855 
 1649000   0.59329499   -9.4148177    185.69537 0.0093842414  0.007938079         3832 
 1650000    0.6124273   -9.4232895    185.81307 0.0093844986 0.0079298727         3833 
 1651000   0.58791978    -9.431579     185.4986 0.0093629417 0.0079216866         3854 
 1652000   0.59586793   -9.4274231    185.75361 0.0093701377 0.0079135088         3833 
 1653000   0.58640879   -9.4158864    185.69912 0.0093617219 0.0079053383         3843 
 1654000   0.59440996   -9.4014725    186.00244 0.0093713443 0.0078971821         3865 
 1655000   0.59421605   -9.4237454    185.54865 0.0093428325 0.0078890395         3860 
 1656000    0.6110678   -9.4283729    185.80334 0.0093500073 0.0078809087         3857 
 1657000   0.59079501   -9.4402044    185.43223 0.0093257005 0.0078727853         3861 
 1658000   0.58988744   -9.4350845    185.64397 0.0093307182 0.0078646804         3874 
 1659000   0.59316398   -9.4000105    185.58567 0.0093221656 0.0078565887         3862 
 1660000   0.58798599   -9.4423326    185.48483 0.0093114875    0.0078485         3875 
 1661000   0.59535157   -9.4416159    185.40455 0.0093018538 0.0078404208         3851 
 1662000   0.60632363   -9.4233917    185.46608 0.0092993422 0.0078323611         3845 
 1663000    0.5909342   -9.4309934    185.64833  0.009302883  0.007824307         3848 
 1664000   0.59984455   -9.4343392    185.69059 0.0092994087 0.0078162662         3836 
 1665000    0.5853513   -9.4497879    185.44827 0.0092816953 0.0078082341         3862 
 1666000   0.58098568   -9.4370161    185.34556 0.0092709863  0.007800211         3859 
 1667000   0.56809863   -9.4325486    185.42047 0.0092691696 0.0077921971         3849 
 1668000   0.58630543   -9.4288232    185.53336 0.0092692528 0.0077841938         3889 
 1669000   0.58877408   -9.4526916    185.24907 0.0092495041 0.0077762012         3849 
 1670000   0.59089263   -9.4240326    185.45246 0.0092541149 0.0077682215         3850 
 1671000   0.59183109   -9.4400396    185.59594 0.0092557323 0.0077602486         3845 
 1672000   0.59406436   -9.4578053    185.08775 0.0092248679 0.0077522945         3868 
 1673000   0.58623075   -9.4297947    185.53747 0.0092417549 0.0077443435         3861 
 1674000   0.58978777   -9.4443916    185.48084  0.009233415 0.0077364023         3863 
 1675000   0.59339717   -9.4323295    185.66631 0.0092371301 0.0077284784         3861 
 1676000   0.58294353   -9.4528266    185.38638 0.0092176997 0.0077205711         3855 
 1677000   0.59678961   -9.4548895    185.36322 0.0092110524 0.0077126675         3858 
 1678000   0.57573687   -9.4416521    185.60642 0.0092176408 0.0077047814         3865 
 1679000   0.57951667   -9.4489662     185.3798 0.0092009031  0.007696901         3858 
 1680000   0.58312565   -9.4480329     185.3143 0.0091921774 0.0076890355         3849 
 1681000   0.58580071   -9.4408766    185.53567 0.0091976834 0.0076811753         3875 
 1682000   0.59186953   -9.4513024    185.64635 0.0091976988 0.0076733219         3859 
 1683000   0.57869331   -9.4471235    185.49121 0.0091845518 0.0076654854         3840 
 1684000   0.58409996   -9.4562511    185.40027 0.0091745978 0.0076576531         3856 
 1685000   0.58547706   -9.4692638    185.46428 0.0091723185 0.0076498307         3841 
 1686000   0.58338229   -9.4358119    185.30784 0.0091591459 0.0076420193         3889 
 1687000   0.58967362   -9.4376272    185.65466 0.0091708485  0.007634227         3863 
 1688000   0.56620007   -9.4389987    185.79444 0.0091723164 0.0076264447         3858 
 1689000    0.5777688   -9.4392986    185.52792 0.0091537359 0.0076186679         3852 
 1690000   0.59000286   -9.4522996    185.21748 0.0091330119 0.0076109024         3871 
 1691000   0.58193173   -9.4494246     185.5139 0.0091422188 0.0076031483         3863 
 1692000   0.57785671   -9.4459033    185.57876 0.0091400097 0.0075953997         3863 
 1693000   0.57840548   -9.4623303    185.63395 0.0091373275 0.0075876632         3853 
 1694000   0.59295297   -9.4473974    185.22155 0.0091116464 0.0075799368         3842 
 1695000   0.56377237   -9.4490747    185.43444 0.0091167374 0.0075722259         3853 
 1696000   0.58034114    -9.453379     185.4294 0.0091111143 0.0075645254         3870 
 1697000   0.59072975   -9.4620195    185.11916 0.0090905109 0.0075568351         3823 
 1698000   0.56709351   -9.4436182    185.37118 0.0090975258 0.0075491506         3841 
 1699000    0.5790724   -9.4471562    185.14219 0.0090809394 0.0075414805         3838 
 1700000   0.57216949   -9.4575325     185.4862  0.009092461 0.0075338219         3862 
 1701000   0.57563066   -9.4757497    185.29317 0.0090776587 0.0075261668         3848 
 1702000   0.57494166    -9.455331    185.25007 0.0090702152 0.0075185224         3856 
 1703000   0.56323681    -9.454832    185.27075  0.009065901 0.0075108929         3845 
 1704000   0.57421903   -9.4546602    185.43328 0.0090685289 0.0075032699         3870 
 1705000   0.56673858   -9.4592812    185.24754 0.0090541318 0.0074956612         3839 
 1706000   0.56448099    -9.462411    185.44316 0.0090583803  0.007488062         3838 
 1707000   0.56262497    -9.449171    185.35739 0.0090488863 0.0074804758         3851 
 1708000   0.56843461   -9.4575149      185.131 0.0090325429  0.007472896         3870 
 1709000   0.58709057   -9.4637896    185.23607 0.0090323811 0.0074653289         3862 
 1710000   0.56311606   -9.4559158    185.19172 0.0090249375 0.0074577689         3843 
 1711000   0.58096169   -9.4781506    184.92765 0.0090068015 0.0074502212         3862 
 1712000   0.57150394   -9.4612942    185.60903 0.0090347077 0.0074426815         3859 
 1713000   0.57920693   -9.4656081    184.98039 0.0089988512 0.0074351568         3843 
 1714000   0.56196231   -9.4923232    185.24824  0.009006624 0.0074276394         3857 
 1715000   0.57081026    -9.472092    185.28625 0.0090032192 0.0074201315         3846 
 1716000   0.56702781   -9.4705143    185.08074 0.0089879925 0.0074126326         3877 
 1717000   0.56357656   -9.4778285    185.33417 0.0089950575  0.007405142         3863 
 1718000   0.56860061   -9.4703344    185.22202 0.0089843822 0.0073976638         3848 
 1719000   0.56384191    -9.462006    185.25886 0.0089809415 0.0073901892         3868 
 1720000   0.57223889   -9.4837639      185.262 0.0089758722 0.0073827382         3859 
 1721000   0.56689245    -9.479931    185.56687 0.0089854189 0.0073752954         3856 
 1722000    0.5720277   -9.4752666    184.94302 0.0089500106 0.0073678577         3867 
 1723000   0.55688774    -9.460476    185.11803 0.0089532808 0.0073604311         3856 
 1724000   0.56817492   -9.4654517    185.21932 0.0089529834 0.0073530135         3858 
 1725000   0.56382052   -9.4656032    185.26036 0.0089497757 0.0073456082         3858 
 1726000   0.56181323   -9.4802328    185.24496 0.0089438471 0.0073382112         3859 
 1727000   0.57031147   -9.4698892    185.28881 0.0089407843 0.0073308235         3860 
 1728000   0.57603178   -9.4686865    185.22844 0.0089326989 0.0073234463         3855 
 1729000   0.55867411   -9.4631401    185.08681 0.0089207062  0.007316086         3873 
 1730000   0.56529481   -9.4819595    185.38308 0.0089298207 0.0073087264         3878 
 1731000    0.5616133   -9.4625198    185.26238 0.0089188515 0.0073013752         3872 
 1732000   0.55383231   -9.4685871    185.25394 0.0089132957 0.0072940362         3857 
 1733000    0.5701362   -9.4760944    185.05741 0.0088987021 0.0072867068         3864 
 1734000    0.5608657   -9.4986894    184.91226 0.0088865944 0.0072793798         3861 
 1735000   0.56828875   -9.4556353    185.03777 0.0088875009  0.007272067         3856 
 1736000    0.5712613   -9.4866623    185.18439 0.0088894196 0.0072647679         3876 
 1737000   0.56255295   -9.4919419    184.92794 0.0088719987 0.0072574778         3817 
 1738000   0.56675209   -9.4771296    185.18963 0.0088794415 0.0072501946         3854 
 1739000   0.55411634   -9.4791698    185.15581 0.0088727146 0.0072429264         3862 
 1740000   0.54643395    -9.471596    185.25071 0.0088721602 0.0072356692         3849 
 1741000   0.55044277   -9.4781536    185.26283 0.0088676445 0.0072284208         3867 
 1742000   0.56654532   -9.4777094    185.23525 0.0088612348 0.0072211837         3845 
 1743000   0.56477178   -9.5038122    184.86845  0.008838614 0.0072139601         3865 
 1744000   0.55785333   -9.4873314     184.8033 0.0088304329 0.0072067383         3844 
 1745000   0.55912583   -9.4815485    185.15608 0.0088422198 0.0071995282         3882 
 1746000   0.56751427   -9.4972307    185.01236 0.0088302959 0.0071923322         3844 
 1747000    0.5436196    -9.484927    184.93157 0.0088213875 0.0071851398         3847 
 1748000   0.56394857   -9.4870514     185.1558  0.008827031 0.0071779531         3848 
 1749000   0.54873147   -9.4677997    184.93542 0.0088114839 0.0071707799         3860 
 1750000   0.55992794    -9.482596    184.71538 0.0087959705 0.0071636203         3842 
 1751000    0.5565681   -9.5024768    185.16099 0.0088121547 0.0071564782         3843 
 1752000   0.56402768    -9.465691    185.10142 0.0088042915  0.007149335         3868 
 1753000   0.54713185   -9.4993531    185.18876 0.0088034207 0.0071422033         3855 
 1754000   0.55456707   -9.4842966    185.03311 0.0087910069  0.007135082         3862 
 1755000   0.55137879   -9.4915771    184.85281 0.0087774364 0.0071279613         3852 
 1756000   0.55880199   -9.4936027    185.34207 0.0087956564 0.0071208563         3854 
 1757000   0.55729099   -9.4831986     185.0466 0.0087766361 0.0071137643         3860 
 1758000   0.56370269    -9.494375    184.72945 0.0087566101 0.0071066814         3870 
 1759000    0.5317252   -9.4996322     184.9315 0.0087612043 0.0070996043         3873 
 1760000    0.5470762   -9.4900359    184.90444 0.0087549448 0.0070925401         3842 
 1761000   0.54962543   -9.4936548    185.05528 0.0087571114 0.0070854809         3851 
 1762000   0.55559275   -9.4837008    185.20351 0.0087591521 0.0070784279         3853 
 1763000   0.55666449   -9.4818535    184.79437 0.0087348444 0.0070713909         3877 
 1764000    0.5565122   -9.4991042    184.87533 0.0087337174 0.0070643611         3862 
 1765000   0.54896427   -9.4971653    185.14195 0.0087413576 0.0070573476         3851 
 1766000    0.5441366   -9.4765754    184.83538 0.0087219415 0.0070503323         3854 
 1767000   0.54899262    -9.484691    185.03169 0.0087262636 0.0070433321         3851 
 1768000   0.54753203   -9.4906275    184.94727 0.0087173489 0.0070363401         3851 
 1769000   0.53449688    -9.500568    185.06352  0.008717897 0.0070293558         3844 
 1770000    0.5566734   -9.5082205     184.7702 0.0086991619  0.007022383         3849 
 1771000   0.55222014   -9.5079796    184.97708 0.0087039844 0.0070154131         3864 
 1772000   0.54251202   -9.4970645    185.05267 0.0087026274 0.0070084535         3839 
 1773000   0.53897456   -9.5051081    185.15571 0.0087025619 0.0070015063         3863 
 1774000   0.52926728   -9.5043297    184.73474 0.0086778815 0.0069945687         3854 
 1775000   0.53640048   -9.4888873    184.86811 0.0086792541 0.0069876428         3863 
 1776000   0.53823581   -9.5030953    184.86822 0.0086743721  0.006980732         3875 
 1777000    0.5457354   -9.5262253    184.98511 0.0086749724  0.006973826         3874 
 1778000   0.53906028   -9.4888533     184.9439  0.008668162 0.0069669314         3870 
 1779000   0.55630443   -9.4993666    184.68593 0.0086512052   0.00696004         3833 
 1780000   0.55639097   -9.5096673    185.16277 0.0086686689 0.0069531591         3856 
 1781000    0.5390947    -9.509108    184.92675 0.0086527585 0.0069462921         3859 
 1782000   0.54705135   -9.5130233    184.81663 0.0086427531  0.006939433         3872 
 1783000   0.54315982   -9.5115581     184.7007 0.0086324873 0.0069325858         3869 
 1784000   0.55012921   -9.4982655    184.72323 0.0086287012 0.0069257414         3872 
 1785000   0.53244783   -9.5124876    184.73621 0.0086244731 0.0069189048         3861 
 1786000   0.53736043   -9.5134351    185.01989 0.0086328801 0.0069120777         3866 
 1787000   0.53696095   -9.5008893    185.08133 0.0086309146 0.0069052569         3857 
 1788000   0.53554688   -9.5001637    185.01122 0.0086228197 0.0068984442         3851 
 1789000   0.53700061   -9.5194456    184.91612   0.00861357 0.0068916425         3849 
 1790000   0.53250307   -9.5214695    184.89553 0.0086077993  0.006884854         3850 
 1791000    0.5271943   -9.5016795    184.78558 0.0085978773 0.0068780751         3870 
 1792000   0.53625207   -9.4888919    185.09481 0.0086074593 0.0068713051         3861 
 1793000   0.53652972     -9.50365    184.80755  0.008589308 0.0068645422         3850 
 1794000   0.53276856   -9.4976629    184.92337 0.0085899003  0.006857785         3882 
 1795000   0.54488579    -9.520684      184.899 0.0085839834 0.0068510414         3853 
 1796000   0.54220452   -9.5074442    185.07808 0.0085875132 0.0068443104         3868 
 1797000   0.52657367   -9.5292221     184.9417 0.0085764096 0.0068375819         3867 
 1798000   0.53186141   -9.4886507    185.00573 0.0085746076 0.0068308608         3866 
 1799000   0.53643195    -9.514048    184.78051 0.0085594084 0.0068241485         3875 
 1800000   0.53073029   -9.5128286    184.79758 0.0085554434 0.0068174516         3858 
 1801000   0.53075025     -9.52439    185.03723 0.0085617817 0.0068107644         3850 
 1802000   0.53496994   -9.5247871    184.36285 0.0085258439 0.0068040792         3869 
 1803000   0.53010944    -9.521431    184.87627 0.0085448452 0.0067974034         3868 
 1804000   0.53289826   -9.5254092    184.92464 0.0085423429  0.006790736         3881 
 1805000   0.53810054   -9.5253561    184.82588 0.0085330506 0.0067840796         3862 
 1806000   0.52633467   -9.5150124    185.32442 0.0085513297 0.0067774347         3841 
 1807000   0.53315727   -9.4934724    184.57913 0.0085122268 0.0067707937         3869 
 1808000   0.53232527    -9.506209    184.71725 0.0085138851 0.0067641691         3863 
 1809000   0.52276993   -9.5256523    185.06316 0.0085251134 0.0067575487         3847 
 1810000   0.53760708   -9.5206904    184.81099 0.0085087931 0.0067509361         3866 
 1811000   0.53023036   -9.5218969    184.94373 0.0085102031 0.0067443323         3884 
 1812000   0.53012901   -9.5315639    184.61225 0.0084902617 0.0067377423         3872 
 1813000   0.53986893   -9.5240677    184.70039 0.0084896298 0.0067311578         3860 
 1814000   0.52528415   -9.5212611    184.91839 0.0084949645 0.0067245819         3884 
 1815000   0.53875424    -9.514514    184.55136 0.0084734326 0.0067180129         3879 
 1816000    0.5371333   -9.5118498    184.61728 0.0084717913 0.0067114507         3867 
 1817000   0.54055808   -9.5285324    185.00118 0.0084847357 0.0067049051         3882 
 1818000   0.52939121   -9.5451497    184.86288 0.0084737294  0.006698362         3870 
 1819000   0.52557743   -9.5284613     184.8953 0.0084705562 0.0066918294         3859 
 1820000    0.5354819   -9.5102947    184.68661 0.0084563466 0.0066853044         3880 
 1821000   0.52460942   -9.5291334     184.8236  0.008457972 0.0066787881         3865 
 1822000   0.53628466   -9.5228483    184.69332 0.0084473712 0.0066722774         3867 
 1823000   0.51567091   -9.5394869    184.98647  0.008456138 0.0066657749         3843 
 1824000   0.51610549   -9.5283485    184.68996 0.0084379551 0.0066592883         3870 
 1825000   0.52731106   -9.5568182    184.66127 0.0084320215 0.0066528033         3902 
 1826000   0.52308789    -9.539093    184.51448 0.0084207048 0.0066463266         3882 
 1827000   0.52884617   -9.5269834    184.82096 0.0084300746 0.0066398609         3862 
 1828000   0.51398097   -9.5341428    184.81984 0.0084254119 0.0066334013         3876 
 1829000   0.51470501   -9.5147286    184.90308 0.0084245979 0.0066269527         3868 
 1830000   0.52829877   -9.5322449    184.45375 0.0083995334 0.0066205151         3897 
 1831000   0.52240049   -9.5441177    184.63771 0.0084033183 0.0066140797         3880 
 1832000   0.52203106   -9.5498603    184.66377 0.0083999168 0.0066076529         3891 
 1833000   0.51807433   -9.5306761    184.60949 0.0083928666 0.0066012361         3872 
 1834000    0.5224311   -9.5387948    184.73876 0.0083941641 0.0065948294         3859 
 1835000    0.5261958   -9.5392788    184.71669 0.0083885872 0.0065884243         3878 
 1836000     0.509881   -9.5408432    184.69317 0.0083829507 0.0065820289         3865 
 1837000   0.52723676   -9.5342276    184.69904 0.0083786534 0.0065756442         3878 
 1838000   0.52330925   -9.5421106    184.49793 0.0083649767  0.006569268         3867 
 1839000   0.51742265    -9.528809    184.66127 0.0083678301 0.0065629005         3896 
 1840000   0.53618366   -9.5492011    184.75151 0.0083673689 0.0065565422         3879 
 1841000   0.51885851   -9.5473683    184.52178 0.0083524251 0.0065501877         3866 
 1842000   0.50529791    -9.519077      184.541 0.0083487604  0.006543849         3886 
 1843000   0.51726112   -9.5458649    184.93159 0.0083618912 0.0065375068         3892 
 1844000    0.5126339   -9.5350611    184.68966 0.0083464234  0.006531179         3857 
 1845000   0.52052265   -9.5542446    184.64911 0.0083400683 0.0065248576         3861 
 1846000   0.51088143   -9.5403065    184.62934 0.0083346576 0.0065185539         3867 
 1847000   0.52179763   -9.5495814    184.56247 0.0083271283   0.00651225         3864 
 1848000   0.52069683   -9.5542544    184.53461 0.0083213659 0.0065059551         3874 
 1849000   0.51835597    -9.552936    184.53262 0.0083167757 0.0064996739         3869 
 1850000   0.51051122   -9.5600614    184.52985 0.0083121554 0.0064933934         3874 
 1851000   0.49569106   -9.5489109    184.58179 0.0083100032 0.0064871218         3877 
 1852000   0.51093427   -9.5403684     184.5066  0.008302133 0.0064808636         3875 
 1853000   0.51818881   -9.5534956     184.2601 0.0082865666 0.0064746103         3860 
 1854000   0.51616568   -9.5509778    184.35182 0.0082862198 0.0064683678         3872 
 1855000   0.50832292   -9.5372097    184.53256 0.0082898722 0.0064621298         3852 
 1856000    0.5083225   -9.5574041    184.45776 0.0082820476 0.0064559008         3880 
 1857000   0.51531353   -9.5577941     184.4873 0.0082789131 0.0064496839         3851 
 1858000   0.51513566   -9.5554645    184.23923 0.0082633311 0.0064434719         3862 
 1859000   0.49942661   -9.5401486    184.63082 0.0082764398 0.0064372712         3890 
 1860000   0.50939137   -9.5472403    184.62235 0.0082716105 0.0064310718         3893 
 1861000   0.50288426   -9.5515923    184.56782 0.0082647244 0.0064248901         3864 
 1862000   0.51082531   -9.5591628    184.41135 0.0082532826 0.0064187184         3881 
 1863000   0.50893639   -9.5519852    184.37613  0.008247277  0.006412543         3857 
 1864000   0.50241941   -9.5444279    184.53477 0.0082499452 0.0064063774         3885 
 1865000   0.51103008    -9.538328    184.24326 0.0082324958 0.0064002218         3867 
 1866000   0.51504023   -9.5424641    184.13158 0.0082230967 0.0063940753         3879 
 1867000   0.50277817   -9.5640415    184.68904 0.0082435742 0.0063879346         3870 
 1868000    0.5109155   -9.5517848    184.39327 0.0082259666 0.0063818019         3875 
 1869000    0.5139148   -9.5502518     184.2811 0.0082165641 0.0063756749         3874 
 1870000   0.50656986   -9.5632021    184.85817 0.0082378864 0.0063695596         3876 
 1871000   0.50195988   -9.5506257    184.38596 0.0082124514 0.0063634469         3894 
 1872000   0.49589547   -9.5487391    184.71214 0.0082225845 0.0063573484         3880 
 1873000   0.50160699   -9.5579643    184.46216 0.0082070723 0.0063512551         3896 
 1874000   0.50478703   -9.5467158     184.7057 0.0082135227 0.0063451767         3874 
 1875000   0.50617598   -9.5669656    184.72855 0.0082101579 0.0063390969         3905 
 1876000   0.51787414   -9.5783131    184.14256 0.0081797511 0.0063330305         3888 
 1877000   0.49876138   -9.5592935    184.75179 0.0082024412 0.0063269662         3870 
 1878000   0.50322168   -9.5449633    184.52624 0.0081880654 0.0063209125         3861 
 1879000   0.50853373   -9.5571741    184.54093  0.008184359  0.006314869         3879 
 1880000   0.51266861   -9.5627137    184.18409 0.0081641884 0.0063088316         3892 
 1881000   0.48256881   -9.5644687     184.4653 0.0081723063 0.0063028034         3890 
 1882000   0.51373609   -9.5665343     184.2137 0.0081568233  0.006296786         3880 
 1883000   0.50696008   -9.5544989    184.41638 0.0081614613 0.0062907723         3884 
 1884000   0.50193391   -9.5670746    184.56577 0.0081637372 0.0062847678         3885 
 1885000   0.49494683   -9.5720522    184.43391 0.0081535771  0.006278769         3871 
 1886000   0.50273556   -9.5810051    184.22703 0.0081401127 0.0062727833         3877 
 1887000   0.49962924   -9.5733441    184.53008 0.0081491823 0.0062668038         3873 
 1888000   0.50439827   -9.5761635    184.35469 0.0081371242 0.0062608256         3882 
 1889000     0.499845   -9.5847546    184.15493 0.0081240042 0.0062548551         3906 
 1890000   0.48330009   -9.5715163    184.34669 0.0081281608 0.0062488931         3880 
 1891000   0.48658423   -9.5746125    184.37706 0.0081252009  0.006242941         3889 
 1892000   0.51393709   -9.5643355    184.43586 0.0081234962 0.0062369967         3885 
 1893000   0.50347853   -9.5679371    184.17714 0.0081078157 0.0062310626         3886 
 1894000   0.50050604   -9.5746041    184.03493 0.0080972778 0.0062251302         3869 
 1895000   0.49960289   -9.5617111    184.35993 0.0081072968 0.0062192092         3883 
 1896000   0.51461845   -9.5834597    184.00643 0.0080874838 0.0062132938         3899 
 1897000   0.49964383   -9.5969473    184.36598  0.008099015 0.0062073939         3881 
 1898000   0.49982361   -9.5863902    184.26175 0.0080901716 0.0062014957         3892 
 1899000   0.50121963   -9.5675439    184.42339 0.0080930046 0.0061956066         3868 
 1900000   0.49942283   -9.5888757    184.41009 0.0080881619 0.0061897258         3853 
 1901000    0.4964436   -9.5717626    183.99606 0.0080657574 0.0061838528         3881 
 1902000    0.4947853   -9.5745504    184.38669 0.0080786316 0.0061779841         3874 
 1903000   0.50008267   -9.5648025    184.05205 0.0080597326   0.00617212         3874 
 1904000   0.48805191   -9.5800148    184.38539  0.008070089 0.0061662682         3862 
 1905000   0.47822244    -9.578767    184.28882  0.008061628 0.0061604244         3893 
 1906000   0.50403724   -9.5832925     184.1466 0.0080511807 0.0061545836         3876 
 1907000   0.49655201     -9.57936    184.42809 0.0080592594  0.006148755         3872 
 1908000   0.48835997   -9.5782835    183.94246 0.0080338252 0.0061429339         3878 
 1909000   0.49644336    -9.579802    184.36748 0.0080481701  0.006137114         3870 
 1910000   0.50746195   -9.5635981     184.2421 0.0080384861 0.0061313081         3880 
 1911000   0.48817795   -9.5998446    184.28546 0.0080361705 0.0061255068         3884 
 1912000   0.48749391   -9.5661846    184.28555 0.0080319713 0.0061197107         3875 
 1913000   0.49025484   -9.5881041    184.17891 0.0080231273 0.0061139251         3881 
 1914000   0.48616427   -9.5737846    184.14911 0.0080176379  0.006108145         3866 
 1915000     0.486378   -9.6055437    183.93421 0.0080040997 0.0061023711         3892 
 1916000   0.49203366   -9.5941802    183.98024  0.008001924 0.0060966051         3877 
 1917000   0.47815825   -9.5771912    184.32386 0.0080126874 0.0060908503         3865 
 1918000   0.49553644   -9.5917563    184.04737 0.0079964967 0.0060850998         3884 
 1919000   0.49367079   -9.5907019    183.99595 0.0079900969 0.0060793565         3882 
 1920000   0.48667267   -9.5700638    184.13962 0.0079921708  0.006073623         3869 
 1921000   0.49219558   -9.5953777    184.47962   0.00800276 0.0060678962         3888 
 1922000   0.48183579   -9.6014103    184.01577 0.0079784845 0.0060621741         3884 
 1923000   0.47903004   -9.5909687    184.03006 0.0079749551 0.0060564612         3883 
 1924000   0.48300916   -9.5989326    184.38034 0.0079859813 0.0060507556         3881 
 1925000   0.48850778   -9.5839256    184.04269 0.0079672162 0.0060450559         3892 
 1926000    0.4880616    -9.585181    184.25107 0.0079720956 0.0060393634         3887 
 1927000   0.47774796   -9.5852244    184.36839 0.0079730319 0.0060336791         3865 
 1928000   0.48819374   -9.5895009    184.21503 0.0079622681 0.0060279994         3865 
 1929000   0.48345984   -9.5929274    184.31148 0.0079623067 0.0060223303         3892 
 1930000   0.48775898   -9.5980017      184.153 0.0079513385  0.006016664         3876 
 1931000   0.48170791   -9.6161253    184.22542 0.0079503459 0.0060110059         3858 
 1932000     0.482969   -9.5970811    184.07383 0.0079396926 0.0060053578         3873 
 1933000   0.48475264   -9.5916668     184.0311 0.0079337431 0.0059997146         3864 
 1934000   0.47951734   -9.5978673    184.08172 0.0079318217  0.005994081         3871 
 1935000   0.47484553   -9.5787333    184.34475 0.0079390505 0.0059884569         3865 
 1936000   0.49297399   -9.6136809    184.06782 0.0079230294 0.0059828379         3870 
 1937000   0.48223391   -9.6019827    184.10401 0.0079204962 0.0059772292         3881 
 1938000   0.47718226   -9.5961147    183.94585 0.0079096085  0.005971621         3875 
 1939000   0.47542153   -9.6044768    184.08582 0.0079115446 0.0059660279         3884 
 1940000   0.47956912   -9.5948184    183.93627 0.0079010425 0.0059604386         3882 
 1941000   0.47978017   -9.6054268    184.19755 0.0079081894 0.0059548567         3864 
 1942000   0.48363116   -9.6024427    184.09724  0.007899813 0.0059492801         3880 
 1943000   0.47429574   -9.5922145     184.2515 0.0079023634 0.0059437138         3869 
 1944000   0.47429735   -9.5871954    184.10705 0.0078921061 0.0059381551         3871 
 1945000   0.48211692   -9.5962794    183.78209 0.0078741255 0.0059326034         3872 
 1946000   0.47851902   -9.6102803    184.06331 0.0078821219 0.0059270604         3892 
 1947000    0.4796176   -9.5998314     184.1708  0.007882674 0.0059215187         3874 
 1948000   0.46901112   -9.5977403    184.07091 0.0078743544 0.0059159853         3898 
 1949000   0.48538037   -9.6021928    184.17604 0.0078748094  0.005910461         3890 
 1950000   0.48051416   -9.5924222    183.87145 0.0078577541 0.0059049415         3872 
 1951000   0.48351637   -9.5980173    184.08803 0.0078629777 0.0058994302         3879 
 1952000   0.47755318   -9.6063621    184.10415 0.0078596374 0.0058939246         3880 
 1953000   0.46430043   -9.6019804    184.09828 0.0078553627 0.0058884241         3877 
 1954000   0.46882894   -9.6130903    184.16011 0.0078539792 0.0058829333         3894 
 1955000   0.46262146   -9.6009793    184.09317 0.0078471085 0.0058774509         3884 
 1956000   0.47210961   -9.6199407    184.07531  0.007842336 0.0058719761         3876 
 1957000   0.46942517    -9.619136    183.94615 0.0078328288  0.005866507         3887 
 1958000   0.46250583   -9.5968632    184.28369  0.007843194 0.0058610487         3892 
 1959000   0.46324333   -9.6263881     183.9365 0.0078244215 0.0058555941         3892 
 1960000   0.47281086   -9.5981665    183.93857 0.0078205175 0.0058501444         3874 
 1961000   0.47662583    -9.612015    184.22646 0.0078287635 0.0058447034         3880 
 1962000    0.4674654   -9.6157077    184.04346 0.0078170006 0.0058392652         3893 
 1963000   0.46647678   -9.6100923    183.62078 0.0077950747  0.005833838         3882 
 1964000   0.46889474   -9.6255009    184.06808 0.0078100848 0.0058284155         3888 
 1965000   0.46558395   -9.6165126    183.93765 0.0078005791 0.0058230032         3886 
 1966000   0.47601275   -9.6139794    184.14168 0.0078052595 0.0058175938         3875 
 1967000   0.47187968   -9.6112189    184.08152 0.0077987424 0.0058121915         3880 
 1968000   0.46598067   -9.6136511    183.85445 0.0077851646  0.005806797         3887 
 1969000   0.45019386   -9.6081816    183.64968 0.0077725445 0.0058014089         3882 
 1970000   0.45879357   -9.6241939    183.80878 0.0077753292 0.0057960271         3875 
 1971000   0.46300612   -9.6215339    184.29144 0.0077917911 0.0057906535         3858 
 1972000   0.46583598   -9.6226205    183.63931  0.007760282 0.0057852827         3864 
 1973000   0.46540472   -9.6262727     184.1075 0.0077761236  0.005779923         3889 
 1974000   0.46401048   -9.6160885    183.82961 0.0077604531 0.0057745713         3888 
 1975000   0.46843611   -9.6212653    184.10778 0.0077682609 0.0057692227         3881 
 1976000   0.45957766   -9.6327054     183.7836 0.0077506579 0.0057638788         3870 
 1977000   0.46276314   -9.6269816    183.66604 0.0077417821 0.0057585448         3870 
 1978000   0.46365554    -9.634579     183.8775 0.0077467769 0.0057532195         3872 
 1979000   0.45254615    -9.611604    183.75031 0.0077375067 0.0057478962         3884 
 1980000    0.4547667   -9.6306117    183.91055 0.0077403432 0.0057425828         3906 
 1981000   0.46776369   -9.6182327    183.71654 0.0077282743 0.0057372751         3879 
 1982000   0.45766935   -9.6263949    184.08432 0.0077398384 0.0057319751         3876 
 1983000   0.45867957   -9.6345542    183.87216 0.0077270197 0.0057266797         3894 
 1984000   0.46644382   -9.6271165    184.05214 0.0077306845 0.0057213919         3886 
 1985000   0.45987529   -9.6281531    183.87293 0.0077192667 0.0057161162         3876 
 1986000   0.45453356   -9.6238536    183.87313  0.007715388 0.0057108407         3887 
 1987000   0.45218403   -9.6311917    184.02862 0.0077180261  0.005705575         3875 
 1988000   0.46510305   -9.6321475    184.04411 0.0077147932 0.0057003159         3880 
 1989000   0.45517848    -9.612674    183.84495 0.0077025703  0.005695063         3879 
 1990000   0.45950617   -9.6278991    183.62657 0.0076895547 0.0056898174         3882 
 1991000    0.4519938   -9.6173604    183.80142 0.0076930109 0.0056845807         3890 
 1992000    0.4587413    -9.625303    183.79112 0.0076887181 0.0056793459         3880 
 1993000   0.44065751   -9.6319875    183.90599 0.0076896633 0.0056741181         3896 
 1994000   0.46328672   -9.6363191    183.85265 0.0076835777  0.005668899         3894 
 1995000   0.46104616   -9.6163553    183.80112 0.0076775739 0.0056636883         3873 
 1996000   0.46421426   -9.6390151    183.91598  0.007678523 0.0056584814         3879 
 1997000   0.45216993   -9.6456787    184.15239 0.0076845429 0.0056532769         3892 
 1998000   0.45682937   -9.6479587    183.81942 0.0076668093 0.0056480822         3888 
 1999000   0.44823774   -9.6299719    183.59053  0.007653432 0.0056428938         3877 
 2000000   0.45208912   -9.6232687    183.76381 0.0076568252 0.0056377095         3877 
 2001000   0.44258498   -9.6334206    183.56293  0.007644633 0.0056325329         3886 
 2002000   0.45371768   -9.6330534    183.83962 0.0076523318 0.0056273677         3874 
 2003000    0.4558197   -9.6484127     183.9729 0.0076540566 0.0056222063         3892 
 2004000    0.4578923    -9.641703    183.53777  0.007632143 0.0056170475         3894 
 2005000   0.45725256   -9.6327545    183.90285 0.0076435101 0.0056118968         3880 
 2006000   0.44860091   -9.6379674    183.72596 0.0076323512 0.0056067558         3892 
 2007000   0.45783499   -9.6413218    184.01644 0.0076406096 0.0056016182         3866 
 2008000   0.45579897   -9.6332783     183.6804 0.0076228585 0.0055964895         3897 
 2009000   0.45382756   -9.6460615    183.62814 0.0076168964 0.0055913631         3878 
 2010000   0.44730649   -9.6414663    183.93124 0.0076256734 0.0055862425         3887 
 2011000   0.45036574    -9.639875    183.94167 0.0076223137 0.0055811264         3902 
 2012000   0.44945843   -9.6488796    183.75922 0.0076109682 0.0055760193         3888 
Loop time of 5214.58 on 48 procs for 2000000 steps with 4000 atoms

Performance: 66275.735 tau/day, 383.540 timesteps/s
99.4% CPU use with 48 MPI tasks x no OpenMP threads

MPI task timing breakdown:
Section |  min time  |  avg time  |  max time  |%varavg| %total
---------------------------------------------------------------
Pair    | 357.46     | 393.95     | 429.93     |  84.8 |  7.55
Neigh   | 36.098     | 38.043     | 39.976     |  14.2 |  0.73
Comm    | 317.01     | 363.17     | 410.41     | 103.0 |  6.96
Output  | 5.9431     | 5.9453     | 5.9935     |   0.3 |  0.11
Modify  | 4335.2     | 4360.6     | 4387.4     |  17.7 | 83.62
Other   |            | 52.82      |            |       |  1.01

Nlocal:        83.3333 ave          90 max          75 min
Histogram: 1 0 3 4 12 3 12 7 4 2
Nghost:        2416.23 ave        2432 max        2399 min
Histogram: 2 3 2 8 8 6 7 7 1 4
Neighs:        16670.5 ave       18809 max       14116 min
Histogram: 1 5 6 4 4 6 5 6 7 4
FullNghs:      33341.5 ave       36478 max       29372 min
Histogram: 1 0 4 5 9 6 11 6 4 2

Total # of neighbors = 1600392
Ave neighs/atom = 400.09800
Neighbor list builds = 106399
Dangerous builds = 0

#clear
#
#next RN
#
#jump SELF
Total wall time: 1:26:58
