
units lj                  # Use reduced LJ style units
atom_style atomic         # Uncharged point particles
atom_modify map hash      # Needed for indexing of clusters etc
                          # Used to be able to find where atoms are in relation to each other.

lattice fcc 1.0 spacing 1 1 1
Lattice spacing in x,y,z = 1.5874011 1.5874011 1.5874011
region box block 0 10 0 10 0 10 units lattice
create_box 2 box
Created orthogonal box = (0.0000000 0.0000000 0.0000000) to (15.874011 15.874011 15.874011)
  3 by 4 by 4 MPI processor grid
create_atoms 1 box
Created 4000 atoms
  using lattice units in orthogonal box = (0.0000000 0.0000000 0.0000000) to (15.874011 15.874011 15.874011)
  create_atoms CPU = 0.003 seconds
set type 1 type/fraction 2 0.43 78393
Setting atom values ...
  1722 settings made for type/fraction
mass 1 1.0
mass 2 1.0
pair_style lj/cut  3.5
pair_modify tail  yes
pair_coeff 1  1  1.0  1.0   # Intearaction between 1 and 1 set with epsilon = 1 and sigma = 1
pair_coeff 1  2  1.5  0.8
pair_coeff 2  2  0.5  0.88

write_data data.0
System init for write_data ...
Neighbor list info ...
  update every 1 steps, delay 10 steps, check yes
  max neighbors/atom: 2000, page size: 100000
  master list distance cutoff = 3.8
  ghost atom cutoff = 3.8
  binsize = 1.9, bins = 9 9 9
  1 neighbor lists, perpetual/occasional/extra = 1 0 0
  (1) pair lj/cut, perpetual
      attributes: half, newton on
      pair build: half/bin/atomonly/newton
      stencil: half/bin/3d
      bin: standard
WARNING: Not all mixed pair coeffs generated from mixing. Use write_data with 'pair ij' option to store all pair coeffs. (../write_data.cpp:312)


#############################
#   M E L T   S Y S T E M   #
#############################

velocity all create 2.4 1741580 mom yes dist gaussian # Assign velocities
                                                    # Temperature 2.4, random number seed, zero linear momentum
                                                                                # Gaussian distribution

timestep 0.002   # simulation timestep
thermo 1000       # output thermodynamic data every 1000 steps bf 100

# Define a fix  in this case with index 1 applied to all
# particles in the simulation. This fix is for simulations
# in the anisotropic NPT ensemble. Note that we use the MTK
# correction.
fix 1 all npt temp 2.4 2.4 0.1 iso 5.68 5.68 0.5 mtk yes tchain 5 pchain 5 # Use NPT ensemble
                                                                         # Set temperature and pressure and damping
                                                                         # Numbers of thermostats in chain and in barostat
run 10000          # run for 10000 steps
Per MPI rank memory allocation (min/avg/max) = 3.642 | 3.644 | 3.648 Mbytes
Step Temp E_pair E_mol TotEng Press Volume 
       0          2.4   -5.6998203            0   -2.1007203   -4.1891945         4000 
    1000    2.3497183    -5.016453            0   -1.4927568    5.7260515    3807.7699 
    2000    2.4018388    -5.042826            0   -1.4409686    5.6461327    3817.4759 
    3000    2.4316843   -4.9541484            0   -1.3075338    5.6078082    3861.2745 
    4000     2.364668   -4.9741777            0   -1.4280625    5.6987492    3839.0306 
    5000    2.3691781   -4.9823623            0   -1.4294836     5.708771    3837.5906 
    6000    2.4393144   -5.0058227            0   -1.3477659    5.6140236    3834.4911 
    7000    2.4600819   -5.0316668            0   -1.3424664    5.6627385    3816.4603 
    8000    2.3651402   -5.0426559            0   -1.4958325    5.9316913    3798.5188 
    9000    2.3976346   -5.0272602            0   -1.4317075    5.5781234    3822.8941 
   10000    2.3962113   -5.0381445            0   -1.4447261    5.4751497    3828.7428 
Loop time of 2.53639 on 48 procs for 10000 steps with 4000 atoms

Performance: 681284.249 tau/day, 3942.617 timesteps/s
99.7% CPU use with 48 MPI tasks x no OpenMP threads

MPI task timing breakdown:
Section |  min time  |  avg time  |  max time  |%varavg| %total
---------------------------------------------------------------
Pair    | 1.1426     | 1.203      | 1.29       |   2.4 | 47.43
Neigh   | 0.21276    | 0.21901    | 0.22905    |   0.8 |  8.63
Comm    | 0.76702    | 0.85595    | 0.93556    |   3.6 | 33.75
Output  | 0.00024242 | 0.00024626 | 0.00030966 |   0.0 |  0.01
Modify  | 0.19763    | 0.243      | 0.28954    |   5.0 |  9.58
Other   |            | 0.01522    |            |       |  0.60

Nlocal:        83.3333 ave          94 max          74 min
Histogram: 1 4 5 6 7 10 8 3 2 2
Nghost:        1692.94 ave        1724 max        1659 min
Histogram: 2 1 4 3 11 10 9 4 3 1
Neighs:        9964.62 ave       11522 max        8775 min
Histogram: 3 5 8 5 8 7 7 2 2 1

Total # of neighbors = 478302
Ave neighs/atom = 119.57550
Neighbor list builds = 908
Dangerous builds = 210

# Equilibrate just above the melting temperature to avoid step fn in T

fix 1 all npt temp 1.25 1.25 0.1 iso 5.68 5.68 0.5 mtk yes tchain 5 pchain 5
run 2000
Per MPI rank memory allocation (min/avg/max) = 3.643 | 3.645 | 3.649 Mbytes
Step Temp E_pair E_mol TotEng Press Volume 
   10000    2.3962113   -5.0381445            0   -1.4447261    5.4751497    3828.7428 
   11000    1.2587603   -7.0447485            0     -5.15708    5.5735178    3024.9564 
   12000    1.2619129   -7.1261354            0   -5.2337392    5.9472194    2989.9584 
Loop time of 0.615876 on 48 procs for 2000 steps with 4000 atoms

Performance: 561151.898 tau/day, 3247.407 timesteps/s
99.7% CPU use with 48 MPI tasks x no OpenMP threads

MPI task timing breakdown:
Section |  min time  |  avg time  |  max time  |%varavg| %total
---------------------------------------------------------------
Pair    | 0.27568    | 0.30019    | 0.32838    |   2.3 | 48.74
Neigh   | 0.039378   | 0.042025   | 0.045473   |   0.7 |  6.82
Comm    | 0.192      | 0.2242     | 0.2502     |   3.0 | 36.40
Output  | 5.2632e-05 | 5.3835e-05 | 6.9645e-05 |   0.0 |  0.01
Modify  | 0.041027   | 0.044612   | 0.048135   |   1.0 |  7.24
Other   |            | 0.004798   |            |       |  0.78

Nlocal:        83.3333 ave          93 max          75 min
Histogram: 1 6 5 8 3 12 6 3 1 3
Nghost:        1996.29 ave        2013 max        1970 min
Histogram: 3 2 1 3 3 4 16 6 5 5
Neighs:        12766.1 ave       14992 max       11230 min
Histogram: 5 3 8 9 8 6 4 3 1 1

Total # of neighbors = 612773
Ave neighs/atom = 153.19325
Neighbor list builds = 143
Dangerous builds = 15

#############################
# L I N E A R  Q U E N C H  #
#############################

# Define solid atoms. This closely follows ten Wolde  Ruiz-Montero and Frenkel  Faraday Discuss  1996  104  93-110
# Compute components of the per-atom q6 vector
compute q6 all orientorder/atom degrees 1 6 components 6 nnn NULL cutoff 1.3 # compute the Q6 parameter.
                                                                             # Use all neighbours within 1.3 unit cell.

# get number of connections
compute coord_number all coord/atom orientorder q6 0.5

# An atom is solid if it has 8 or more connections (of a possible 14)
variable is_solid atom c_coord_number>=8
group solid dynamic all var is_solid    # Must be dynamic to update
dynamic group solid defined

# do clustering
compute cluster solid cluster/atom 1.3 # Create a cluster where all atoms within are solid and max 1.3 units from another member

# define chunks one chunk per cluster
compute clus_chunks solid chunk/atom c_cluster nchunk every compress yes  # Says which atoms are in which chunk

# count the size of each chunk
compute size_chunks solid property/chunk clus_chunks count


# Find the maximum entry in the vector of chunk sizes
variable max_n equal max(c_size_chunks)


# Thermo style which includes this variable
# thermo_style custom step temp pe vol v_max_n

thermo ${N}  # Print the thermo information every 100 steps
thermo 1000  

# Reset the npt fix at a lower temperature (below freezing)
fix 1  all npt temp  ${temp} ${temp}  0.1  iso  5.68  5.68  0.5  mtk yes tchain  5  pchain  5
fix 1  all npt temp  0.45 ${temp}  0.1  iso  5.68  5.68  0.5  mtk yes tchain  5  pchain  5
fix 1  all npt temp  0.45 0.45  0.1  iso  5.68  5.68  0.5  mtk yes tchain  5  pchain  5

dump dmp2 all dcd ${N} traj.dcd
dump dmp2 all dcd 1000 traj.dcd


compute msd all msd com yes
variable twopoint equal c_msd[4]/6/(step*dt+1.0e-6)
fix 9 all vector 10 c_msd[4]
variable fit equal slope(f_9)/6/(10*dt)
thermo_style custom step temp pe c_msd[4] v_twopoint v_fit v_max_n

fix 1 all npt temp 1.25 ${temp} 0.1 iso 5.68 5.68 0.5 mtk yes tchain 5 pchain 5
fix 1 all npt temp 1.25 0.45 0.1 iso 5.68 5.68 0.5 mtk yes tchain 5 pchain 5
run 5000000 # 5000000  # Run for this many steps
Neighbor list info ...
  update every 1 steps, delay 10 steps, check yes
  max neighbors/atom: 2000, page size: 100000
  master list distance cutoff = 3.8
  ghost atom cutoff = 3.8
  binsize = 1.9, bins = 8 8 8
  4 neighbor lists, perpetual/occasional/extra = 1 3 0
  (1) pair lj/cut, perpetual
      attributes: half, newton on
      pair build: half/bin/atomonly/newton
      stencil: half/bin/3d
      bin: standard
  (2) compute orientorder/atom, occasional
      attributes: full, newton on
      pair build: full/bin/atomonly
      stencil: full/bin/3d
      bin: standard
  (3) compute coord/atom, occasional
      attributes: full, newton on
      pair build: full/bin/atomonly
      stencil: full/bin/3d
      bin: standard
  (4) compute cluster/atom, occasional
      attributes: full, newton on
      pair build: full/bin/atomonly
      stencil: full/bin/3d
      bin: standard
Per MPI rank memory allocation (min/avg/max) = 9.829 | 9.836 | 9.841 Mbytes
Step Temp PotEng c_msd[4] v_twopoint v_fit v_max_n 
   12000    1.2619129   -7.1261354 7.667728e-31 5.3248109e-33 8.3333333e+20            1 
   13000    1.2757755   -7.1135486   0.45607173 0.0029235366  0.037381827            1 
   14000    1.2483541   -7.1476957   0.90355795  0.005378321  0.036750321            2 
   15000    1.2604948   -7.1484906    1.3216011 0.0073422279  0.036316553            1 
   16000    1.2486076   -7.1543335    1.6922088 0.0088135873  0.035190383            1 
   17000    1.2663244   -7.1245469    2.0715087  0.010154454  0.033978028       -1e+20 
   18000    1.2654664   -7.1115055    2.4758562  0.011462297  0.033269696            2 
   19000    1.2421098   -7.1170877    2.9637007  0.012998687  0.033671027            1 
   20000    1.2445566   -7.1114043     3.362812  0.014011716  0.034049546            3 
   21000    1.2492006   -7.1364321    3.7774698  0.014989959  0.034390558            2 
   22000    1.2307967   -7.1047702    4.1911875   0.01587571   0.03441375            1 
   23000    1.2669674   -7.1048587    4.6699731  0.016920192  0.034612568            3 
   24000    1.2411642   -7.1180199    5.0481276   0.01752822  0.034828096            3 
   25000    1.2645974   -7.1239412    5.3997699  0.017999233  0.034705876            1 
   26000    1.2644441   -7.0651121    5.9010135  0.018913504  0.034712927            2 
   27000    1.2631809   -7.1424409    6.3008589  0.019447095   0.03474781            1 
   28000    1.2398324   -7.1935013    6.6678495   0.01984479  0.034718841            2 
   29000    1.2243643   -7.1890686    7.0526847  0.020266335  0.034681912            2 
   30000    1.2602868   -7.1296188     7.443515   0.02067643  0.034548691            2 
   31000    1.2354049   -7.1438449     7.839339  0.021073492  0.034444472            1 
   32000    1.2513741   -7.1024926    8.2621059    0.0215159  0.034355347            1 
   33000     1.239611   -7.1558615    8.6298198  0.021792474  0.034343836            1 
   34000    1.2251939   -7.1161616    9.0807036  0.022256626  0.034297602            1 
   35000    1.2454495   -7.1361002    9.4970097  0.022611928  0.034288853            1 
   36000    1.2502743   -7.1535893    9.7822239  0.022644037  0.034205149            2 
   37000    1.2261821   -7.0722382    10.228943   0.02303816  0.034113564            4 
   38000    1.2923173   -7.1496359    10.527879  0.023087454  0.033997624            5 
   39000    1.2422878   -7.1599296    10.889732  0.023268658  0.033879968            3 
   40000    1.2326619   -7.1926115    11.299463  0.023540548  0.033812487            1 
   41000    1.2355889   -7.1733188    11.609318  0.023596174  0.033684536            2 
   42000    1.2587581   -7.0937958    12.123415  0.024054394  0.033594226            3 
   43000    1.2432074   -7.1931306    12.534279  0.024291239  0.033557656            1 
   44000    1.2572853   -7.1461677    12.936148   0.02450028  0.033526403            1 
   45000    1.2218687   -7.1288562      13.4136  0.024839999  0.033505591            2 
   46000    1.2636805   -7.0972178    13.722472  0.024859551  0.033478872            2 
   47000    1.2341295   -7.1819601    14.172537  0.025128612  0.033466258            1 
   48000    1.2652659    -7.171101    14.554037  0.025267424  0.033460514            2 
   49000     1.250057   -7.1734044     15.01565   0.02553682   0.03346706            1 
   50000    1.2438848   -7.1437386    15.464972  0.025774952  0.033488876            2 
   51000    1.2462314   -7.1570289    15.746522  0.025729611  0.033486777            1 
   52000    1.2156367   -7.1082809    16.166243   0.02590744  0.033452403            2 
   53000    1.1998364   -7.1677434    16.754559  0.026343646  0.033458289            2 
   54000    1.2346782   -7.1223469    17.054015  0.026317925  0.033479261            2 
   55000    1.2416215   -7.1579793    17.505548  0.026523558  0.033490864            1 
   56000    1.2249529   -7.1219798    17.845941  0.026556459  0.033491606            1 
   57000    1.2373902   -7.1630438    18.082263  0.026436057  0.033480896            3 
   58000    1.2405689   -7.1773277     18.50043  0.026581078  0.033454568            1 
   59000    1.2150667   -7.1429374    19.003827  0.026841564  0.033445985            2 
   60000    1.2631915   -7.1772324    19.327964  0.026844395  0.033435428            2 
   61000    1.2665463   -7.1496482    19.656035  0.026852506  0.033403407            2 
   62000    1.1898168    -7.126267    19.980307  0.026855251  0.033366807            2 
   63000    1.2238727   -7.1554004    20.236889  0.026768372  0.033319746            1 
   64000    1.2438308   -7.1685407    20.647967  0.026885374  0.033264099            1 
   65000    1.2485307   -7.1441308    20.962239  0.026874665  0.033194041            1 
   66000    1.2289896    -7.105393    21.552982  0.027213361   0.03314638            1 
   67000    1.2311729   -7.1596205    21.870889  0.027202598  0.033119732            1 
   68000    1.2414108   -7.1546373    22.347651  0.027386827  0.033090236            2 
   69000    1.2299686   -7.2120857    22.721079  0.027440917   0.03307094            2 
   70000    1.2545703    -7.144402    23.221151  0.027644228  0.033056771            2 
   71000     1.255265   -7.1336615    23.580146  0.027676227  0.033050084            2 
   72000    1.2458933   -7.1388085    23.943052  0.027711865  0.033040948            3 
   73000    1.2503685   -7.1743539    24.219066  0.027647336   0.03303426            1 
   74000    1.2354575   -7.1219917    24.686005  0.027799555   0.03300974            1 
   75000    1.2335746   -7.1343375    25.205085   0.02800565  0.032997283            2 
   76000    1.2293743   -7.1534636    25.642129   0.02811637  0.032993187            2 
   77000     1.245621   -7.1192419    26.131668  0.028281025  0.033002473            2 
   78000    1.2623475   -7.2049367    26.449534  0.028258049  0.033010215            2 
   79000    1.2184911   -7.1646924    27.013664  0.028495426  0.033026646            1 
   80000    1.2232971    -7.152746    27.363168    0.0285033  0.033049868            2 
   81000    1.2442551    -7.197272    27.785652  0.028586062  0.033058961            2 
   82000    1.2109795   -7.1758752    28.163127  0.028621064  0.033070964            1 
   83000    1.2503553   -7.2026766    28.373743  0.028487693   0.03307641            2 
   84000    1.2403175    -7.160472    28.809508  0.028580861  0.033075763            5 
   85000    1.2506074   -7.1400947    29.273204   0.02869922  0.033078595            1 
   86000    1.2318186   -7.1277188    29.844446  0.028919037  0.033094424            2 
   87000    1.2381135   -7.2007985    30.262762   0.02898732  0.033122378            2 
   88000    1.2533616   -7.1638653    30.780736  0.029148424  0.033145263            2 
   89000    1.2499656   -7.1869036    31.171098  0.029186421  0.033169335            1 
   90000    1.2482209   -7.1183971     31.68425  0.029337268  0.033199891            3 
   91000    1.2317817    -7.152057    32.202355  0.029489336  0.033240675            3 
   92000    1.2673468   -7.1967508    32.546125  0.029480186  0.033281869            1 
   93000    1.2102301   -7.1348187    33.171772   0.02972381  0.033323837            1 
   94000    1.2394818   -7.1689248    33.534491  0.029729159   0.03336542            1 
   95000    1.2735348   -7.1149487    33.925025  0.029758794  0.033406268            1 
   96000    1.2303227   -7.1619181    34.274494  0.029752164   0.03343979            3 
   97000     1.217484   -7.1599429    34.809314  0.029904909  0.033475172            1 
   98000    1.2559034   -7.1697816    35.161283   0.02989905  0.033509508            1 
   99000    1.2412651   -7.1298069    35.533161  0.029910068  0.033538164            1 
  100000    1.2496876   -7.1796508    35.789694  0.029824745  0.033560339            1 
  101000    1.2148143   -7.1252823    36.222943  0.029886916  0.033577733            1 
  102000    1.2336426   -7.1361873    36.670953  0.029959929  0.033596878            1 
  103000    1.2761388   -7.1790148    37.194737  0.030092829  0.033615966            2 
  104000    1.2384711   -7.1172467    37.506456   0.03005325  0.033641569            1 
  105000    1.2447883   -7.1812322    37.707952  0.029926946  0.033660313            1 
  106000    1.2279688    -7.216434    37.998306  0.029872882  0.033661089            1 
  107000    1.2399324    -7.189133    38.258094  0.029796023   0.03365891            1 
  108000    1.2584333   -7.1846331     38.80321  0.029940749  0.033657859            1 
  109000    1.2343011   -7.1736457    39.200485   0.02996979  0.033651783            3 
  110000    1.2415983   -7.1752096    39.691531  0.030069341   0.03364873            1 
  111000     1.232464   -7.2351679    40.055599  0.030071771  0.033650641            4 
  112000    1.2165798   -7.1404866    40.644941  0.030241771  0.033656794            2 
  113000    1.2621383   -7.1937081    41.038945  0.030264709  0.033667406            1 
  114000    1.2215734   -7.2053637    41.309159  0.030196753  0.033677167            2 
  115000    1.2018876   -7.1869172    41.686667  0.030207729  0.033682988            1 
  116000    1.2440035   -7.1905719     42.09034  0.030237313  0.033683281            1 
  117000    1.2273757   -7.1440267    42.509741  0.030277593  0.033685284            3 
  118000    1.2133508   -7.1854639    42.826956  0.030245025  0.033682426            2 
  119000    1.2548032   -7.1374586    43.468239  0.030439943  0.033684962            3 
  120000    1.2476552   -7.1468637     43.77326  0.030398097  0.033691322            2 
  121000    1.2421395   -7.1595197    44.398703  0.030577619  0.033694697            2 
  122000    1.2494332   -7.1866642    44.522603  0.030411614   0.03369977            2 
  123000    1.2525361   -7.1821203    44.987558  0.030479375  0.033695546            2 
  124000     1.218816   -7.1565069    45.439008  0.030536968  0.033696166            1 
  125000    1.2248162   -7.1838766    45.767392  0.030511594  0.033699602            1 
  126000     1.237796   -7.2105291    46.198748  0.030554727  0.033705881            3 
  127000    1.2675902   -7.1652999    46.979072  0.030826163  0.033715132            1 
  128000     1.259011   -7.1422931    47.150824  0.030697151  0.033722357            1 
  129000    1.2465901   -7.1385622    47.539202  0.030710078  0.033726485            4 
  130000    1.2216651   -7.2084709    48.056567  0.030805491  0.033735463            2 
  131000    1.2170477   -7.1515872    48.720533  0.030992705  0.033747255            1 
  132000    1.2103491   -7.1696862    49.144332  0.031025462  0.033763537            2 
  133000    1.2384521   -7.1481017    49.474614  0.030999132  0.033780647            1 
  134000    1.2390108    -7.196798    49.936182  0.031054839   0.03379506            2 
  135000    1.2442593    -7.178835    50.232239  0.031007555  0.033808576            3 
  136000    1.2162313   -7.1970405     50.75729   0.03110128  0.033824437            1 
  137000    1.2240045   -7.2092474    51.275775  0.031189644  0.033842371            2 
  138000    1.2131719   -7.1596092      51.7256  0.031235266  0.033859546            3 
  139000    1.2083355    -7.194769    52.060871  0.031211553  0.033875727            5 
  140000    1.2107686   -7.1984462    52.362186  0.031167968  0.033890709            2 
  141000    1.2307584   -7.1468278    52.858235  0.031240092  0.033903489            2 
  142000    1.2531776   -7.1421694    53.173706  0.031205227  0.033916741            2 
  143000    1.2349792   -7.2136709    53.303259  0.031062505  0.033926472            2 
  144000    1.2377567   -7.1522452    54.160919  0.031343124  0.033937619            1 
  145000    1.2349063   -7.1704685    54.342646  0.031231405   0.03394424            1 
  146000    1.2248393   -7.1837382    54.582665  0.031154489   0.03394592            1 
  147000    1.2356015   -7.1745403    55.112225  0.031242758  0.033950363            2 
  148000    1.2483796    -7.177956    55.372163  0.031178019   0.03395343            2 
  149000    1.2378423   -7.1918135    55.708366  0.031156804  0.033956212            3 
  150000    1.2484992   -7.1435658    56.003034  0.031112797  0.033957107            1 
  151000    1.2650531   -7.1261178    56.350005  0.031098236  0.033949687            2 
  152000    1.2443942    -7.233616    56.350089  0.030893689    0.0339391            1 
  153000    1.2193427   -7.1762857    56.891509  0.030986661  0.033926084            1 
  154000    1.2032572   -7.2368785    57.061729  0.030877559  0.033913397            1 
  155000    1.2331175    -7.149887    57.657969  0.030998908  0.033897306            2 
  156000     1.227429   -7.1506493    57.954089  0.030958381  0.033883797            1 
  157000    1.2372728   -7.1765898    58.283498  0.030936039  0.033872315            1 
  158000    1.2198988   -7.2193989    58.447081   0.03082652  0.033855708            2 
  159000    1.2008326   -7.2298166    59.090026  0.030969615  0.033840354            1 
  160000    1.2292848   -7.1630548    59.554643  0.031018043  0.033829173            2 
  161000    1.2211214   -7.1611312    59.958861  0.031034607  0.033819383            2 
  162000    1.2179264   -7.1590851    60.147302   0.03093997  0.033804871            2 
  163000     1.207055   -7.1973397    60.194174  0.030774118  0.033787567            1 
  164000     1.245628   -7.1923917    60.379252  0.030680514  0.033767778            3 
  165000    1.2534484   -7.2001326     60.71969   0.03066651  0.033742448            1 
  166000    1.2129891   -7.1952772    61.010148  0.030627584  0.033714968            2 
  167000    1.2141374   -7.1627281    61.210388  0.030544106  0.033687623            1 
  168000    1.2202933   -7.1286913    62.179129  0.030842822  0.033661968            1 
  169000    1.2075118   -7.2056371    62.026456  0.030585038  0.033635967            2 
  170000    1.2330669   -7.2299814    62.486585  0.030630679  0.033610809            2 
  171000    1.2391173   -7.1894802    63.006029  0.030704693  0.033584571            2 
  172000    1.2241809   -7.1937598    63.247611  0.030643222  0.033561479            2 
  173000    1.2343342   -7.1605135    63.736462  0.030701571  0.033535785            2 
  174000    1.2227656    -7.200944    63.604116  0.030461741  0.033506291            2 
  175000    1.2067993     -7.15445    63.869547   0.03041407  0.033474052            1 
  176000    1.2480636   -7.1931003    64.253223  0.030422928  0.033444323            2 
  177000    1.2196061   -7.1790206    64.617905  0.030422743  0.033413966            3 
  178000    1.2306132   -7.2121927    65.412039  0.030623614  0.033387438            4 
  179000    1.2364496    -7.227459    65.641539  0.030559376  0.033362372            3 
  180000    1.2201868   -7.1715549     66.35792  0.030721259  0.033338052            1 
  181000    1.2414331   -7.1491229    66.574331  0.030651165  0.033315045            1 
  182000    1.2331087   -7.1368417     66.72539  0.030551918   0.03328829            2 
  183000     1.220602    -7.160044    67.093016  0.030552375  0.033260853            1 
  184000    1.2166914   -7.2112076     67.23397  0.030450168  0.033232783            2 
  185000    1.2299426   -7.1834874    67.657093  0.030476168  0.033204491            1 
  186000    1.2560194   -7.2143866     67.91998  0.030430099  0.033177759            2 
  187000    1.2459881    -7.231645     68.64341  0.030589755   0.03315013            2 
  188000     1.234022   -7.1880601    69.066344  0.030614514  0.033125957            1 
  189000    1.2510991   -7.1501689    69.392037  0.030596136   0.03310233            1 
  190000    1.2415952   -7.2349046    69.501057   0.03048292  0.033077823            2 
  191000    1.2295553   -7.1746704    70.147859  0.030605523  0.033053795            2 
  192000    1.2013833     -7.19361    70.089873  0.030420952  0.033031535            2 
  193000    1.2204346   -7.2197199    70.443291  0.030415929  0.033006699            2 
  194000    1.2315447   -7.2190692    70.870949  0.030442847  0.032981161            1 
  195000    1.2231846   -7.1891873    71.088048  0.030379508  0.032954746            5 
  196000    1.2134835   -7.2052444    71.494906  0.030397494  0.032928802            4 
  197000    1.1903392   -7.2134941    71.856012  0.030395944  0.032902162            2 
  198000     1.229949   -7.2032843    72.137682  0.030360977  0.032873561            2 
  199000    1.2458556   -7.2266088    72.288065  0.030271384  0.032845996            2 
  200000      1.20235   -7.2150405    73.013124  0.030422135  0.032821962            1 
  201000    1.2265636   -7.1786821     73.64565  0.030533022   0.03280279            2 
  202000    1.2161721   -7.1684008    74.466319  0.030720429  0.032785552            2 
  203000    1.2446015   -7.2135412    74.799641  0.030705928   0.03277057            1 
  204000    1.2285807   -7.1592789     75.40554  0.030802917  0.032754968            3 
  205000    1.2406777   -7.2290128    75.141154  0.030545185  0.032737383            2 
  206000     1.196509   -7.1724737    75.334574  0.030475151  0.032718793            1 
  207000     1.193774     -7.18535    75.390909  0.030350608   0.03269763            2 
  208000     1.204901   -7.1870419    76.108232   0.03049208  0.032676426            2 
  209000    1.2105854    -7.192945    76.398854  0.030462063  0.032655717            1 
  210000    1.2354451   -7.1789793    76.691832  0.030433267  0.032636198            3 
  211000     1.211756   -7.2343095    76.894052  0.030368899  0.032616266            1 
  212000    1.2117438   -7.2383099    77.474319  0.030453742   0.03259789            2 
  213000    1.2237824   -7.1998246    77.950755  0.030497165  0.032579586            1 
  214000    1.2197222   -7.2024136    78.252368  0.030472106  0.032562612            1 
  215000    1.2312516   -7.2025955    79.104153  0.030660524  0.032548024            1 
  216000    1.2234654   -7.1954244    79.776286  0.030777888  0.032535471            1 
  217000    1.2099325   -7.1862316    79.896688  0.030682292  0.032525364            2 
  218000    1.2132897   -7.1925111    80.278631   0.03068755  0.032514025            3 
  219000    1.2144236   -7.1888665    80.675766  0.030698541  0.032501568            1 
  220000     1.205197   -7.1977586    80.850416  0.030625157  0.032489775            2 
  221000    1.2015526     -7.21206    81.267787  0.030643962  0.032477615            3 
  222000    1.1686112   -7.2264971    81.399183  0.030555249  0.032462984            1 
  223000    1.2045771   -7.2331948    81.739677   0.03054547  0.032447882            1 
  224000    1.1980053   -7.1878169    82.241751  0.030595889  0.032432404            3 
  225000    1.2109092    -7.208798     82.65339  0.030612367  0.032419082            1 
  226000    1.2274631   -7.1641092    83.218028  0.030685114  0.032407773            5 
  227000    1.1900899   -7.2251216    83.170554  0.030532509  0.032394355            3 
  228000    1.2093225   -7.1771186    83.776568  0.030620091   0.03238013            1 
  229000    1.2143876   -7.2089709    83.762633  0.030481308   0.03236579            2 
  230000    1.1939772   -7.2326052    84.197027  0.030506169  0.032349705            2 
  231000    1.2223251   -7.1750264    84.532369  0.030495083  0.032333053            2 
  232000    1.2321343    -7.181022     84.92473  0.030504572  0.032317171            1 
  233000    1.1981506   -7.1842365    85.383429  0.030537707  0.032302716            1 
  234000    1.2060562   -7.1644561    85.590116   0.03048081  0.032289324            8 
  235000    1.2223122   -7.2151867    85.481955   0.03031275  0.032272382            2 
  236000    1.2163939   -7.2004024    85.907284  0.030334493   0.03225333            1 
  237000    1.2161512   -7.2564416     86.40398  0.030381146   0.03223619            3 
  238000    1.1967101   -7.2283894    86.252888  0.030200591  0.032216849            2 
  239000     1.248034   -7.2629958    86.792479   0.03026237  0.032197469            1 
  240000    1.1983952   -7.2334958    87.176499  0.030269618  0.032178217            2 
  241000    1.2109365   -7.2021575    87.956817  0.030413837  0.032161609            2 
  242000    1.2121907   -7.2527827    88.341581  0.030420654   0.03214557            5 
  243000    1.2426995   -7.1859448     89.16946  0.030579376  0.032131638            2 
  244000     1.206083   -7.1949066    89.364621  0.030520704   0.03211941            2 
  245000    1.2149095   -7.2500201    89.662923  0.030497593  0.032106338            3 
  246000     1.206622   -7.2181877    89.932735  0.030465018  0.032093552            1 
  247000    1.2319186   -7.2331706    90.216826  0.030437525  0.032079449            3 
  248000    1.2011315   -7.2218496    90.634764   0.03045523  0.032066825            2 
  249000    1.2451943   -7.1819315    91.004038  0.030456505   0.03205482            1 
  250000    1.2219822   -7.2141959    91.332203  0.030444067  0.032041821            1 
  251000    1.2493262    -7.202718    91.938313  0.030524008   0.03202895            1 
  252000    1.2208317    -7.262077    91.961338  0.030410495  0.032016432            4 
  253000    1.2094698    -7.194496    92.374171  0.030426275  0.032003822            2 
  254000    1.2140214   -7.2225718    92.300033  0.030282163  0.031988874            3 
  255000    1.2007714    -7.165522    93.404484  0.030524341   0.03197441            2 
  256000    1.2120261   -7.2214009    93.291245  0.030368244  0.031960032            2 
  257000    1.2201573   -7.2264751    93.621483  0.030357161  0.031945202            1 
  258000    1.2198976    -7.217612    93.878325  0.030322456  0.031929016            2 
  259000    1.2402326   -7.2578674     94.09886  0.030276338  0.031914316            1 
  260000    1.2344691   -7.2392163    94.550994  0.030304806  0.031900343            2 
  261000    1.2002292    -7.189027     95.34637  0.030442647  0.031887052            1 
  262000    1.2233836   -7.2331214    95.900275  0.030502632  0.031874335            1 
  263000    1.2389983   -7.2277777     96.02117  0.030424959  0.031863066            2 
  264000    1.2362605   -7.2315865     96.31356  0.030402007   0.03185103            3 
  265000    1.1983319   -7.2117034    96.400451  0.030314607  0.031838259            2 
  266000    1.2174757   -7.2575514    96.687375  0.030290531  0.031823982            1 
  267000    1.2055099   -7.2472721    97.193779  0.030335137  0.031809063            2 
  268000    1.2146641   -7.1915311    97.694597  0.030377673   0.03179613            2 
  269000    1.2057381   -7.2320389    97.631296  0.030245135  0.031783299            3 
  270000    1.2279579   -7.2436843    98.250134  0.030324115  0.031770161            2 
  271000    1.1923394    -7.185082     99.29276  0.030532829  0.031759093            2 
  272000    1.1950169   -7.2556978    99.471884  0.030475455  0.031748934            3 
  273000    1.2036511   -7.2211919    99.816964  0.030469159  0.031739785            1 
  274000    1.1935618   -7.2173894    100.45588  0.030552276  0.031731175            2 
  275000    1.1958815   -7.2570727    100.59829   0.03048433  0.031722959            3 
  276000    1.2333963   -7.2305411    100.82995  0.030443827  0.031713183            1 
  277000    1.2224859     -7.22327    101.51502  0.030540019  0.031704218            2 
  278000    1.2181966   -7.2361867    101.66831  0.030476112   0.03169608            2 
  279000    1.2273902    -7.220633    102.32571  0.030563236  0.031687558            2 
  280000     1.196064   -7.2379548    102.41264  0.030479953  0.031679693            3 
  281000    1.1900781   -7.2066734    102.55206   0.03041283  0.031671094            1 
  282000    1.2221564   -7.2256402    103.25149  0.030511669  0.031663677            2 
  283000    1.2072928   -7.2615871    103.51193  0.030480543  0.031656336            1 
  284000     1.227647   -7.2441026    103.72879  0.030436851  0.031647736            2 
  285000    1.2330924   -7.2326137    104.32395  0.030504077  0.031640302            4 
  286000    1.2212234   -7.2465588    104.76798  0.030526802  0.031632933            3 
  287000    1.2115461   -7.2135243    104.89211  0.030456477  0.031625393            2 
  288000    1.2164961    -7.236265    104.95486  0.030368883  0.031616189            1 
  289000    1.2115742   -7.2641799    105.34299  0.030375718  0.031607379            4 
  290000    1.2141289   -7.2187286    105.87456  0.030423724  0.031598268            2 
  291000    1.2093881   -7.2193939    106.15241  0.030398741  0.031590218            1 
  292000    1.2206799   -7.2792498    106.36397  0.030355013  0.031582115            1 
  293000    1.1750292    -7.207295    106.85079  0.030389871  0.031574791            3 
  294000    1.2146014   -7.2296183    107.26064  0.030402677  0.031566966            2 
  295000    1.2076037   -7.2455765    107.40813  0.030341281  0.031557872            1 
  296000    1.1934924   -7.2486376     108.2576  0.030477927  0.031549637            2 
  297000    1.2147501   -7.2065766    108.47215  0.030435508  0.031541548            1 
  298000    1.1943447   -7.2305905    108.80509   0.03042648  0.031533077            2 
  299000    1.2043644   -7.2418308    109.16286  0.030424432   0.03152553            1 
  300000    1.2280012   -7.2666204    109.92753  0.030535425  0.031518758            1 
  301000     1.180068   -7.2338946    110.04772  0.030467253  0.031512665            3 
  302000    1.2181343   -7.2422592    110.09779  0.030380185  0.031505563            1 
  303000    1.1906393   -7.2591059    110.64532  0.030430505  0.031498471            2 
  304000    1.1896168   -7.2221448    111.05454  0.030442582  0.031491987            1 
  305000    1.2036431   -7.2313316    111.25845  0.030398483  0.031484324            2 
  306000    1.2127089   -7.2399788    111.54147  0.030376218  0.031477448            1 
  307000    1.2075585   -7.2546378    112.32782  0.030490721  0.031471792            2 
  308000    1.1836431   -7.2438269    112.92427  0.030553102  0.031464372            1 
  309000    1.1991866   -7.2587632    112.87982  0.030442238  0.031458551            4 
  310000    1.1885531   -7.2114984     113.4174  0.030488547  0.031452499            1 
  311000    1.2161071   -7.2508459    113.62619  0.030446459  0.031444851            3 
  312000    1.2010162   -7.2156778    114.20058  0.030502293  0.031439028            1 
  313000    1.2258686   -7.2257465     114.2508  0.030418211  0.031433086            1 
  314000    1.2257784   -7.1980142    115.00611  0.030521791  0.031427795            3 
  315000    1.2040519   -7.2548872    114.92916  0.030404539  0.031422297            1 
  316000    1.1922374   -7.2864202    115.19487  0.030378394  0.031415838            2 
  317000    1.2180079   -7.2217523    115.95838  0.030483274  0.031409445            2 
  318000    1.2219745   -7.2309655     116.3811  0.030498192   0.03140334            4 
  319000    1.2052779   -7.2579846    116.64138  0.030470579  0.031398352            1 
  320000    1.2024073   -7.2723403    116.80123  0.030416986  0.031393765            4 
  321000    1.2091638   -7.2372575    117.06678  0.030391168  0.031388304            2 
  322000    1.2037859   -7.2771461    117.27669  0.030351109  0.031381679            3 
  323000    1.2090503   -7.2460949    117.79977  0.030392097    0.0313749            2 
  324000     1.212422   -7.3014215    117.78247  0.030293846  0.031367697            1 
  325000    1.1965035   -7.3287623    118.17972  0.030302491  0.031360906            1 
  326000    1.2014849   -7.2575898    118.65848  0.030331922  0.031354606            1 
  327000    1.2087147   -7.2509488    119.32566  0.030409189  0.031348516            2 
  328000    1.2139161   -7.2571627    119.77764   0.03043131  0.031341996            2 
  329000    1.2393305   -7.2452542    119.84976  0.030357083  0.031335801            3 
  330000     1.183512   -7.2557872    120.34014  0.030388925  0.031329673            2 
  331000    1.1780738   -7.2584423    120.64219   0.03037316  0.031323209            1 
  332000    1.2226626   -7.2706977    121.57064   0.03051472  0.031318091            4 
  333000    1.1766557   -7.2682636    121.80025  0.030480544  0.031312703            1 
  334000    1.1994789   -7.2254413    121.68514  0.030360563  0.031307444            3 
  335000    1.1825102   -7.2116228    122.62817  0.030504519  0.031302038            2 
  336000    1.1778329   -7.2515947    122.64472  0.030417838  0.031295831            1 
  337000    1.1656404   -7.2383273    122.97244  0.030408616   0.03128999            2 
  338000    1.2004985   -7.2573976    122.96303  0.030316329  0.031282929            1 
  339000    1.1913495   -7.2635668    123.44568  0.030345546  0.031276448            2 
  340000    1.1923233   -7.2721655    123.52653  0.030276111  0.031269188            2 
  341000    1.1854474   -7.2827863    123.65513  0.030218751   0.03126114            2 
  342000    1.1755355   -7.2401386    124.76336  0.030400428  0.031253883            2 
  343000     1.202718   -7.2493057    125.31627  0.030446128  0.031248805            1 
  344000    1.1883272    -7.293088    125.66197  0.030441369  0.031244086            1 
  345000    1.2187406   -7.2917915    126.03944   0.03044431  0.031240016            1 
  346000    1.1919962     -7.27464    126.83598  0.030548164  0.031236822            1 
  347000    1.2224816   -7.2342657    127.39356  0.030594035   0.03123404            1 
  348000    1.2024364   -7.2581691    127.45122  0.030519927  0.031232038            1 
  349000    1.1936813   -7.2993983    127.55628  0.030457564  0.031228136            1 
  350000    1.1962162   -7.2461677     128.1197  0.030504691  0.031224414            2 
  351000    1.1869186    -7.205573    128.70072  0.030555726  0.031220115            2 
  352000    1.1963075     -7.27119    128.45375  0.030410452  0.031216103            1 
  353000    1.1873045   -7.2511538    129.14722  0.030488012  0.031211927            1 
  354000    1.1892378   -7.2772415    129.19051  0.030412078   0.03120704            1 
  355000    1.1990229   -7.2345292    129.03768  0.030290534   0.03120126            1 
  356000    1.1869819   -7.2836696    129.41957  0.030294843    0.0311966            3 
  357000    1.2007887   -7.2503086    129.94371  0.030332332  0.031190689            1 
  358000      1.18116   -7.2793589    130.36842  0.030346467  0.031185219            2 
  359000    1.2012567   -7.2707593     130.8208  0.030366944  0.031180093            1 
  360000    1.1971221   -7.2583733    131.27509  0.030387751  0.031174735            1 
  361000    1.1650761   -7.2624054    131.41879  0.030336747   0.03116915            1 
  362000    1.1831115   -7.2455123    132.12752  0.030416095  0.031163602            1 
  363000    1.1965081   -7.2607505    132.02174   0.03030802  0.031157689            1 
  364000     1.206522   -7.2761177    132.27221    0.0302821  0.031150764            2 
  365000    1.1861548   -7.2736429    132.12892  0.030166421  0.031144026            1 
  366000    1.1850741   -7.2995729    131.90899  0.030033923  0.031136453            2 
  367000    1.2102515   -7.2660778    132.93233  0.030184453  0.031129199            3 
  368000    1.2039993   -7.3025779    133.33616  0.030193877   0.03112137            1 
  369000    1.1873042   -7.2843737    133.43573  0.030134536  0.031113273            1 
  370000    1.2196134   -7.2700013    133.86864  0.030150594  0.031105638            2 
  371000    1.1971181   -7.2705402    134.12602  0.030127139  0.031097041            1 
  372000    1.2101228   -7.2555058    134.63182  0.030159459  0.031088505            1 
  373000    1.1886645   -7.2701022     134.6695  0.030087019  0.031080094            1 
  374000     1.201547   -7.3080627    135.17233  0.030118611  0.031072208            1 
  375000    1.1880998   -7.3190839    135.24393  0.030054206  0.031063772            1 
  376000    1.2108882   -7.2262544    135.77363  0.030091672  0.031055204            1 
  377000     1.188291   -7.2602345     136.0253  0.030067485  0.031046932            3 
  378000     1.214849   -7.2678483    136.49224  0.030090882  0.031037418            1 
  379000    1.1569027   -7.3051657     135.9812  0.029899121  0.031028673            1 
  380000    1.1981414    -7.255547     137.2424  0.030097018  0.031019333            2 
  381000    1.1707951   -7.2506435     137.5632  0.030088188  0.031010152            1 
  382000    1.1628009   -7.2693481    137.45744  0.029986353  0.031000994            1 
  383000    1.1903842   -7.2369441    138.19437    0.0300684   0.03099185            1 
  384000    1.1794369   -7.2482109    138.62828  0.030084262   0.03098312            1 
  385000    1.1777969   -7.2282338    139.15089  0.030119241  0.030975301            1 
  386000    1.2175996   -7.2088627    139.54091  0.030125412   0.03096697            1 
  387000    1.1936366   -7.2238322    139.23902  0.029982563  0.030958414            1 
  388000     1.203054   -7.2420915    140.23721  0.030119677   0.03094923            3 
  389000    1.2017994   -7.2646586    139.91591  0.029973418  0.030940847            2 
  390000    1.1833807    -7.299945    140.23435  0.029964604  0.030931375            3 
  391000     1.180779   -7.2639957    140.75596  0.029999139  0.030921937            2 
  392000    1.2034193     -7.26717    141.47275   0.03007499   0.03091223            2 
  393000    1.1845116   -7.2664914    140.96773  0.029891376  0.030902937            1 
  394000    1.1807151   -7.2886912    141.27351  0.029880185  0.030892856            2 
  395000    1.2217153   -7.2691613     141.6515  0.029884282  0.030883369            2 
  396000     1.202148   -7.2477616    141.59657  0.029797259  0.030872833            2 
  397000    1.2126358   -7.2792586     142.2586  0.029861166  0.030863214            1 
  398000    1.1900155   -7.3015811    142.29176  0.029793082  0.030852154            2 
  399000    1.1850146   -7.3107269    143.01141  0.029868716  0.030841812            2 
  400000    1.2031468   -7.3212069    143.05051  0.029802189  0.030832047            2 
  401000    1.1599146   -7.2912283    143.41699   0.02980403  0.030821448            2 
  402000    1.1977238   -7.2741356    143.91572  0.029833274  0.030810424            3 
  403000    1.1680653   -7.3446337     143.5248  0.029678413  0.030798979            2 
  404000    1.1998641   -7.2726731     144.4621  0.029798289  0.030787362            2 
  405000    1.1753315   -7.2694193     145.0856  0.029853003  0.030776094            2 
  406000    1.1668238   -7.2721796    145.26561  0.029816422  0.030765358            2 
  407000    1.1808681   -7.2576731    145.50228  0.029791622  0.030754677            3 
  408000    1.1815207   -7.2885824    146.37408  0.029896668  0.030743992            1 
  409000    1.1933372   -7.2693879    146.16676  0.029781328  0.030733398            1 
  410000    1.2065098   -7.2775861    146.74817  0.029826865  0.030723415            3 
  411000    1.1906324     -7.28278    146.72744  0.029750089  0.030713567            1 
  412000    1.2056737   -7.2457856    147.58858  0.029852059  0.030703657            1 
  413000      1.17304   -7.2727522    147.09902  0.029680997  0.030692952            1 
  414000    1.1775877   -7.2679792    147.48565  0.029687128  0.030681791            1 
  415000    1.2003196   -7.2942178    147.51638  0.029621762  0.030670336            1 
  416000    1.1937474   -7.2533051    147.93649  0.029634713  0.030658767            1 
  417000    1.1885009   -7.2740831    148.38349  0.029652976  0.030647941            3 
  418000    1.1943428   -7.3021012    148.27756  0.029560918  0.030636556            2 
  419000    1.1964894   -7.2659962     148.6778  0.029569969  0.030624164            2 
  420000    1.1882626   -7.3047336    148.93793  0.029551176  0.030612328            3 
  421000    1.1761593   -7.2623068    149.77616  0.029646903  0.030599846            1 
  422000    1.2057444   -7.2918474    150.07675  0.029636009  0.030588999            2 
  423000    1.1767469    -7.273795    149.83128  0.029517589  0.030577715            2 
  424000    1.1701581   -7.2854016    150.83655  0.029645548  0.030566451            2 
  425000    1.1747855   -7.3091902    150.34075  0.029478579  0.030554333            2 
  426000     1.192999   -7.3134605    151.21377  0.029580158   0.03054283            1 
  427000    1.1664626   -7.2786107    151.46068  0.029559071  0.030531654            1 
  428000    1.1797646   -7.3358079    151.70978  0.029538508   0.03052059            3 
  429000    1.1881746   -7.3348449    151.92596  0.029511648  0.030509721            1 
  430000    1.1939811   -7.2761316    152.84159  0.029620462  0.030498559            2 
  431000    1.1529798   -7.3000873    153.19574  0.029620213  0.030487966            1 
  432000    1.2101291   -7.3261509    152.71649    0.0294592   0.03047742            3 
  433000    1.1770616   -7.2965163    154.02917  0.029643798  0.030467018            2 
  434000    1.2054724   -7.2872011    154.32176  0.029631674  0.030457008            2 
  435000    1.1666766   -7.3312652    153.76495  0.029456887  0.030446428            3 
  436000    1.1899879   -7.3074266     153.5198  0.029342469  0.030435542            1 
  437000    1.1977702   -7.2827474    154.11854    0.0293895  0.030423895            2 
  438000    1.1907238   -7.2783659    154.88512  0.029468249  0.030412013            3 
  439000     1.204876   -7.3206632    154.96812  0.029416879  0.030400336            2 
  440000      1.17594   -7.2540698    155.55863  0.029461862  0.030388754            1 
  441000    1.1894468   -7.2836193     155.3296  0.029351777  0.030377085            3 
  442000    1.1786592   -7.3118402    155.57242  0.029331151  0.030364458            3 
  443000    1.1847957   -7.3169277    156.12187  0.029368297  0.030351785            2 
  444000    1.1681848   -7.2642484    156.65623  0.029402446  0.030339655            1 
  445000     1.198419   -7.3387056    156.46276  0.029300142  0.030327963            4 
  446000    1.2008732   -7.3576084    156.46412  0.029234701  0.030315703            4 
  447000    1.1689658   -7.3256254    157.39664  0.029343147  0.030303214            1 
  448000     1.196385   -7.2885487    157.94082  0.029378873  0.030291803            1 
  449000    1.1925731   -7.2965099    157.72989  0.029274293   0.03028035            2 
  450000    1.1882889   -7.3357717    158.43266  0.029339381   0.03026891            1 
  451000    1.1885132   -7.2851364    159.18642  0.029413603  0.030257841            2 
  452000    1.1723425   -7.3123291    159.74466  0.029451449  0.030247815            1 
  453000    1.1733729   -7.2625993    159.88206  0.029411711   0.03023772            1 
  454000    1.1797868    -7.314064    159.20604  0.029222841  0.030227105            2 
  455000    1.1921559   -7.2867723    160.59267  0.029412577  0.030215888            2 
  456000    1.1946878   -7.2912341    160.04027  0.029247126  0.030205202            5 
  457000    1.1872571   -7.2904067    160.37087  0.029243412  0.030193947            2 
  458000    1.1624638   -7.2766955     161.2212  0.029334279  0.030182126            1 
  459000    1.1971813   -7.3200492    161.22414  0.029270904  0.030170564            1 
  460000    1.1642243   -7.3339111    161.68544   0.02929084  0.030159824            4 
  461000    1.1801123   -7.2903954    162.32095  0.029342183  0.030149442            2 
  462000    1.1935024   -7.3339907    162.57943  0.029325293  0.030139215            2 
  463000    1.1973738    -7.303228    162.72754  0.029288614  0.030129087            2 
  464000    1.1474531   -7.3067423    163.52644  0.029368972  0.030119772            2 
  465000    1.1817346   -7.3139936    163.76312   0.02934823  0.030110431            1 
  466000    1.1849899   -7.3128034    163.92056  0.029313405  0.030100432            2 
  467000    1.1519669   -7.3386312    164.57269  0.029367004  0.030090745            3 
  468000    1.1977429   -7.2777637    164.64002  0.029316242  0.030080754            3 
  469000    1.1654248   -7.2781716    165.16965  0.029347842  0.030070702            1 
  470000    1.1845845   -7.2726973    165.47828  0.029340121  0.030061251            1 
  471000    1.1846372   -7.3194235    165.51549  0.029284411  0.030052157            1 
  472000     1.190525    -7.236942    166.38296  0.029375523  0.030042955            1 
  473000    1.1600201   -7.3011135     166.1193  0.029266966  0.030033835            2 
  474000    1.1794492   -7.2593023    166.91167  0.029344527  0.030024046            2 
  475000    1.1403664   -7.3164084    167.35428    0.0293604  0.030014349            1 
  476000    1.1778563    -7.317598    167.42393  0.029310912  0.030004578            3 
  477000    1.1720259   -7.3380776    167.02384  0.029179566  0.029994734            3 
  478000    1.1832662   -7.3154804    167.16903  0.029143834  0.029984286            3 
  479000    1.1706632   -7.2656098    168.01476  0.029230125  0.029973455            2 
  480000    1.1589528   -7.2926505    167.94368  0.029156889   0.02996286            1 
  481000    1.1691192   -7.2779894    168.34917  0.029166523    0.0299531            2 
  482000    1.1807269   -7.3195174    168.81692  0.029186881  0.029943264            1 
  483000    1.1674073   -7.3152659    169.06752  0.029169689  0.029933176            1 
  484000    1.1855073   -7.3010726    169.73821  0.029224898  0.029923043            1 
  485000    1.1599708   -7.2893386    169.91613  0.029195211  0.029913738            1 
  486000    1.1548768   -7.2644061    170.50059  0.029235355  0.029904628            2 
  487000    1.1531295    -7.311567    170.69959  0.029209375  0.029895554            1 
  488000     1.129636   -7.2954688    170.78769  0.029164565  0.029886471            4 
  489000    1.1723425    -7.299892    170.98184   0.02913801  0.029877285            2 
  490000    1.1560617   -7.3235754    171.33017  0.029137784  0.029868136            3 
  491000    1.1729992   -7.3068798    171.95246  0.029184056  0.029859188            3 
  492000    1.2079442   -7.3147051    173.07345  0.029314609  0.029850675            2 
  493000    1.1669693   -7.3331078    172.39823  0.029141013   0.02984287            2 
  494000    1.1658949   -7.3177308    173.68007  0.029298258  0.029835092            1 
  495000    1.1614999   -7.3135562    174.36063  0.029353641  0.029827605            2 
  496000    1.1658632    -7.290663    174.74239    0.0293586  0.029820551            1 
  497000    1.1960094   -7.3175839    175.16587  0.029370535  0.029814094            6 
  498000    1.1568364   -7.3167062    175.08937  0.029298757  0.029807838            2 
  499000    1.1812842    -7.322273    175.11398  0.029244151  0.029801273            1 
  500000     1.157556   -7.3732366    175.28894  0.029214823  0.029794164            3 
  501000    1.1737907   -7.3490623    175.75533  0.029234087  0.029786301            2 
  502000     1.159327   -7.3270816    176.38611  0.029280563  0.029778917            2 
  503000    1.1774305   -7.3276663    176.66998  0.029269381  0.029772193            3 
  504000    1.1800351   -7.2764427    177.09678  0.029281875  0.029765251            1 
  505000    1.1539869   -7.3181654    177.92157  0.029359994  0.029758807            2 
  506000    1.1516682   -7.3093141    178.05062  0.029323224  0.029752203            4 
  507000    1.1855681   -7.3207745    178.14433  0.029280791  0.029745905            2 
  508000    1.1906455   -7.3436931    178.43955  0.029271579  0.029740305            1 
  509000    1.1532077    -7.280087    179.71378  0.029422689  0.029734315            1 
  510000    1.2018221   -7.3182307    179.98279  0.029408952  0.029728931            2 
  511000    1.1641489   -7.3212572    180.58705  0.029449943   0.02972367            2 
  512000    1.1718803   -7.3204621     180.3926  0.029360774  0.029718039            2 
  513000     1.171196   -7.3278166    180.03385  0.029245265  0.029711841            1 
  514000    1.1853418   -7.3033897    179.62159   0.02912153  0.029705428            2 
  515000    1.2003437   -7.3352888    180.41956  0.029194104  0.029699562            1 
  516000    1.1710217   -7.3020553     181.0226  0.029234916   0.02969335            2 
  517000    1.1458683   -7.3328013    180.84787  0.029150204  0.029686644            1 
  518000    1.1874399   -7.3339643    181.77541  0.029243149  0.029679924            1 
  519000     1.181522   -7.2795609     182.4343  0.029292598  0.029673766            3 
  520000    1.1682635   -7.3283312    182.41932  0.029233866  0.029667932            2 
  521000    1.1424845   -7.2894957     183.3398  0.029324985  0.029662148            2 
  522000     1.162718   -7.3293934    183.60809  0.029311636  0.029657367            1 
  523000    1.1565356    -7.307227    183.75573  0.029279116  0.029652074            4 
  524000    1.1725706   -7.3369695    183.48191  0.029179693  0.029646725            1 
  525000    1.1545743   -7.3101781    185.19108  0.029395409  0.029641828            1 
  526000    1.1606199   -7.3303422     185.2889  0.029355022  0.029637203            4 
  527000    1.1592885   -7.3353102    185.23658  0.029291047  0.029632316            2 
  528000    1.1556543   -7.3281139     185.9556  0.029349052  0.029627439            1 
  529000    1.1466479   -7.3434228    185.87189  0.029280386  0.029622383            1 
  530000    1.1634538   -7.3565804    185.91752  0.029232314  0.029617267            2 
  531000    1.1822837   -7.3103403    187.13426  0.029368214  0.029612256            1 
  532000    1.1476053   -7.3331197    187.10569  0.029308536  0.029607669            3 
  533000    1.1541151   -7.3676854    186.92766  0.029225714  0.029602574            5 
  534000    1.1591714   -7.3444429    187.89358  0.029321719  0.029597309            1 
  535000    1.1586601   -7.3350647    188.05077  0.029291397  0.029591984            2 
  536000    1.1728756   -7.3353375    187.48393   0.02914862   0.02958653            5 
  537000    1.1610539    -7.341817    188.03065  0.029179183   0.02958114            4 
  538000    1.1596499   -7.3283948    188.19713  0.029150732   0.02957499            2 
  539000    1.1471173   -7.3387788    189.04864  0.029228299  0.029569382            2 
  540000    1.1364879   -7.3430179    189.00623  0.029167629  0.029563606            1 
  541000     1.209346    -7.317662    189.61188  0.029207006  0.029558287            2 
  542000     1.152289   -7.3205243    190.24463  0.029250404   0.02955299            2 
  543000    1.1777298   -7.3349808    190.84656  0.029288914  0.029547677            1 
  544000    1.1631862   -7.3454965     190.3821  0.029163924  0.029542121            2 
  545000    1.1564122   -7.3201109    190.34031  0.029104023  0.029536214            1 
  546000    1.1745936   -7.3288148    190.77727  0.029117411  0.029530525            2 
  547000    1.1578648   -7.3577278     191.4995  0.029174208  0.029524393            3 
  548000    1.1749263   -7.3237701    191.52746  0.029125223  0.029518911            2 
  549000    1.1666328   -7.2628841    193.10588  0.029311761  0.029513758            1 
  550000    1.1615613   -7.3174444    192.55874  0.029175567  0.029508251            1 
  551000    1.1453366   -7.3972489    191.72627  0.028996714  0.029501791            3 
  552000    1.1682502   -7.3627252     192.5306   0.02906561  0.029495001            2 
  553000    1.1666116   -7.3807574    193.04258  0.029090203  0.029488758            1 
  554000    1.1480501   -7.3771484    193.58665  0.029119533   0.02948249            2 
  555000     1.155413   -7.3465526    193.59053  0.029067647  0.029476205            6 
  556000    1.1856928   -7.4024763    193.93398  0.029066843  0.029469808            1 
  557000     1.157357   -7.2918213    194.34183  0.029075678  0.029463576            2 
  558000    1.1510767   -7.3013605    194.62817  0.029066333  0.029457298            3 
  559000    1.1430959   -7.2983256    195.12406  0.029088261  0.029450379            2 
  560000    1.1738036   -7.3763171    194.00282  0.028869467  0.029443257            2 
  561000    1.1746065   -7.3013428     194.5686   0.02890205  0.029435313            2 
  562000    1.1412648   -7.4119988    193.73545  0.028727084  0.029426947            1 
  563000     1.191572   -7.3594401    195.11416  0.028880131  0.029418815            1 
  564000    1.1630077   -7.3530449    194.85697  0.028790924  0.029410553            1 
  565000    1.1430469   -7.3999424    194.79452  0.028730756  0.029402344            2 
  566000    1.1487123   -7.3526786    195.89157  0.028841514  0.029393995            2 
  567000    1.1440804   -7.3139364    196.06413   0.02881601  0.029385716            2 
  568000    1.1575356    -7.332685    196.43545  0.028819755  0.029377596            1 
  569000    1.1510101   -7.3548959    196.68533  0.028805701  0.029369337            1 
  570000     1.163741   -7.3417054    197.15934  0.028824465    0.0293613            2 
  571000    1.1294902   -7.3418845      197.218  0.028782545  0.029353101            1 
  572000    1.1649911   -7.3784176    196.98574  0.028698389  0.029344642            2 
  573000     1.152001   -7.3706945    197.30859  0.028695258    0.0293364            2 
  574000    1.1532385   -7.3314673    198.30781  0.028790332  0.029328263            2 
  575000     1.188787   -7.3501513    198.70459  0.028797766  0.029319948            2 
  576000    1.1591075   -7.3303712    198.78403  0.028759264  0.029311286            1 
  577000    1.1441259   -7.3539212    198.44379  0.028660282  0.029302875            3 
  578000    1.1816103    -7.387698    199.01648  0.028693265   0.02929454            2 
  579000    1.1690539   -7.3145158    199.46412  0.028708135  0.029286239            2 
  580000    1.1707122   -7.4045491    199.16318  0.028615399  0.029277958            2 
  581000    1.1597164   -7.4028452    199.59912  0.028628674  0.029269206            2 
  582000    1.1688049   -7.3640872    199.89311  0.028621579  0.029260822            2 
  583000    1.1534826   -7.3515756    200.32084  0.028633625  0.029251715            2 
  584000    1.1421874   -7.3481812    200.61029  0.028625898  0.029243009            2 
  585000    1.1807544   -7.3690337    201.36467  0.028684427    0.0292345            2 
  586000    1.1622372   -7.3412515    201.41094  0.028642057  0.029226407            2 
  587000    1.1566894   -7.3326112    202.11144  0.028692709  0.029217963            3 
  588000    1.1848704   -7.3573281    201.69853  0.028585392  0.029209529            2 
  589000    1.1609084   -7.3463006     203.3057  0.028764248   0.02920179            2 
  590000    1.1944074   -7.3720282    203.15584  0.028694328  0.029193752            3 
  591000    1.1377238   -7.3668456    202.99355  0.028622892  0.029186383            2 
  592000     1.176214   -7.3229964    203.40875  0.028632989  0.029178711            1 
  593000    1.1466968   -7.3763725    203.66899  0.028621275  0.029170558            1 
  594000    1.1517143   -7.3648272     203.9836  0.028617227  0.029162027            1 
  595000    1.1765977   -7.3949564    203.76072  0.028537916  0.029153054            1 
  596000     1.151156     -7.34177    205.26056  0.028699742  0.029144489            2 
  597000     1.159594   -7.3732503    205.32594  0.028660796  0.029135937            3 
  598000    1.1670635   -7.3973274     204.8582  0.028547687  0.029127405            1 
  599000    1.1944906   -7.3901226    205.28051   0.02855878  0.029118854            1 
  600000    1.1897494    -7.398598    205.68383  0.028567199  0.029110421            1 
  601000     1.132478    -7.335847     206.3693  0.028614711  0.029102937            1 
  602000    1.1385364   -7.3739241    205.95486  0.028509809  0.029095034            5 
  603000    1.1517099   -7.3773629    206.57559  0.028548312  0.029086982            2 
  604000    1.1704398   -7.3902292    206.68181  0.028515702  0.029078714            2 
  605000    1.1438646   -7.4004102    206.85885  0.028492954   0.02907019            4 
  606000    1.1744831   -7.3660955    207.12121  0.028482015  0.029061874            2 
  607000    1.1533889   -7.3694334    207.79781  0.028527981  0.029053229            2 
  608000    1.1405277   -7.3610885    207.71278  0.028469406  0.029044255            1 
  609000    1.1771237    -7.374892    208.10355  0.028476129  0.029035636            2 
  610000    1.1421684   -7.3916634    208.07299  0.028425272  0.029026371            1 
  611000    1.1416861   -7.3606496    208.10407  0.028382989  0.029016893            1 
  612000    1.1592899   -7.3781782    208.82441  0.028434696  0.029007559            2 
  613000    1.1378574   -7.3455227    208.71003  0.028372761  0.028997615            2 
  614000    1.1476866   -7.3425767    209.33004  0.028410701  0.028988462            3 
  615000     1.154772   -7.3703738    208.81266  0.028294398  0.028979231            1 
  616000    1.1369861   -7.3585653    209.94108   0.02840112  0.028970007            2 
  617000    1.1645779   -7.3264094    210.66772   0.02845323  0.028961561            2 
  618000    1.1491517   -7.3702762    210.86759  0.028434141  0.028953359            1 
  619000    1.1485332   -7.3988346    211.37465  0.028456469  0.028944986            1 
  620000    1.1261491   -7.3763547    211.40448  0.028414581  0.028936925            2 
  621000    1.1684109   -7.3832634    211.78915  0.028420444  0.028928906            1 
  622000    1.1425143   -7.3421285     212.8723  0.028519869  0.028921161            1 
  623000    1.1582171   -7.3562924    212.98612  0.028489316  0.028913563            2 
  624000    1.1320528   -7.3844337    212.81952   0.02842141  0.028905938            2 
  625000    1.1610346   -7.3484131      213.812  0.028508267  0.028897768            2 
  626000    1.1522237   -7.3628687    213.26848  0.028390373   0.02888986            2 
  627000    1.1724983   -7.3936344     214.0232  0.028445402  0.028881898            1 
  628000      1.14808   -7.3821549    214.21227  0.028425196  0.028874011            2 
  629000    1.1348609   -7.3856338    213.90094  0.028338757  0.028865828            1 
  630000    1.1250055   -7.4116209    214.25479  0.028340581  0.028858038            5 
  631000    1.1242342   -7.3854112    214.92736   0.02838449  0.028849982            1 
  632000    1.1652722   -7.3584442    215.09828  0.028362115  0.028841999            1 
  633000    1.1458325   -7.3582851    215.37644  0.028353929  0.028834245            3 
  634000     1.136388   -7.3812842    214.91434  0.028248467  0.028825457            6 
  635000    1.1373768    -7.348458    215.47428  0.028277465  0.028817249            2 
  636000    1.1651348   -7.3892436    216.22643  0.028331555  0.028808811            2 
  637000    1.1482517   -7.3777098    216.41939  0.028312322  0.028800388            3 
  638000    1.1656771   -7.3207156    216.92856  0.028334452   0.02879223            3 
  639000    1.1415618   -7.3486557    217.61746   0.02837995  0.028784729            1 
  640000    1.1389108   -7.3812756     217.6842  0.028344296   0.02877686            1 
  641000    1.1541677   -7.3627445    218.54411  0.028411871  0.028769295            3 
  642000    1.1417032   -7.3448238    218.59257  0.028373906  0.028761465            1 
  643000    1.1569032   -7.3701017    218.22593  0.028282262  0.028753551            1 
  644000    1.1677372   -7.3377146    219.13465  0.028355933  0.028745745            2 
  645000    1.1284321    -7.369713    218.12624  0.028181684  0.028738126            1 
  646000    1.1326434   -7.3786075    218.87757   0.02823498  0.028729759            1 
  647000    1.1464007   -7.3985546    218.95689  0.028201557  0.028721324            2 
  648000    1.1581872   -7.3700849    219.71388  0.028255385  0.028713351            2 
  649000    1.1866747   -7.3957627    219.88016    0.0282332   0.02870511            3 
  650000     1.165458   -7.3932341    220.19366  0.028229956  0.028697006            5 
  651000    1.1293236   -7.4007176    220.40232  0.028213303  0.028688742            4 
  652000    1.1526475   -7.4045008    220.96459  0.028241896  0.028681125            2 
  653000    1.1650109   -7.3906976    221.54406  0.028272596  0.028673787            1 
  654000    1.1209903   -7.3952044    221.20083  0.028185631  0.028666287            3 
  655000    1.1566697   -7.3812389      221.728  0.028209669  0.028658698            2 
  656000    1.1356545   -7.3256273    223.22495  0.028356828  0.028651181            1 
  657000    1.1473042   -7.4147032    222.11128   0.02817241  0.028643592            2 
  658000    1.1315707   -7.4139321     222.9377  0.028234258   0.02863623            1 
  659000    1.1352642   -7.3990728    223.80278  0.028300807  0.028628581            1 
  660000    1.1634362   -7.3656802    223.46227  0.028214933  0.028621083            1 
  661000    1.1399304    -7.373922    223.33992  0.028156823  0.028613791            2 
  662000    1.1267214   -7.3656829    224.74341  0.028290963   0.02860649            2 
  663000    1.1479047   -7.3958682    224.18517  0.028178126  0.028599175            4 
  664000    1.1538164   -7.3646955    225.38077  0.028285739   0.02859223            2 
  665000    1.1418694   -7.3711808    224.95101   0.02818935  0.028584725            1 
  666000     1.151104   -7.3626738    225.95309  0.028272408  0.028577485            4 
  667000    1.1276998   -7.4122111    224.89113  0.028097342  0.028570086            1 
  668000    1.1395826   -7.4112378    225.36976  0.028114989  0.028562587            7 
  669000    1.1369778   -7.3744804     226.0916   0.02816288  0.028555119            2 
  670000    1.1476379   -7.3700467    226.50675  0.028172482  0.028547834            2 
  671000    1.1547739   -7.3846157     226.7229   0.02815734  0.028540492            3 
  672000     1.158039   -7.3893834     226.9013  0.028137562  0.028533064            1 
  673000    1.1582848   -7.4106838    227.05267  0.028114496  0.028525752            2 
  674000    1.1445716   -7.3734234    228.11496  0.028204124  0.028518769            2 
  675000    1.1719019   -7.3967673    228.22687  0.028176157  0.028511699            2 
  676000    1.1564539   -7.3351653    228.45692  0.028162836  0.028504519            2 
  677000    1.1469812   -7.3500949    229.30416  0.028225524  0.028497803            2 
  678000    1.1311836   -7.3634713    228.70108  0.028109769    0.0284907            2 
  679000    1.1295175   -7.3532849    229.04571  0.028110666  0.028483393            1 
  680000    1.1633445   -7.3597369    229.48691  0.028123396  0.028476192            2 
  681000    1.1622337   -7.4008366    228.68737  0.027984259  0.028468897            2 
  682000    1.1358219   -7.3756331    230.06292  0.028111305  0.028461834            1 
  683000    1.1553488   -7.3516437    230.93521  0.028176575   0.02845526            1 
  684000    1.1277352   -7.3559203    231.14112  0.028160468  0.028448315            4 
  685000    1.1444679     -7.40237    231.14957  0.028120386  0.028441809            2 
  686000    1.1276134   -7.3970629    232.34063  0.028224081  0.028435545            3 
  687000    1.1604124    -7.402969    232.75877  0.028233718  0.028429268            2 
  688000    1.1583071   -7.4579588    231.81939  0.028078899  0.028422973            5 
  689000    1.1589916   -7.3885948    232.85972  0.028163971  0.028416553            3 
  690000    1.1310374   -7.4131664    233.45698  0.028195287  0.028410608            2 
  691000     1.126836   -7.3991606    234.41209  0.028269668  0.028405009            2 
  692000    1.1433371   -7.3485841    234.57352  0.028248256  0.028399326            4 
  693000    1.1076714   -7.3813125    235.10368  0.028271245  0.028393818            5 
  694000    1.1380781   -7.3949181    235.08025  0.028227696  0.028388334            3 
  695000    1.1334498   -7.3696688    234.92491  0.028168454  0.028382676            2 
  696000    1.1321024   -7.4511751    234.53624  0.028081446  0.028376572            1 
  697000    1.1660314   -7.3461352    236.35996  0.028259201  0.028370801            1 
  698000    1.1574138    -7.357128    235.68699   0.02813837  0.028364725            3 
  699000    1.1281886   -7.3613199    236.64774  0.028212654  0.028359257            1 
  700000    1.1283987    -7.418945    235.79362   0.02807067  0.028353515            2 
  701000    1.1378475    -7.424072    236.55182  0.028120758  0.028347461            2 
  702000    1.1633161   -7.3444985    237.17007  0.028154092   0.02834155            2 
  703000    1.1347258   -7.3742113    236.78803  0.028068757  0.028335155            2 
  704000    1.1411485   -7.4081964    236.96261  0.028049551  0.028328696            3 
  705000    1.1426489   -7.3891757    237.75111  0.028102968  0.028322262            2 
  706000     1.143114   -7.3798707    237.99377  0.028091804  0.028316121            2 
  707000    1.1733415   -7.4210138    237.97213   0.02804952  0.028309716            2 
  708000    1.1423399   -7.4242851    238.76907  0.028103704  0.028303696            1 
  709000    1.1543704   -7.3944959    239.39298  0.028137398  0.028297577            8 
  710000     1.139252   -7.3408934     239.8969  0.028156913  0.028291642            1 
  711000    1.1585425   -7.3632068    239.72509  0.028097174  0.028285779            3 
  712000    1.1340103   -7.4088793    239.40033  0.028019701  0.028279512            3 
  713000    1.1620057   -7.4345792    239.76372  0.028022875  0.028273069            2 
  714000    1.1492117   -7.4176422    240.60769   0.02808213  0.028267176            1 
  715000    1.1448596   -7.3847358    241.07667  0.028097514  0.028261184            1 
  716000    1.1558682   -7.4158004    240.59186  0.028001846  0.028255613            2 
  717000    1.1462597   -7.3820315    242.40956  0.028174053  0.028249679            1 
  718000     1.113564   -7.3949704     242.0466  0.028092688  0.028244009            2 
  719000    1.1333902   -7.4212653    242.61085  0.028119014   0.02823821            3 
  720000    1.1417877   -7.3871165    242.51149  0.028068459   0.02823249            1 
  721000    1.1784696   -7.3895627    242.56074  0.028035222  0.028226498            1 
  722000    1.1448335   -7.4015132    243.35599   0.02808818   0.02822105            4 
  723000    1.1280299   -7.3605545    244.74771   0.02820974  0.028215584            1 
  724000    1.1401338   -7.3839906    244.07417  0.028093252  0.028210165            1 
  725000    1.1402549   -7.3721744     243.5966  0.027999609  0.028204626            1 
  726000    1.1314659   -7.4493854    243.86561   0.02799192  0.028199104            2 
  727000    1.1411977   -7.3728644    245.61455  0.028153892   0.02819361            1 
  728000    1.1216437   -7.3894817    245.34347  0.028084189  0.028188617            6 
  729000    1.1325844   -7.4195572     245.5879  0.028073606  0.028183417            2 
  730000    1.1214743   -7.4189477    245.68967  0.028046766  0.028178124            3 
  731000     1.168571   -7.3939125    246.27217  0.028074803  0.028172766            5 
  732000    1.1275927   -7.4435386    246.32141  0.028042054  0.028167591            2 
  733000    1.1549772   -7.3720771    246.55762  0.028030653  0.028162419            1 
  734000    1.1368699   -7.4112443    247.24084  0.028070032  0.028157207            1 
  735000    1.1357621   -7.4306434    246.98479   0.02800281  0.028151868            2 
  736000    1.1345306   -7.4021478    247.77381    0.0280541  0.028146522            3 
  737000    1.1468365   -7.3987798    248.68142  0.028118659  0.028141472            1 
  738000     1.128081   -7.4489221    247.61683  0.027960347  0.028136419            3 
  739000    1.1577153    -7.444104    248.55942  0.028028802  0.028130611            2 
  740000    1.1511514   -7.3665129      249.632  0.028111712  0.028125361            2 
  741000    1.1223814   -7.4170247    249.22446  0.028027942  0.028120544            1 
  742000    1.1699133   -7.4101584      249.195   0.02798686  0.028115545            2 
  743000    1.1326525   -7.4263066    250.01205  0.028040831  0.028110997            3 
  744000    1.1580114   -7.3622728    251.35848  0.028153951   0.02810652            1 
  745000    1.1157783   -7.4290565    250.42962  0.028012261  0.028101942            8 
  746000    1.1034122   -7.3811199    251.47756  0.028091774  0.028097305            1 
  747000    1.1362251   -7.3727497    251.19236  0.028022352  0.028092589            2 
  748000    1.1395234   -7.4616021     250.8878  0.027950958  0.028087467            1 
  749000    1.1463245   -7.4265629    251.76384  0.028011108  0.028082035            2 
  750000    1.1310837   -7.4408463    251.39694  0.027932994  0.028076935            3 
  751000    1.1614719   -7.4536954     251.9656  0.027958899  0.028071268            2 
  752000    1.1336153   -7.4324163      251.314  0.027849513  0.028065771            1 
  753000    1.1441532   -7.4388122    252.46255  0.027939636   0.02806011            3 
  754000    1.1628823   -7.4191092    251.99051   0.02785041  0.028054589            5 
  755000     1.146095    -7.420738    252.59918  0.027880704  0.028049078            1 
  756000    1.1245757   -7.4203576    253.46041  0.027938757  0.028043657            2 
  757000    1.1072008   -7.4261907    253.06273  0.027858073  0.028038093            1 
  758000    1.1470725   -7.3810365    254.70945  0.028002358  0.028032626            2 
  759000    1.1511814   -7.4304946    254.17769   0.02790708  0.028027421            1 
  760000    1.1335669   -7.4249759    254.56327  0.027912639  0.028022304            3 
  761000     1.104146   -7.4350325    254.70481  0.027891459  0.028017089            4 
  762000    1.1102591   -7.4535741    254.45345  0.027827368  0.028011468            1 
  763000    1.1460455   -7.3860466    256.03974  0.027964148  0.028006339            2 
  764000    1.1259074   -7.4377496    256.08335  0.027932303  0.028001173            5 
  765000    1.1341999   -7.3628646    256.93928  0.027989028  0.027996197            2 
  766000    1.1237282   -7.4714007    256.08558  0.027859615  0.027991353            2 
  767000    1.1184917   -7.4209815    257.10441  0.027933986  0.027986164            1 
  768000    1.1314298   -7.4604353    256.03967  0.027782082  0.027980903            3 
  769000    1.1103165   -7.4076129    256.52626  0.027798684  0.027975358            2 
  770000    1.1374985   -7.4443286    257.62117  0.027881079  0.027969797            2 
  771000    1.1224045   -7.4496638    257.28359   0.02780843  0.027964228            2 
  772000     1.131288   -7.4339524    257.38265  0.027783101  0.027958761            1 
  773000    1.1404466   -7.4440525    257.76213  0.027788069  0.027953459            1 
  774000    1.1488507   -7.4465267    258.28694  0.027808672  0.027947822            2 
  775000    1.1425864   -7.4298979    259.19786  0.027870737  0.027942555            3 
  776000    1.1267341   -7.4294779    259.96682  0.027917399  0.027937247            1 
  777000    1.1400096   -7.4590207    259.34675  0.027814966  0.027931849            3 
  778000    1.1191695   -7.4032617    260.45273  0.027897679  0.027926123            2 
  779000    1.1095026   -7.3978462    259.85675  0.027798112   0.02792054            2 
  780000    1.1562952    -7.402021    259.03654  0.027674844  0.027914358            4 
  781000    1.1467321   -7.5185883    258.69358  0.027602814  0.027908272            2 
  782000    1.0987058   -7.4436034    259.46111  0.027649308  0.027902197            2 
  783000    1.1262225   -7.4187042    260.43632  0.027717786  0.027896178            1 
  784000    1.0938085   -7.4008662    261.18768  0.027762295  0.027890209            2 
  785000    1.1352449   -7.4360307    261.12732  0.027720523   0.02788456            2 
  786000    1.1084112   -7.4392198    261.67124  0.027742922  0.027879019            3 
  787000    1.1201642   -7.4327059    261.88007  0.027729783  0.027873329            3 
  788000     1.118514   -7.4403879    261.42848  0.027646836  0.027867759            6 
  789000    1.1117828   -7.4371709    262.64099   0.02773986  0.027861825            2 
  790000    1.1109523   -7.3917815    262.75255  0.027716514  0.027856085            1 
  791000    1.1087325    -7.408362    263.63573  0.027774519  0.027850241            2 
  792000    1.1465188   -7.4555243    263.06903  0.027679822  0.027844323            1 
  793000    1.1282345   -7.3963215    263.56884   0.02769744  0.027838322            1 
  794000    1.1347744   -7.4570469    263.51393  0.027656793  0.027832391            2 
  795000    1.1269767   -7.4248956    263.61215  0.027632301  0.027826301            2 
  796000    1.1133004   -7.4240204    264.70432  0.027711926  0.027820437            3 
  797000    1.1086154   -7.4222521    264.67697  0.027674296  0.027814567            1 
  798000    1.1442024   -7.4522213    264.44791  0.027615697  0.027808539            3 
  799000    1.1431085   -7.4313926    265.28248  0.027668177  0.027802761            2 
  800000    1.1306271   -7.4490681    265.43729  0.027649718  0.027796971            1 
  801000    1.1373446   -7.4795928    263.96154  0.027461667  0.027791158            1 
  802000    1.1334184   -7.4236333    265.73988  0.027612207  0.027785031            2 
  803000    1.1031808   -7.4373114    265.41248  0.027543844  0.027779202            1 
  804000    1.1463084   -7.4080512    266.17362  0.027588476  0.027773332            2 
  805000     1.112457   -7.4350093    266.58116  0.027596393  0.027767224            2 
  806000    1.1414988   -7.4514282    266.25363  0.027528291  0.027760992            2 
  807000    1.1234739   -7.4284273    267.37199  0.027609665  0.027754814            2 
  808000    1.1242035   -7.4380268    266.73519  0.027509817  0.027748662            1 
  809000    1.0901997    -7.451308    267.38873  0.027543132  0.027742513            1 
  810000    1.1240673   -7.4617644    267.08816  0.027478205  0.027736167            2 
  811000     1.125551   -7.4604464    266.70548  0.027405002  0.027729431            2 
  812000    1.1168101   -7.4463992    267.90071  0.027493915  0.027722754            4 
  813000    1.1197369   -7.4141239    267.77525  0.027447237  0.027716459            3 
  814000    1.1305644   -7.4212538    268.61342  0.027499326  0.027710294            2 
  815000    1.1200227   -7.4652908    268.42595  0.027446417  0.027704075            1 
  816000    1.1213675   -7.4519086    269.70927  0.027543839  0.027697791            2 
  817000    1.1286253   -7.4326872    269.60833  0.027499829  0.027691509            1 
  818000    1.1217948    -7.455977     270.1117  0.027517492  0.027685475            3 
  819000    1.1092353   -7.4464744    269.81432  0.027453635  0.027679617            1 
  820000    1.1406763   -7.4203344    271.47722  0.027589148  0.027674035            3 
  821000    1.1091604   -7.4551307    270.51916  0.027458299  0.027668392            3 
  822000    1.1321756   -7.4444998    271.10668  0.027484457  0.027662965            1 
  823000    1.1281726   -7.4768427    272.47479  0.027589589  0.027657528            1 
  824000    1.1337592   -7.4684286    272.21266  0.027529598  0.027652121            2 
  825000    1.1251959   -7.4241832    272.91435  0.027567106  0.027646777            1 
  826000    1.1134229   -7.4740108      272.936  0.027535917  0.027641332            2 
  827000    1.0962061   -7.4449076    272.98065  0.027507119  0.027636072            1 
  828000    1.1065611   -7.4751984     273.5665   0.02753286  0.027630917            1 
  829000    1.1209266   -7.4798176    273.77707  0.027520816  0.027625614            2 
  830000    1.1250668   -7.4648752    273.88864   0.02749886  0.027620035            1 
  831000     1.103474   -7.4429402    274.14367  0.027491343  0.027614473            3 
  832000    1.1079342   -7.3735684    275.20797  0.027564901  0.027609043            2 
  833000    1.1241105    -7.441324    274.39174  0.027450154  0.027603869            2 
  834000    1.0971615   -7.4332883     275.7794  0.027555896   0.02759842            3 
  835000    1.1120992   -7.4161585    275.12292  0.027457377  0.027593022            1 
  836000    1.1186399   -7.4200961    275.73148  0.027485195  0.027587703            3 
  837000    1.1380604   -7.4475749    275.54807  0.027434097  0.027581792            2 
  838000    1.1320322    -7.410444     276.2166   0.02746784  0.027575929            2 
  839000     1.099818    -7.433168     276.3183  0.027445202  0.027570012            1 
  840000    1.1016326   -7.4730481    275.71437  0.027352616  0.027564024            3 
  841000    1.1183696   -7.4753665    276.62633  0.027410457   0.02755796            1 
  842000    1.0950295   -7.4474277    277.01161  0.027416034  0.027552216            5 
  843000    1.1357931   -7.4310024    277.47645  0.027429463  0.027546623            2 
  844000    1.1495172    -7.489304     277.2862  0.027378179  0.027540949            2 
  845000    1.1208203   -7.4540461    277.58704  0.027375448   0.02753522            1 
  846000    1.1116023   -7.4315289    279.11863  0.027493955  0.027529782            1 
  847000    1.1328338   -7.4335354    278.66011  0.027416382  0.027524134            1 
  848000    1.0891558   -7.4421118    278.97942   0.02741543  0.027518293            2 
  849000    1.1212841   -7.4706138    278.58174  0.027344105  0.027512582            6 
  850000    1.1071927   -7.4547286     278.5332  0.027307176  0.027506664            4 
  851000    1.1342465   -7.4390958    278.92219  0.027313179  0.027500872            1 
  852000    1.1309817   -7.4732765    277.90174  0.027181313  0.027494855            1 
  853000    1.1321828   -7.4580553    278.72985  0.027230348  0.027488772            2 
  854000    1.0993627   -7.4539964    280.03306   0.02732563  0.027482688            1 
  855000    1.1175874   -7.4539857    280.09433  0.027299642  0.027476705            3 
  856000    1.1102903   -7.4348463    280.01409  0.027259939  0.027470793            1 
  857000    1.1352228   -7.4447384    279.77472  0.027204854  0.027464814            3 
  858000    1.1126674   -7.4290877    280.61224  0.027254491  0.027458964            5 
  859000    1.1038982   -7.4341565      280.988  0.027259217  0.027452853            2 
  860000    1.1081198   -7.4460578    281.39074  0.027266545  0.027446498            2 
  861000    1.1298606   -7.4569708    281.04066  0.027200993  0.027440197            3 
  862000    1.1067693   -7.4878142    281.01737  0.027167186  0.027433425            2 
  863000     1.096049   -7.4984431    281.09797  0.027143489  0.027426658            4 
  864000    1.0941624   -7.4752356    281.34256  0.027135663  0.027419776            4 
  865000    1.0955845   -7.4579373    281.34359  0.027104392  0.027412947            1 
  866000    1.0965252   -7.4334383     282.2233  0.027157746  0.027406089            3 
  867000    1.1282189   -7.4279499    283.16578   0.02721701  0.027399344            1 
  868000    1.0917118   -7.4799538     281.1495   0.02699208  0.027392493            2 
  869000    1.1388117   -7.4527937    282.85207  0.027124287  0.027385694            5 
  870000    1.1099634   -7.4663312    282.74776  0.027083119  0.027378832            1 
  871000    1.1412317   -7.4631691     283.0296   0.02707899  0.027372201            2 
  872000    1.0983238   -7.4407267    283.89385  0.027130529  0.027365676            2 
  873000    1.1269078   -7.4504091    283.68842  0.027079841  0.027359138            1 
  874000    1.1238328   -7.4927767    284.49481  0.027125745  0.027352696            3 
  875000    1.1176952   -7.4161374    283.91338  0.027039369  0.027345927            2 
  876000    1.1225286   -7.4966811    283.35021  0.026954928  0.027338852            1 
  877000    1.0975065   -7.4574666    283.60953  0.026948834  0.027331391            2 
  878000    1.1108586   -7.4924643    284.17413  0.026971728  0.027323902            2 
  879000    1.1101534   -7.4881147    284.34332  0.026957083  0.027316287            2 
  880000    1.1099591   -7.4634665    285.38261  0.027024868  0.027309023            2 
  881000    1.1340554   -7.4342466    285.76588  0.027030447  0.027302132            2 
  882000    1.1151065   -7.4326639    286.21268  0.027042014  0.027295192            2 
  883000    1.0973269   -7.4699218    284.60352  0.026859524   0.02728784            1 
  884000    1.1005319   -7.4844942     284.6168  0.026830392  0.027280038            3 
  885000    1.1410438   -7.4731359    286.21906  0.026950947  0.027272534            1 
  886000    1.1216016   -7.4890209    286.57705  0.026954199  0.027265015            2 
  887000    1.1182324   -7.4637128    286.80239  0.026944982  0.027257402            1 
  888000    1.1035319   -7.4697928    286.29652  0.026867166  0.027250125            1 
  889000    1.0965712   -7.4778147    286.92706   0.02689605  0.027242937            2 
  890000    1.1135347   -7.4776215    286.77104  0.026851221  0.027235619            1 
  891000    1.1158735   -7.4363456    288.68222  0.026999833  0.027228346            6 
  892000    1.1035475   -7.4946618    287.32317  0.026842598  0.027221311            6 
  893000    1.0993663   -7.4766404     288.8778  0.026957615  0.027214023            3 
  894000    1.1175849   -7.4137839     288.8241  0.026922456  0.027206682            4 
  895000    1.1140558   -7.4903771     287.9999  0.026815633  0.027199557            2 
  896000    1.1003146   -7.4728527    289.39695  0.026915639  0.027192512            2 
  897000    1.1052364   -7.4978859    289.16919  0.026864474   0.02718564            1 
  898000    1.1116107   -7.4636731    289.42433  0.026858234  0.027178334            1 
  899000    1.1171713   -7.4836501    289.39136  0.026825302  0.027171451            2 
  900000    1.1052205    -7.539422    289.56202  0.026811298  0.027164171            1 
  901000     1.085068    -7.493703    289.56452  0.026781772  0.027156907            1 
  902000    1.1186462   -7.4030394    291.43371   0.02692477  0.027149783            2 
  903000    1.1269369   -7.4750807    290.49628  0.026808442  0.027142721            3 
  904000    1.1073122   -7.5079773    290.45881  0.026775332  0.027135763            2 
  905000    1.0953906   -7.4700365    292.17898  0.026904142  0.027128794            2 
  906000    1.1180908   -7.4307549    292.34166   0.02688941   0.02712169            4 
  907000    1.1221537   -7.4403711    292.72605   0.02689508  0.027114809            2 
  908000    1.1232871   -7.4879013    291.54886  0.026757421  0.027107687            1 
  909000    1.1233082   -7.4594452    293.30958  0.026889401  0.027100522            2 
  910000    1.1118468   -7.4430352    292.71743  0.026805625  0.027093467            3 
  911000    1.0970565   -7.4618241    293.40202  0.026838823  0.027086109            2 
  912000     1.113824    -7.493969     292.5894  0.026735143  0.027078899            3 
  913000    1.1231489   -7.4221135    293.58499  0.026796731  0.027071875            2 
  914000    1.0791684   -7.4484638    293.25211  0.026737063  0.027064768            1 
  915000    1.0997589   -7.5055912    293.30972  0.026713089  0.027057602            2 
  916000     1.083568   -7.5241844    293.53469  0.026704394  0.027050136            3 
  917000    1.1019651   -7.4802881    292.23718   0.02655736  0.027042558            2 
  918000    1.0917266   -7.4616187    293.82877   0.02667291  0.027034778            2 
  919000     1.096001   -7.5059254    293.93041  0.026653102  0.027027049            2 
  920000    1.1180291   -7.4651493    294.59809  0.026684609  0.027019614            1 
  921000    1.0944063   -7.4565922    293.99716  0.026601263  0.027011931            3 
  922000     1.108446   -7.4579672    294.65661  0.026632014  0.027004435            2 
  923000    1.0892448   -7.4758546    294.45457   0.02658492  0.026996657            5 
  924000     1.109222   -7.4951037     294.8477  0.026591603  0.026988949            2 
  925000    1.1285165   -7.5138402    295.13218  0.026588484  0.026981335            2 
  926000    1.0942738   -7.4866482    295.74496  0.026614917  0.026973804            7 
  927000    1.0905706   -7.4475647    295.68045  0.026580407  0.026966199            2 
  928000     1.118753   -7.5291739    296.14696  0.026593657  0.026958785            5 
  929000     1.085801   -7.5156805    295.57952   0.02651413  0.026951201            1 
  930000    1.1032849   -7.5058583    296.29004  0.026549287  0.026943513            1 
  931000    1.0759783   -7.4856862    296.86447  0.026572186  0.026935965            1 
  932000    1.1105683   -7.4875538    296.93274   0.02654978   0.02692835            3 
  933000    1.0797371   -7.4905458    297.33989  0.026557689  0.026920798            2 
  934000      1.09886   -7.4549103    298.19926   0.02660593  0.026913461            1 
  935000    1.0813025   -7.4903314    297.90288  0.026551059  0.026905945            1 
  936000    1.1053837     -7.49089    297.31132  0.026470025  0.026898466            2 
  937000     1.089275   -7.5026295    298.51865  0.026549151   0.02689101            3 
  938000    1.0926646   -7.5164854    298.01949    0.0264765  0.026883223            2 
  939000    1.0880402   -7.4578713    298.71126  0.026509697  0.026875789            4 
  940000    1.1128096   -7.4540553    299.45856  0.026547744  0.026868327            3 
  941000    1.1030961   -7.4903959    299.68733  0.026539792  0.026861056            2 
  942000    1.1147822   -7.4895525    299.76225  0.026518246  0.026853674            1 
  943000    1.0937647   -7.5217087    299.77113   0.02649091  0.026846424            1 
  944000     1.123029   -7.5038543    300.11272  0.026493001  0.026839019            1 
  945000    1.0832899    -7.505002    300.73448  0.026519795  0.026831636            3 
  946000    1.0883543   -7.5258531    299.55592  0.026387942  0.026824046            3 
  947000    1.1120218    -7.524289    300.20371  0.026417081  0.026816221            2 
  948000    1.1070315   -7.4563487    301.54936  0.026507504  0.026808676            3 
  949000    1.0954549   -7.4391178    301.69029  0.026491947  0.026800963            2 
  950000    1.0845278   -7.4803964    300.93328  0.026397656  0.026793639            1 
  951000    1.0780147   -7.4813121    301.53109  0.026422283   0.02678611            4 
  952000    1.0574438   -7.4927994    301.54724  0.026395942  0.026778539            4 
  953000    1.1166964   -7.4973822    302.12677   0.02641892  0.026771008            1 
  954000    1.0887705   -7.5311563    301.12466  0.026303692  0.026763267            1 
  955000    1.1002124   -7.4748878    302.16279  0.026366735   0.02675564            1 
  956000    1.0952141    -7.505427    301.79511  0.026307105  0.026747895            1 
  957000    1.1094069   -7.4653505    303.46622  0.026425133  0.026740256            2 
  958000    1.1108081   -7.4742954    302.69092  0.026330108  0.026732455            2 
  959000    1.0745071   -7.4807657    302.70378   0.02630377  0.026724652            2 
  960000    1.0891827     -7.49427    302.76033  0.026281279  0.026716933            2 
  961000    1.0971577   -7.5396075    304.45025  0.026400472  0.026709133            2 
  962000    1.0765823   -7.5192334    303.65635  0.026304258  0.026701395            2 
  963000    1.0804558   -7.4721668    304.43682  0.026344481  0.026693902            5 
  964000    1.0968294   -7.5037141    305.35424  0.026396459  0.026686285            2 
  965000    1.0790019   -7.4973299    305.14764  0.026351265  0.026678715            4 
  966000    1.1155549   -7.5436534    305.28076  0.026335469  0.026671047            2 
  967000    1.0943905   -7.5798953    304.22445  0.026217206   0.02666352            2 
  968000     1.100317   -7.4854995    305.27042  0.026280167  0.026656195            3 
  969000    1.1024574   -7.5701775    305.73284  0.026292814  0.026648734            1 
  970000    1.1101527   -7.4905541    306.56702  0.026337373  0.026641328            2 
  971000    1.1053328   -7.5408135    305.79771  0.026244225   0.02663366            1 
  972000    1.0931281   -7.4494327    306.93546  0.026314768  0.026626444            1 
  973000    1.1021332    -7.487092    306.64608  0.026262939  0.026618986            1 
  974000    1.0648852   -7.5140153    307.16058  0.026279994  0.026611446            2 
  975000    1.0828111   -7.4969788    307.73937   0.02630251  0.026603857            2 
  976000    1.0984261   -7.5133192    307.57541  0.026261562  0.026596468            1 
  977000     1.096663   -7.5392407    307.40899  0.026220487  0.026589126            2 
  978000    1.0856584   -7.5310076    308.35341  0.026274149  0.026581626            2 
  979000    1.0974069    -7.514136     308.4121  0.026252307  0.026574049            1 
  980000    1.0873909   -7.5055944    308.73647  0.026253101  0.026566748            3 
  981000     1.082675   -7.5043825    308.25974  0.026185843   0.02655942            2 
  982000    1.0954493   -7.5117382    308.68064  0.026194895  0.026551948            1 
  983000    1.1022764    -7.486306    309.12689  0.026206078  0.026544411            2 
  984000    1.0823178    -7.518105    308.76702  0.026148969  0.026536972            5 
  985000      1.09553    -7.491171    310.09289  0.026234593  0.026529365            1 
  986000    1.1173251   -7.4989191    309.68081  0.026173158  0.026521738            3 
  987000    1.1258136   -7.4633318     310.7942  0.026240645  0.026514077            2 
  988000     1.086086   -7.4974451    310.45375   0.02618537  0.026506363            2 
  989000     1.099032   -7.5161506    310.58525  0.026169974  0.026498831            2 
  990000    1.0964201   -7.4822519    311.69244  0.026236738  0.026491415            2 
  991000    1.0792357   -7.4963507     310.6466  0.026122318  0.026484207            2 
  992000    1.0994555   -7.4951202    310.79826  0.026108724  0.026476847            2 
  993000    1.0724893   -7.5489245    310.80415  0.026082926  0.026469356            2 
  994000    1.0894139   -7.5309702    311.50452  0.026115403  0.026461945            2 
  995000    1.1054647   -7.5382544    311.81396  0.026115072  0.026454484            2 
  996000    1.0791233   -7.5354861       312.12  0.026114458  0.026447053            2 
  997000    1.0888065   -7.5055717    312.60636  0.026128916  0.026439656            4 
  998000    1.0759317   -7.5097216    312.84592  0.026122739  0.026432588            2 
  999000    1.1019541   -7.5205131    313.40939  0.026143592  0.026425403            2 
 1000000    1.0811328   -7.4681917    314.42845  0.026202371  0.026418203            4 
 1001000    1.1027635   -7.5023898    313.83841  0.026127074    0.0264111            2 
 1002000    1.0969034   -7.5285291    314.79666  0.026180693   0.02640391            2 
 1003000    1.0879672   -7.5488441    314.50044   0.02612998  0.026396603            2 
 1004000    1.0788556   -7.5599783    315.04335  0.026149016   0.02638938            2 
 1005000    1.0906646   -7.5071371    315.19611  0.026135664  0.026382248            3 
 1006000    1.0797542   -7.5144975    315.70101  0.026151508  0.026375347            2 
 1007000    1.0868731   -7.5352195     315.5977  0.026116989  0.026368306            2 
 1008000    1.0897599   -7.5043291    316.13022  0.026135104  0.026361271            2 
 1009000    1.0876171   -7.4816728     316.1564  0.026111365   0.02635443            3 
 1010000    1.0815105   -7.4950159    316.76451  0.026135686  0.026347374            1 
 1011000    1.0864625   -7.5820221    315.93299  0.026041295  0.026340531            3 
 1012000    1.0965889   -7.5464926     316.0867   0.02602822  0.026333343            3 
 1013000    1.0860798   -7.5215555    316.49203   0.02603587  0.026326132            4 
 1014000    1.0844087   -7.5367118     317.1817  0.026066872  0.026318918            1 
 1015000     1.083597   -7.5459279    316.78041  0.026008244  0.026311733            3 
 1016000     1.089412   -7.4907111    318.09156  0.026090187  0.026304627            1 
 1017000    1.0831026   -7.4917975    318.37855  0.026088049   0.02629765            3 
 1018000     1.075793   -7.5231113    317.90294  0.026023489  0.026290594            1 
 1019000    1.0792894   -7.5050664    318.18633  0.026021126  0.026283671            2 
 1020000    1.0852788   -7.4985953    319.32054  0.026088279  0.026276662            2 
 1021000    1.1072896    -7.500252    319.12619  0.026046865  0.026269684            2 
 1022000    1.0875256   -7.5267733    319.10201  0.026019407   0.02626266            1 
 1023000    1.0902293   -7.5776497    318.65735  0.025957751  0.026255679            3 
 1024000    1.0866063   -7.5602443    319.45824  0.025997578  0.026248743            2 
 1025000    1.0927725   -7.4891987     320.6601  0.026069927  0.026242053            2 
 1026000    1.0753662   -7.5048656    320.60964  0.026040419  0.026235304            2 
 1027000    1.1118038    -7.486993    321.13639  0.026057805  0.026228365            2 
 1028000    1.0973237   -7.5329131    319.74012   0.02591927  0.026221495            2 
 1029000    1.0878906   -7.5329953     320.8676  0.025985391  0.026214453            1 
 1030000    1.1218731   -7.5092219    321.79497  0.026035192  0.026207464            2 
 1031000    1.1048481   -7.5227758    321.45128   0.02598216  0.026200426            2 
 1032000    1.1033661    -7.513464    320.67632  0.025894406  0.026193242            1 
 1033000    1.1186881   -7.5342859    321.38836   0.02592678  0.026185951            4 
 1034000    1.0941217   -7.5552462    320.95455  0.025866743  0.026178509            1 
 1035000    1.0966639   -7.5527715    320.97397  0.025843315   0.02617101            2 
 1036000    1.0749738   -7.5595951     321.9933  0.025900362  0.026163478            1 
 1037000    1.0875803   -7.5266807    321.85235  0.025864059  0.026156069            3 
 1038000    1.1024486   -7.5403209    323.23868   0.02595044  0.026148934            2 
 1039000     1.090358     -7.51817    322.20202  0.025842318  0.026141798            2 
 1040000    1.0558767   -7.5237165    322.29174  0.025824658  0.026134538            6 
 1041000    1.1001503   -7.5480888    322.92541  0.025850577  0.026127175            2 
 1042000    1.1073794   -7.4973525    322.90947  0.025824493  0.026119749            2 
 1043000    1.0937705    -7.530607     322.9894   0.02580612  0.026112099            1 
 1044000     1.079139   -7.5293249     323.2058  0.025798675  0.026104562            1 
 1045000    1.0767158   -7.5434759    323.16657  0.025770859  0.026096914            1 
 1046000    1.0950547   -7.5381912     323.1513  0.025745005  0.026089409            5 
 1047000    1.0796477   -7.5137242    323.13841  0.025719389  0.026081962            2 
 1048000     1.061956   -7.5541826    324.92072  0.025836571  0.026074642            1 
 1049000    1.0757349   -7.4889666    324.83681  0.025805276  0.026067276            4 
 1050000    1.0868809   -7.5351266      324.399  0.025745953  0.026060006            3 
 1051000    1.0817952   -7.5172384     325.9135   0.02584154   0.02605278            2 
 1052000    1.1150464   -7.5098667    326.06446  0.025828934  0.026045562            1 
 1053000    1.0989829   -7.4813865    326.69993  0.025854695  0.026038364            2 
 1054000    1.0716309   -7.5699226    325.07716  0.025701863  0.026031085            1 
 1055000    1.0746054   -7.4982123      326.037  0.025753317  0.026023774            2 
 1056000    1.0859422   -7.5855586    326.13123  0.025736366   0.02601645            1 
 1057000    1.0782431   -7.5294388    326.83092   0.02576718  0.026009086            2 
 1058000    1.0950659   -7.5315612    326.93875   0.02575132  0.026001662            5 
 1059000    1.0645454   -7.5183036    326.24486    0.0256724  0.025994459            2 
 1060000    1.0948306   -7.5300504    326.67301  0.025681841  0.025987128            1 
 1061000    1.0875705    -7.537559    326.61137  0.025652794  0.025979831            2 
 1062000     1.097638   -7.5438737    326.59082  0.025627026   0.02597247            4 
 1063000    1.0839267   -7.5689705    328.06073  0.025718151  0.025965102            1 
 1064000    1.1035834   -7.5408831    327.86806   0.02567889   0.02595757            1 
 1065000    1.0708933   -7.5453158    328.39379  0.025695914  0.025950339            3 
 1066000    1.1006969   -7.5333113    326.96928   0.02556045  0.025942931            2 
 1067000    1.0768137   -7.5084481    329.68181  0.025748345  0.025935568            2 
 1068000     1.063526   -7.5192915    328.43664  0.025627079  0.025928232            2 
 1069000    1.0754532   -7.5652714    328.31699  0.025593779  0.025920862            2 
 1070000    1.0782176   -7.5431248    329.36052  0.025651131   0.02591346            2 
 1071000    1.0773077   -7.5577865    329.34464  0.025625944   0.02590606            3 
 1072000    1.0777097   -7.5371832    328.42174  0.025530297  0.025898531            2 
 1073000    1.0801468   -7.5693278     329.0051   0.02555181  0.025890738            3 
 1074000     1.070199   -7.5205636    329.57169  0.025571981  0.025883195            2 
 1075000    1.1006578   -7.5693843    328.93133  0.025498553  0.025875426            3 
 1076000    1.0732334   -7.5277266    330.81632  0.025620843  0.025867697            3 
 1077000    1.0962195   -7.5446948    329.45461  0.025491691  0.025859861            4 
 1078000    1.0715825   -7.5712703      329.283  0.025454778  0.025852052            2 
 1079000     1.077942   -7.5510232    330.19645  0.025501734  0.025844238            1 
 1080000    1.0996935   -7.5619178    330.79673  0.025524439   0.02583653            2 
 1081000    1.0928293   -7.5584065     330.1265  0.025449159  0.025828823            3 
 1082000    1.1097559   -7.5561184    331.53682  0.025534259  0.025821086            3 
 1083000    1.0643217   -7.5627381    330.85433  0.025458167  0.025813241            3 
 1084000    1.0556434   -7.5369604    332.05961  0.025527338  0.025805433            1 
 1085000     1.070062   -7.5325143    331.22133  0.025439426  0.025797715            1 
 1086000    1.0936626   -7.5288079    332.98323  0.025551199  0.025790151            5 
 1087000    1.0975685   -7.5597318    332.33904  0.025478307  0.025782549            2 
 1088000    1.0833016   -7.5483037    332.54511  0.025470673  0.025775033            2 
 1089000    1.0872932   -7.5292703    332.58625  0.025450432  0.025767453            2 
 1090000    1.0817116    -7.565396    331.93945  0.025377634  0.025759592            1 
 1091000    1.0846352    -7.534205    332.48131  0.025395761  0.025751617            2 
 1092000    1.0808435   -7.5784727    332.38266  0.025364977  0.025744008            1 
 1093000    1.0832446   -7.5645276    334.06829  0.025470288   0.02573632            1 
 1094000    1.0741408   -7.5454532    333.79342  0.025426068  0.025728583            1 
 1095000    1.1081277   -7.6103103    333.09074  0.025349372  0.025720832            1 
 1096000    1.0649895    -7.584422    333.49647  0.025357092  0.025713014            2 
 1097000    1.0986328   -7.5512957    333.62381   0.02534365  0.025705194            2 
 1098000    1.0622037   -7.5300117    334.43823  0.025382379  0.025697496            4 
 1099000    1.0990394   -7.5263459    335.19145  0.025416397  0.025689904            3 
 1100000    1.0817744   -7.5585457    334.43934  0.025336314  0.025682012            1 
 1101000    1.0753347     -7.56742    335.15809  0.025367703  0.025674264            1 
 1102000     1.061424   -7.5244791    336.87537  0.025474544  0.025666488            3 
 1103000    1.0848279   -7.5610873    334.94544  0.025305639  0.025658854            6 
 1104000    1.0769509   -7.5197018    335.90825  0.025355393  0.025651237            2 
 1105000    1.0466702    -7.577487    335.26288  0.025283777  0.025643725            3 
 1106000    1.0832047   -7.5743815    335.16728  0.025253713  0.025636119            4 
 1107000    1.0821537   -7.6103324    334.70108  0.025195805  0.025628006            1 
 1108000    1.0612797   -7.5898591    335.24349   0.02521386  0.025619933            6 
 1109000     1.069156   -7.6078948    335.15759   0.02518467  0.025611963            8 
 1110000    1.0547224   -7.5876169    335.87049  0.025215502  0.025603933            1 
 1111000    1.0741785   -7.5889577     336.4449  0.025235891  0.025595996            3 
 1112000    1.0926994   -7.5585013    337.34324  0.025280519   0.02558807            2 
 1113000    1.0810994    -7.573745    337.13573  0.025242268   0.02558012            2 
 1114000    1.0619483    -7.577928    337.33193  0.025234285  0.025572388            1 
 1115000    1.0495063   -7.5778658    337.07458   0.02519242  0.025564682            4 
 1116000    1.0759046   -7.5616466    339.11975  0.025322562  0.025557072            1 
 1117000     1.046758   -7.5201179    339.27747  0.025311658   0.02554965            2 
 1118000    1.0481965   -7.5731169    338.34324  0.025219383   0.02554214            3 
 1119000     1.062975     -7.58163    339.09299  0.025252681  0.025534392            2 
 1120000    1.0623123   -7.5200208    338.67477  0.025199016  0.025526648            3 
 1121000    1.0848311   -7.5176744    340.36962  0.025302529  0.025518994            4 
 1122000    1.0608575   -7.6032852    339.45769  0.025212247  0.025511447            2 
 1123000    1.0501585   -7.5062995    339.79606  0.025214905  0.025504126            1 
 1124000    1.0629735   -7.5451464    341.51994   0.02532028  0.025496943            2 
 1125000    1.0782708   -7.5591547    340.17355  0.025198041  0.025489721            2 
 1126000     1.063847   -7.5495927    340.52368  0.025201575  0.025482298            3 
 1127000    1.0731555   -7.5381322    341.34852  0.025240204  0.025474879            4 
 1128000    1.0919517   -7.5499728    342.07475   0.02527148  0.025467637            3 
 1129000     1.067394   -7.5709946    341.86607  0.025233693  0.025460463            2 
 1130000    1.0620497   -7.5550828    342.43453  0.025253284  0.025453473            1 
 1131000    1.0659577   -7.5526919    343.24277  0.025290508  0.025446408            1 
 1132000    1.0824954   -7.5374048    341.21871  0.025119163  0.025439041            1 
 1133000    1.0565644   -7.5396796    344.12046  0.025310419  0.025431954            3 
 1134000    1.0527786   -7.5575717    342.61742  0.025177647  0.025424863            2 
 1135000    1.0840891   -7.5647071    343.31564  0.025206728  0.025417676            7 
 1136000    1.0847317   -7.5733701    342.73768  0.025142142  0.025410394            1 
 1137000    1.0527753   -7.5866916    343.06447   0.02514398  0.025402978            3 
 1138000    1.0918069   -7.5868163    342.75051  0.025098895  0.025395533            4 
 1139000     1.077695   -7.5764985     342.8153    0.0250816  0.025387931            3 
 1140000    1.0682792   -7.6030734    343.56119  0.025114122  0.025380262            2 
 1141000    1.0431257   -7.5527031    345.13743  0.025207233   0.02537265            3 
 1142000    1.0719546     -7.61387    343.77723  0.025085904  0.025365122            1 
 1143000      1.06118    -7.602277    343.54629  0.025047119  0.025357406            1 
 1144000    1.0722351   -7.5725206    344.40156  0.025087527  0.025349913            1 
 1145000    1.0776781   -7.5919689    343.70999  0.025015283  0.025342449            4 
 1146000    1.0793651    -7.575065    345.04292  0.025090381   0.02533483            1 
 1147000    1.0436894   -7.5912777    345.59496  0.025108614  0.025327302            3 
 1148000    1.0823873    -7.552369    345.50214  0.025080005  0.025319947            1 
 1149000    1.0840859   -7.5939062    344.29012  0.024970273  0.025312661            2 
 1150000    1.0577387   -7.5874022    345.73583  0.025053321  0.025305322            2 
 1151000    1.0526614   -7.5942491    346.22246  0.025066787  0.025298033            2 
 1152000    1.0589156   -7.5855176    346.31187  0.025051495  0.025290708            1 
 1153000    1.0664155   -7.5923832    346.39196  0.025035556  0.025283353            2 
 1154000    1.0625042   -7.5688533    347.30484  0.025079783  0.025275987            2 
 1155000    1.0794139   -7.5699175    348.45809  0.025141276  0.025268712            3 
 1156000    1.0420119   -7.5633798    348.45346  0.025119194  0.025261472            1 
 1157000    1.0327839   -7.5816789    346.99372  0.024992345  0.025254411            1 
 1158000    1.0774467   -7.5634243    347.87615  0.025034265  0.025247151            3 
 1159000    1.0793032   -7.5947438    348.08731  0.025027848  0.025239885            1 
 1160000    1.0657473   -7.5715162    348.93485  0.025067158  0.025232675            2 
 1161000    1.0797429   -7.6108054    347.86276  0.024968616  0.025225373            2 
 1162000    1.0836618   -7.5542205    348.87387   0.02501964  0.025218129            2 
 1163000    1.0415409   -7.5958596    348.58827  0.024977664  0.025211024            3 
 1164000    1.0868165   -7.5455692    350.41815   0.02508721  0.025204052            1 
 1165000    1.0751989   -7.5701499    349.28083  0.024984323  0.025197088            2 
 1166000    1.0579972   -7.5750067    350.30253  0.025035915  0.025190219            3 
 1167000    1.0710643   -7.5798239    349.52509  0.024958947  0.025183248            2 
 1168000    1.0725629   -7.5760149    350.50822  0.025007721  0.025176325            2 
 1169000    1.0490206    -7.592646    352.06307  0.025097168  0.025169471            2 
 1170000    1.0536091   -7.5793231    351.34306  0.025024435  0.025162511            2 
 1171000    1.0530493   -7.5802732     351.2442  0.024996029  0.025155781            2 
 1172000    1.0575341   -7.5723609    352.27249  0.025047816  0.025149192            3 
 1173000    1.0633777   -7.5662097    352.55392  0.025046456  0.025142424            1 
 1174000    1.0569814   -7.6278112    351.71258  0.024965402  0.025135601            4 
 1175000    1.0633895   -7.5626625    353.09409  0.025042134  0.025128865            4 
 1176000     1.051615   -7.5563269    353.34754    0.0250388  0.025122298            6 
 1177000    1.0691991   -7.5720693    354.11809  0.025072083   0.02511569            1 
 1178000    1.0776033   -7.5600605    353.31902  0.024994271  0.025109045            3 
 1179000    1.0556887   -7.5890831    353.81514  0.025008139  0.025102449            2 
 1180000    1.0794762   -7.5710954    354.38884  0.025027461  0.025095899            3 
 1181000    1.0526342   -7.5988351    353.69301   0.02495717  0.025089294            2 
 1182000    1.0618161   -7.5856635    354.23211  0.024974063  0.025082654            3 
 1183000    1.0362429   -7.5816437     355.4993  0.025042216   0.02507607            3 
 1184000    1.0501331   -7.5769795    355.52903  0.025023158  0.025069623            1 
 1185000    1.0595693   -7.6199658    354.57963  0.024935277  0.025063254            1 
 1186000    1.0456263   -7.6075471    354.57999  0.024914277  0.025056761            3 
 1187000     1.056056   -7.6076074    355.46435  0.024955374  0.025050156            1 
 1188000    1.0551442   -7.6312587    355.22197  0.024917366  0.025043566            7 
 1189000    1.0738516    -7.565382    356.45926  0.024983127  0.025036897            1 
 1190000    1.0761326   -7.5988931    355.51674  0.024896131  0.025030469            3 
 1191000    1.0697065   -7.5613065     357.3714  0.025004996  0.025024048            1 
 1192000    1.0818492   -7.6153768    356.72466  0.024938805   0.02501754            1 
 1193000    1.0622838     -7.59808    357.26103  0.024955367  0.025011077            1 
 1194000    1.0524997   -7.6250902    356.75327  0.024899028  0.025004544            1 
 1195000    1.0865262    -7.594154    358.45634  0.024996955  0.024998136            2 
 1196000    1.0616329   -7.5855026    359.16622  0.025025517  0.024991789            1 
 1197000    1.0771361   -7.5922474    358.76936  0.024976982  0.024985479            3 
 1198000    1.0386725   -7.5846315    359.18342  0.024984935  0.024979209            2 
 1199000    1.0708189   -7.5692422    358.74171  0.024933397  0.024973124            1 
 1200000     1.091394   -7.5859135    359.46818  0.024963068  0.024966995            1 
 1201000     1.052101   -7.6095452    360.02569  0.024980966   0.02496069            3 
 1202000    1.0757167   -7.5853748    359.81223  0.024945384  0.024954342            4 
 1203000    1.0466435   -7.6106324     359.3908  0.024895456  0.024948161            4 
 1204000    1.0509025   -7.6082691    359.42111  0.024876876  0.024941966            1 
 1205000    1.0472395   -7.6098685    359.07014   0.02483196  0.024935707            4 
 1206000    1.0470687   -7.5978038     361.1464  0.024954837  0.024929229            2 
 1207000    1.0424686   -7.6266213    359.05147  0.024789525  0.024922769            3 
 1208000    1.0619139   -7.5820459    361.20797  0.024917769  0.024916239            1 
 1209000    1.0586972    -7.618765    360.45737  0.024845421  0.024909753            2 
 1210000    1.0493167   -7.5776283    360.75255  0.024845217  0.024903324            2 
 1211000    1.0704172   -7.5839783    360.49953   0.02480729  0.024896941            1 
 1212000    1.0782285   -7.5853162    361.32727  0.024843734  0.024890683            3 
 1213000    1.0488271   -7.6173063    360.96515  0.024798375  0.024884311            5 
 1214000    1.0698804   -7.6085305    362.07496   0.02485413  0.024877882            2 
 1215000    1.0628123   -7.6260306     362.4774  0.024861276  0.024871516            2 
 1216000    1.0682941   -7.5696304     361.7203  0.024788946  0.024865148            2 
 1217000    1.0578835   -7.6033367    361.83711  0.024776576   0.02485871            3 
 1218000    1.0641429   -7.5829686    362.58115   0.02480714  0.024852293            4 
 1219000    1.0609971   -7.5815684    362.81597  0.024802842  0.024845906            2 
 1220000    1.0560997   -7.5899403    362.58795  0.024766936  0.024839589            2 
 1221000    1.0467019   -7.5827683    363.30605  0.024795663  0.024833138            1 
 1222000    1.0601701   -7.6400787    361.55134  0.024655711  0.024826434            1 
 1223000    1.0606622   -7.5908933    362.74572  0.024716934  0.024819878            2 
 1224000    1.0621154   -7.5461307    364.50399  0.024816448  0.024813337            1 
 1225000    1.0421949   -7.5807919    363.00664  0.024694329  0.024806923            2 
 1226000    1.0582369   -7.5804118    363.26445  0.024691711  0.024800386            2 
 1227000    1.0510504   -7.5860099    362.90936   0.02464747  0.024793715            3 
 1228000    1.0590903   -7.5761795    364.88208   0.02476127  0.024787103            2 
 1229000    1.0620024   -7.5599346    365.09567  0.024755605  0.024780603            1 
 1230000    1.0393341   -7.5799283    363.72327  0.024642498   0.02477407            1 
 1231000    1.0503171   -7.6173838    363.87957  0.024633061  0.024767371            1 
 1232000    1.0572091   -7.6221338     364.5726  0.024659943  0.024760679            1 
 1233000    1.0423344    -7.631335     364.0498  0.024604609  0.024753861            4 
 1234000    1.0378646   -7.6493355    363.78178  0.024566571  0.024747043            2 
 1235000    1.0566211   -7.5892239    364.34548  0.024584716  0.024740168            4 
 1236000    1.0642128   -7.5568644     365.2726  0.024627333  0.024733506            3 
 1237000    1.0497915   -7.5943571    364.78356  0.024574479  0.024726607            2 
 1238000    1.0492052   -7.6138176     365.4242  0.024597752  0.024719883            2 
 1239000     1.032097   -7.6234722    366.01738  0.024617795  0.024713112            5 
 1240000     1.044285   -7.6190246    365.60752  0.024570398  0.024706389            2 
 1241000    1.0395832   -7.6169753    365.95008  0.024573602  0.024699644            2 
 1242000    1.0366801   -7.5906554    366.22962  0.024572573  0.024692873            2 
 1243000    1.0643367   -7.6184783    366.48983  0.024570249  0.024686045            3 
 1244000    1.0406782   -7.6238201    365.57676  0.024489333   0.02467926            5 
 1245000     1.017449   -7.6637803    365.56467  0.024468854  0.024672397            2 
 1246000    1.0500086   -7.5984267     366.8306  0.024533882  0.024665563            3 
 1247000    1.0775772   -7.5599218    368.32471  0.024614054  0.024658819            3 
 1248000    1.0667359   -7.6014448    367.88546  0.024565002  0.024652115            1 
 1249000    1.0802475   -7.5851503    368.00271  0.024553157  0.024645511            3 
 1250000    1.0586409    -7.618529    367.44519  0.024496346  0.024638855            5 
 1251000    1.0426423    -7.615359    368.05151  0.024517154  0.024632264            2 
 1252000    1.0371187   -7.6153492    366.97578  0.024425971  0.024625607            2 
 1253000    1.0593242   -7.5854158    368.63906  0.024517097  0.024618821            2 
 1254000    1.0244934   -7.5942283    368.66041  0.024498964  0.024612031            2 
 1255000    1.0386585   -7.6027938    369.05295  0.024505508  0.024605157            3 
 1256000    1.0477399   -7.5987899    368.25529  0.024433074  0.024598341            2 
 1257000    1.0311303   -7.6096732    368.99507   0.02446268  0.024591458            2 
 1258000     1.047858   -7.5965368    368.93076  0.024438975  0.024584541            2 
 1259000    1.0511121   -7.6105958    368.62903  0.024399592  0.024577632            3 
 1260000    1.0314019   -7.6215894    369.55828  0.024441685  0.024570776            2 
 1261000    1.0813307   -7.6399917    368.66472  0.024363251   0.02456385            2 
 1262000    1.0446217   -7.6072034    369.79285   0.02441844  0.024557067            5 
 1263000    1.0252669   -7.6035525    370.97104  0.024476844  0.024550261            2 
 1264000    1.0511689   -7.5952219    370.54993  0.024429716  0.024543423            2 
 1265000    1.0479127   -7.5919185    370.03153  0.024376254  0.024536501            4 
 1266000    1.0155565   -7.6161871    370.42606  0.024382969  0.024529591            5 
 1267000    1.0419876   -7.5882395    371.29501  0.024420877  0.024522694            3 
 1268000    1.0455623   -7.6145398    369.79034   0.02430273   0.02451567            2 
 1269000    1.0447913   -7.6293026    370.74322  0.024346153  0.024508577            1 
 1270000    1.0604417   -7.6208937    370.14005  0.024287405  0.024501662            2 
 1271000    1.0840362   -7.6277713    371.16447  0.024335462  0.024494744            2 
 1272000    1.0475478    -7.661887    371.33647  0.024327599  0.024487802            2 
 1273000    1.0423212   -7.6449904    371.09712   0.02429282   0.02448082            1 
 1274000    1.0562639   -7.6407492    372.03431  0.024335054  0.024473996            4 
 1275000    1.0570796   -7.6118662    373.40471  0.024405536  0.024467249            2 
 1276000    1.0680932   -7.6118189    372.19581  0.024307459  0.024460624            3 
 1277000    1.0664374   -7.6506098    371.72563  0.024257741  0.024453848            2 
 1278000    1.0513069    -7.655256    372.88359  0.024314266  0.024446943            2 
 1279000    1.0446288   -7.6141159    374.18768  0.024380224  0.024440388            3 
 1280000    1.0519859   -7.6483757    373.58862  0.024322176    0.0244338            4 
 1281000     1.040243   -7.6189679    374.32422  0.024351042  0.024427212            1 
 1282000    1.0495581   -7.5909519    375.51697  0.024409579  0.024420898            7 
 1283000    1.0286062   -7.6314723    374.71931  0.024338745  0.024414326            1 
 1284000     1.037338   -7.6475279    374.10688  0.024280041  0.024407621            1 
 1285000     1.033593   -7.6100849    374.57585   0.02429156  0.024400835            1 
 1286000    1.0156141   -7.6274538    375.07326  0.024304903  0.024394118            4 
 1287000    1.0610174   -7.6261234    376.64726  0.024387934    0.0243876            1 
 1288000    1.0459812   -7.6061752    375.71224  0.024308504  0.024381084            1 
 1289000    1.0258382   -7.6296604     376.4071  0.024334568  0.024374483            2 
 1290000    1.0318796   -7.6357351    375.59859  0.024263474  0.024367847            5 
 1291000    1.0342341   -7.6250657     375.4901  0.024237678  0.024361194            2 
 1292000    1.0538071   -7.6461625    376.51136  0.024284788  0.024354484            3 
 1293000    1.0349707   -7.6383839    376.41073  0.024259521  0.024347662            2 
 1294000    1.0676037   -7.6477842    376.29569  0.024233365  0.024340937            3 
 1295000    1.0500833   -7.6004814    375.91124  0.024189913  0.024334088            2 
 1296000    1.0450593   -7.5872807    375.51717  0.024145909  0.024327352            1 
 1297000    1.0386503   -7.6231715    376.57832  0.024195472  0.024320467            2 
 1298000    1.0660984   -7.6547567    375.47534  0.024106018  0.024313541            3 
 1299000    1.0377059    -7.624524     377.4185  0.024212118  0.024306606            1 
 1300000    1.0488076   -7.6299987    377.19074  0.024178893  0.024299659            1 
 1301000    1.0314823   -7.6600399    376.47618  0.024114539  0.024292772            2 
 1302000    1.0220285   -7.6354037    376.79999  0.024116743  0.024285798            4 
 1303000    1.0580365   -7.6478095    376.77223  0.024096459  0.024278908            4 
 1304000    1.0287933   -7.6543534    377.16452   0.02410305   0.02427186            2 
 1305000    1.0188872   -7.5912137    378.09164  0.024143783  0.024264949            2 
 1306000     1.041154   -7.5977986    378.25901  0.024135975  0.024258114            1 
 1307000    1.0543093   -7.6261933    377.51712  0.024070207  0.024251173            1 
 1308000    1.0228917    -7.648693    377.90618  0.024076591  0.024244089            3 
 1309000    1.0399932    -7.628737    379.07214  0.024132425   0.02423706            1 
 1310000    1.0628834   -7.6387351    378.08305  0.024051085  0.024230143            3 
 1311000    1.0480635    -7.664691    377.72819  0.024010183  0.024223072            2 
 1312000    1.0557321   -7.6316599    378.89622  0.024066071  0.024216042            1 
 1313000    1.0329953   -7.6986681    378.09678  0.023997003  0.024209024            2 
 1314000    1.0490006   -7.6156532    378.94664  0.024032638  0.024201977            1 
 1315000     1.061663    -7.665636    379.14627  0.024027013   0.02419497           12 
 1316000    1.0438388   -7.6327754     378.9109  0.023993851  0.024187897            2 
 1317000    1.0213612   -7.6597728    379.69939  0.024025525  0.024180881            2 
 1318000    1.0393706   -7.6572718    380.60501  0.024064556  0.024173881            1 
 1319000    1.0275947   -7.6495466    379.54325   0.02397923  0.024166865            4 
 1320000    1.0402565   -7.6295312    379.40032   0.02395204  0.024159833            2 
 1321000    1.0379251   -7.6098565    381.32837  0.024055537  0.024152895            4 
 1322000    1.0563174   -7.6544784    379.30067  0.023909523  0.024145849            1 
 1323000    1.0267075   -7.6206934    381.81463  0.024049801  0.024138665            4 
 1324000    1.0229015   -7.6431953    381.06599  0.023984516  0.024131596            2 
 1325000    1.0579942   -7.6450011    381.66747  0.024004244  0.024124406            1 
 1326000    1.0507479   -7.6673593    381.61864  0.023983072  0.024117344            3 
 1327000    1.0460329   -7.6610619    381.44963  0.023954385  0.024110408            2 
 1328000    1.0455915   -7.6747262    382.17419  0.023981814  0.024103361            3 
 1329000    1.0511463   -7.6574266    382.82501  0.024004578  0.024096363            3 
 1330000    1.0394065   -7.6180354    383.21074  0.024010698  0.024089494            4 
 1331000    1.0458935   -7.6850704    382.77505   0.02396538  0.024082531            1 
 1332000    1.0170036   -7.6320917    382.67641  0.023941217  0.024075748            1 
 1333000    1.0554258   -7.6264039    384.14813  0.024015262  0.024068983            2 
 1334000    1.0440469   -7.6384801    382.85302  0.023916356  0.024062096            1 
 1335000     1.035737   -7.6288677    383.05879  0.023911285  0.024055266            2 
 1336000    1.0548244    -7.624516    384.92444  0.024009758  0.024048468            1 
 1337000    1.0330685   -7.6389204    383.80065  0.023921756  0.024041448            2 
 1338000    1.0514602   -7.6655965    383.94405  0.023912808  0.024034524            3 
 1339000    1.0774566   -7.6293512    384.69394  0.023941619  0.024027617            3 
 1340000    1.0253702   -7.6480313    384.47556  0.023910171   0.02402074            3 
 1341000    1.0365209   -7.6752753    383.56402  0.023835696  0.024013815            3 
 1342000    1.0328446   -7.6567186    383.31864  0.023802698  0.024006823            2 
 1343000    1.0267217   -7.6672151    384.16725   0.02383763  0.023999739            2 
 1344000    1.0530367   -7.6818012    383.37285  0.023770638  0.023992808            2 
 1345000    1.0386288   -7.6576359    385.45509  0.023881976   0.02398593            2 
 1346000    1.0462275    -7.642401    384.71388  0.023818343  0.023979117            4 
 1347000    1.0348643   -7.6474467    385.06555  0.023822417  0.023972066            2 
 1348000    1.0365781   -7.6273508    386.09722  0.023868522  0.023965073            1 
 1349000    1.0415717   -7.6547244    384.88017  0.023775647  0.023958229            1 
 1350000    1.0359828   -7.6666976    386.36432  0.023849649   0.02395152            2 
 1351000    1.0114531   -7.6343113    386.54363  0.023843056  0.023944779            2 
 1352000    1.0699201   -7.6719431    386.24993  0.023807318   0.02393797            3 
 1353000    1.0215327   -7.6500638    386.59232  0.023810811  0.023931093            1 
 1354000    1.0352862   -7.6490914    386.97858  0.023816998  0.023924179            3 
 1355000    1.0236509   -7.6576385    387.88941  0.023855437  0.023917341            3 
 1356000    1.0383817   -7.6405286    387.46248  0.023811608    0.0239106            1 
 1357000    1.0313181   -7.6706478    388.31511   0.02384642   0.02390378            3 
 1358000    1.0451472   -7.6416507    387.98133  0.023808378  0.023897074            4 
 1359000    1.0477957   -7.6563985    387.60218   0.02376761   0.02389043            1 
 1360000    1.0317235   -7.6415454     388.8396  0.023825956  0.023883729            3 
 1361000    1.0384751   -7.6784459    388.32216  0.023776767  0.023877022            1 
 1362000    1.0078405   -7.6741231    388.85263  0.023791767  0.023870243            2 
 1363000    1.0465816   -7.6555768    389.49173  0.023813385  0.023863628            2 
 1364000     1.040499   -7.6490847    390.60996  0.023864245  0.023857141            2 
 1365000    1.0281603   -7.6623185    389.91926  0.023804595  0.023850707            1 
 1366000    1.0385798   -7.6715475    389.49507   0.02376129  0.023844263            5 
 1367000    1.0405054   -7.6485407    390.75483  0.023820704    0.0238378            2 
 1368000    1.0175175   -7.6758023    390.95851  0.023815699  0.023831262            1 
 1369000    1.0375983   -7.6726498    390.77788  0.023787307  0.023824797            1 
 1370000    1.0381503   -7.6681236    391.94396  0.023840874  0.023818347            1 
 1371000    1.0260302   -7.6833069    390.47267  0.023734055  0.023811836            1 
 1372000    1.0340614   -7.6625701    391.65106  0.023788329  0.023805322            2 
 1373000    1.0522068   -7.6691198    392.46225  0.023820239  0.023798897            1 
 1374000    1.0573026   -7.6725762    391.87327   0.02376718  0.023792407            1 
 1375000    1.0359398   -7.6567239    392.79115  0.023805524   0.02378603            3 
 1376000    1.0361431   -7.6662958    392.07102  0.023744611  0.023779639            2 
 1377000     1.001682   -7.6963578    391.37342   0.02368515  0.023773061            2 
 1378000     1.021564    -7.711553      390.171  0.023595247  0.023766451            2 
 1379000    1.0461182   -7.6492718    392.94563  0.023745808  0.023759886            2 
 1380000    1.0254125   -7.6334612    393.38242  0.023754977  0.023753335            5 
 1381000    1.0103411   -7.6765568    392.30508  0.023672766  0.023746754            4 
 1382000    1.0311275   -7.7259461    392.84918  0.023688445  0.023740073            2 
 1383000    1.0495509   -7.6649516    393.13274  0.023688403  0.023733492            2 
 1384000    1.0303369   -7.6606027    393.04894  0.023666242  0.023726959            1 
 1385000    1.0232804   -7.6873752    394.50307  0.023736647  0.023720521            4 
 1386000    1.0021717   -7.6982033    392.83927  0.023619485    0.0237139            1 
 1387000    1.0226723   -7.7025785    393.55065  0.023645196  0.023707311            2 
 1388000    1.0317748   -7.6508898    395.23392  0.023729222  0.023700737            1 
 1389000    1.0357049   -7.6380546    394.62969  0.023675888  0.023694258            2 
 1390000    1.0294978   -7.6669047    393.46247  0.023588877  0.023687706            2 
 1391000    1.0194914   -7.6904748    392.92429  0.023539677  0.023681098            2 
 1392000    1.0343872   -7.7003904     394.8369  0.023637267  0.023674374            2 
 1393000     1.035438   -7.6603757    393.67782  0.023550959  0.023667692            3 
 1394000    1.0353075   -7.6370675    396.43633  0.023698967  0.023661075            2 
 1395000    1.0246701     -7.64115    394.94944  0.023593157  0.023654527            1 
 1396000   0.99688565   -7.6578837    395.56967   0.02361328   0.02364804            3 
 1397000    1.0241632    -7.690988    395.60918  0.023598734  0.023641432            2 
 1398000    1.0158243   -7.6998651     395.4172   0.02357041   0.02363482            3 
 1399000    1.0188265    -7.671957    396.43576  0.023614234  0.023628266            3 
 1400000    1.0263204    -7.675882    395.65377   0.02355082  0.023621735            2 
 1401000    1.0140169   -7.6610586     397.6267  0.023651362  0.023615233            3 
 1402000    1.0393597   -7.6377389    397.36151   0.02361873  0.023608912            2 
 1403000    1.0044242   -7.6733774    397.17751  0.023590967  0.023602561            1 
 1404000    1.0261673   -7.6800069    396.75528  0.023549103  0.023596146            1 
 1405000    1.0364551   -7.6389836    398.21299  0.023618801  0.023589808            5 
 1406000    0.9918996   -7.6770788    397.61208  0.023566387  0.023583463            2 
 1407000    1.0280123    -7.669065    397.81659   0.02356175  0.023577089            2 
 1408000    1.0204901   -7.6930154    397.39078  0.023519814  0.023570784            1 
 1409000    1.0267888   -7.7148169    396.17652  0.023431306  0.023564318            2 
 1410000    1.0192495   -7.7000774    397.51432  0.023493754  0.023557887            2 
 1411000    1.0220221   -7.6436936    400.23684  0.023637895  0.023551659            9 
 1412000    1.0127973   -7.6830923    398.50187   0.02351876  0.023545506            2 
 1413000    1.0148244   -7.6597255    398.90206  0.023525717  0.023539231            2 
 1414000    1.0387971   -7.6750398    399.86576  0.023565874  0.023533098            3 
 1415000    1.0098671   -7.6773458    401.08524  0.023621039  0.023526871            6 
 1416000    1.0230923   -7.7012377    400.18725   0.02355151  0.023520504            4 
 1417000    1.0304796   -7.6849337    399.91496  0.023518876  0.023514129            1 
 1418000    1.0333799   -7.6907675    400.55654  0.023539994  0.023507851            3 
 1419000    1.0320985   -7.6756671    401.82545  0.023597924  0.023501603            2 
 1420000   0.99580907   -7.6814485    401.09596  0.023538495  0.023495424            5 
 1421000    1.0193155    -7.716179    401.67539  0.023555911  0.023489243            4 
 1422000    1.0236347   -7.6706506    401.56831   0.02353307  0.023483114            1 
 1423000    1.0591613   -7.6733078    401.82281  0.023531437  0.023477132            1 
 1424000    1.0070617   -7.7104687    400.81893  0.023456164  0.023470829            1 
 1425000    1.0127787   -7.7348741     399.9953  0.023391538  0.023464405            4 
 1426000    1.0298351   -7.7094953    400.60134  0.023410551  0.023457963            4 
 1427000    1.0189976   -7.6829287    401.52614  0.023448151   0.02345175            1 
 1428000    1.0160928   -7.7203503    402.86077  0.023509615  0.023445458            3 
 1429000    1.0371185    -7.688564     402.1234  0.023450163  0.023439244            1 
 1430000    1.0261578   -7.7089677     401.3083  0.023386265  0.023432952            1 
 1431000    1.0396607   -7.7438835    401.36813  0.023373406   0.02342662            4 
 1432000    1.0198815   -7.7099169    401.74817    0.0233792   0.02342029            2 
 1433000    1.0187648   -7.6733112    403.11623  0.023442442  0.023414036            2 
 1434000    1.0238616   -7.7408983    402.14207  0.023369483  0.023407669            3 
 1435000    1.0145371    -7.689629    403.16793  0.023412772  0.023401372            1 
 1436000    1.0357877   -7.6720989      403.389  0.023409297  0.023395149            2 
 1437000    1.0281589   -7.7026438    403.07418   0.02337475  0.023388981            2 
 1438000    1.0251979    -7.634462    405.02932  0.023471796  0.023382808            2 
 1439000    1.0342746   -7.7064205    403.53979  0.023369226  0.023376659            2 
 1440000    1.0437267   -7.6860444    403.54416   0.02335325  0.023370493            3 
 1441000    1.0403138   -7.6846832    403.49911  0.023334438    0.0233643            2 
 1442000    1.0161824   -7.6805414    404.35473  0.023367703  0.023357875            3 
 1443000    1.0352841    -7.710213    402.55613   0.02324764  0.023351544            3 
 1444000    1.0226778    -7.670955    405.75286  0.023416024  0.023345194            2 
 1445000    1.0214317   -7.6918512     404.2538  0.023313368  0.023338829            1 
 1446000   0.99621043   -7.7364784    403.06002  0.023228448  0.023332392            2 
 1447000      1.00617   -7.6786113    403.92931  0.023262457  0.023325822            1 
 1448000    1.0137021      -7.7012    403.39292  0.023215522  0.023319322            1 
 1449000    1.0322156   -7.6946441    403.34916  0.023196984  0.023312741            2 
 1450000    1.0128457    -7.684231    404.90299  0.023270287  0.023306094            4 
 1451000     1.036018   -7.7313168    405.06164  0.023263361  0.023299505            2 
 1452000    1.0166226   -7.6749749     404.8696  0.023236318   0.02329284            3 
 1453000    1.0219418   -7.7415964    404.24994  0.023184787  0.023286201            5 
 1454000    1.0332081   -7.6962524    405.88654   0.02326264  0.023279564            2 
 1455000     1.020249   -7.7203368    405.39476  0.023218485  0.023272941            5 
 1456000    1.0022477   -7.7184251    406.17961   0.02324746  0.023266428            2 
 1457000    1.0225674    -7.688398    407.59158  0.023312262  0.023259846            2 
 1458000     1.026417   -7.6954571    406.49302  0.023233483  0.023253219            1 
 1459000    1.0032856   -7.7280538    406.28024  0.023205406  0.023246748            1 
 1460000    1.0303463   -7.7074121    406.52247  0.023203337  0.023240226            2 
 1461000    1.0158018   -7.6880015    406.26119  0.023172553  0.023233679            3 
 1462000     1.017619   -7.6886249    406.88166  0.023192069  0.023227156            2 
 1463000    1.0178901   -7.6972343    406.51212  0.023155167  0.023220699            3 
 1464000    1.0320489   -7.6657958    406.78053   0.02315463  0.023214276            3 
 1465000    1.0154886   -7.7210825    407.11416  0.023157802  0.023207715            2 
 1466000    1.0348478   -7.6806742    407.07397  0.023139721  0.023201171            2 
 1467000   0.99875474   -7.7195641    407.22822   0.02313271  0.023194487            3 
 1468000    1.0392311   -7.7228093    407.24683  0.023118008  0.023187806            2 
 1469000    1.0295208   -7.7253805    407.03059  0.023090004  0.023181052            3 
 1470000    1.0049583   -7.7165938    408.06725  0.023133064  0.023174281            4 
 1471000    1.0084074   -7.7031706    408.06778  0.023117368  0.023167656            2 
 1472000    1.0121897   -7.7225126     407.9172  0.023093138  0.023161077            3 
 1473000     1.024558   -7.6962475    409.22832  0.023151636  0.023154564            2 
 1474000    1.0270764   -7.6708998    408.74765  0.023108755  0.023148056            3 
 1475000    1.0147222   -7.6865666    408.34658  0.023070428  0.023141566            1 
 1476000    1.0117512   -7.6780835    409.68336  0.023130271  0.023135097            3 
 1477000    1.0038915   -7.7273214    407.98104  0.023018565  0.023128558            3 
 1478000    1.0435091   -7.7334816    408.50876  0.023032745  0.023121838            2 
 1479000    1.0149962    -7.760092    408.28231  0.023004412  0.023115027            2 
 1480000    1.0241523   -7.6848274    408.19065  0.022983708  0.023108337            2 
 1481000   0.99822849   -7.7268775    408.64425  0.022993712  0.023101604            2 
 1482000    1.0165822   -7.7042874    409.16223  0.023007323  0.023094839            1 
 1483000    1.0009014   -7.7382523    409.72724  0.023023558  0.023088177            1 
 1484000    1.0277511   -7.7228912    409.44139  0.022991992  0.023081427            3 
 1485000    1.0100962   -7.7099996    410.31044  0.023025277  0.023074842            2 
 1486000     1.010043   -7.6969449    410.36506  0.023012845  0.023068138            3 
 1487000    1.0102925   -7.6909172    409.99046  0.022976376  0.023061451            1 
 1488000   0.99878776   -7.6988503    411.15904   0.02302638  0.023054756            3 
 1489000    1.0074756   -7.7386328    409.99075  0.022945531  0.023048049            2 
 1490000    1.0073543   -7.7134174    411.36388  0.023006929  0.023041337            2 
 1491000    1.0271292   -7.7176161    411.22337  0.022983645  0.023034671            2 
 1492000    1.0128439   -7.7479805    411.16702  0.022965093  0.023027958            2 
 1493000     1.023877   -7.7224206    410.79049  0.022928694  0.023021264            1 
 1494000    1.0138621   -7.6852153    412.32359  0.022998861  0.023014565            2 
 1495000    1.0185592   -7.6902839    411.68261  0.022947749  0.023007877            2 
 1496000   0.99897649   -7.6918517    411.99016  0.022949541  0.023001167            3 
 1497000    1.0210338   -7.7054319    411.27285   0.02289428  0.022994501            2 
 1498000    1.0260885   -7.7193541    412.38662  0.022940956  0.022987759            2 
 1499000    1.0201892   -7.7560264    411.06447  0.022852149  0.022980958            5 
 1500000    1.0127986   -7.7256468     410.8479  0.022824884  0.022974142            2 
 1501000    1.0056406   -7.6936808    412.18795  0.022884075  0.022967416            2 
 1502000    1.0160311   -7.6983065    413.70181   0.02295283  0.022960755            2 
 1503000    1.0213235   -7.7154445    412.25016  0.022857072  0.022954062            2 
 1504000   0.98126895   -7.7628391    413.04854  0.022886112  0.022947308            2 
 1505000   0.99965689    -7.708716    412.80196  0.022857252  0.022940688            6 
 1506000    1.0266457   -7.7383271    413.24939  0.022866832  0.022933979            1 
 1507000    1.0294157   -7.7410481    414.17833  0.022903026  0.022927326            3 
 1508000    1.0233465   -7.7312917    412.45543   0.02279263  0.022920632            1 
 1509000    1.0003915   -7.7140348    413.82393    0.0228531  0.022913919            2 
 1510000    1.0330549   -7.7201403    414.48168  0.022874265  0.022907206            2 
 1511000    1.0025336   -7.7473883    413.96588  0.022830679  0.022900489            4 
 1512000    1.0045261    -7.747877     413.4998  0.022789892  0.022893812            2 
 1513000    1.0110132   -7.7403342    413.57253  0.022778835  0.022887069            2 
 1514000    1.0082035   -7.7522069    413.23158  0.022745023  0.022880164            2 
 1515000    1.0015718   -7.7441803    413.55677  0.022747897   0.02287344            1 
 1516000     1.018978   -7.7296005    414.43723   0.02278129  0.022866666            2 
 1517000    1.0069818   -7.7281429    415.16598  0.022806305  0.022859959            2 
 1518000    1.0315138   -7.7530643    413.01286  0.022673082  0.022853147            1 
 1519000    1.0131696   -7.7238336    414.91232  0.022762361  0.022846446            3 
 1520000    1.0358052   -7.7515009     415.0829  0.022756738  0.022839743            3 
 1521000   0.98148116   -7.7319451    414.89883  0.022731691  0.022832935            2 
 1522000    1.0149902   -7.7729738    414.98237   0.02272133  0.022826191            3 
 1523000   0.99746394   -7.7124368    415.14612  0.022715371  0.022819421            3 
 1524000    1.0065401   -7.7821493    414.31673  0.022655114   0.02281264            1 
 1525000   0.99085287   -7.7310928     414.7623  0.022664607   0.02280578            2 
 1526000    1.0165236   -7.7213105    416.55351  0.022747571  0.022798968            6 
 1527000   0.99936828   -7.7185243    415.40591  0.022670045   0.02279211            4 
 1528000     1.004068   -7.7439799    416.21114  0.022699124  0.022785227            1 
 1529000    1.0054809   -7.7275266    415.36687  0.022638264  0.022778328            2 
 1530000     1.010665   -7.7237335    416.15781  0.022666547  0.022771474            1 
 1531000    1.0130661   -7.7431716    415.86782  0.022635958  0.022764708            3 
 1532000   0.99608645    -7.766286    415.34796  0.022592905  0.022757815            2 
 1533000   0.98344143   -7.7307963    416.68658  0.022650934  0.022750926            1 
 1534000   0.99231607   -7.7487158    416.29522  0.022614908  0.022744097            1 
 1535000    1.0213262   -7.7392807    416.37615  0.022604568  0.022737142            2 
 1536000   0.99770268   -7.7358755    417.32123  0.022641126  0.022730295            3 
 1537000    0.9930022   -7.7322267    417.92721   0.02265925  0.022723519            2 
 1538000    1.0124386   -7.7371361    417.77755  0.022636408  0.022716784            1 
 1539000   0.97622169   -7.6750557    419.03199  0.022689625  0.022710154            1 
 1540000    1.0178569   -7.7330147    418.39944  0.022640662  0.022703451            3 
 1541000     1.010726   -7.7237955    418.05084  0.022607119  0.022696665            3 
 1542000   0.97641553   -7.7452929    418.77024  0.022631336  0.022689894            1 
 1543000    1.0009034   -7.7431119    418.46318  0.022600085  0.022683083            3 
 1544000    1.0068248    -7.747768    417.95222   0.02255787  0.022676263            2 
 1545000    1.0154643   -7.7252519    418.21611  0.022557503  0.022669403            1 
 1546000    1.0218813   -7.7640576    416.85826  0.022469721   0.02266264            3 
 1547000   0.99653515    -7.709056    418.66053   0.02255228  0.022655762            3 
 1548000    1.0131613   -7.7598179    419.34353  0.022574479  0.022648902            2 
 1549000    1.0071879   -7.7499924    418.66756   0.02252354  0.022642063            4 
 1550000   0.98144327   -7.7492368    419.13369  0.022534069  0.022635274            1 
 1551000    1.0060397   -7.7361164    419.53873  0.022541303  0.022628491            2 
 1552000    1.0118843   -7.7448706    419.88477  0.022545359  0.022621749            2 
 1553000    1.0110847   -7.7485122    419.69591  0.022520708  0.022614959            2 
 1554000    1.0038764   -7.7472976     419.8814  0.022516162  0.022608188            2 
 1555000   0.99591404   -7.7170426    419.85296  0.022500159  0.022601465            3 
 1556000    1.0072492   -7.7305439     421.2528  0.022560669  0.022594715            1 
 1557000    1.0231627    -7.766394    419.08299  0.022430047  0.022587912            2 
 1558000    1.0225897   -7.7568459    420.02045  0.022465792  0.022581034            2 
 1559000   0.99566365    -7.752782    419.98224  0.022449339  0.022574139            1 
 1560000   0.98456576   -7.7562627    420.07252  0.022439771  0.022567224            3 
 1561000    1.0183358   -7.7577652    420.08653  0.022426144  0.022560282            1 
 1562000    1.0071417   -7.7362596    421.16156   0.02246914  0.022553496            2 
 1563000    1.0121944    -7.767294    420.52183  0.022420656   0.02254665            1 
 1564000    1.0000211   -7.8087843    420.41989  0.022400889  0.022539715            3 
 1565000    1.0119426   -7.7415707    421.29885  0.022433379  0.022532853            5 
 1566000   0.99909737   -7.7336759    421.67816  0.022439238  0.022526055            2 
 1567000    1.0104596   -7.6983498    421.94635   0.02243918  0.022519186            6 
 1568000   0.98265956   -7.6943172    423.45321  0.022504954  0.022512506            2 
 1569000   0.99689498   -7.7326406    423.34989  0.022485123  0.022505794            3 
 1570000   0.98899057   -7.7620626    421.07949  0.022350291   0.02249898            2 
 1571000    1.0158303   -7.7645331     423.4487  0.022461739  0.022492117            5 
 1572000   0.98857079   -7.7810534     422.2019  0.022381356  0.022485319            2 
 1573000    1.0063606   -7.7686865    422.28995  0.022371792  0.022478462            2 
 1574000    1.0118895   -7.7761865    423.09509  0.022400206  0.022471536            1 
 1575000    1.0071292   -7.7055923    423.53853  0.022409446  0.022464742            3 
 1576000    1.0110844   -7.6893698    423.34158  0.022384813  0.022457981            2 
 1577000    1.0150675   -7.7637261    423.12227  0.022359029  0.022451255            2 
 1578000   0.98778957   -7.7636147    422.58357  0.022316411  0.022444457            1 
 1579000   0.99496057    -7.750138    423.82411  0.022367749  0.022437698            1 
 1580000   0.99076187   -7.7264708    423.52422  0.022337775    0.0224309            2 
 1581000   0.98076811   -7.7598984    423.11003  0.022301815  0.022424115            2 
 1582000     1.000351   -7.7369405    423.97258  0.022333153   0.02241717            2 
 1583000   0.99178133   -7.7661411    423.74733  0.022307187  0.022410357            2 
 1584000   0.99833021   -7.7722245    423.56947  0.022283747  0.022403475            2 
 1585000   0.98347402   -7.7517333    424.37807  0.022312201   0.02239662            4 
 1586000    1.0145919    -7.781808    424.47879  0.022303425  0.022389761            3 
 1587000    1.0057232   -7.7448648    424.73945  0.022303059  0.022382946            2 
 1588000    1.0019035   -7.7730195    424.72045  0.022288017  0.022376077            2 
 1589000    1.0100706   -7.7592361    424.26663  0.022250191  0.022369248            1 
 1590000    1.0071941   -7.7629146    424.27094  0.022236423  0.022362404            2 
 1591000    1.0127839   -7.7836376    424.34119  0.022226126  0.022355477            1 
 1592000   0.99038905   -7.7511747    424.73931  0.022233004  0.022348583            4 
 1593000    1.0146761   -7.7539091    425.31526  0.022249176  0.022341716            2 
 1594000    1.0053743   -7.7852125    425.98087  0.022270016  0.022334923            1 
 1595000   0.97754387   -7.7507219    425.39113  0.022225242  0.022328141            4 
 1596000   0.98176973   -7.7351733    425.75625  0.022230381  0.022321333            1 
 1597000   0.99839818   -7.7778353    425.31561  0.022193467    0.0223144            2 
 1598000    1.0036742   -7.7468139    425.46277  0.022187253  0.022307597            4 
 1599000    1.0028207   -7.7600924     426.2582  0.022214832  0.022300763            2 
 1600000   0.99536882   -7.7218867    425.21044  0.022146377  0.022293911            3 
 1601000    1.0134037   -7.7575885    426.31374  0.022189972  0.022286981            1 
 1602000   0.99275437   -7.7750171    426.34564   0.02217778   0.02228015            2 
 1603000    1.0300008   -7.7440239    426.45195  0.022169471  0.022273274            2 
 1604000   0.98706424   -7.7655376    425.04517  0.022082563  0.022266348            2 
 1605000   0.98222269   -7.8234549    424.51099  0.022041069  0.022259437            2 
 1606000    1.0132899   -7.7590401    426.51518   0.02213134  0.022252508            2 
 1607000    1.0018591   -7.7482743    426.84841  0.022134848  0.022245693            2 
 1608000   0.98121972   -7.7842885    426.81913  0.022119565  0.022238906            2 
 1609000   0.99352255   -7.8183272     427.5793  0.022145189  0.022232072            2 
 1610000   0.98272934   -7.7966924    426.62797  0.022082193  0.022225237            1 
 1611000   0.95811191    -7.776096     427.9819  0.022138521  0.022218391            2 
 1612000    1.0106928   -7.7631757     427.9563  0.022123464  0.022211612            3 
 1613000   0.99050248   -7.7633992    429.44719  0.022186774  0.022204926            3 
 1614000   0.98338284   -7.7465027    429.32703  0.022166823  0.022198217            1 
 1615000   0.99915118   -7.7753672    428.32479  0.022101383  0.022191553            2 
 1616000    1.0177138   -7.7495503    428.71804  0.022107985   0.02218491            2 
 1617000   0.98188219   -7.7826505    428.60599  0.022088538  0.022178227            3 
 1618000     1.000148   -7.7547202    430.21107  0.022157554  0.022171573            4 
 1619000   0.99623323   -7.7807765    428.50831  0.022056223  0.022164973            4 
 1620000   0.97106918    -7.780933    429.89547  0.022113965  0.022158314            1 
 1621000    1.0066335   -7.7609871     430.0968  0.022110672  0.022151642            3 
 1622000   0.99058934   -7.7643161    430.50277  0.022117898  0.022145024            1 
 1623000   0.99909284   -7.7774596    430.89859  0.022124594   0.02213839            1 
 1624000    0.9919978   -7.7518839    430.46525  0.022088734  0.022131745            4 
 1625000   0.99424209   -7.7631637    431.53048  0.022129768  0.022125069            2 
 1626000    1.0117447   -7.7547353     430.0717  0.022041395  0.022118412            3 
 1627000    1.0075431   -7.7952195    430.40774   0.02204506  0.022111785            1 
 1628000   0.99082826   -7.7699146    430.85462  0.022054393  0.022105188            5 
 1629000   0.97580854   -7.7427829    430.99657  0.022048116  0.022098655            2 
 1630000   0.98824269   -7.7016114    433.26133  0.022150375  0.022092143            2 
 1631000    1.0033983   -7.7400611     432.0859  0.022076737  0.022085631            1 
 1632000   0.99191419   -7.7647639    432.06004  0.022061889  0.022079165            1 
 1633000    1.0104042   -7.7889941    432.18072  0.022054538  0.022072668            3 
 1634000    1.0054728   -7.7831559    432.73288  0.022069201   0.02206623            2 
 1635000    0.9852093    -7.759429    433.06126  0.022072439  0.022059711            2 
 1636000   0.99280206   -7.8035263    431.56389  0.021982676   0.02205313            1 
 1637000   0.97416533    -7.786722    432.01337  0.021992128   0.02204652            3 
 1638000    0.9840082   -7.7986376    432.52153  0.022004555  0.022039838            1 
 1639000    1.0041699   -7.7938396     431.8773  0.021958374  0.022033251            2 
 1640000   0.97412047   -7.7952581    432.72412  0.021988014  0.022026639            5 
 1641000    1.0050668   -7.7867489    432.75377  0.021976121  0.022020071            2 
 1642000   0.99204046   -7.7738569    434.32234  0.022042344  0.022013636            4 
 1643000     0.993066   -7.7982572    434.14085  0.022019722  0.022007218            2 
 1644000   0.98400386   -7.8032344    434.73591  0.022036492  0.022000701            1 
 1645000   0.98646227    -7.794045      433.514  0.021961196  0.021994194            1 
 1646000   0.98566534   -7.7379878    433.25454  0.021934717  0.021987665            2 
 1647000   0.99070757    -7.773742    434.44185  0.021981474  0.021981195            2 
 1648000   0.98994095   -7.7684974    434.84061    0.0219883  0.021974834            1 
 1649000     1.000747   -7.7431324    434.97238  0.021981624  0.021968379            4 
 1650000    0.9853839   -7.8179931    434.42564  0.021940689  0.021961937            3 
 1651000   0.98002289   -7.7762255    435.85142  0.021999365  0.021955526            2 
 1652000   0.99000376   -7.7709061    435.09219   0.02194775  0.021949136            1 
 1653000    1.0269111   -7.7551281    435.67049  0.021963626  0.021942799            3 
 1654000   0.98867761   -7.8171484    435.11627  0.021922424  0.021936403            3 
 1655000    1.0010783   -7.7688865    435.84929  0.021946087  0.021929979           12 
 1656000   0.97844652   -7.7951219    435.89464  0.021935117  0.021923573           13 
 1657000   0.99833161   -7.7996506    437.13356  0.021984186  0.021917266            3 
 1658000   0.98743971   -7.7780724    436.89045  0.021958708  0.021910961            1 
 1659000   0.98734235   -7.7989304     437.8173  0.021992028  0.021904692            2 
 1660000   0.97803454   -7.7864521    437.53388  0.021964552    0.0218985            1 
 1661000    1.0049127   -7.8148394    436.58506  0.021903726  0.021892226            2 
 1662000    1.0000519   -7.7953421    439.09023  0.022016157  0.021886017            2 
 1663000   0.97804066   -7.7581854    438.24563  0.021960595  0.021879864            2 
 1664000     1.002601   -7.8174623    437.82191  0.021926178  0.021873633            2 
 1665000    1.0055267   -7.7700756    438.30215  0.021937045  0.021867377            2 
 1666000   0.98683466    -7.812531     438.7953  0.021948544   0.02186107            3 
 1667000   0.97193852   -7.8084044    438.17751  0.021904495  0.021854768            2 
 1668000   0.99793252   -7.7695334    438.38838  0.021901897  0.021848461            3 
 1669000   0.97897032   -7.7916827    439.01208  0.021919916  0.021842186            2 
 1670000    0.9725995   -7.8200947    438.43979  0.021878233  0.021835914            3 
 1671000   0.98882078   -7.7844956    439.01832  0.021893991  0.021829654            2 
 1672000   0.96672914   -7.7869094    439.39947  0.021899894  0.021823422            4 
 1673000   0.99656843   -7.8027649      439.175  0.021875622   0.02181718            4 
 1674000   0.97292323   -7.8011217    439.44806  0.021876148  0.021810844            1 
 1675000   0.96743891   -7.8421091    438.58685  0.021820241  0.021804559            3 
 1676000   0.97961782   -7.7993173    439.08308  0.021831895  0.021798267            5 
 1677000   0.98398336   -7.7584591    440.25744  0.021877233  0.021792098            2 
 1678000   0.98885718   -7.7858678    439.74408  0.021838701  0.021785932            3 
 1679000   0.99423304   -7.8205555    439.69757  0.021823385  0.021779771            1 
 1680000   0.99040927   -7.8000503    439.92844  0.021821847  0.021773542            3 
 1681000   0.99985663   -7.7602432    441.78367  0.021900836  0.021767416            3 
 1682000   0.97974616   -7.7891179    440.58416  0.021828387  0.021761295            4 
 1683000    0.9731575   -7.8222073     440.6669  0.021819514  0.021755063            4 
 1684000   0.99141002    -7.792474    441.09042  0.021827515  0.021748926            2 
 1685000   0.97110002    -7.789505    442.08288  0.021863644  0.021742789            3 
 1686000   0.98984903   -7.8625688    439.52869  0.021724431  0.021736635            1 
 1687000   0.99702877   -7.8226348    440.88062  0.021778335  0.021730444            2 
 1688000   0.99101423   -7.7921568    443.47311   0.02189342   0.02172426            1 
 1689000   0.98439803   -7.7812377    442.17896  0.021816605  0.021718086            1 
 1690000   0.96677073   -7.8150891    441.61524  0.021775899   0.02171194            4 
 1691000   0.99699009   -7.8109433    442.36784   0.02180011  0.021705784            3 
 1692000   0.99538917   -7.7968295    442.69946  0.021803559  0.021699655            2 
 1693000   0.98201963    -7.742981    443.05023  0.021807946  0.021693574            2 
 1694000   0.96991431   -7.8128075    442.81863  0.021783679  0.021687481            2 
 1695000   0.97806028   -7.7769689     444.4079  0.021848963  0.021681362            3 
 1696000   0.98435151   -7.8517675    442.55943  0.021745255  0.021675127            6 
 1697000   0.97701883   -7.8352374    441.60903   0.02168577  0.021668887            1 
 1698000    0.9825414   -7.8022199    443.52842  0.021767198  0.021662676            3 
 1699000   0.97790414   -7.8336163     442.8774  0.021722455  0.021656431            1 
 1700000   0.98496812   -7.8097986    443.20249  0.021725612  0.021650183            3 
 1701000   0.99923134   -7.8463628    443.89653  0.021746842   0.02164396            3 
 1702000   0.98742615   -7.8241164    443.47883  0.021713613  0.021637715            2 
 1703000   0.97928573   -7.7913137    443.68432  0.021710918  0.021631468            2 
 1704000   0.96616888   -7.8024536    442.45821  0.021638214  0.021625242            3 
 1705000   0.97531525   -7.8131946    443.39083  0.021671106  0.021618974            5 
 1706000   0.96813285   -7.8199042    442.72542    0.0216259  0.021612598            2 
 1707000   0.98665491   -7.8336807    443.91867  0.021671484  0.021606177            3 
 1708000   0.96229276   -7.7839141    443.81218    0.0216536  0.021599761            1 
 1709000   0.97480711    -7.795077    441.84586  0.021545049  0.021593438            2 
 1710000   0.96948638   -7.8028014    443.46772  0.021611487  0.021587052            1 
 1711000   0.98430536   -7.8044292    443.26954  0.021589204  0.021580574            2 
 1712000   0.97824576    -7.766987     445.1576  0.021668497  0.021574155            5 
 1713000   0.97973245   -7.7976615    444.00084  0.021599574  0.021567749            2 
 1714000   0.99980162   -7.7603705    444.97052  0.021634117  0.021561328            6 
 1715000     1.004459   -7.8287899    443.16818  0.021533925  0.021554942            2 
 1716000   0.99445041   -7.8242461    443.19292  0.021522578  0.021548503            2 
 1717000   0.97966519   -7.8343007    444.36135  0.021566751  0.021542163            2 
 1718000   0.96791188   -7.8596025    444.68303  0.021569802  0.021535852            3 
 1719000   0.98294996   -7.8268837    444.91605   0.02156855  0.021529463            3 
 1720000    0.9654148   -7.8575781    444.46186  0.021534005   0.02152304            4 
 1721000   0.97861785   -7.8756255    443.32506  0.021466447  0.021516545            3 
 1722000   0.96973447   -7.8307544    445.02903  0.021536442  0.021510062            5 
 1723000   0.97735442   -7.8057072    444.92472  0.021518897  0.021503659            3 
 1724000   0.95648389   -7.8013368    446.37514  0.021576524  0.021497218            2 
 1725000    0.9879869   -7.8032847     444.0431  0.021451358  0.021490832            3 
 1726000   0.96165851    -7.814416    445.70353  0.021519096  0.021484466            2 
 1727000   0.98270555   -7.8119919    445.52804  0.021498168  0.021478122            2 
 1728000   0.97584677   -7.8080954    446.07498  0.021512104  0.021471772            2 
 1729000   0.98121923   -7.8278744    445.37363  0.021465859  0.021465436            4 
 1730000    0.9561138   -7.8278513    447.17326  0.021540138  0.021459009            1 
 1731000    0.9667039   -7.7993551    446.05575  0.021473895  0.021452515            1 
 1732000   0.98227826   -7.8322338    445.89279  0.021453656  0.021446047            7 
 1733000   0.98574373   -7.8297415    445.08417  0.021402393  0.021439574            4 
 1734000   0.97443856   -7.7958089    446.56824  0.021461373  0.021433128            3 
 1735000   0.99529149   -7.8081885    446.69485  0.021455084  0.021426712            2 
 1736000   0.97805033   -7.7989096     446.3591  0.021426608  0.021420242            2 
 1737000   0.97935579   -7.8384508     447.1193  0.021450744  0.021413722            3 
 1738000   0.96042995   -7.8395674    445.84226   0.02137717  0.021407256            2 
 1739000   0.97854044   -7.7957983    446.86053  0.021413673  0.021400781            4 
 1740000   0.98320041   -7.8130876    445.99867  0.021360089  0.021394329            2 
 1741000    0.9919595   -7.8444375    446.64863  0.021378931  0.021387869            2 
 1742000   0.99257962   -7.8332752    446.79954  0.021373878    0.0213814            6 
 1743000   0.98594882    -7.794045    447.82007  0.021410407  0.021374958            6 
 1744000   0.95274425   -7.7989965    447.85029  0.021399574  0.021368545            2 
 1745000   0.95159602   -7.8014541    446.72754  0.021333693  0.021362058            2 
 1746000   0.96039459   -7.8062313    448.54563  0.021408249  0.021355635            2 
 1747000   0.97484724   -7.8329638    447.28454   0.02133584  0.021349194            2 
 1748000   0.97275896   -7.8446193    447.45059   0.02133155  0.021342717            2 
 1749000   0.95849592   -7.8318924    448.47793  0.021368303  0.021336331            1 
 1750000   0.94718382   -7.8093368    448.93427  0.021377822  0.021329923            2 
 1751000   0.98399031   -7.8339629    448.34451  0.021337546  0.021323512            2 
 1752000   0.95776114   -7.8222827    446.97413  0.021260185  0.021317097            5 
 1753000   0.97088103   -7.8396491    447.68074  0.021281647  0.021310723            2 
 1754000   0.96260026   -7.8289462    448.87402  0.021326208   0.02130434            1 
 1755000    0.9620102   -7.8482409    449.52871  0.021345143   0.02129797            2 
 1756000   0.96636435   -7.8495061    447.92393   0.02125683  0.021291514            3 
 1757000   0.96542247   -7.7777661    448.93421  0.021292649  0.021285126            3 
 1758000   0.97001508   -7.8416319    448.34559  0.021252635  0.021278705            3 
 1759000   0.95947093   -7.8492599     449.2395  0.021282902  0.021272324            2 
 1760000    0.9580606   -7.8170867     448.7289  0.021246634  0.021265948            3 
 1761000   0.97244744   -7.7946966    449.40577  0.021266599  0.021259559            3 
 1762000    0.9685902   -7.8095168    450.11068  0.021287868  0.021253185            2 
 1763000   0.97936471   -7.8350009    449.68945  0.021255882   0.02124675            2 
 1764000   0.96265355   -7.8615317    449.72114   0.02124533  0.021240393            2 
 1765000    0.9521327   -7.8342364    449.82745  0.021238312  0.021233954            4 
 1766000   0.99170071   -7.8034223    451.24265  0.021293066  0.021227621            1 
 1767000   0.97625129   -7.8618896    450.10664   0.02122744  0.021221247            3 
 1768000   0.95894325   -7.8415453    451.00297  0.021257681  0.021214948            2 
 1769000   0.95780915   -7.7951098    452.11142  0.021297881   0.02120868            2 
 1770000   0.97696481     -7.81872     451.3213  0.021248649   0.02120243            2 
 1771000    0.9517908   -7.8331094     451.7162  0.021255233  0.021196234            1 
 1772000   0.98874551   -7.8434745    451.87119  0.021250526  0.021190035            2 
 1773000   0.96647384   -7.8452091     452.3557  0.021261313  0.021183874            2 
 1774000   0.95649307    -7.832758    452.70859  0.021265905  0.021177695            3 
 1775000   0.96180595   -7.8367171    453.39595  0.021286195  0.021171545            2 
 1776000   0.97952985   -7.8215226    453.73407  0.021290074  0.021165396            2 
 1777000   0.95765606   -7.8407622    453.40771  0.021262789  0.021159187            3 
 1778000   0.98567686   -7.8569366    452.73441  0.021219273  0.021152942            4 
 1779000    0.9715382   -7.8444837    453.09792  0.021224373  0.021146687            4 
 1780000    0.9789026   -7.8862451    451.43845  0.021134759  0.021140402            5 
 1781000   0.96954958   -7.8813986    451.41508  0.021121798  0.021134028            2 
 1782000   0.98928161   -7.8330106    451.96764  0.021135786   0.02112773            2 
 1783000   0.93988665   -7.8663464    452.80692  0.021163158   0.02112146            3 
 1784000   0.96583646   -7.8479431    453.12594  0.021166197  0.021115139            2 
 1785000   0.97615512   -7.9072461     452.6361  0.021131471  0.021108834            5 
 1786000   0.95151974   -7.8393634     452.8375  0.021129036  0.021102438            1 
 1787000   0.99154482   -7.8297558    453.15905  0.021132207   0.02109605            2 
 1788000   0.97125845    -7.866294    452.20582  0.021075961  0.021089682            2 
 1789000    0.9742435   -7.8568037    453.27471   0.02111397  0.021083371            5 
 1790000   0.96140522   -7.8521306    453.99228  0.021135581  0.021076979            2 
 1791000   0.93837536   -7.8430188    452.83141  0.021069766  0.021070542            3 
 1792000   0.96876058   -7.8524767    453.07489  0.021069331  0.021064091            2 
 1793000   0.95251588   -7.8730733    453.66405  0.021084962  0.021057634            1 
 1794000   0.95496314   -7.8745955    454.04559  0.021090932  0.021051207            2 
 1795000   0.95593783   -7.8646536    453.54595  0.021055986  0.021044681            1 
 1796000   0.97195104   -7.8579647    453.58316  0.021045989  0.021038261            4 
 1797000   0.95079557   -7.8500771    453.72326  0.021040775  0.021031802            4 
 1798000   0.95239633   -7.8580085    453.73065  0.021029414  0.021025353            1 
 1799000   0.97088278   -7.8420047    453.86013  0.021023723  0.021018966            3 
 1800000   0.97082231   -7.8329663    455.83914  0.021103664  0.021012599            8 
 1801000    0.9653015   -7.7780228     456.0397  0.021101226  0.021006192            2 
 1802000   0.97435894   -7.8018064    454.90986  0.021037267  0.020999766            5 
 1803000   0.96998133   -7.8470354    454.59844  0.021011206  0.020993381            1 
 1804000   0.94865358     -7.83659    454.62485  0.021000779  0.020986891            2 
 1805000   0.97664548   -7.8497873    454.55434  0.020985888  0.020980451            2 
 1806000   0.94950846   -7.8671019    454.16168   0.02095615  0.020973941            3 
 1807000   0.97142595   -7.8593341    454.97792  0.020982195  0.020967431            5 
 1808000    0.9452584   -7.8350533    455.72943  0.021005228  0.020961017            1 
 1809000   0.98230408   -7.8333818    455.11435  0.020965282  0.020954513            1 
 1810000   0.94903848     -7.85622    454.09266   0.02090666  0.020948005            1 
 1811000   0.96734517   -7.8297242    455.13169  0.020942927  0.020941517            1 
 1812000    0.9786567   -7.8839745    454.15595  0.020886495  0.020934964            1 
 1813000   0.94293265   -7.8614445    454.33912  0.020883394  0.020928477            3 
 1814000   0.97061833   -7.8468307    455.58266  0.020929009  0.020922019            3 
 1815000   0.96929697   -7.8669153    455.04709  0.020892888  0.020915563            2 
 1816000   0.94468951   -7.8438099    455.73668  0.020913027  0.020909109            2 
 1817000   0.97102017   -7.8688623     455.4404  0.020887929  0.020902589            4 
 1818000   0.96647635    -7.865145    456.09375  0.020906387  0.020896046            3 
 1819000   0.97203629   -7.8527745    456.45026  0.020911227  0.020889577            3 
 1820000   0.96069089    -7.818401    457.16778  0.020932591  0.020883164            1 
 1821000   0.95712422   -7.8515447    456.70503  0.020899919  0.020876779            7 
 1822000   0.97387237   -7.8715883     457.0316  0.020903385  0.020870383            1 
 1823000   0.96515004   -7.8634282    456.21527  0.020854602  0.020863929            2 
 1824000   0.95828094   -7.8714063    456.89234  0.020874102  0.020857366            3 
 1825000   0.95962947   -7.8637252    456.31579  0.020836337  0.020850879            2 
 1826000   0.94368988   -7.8923544     457.7204  0.020889029  0.020844396            3 
 1827000   0.96280437   -7.8471719    457.46003  0.020865719  0.020837883            2 
 1828000   0.94550893    -7.870219    456.48544  0.020809876  0.020831361            1 
 1829000   0.94229017   -7.8311178     457.3761  0.020839079  0.020824906            2 
 1830000   0.96192087   -7.8682699    457.93433  0.020853112  0.020818463            4 
 1831000    0.9480726   -7.8757089    456.99178  0.020798825   0.02081209            2 
 1832000   0.95564034   -7.9186939     456.5681    0.0207682  0.020805648            2 
 1833000   0.96715461   -7.8690794    458.12345   0.02082758  0.020799258            3 
 1834000   0.94225875   -7.8669794    458.11215   0.02081571  0.020792872            1 
 1835000   0.96144878   -7.8177715    457.49393  0.020776291  0.020786441            2 
 1836000   0.95326229   -7.8687874    459.04301  0.020835285  0.020779965            2 
 1837000   0.95289339   -7.8548437    458.90547  0.020817704  0.020773445            1 
 1838000   0.95403923   -7.8488451    457.57455  0.020746035  0.020766916            2 
 1839000   0.95449843   -7.8562598    457.53163  0.020732809  0.020760346            6 
 1840000    0.9770742   -7.8552601     457.8249  0.020734823  0.020753805            3 
 1841000   0.98042843   -7.8687814    457.89621  0.020726788  0.020747285            2 
 1842000   0.95368857   -7.8847437    456.98901  0.020674494  0.020740735            6 
 1843000   0.94060443   -7.8774974    457.28265  0.020676553  0.020734224            2 
 1844000   0.94241019   -7.8936201    458.07039  0.020700939  0.020727672            1 
 1845000   0.95047174   -7.8581469    459.02054  0.020732635  0.020721196            2 
 1846000   0.96772361   -7.8827344    458.53773  0.020699609  0.020714769            2 
 1847000    0.9540666   -7.8863451    457.63285  0.020647575  0.020708292            2 
 1848000   0.94834809   -7.8799704    459.15858  0.020705203  0.020701843            3 
 1849000   0.97476659   -7.8384537    460.90996  0.020772939  0.020695461            2 
 1850000   0.97410106   -7.8766811    459.66583  0.020705668  0.020689028            2 
 1851000    0.9547161   -7.8509129    459.84127   0.02070238  0.020682544            3 
 1852000   0.95563306    -7.869779    459.53263  0.020677314  0.020676042            2 
 1853000   0.95934631   -7.9023056    458.82391  0.020634283  0.020669472            3 
 1854000   0.97869037   -7.8941122    458.22585  0.020596272  0.020662894            5 
 1855000   0.95866649   -7.8777686    459.38146  0.020637083  0.020656345            2 
 1856000   0.96810621   -7.8859389     459.4626  0.020629607  0.020649863            3 
 1857000   0.98676792   -7.9340798    458.90179  0.020593331  0.020643339            4 
 1858000   0.97237526   -7.8777897     461.3194   0.02069068  0.020636863            1 
 1859000   0.98156954   -7.8380858    460.61965  0.020648182  0.020630456            2 
 1860000   0.94753872   -7.8682617    460.85084  0.020647439   0.02062402            1 
 1861000   0.94796237      -7.8425    460.88164  0.020637723  0.020617593            3 
 1862000    0.9594157   -7.8712105    460.88181  0.020626648  0.020611121            3 
 1863000   0.96345263   -7.8580622    460.46632   0.02059699  0.020604684            3 
 1864000    0.9478442   -7.8768673    460.46948  0.020586082   0.02059821            2 
 1865000   0.95605081   -7.9082227    460.30264  0.020567589  0.020591753            2 
 1866000   0.95815446   -7.9038192    460.10335  0.020547667  0.020585236            2 
 1867000   0.96736004   -7.8856709    460.03829  0.020533757  0.020578774            2 
 1868000   0.94410736   -7.8716092    460.70651  0.020552574  0.020572285            1 
 1869000   0.93972337   -7.8771715    461.20697  0.020563892  0.020565837            1 
 1870000   0.94579174   -7.8364375    462.52781  0.020611756  0.020559363            2 
 1871000   0.94352358   -7.8663099    462.42907  0.020596342   0.02055291            3 
 1872000   0.95179814   -7.8754393    462.18225  0.020574352  0.020546485            9 
 1873000   0.95716946   -7.9003091    462.20001  0.020564158  0.020540022            6 
 1874000    0.9422524   -7.8473531    462.14186  0.020550599  0.020533576            2 
 1875000   0.95532155   -7.8692967    461.91799  0.020529688  0.020527114            2 
 1876000   0.93632587   -7.8774546    462.20533  0.020531509  0.020520636            3 
 1877000   0.96386853   -7.8879272    462.01257  0.020512012  0.020514159            2 
 1878000   0.96502212   -7.8668115    462.58571  0.020526523   0.02050763            3 
 1879000   0.95526238    -7.901532     461.7068  0.020476619   0.02050113            1 
 1880000    0.9464424   -7.8891808    461.82272  0.020470865  0.020494612            4 
 1881000    0.9468412     -7.90525    460.29706  0.020392391  0.020488095            2 
 1882000   0.93956424   -7.8612885    462.69952  0.020487935  0.020481578            2 
 1883000   0.95074887   -7.8674868    461.64461  0.020430368  0.020475092            2 
 1884000   0.95773455   -7.9221049     461.5321  0.020414548  0.020468518            1 
 1885000   0.96536019   -7.8890723    463.83634  0.020505585  0.020462011            1 
 1886000   0.95096983   -7.8653296    463.06731  0.020460733   0.02045562            2 
 1887000   0.94980304   -7.8684152    465.21779  0.020544859  0.020449253            2 
 1888000    0.9513188   -7.8698867    463.81795  0.020472191  0.020442937            4 
 1889000   0.95282404   -7.8828478    463.99528  0.020469176  0.020436616            2 
 1890000   0.96525203    -7.913171    464.83708  0.020495462  0.020430312            4 
 1891000   0.94561961   -7.8652118    464.29132  0.020460573     0.020424            3 
 1892000    0.9409527   -7.8874469    464.52901  0.020460228  0.020417735            5 
 1893000   0.96481318   -7.8860027    464.91334  0.020466338  0.020411426            5 
 1894000   0.94421666   -7.8970849    465.44874  0.020479089  0.020405156            3 
 1895000   0.94526097   -7.9264183    463.06489  0.020363452  0.020398883            3 
 1896000   0.93848837   -7.8508527    466.24059   0.02049229  0.020392624            3 
 1897000   0.95510652   -7.8702248    464.93605  0.020424181  0.020386349            5 
 1898000   0.94444533   -7.8877703    465.81652  0.020452078  0.020380088            4 
 1899000   0.92119251   -7.8384488    466.41105  0.020467397  0.020373799            6 
 1900000   0.93916781   -7.8695056    465.67692  0.020424426  0.020367555            2 
 1901000   0.90656302    -7.902085    466.00419  0.020428029  0.020361257            1 
 1902000   0.93539242   -7.8854752    465.54998  0.020397388  0.020354899            2 
 1903000   0.94824583   -7.8805098    465.35865  0.020378291  0.020348572            4 
 1904000   0.95648648   -7.8813607    465.14333  0.020358164  0.020342144            5 
 1905000   0.95111764   -7.9237332    465.33445  0.020355838  0.020335714            4 
 1906000   0.93437149    -7.879421    465.83157  0.020366893  0.020329326            4 
 1907000   0.94552797   -7.8801967    466.12707  0.020369126  0.020322974            6 
 1908000    0.9610041   -7.9236561    464.77144  0.020299242  0.020316607            3 
 1909000   0.95121705   -7.9294478    466.64437  0.020370367  0.020310285            3 
 1910000   0.95527173   -7.8889325    467.12291  0.020380581  0.020303964            5 
 1911000   0.94053791   -7.8926045    466.79357  0.020355554  0.020297764            1 
 1912000    0.9691818   -7.9312501    466.13201  0.020316074  0.020291482            2 
 1913000   0.94922612   -7.9206735    467.24687  0.020354019  0.020285071            2 
 1914000   0.93542133   -7.8927283    467.70197    0.0203632   0.02027868            2 
 1915000   0.92900461   -7.9723048    466.16276  0.020285586  0.020272267            3 
 1916000   0.93736986   -7.9195061    466.84894  0.020304843  0.020265828            4 
 1917000   0.94154212   -7.9001668    466.82095  0.020293034  0.020259361            2 
 1918000   0.96716693   -7.8587051    468.20406  0.020342547  0.020252999            2 
 1919000   0.94458354   -7.8821446    467.92105  0.020319657  0.020246665            1 
 1920000   0.93560807   -7.8565236    468.53105  0.020335549  0.020240387            2 
 1921000   0.93461028   -7.9134614    466.51803  0.020237638  0.020234067            1 
 1922000    0.9694201    -7.884541    467.27074  0.020259744   0.02022771            2 
 1923000   0.93274365   -7.9219735    468.18919   0.02028901  0.020221381            4 
 1924000    0.9774288   -7.8851307    467.46495  0.020247096  0.020214981            2 
 1925000   0.95860575   -7.8878307    468.54184  0.020283196  0.020208687            1 
 1926000   0.92767979   -7.9139724    467.64252  0.020233754  0.020202373            1 
 1927000   0.95008926    -7.893723      469.016   0.02028265  0.020196046            3 
 1928000   0.93180944   -7.9129295    468.50414  0.020250006  0.020189785            1 
 1929000   0.95740699   -7.9205045    467.79232  0.020208758  0.020183375            3 
 1930000   0.95662431   -7.9339794    468.00279  0.020207374   0.02017697            2 
 1931000   0.95521028   -7.9168758    469.26068  0.020251195  0.020170587            3 
 1932000   0.92029633    -7.918675    468.67082   0.02021527  0.020164245            2 
 1933000   0.93506608   -7.9133592    468.32574  0.020189935  0.020157867            5 
 1934000   0.95834171   -7.8875576    469.51318  0.020230661  0.020151596            4 
 1935000   0.95476811   -7.9153399     468.8787  0.020192881  0.020145338            7 
 1936000   0.94232966   -7.9467867    468.98247  0.020186917  0.020138972            2 
 1937000   0.94744517   -7.9133022    468.88343  0.020172235  0.020132588            2 
 1938000   0.93552701   -7.8987455    470.05429  0.020212173  0.020126271            2 
 1939000   0.95520231   -7.8928949    469.36486  0.020172119  0.020119929            1 
 1940000   0.94361537   -7.9410804    468.43656  0.020121845  0.020113564            1 
 1941000   0.92011082   -7.9092587    469.31534  0.020149207  0.020107204            2 
 1942000   0.91349278   -7.9024587    469.59984   0.02015104  0.020100847            2 
 1943000   0.93316561   -7.8834325    469.85514  0.020151619  0.020094501            4 
 1944000   0.93278744    -7.929353    469.65637  0.020132732  0.020088159            1 
 1945000   0.93083542     -7.90122    470.84959  0.020173504  0.020081856            2 
 1946000   0.92877884   -7.8968633    471.07536  0.020172806  0.020075588            2 
 1947000   0.93145436   -7.8987514    469.40827  0.020091092  0.020069232            2 
 1948000   0.93782177   -7.9264468    469.48638   0.02008412  0.020062884            3 
 1949000   0.95156747   -7.9062699    471.10617  0.020143072  0.020056627            2 
 1950000    0.9470433   -7.8772196    471.73296  0.020159528    0.0200504            2 
 1951000   0.96401921   -7.9240523    471.10957  0.020122568  0.020044172            4 
 1952000   0.93049036   -7.9030194    471.27893   0.02011949   0.02003795            1 
 1953000      0.95093   -7.8942554    470.60657  0.020080499  0.020031747            4 
 1954000   0.93651772   -7.9046904    471.53781  0.020109937  0.020025496            3 
 1955000   0.94150328   -7.9456908    471.73685  0.020108135  0.020019292            4 
 1956000   0.94579294   -7.9382387    471.98412   0.02010839  0.020013137            3 
 1957000   0.94027497   -7.9351377    471.21773   0.02006548  0.020006929            2 
 1958000   0.91299807   -7.8856353    472.37371  0.020104431  0.020000769            4 
 1959000   0.93778539   -7.9353107    472.16408  0.020085251  0.019994692            3 
 1960000   0.95884403   -7.9422043    471.27161  0.020037058  0.019988494           10 
 1961000   0.93571064   -7.9104275    471.76745  0.020047911  0.019982267            2 
 1962000   0.92081686   -7.9023268    473.05952  0.020092572  0.019976085            1 
 1963000    0.9386865   -7.9498091    472.89147  0.020075203  0.019969892            3 
 1964000   0.94148147   -7.9108581    473.13978  0.020075517  0.019963675            6 
 1965000   0.94108432   -7.9313181    472.26431  0.020028172  0.019957474            1 
 1966000   0.92927959   -7.9437952    471.68239  0.019993319  0.019951215            4 
 1967000   0.94272734   -7.9163965    472.37722  0.020012592  0.019944978            2 
 1968000    0.9216275   -7.9467524    472.52163  0.020008538  0.019938739            6 
 1969000   0.92003389   -7.9470871     471.7895  0.019967391  0.019932472            2 
 1970000   0.93960564   -7.9111551    474.27118  0.020062233  0.019926237            2 
 1971000   0.94184079   -7.9099682    474.01019  0.020041019  0.019920014            7 
 1972000   0.93921675   -7.9332167    473.95473  0.020028513  0.019913845            2 
 1973000   0.93130085   -7.9146664    473.40651  0.019995207  0.019907641            4 
 1974000   0.94226179   -7.9103604    473.11625  0.019972824  0.019901499            2 
 1975000   0.94916009      -7.9483    472.15289  0.019922063  0.019895275            1 
 1976000   0.92077949   -7.9136256    474.63424  0.020016626  0.019889001            2 
 1977000   0.94314267   -7.9692814    472.57422  0.019919668  0.019882741            5 
 1978000   0.92225987   -7.9277539    472.69631  0.019914742  0.019876492            3 
 1979000   0.94110909   -7.9511979    474.92257  0.019998424  0.019870314            2 
 1980000   0.92229251   -7.9609476    472.74052  0.019896487  0.019864084            8 
 1981000   0.93210717   -7.9366983    474.03489  0.019940892  0.019857832            2 
 1982000   0.93154218   -7.8869326    474.32778  0.019943146  0.019851582            2 
 1983000   0.95962022   -7.9649197    472.15197  0.019841653  0.019845282            2 
 1984000   0.93872945   -7.9318052    472.49989  0.019846265  0.019838944            3 
 1985000   0.95073504   -7.9302701    474.56887  0.019923126  0.019832669            3 
 1986000   0.94759509   -7.9089835    474.34875  0.019903858   0.01982644            1 
 1987000   0.92299798   -7.8874811    476.14487  0.019969169  0.019820241            2 
 1988000   0.94847791   -7.9284695    474.58861  0.019893889  0.019814003            4 
 1989000   0.93794378   -7.9128815    474.52009  0.019881016  0.019807757            4 
 1990000   0.93423589   -7.9343679    474.74156    0.0198803  0.019801526            1 
 1991000   0.93917469   -7.9332213    474.56384  0.019862876  0.019795221            2 
 1992000   0.92851035   -7.9266776    474.71189  0.019859099   0.01978892            4 
 1993000   0.91575646   -7.9395415     475.4566  0.019880273  0.019782733            4 
 1994000     0.929919   -7.9003638    475.91534  0.019889474  0.019776539            2 
 1995000   0.93166588   -7.9318373    474.69301  0.019828446  0.019770287            2 
 1996000   0.93441557   -7.9554254    475.49175   0.01985186  0.019763997            3 
 1997000   0.93107394    -7.981361    473.26742  0.019749099  0.019757725            2 
 1998000   0.91413911   -7.9378829    473.29331  0.019740295  0.019751432            3 
 1999000   0.91736819   -7.9254017    474.17109  0.019767012  0.019745188            3 
 2000000   0.92595573   -7.9529167    475.38085  0.019807535   0.01973891            2 
 2001000    0.9354986   -7.9273677    476.40116  0.019840128  0.019732644            1 
 2002000   0.94139507   -7.9450009     475.9141  0.019809944  0.019726339            1 
 2003000    0.9263605   -7.9147903    476.43541  0.019821743  0.019720038            6 
 2004000   0.91830694   -7.9668636      475.142  0.019758067  0.019713765            1 
 2005000   0.93295041   -7.9690548    475.51748  0.019763819  0.019707438            2 
 2006000   0.92887049   -7.9046344     476.0816  0.019777401  0.019701126            2 
 2007000    0.9329148   -7.9473291     475.5152  0.019744029  0.019694818            1 
 2008000   0.94554437   -7.9291689    476.38119  0.019770136  0.019688625            2 
 2009000   0.93417379   -7.9338915     477.0284  0.019787141  0.019682439            3 
 2010000   0.92147798    -7.928209    477.37682  0.019791742  0.019676272            5 
 2011000   0.93194939   -7.9503182    476.75928   0.01975631  0.019670158            4 
 2012000   0.94441523   -7.8594631    478.40429  0.019814624  0.019664038            2 
 2013000   0.93577489   -7.9261017    477.52677  0.019768454  0.019657951            2 
 2014000   0.93914231   -7.9251376    477.39651  0.019753248  0.019651819            4 
 2015000    0.9351099   -7.9100217    477.43076  0.019744862  0.019645705            1 
 2016000   0.91399612   -7.9016976    477.84637  0.019752247  0.019639591            2 
 2017000   0.93023137   -7.9563403    477.92591  0.019745741  0.019633393            2 
 2018000    0.8960358   -7.9598702    477.68683  0.019726083  0.019627175            1 
 2019000   0.91968023   -7.9692092    477.70627  0.019717115  0.019621005            3 
 2020000   0.92768966    -7.910196    479.03176  0.019762036  0.019614886            2 
 2021000   0.91356754   -7.9379103    477.67946  0.019696498  0.019608727            3 
 2022000    0.9152456   -7.9331575    478.84064  0.019734613  0.019602645            4 
 2023000   0.94181229   -7.9269624    478.23284  0.019699821   0.01959653            2 
 2024000   0.92721072   -7.9231225      478.584  0.019704546  0.019590446            2 
 2025000   0.93392698   -7.9330347    478.37315  0.019686138   0.01958429            2 
 2026000   0.94173641    -7.988829    478.36241  0.019675979  0.019578149            1 
 2027000   0.92592437    -7.937568    480.19536  0.019741628   0.01957203            2 
 2028000   0.92886994   -7.9469739    477.96915  0.019640415  0.019565944            3 
 2029000   0.92473376   -7.9609154     478.8061   0.01966511  0.019559757            2 
 2030000   0.92508757    -7.960239    478.46676  0.019641492  0.019553555            2 
 2031000    0.9130516   -7.9690569    478.71618  0.019642056  0.019547354            2 
 2032000   0.91764514   -7.9478505    479.29277  0.019656036  0.019541226            1 
 2033000   0.90686906   -7.9127722    478.87548  0.019629262  0.019535104            4 
 2034000   0.91580107   -7.9142796    479.11065  0.019629247  0.019528975            4 
 2035000     0.927541   -7.9070391    480.68379  0.019684021  0.019522866            4 
 2036000   0.91053742    -7.929793    480.82072  0.019679957  0.019516828            2 
 2037000   0.92268554    -7.890905    480.79512  0.019669249  0.019510857            2 
 2038000    0.9165095   -7.9023371    481.38761  0.019683825  0.019504792            4 
 2039000    0.9321809   -7.9635977    478.40371   0.01955222  0.019498669            4 
 2040000   0.92874622   -7.9657578    478.87373  0.019561835  0.019492478            2 
 2041000    0.9228429   -7.9153443    479.93869  0.019595733  0.019486335            3 
 2042000   0.92687062   -7.9233973    481.00863  0.019629801  0.019480252            2 
 2043000   0.93638793   -7.9395537    479.70277  0.019566926  0.019474144            2 
 2044000   0.93548811   -7.9376724    479.85647   0.01956362  0.019467983            3 
 2045000   0.93160767   -7.9650698    480.31061   0.01957256  0.019461814            3 
 2046000   0.91384879   -7.9713296    479.93229  0.019547584  0.019455572            2 
 2047000    0.9318194    -7.940592    479.53848  0.019522003  0.019449379            3 
 2048000   0.90888596   -7.9527303    481.29828  0.019584077  0.019443221            4 
 2049000   0.93703794    -7.920779     480.6196  0.019546917  0.019437048            3 
 2050000   0.92882406   -7.9249216    481.10073   0.01955694  0.019430878            3 
 2051000    0.9117048   -7.9261404    481.61698  0.019568381  0.019424726            1 
 2052000   0.93196819   -7.9738958    480.02752  0.019494295  0.019418573            3 
 2053000   0.92028479   -7.9635935    480.06831  0.019486455  0.019412435            3 
 2054000   0.91581933   -7.9652875    480.87942  0.019509876  0.019406224            4 
 2055000   0.94913522   -7.9929435    480.93282  0.019502547  0.019399983            4 
 2056000   0.91012648   -7.9518684    479.58917  0.019438601  0.019393737            2 
 2057000   0.93336788   -7.9722822    479.80214  0.019437779  0.019387499            3 
 2058000   0.92273489   -7.9682516    480.12124  0.019441255  0.019381265            2 
 2059000   0.95155712   -7.9440873    481.10842  0.019471767  0.019375061            1 
 2060000   0.91216117   -7.9569107    481.02493  0.019458937  0.019368929            1 
 2061000   0.93965155   -7.9398884    481.95192  0.019486977  0.019362892            2 
 2062000   0.92101178   -7.9941549    481.26805  0.019449889  0.019356772            2 
 2063000   0.92256933   -7.9752422    481.54568  0.019451676  0.019350611            3 
 2064000   0.92296459   -7.9732598    483.37316  0.019516035  0.019344514            2 
 2065000   0.90578419   -7.9355907     481.3641  0.019425508   0.01933841            3 
 2066000   0.90908762   -7.9619791    482.15487  0.019448002  0.019332325            2 
 2067000   0.94602747   -7.9782147     481.5957   0.01941605  0.019326164            1 
 2068000   0.91462042   -7.9653642    481.95888  0.019421296  0.019320034            1 
 2069000   0.92713972   -7.9805995    482.09636  0.019417447  0.019313904            1 
 2070000   0.92401453    -7.983351    481.44573  0.019381873  0.019307793            5 
 2071000   0.91337927   -7.9387476    483.89841  0.019471206  0.019301731            1 
 2072000   0.93503787   -7.9547186    482.60995  0.019409989   0.01929565            2 
 2073000   0.91217135   -7.9724718    482.94737  0.019414189  0.019289593            2 
 2074000   0.91689294   -8.0027183    483.50921  0.019427403  0.019283456            3 
 2075000   0.94255912   -7.9478162    482.74142  0.019387206  0.019277357            7 
 2076000   0.89025706   -7.9517947     483.8694  0.019423145  0.019271265            5 
 2077000   0.92854318   -7.9864354    483.34854  0.019392896  0.019265134            2 
 2078000   0.93114767    -7.958045    483.07168  0.019372461  0.019258994            2 
 2079000   0.91616391   -7.9605751    483.35354   0.01937444  0.019252846            3 
 2080000   0.92385816    -7.955651    483.83018  0.019384222   0.01924677            1 
 2081000   0.91264568    -7.951361    484.98072   0.01942098  0.019240702            1 
 2082000   0.90720551   -7.9339723    484.99929  0.019412396  0.019234631            2 
 2083000    0.9421511   -7.9436608    484.40473   0.01937929  0.019228578            2 
 2084000   0.91453556   -7.9693159    484.02549  0.019354826  0.019222462            2 
 2085000   0.93306207   -7.9511496    484.56835   0.01936724  0.019216333            2 
 2086000   0.90769267   -7.9661229    483.30389  0.019307442  0.019210237            2 
 2087000   0.89155503   -7.9694045    483.70637  0.019314262   0.01920412            2 
 2088000   0.91929764   -7.9490429    482.48608  0.019256309  0.019197982            3 
 2089000   0.90967489   -7.9695506    483.76406  0.019298072  0.019191846            3 
 2090000    0.9098972   -7.9453827    484.97539  0.019337137  0.019185703            4 
 2091000   0.91793674   -7.9775864    483.66827  0.019275796  0.019179572            2 
 2092000   0.89630597   -7.9540972     485.4649  0.019338149  0.019173513            3 
 2093000   0.91903164   -8.0103144    483.94531  0.019268407  0.019167384            5 
 2094000   0.89973476   -7.9873803    484.14478  0.019267144  0.019161221            2 
 2095000   0.91609646   -7.9831931    483.88756  0.019247715  0.019155076            3 
 2096000   0.92283675   -8.0203826    483.60505    0.0192273  0.019148899            4 
 2097000   0.90600079   -7.9854369    484.76407   0.01926419  0.019142774            3 
 2098000   0.90069006   -8.0330407    483.24589  0.019194705  0.019136618            3 
 2099000   0.91293883   -7.9886585    484.53676   0.01923681  0.019130457            2 
 2100000   0.92210367   -7.9831148     484.3802  0.019221437  0.019124274            3 
 2101000   0.92193765   -7.9659634    485.23961  0.019246375   0.01911815            3 
 2102000   0.93074183   -7.9833721    484.94793  0.019225655  0.019112016            2 
 2103000   0.89934503   -8.0073349    485.04526   0.01922037  0.019105864            3 
 2104000   0.89266041   -7.9954668    484.07881  0.019172957    0.0190997            1 
 2105000   0.91885089   -7.9820319    484.80907  0.019192758  0.019093531            2 
 2106000   0.92370955   -7.9747332    485.95698  0.019229067   0.01908742            1 
 2107000   0.89796486   -8.0034365    486.17523  0.019228573  0.019081333            3 
 2108000   0.91391978   -7.9601096    486.50946  0.019232664   0.01907529            4 
 2109000   0.92035128    -8.009615    485.87128  0.019198328  0.019069186            2 
 2110000   0.89686866   -7.9433804     486.0561  0.019196528  0.019063098            9 
 2111000    0.9135579   -7.9651396    486.08964  0.019188759  0.019057012            3 
 2112000   0.91612046   -8.0273719    484.78872  0.019128343  0.019050911            4 
 2113000   0.90930915   -7.9994462    486.26803  0.019177632    0.0190448            2 
 2114000   0.91659569   -7.9553844    485.95013  0.019156028  0.019038715            2 
 2115000   0.91904894   -7.9820478    486.39319  0.019164428  0.019032642            4 
 2116000   0.91050464   -8.0247473    486.99437  0.019179047  0.019026571            5 
 2117000   0.91076311    -7.993942    487.26725   0.01918073  0.019020464            1 
 2118000    0.9332575   -7.9720718    486.35647  0.019135838  0.019014369            2 
 2119000   0.91906896   -7.9781616    487.47252  0.019170698  0.019008339            3 
 2120000   0.92080894    -7.985586    487.69559  0.019170424  0.019002305            2 
 2121000    0.9042513   -7.9540909    488.90787  0.019209016  0.018996286            4 
 2122000   0.89289967   -8.0137436    486.46445  0.019104007  0.018990256            4 
 2123000   0.88669604   -7.9722461    488.82593  0.019187704  0.018984216            2 
 2124000   0.91622052   -7.9880441    487.68878  0.019134054  0.018978147            3 
 2125000   0.90648965   -7.9802155    486.38714  0.019074005  0.018972133            2 
 2126000   0.92415182   -7.9561916    488.55257  0.019149913  0.018966144            3 
 2127000    0.9082008   -7.9725123    487.18537  0.019087344  0.018960118            3 
 2128000   0.91986329   -7.9473122    487.97058  0.019109124  0.018954095            3 
 2129000   0.91340976   -7.9668562    489.21608  0.019148899  0.018948109            4 
 2130000   0.90329532   -7.9604132     489.8272  0.019163818  0.018942157            3 
 2131000    0.9146563   -7.9859867    488.20119   0.01909124  0.018936232            2 
 2132000   0.89470518   -7.9235154    490.05347  0.019154685  0.018930341            3 
 2133000   0.91261717   -7.9730387    489.31439   0.01911683   0.01892438            6 
 2134000    0.9050397   -7.9786212    489.98083  0.019133897  0.018918436            2 
 2135000   0.90329223   -8.0018127    489.71528   0.01911457  0.018912481            1 
 2136000   0.88215607   -7.9363914     489.7642   0.01910753  0.018906542            7 
 2137000   0.91010949   -7.9672398     491.4426  0.019164038  0.018900661            2 
 2138000   0.92419384   -7.9669446    489.27754  0.019070687  0.018894714            4 
 2139000   0.91149722   -7.9864023    489.27222  0.019061564  0.018888736            2 
 2140000   0.89646401    -7.999637    489.69629   0.01906917  0.018882747            2 
 2141000   0.91691058   -7.9750678    488.93032   0.01903045  0.018876795            2 
 2142000   0.89193887   -7.9868755    490.35139  0.019076852   0.01887085            2 
 2143000    0.9054757   -7.9789019    490.60666  0.019077876  0.018864901            2 
 2144000   0.91218447   -7.9876771    489.04926  0.019008445  0.018858944            3 
 2145000   0.90130289   -7.9765684    490.17592  0.019043353  0.018853043            2 
 2146000   0.92060593   -8.0084964    490.38988  0.019042788  0.018847178            5 
 2147000   0.89281837   -7.9788885    491.09846  0.019061421  0.018841258            3 
 2148000   0.90177321   -7.9983211    490.06538  0.019012468  0.018835338            2 
 2149000   0.88626767   -7.9845665    489.91439  0.018997766  0.018829432            3 
 2150000   0.91604617   -7.9978957    490.60334  0.019015633  0.018823557            2 
 2151000   0.91708566   -7.9809575    492.19144  0.019068319  0.018817671            4 
 2152000   0.90974259   -7.9912005     490.0619  0.018976994  0.018811758            3 
 2153000    0.9171622   -7.9909442    490.03464  0.018967125   0.01880587            2 
 2154000   0.87516756   -8.0038333    490.33737  0.018970031  0.018799944            5 
 2155000   0.92146321   -8.0262861    490.72239  0.018976117  0.018793998            1 
 2156000   0.90146373   -8.0321089    489.76597  0.018930348  0.018788056            6 
 2157000   0.88320542   -8.0223775    490.53994  0.018951474  0.018782096            3 
 2158000   0.91563465   -8.0168967    490.14717  0.018927524  0.018776125            1 
 2159000    0.9038476   -8.0170528    491.14441  0.018957249  0.018770199            5 
 2160000   0.92199374   -8.0172384    490.94069  0.018940613  0.018764253            3 
 2161000   0.90538097   -8.0032828    491.50182  0.018953487  0.018758336            3 
 2162000   0.90844378   -7.9784146    492.11861  0.018968494  0.018752419            3 
 2163000      0.90743   -8.0306649    490.91662  0.018913416  0.018746509            3 
 2164000   0.91680412   -8.0169676    491.59853  0.018930935  0.018740574            3 
 2165000   0.90025151    -7.986552    491.79676  0.018929821  0.018734653            2 
 2166000   0.90375516   -8.0025794     492.6606  0.018954317   0.01872871            2 
 2167000   0.91821486   -8.0273439    491.26137  0.018891762  0.018722784           14 
 2168000   0.88383654    -8.049576    491.52395  0.018893141  0.018716807            2 
 2169000   0.90646639   -8.0057038    491.65591    0.0188895  0.018710844            3 
 2170000   0.92496202   -8.0061423    491.67648  0.018881585  0.018704964            9 
 2171000   0.91706701   -8.0002357    491.84159  0.018879226  0.018699026            3 
 2172000   0.91279981   -8.0381938    490.72466   0.01882768  0.018693091            4 
 2173000   0.89979906   -8.0012603    492.40313  0.018883384  0.018687178            3 
 2174000   0.90261403   -8.0100945    491.58838  0.018843467  0.018681224            3 
 2175000   0.89123511   -8.0116919    491.85961  0.018845196  0.018675334            3 
 2176000   0.91585728   -7.9693042     492.4078  0.018857529   0.01866942            5 
 2177000   0.89832671   -8.0125204     492.4576  0.018850773  0.018663501            2 
 2178000   0.90228024   -8.0083586    492.02973  0.018825747  0.018657625            2 
 2179000   0.89559023   -7.9902208    492.86447  0.018849031  0.018651715            3 
 2180000   0.90868291   -8.0128391    492.04463  0.018809045  0.018645819            5 
 2181000   0.91985511   -8.0047915    494.19884  0.018882731  0.018639891            1 
 2182000   0.91270406   -7.9680044    492.80713  0.018820926  0.018633981            5 
 2183000   0.89071341   -8.0189288    492.94067  0.018817402  0.018628082            2 
 2184000   0.89797186   -8.0275473    492.79606  0.018803268  0.018622153            2 
 2185000   0.90474899   -8.0134042    493.11301  0.018806751  0.018616214            2 
 2186000   0.91013167   -8.0055567    492.02325  0.018756605  0.018610278            6 
 2187000    0.9156001   -8.0228874    491.63847  0.018733367  0.018604306            6 
 2188000   0.90463253   -8.0372761     491.8948  0.018734567  0.018598301            5 
 2189000   0.90924563   -8.0731125     491.9865    0.0187295  0.018592291            2 
 2190000   0.90596634   -8.0196511    491.19155  0.018690698  0.018586238            3 
 2191000   0.88683536   -8.0300287    491.73042  0.018702663  0.018580211            3 
 2192000   0.90534141   -8.0236472    492.22109  0.018712785  0.018574193            4 
 2193000   0.90185643    -8.040223    490.54612  0.018640604  0.018568109            2 
 2194000   0.89458691   -8.0140819    492.90911  0.018721859  0.018562024            4 
 2195000   0.89895859   -8.0504695    492.03441  0.018680122  0.018555999            4 
 2196000   0.90562675   -8.0421045    493.05108  0.018710196  0.018549986            3 
 2197000   0.91018141   -8.0502265    492.26994  0.018672051  0.018543982            3 
 2198000   0.89663053   -8.0208446    494.35782  0.018742714  0.018538006            3 
 2199000   0.89325563   -8.0199643    492.82551  0.018676122  0.018531977            3 
 2200000   0.89251595   -8.0241527    493.06891  0.018676853  0.018525964            2 
 2201000   0.91014183   -8.0068322    494.40397  0.018718915  0.018519961            2 
 2202000   0.91011529   -8.0354566    492.76666  0.018648451  0.018513984            2 
 2203000   0.88807872   -8.0102942    494.78035  0.018716158  0.018508003            6 
 2204000   0.88890443   -8.0104994    493.89171  0.018674066  0.018502028            4 
 2205000   0.89750289   -8.0144741    492.84706  0.018626117  0.018496018            5 
 2206000   0.89123435   -8.0236866    492.97368  0.018622457  0.018490066            2 
 2207000   0.89592781   -8.0311456    492.64437  0.018601585  0.018484068            3 
 2208000   0.88977048   -8.0525054    492.76574  0.018597741  0.018478032            1 
 2209000   0.90186803   -8.0125137    493.51881  0.018617731  0.018471991            4 
 2210000   0.90488989   -8.0228065    493.78809   0.01861946  0.018465936            3 
 2211000   0.90735389   -8.0271075    494.30707    0.0186306  0.018459945            6 
 2212000    0.8942846   -8.0186265    494.51739  0.018630101  0.018453938            7 
 2213000    0.8914077   -8.0210467    493.84262  0.018596273  0.018447927            2 
 2214000   0.90132863    -8.023625    494.92058  0.018628447  0.018441963            1 
 2215000   0.89923271   -8.0085143    494.07094  0.018588071  0.018436034            3 
 2216000   0.89341899   -8.0116785    494.39527   0.01859188    0.0184301            3 
 2217000   0.87363713   -8.0564648    494.22824  0.018577215  0.018424161            3 
 2218000   0.90013279   -8.0085332    495.70391  0.018624283  0.018418202            6 
 2219000   0.87417361   -8.0143525    495.00659  0.018589702  0.018412244            3 
 2220000   0.90076721    -8.055386    493.42743   0.01852205  0.018406231            3 
 2221000   0.88776774   -8.0329773    494.32944  0.018547555   0.01840029            5 
 2222000   0.88266025   -8.0414243    494.47423  0.018544638  0.018394288            4 
 2223000    0.8914152    -8.026714    495.32278  0.018568105  0.018388317            4 
 2224000   0.90389113   -8.0457987    494.61651  0.018533292  0.018382284            7 
 2225000   0.89212662   -8.0297328    495.05436  0.018541362  0.018376269            1 
 2226000   0.90099283   -8.0328022    494.22755  0.018502079  0.018370306            2 
 2227000   0.89201515   -7.9922976    495.81507  0.018553176  0.018364339            3 
 2228000   0.90114321    -8.030245    494.80787  0.018507176  0.018358393            8 
 2229000   0.90578187   -8.0167441    495.06545  0.018508504  0.018352481            4 
 2230000   0.87875809   -8.0374769    494.92452  0.018494937  0.018346547            2 
 2231000   0.89268906    -8.029949    495.51843  0.018508831    0.0183406            3 
 2232000     0.893339   -8.0266812    495.25456  0.018490687   0.01833469            2 
 2233000   0.88186961   -8.0168065    496.20693  0.018517948  0.018328812            2 
 2234000    0.8700919   -8.0603622    494.54215  0.018447559  0.018322892            2 
 2235000   0.90263331   -8.0358127    496.15742  0.018499531  0.018316965            5 
 2236000   0.88328881   -8.0184723    496.67958  0.018510718  0.018311065            2 
 2237000   0.88965226   -7.9726205    496.39956  0.018492012  0.018305179            2 
 2238000   0.90399785   -8.0556076    496.57203  0.018490171  0.018299314            5 
 2239000   0.88432143   -8.0190079    497.08956  0.018501175   0.01829346            3 
 2240000   0.88950561   -8.0526541    496.84919  0.018483973  0.018287589            6 
 2241000   0.89284716   -8.0367022    496.94406  0.018479252  0.018281675            4 
 2242000   0.88750137   -8.0210578     497.4567  0.018490065  0.018275807            4 
 2243000   0.89084749   -8.0121251     497.3635  0.018478359  0.018269883            3 
 2244000    0.8890848     -8.02517     498.2528  0.018503149  0.018263964            3 
 2245000   0.87956657      -8.0344    495.95408   0.01840958  0.018258059            2 
 2246000   0.88965654   -8.0590866    496.62374   0.01842623  0.018252139            3 
 2247000   0.89624294   -8.0279072     496.2249  0.018403238  0.018246203            2 
 2248000   0.85807233   -8.0547247    495.96648  0.018385471  0.018240277            3 
 2249000   0.87971602   -8.0298751    496.81518  0.018408744  0.018234303            1 
 2250000   0.88174898   -8.0232947    496.64747  0.018394351  0.018228332            2 
 2251000   0.90320041   -8.0148336    496.49441  0.018380513  0.018222343            2 
 2252000   0.89127783   -8.0355256    497.15644  0.018396849  0.018216341            4 
 2253000   0.89199548   -8.0584389    496.94806  0.018380976  0.018210365            2 
 2254000    0.8752643   -8.0508532    495.78408  0.018329787  0.018204347            2 
 2255000   0.88744155   -8.0476796    496.80765  0.018359484  0.018198323            5 
 2256000   0.88227172   -8.0042532     496.1992  0.018328871  0.018192342            6 
 2257000   0.90329028   -8.0333786    496.48375  0.018331256  0.018186335            1 
 2258000   0.87717508   -8.0071651    495.74886  0.018296016  0.018180301            5 
 2259000   0.90779668   -8.0125918    496.29642  0.018308116   0.01817433            3 
 2260000   0.88814069   -8.0298534    496.86076  0.018320824  0.018168362            2 
 2261000   0.88651767   -8.0743856    496.05203  0.018282914  0.018162337            2 
 2262000   0.89695617   -8.0884666    497.24811  0.018318896  0.018156304            4 
 2263000   0.89448976   -8.0709945    496.69672  0.018290497  0.018150247            3 
 2264000   0.89242002   -8.0648687    495.75332  0.018247693  0.018144195            1 
 2265000   0.87208077   -8.0570931    496.75657  0.018276548  0.018138195            4 
 2266000   0.86851382    -8.039058    497.15129  0.018282998  0.018132201            2 
 2267000   0.89010918    -8.060284    497.28112  0.018279706  0.018126224            2 
 2268000   0.89753593    -8.070464    495.49445  0.018205998  0.018120234            2 
 2269000   0.86997856   -8.0739783    497.34073  0.018265783   0.01811419            1 
 2270000   0.89110476   -8.0934343     495.7164  0.018198106  0.018108113            3 
 2271000   0.88985487   -8.0551431    498.02078  0.018274651  0.018102092            2 
 2272000   0.90469266   -8.0681223     497.5916  0.018250866  0.018096088            1 
 2273000   0.88582765   -8.0564492    497.16752  0.018227288  0.018090077            2 
 2274000   0.90747667    -8.050605    497.17332  0.018219485  0.018084047            2 
 2275000   0.88602317   -8.0857644    496.63157  0.018191633  0.018078011            3 
 2276000   0.89826054   -8.0590765     497.6839   0.01822217  0.018071979            2 
 2277000   0.88166951   -8.0627082    497.21362  0.018196956   0.01806594            2 
 2278000    0.8910849   -8.0539627    497.26504  0.018190849  0.018059924            1 
 2279000   0.89202611   -8.0328851    498.33524  0.018221999  0.018053926            5 
 2280000   0.88074936   -8.0673012     497.2921  0.018175881   0.01804794            6 
 2281000   0.89129691   -8.0678831    496.71402  0.018146793  0.018041932            1 
 2282000   0.89543669   -8.0628508    498.43517  0.018201693     0.018036            6 
 2283000   0.88956259   -8.0427868    498.87178  0.018209657  0.018030011            1 
 2284000   0.87915151   -8.0705748    497.65191  0.018157177  0.018024031            1 
 2285000   0.85915165   -8.0279879    498.31896  0.018173558  0.018018057            5 
 2286000   0.87701051   -8.0873385    498.39302  0.018168308  0.018012109            3 
 2287000   0.86783479   -8.0674853    498.79846  0.018175137  0.018006165            3 
 2288000   0.88543276   -8.0441747    498.28908  0.018148641  0.018000251            2 
 2289000   0.91264477   -8.0761416    499.21192  0.018174309  0.017994307            3 
 2290000   0.88747579   -8.0679664    498.44283  0.018138385  0.017988311            3 
 2291000    0.8737422   -8.0413126     499.4504  0.018167118  0.017982301            4 
 2292000   0.87269715   -8.0611932    499.71028   0.01816864  0.017976313            2 
 2293000   0.90504468   -8.0574865    498.81045  0.018128014  0.017970355            1 
 2294000   0.89463084   -8.0930827    499.06001  0.018129178  0.017964451            3 
 2295000   0.85401538   -8.0694727    500.06512  0.018157775  0.017958491            1 
 2296000   0.90285058   -8.0853332    498.85968  0.018106115  0.017952548            2 
 2297000   0.91149419   -8.0810762    500.15065  0.018145068  0.017946613            1 
 2298000   0.86096003   -8.0513055    499.48536  0.018113046   0.01794066            4 
 2299000   0.87298387   -8.0555232      500.122  0.018128244  0.017934667            2 
 2300000   0.86515646   -8.0166626    499.55503   0.01809982  0.017928682            5 
 2301000   0.88211952    -8.052604    499.28261  0.018082088  0.017922752            5 
 2302000   0.88410955   -8.0454628    499.83105  0.018094087    0.0179168            4 
 2303000    0.8845813   -8.0366817    499.44264  0.018072175  0.017910845            4 
 2304000   0.88354844   -8.0582587    500.16932  0.018090615  0.017904902            2 
 2305000    0.8752789    -8.075636    498.66882  0.018028519  0.017898967            3 
 2306000   0.90593941   -8.0775055    500.60564  0.018090693  0.017893018            4 
 2307000   0.88618426   -8.0570876    499.11742  0.018029093  0.017887036            3 
 2308000   0.89153386   -8.0624264    499.76382  0.018044621  0.017881051            3 
 2309000   0.88594265   -8.0522405    500.23769  0.018053908  0.017875079            2 
 2310000   0.87472053   -8.0730658    499.16633  0.018007443  0.017869079            3 
 2311000   0.87000393   -8.0860837    501.02416  0.018066644  0.017863105            5 
 2312000    0.8730795   -8.0595953    500.81835  0.018051411  0.017857189            1 
 2313000   0.88804223   -8.0991405    500.37204  0.018027527  0.017851308            2 
 2314000   0.86887705   -8.0423054    501.13926  0.018047366  0.017845372            3 
 2315000   0.87008475   -8.0591027    500.09508  0.018001983  0.017839483            4 
 2316000   0.87809962   -8.0286026    500.42404  0.018006046  0.017833602            2 
 2317000   0.90282737   -8.0757269     499.5106  0.017965422  0.017827675            2 
 2318000   0.88450385   -8.0401038    501.25769  0.018020481  0.017821727            3 
 2319000   0.89805091   -8.0490526    500.54844  0.017987223  0.017815822            3 
 2320000   0.88178949   -8.0591394    502.20091  0.018038826  0.017809941            3 
 2321000   0.87932367   -8.0486488    501.30577  0.017998915  0.017804054            2 
 2322000     0.876537   -8.0697148    502.41737  0.018031057  0.017798168            3 
 2323000   0.88503045   -8.0906401    501.68987  0.017997197  0.017792318            3 
 2324000   0.89528875   -8.0664804    501.20332  0.017972007  0.017786443            5 
 2325000   0.88328389   -8.0721016    502.23072  0.018001101  0.017780587            2 
 2326000   0.89059334   -8.0736055    502.12314  0.017989508  0.017774764            5 
 2327000   0.88033487   -8.0501103    502.89763  0.018009512  0.017768936            2 
 2328000   0.87267723   -8.0993211    500.68973  0.017922742   0.01776305            4 
 2329000   0.86687951   -8.0542488    502.54503  0.017981431  0.017757194            4 
 2330000   0.89693403   -8.1046274    501.11733  0.017922651  0.017751367           14 
 2331000   0.88408871   -8.0949724    501.33198  0.017922636  0.017745533            5 
 2332000   0.88479325     -8.05759    502.40647  0.017953347  0.017739663            3 
 2333000   0.86776952   -8.0599237    502.95929  0.017965398   0.01773379            3 
 2334000   0.88029031   -8.0807938    501.91848   0.01792054  0.017727927            3 
 2335000   0.88364999   -8.1178158    501.32601  0.017891721  0.017722031            3 
 2336000   0.88721211   -8.1034368    501.53422  0.017891489  0.017716137            4 
 2337000   0.86841552   -8.0983402    501.36356  0.017877748  0.017710274            3 
 2338000   0.89477831    -8.093957    501.44862  0.017873133  0.017704406            2 
 2339000   0.87542409   -8.0784656    500.66748  0.017837662  0.017698543            2 
 2340000   0.87067967   -8.0665124     503.0467  0.017914769  0.017692677            3 
 2341000   0.88036916   -8.0808142      502.796  0.017898192  0.017686808            4 
 2342000   0.87558715   -8.0998796    503.59539  0.017918993  0.017680938            3 
 2343000     0.878229   -8.0600835    502.78907  0.017882667  0.017675098            3 
 2344000   0.87705634   -8.0636391    503.42737  0.017897731  0.017669249            3 
 2345000   0.86203191   -8.0447261    502.97235  0.017873929  0.017663393            3 
 2346000   0.87385924   -8.0469748    502.85708  0.017862215  0.017657537            3 
 2347000   0.89189506   -8.0843842    502.47484  0.017841032  0.017651677            3 
 2348000   0.88310609   -8.0860313    503.06573  0.017854406  0.017645823            4 
 2349000   0.87130098   -8.0788898    503.18022  0.017850866  0.017639957            4 
 2350000   0.87279426   -8.1017842    502.10193  0.017805033  0.017634099            3 
 2351000   0.89337395   -8.0737021    504.32633  0.017876306  0.017628218            1 
 2352000   0.87895701    -8.080283    502.87664  0.017817341  0.017622336            3 
 2353000   0.89256017   -8.1007573    502.67149  0.017802504   0.01761648            2 
 2354000   0.89252998   -8.0940665    502.72606  0.017796873  0.017610594            3 
 2355000    0.8857298   -8.1100166     503.7051   0.01782396  0.017604747            2 
 2356000   0.87176188   -8.0962097    503.61085  0.017813061  0.017598924            2 
 2357000   0.86790285   -8.0962042    501.62731  0.017735374  0.017593102            2 
 2358000    0.8924668   -8.0834178    502.68379  0.017765189  0.017587272            5 
 2359000   0.87787151   -8.0841897    503.37659  0.017782132  0.017581452            4 
 2360000   0.87062561   -8.0873472    503.51742   0.01777957  0.017575632            3 
 2361000   0.88926152   -8.0967101    502.70496  0.017743363  0.017569768            2 
 2362000    0.8757919   -8.0681524    503.78676  0.017774018  0.017563914            2 
 2363000   0.87750413   -8.1148716    503.07885  0.017741531  0.017558048            2 
 2364000   0.87559578   -8.1070852    502.45224  0.017711937  0.017552154            4 
 2365000   0.86866796   -8.0954597    503.61253  0.017745332  0.017546284            2 
 2366000   0.88322762   -8.0738095    503.09434  0.017719581  0.017540416            2 
 2367000   0.88701124   -8.0792349    504.48402   0.01776102  0.017534571            2 
 2368000   0.86201443   -8.1006327    503.21194  0.017708754  0.017528723            2 
 2369000   0.87408729   -8.0991538     503.9582  0.017727529   0.01752287            2 
 2370000   0.87795916   -8.0801455    503.91797  0.017718635  0.017517087            1 
 2371000   0.87499674   -8.0834316     503.7929  0.017706766  0.017511237            4 
 2372000   0.89378681   -8.0880458     504.5931  0.017727414  0.017505388            3 
 2373000   0.85862654   -8.0532761     503.9605  0.017697728  0.017499486            4 
 2374000   0.86935136   -8.0889985    504.03393  0.017692851  0.017493623            3 
 2375000   0.88351806   -8.1126077    502.90473   0.01764578  0.017487763            3 
 2376000   0.87651028   -8.1401784    502.99097  0.017641378  0.017481912            4 
 2377000   0.86788956   -8.0806546    504.78079  0.017696704  0.017476038            6 
 2378000   0.87096534   -8.1140919    503.37922  0.017640146  0.017470204            5 
 2379000   0.85711041   -8.1241617    503.03686  0.017620739  0.017464329            3 
 2380000    0.8519791   -8.0823171    505.02076    0.0176828  0.017458453            2 
 2381000   0.88509226   -8.0970643    504.87446  0.017670253  0.017452563            2 
 2382000   0.87018452     -8.13342    504.08585  0.017635245  0.017446654            3 
 2383000   0.88335816   -8.1091945    504.60537  0.017646012  0.017440782            3 
 2384000   0.89297736   -8.1169089    503.56757  0.017602334  0.017434905            7 
 2385000   0.87035723   -8.1009649    503.99863  0.017610015  0.017429043            4 
 2386000   0.86517306   -8.0942564    504.93187  0.017635229  0.017423193            3 
 2387000   0.88111898   -8.1048053    504.00424  0.017595456  0.017417308            1 
 2388000    0.8497449   -8.1308343    504.27469  0.017597525  0.017411373            3 
 2389000   0.87353993   -8.0923093    504.90117  0.017612012    0.0174055            2 
 2390000   0.86024945   -8.1243322    503.84898  0.017567956  0.017399625            6 
 2391000   0.90445201   -8.1030284    505.24378  0.017609221  0.017393778            8 
 2392000    0.8531469   -8.1047656    506.19421  0.017634971  0.017387946            4 
 2393000   0.86709258   -8.0918664    505.36586  0.017598755   0.01738214            4 
 2394000   0.87979282   -8.0684485     506.1213    0.0176177  0.017376346            4 
 2395000   0.86250361    -8.100992    506.11945   0.01761028  0.017370508            2 
 2396000   0.87251155   -8.0945459    505.53936  0.017582755  0.017364695            2 
 2397000   0.86057133    -8.111891    505.59982  0.017577521  0.017358882            2 
 2398000   0.87027685   -8.1262613      503.291  0.017489957  0.017353023            8 
 2399000   0.85989905   -8.1281864    504.71787  0.017532231  0.017347175            5 
 2400000   0.84214896   -8.1098112    504.99272  0.017534469  0.017341328            5 
 2401000   0.85986151   -8.1237571    504.44939  0.017508309  0.017335467            3 
 2402000   0.87609346    -8.118571    505.33361  0.017531696  0.017329574            4 
 2403000   0.86859756   -8.1291987    505.03418  0.017514016  0.017323712            4 
 2404000   0.86280617   -8.1034809    504.50925  0.017488535  0.017317877            4 
 2405000   0.85551247   -8.1111287    504.97831  0.017497516  0.017312031            2 
 2406000   0.87466259   -8.1666214    504.06777  0.017458706  0.017306161            2 
 2407000   0.84820702   -8.1218452    506.46357  0.017534398  0.017300241            1 
 2408000   0.84477282   -8.1326158     505.0517  0.017478256  0.017294357            4 
 2409000   0.86182375   -8.1216316    505.60323   0.01749008  0.017288464            4 
 2410000    0.8743545   -8.1217791    504.92597  0.017459404  0.017282581            2 
 2411000   0.87932523   -8.1344465    503.61733  0.017406931  0.017276731            3 
 2412000   0.88962762   -8.1432548    505.76032  0.017473754  0.017270815            3 
 2413000   0.87463797   -8.1318633    504.88676  0.017436343  0.017264931            2 
 2414000   0.86941394   -8.1272173    505.91529  0.017464626  0.017259069            2 
 2415000   0.87470501   -8.1029045    504.43747    0.0174064   0.01725317            6 
 2416000    0.8831933   -8.1074497    506.03118  0.017454166   0.01724729            2 
 2417000   0.86636008   -8.1418749    506.96135  0.017479015  0.017241421            4 
 2418000   0.85928511    -8.131668     506.3546  0.017450875  0.017235541            2 
 2419000   0.86276578   -8.1194252    505.57517   0.01741681  0.017229693            5 
 2420000   0.86212466   -8.1529114    506.02047  0.017424947  0.017223818            4 
 2421000   0.87237786   -8.0983848    506.60871  0.017437998  0.017217977            4 
 2422000    0.8398148   -8.1145343    505.70442  0.017399684  0.017212126            5 
 2423000    0.8492017   -8.1149081    505.29629  0.017378466  0.017206265            2 
 2424000    0.8675285   -8.1205626    505.21611  0.017368541  0.017200391            1 
 2425000   0.86679761   -8.1180594      504.722  0.017344399  0.017194541            3 
 2426000   0.84720575   -8.1053847    506.25907  0.017390048  0.017188651            5 
 2427000     0.855417   -8.1115467    504.75968  0.017331399  0.017182774            7 
 2428000   0.87346368   -8.1192563    507.11943  0.017405252  0.017176892            2 
 2429000   0.85671016   -8.1012152    506.39778  0.017373328  0.017171029            2 
 2430000   0.85035545   -8.0954697    505.94175   0.01735054  0.017165178            1 
 2431000   0.86210158      -8.1635    505.58199   0.01733107  0.017159319           10 
 2432000   0.85790038   -8.1485011    506.46803  0.017354305  0.017153446            2 
 2433000   0.84769268    -8.132726    507.29876  0.017375625  0.017147611            4 
 2434000    0.8330851   -8.1232985    505.94441  0.017322117   0.01714179            6 
 2435000   0.85647249   -8.1322897    506.72263  0.017341637  0.017135959            8 
 2436000   0.85568516   -8.1395138     507.3933  0.017357461  0.017130138            4 
 2437000    0.8786335   -8.1374678    505.91289  0.017299716  0.017124328            4 
 2438000   0.86609729   -8.1066827     507.6936  0.017353486  0.017118513            2 
 2439000   0.87173403   -8.0999029    507.04715  0.017324284  0.017112712            3 
 2440000   0.87259749   -8.1164615     506.8833  0.017311588  0.017106903            5 
 2441000   0.85352331   -8.1262498    507.78237   0.01733519  0.017101094            3 
 2442000   0.87135965   -8.1628348    506.92321  0.017298772  0.017095285            6 
 2443000   0.85918036   -8.1406294    507.55331  0.017313184  0.017089428            4 
 2444000   0.87338948   -8.1629404    507.14024  0.017292016  0.017083615            3 
 2445000   0.87413517   -8.1510286    506.75749  0.017271898  0.017077761            6 
 2446000   0.87084059   -8.1492053    506.45513  0.017254536  0.017071944            4 
 2447000   0.84625411   -8.1380671    508.11344  0.017303959    0.0170661            3 
 2448000    0.8760236   -8.1694731     506.3503   0.01723687  0.017060285            2 
 2449000   0.85560061   -8.1839241    506.16947  0.017223679  0.017054438            5 
 2450000   0.86546676   -8.1744266    506.74917  0.017236366  0.017048605            5 
 2451000   0.85993275   -8.1323627    508.16318   0.01727741  0.017042816            1 
 2452000   0.86114403   -8.1515433     508.1499  0.017269912  0.017037047            4 
 2453000   0.84292775     -8.15053    508.35308  0.017269775  0.017031266            2 
 2454000   0.83544479   -8.1677526    508.18609  0.017257066  0.017025455            4 
 2455000   0.85402765   -8.1435956    506.89808  0.017206316  0.017019633            2 
 2456000   0.87245878   -8.1740735    507.43832  0.017217641  0.017013837            3 
 2457000   0.85757128   -8.1527178    505.84814    0.0171567  0.017008032            4 
 2458000   0.85901318    -8.161377    508.32655  0.017233745  0.017002222            7 
 2459000   0.84659587    -8.166564    507.68163  0.017204881  0.016996451            3 
 2460000   0.85461623   -8.1325053    508.86641  0.017238022  0.016990694            3 
 2461000   0.85726516   -8.1539758    506.94917  0.017166097  0.016984912            8 
 2462000   0.86941539   -8.1359137    507.53827  0.017179064   0.01697907            3 
 2463000    0.8632418   -8.1361718    507.41954  0.017168072  0.016973255            4 
 2464000   0.85246619   -8.1516036    506.17804  0.017119117  0.016967457            2 
 2465000   0.85403724   -8.1471439    508.17486  0.017179678  0.016961635            3 
 2466000    0.8587742   -8.1587779    508.30819  0.017177217  0.016955851            3 
 2467000   0.84778719   -8.1773031    508.43825  0.017174647  0.016950041            2 
 2468000   0.84269399   -8.1123181     508.4506  0.017168105  0.016944278            4 
 2469000   0.86702766   -8.1392803     509.2289  0.017187421  0.016938527            7 
 2470000   0.83335043   -8.1871597    507.57373   0.01712462  0.016932715           12 
 2471000   0.85500447   -8.1269304    508.14626  0.017136998  0.016926908            2 
 2472000   0.84321878   -8.1566519    508.08825   0.01712811  0.016921134            2 
 2473000    0.8542308   -8.1443717    508.69068  0.017141484  0.016915342            3 
 2474000   0.83752966   -8.1203646    508.47395  0.017127255  0.016909588            3 
 2475000   0.87289049   -8.1355349    508.63434  0.017125735  0.016903837            4 
 2476000   0.85009383   -8.1633941    507.84346    0.0170922  0.016898063            4 
 2477000   0.85084149   -8.1551746    508.79816  0.017117419  0.016892303            5 
 2478000   0.86318381   -8.1661282    508.80923  0.017110883  0.016886548            2 
 2479000   0.85873215   -8.1478698    508.73009  0.017101321  0.016880778            2 
 2480000   0.84373346   -8.1128443    509.73998   0.01712836  0.016875019            1 
 2481000   0.85548071   -8.1275164    509.60861  0.017117043  0.016869283            1 
 2482000    0.8427081   -8.1681531    509.27046  0.017098793   0.01686357            3 
 2483000   0.84774116    -8.138863    509.17583  0.017088731  0.016857832            5 
 2484000   0.86324563   -8.1651032    508.54711  0.017060759  0.016852115            6 
 2485000   0.87256006   -8.1489506    510.20599  0.017109523  0.016846365            5 
 2486000   0.83586834   -8.1509852    508.85267  0.017057276  0.016840645            4 
 2487000   0.87034112   -8.1756567    509.17819  0.017061325  0.016834885            2 
 2488000   0.82657367   -8.1283107    509.94457  0.017080137  0.016829119            7 
 2489000   0.85482497   -8.1436885    509.58972  0.017061394  0.016823345            3 
 2490000   0.85851106   -8.1472957    509.67616  0.017057435  0.016817594            2 
 2491000   0.87220229   -8.1505491    509.16447  0.017033469   0.01681182            1 
 2492000   0.84789299   -8.1626637    508.52319   0.01700519  0.016806014            2 
 2493000   0.85898864   -8.1420676    510.24662  0.017055977  0.016800209            6 
 2494000   0.87082524   -8.1870415    509.37104  0.017019882   0.01679438            3 
 2495000   0.86052593   -8.1733713    508.58928   0.01698695  0.016788561            3 
 2496000   0.85377033   -8.1756518    508.79161  0.016986899  0.016782726            2 
 2497000   0.85835012   -8.2010473    506.77544   0.01691281  0.016776875            2 
 2498000   0.85797259   -8.2054917    508.02472  0.016947715  0.016771037            2 
 2499000   0.83739488   -8.1600044    509.71275  0.016997224  0.016765168            2 
 2500000   0.86072958   -8.1792065    509.05398  0.016968466  0.016759332            3 
 2501000   0.85645841   -8.1584076    508.31634  0.016937103  0.016753527            2 
 2502000   0.83923325   -8.1471559    509.46742  0.016968672   0.01674776            2 
 2503000   0.86212663   -8.1832602    509.20171  0.016953047   0.01674197            5 
 2504000   0.85925426   -8.1833469    509.45538  0.016954718  0.016736149            3 
 2505000   0.84043314   -8.1728366    509.13594  0.016937323  0.016730356            2 
 2506000   0.85004506   -8.1390807    509.70156  0.016949374  0.016724554            2 
 2507000   0.85900834   -8.1653747    509.83981  0.016947208  0.016718753            4 
 2508000   0.85838877    -8.147607    510.50158   0.01696244  0.016712956            4 
 2509000   0.83559346   -8.1701288    509.82991   0.01693337  0.016707172            6 
 2510000   0.85604035   -8.1489815    511.45163  0.016980466  0.016701382            2 
 2511000   0.84043407   -8.1452737    509.15659  0.016897537  0.016695588            3 
 2512000   0.83721137   -8.1421964    509.72575  0.016909692   0.01668984            3 
 2513000   0.82962981    -8.154831    509.62111  0.016899493  0.016684081            2 
 2514000   0.85109387   -8.1596543    509.60102  0.016892105  0.016678282            3 
 2515000   0.83721035    -8.198004    508.80036  0.016858859  0.016672487            2 
 2516000   0.84126751   -8.1931638    509.04581  0.016860288  0.016666681            4 
 2517000   0.84474917   -8.1538145    509.79844  0.016878507  0.016660878            4 
 2518000   0.83431589   -8.1412111    508.13896  0.016816884  0.016655112            2 
 2519000    0.8396813   -8.1699369    509.25754  0.016847213  0.016649333            4 
 2520000   0.86765561   -8.1560156    510.50864    0.0168819  0.016643574            3 
 2521000   0.86342283   -8.1860162    510.55112  0.016876607  0.016637792            2 
 2522000   0.85580602   -8.1382051    510.37303  0.016864031  0.016632009            4 
 2523000   0.85115886   -8.2184708    508.43207  0.016793238  0.016626233            6 
 2524000   0.84723179   -8.1753514    508.86145  0.016800761  0.016620448            2 
 2525000   0.85251093   -8.1958669    511.65082  0.016886166  0.016614668            3 
 2526000   0.83458253   -8.1503967    510.79675  0.016851305   0.01660894            6 
 2527000   0.85929255   -8.1739233    510.07801  0.016820934  0.016603212            2 
 2528000   0.83385937   -8.1522275    511.42609  0.016858719   0.01659745            3 
 2529000   0.85772504   -8.1702241     510.1451  0.016809842  0.016591699            2 
 2530000   0.84394383   -8.1876058    510.59605  0.016818052  0.016585939            5 
 2531000   0.85122238   -8.1684917    510.51574  0.016808763  0.016580183            1 
 2532000   0.85847728   -8.1997264    510.18387  0.016791202  0.016574372            4 
 2533000   0.83421656   -8.1461496     510.4317  0.016792726  0.016568576            8 
 2534000   0.85261647   -8.1536521    512.34182  0.016848916  0.016562807            5 
 2535000   0.84849131   -8.1905355    510.49765  0.016781645  0.016557018            9 
 2536000   0.82424588   -8.1694843    511.19323  0.016797885  0.016551228            2 
 2537000   0.84901257   -8.1865646    510.48323  0.016767942  0.016545466            3 
 2538000   0.83865196   -8.1503291    512.84866  0.016839002  0.016539732            2 
 2539000    0.8313508   -8.2237874    509.31184  0.016716287  0.016534018            4 
 2540000   0.82767595   -8.1690303    511.41572  0.016778731  0.016528297            2 
 2541000   0.86173272   -8.1682671     511.1336  0.016762875  0.016522579            3 
 2542000   0.85599834   -8.1901138    510.93027  0.016749615  0.016516863            4 
 2543000   0.84195293   -8.1618972    511.64212  0.016766356  0.016511145            1 
 2544000   0.84864775   -8.1924293    510.59658  0.016725517  0.016505437            1 
 2545000   0.83065366   -8.1707118    510.57374  0.016718197  0.016499722            2 
 2546000   0.85008887    -8.171935    511.57328  0.016744347  0.016493978            3 
 2547000   0.87339657   -8.1855899    510.79023  0.016712153  0.016488286            5 
 2548000   0.84314049    -8.157385    510.58218  0.016698789  0.016482572            3 
 2549000   0.84207251   -8.1511216    512.09555  0.016741714  0.016476845            2 
 2550000   0.82732808   -8.1752995    511.20394  0.016706011  0.016471116            3 
 2551000   0.83880616   -8.1760083    511.61151  0.016712776  0.016465367            3 
 2552000   0.85079124    -8.167343    511.85135  0.016714059   0.01645961            3 
 2553000   0.84256456   -8.1874352    512.27702  0.016721407  0.016453849            1 
 2554000   0.84582735   -8.1579811    511.16733  0.016678652  0.016448113            2 
 2555000   0.85349281   -8.1950158    510.18564  0.016640106  0.016442396            3 
 2556000   0.84593968   -8.1747423    512.66353  0.016714382  0.016436675            3 
 2557000   0.84668867   -8.1798544    512.28451  0.016695493  0.016430915            2 
 2558000    0.8440549   -8.1546136     509.9851  0.016614057  0.016425168            3 
 2559000   0.85036559   -8.1835688    511.56705  0.016659081  0.016419414            4 
 2560000   0.84907212   -8.2193166    509.74901  0.016593392  0.016413659            2 
 2561000   0.84875566   -8.1475856    512.64341  0.016681095  0.016407973            6 
 2562000   0.84023391   -8.1953702    511.63124  0.016641661  0.016402287            2 
 2563000   0.82691935    -8.204432    511.00038  0.016614657  0.016396564            2 
 2564000   0.84770665   -8.1796801    512.04663  0.016642181  0.016390834            6 
 2565000   0.84053876   -8.2114158    511.33862  0.016612691  0.016385117            3 
 2566000   0.84599913   -8.1588579    512.31914   0.01663806  0.016379397            5 
 2567000   0.84623528   -8.1668518    512.92593  0.016651277  0.016373689            2 
 2568000   0.84695711   -8.1868842    513.41838  0.016660773  0.016367974            4 
 2569000    0.8500538   -8.1884158    512.33716  0.016619215  0.016362275            2 
 2570000   0.82709722   -8.1949065    511.26313  0.016577922  0.016356567            7 
 2571000   0.84560359   -8.1893955    511.38277  0.016575352  0.016350864           11 
 2572000   0.83505318   -8.1842364    512.44011  0.016603166   0.01634518            5 
 2573000   0.82633693   -8.1626555    512.62636  0.016602745  0.016339492            1 
 2574000   0.84456375   -8.1632129    513.08205  0.016611048  0.016333796            2 
 2575000   0.85546127   -8.1745318    512.09208  0.016572559  0.016328084            4 
 2576000   0.82158947   -8.1563023    512.19398  0.016569422  0.016322385            2 
 2577000   0.85138367   -8.2020277     512.1376  0.016561169  0.016316706            2 
 2578000   0.83961222   -8.1574747    511.60446  0.016537512  0.016311012            3 
 2579000    0.8309869   -8.1977131    511.65053  0.016532588   0.01630533            2 
 2580000   0.84342448   -8.1854108    513.28422  0.016578948   0.01629964            2 
 2581000   0.82278998   -8.1778049    512.15182  0.016535962  0.016293936            2 
 2582000   0.83793131   -8.1643037    513.11398  0.016560611  0.016288251            2 
 2583000   0.83209535   -8.1540632    512.46616    0.0165333  0.016282594            2 
 2584000   0.84194399   -8.1846462    512.23613  0.016519483  0.016276936            4 
 2585000    0.8412583   -8.1884501    513.76874    0.0165625  0.016271244            2 
 2586000   0.84358656   -8.1650748    513.55653  0.016549257  0.016265558            2 
 2587000   0.84252023   -8.2011802    513.51981  0.016541677  0.016259865            3 
 2588000   0.83102539   -8.1824967    513.45955  0.016533345  0.016254188            3 
 2589000   0.83173976   -8.1977759    513.29275   0.01652159  0.016248487            5 
 2590000   0.79921651   -8.1890523    511.16191  0.016446651  0.016242797            2 
 2591000   0.83837487    -8.153757    512.79938  0.016492968  0.016237154            7 
 2592000   0.82843881   -8.1653141    513.72543  0.016516378  0.016231515            2 
 2593000   0.84626043   -8.1659742    512.86952  0.016482501  0.016225847            3 
 2594000   0.83817599   -8.1914971    514.17142  0.016517972  0.016220185            2 
 2595000   0.83573547   -8.1672709    513.25279  0.016482106  0.016214519            3 
 2596000   0.84225793   -8.2091336    511.98884  0.016435183  0.016208869            5 
 2597000   0.83277646   -8.2159599     513.0443  0.016462723    0.0162032            4 
 2598000   0.83767244   -8.1777446    514.10404  0.016490379  0.016197524            2 
 2599000   0.84120879    -8.168549    513.13136  0.016452846  0.016191866            1 
 2600000   0.83068043   -8.1994234    513.03262  0.016443353  0.016186178            3 
 2601000   0.83721306   -8.2187715    512.83347  0.016430651  0.016180481            3 
 2602000   0.83752322   -8.2079463    512.76905  0.016422273  0.016174758            5 
 2603000   0.84715989    -8.217487    511.99032  0.016391033  0.016169016            2 
 2604000   0.82634823   -8.2053954    513.80759  0.016442895  0.016163301            4 
 2605000   0.84494018   -8.2038712    512.97255   0.01640987  0.016157598            3 
 2606000   0.83975371   -8.2216055    513.28595  0.016413595  0.016151932            8 
 2607000   0.83972165    -8.197657    513.90831  0.016427193  0.016146266            7 
 2608000   0.83607247    -8.177555    513.98668  0.016423399   0.01614064            4 
 2609000   0.82958705   -8.1597842    514.94585   0.01644774  0.016134997            1 
 2610000   0.85204046   -8.2271622    513.19726  0.016385608  0.016129331            2 
 2611000   0.82816741   -8.1863158    513.94196  0.016403101  0.016123682            6 
 2612000   0.83393326   -8.2076189    512.66448  0.016356064     0.016118            2 
 2613000   0.84093625   -8.1995148    513.65642  0.016381439  0.016112342            5 
 2614000   0.82204976   -8.1946426    513.71565  0.016377061  0.016106696            4 
 2615000   0.84176503   -8.2133468    514.67201  0.016401275  0.016101072            2 
 2616000   0.84727809   -8.2311254    513.31118  0.016351656  0.016095404            2 
 2617000   0.83357803   -8.2309379    513.11096  0.016339032  0.016089768            4 
 2618000   0.82859626   -8.2191486    513.84294   0.01635609   0.01608411            6 
 2619000   0.83903369   -8.2000688     515.1826  0.016392472  0.016078469            3 
 2620000   0.81142164   -8.1870971    515.29098  0.016389662  0.016072836            6 
 2621000   0.81794688   -8.2035344    514.55801  0.016360105  0.016067218            2 
 2622000   0.83301306   -8.2129128    514.29402  0.016345475  0.016061605            3 
 2623000    0.8364436   -8.1918848    514.29659  0.016339325  0.016056004            3 
 2624000   0.83920056   -8.2491858    514.95913  0.016354139  0.016050385            5 
 2625000   0.82242657   -8.2406741    514.41933  0.016330772  0.016044764            3 
 2626000   0.81544763   -8.1978319    515.09211  0.016345903  0.016039165            4 
 2627000   0.84881811   -8.2317545    514.10485  0.016308364  0.016033555           21 
 2628000   0.83580935   -8.1810103    515.13129  0.016334706   0.01602798           13 
 2629000   0.84017623   -8.1823852    515.99407  0.016355841  0.016022412            2 
 2630000   0.82590574   -8.1956931    515.04246   0.01631947  0.016016876            5 
 2631000   0.82247445   -8.1945854    516.79126  0.016368658  0.016011348            2 
 2632000   0.83799113   -8.2249752    515.61757  0.016325278  0.016005802            3 
 2633000   0.83624225   -8.1961084    515.99683  0.016331081  0.016000244            4 
 2634000   0.81011341   -8.2057889    516.37344  0.016336796  0.015994681            5 
 2635000   0.82512795   -8.2083535    514.71221  0.016278058  0.015989138            3 
 2636000   0.82004341   -8.1862763    515.35472  0.016292195  0.015983607            6 
 2637000   0.82979795   -8.2092396    515.70053  0.016296945  0.015978038            2 
 2638000   0.83909894   -8.2065131    515.22327  0.016275691  0.015972444            5 
 2639000   0.82346939   -8.2434718    513.96069  0.016229654  0.015966852            1 
 2640000   0.82946307   -8.2187768    515.31035  0.016266109  0.015961283            4 
 2641000   0.83301408   -8.1952256    514.07743  0.016221047  0.015955698            3 
 2642000   0.83121376    -8.212865    514.90316  0.016240952  0.015950087            5 
 2643000     0.819273   -8.2351909    514.01437  0.016206784  0.015944477            4 
 2644000   0.83251528   -8.1830656    515.31406  0.016241618  0.015938882            4 
 2645000   0.83961244   -8.1835015     514.5191  0.016210432  0.015933291            2 
 2646000   0.80999161   -8.2091829    516.12598  0.016254912  0.015927708            5 
 2647000   0.83395801   -8.2190022    515.03519  0.016214431  0.015922119            8 
 2648000   0.81712946   -8.2105525    514.30507  0.016185331  0.015916521            8 
 2649000   0.84132129   -8.2287872    515.87539  0.016228621  0.015910956            6 
 2650000   0.82309359   -8.2053409    515.60121  0.016213875  0.015905385            9 
 2651000   0.82180683   -8.2310489    515.95437   0.01621886  0.015899818            3 
 2652000   0.84497984    -8.239486     514.6136  0.016170613  0.015894237            5 
 2653000   0.84691073   -8.2144572    516.09655  0.016211099  0.015888668            3 
 2654000   0.83567183   -8.2456499    515.19287  0.016176616  0.015883083            5 
 2655000   0.83680089   -8.2155634    513.64611  0.016121975  0.015877466            3 
 2656000   0.82365395   -8.2131617    515.75183  0.016181972  0.015871866            2 
 2657000   0.81891725   -8.2294549    515.22486  0.016159355  0.015866302            2 
 2658000     0.841938    -8.244392    514.74977   0.01613838  0.015860701            2 
 2659000    0.8164131   -8.2479219    515.29379   0.01614936  0.015855103            5 
 2660000   0.83550155   -8.2107398    515.32439  0.016144248  0.015849529            3 
 2661000   0.83186633   -8.2326699    515.44946  0.016142098  0.015843962            5 
 2662000   0.80763535   -8.2132534    516.69427  0.016175002  0.015838415            4 
 2663000   0.83919704   -8.2142291    515.67121  0.016136914  0.015832907            3 
 2664000   0.80795924   -8.2113196    517.15078  0.016177139  0.015827388            4 
 2665000    0.8193933   -8.2024488    516.79027  0.016159796  0.015821875            4 
 2666000   0.82195346   -8.2357561    516.95705  0.016158947  0.015816355            4 
 2667000   0.83237996   -8.2241533    516.37149  0.016134592  0.015810805            3 
 2668000   0.84114874   -8.2633647    516.03223  0.016117948  0.015805236            3 
 2669000   0.84006633   -8.2378534    515.93458   0.01610886  0.015799675            4 
 2670000    0.8315601   -8.2082569    515.57236  0.016091522  0.015794105            1 
 2671000   0.83228513   -8.2278754    514.99488   0.01606748  0.015788578            5 
 2672000   0.83908004   -8.2234236    516.82877  0.016118662  0.015783049            4 
 2673000   0.82063965   -8.2518521    517.34703  0.016128789  0.015777511            5 
 2674000   0.82948486   -8.2243567    516.99864    0.0161119  0.015771991            7 
 2675000    0.8344611   -8.2598343    516.07288  0.016077037  0.015766443           11 
 2676000   0.81175588   -8.2666731    515.90332  0.016065749  0.015760877            3 
 2677000   0.82394051   -8.2537453    516.24761  0.016070465  0.015755317            3 
 2678000   0.83698271   -8.2413693    515.39154  0.016037825  0.015749803            2 
 2679000    0.8064098   -8.2183751    516.35303  0.016061747  0.015744266            8 
 2680000   0.80346761   -8.2329441    515.91649  0.016042179  0.015738717            4 
 2681000   0.81487205   -8.2324679    516.19285  0.016044786  0.015733157            8 
 2682000   0.82241228   -8.2698248     516.4336  0.016046284  0.015727583            4 
 2683000   0.81659948   -8.2391998    517.27815  0.016066535  0.015722031            2 
 2684000   0.82836279   -8.2794966    516.25593  0.016028811  0.015716493            3 
 2685000   0.81987029   -8.2473308    516.61106  0.016033863  0.015710972            7 
 2686000   0.80646477   -8.2783536     516.2008  0.016015165  0.015705452            2 
 2687000   0.81886274   -8.2327599    516.81605  0.016028286   0.01569996            2 
 2688000   0.82341486   -8.2485531    515.93885  0.015995128  0.015694441            5 
 2689000    0.8159371   -8.2591381    515.93279  0.015988992  0.015688942            4 
 2690000   0.81999814   -8.2818113    516.10346  0.015988335  0.015683411            2 
 2691000   0.80041188   -8.2618655    515.13624  0.015952441  0.015677876            2 
 2692000   0.80789658    -8.225854    517.04443  0.016005585  0.015672353            3 
 2693000   0.81240012   -8.2507551    516.37382   0.01597889  0.015666834            2 
 2694000   0.83331666   -8.2436958    517.08809  0.015995053  0.015661317            3 
 2695000   0.81337721   -8.2481558    516.95381  0.015984966  0.015655811            2 
 2696000   0.82065003   -8.2569187    516.84641  0.015975718  0.015650277            5 
 2697000    0.8340278   -8.2579442    515.38709  0.015924703  0.015644714            5 
 2698000    0.8259629   -8.2360644    515.86512  0.015933566  0.015639158            2 
 2699000    0.8393485   -8.2334539     517.1537  0.015967448  0.015633612            3 
 2700000   0.80407449   -8.2493352    516.90225  0.015953773  0.015628079            3 
 2701000    0.8138551   -8.2572103     517.4126  0.015963612  0.015622557            3 
 2702000   0.82874955     -8.24374    516.73166  0.015936703  0.015617034            2 
 2703000   0.83337577   -8.2668815     515.9035  0.015905275  0.015611509            2 
 2704000   0.82175062   -8.2309778    517.05142   0.01593477  0.015605983            2 
 2705000   0.80508827   -8.2689215    517.87529   0.01595426  0.015600452            8 
 2706000   0.81261028   -8.2601759    516.91951  0.015918931  0.015594923            4 
 2707000   0.82346618   -8.2286619    516.52945  0.015901042  0.015589409            3 
 2708000   0.81601244   -8.2389633    517.02262  0.015910347  0.015583905            3 
 2709000   0.81535788    -8.257761    517.22197  0.015910606  0.015578383            6 
 2710000   0.81998321   -8.2535132    516.76093  0.015890558  0.015572869            4 
 2711000   0.80999931   -8.2826017    515.54967  0.015847463  0.015567334            3 
 2712000   0.84267136   -8.2586744     515.9163  0.015852885  0.015561833            4 
 2713000   0.80486817   -8.2286066    516.69576  0.015870984  0.015556308            4 
 2714000   0.80843981   -8.2363919    517.46039  0.015888614  0.015550807            2 
 2715000   0.80577974   -8.2372155    516.74194   0.01586071   0.01554532            1 
 2716000   0.81558589   -8.2542728    517.07054  0.015864953  0.015539792            5 
 2717000   0.81738429    -8.244625      517.765  0.015880414  0.015534254            3 
 2718000   0.82205978   -8.2608756    515.50898  0.015805402  0.015528719           10 
 2719000   0.83088953   -8.2641365    516.83251  0.015840153  0.015523171            5 
 2720000   0.80193291   -8.2882489    515.40738  0.015790667  0.015517618            3 
 2721000   0.82163797   -8.2919988     515.5862  0.015790341  0.015512044            3 
 2722000    0.8182372   -8.2821258    516.66205  0.015817476  0.015506493            5 
 2723000   0.82649203    -8.260621    515.40058  0.015773062  0.015500918            2 
 2724000   0.81916829   -8.2544349     516.2166  0.015792236   0.01549535            1 
 2725000   0.81232443   -8.2929357    516.24337  0.015787259  0.015489769            3 
 2726000    0.8106646   -8.3157097    515.08411  0.015746029  0.015484186            3 
 2727000   0.81517613   -8.2952446    516.02629  0.015769047  0.015478577            6 
 2728000   0.81588971   -8.2987037    515.39668  0.015744033  0.015472965            3 
 2729000   0.84233571   -8.2808367    516.51715  0.015772479  0.015467368            4 
 2730000   0.81076387    -8.312695    515.92162  0.015748523  0.015461756            7 
 2731000   0.81118781   -8.2645331    516.68811  0.015766145  0.015456164            2 
 2732000   0.81182834   -8.2588871    515.83356  0.015734308  0.015450554            4 
 2733000   0.81431669   -8.2822326    516.48399  0.015748384  0.015444991            2 
 2734000   0.80854534   -8.3088931    515.52932  0.015713525  0.015439433            3 
 2735000   0.80475966   -8.2941365    515.30967  0.015701087  0.015433865            4 
 2736000   0.82785773     -8.29638     516.2673  0.015724516  0.015428297            3 
 2737000   0.80727189   -8.2784205    515.96893  0.015709686  0.015422767            4 
 2738000   0.81472921   -8.2811523    516.87384   0.01573149  0.015417238            2 
 2739000   0.80849371   -8.3041961    517.00263  0.015729665  0.015411712            3 
 2740000   0.80064787   -8.2862223    517.19388  0.015729741  0.015406174            7 
 2741000   0.80615411   -8.2559849    517.41276  0.015730657  0.015400642            4 
 2742000   0.81722184   -8.2634086    518.66437  0.015762958  0.015395111            2 
 2743000   0.81406299   -8.2758733    517.60956  0.015725166  0.015389606            8 
 2744000   0.82341342   -8.2612965      517.039  0.015702108  0.015384101            2 
 2745000   0.82708118   -8.2620233     517.9938  0.015725373  0.015378617            2 
 2746000   0.81113542   -8.2756953    518.43415   0.01573301  0.015373147            4 
 2747000   0.81332883   -8.2886888    516.81605  0.015678196  0.015367661            3 
 2748000   0.82076076   -8.3013432    517.48017   0.01569263  0.015362166            2 
 2749000    0.8122135    -8.285581    518.21778  0.015709281  0.015356668            2 
 2750000   0.81894343   -8.2889821    515.91486  0.015633784  0.015351176            2 
 2751000   0.80351909   -8.2959098    518.05736  0.015693001   0.01534567            3 
 2752000   0.81551045   -8.2553088    517.13146  0.015659262  0.015340168            2 
 2753000   0.80470071   -8.2734288    517.55553   0.01566641  0.015334686            2 
 2754000   0.80302492   -8.2910207    517.66298  0.015663973  0.015329184            5 
 2755000    0.8150275   -8.2781232    517.48223   0.01565282  0.015323688            4 
 2756000   0.80453259   -8.2719932    517.70535  0.015653887  0.015318203            3 
 2757000    0.8184634   -8.2535434    517.23028   0.01563385  0.015312722            2 
 2758000   0.81244535   -8.3271884    517.50237  0.015636402  0.015307232            4 
 2759000   0.80168305   -8.2676702    518.01933  0.015646349  0.015301752            2 
 2760000   0.80958844   -8.2880162    518.76529  0.015663203  0.015296286            2 
 2761000   0.80092489   -8.3038999     517.3083  0.015613555  0.015290811            4 
 2762000   0.82872237   -8.2837906     518.7065  0.015650087  0.015285343            2 
 2763000   0.80710559   -8.2532515    518.42359  0.015635891  0.015279896            1 
 2764000   0.82818659   -8.2719286    518.08501  0.015620026  0.015274461            2 
 2765000   0.80456988    -8.262811    518.00066  0.015611834  0.015269051            4 
 2766000   0.79930928   -8.2764756    518.75439  0.015628898  0.015263619           10 
 2767000   0.79897104   -8.2856673    518.20166  0.015606603  0.015258203            3 
 2768000   0.81859001   -8.2879287    518.89224  0.015621756  0.015252787            3 
 2769000    0.7968351   -8.2791762    518.99321  0.015619153  0.015247358            4 
 2770000   0.83646332   -8.2725597    518.07455  0.015585877  0.015241935            2 
 2771000   0.79697206   -8.2936259    518.18671  0.015583625  0.015236538            6 
 2772000   0.78260235   -8.2680661    519.44477  0.015615824  0.015231138            3 
 2773000   0.79498655   -8.2884334    519.09581  0.015599706   0.01522577            2 
 2774000   0.80286829    -8.267653    518.52824  0.015577032  0.015220401            2 
 2775000   0.80025942   -8.2676137    518.91823   0.01558313  0.015215028            2 
 2776000   0.80006073   -8.2511651    519.02615  0.015580756  0.015209653            2 
 2777000   0.79013093   -8.2343122    520.83918  0.015629552  0.015204309            2 
 2778000   0.80143024   -8.2252019    520.72238  0.015620422  0.015198991            2 
 2779000   0.81787772   -8.2665761    519.45383  0.015576761  0.015193676            2 
 2780000   0.81134026   -8.2313386    520.47834  0.015601869  0.015188339            3 
 2781000   0.80702631   -8.2965587    519.68318  0.015572431  0.015183007            2 
 2782000   0.80177434   -8.2703816    520.34351  0.015586614  0.015177648            1 
 2783000   0.81717757   -8.2793035     519.9038  0.015567846  0.015172286            3 
 2784000   0.80817406   -8.3117246    519.04663  0.015536597  0.015166923            2 
 2785000   0.80001517   -8.3159057    519.78335  0.015553063  0.015161534            2 
 2786000   0.80399302   -8.3138386    518.87346  0.015520264  0.015156165            4 
 2787000   0.79009132   -8.3063497    518.97879  0.015517845  0.015150788            9 
 2788000   0.81406264   -8.2807012    519.50253  0.015527933  0.015145432            2 
 2789000    0.8018696   -8.2906621    521.42159  0.015579706  0.015140066            6 
 2790000   0.80647966   -8.3024324     520.5178  0.015547127  0.015134689            3 
 2791000   0.79275402   -8.3152432    519.75369  0.015518741  0.015129333            2 
 2792000   0.81245301   -8.2756946    521.69789  0.015571212  0.015123985            2 
 2793000   0.80798846   -8.3191489      518.618  0.015473744  0.015118623            2 
 2794000   0.80026097    -8.289043    520.32787  0.015519204  0.015113272            7 
 2795000   0.81293235   -8.3084379    519.75877  0.015496684  0.015107902            6 
 2796000   0.81468611   -8.2818339    519.37185  0.015479609  0.015102518            5 
 2797000   0.79674052   -8.3040091    518.72216  0.015454718  0.015097136            7 
 2798000    0.8275384   -8.3095141    519.58303  0.015474834   0.01509175            2 
 2799000   0.80586482   -8.3307061    518.05074  0.015423685  0.015086369            2 
 2800000   0.82198883   -8.2993526    519.64216   0.01546554  0.015080984            6 
 2801000   0.81554138   -8.3138518    518.57775  0.015428351  0.015075597            4 
 2802000   0.79887172   -8.3003087    519.50707  0.015450484  0.015070188            3 
 2803000   0.79694236   -8.3274408    518.65683  0.015419694  0.015064794            3 
 2804000   0.79670011   -8.2932795    518.91886  0.015421982  0.015059411            2 
 2805000   0.80567295   -8.3081632    519.54174  0.015434989  0.015054041            5 
 2806000   0.81417882   -8.3408621    519.52518  0.015428997   0.01504866            5 
 2807000   0.81253618   -8.2946567    519.85417  0.015433267   0.01504326            4 
 2808000    0.7885556   -8.3258575    519.77162  0.015425321  0.015037883            4 
 2809000   0.78640096   -8.3096637    518.24216  0.015374456  0.015032483            3 
 2810000   0.80895525   -8.3220732    518.91781  0.015389022    0.0150271            4 
 2811000    0.8068581   -8.2996926    520.30093   0.01542455  0.015021726           10 
 2812000   0.81184333   -8.2979855    519.27113  0.015388547  0.015016365            3 
 2813000   0.81818158   -8.3220879    518.92543  0.015372835  0.015011001            4 
 2814000   0.79566861   -8.2992914    519.59304  0.015387143  0.015005631           11 
 2815000   0.79702048    -8.311413    518.67986  0.015354644  0.015000241            3 
 2816000   0.79952494   -8.2983159     520.2032  0.015394271  0.014994853            3 
 2817000   0.80367219   -8.2766232    519.11049  0.015356481  0.014989475            8 
 2818000   0.79143558    -8.305523    519.74665  0.015369844  0.014984113            1 
 2819000    0.8009394   -8.2865248    520.26144   0.01537961  0.014978783            2 
 2820000    0.7977456   -8.2779408    519.79367  0.015360333  0.014973446            2 
 2821000   0.79910375   -8.3279974     519.8637  0.015356957  0.014968086            2 
 2822000   0.80206005   -8.3080607    519.82222   0.01535029  0.014962723            5 
 2823000   0.81282233   -8.3070137    519.01153  0.015320921  0.014957342            3 
 2824000   0.78937577   -8.2946191    520.33071  0.015354424  0.014951946            2 
 2825000   0.80009645   -8.2871641    520.70432  0.015360009  0.014946577            1 
 2826000   0.80558423   -8.3103522     519.2601  0.015311987  0.014941209            4 
 2827000   0.79752933    -8.303324    519.90331  0.015325531  0.014935875            3 
 2828000   0.80700049   -8.2853841    519.89122  0.015319755  0.014930548            2 
 2829000   0.80205479     -8.30534    520.03912  0.015318697  0.014925226            4 
 2830000   0.81266433   -8.2833443    519.74648  0.015304667  0.014919885            2 
 2831000   0.80004433   -8.2875446    518.99291  0.015277078  0.014914526            2 
 2832000   0.80853567   -8.2951658    520.16773  0.015306254  0.014909166            3 
 2833000    0.8071946   -8.3131189    519.22508  0.015273123  0.014903809            2 
 2834000    0.7884489   -8.3166963    519.91753  0.015288095  0.014898432            4 
 2835000   0.80335253    -8.344981    519.42002  0.015268078  0.014893076            2 
 2836000   0.80312799   -8.3392391    519.07924  0.015252681  0.014887704            3 
 2837000   0.79266766   -8.3591901    518.63354  0.015234213  0.014882318            6 
 2838000   0.78263036   -8.3276081    518.05351  0.015211813  0.014876929            8 
 2839000   0.78860003    -8.326985    518.75598  0.015227075  0.014871553            2 
 2840000   0.79216679    -8.324676    519.79634   0.01525224    0.0148662            4 
 2841000   0.78070169   -8.2834847    519.50583   0.01523835  0.014860885           12 
 2842000   0.79410838   -8.2923986    519.74038  0.015239866  0.014855548            7 
 2843000    0.8131147    -8.329484     519.1497  0.015217191  0.014850198            3 
 2844000   0.79059798   -8.3153423     520.6055  0.015254498  0.014844836            2 
 2845000   0.79362567   -8.2871332      520.878  0.015257118  0.014839542            2 
 2846000   0.78600909   -8.3099282    520.31483  0.015235267  0.014834212            2 
 2847000   0.79741036    -8.321478    519.93357  0.015218756   0.01482888            4 
 2848000   0.79631682   -8.3189935    520.28459  0.015223683  0.014823569            6 
 2849000   0.78687956   -8.3283589     520.4662  0.015223652  0.014818261            5 
 2850000   0.78944924   -8.3329794    520.17744  0.015209867  0.014812967            2 
 2851000   0.78716833   -8.3182076    520.65377  0.015218455  0.014807653            3 
 2852000   0.79805967   -8.3353683    520.48264  0.015208118  0.014802345            2 
 2853000   0.78906369   -8.2957298    521.27183  0.015225839  0.014797084            6 
 2854000   0.79605699   -8.2796771    520.78722  0.015206354  0.014791806            3 
 2855000   0.78718872   -8.3030846    521.34416  0.015217284  0.014786548            7 
 2856000   0.81130096   -8.3061911    521.20376  0.015207859   0.01478128            4 
 2857000   0.79547471   -8.3057695     520.2641  0.015175128  0.014776002            6 
 2858000   0.79521817    -8.324579    521.64466  0.015210073  0.014770733            3 
 2859000   0.78138687   -8.3097997    521.86032  0.015211039  0.014765442            2 
 2860000   0.80302645   -8.3462228    521.87643   0.01520619  0.014760157            2 
 2861000   0.80693782   -8.2798167    521.05725  0.015177014  0.014754882            3 
 2862000   0.79977384   -8.3340344    520.29708  0.015149577  0.014749605            4 
 2863000   0.80527419   -8.3273532    521.02364  0.015165434   0.01474434            3 
 2864000   0.80384291    -8.334486    521.16726  0.015164317  0.014739056            6 
 2865000   0.80184155   -8.3081496    521.38425  0.015165336    0.0147338            2 
 2866000   0.78050869   -8.3012904    521.20116  0.015154721  0.014728558            1 
 2867000   0.80235162   -8.3237132     520.3816  0.015125613  0.014723312            1 
 2868000    0.7898634   -8.3358615    521.21198  0.015144467  0.014718063            1 
 2869000   0.79681987   -8.2767107    521.98716  0.015161705  0.014712825            3 
 2870000   0.80957101   -8.3162322    522.01408  0.015157203  0.014707602            2 
 2871000   0.78798567   -8.3236828    521.10841  0.015125636  0.014702375            3 
 2872000   0.79148757   -8.3262452    520.93068  0.015115212  0.014697157            4 
 2873000   0.78971906   -8.2879499    522.35093  0.015151147  0.014691937            2 
 2874000   0.78623222   -8.2457923    522.56719  0.015152145  0.014686732            1 
 2875000   0.78135775   -8.2887734    522.12324  0.015134007  0.014681543            3 
 2876000    0.7859282   -8.3061358    522.42865  0.015137594  0.014676346            2 
 2877000   0.79042152   -8.2978491    522.46408  0.015133359  0.014671126            2 
 2878000   0.78314688   -8.3065241    523.82774  0.015167586  0.014665912            2 
 2879000   0.79625006   -8.2888595    522.04164  0.015110618   0.01466071            2 
 2880000   0.77714523   -8.3024525      522.336  0.015113889  0.014655519            3 
 2881000   0.78626425   -8.3293348    520.44309   0.01505389  0.014650306            7 
 2882000   0.79800379   -8.3194752     522.4591   0.01510696  0.014645109            4 
 2883000   0.78161024   -8.3123551     522.7167  0.015109166  0.014639912            2 
 2884000   0.79191871   -8.3213606    522.33968  0.015093033  0.014634714            3 
 2885000   0.78253162   -8.3447715    521.55963   0.01506527  0.014629515            3 
 2886000   0.80253063   -8.3118174    522.51244  0.015087562  0.014624313            1 
 2887000   0.80676769   -8.2987327    521.88021  0.015064087  0.014619111            3 
 2888000    0.8040552   -8.3297998     522.0078  0.015062552  0.014613907            3 
 2889000   0.80000459    -8.353437    521.53512  0.015043704   0.01460871            1 
 2890000   0.78594833   -8.3604228    522.11027  0.015055083  0.014603498            3 
 2891000   0.79816516   -8.3328056    522.08331  0.015049098  0.014598296            2 
 2892000   0.78071763   -8.3356838    522.67127  0.015060836  0.014593083            3 
 2893000   0.79404289   -8.3260417    522.63396  0.015054556  0.014587906            4 
 2894000   0.77686306   -8.3380704    522.36492  0.015041607   0.01458273            6 
 2895000   0.77406849   -8.3127582    522.56828  0.015042265  0.014577564            3 
 2896000   0.79459327   -8.3113583    522.64424  0.015039256  0.014572382            2 
 2897000   0.78802689   -8.3549305    522.46307  0.015028854  0.014567202            2 
 2898000   0.78800211   -8.3239047    523.55851  0.015055168  0.014562014            3 
 2899000   0.78197164   -8.3437671    522.27238  0.015013004  0.014556818            3 
 2900000   0.78942954   -8.3345582    521.50529  0.014985784  0.014551616            2 
 2901000   0.79325597    -8.337646    521.92976  0.014992812  0.014546403            3 
 2902000   0.81208408    -8.349913    522.17851  0.014994788  0.014541182            5 
 2903000   0.78899136   -8.3193397    522.36135  0.014994872  0.014535947            9 
 2904000   0.81010751   -8.3685735    521.28157  0.014958723   0.01453073            5 
 2905000   0.79743665    -8.317435    522.59546  0.014991264  0.014525522            4 
 2906000   0.77503457   -8.3346289    520.70693  0.014931949  0.014520331            5 
 2907000   0.79250541   -8.3427371     521.6626  0.014954208  0.014515124            4 
 2908000   0.77196555   -8.3493816    521.27428  0.014937938  0.014509922            4 
 2909000   0.77845562   -8.3592389    521.07357  0.014927053  0.014504709            4 
 2910000   0.78572569   -8.3433017    523.06208  0.014978868  0.014499501            5 
 2911000   0.79365919   -8.3577143    523.19841  0.014977625  0.014494306            4 
 2912000   0.78177674   -8.3692759    522.58091  0.014954811  0.014489116            3 
 2913000   0.78969036   -8.3683125    522.87543  0.014958102  0.014483937            6 
 2914000   0.78585957   -8.3531395    521.81643  0.014922685  0.014478749            5 
 2915000   0.77161336   -8.3832476    521.41181  0.014905998  0.014473571            6 
 2916000   0.76798374   -8.3359131    522.35082  0.014927721  0.014468388            5 
 2917000    0.7982019   -8.3417818    521.60429  0.014901277  0.014463188            3 
 2918000   0.78514954    -8.360818    522.25019  0.014914616  0.014458014            3 
 2919000   0.79415994   -8.3274934    522.38844  0.014913453  0.014452846            5 
 2920000   0.78852165    -8.332959    523.18205  0.014930995  0.014447703            5 
 2921000   0.77921757   -8.3466236    522.61496  0.014909704  0.014442548            7 
 2922000   0.77810485   -8.3830553     521.9537  0.014885743  0.014437364            2 
 2923000   0.78713427   -8.3674409    521.64519  0.014871855  0.014432184            3 
 2924000   0.78426837   -8.3601722    522.51494  0.014891557  0.014427006            5 
 2925000   0.79626389   -8.3597893    522.18798   0.01487715  0.014421819            3 
 2926000   0.78687605   -8.3738451    522.10153  0.014869604  0.014416658            3 
 2927000   0.79894552   -8.3467745    521.57204  0.014849449  0.014411512            3 
 2928000   0.78512326   -8.3312638    522.62997  0.014874487  0.014406383            3 
 2929000    0.7746863   -8.3297905    524.04223  0.014909589  0.014401293            4 
 2930000   0.78894321   -8.3088736    524.52003   0.01491809  0.014396182            6 
 2931000   0.79108435   -8.3310377    522.91895  0.014867478  0.014391082            5 
 2932000   0.79417871   -8.3237264    522.38561  0.014847249  0.014385971            1 
 2933000   0.76844279   -8.3390368    522.44359  0.014843834  0.014380863            5 
 2934000   0.76848553   -8.2999747      524.097  0.014885736  0.014375789            2 
 2935000   0.79723279    -8.365021     523.4845  0.014863274  0.014370692            3 
 2936000   0.78349196   -8.3559608    524.21042  0.014878815  0.014365596            3 
 2937000    0.7885514   -8.3448715    522.30014  0.014819548  0.014360503            4 
 2938000   0.78877956     -8.36244    523.22632  0.014840774  0.014355386            2 
 2939000   0.77804796   -8.3500047      522.334  0.014810423  0.014350265            3 
 2940000   0.76859649   -8.3891263    523.12093  0.014827691  0.014345147            3 
 2941000   0.78093096   -8.3191575    523.63795  0.014837299  0.014339997            6 
 2942000   0.79258825   -8.3564258    523.49889  0.014828317  0.014334876            4 
 2943000   0.78484201   -8.3553605    523.20868  0.014815061  0.014329743            3 
 2944000   0.78338575   -8.3641083      523.538   0.01481935  0.014324624            4 
 2945000   0.79463866   -8.3392267    523.16471  0.014803755  0.014319518            5 
 2946000   0.76906566   -8.3726198    522.48994  0.014779643  0.014314407            3 
 2947000   0.77690063   -8.3537888     523.7242   0.01480953  0.014309289            5 
 2948000   0.79966223   -8.3526848    522.21955  0.014761973  0.014304169            4 
 2949000   0.78547469   -8.3640655    523.05908  0.014780691  0.014299056            5 
 2950000   0.78215424   -8.3581247    524.16916  0.014807039  0.014293943            3 
 2951000   0.79059868   -8.3870141    522.09763  0.014743523  0.014288799            5 
 2952000   0.78391879   -8.3405089    522.88105  0.014760644  0.014283666            4 
 2953000   0.75598229   -8.3514344    523.63423    0.0147769   0.01427853            4 
 2954000   0.78056224   -8.3426134    523.52245  0.014768744  0.014273431            4 
 2955000   0.78393527   -8.3910707    522.62665  0.014738484  0.014268323            7 
 2956000   0.77539415   -8.3727368     522.3835  0.014726643    0.0142632            5 
 2957000    0.7861457   -8.3572406     523.7156  0.014759204  0.014258088            3 
 2958000   0.78560167   -8.3620985    523.71191  0.014754111  0.014252967            2 
 2959000   0.77817944   -8.3496284    522.99988  0.014729072  0.014247861            1 
 2960000   0.80732566   -8.3377353    523.71016  0.014744092  0.014242752            5 
 2961000   0.79926622   -8.3654869    522.20436  0.014696734  0.014237651            2 
 2962000    0.8022541   -8.3521821    522.31685  0.014694937  0.014232535            3 
 2963000   0.77801876   -8.3654314     523.1374  0.014713055  0.014227417            3 
 2964000   0.78859076   -8.3866806    521.90769  0.014673518  0.014222281            4 
 2965000   0.77163623   -8.3932851    522.09574  0.014673855  0.014217147           10 
 2966000   0.79216435   -8.3611612    522.84707  0.014690017   0.01421201            5 
 2967000   0.77776967   -8.3459361    523.22599  0.014695708  0.014206903            3 
 2968000   0.75826607   -8.3502182    523.06966  0.014686367  0.014201811            5 
 2969000    0.7854168   -8.3854554    522.71755  0.014671538   0.01419674            3 
 2970000    0.7696439   -8.3573445    523.57206  0.014690574   0.01419164            5 
 2971000   0.76940411   -8.3747694    521.96544  0.014640566   0.01418654            2 
 2972000   0.77489429   -8.3862332     522.5046  0.014650757  0.014181415            4 
 2973000   0.77151312   -8.3895299    522.49502  0.014645561  0.014176294            3 
 2974000   0.78005388   -8.4152748    522.15752  0.014631179  0.014171163            6 
 2975000   0.78066855   -8.4142463     521.2564  0.014601019  0.014166032            4 
 2976000   0.78684472   -8.4064724    521.85819  0.014612964  0.014160884            3 
 2977000   0.77488088   -8.4035345    521.68097  0.014603095  0.014155759            3 
 2978000   0.77681862   -8.4144718    521.84066   0.01460266   0.01415062            2 
 2979000    0.7654674   -8.3945548    521.92163  0.014600023  0.014145495            4 
 2980000   0.77854596   -8.4078966    522.68832  0.014616564  0.014140383            3 
 2981000    0.7492495   -8.4277467    522.69699  0.014611903  0.014135268            8 
 2982000   0.78178529   -8.3791869    522.80288  0.014609962  0.014130153            7 
 2983000   0.80380214   -8.4134981    522.25622  0.014589793  0.014125039            4 
 2984000    0.7779513   -8.3730635    523.64811  0.014623774  0.014119935            5 
 2985000   0.76067455   -8.4167619    523.49879  0.014614707  0.014114832            5 
 2986000   0.76865637   -8.4346031    521.32306  0.014549092  0.014109728            8 
 2987000   0.77840191   -8.3932346    521.58213  0.014551449  0.014104583            4 
 2988000   0.77941196   -8.4058459     521.7129  0.014550226  0.014099459            5 
 2989000   0.75696714   -8.4011531    521.49346   0.01453924  0.014094341            3 
 2990000   0.76662392   -8.4099768    521.92249  0.014546335  0.014089229            2 
 2991000   0.76715891   -8.4018789    522.97983   0.01457093  0.014084125            3 
 2992000   0.76044612   -8.4220172    522.20765  0.014544553  0.014079006           11 
 2993000   0.77275476   -8.4187916     522.9028  0.014559049  0.014073888            6 
 2994000   0.76279705   -8.4028387    522.34244   0.01453859  0.014068788            4 
 2995000   0.78482621   -8.3970426    524.03596  0.014580856  0.014063687            3 
 2996000   0.77564247   -8.3738387    523.33995   0.01455663   0.01405859            2 
 2997000   0.79038066   -8.4093289    522.70924  0.014534235  0.014053506            1 
 2998000   0.78542151   -8.3724086    523.39217   0.01454837  0.014048426            2 
 2999000   0.77247765   -8.4255207    521.82175  0.014499882  0.014043335            3 
 3000000   0.77236845   -8.4201144     522.5306  0.014514739  0.014038238            6 
 3001000   0.78071974   -8.3994016     523.3546  0.014532783  0.014033136            2 
 3002000   0.77762796   -8.4154557    522.03331  0.014491264  0.014028043            2 
 3003000    0.7891218   -8.3864406    522.45207  0.014498059  0.014022932            4 
 3004000   0.76685234   -8.4059479    522.68149  0.014499598  0.014017841            1 
 3005000   0.78041428   -8.3947399    523.80582  0.014525952  0.014012762            4 
 3006000   0.75220277   -8.3981041     522.0332  0.014471978   0.01400769            2 
 3007000   0.77893228   -8.4381422    522.13648  0.014470028  0.014002602            2 
 3008000   0.77929834   -8.4001161    522.51243  0.014475632  0.013997505            3 
 3009000   0.77830942   -8.4122706    523.22939  0.014490678    0.0139924            3 
 3010000   0.76910351   -8.3644476    524.92896  0.014532917  0.013987314            2 
 3011000   0.80366276   -8.3732449    523.64827  0.014492646  0.013982241            7 
 3012000   0.76788699   -8.3906061    522.47106  0.014455264  0.013977187            6 
 3013000   0.76641509   -8.3891844    523.53652  0.014479935  0.013972116            2 
 3014000   0.77476381   -8.3842375    523.96147   0.01448688  0.013967064            9 
 3015000   0.76960856    -8.377173    524.57619  0.014499065  0.013962014            5 
 3016000   0.76933174   -8.3887386    522.65519   0.01444118  0.013956979           11 
 3017000    0.7897242   -8.3800182    523.03979  0.014447017  0.013951953            5 
 3018000   0.76324034   -8.3846427    523.24188   0.01444781  0.013946924            3 
 3019000   0.76673704    -8.397044    523.00533  0.014436495  0.013941885            4 
 3020000   0.77054305   -8.3905328     522.5227  0.014418397  0.013936826            3 
 3021000   0.78999953   -8.4071172    522.86499  0.014423066   0.01393177            4 
 3022000   0.77161398   -8.4133504    523.15672  0.014426338  0.013926698            7 
 3023000   0.77280479   -8.3725798    524.24543  0.014451578  0.013921647            3 
 3024000   0.75684642   -8.3942221    524.02747  0.014440792  0.013916597            3 
 3025000    0.7704077   -8.4032769    522.44762  0.014392496   0.01391152            4 
 3026000   0.78494947   -8.3823425    523.51452  0.014417122  0.013906484            3 
 3027000   0.77609862   -8.3927993    523.64513  0.014415955  0.013901438            4 
 3028000   0.75559094   -8.3964659    522.07556  0.014367998  0.013896386            3 
 3029000   0.76924364   -8.3884837    521.60259  0.014350242   0.01389133            7 
 3030000   0.76551284   -8.3815121    523.22943  0.014390248   0.01388629            4 
 3031000   0.76842812    -8.413516    522.72549  0.014371646  0.013881245            3 
 3032000   0.75702941   -8.4095377    522.65888  0.014365075  0.013876199            9 
 3033000    0.7703068   -8.4335684    522.82639  0.014364941  0.013871147            5 
 3034000   0.76410945   -8.4526533    522.73749  0.014357765  0.013866087            2 
 3035000    0.7493871   -8.3990192    523.33738  0.014369505  0.013861034            6 
 3036000   0.75919023   -8.4178459    522.46663  0.014340871  0.013855996            7 
 3037000   0.75760598   -8.3888421    522.87527  0.014347362  0.013850971            4 
 3038000   0.76405204   -8.4000999    522.88019  0.014342775  0.013845946            7 
 3039000   0.77166949   -8.4178479    523.78586   0.01436289  0.013840919            5 
 3040000   0.76422069   -8.3659985    524.36421  0.014374019  0.013835905            6 
 3041000   0.75231268   -8.4084321    522.68425  0.014323256  0.013830884            4 
 3042000   0.77184111   -8.4275004    523.07027  0.014329122  0.013825858            5 
 3043000   0.77085593   -8.4039354    523.23847  0.014329019  0.013820821            5 
 3044000   0.76917022   -8.4204675    522.84825  0.014313629  0.013815786            3 
 3045000   0.77594402   -8.4164743    522.80731  0.014307808   0.01381076            2 
 3046000   0.76163233    -8.407638    522.68763  0.014299837  0.013805737            2 
 3047000   0.76576933   -8.3994481    523.24276  0.014310326  0.013800737            3 
 3048000   0.77441534   -8.3896103    523.99753  0.014326267  0.013795735            6 
 3049000   0.76686993   -8.4015292    523.38857  0.014304924  0.013790732            4 
 3050000   0.74884923    -8.395387    523.37204  0.014299783  0.013785735            3 
 3051000    0.7417558   -8.4395306    522.62641   0.01427473  0.013780716            3 
 3052000   0.76274659    -8.415085    522.45019  0.014265241  0.013775689            2 
 3053000   0.77457808   -8.4242914    523.47653  0.014288583  0.013770664            6 
 3054000   0.78444669   -8.4199365    524.46475  0.014310869  0.013765633            5 
 3055000   0.76737398   -8.4193745    524.47735  0.014306529  0.013760609            5 
 3056000   0.76953161   -8.4006114    524.19777  0.014294224  0.013755596            5 
 3057000    0.7468671   -8.4324765     522.5637  0.014245003  0.013750582            6 
 3058000   0.76160611   -8.4259557    524.02659   0.01428021  0.013745551            6 
 3059000    0.7622587   -8.4230077    523.18113   0.01425251  0.013740523            6 
 3060000   0.74977206   -8.4096566    521.83647  0.014211233  0.013735498            6 
 3061000   0.76975086   -8.4179388    522.75081  0.014231482  0.013730476           11 
 3062000   0.75754092   -8.4647378    522.09512   0.01420899  0.013725451            6 
 3063000   0.76061471   -8.4283107    522.85863  0.014225123  0.013720432            3 
 3064000   0.75466772   -8.4209948    522.05378  0.014198591  0.013715422            2 
 3065000   0.75747927   -8.4200991    523.15458  0.014223888  0.013710395            8 
 3066000   0.77821657   -8.4240302     522.4951  0.014201324  0.013705382            4 
 3067000   0.77122018   -8.4273698    522.84616  0.014206232  0.013700359            6 
 3068000   0.76060537   -8.4209978    522.86919  0.014202227   0.01369534            8 
 3069000   0.77336286   -8.4376822    522.88032  0.014197902  0.013690326            4 
 3070000     0.756048   -8.4114078    524.12996  0.014227198  0.013685322            8 
 3071000   0.76687722   -8.4288529    522.71764  0.014184241  0.013680325            4 
 3072000    0.7639692   -8.4221941    523.69419  0.014206114  0.013675333            2 
 3073000   0.75421178   -8.4290803    524.21335   0.01421557  0.013670329            6 
 3074000   0.75832309   -8.4570245    523.29089  0.014185938  0.013665326            2 
 3075000   0.77187296   -8.4523164    523.33109  0.014182414  0.013660337            2 
 3076000   0.75789158   -8.4541519    524.00187  0.014195976  0.013655343            3 
 3077000   0.76278575   -8.4506387     524.2096  0.014196988  0.013650354            2 
 3078000     0.737255   -8.4247561    523.79004  0.014181017  0.013645381            3 
 3079000   0.75507964   -8.4118449    523.23128  0.014161288  0.013640406            3 
 3080000   0.76078759   -8.4342176    524.54889   0.01419234  0.013635437            5 
 3081000   0.75175979   -8.4100087    524.53601  0.014187385  0.013630474            3 
 3082000   0.76228833   -8.3961951    524.59201  0.014184296  0.013625537            5 
 3083000   0.75575628   -8.4209531    524.58067  0.014179389  0.013620596            3 
 3084000   0.75497374   -8.4124526    524.45604  0.014171423  0.013615666            4 
 3085000   0.75002099   -8.4373378    523.74996  0.014147757  0.013610726            6 
 3086000   0.75794365   -8.4477889    523.25946  0.014129927  0.013605772            7 
 3087000   0.77520341   -8.4190275    523.87142   0.01414187  0.013600828            6 
 3088000   0.73840078   -8.4631526    524.80125  0.014162383  0.013595882            4 
 3089000   0.75118458   -8.4435452    523.23272  0.014115483  0.013590925            4 
 3090000   0.75635517   -8.4186724     523.9874  0.014131268  0.013585973            4 
 3091000   0.75822334   -8.4081723    524.41379  0.014138191  0.013581037            4 
 3092000        0.758   -8.3956595    525.36964   0.01415938   0.01357609            7 
 3093000   0.75091658   -8.4146671    524.27301  0.014125256  0.013571168            3 
 3094000   0.76687446   -8.4264176    524.47244  0.014126062  0.013566239            5 
 3095000   0.77130983   -8.4004932    524.20045  0.014114175  0.013561307           10 
 3096000   0.75324385   -8.4129445    524.84735  0.014127028  0.013556387            5 
 3097000   0.75423678   -8.4284756    524.79085  0.014120946  0.013551462            6 
 3098000   0.74893143   -8.4441476    522.80129  0.014062871  0.013546519            2 
 3099000   0.72085801   -8.4310642    523.54708  0.014078388   0.01354157            6 
 3100000   0.75394507   -8.4574044    522.40458  0.014043134  0.013536621            6 
 3101000   0.73131603   -8.4457531    524.61766  0.014098078   0.01353167            6 
 3102000   0.75345765   -8.4446101    523.92509  0.014074927  0.013526734            4 
 3103000   0.76043166   -8.4404142    523.29912   0.01405358  0.013521781            6 
 3104000    0.7601034   -8.4586998     523.3438  0.014050252  0.013516802            8 
 3105000   0.74933202   -8.4878628    522.73562  0.014029405  0.013511823            3 
 3106000   0.75314667   -8.4629694    522.44137  0.014016993  0.013506834            3 
 3107000   0.74462084   -8.4413266     523.8234  0.014049549   0.01350187            5 
 3108000   0.75058324   -8.4612593    522.86689  0.014019383   0.01349693            6 
 3109000   0.76362376   -8.4448029    523.49386  0.014031679  0.013491987            3 
 3110000   0.74185429   -8.4065267    524.16271  0.014045089  0.013487065            2 
 3111000   0.77061368   -8.4532364    523.07525  0.014011445  0.013482138            5 
 3112000   0.75064439   -8.4561257    522.77256  0.013998837  0.013477208            1 
 3113000   0.74383642   -8.4625239    523.43057  0.014011955  0.013472293           10 
 3114000    0.7465668   -8.4479984     522.6912  0.013987668  0.013467391            7 
 3115000   0.74123326   -8.4190512    524.28134  0.014025718  0.013462463            2 
 3116000   0.74811348     -8.46232    524.50033  0.014027074   0.01345753            4 
 3117000   0.76322985   -8.4446577    523.50424  0.013995943  0.013452622            3 
 3118000   0.74875986   -8.4370057    523.00279  0.013978052  0.013447695            3 
 3119000   0.74640734   -8.4209418    523.85788  0.013996416  0.013442775            3 
 3120000   0.76009084   -8.4464625    523.85656  0.013991895  0.013437857            2 
 3121000    0.7638151   -8.4517412    524.78092  0.014012093  0.013432945            6 
 3122000   0.75831619   -8.4427727    523.90562  0.013984241  0.013428029            3 
 3123000   0.74966008    -8.448025    523.10412  0.013958377  0.013423096            4 
 3124000   0.74402013   -8.4536667    523.87432  0.013974454  0.013418173            3 
 3125000   0.74226853   -8.4513946    523.27065  0.013953884   0.01341323            1 
 3126000   0.74858088   -8.4760006     522.9102  0.013939811   0.01340831            4 
 3127000   0.76988211   -8.4556339    523.87017  0.013960936  0.013403399            5 
 3128000   0.75247353   -8.4458214    524.07094  0.013961822  0.013398503            4 
 3129000   0.75211415   -8.4274429    525.37386   0.01399206  0.013393606            2 
 3130000   0.75111032   -8.4159973      524.131    0.0139545  0.013388711            6 
 3131000   0.74263652   -8.4457327    524.44605  0.013958428  0.013383818            2 
 3132000   0.76065428   -8.4363852    524.40987  0.013953008  0.013378926            2 
 3133000   0.75221846   -8.4380139    523.01303  0.013911401  0.013374035            5 
 3134000   0.75149627   -8.4267783    523.74384  0.013926394  0.013369145            2 
 3135000   0.72453818   -8.4043332    524.86032   0.01395163   0.01336425            3 
 3136000   0.75338621    -8.427476    524.71667  0.013943364  0.013359351            1 
 3137000    0.7670952    -8.429961    524.02613  0.013920575  0.013354465            2 
 3138000     0.755012    -8.436689    522.92602  0.013886924  0.013349575            2 
 3139000   0.74553297   -8.4215476    523.77775  0.013905112  0.013344673            4 
 3140000   0.74417889   -8.4698605    523.11073  0.013882981  0.013339773            5 
 3141000   0.76371219   -8.4368116    523.27738  0.013882983  0.013334876            6 
 3142000   0.74035275   -8.4477427    523.65738  0.013888643  0.013329984            6 
 3143000   0.75465901   -8.4465182    523.50429  0.013880165  0.013325093            3 
 3144000   0.75188864   -8.4106596     524.8278   0.01391083  0.013320199            3 
 3145000   0.74339833   -8.4545002     523.5608  0.013872835  0.013315324            4 
 3146000   0.74587609   -8.4326219    524.14691  0.013883951  0.013310431            2 
 3147000   0.73943557    -8.453716     523.2963  0.013857015  0.013305558            5 
 3148000   0.76194075   -8.4292743    525.80045  0.013918902  0.013300677            3 
 3149000   0.74858419   -8.4427685    524.55921  0.013881635  0.013295813            3 
 3150000   0.75331943   -8.4693807    523.14425  0.013839795  0.013290932            4 
 3151000   0.73553815   -8.4523498     523.3993  0.013842148  0.013286049            3 
 3152000   0.76186329   -8.4442528    523.30821  0.013835348  0.013281173            4 
 3153000   0.73891929   -8.4448419    524.61373  0.013865465  0.013276303            4 
 3154000   0.72155485   -8.4690849    524.79831  0.013865946  0.013271438            4 
 3155000    0.7547724   -8.4369489    523.90004  0.013837825   0.01326659            4 
 3156000   0.73130236   -8.4714592    524.60054  0.013851936  0.013261724            5 
 3157000   0.74645182   -8.4437923    524.96308  0.013857119  0.013256857            4 
 3158000   0.74494147   -8.4389661    524.52936  0.013841286  0.013252015            3 
 3159000    0.7461043   -8.4390297    523.51732  0.013810207  0.013247157            2 
 3160000   0.74923259   -8.4614857    523.23963  0.013798513  0.013242298            3 
 3161000   0.75209378   -8.4446008    524.15773  0.013818352  0.013237439            3 
 3162000   0.74214042   -8.4710424    522.30208  0.013765077  0.013232589            4 
 3163000   0.73879771   -8.4422156    523.40012  0.013789654  0.013227729            4 
 3164000   0.75528892   -8.4619115    524.66148  0.013818518  0.013222876            3 
 3165000   0.74860771   -8.4607496    524.57087  0.013811766  0.013218026            1 
 3166000   0.74250879   -8.4396107    523.98725  0.013792042  0.013213169            3 
 3167000   0.74082747   -8.4593897    523.83608  0.013783709  0.013208313            1 
 3168000   0.72205294    -8.464749    524.09191  0.013786088  0.013203447            4 
 3169000   0.74303832    -8.491713    524.16283  0.013783602  0.013198581            2 
 3170000   0.74619504   -8.4860522    524.31667  0.013783298  0.013193718            5 
 3171000   0.73962436   -8.4608936    523.70693  0.013762928  0.013188841            4 
 3172000   0.74192115   -8.4318047    524.20681  0.013771722  0.013183983            1 
 3173000   0.75153088   -8.4438685    524.40551    0.0137726  0.013179132            2 
 3174000     0.745429   -8.4461743    524.10254  0.013760306  0.013174283            3 
 3175000   0.73798041   -8.4627432    523.07567   0.01372902  0.013169446            5 
 3176000   0.73152499   -8.4479924    523.85045  0.013745026  0.013164607            3 
 3177000   0.73561496   -8.4627944    524.09386  0.013747085  0.013159756            2 
 3178000   0.76763894   -8.4547697    523.68231  0.013731967  0.013154907            4 
 3179000   0.74199004   -8.4768385    522.83872  0.013705534  0.013150053            6 
 3180000   0.74234771   -8.4890792    524.33403   0.01374041  0.013145189            5 
 3181000   0.75418225   -8.4679186    524.47451   0.01373977  0.013140344            3 
 3182000   0.73964072   -8.4748947    522.40942   0.01368137  0.013135504            3 
 3183000   0.72950747   -8.5124635     522.6855  0.013684299   0.01313064            4 
 3184000    0.7465633   -8.4759189     523.2812  0.013695592  0.013125783            3 
 3185000    0.7357131   -8.4581303    522.84791  0.013679956  0.013120929            1 
 3186000   0.74399067   -8.5045718    524.03277  0.013706653  0.013116064            3 
 3187000   0.74324574   -8.4830772    523.84839  0.013697531  0.013111229            5 
 3188000    0.7236259   -8.4711255    523.38506  0.013681123  0.013106389            2 
 3189000   0.73437646   -8.4675027     523.4793  0.013679296  0.013101551            3 
 3190000   0.74482406   -8.4483266    524.21191  0.013694146  0.013096714            3 
 3191000   0.74117198   -8.4867474    523.38382  0.013668229  0.013091874            9 
 3192000   0.74360957    -8.492159    523.36986  0.013663582  0.013087025            6 
 3193000   0.73907866   -8.4824636    523.09991  0.013652258  0.013082174            4 
 3194000   0.74017593   -8.4785597     524.2016  0.013676727  0.013077331            2 
 3195000   0.73973858   -8.4851512    523.83148  0.013662793  0.013072486            2 
 3196000   0.72188312   -8.5091669    524.00961  0.013663163   0.01306765            2 
 3197000   0.74387447   -8.5166196    524.13642  0.013662194  0.013062802            3 
 3198000   0.73766535   -8.5071925      523.027  0.013629013  0.013057965            5 
 3199000    0.7375423   -8.5000185    524.38728  0.013660188  0.013053137            6 
 3200000   0.74292663   -8.4862306    524.10344  0.013648527    0.0130483            7 
 3201000   0.73800003   -8.4604362    524.92159  0.013665563  0.013043471            3 
 3202000   0.73899173   -8.4779484    525.26225  0.013670161  0.013038649            9 
 3203000   0.73801956   -8.4952204    523.23208  0.013613073  0.013033815            7 
 3204000   0.73323427   -8.5140414    523.50139  0.013615829  0.013028986            4 
 3205000   0.76551321   -8.5185483    522.71986   0.01359126  0.013024177            6 
 3206000   0.73442123   -8.4896835    523.86817  0.013616869  0.013019363            2 
 3207000   0.72242369   -8.4881784    523.88114   0.01361296  0.013014557           10 
 3208000   0.72171625   -8.4983273    524.07119  0.013613653  0.013009753            3 
 3209000   0.73448392   -8.4763176    524.09818  0.013610112  0.013004934            9 
 3210000   0.74120927   -8.4705802    523.41431  0.013588118  0.013000115            5 
 3211000   0.73840349   -8.4686602    524.45321  0.013610849  0.012995298            3 
 3212000   0.75080641   -8.4712143    523.65243  0.013585835  0.012990501            5 
 3213000   0.75030338   -8.4858337    524.00879   0.01359085  0.012985705            1 
 3214000   0.72255888   -8.4810542     524.3882  0.013596458  0.012980913            3 
 3215000   0.73724325   -8.4771869    524.45116  0.013593861  0.012976129            2 
 3216000   0.74315776   -8.4819135    524.05634  0.013579403  0.012971352            7 
 3217000   0.73291117   -8.4872171    524.79394  0.013594289  0.012966591            4 
 3218000    0.7533845   -8.4529679    524.22119  0.013575233  0.012961822            4 
 3219000   0.74401928   -8.4936261    524.45072  0.013576958  0.012957064            5 
 3220000   0.72132397   -8.4902396    524.14536  0.013564839  0.012952296            5 
 3221000   0.72981357   -8.4836536    524.81348  0.013577913   0.01294754            4 
 3222000   0.74504603   -8.4803146    523.18841  0.013531668  0.012942792            4 
 3223000   0.74221607   -8.4806129     524.9333  0.013572585  0.012938044            6 
 3224000   0.74291475   -8.4850193    524.45433  0.013555995  0.012933302            3 
 3225000   0.74445099   -8.4665385    524.80308  0.013560803  0.012928558            4 
 3226000   0.74381158   -8.4765357    524.58266  0.013550906  0.012923818            6 
 3227000   0.72531202   -8.5035203    524.49755  0.013544509  0.012919073            3 
 3228000   0.73430961   -8.5073366    524.34056   0.01353626  0.012914322            3 
 3229000   0.75270416   -8.5068459    524.91542  0.013546904  0.012909562            4 
 3230000   0.72452777   -8.4811786     524.8915  0.013542092  0.012904814            7 
 3231000   0.74413828   -8.4818296    523.61356  0.013504941  0.012900046            3 
 3232000   0.73028424   -8.4775872    524.07232  0.013512591  0.012895288            3 
 3233000   0.72775121   -8.4965951    524.54692  0.013520644  0.012890554            2 
 3234000   0.73404748   -8.4995306     524.1832  0.013507091  0.012885802            7 
 3235000   0.72334424   -8.5119339    524.87113  0.013520637  0.012881057            7 
 3236000   0.75792985   -8.4861784    524.41393  0.013504685  0.012876305            2 
 3237000   0.74280418   -8.5008542    523.85122  0.013486027  0.012871576           14 
 3238000    0.7442332     -8.49748    524.57585  0.013500511  0.012866845            5 
 3239000   0.73237583   -8.4899433    524.46861  0.013493584  0.012862106            4 
 3240000   0.74193314   -8.5067374    524.95111  0.013501829  0.012857351            3 
 3241000   0.74866155   -8.4934522    523.90668  0.013470808  0.012852616            6 
 3242000   0.73539789   -8.4948291    524.54004  0.013482933  0.012847891            4 
 3243000    0.7269883   -8.5058072    524.08318  0.013467036  0.012843157            6 
 3244000   0.73121484   -8.5162121    524.06872  0.013462513  0.012838419            4 
 3245000   0.73190632   -8.5185712    524.58064  0.013471511  0.012833683            4 
 3246000   0.73491923   -8.4857899    523.96369  0.013451522  0.012828961            1 
 3247000   0.72864959   -8.5082323    522.55916  0.013411333  0.012824231            2 
 3248000   0.74783696   -8.5233093    524.33693  0.013452815    0.0128195            2 
 3249000   0.74752886   -8.5121507    523.65721  0.013431241  0.012814769            5 
 3250000   0.72828017   -8.5210447    524.36469  0.013445248  0.012810031            3 
 3251000   0.73697739   -8.5094913    524.76843  0.013451462  0.012805298            4 
 3252000   0.74081845   -8.5130591    523.74521  0.013421105  0.012800563           10 
 3253000    0.7380825   -8.5192523    524.67855  0.013440889  0.012795832            6 
 3254000   0.72656434   -8.5066516    524.59717  0.013434674  0.012791101           10 
 3255000   0.73205553   -8.5231885     524.8915  0.013438082  0.012786385            4 
 3256000   0.72766335   -8.4849224    525.00001  0.013436733   0.01278168            2 
 3257000   0.72474996    -8.518943    524.53292  0.013420656  0.012776975            4 
 3258000   0.73452687   -8.4715076    525.37922  0.013438183  0.012772281            2 
 3259000   0.74422373   -8.5276702    525.07305  0.013426231  0.012767565            4 
 3260000    0.7446125   -8.4981024    524.33613  0.013403275  0.012762852            3 
 3261000    0.7337373   -8.4882744    524.37217  0.013400086  0.012758142            5 
 3262000   0.73127199   -8.4942401    523.75921  0.013380319  0.012753428            7 
 3263000   0.71144637   -8.4980909    525.01185   0.01340821  0.012748726            4 
 3264000   0.72332393   -8.5181694    523.38712  0.013362621  0.012744024            4 
 3265000   0.71700845   -8.4930315    524.88951  0.013396874   0.01273932            6 
 3266000   0.72905012   -8.5124277    525.08422   0.01339774  0.012734625            5 
 3267000   0.72329188   -8.5311483    524.09759  0.013368472  0.012729917            8 
 3268000   0.72026495   -8.5028104    523.66693    0.0133534  0.012725229            3 
 3269000   0.72599963   -8.5083452    524.23428  0.013363778  0.012720536            4 
 3270000   0.71734167   -8.4943335    524.31345  0.013361709   0.01271585            5 
 3271000   0.73313754   -8.5157302    524.41817  0.013360292   0.01271117            5 
 3272000    0.7263345   -8.5247117    523.73177  0.013338727  0.012706485           11 
 3273000   0.72826219   -8.5205429    525.54052  0.013380704  0.012701806            2 
 3274000    0.7417419   -8.5411391    524.10541  0.013340089  0.012697121            4 
 3275000   0.73229839   -8.5355135    524.90731   0.01335642  0.012692441            2 
 3276000   0.72411003   -8.5342381    523.53973  0.013317555  0.012687757            4 
 3277000   0.72504398   -8.5194422    524.27506  0.013332191  0.012683077            7 
 3278000   0.72562185   -8.5542603    523.64372  0.013312073   0.01267839           11 
 3279000   0.72556222   -8.5503327    524.20298  0.013322227  0.012673697            5 
 3280000   0.72449247   -8.5266279    524.95344  0.013337232  0.012669007            1 
 3281000   0.73181396    -8.545122    523.97051  0.013308201  0.012664331            2 
 3282000   0.72596318   -8.5287022    523.22179  0.013285136  0.012659643            3 
 3283000   0.70910739   -8.5219841    524.36321  0.013310062  0.012654961           13 
 3284000   0.71897852    -8.530119      523.837  0.013292656  0.012650271            5 
 3285000   0.71273108   -8.5515884    524.72811  0.013311215  0.012645577            7 
 3286000   0.73579983   -8.5408658    523.60555  0.013278696  0.012640889            8 
 3287000   0.72291958   -8.5293711     523.9414  0.013283171  0.012636219           10 
 3288000   0.71822643    -8.537457    524.17733  0.013285111  0.012631527           12 
 3289000   0.72345567    -8.529994    524.38303  0.013286283  0.012626844           11 
 3290000   0.72443496   -8.5471476    522.91341   0.01324502  0.012622146            7 
 3291000   0.71485364   -8.5293605    523.47084  0.013255111  0.012617462           13 
 3292000   0.72363157   -8.5256766    524.49522  0.013277015  0.012612782            4 
 3293000   0.72173008   -8.5461749    524.25612  0.013266933  0.012608105           10 
 3294000    0.7112131   -8.5305901    524.07373  0.013258291  0.012603424            7 
 3295000   0.72916176   -8.5446025    523.53426  0.013240624  0.012598751            7 
 3296000   0.71153295   -8.5349464    523.50293  0.013235814   0.01259407            7 
 3297000   0.72804054   -8.5272167    524.00751  0.013244553  0.012589385            6 
 3298000   0.73056462   -8.5723222    523.20736   0.01322032  0.012584703           11 
 3299000   0.71581123   -8.5457283    523.32867  0.013219376  0.012580006            8 
 3300000   0.71428197   -8.5353807    523.19484  0.013211991  0.012575318            6 
 3301000   0.73673753   -8.5510563    524.03533  0.013229206  0.012570641            7 
 3302000    0.7263525   -8.5331929    524.65632  0.013240872  0.012565956            8 
 3303000   0.73414059   -8.5370026    524.36429  0.013229496  0.012561284            9 
 3304000    0.7224091   -8.5644503    523.42823  0.013201882  0.012556605            6 
 3305000   0.72173265   -8.5364947    523.96481  0.013211417  0.012551928            6 
 3306000    0.7173717    -8.534469    523.49694  0.013195628  0.012547247            5 
 3307000   0.71929867    -8.510764    524.05384  0.013205671  0.012542573            6 
 3308000   0.74150555   -8.5324061    522.57648  0.013164462  0.012537906            5 
 3309000   0.71683223   -8.5423244    522.89068  0.013168396  0.012533238           13 
 3310000   0.74441934   -8.5192227    524.29673  0.013199817  0.012528584           14 
 3311000    0.7285224   -8.5102292    524.26042  0.013194916  0.012523944           11 
 3312000   0.70506628   -8.5115733    525.36397  0.013218699  0.012519301            5 
 3313000   0.72094441   -8.5251587    523.73363    0.0131737  0.012514662            5 
 3314000   0.71709452    -8.543818    524.24903  0.013182685  0.012510024            3 
 3315000   0.73525823   -8.5295926    524.73421  0.013190905  0.012505382           11 
 3316000   0.72447527   -8.5200542    523.66034   0.01315994   0.01250074            3 
 3317000     0.713882   -8.5444218    524.11359   0.01316736  0.012496094            3 
 3318000   0.72758483    -8.543698    523.48091  0.013147501  0.012491461            7 
 3319000   0.73477205    -8.555469    522.95402  0.013130311   0.01248683            4 
 3320000   0.71413201   -8.5291402    524.29189  0.013159937  0.012482199            5 
 3321000   0.71206291   -8.5214553    524.58375  0.013163298   0.01247757            4 
 3322000   0.71883031   -8.5381333    523.72108  0.013137695  0.012472937            3 
 3323000   0.71641815   -8.5594972    523.22678  0.013121346  0.012468294            2 
 3324000   0.72497006   -8.5784778    523.04255   0.01311278  0.012463656            5 
 3325000   0.71812085   -8.5189265     523.9627  0.013131897  0.012459023            3 
 3326000   0.71133026   -8.5365932    523.91024  0.013126635  0.012454389            2 
 3327000   0.72686041   -8.5251243    524.19855   0.01312991  0.012449751            3 
 3328000   0.71485954   -8.5487359    523.90741  0.013118675  0.012445112            5 
 3329000   0.73050766   -8.5368148    524.13071  0.013120324  0.012440482            4 
 3330000    0.7192873   -8.5653513    524.89881  0.013135606   0.01243585           10 
 3331000    0.7035088   -8.5761183    523.60285  0.013099241  0.012431211            7 
 3332000   0.73935795   -8.5374195     524.0262  0.013105897  0.012426574            1 
 3333000   0.71633563   -8.5460995    523.99059  0.013101075  0.012421959            2 
 3334000   0.69764071   -8.5450232    523.22773  0.013078078  0.012417338            2 
 3335000   0.70943393     -8.53587    523.87137  0.013090239  0.012412718            4 
 3336000    0.7102029   -8.5589921    524.29521  0.013096903    0.0124081            2 
 3337000    0.7040295   -8.5514473    523.56682  0.013074788  0.012403477            6 
 3338000   0.72479508   -8.5792938    523.47667  0.013068621  0.012398858            3 
 3339000   0.71680656   -8.5310359     523.9079  0.013075469  0.012394245            5 
 3340000   0.72527652   -8.5495142    524.26135  0.013080373   0.01238963            4 
 3341000   0.72551485   -8.5966517    523.85113  0.013066226  0.012385023            2 
 3342000   0.73437265    -8.558988      524.261  0.013072536  0.012380406            4 
 3343000   0.71671342   -8.5554038    524.46176   0.01307363  0.012375794            3 
 3344000   0.73452561   -8.5715476     524.1606  0.013062216   0.01237118            5 
 3345000   0.72056765    -8.564749    525.45191  0.013090481  0.012366581            3 
 3346000   0.71123755   -8.5411935    523.59431  0.013040305  0.012361976           10 
 3347000   0.71506251   -8.5511115    524.22307  0.013052063  0.012357375            3 
 3348000    0.7144999     -8.56328    524.11018  0.013045355  0.012352777            3 
 3349000   0.71973039   -8.5865834    523.67889  0.013030728  0.012348176            2 
 3350000   0.72914618   -8.5732444    523.80799  0.013030049  0.012343574            2 
 3351000   0.72832483   -8.5722247      524.645  0.013046976  0.012338974            7 
 3352000   0.73228041    -8.586769    523.87037  0.013023826  0.012334381            3 
 3353000   0.72682741   -8.5687556    524.13176  0.013026438  0.012329791            8 
 3354000   0.71943559   -8.5817357    523.51324  0.013007186  0.012325197            2 
 3355000   0.70884475   -8.5695556    523.94399  0.013014009  0.012320604            7 
 3356000   0.69924611   -8.5762898    522.50707  0.012974451  0.012316013            4 
 3357000   0.70296057   -8.5678173    524.50632  0.013020215  0.012311412            5 
 3358000   0.70431607   -8.5751164    523.67441  0.012995692  0.012306812            7 
 3359000   0.71349156   -8.5657188    523.22315  0.012980628  0.012302218            9 
 3360000    0.7171519   -8.5850771    522.53093  0.012959597   0.01229762            2 
 3361000   0.71507562   -8.5493348    523.93868  0.012990645  0.012293026           10 
 3362000   0.71533941   -8.5814196    522.65643  0.012954998  0.012288448            6 
 3363000   0.73664084   -8.5745095    522.33715  0.012943234  0.012283855            4 
 3364000   0.70888549   -8.6028997    523.94883  0.012979311   0.01227926            4 
 3365000   0.69637541   -8.5919178    523.21382  0.012957252  0.012274671            6 
 3366000   0.71584974   -8.5810459    523.10322  0.012950664  0.012270085            6 
 3367000   0.70947835   -8.5825343    523.56741  0.012958306  0.012265495            4 
 3368000     0.709461   -8.5939932    523.37622  0.012949728  0.012260907            9 
 3369000   0.71280436   -8.5663785    523.53991  0.012949934  0.012256327            3 
 3370000   0.71528282   -8.5782948    523.65956  0.012949049  0.012251752            5 
 3371000   0.71615186   -8.5964026    523.21526  0.012934225  0.012247183            7 
 3372000   0.71099405   -8.5780096    523.54303  0.012938489  0.012242632            4 
 3373000   0.70448757    -8.570753    523.49817  0.012933545  0.012238083            7 
 3374000   0.70860708   -8.5497941     524.1002  0.012944581  0.012233532            2 
 3375000    0.7032725   -8.5461923    524.00635  0.012938428  0.012228981            5 
 3376000   0.70416999   -8.5527323    523.88593  0.012931624   0.01222443            3 
 3377000   0.70850799   -8.5684697    523.62206  0.012921283  0.012219887            2 
 3378000   0.68609876   -8.5731338    523.08404  0.012904185  0.012215339            3 
 3379000   0.71018624   -8.5444388    524.44036  0.012933816  0.012210806            8 
 3380000   0.73169898    -8.565026    525.55969  0.012957586  0.012206274            2 
 3381000   0.71881107    -8.572073    525.09878  0.012942393  0.012201741            5 
 3382000   0.71025018   -8.5535566    524.14089  0.012914964   0.01219721            5 
 3383000   0.72429933   -8.5859001    524.03845  0.012908623   0.01219269            4 
 3384000   0.69892653   -8.5611015    525.47333  0.012940143  0.012188171            4 
 3385000   0.69870573   -8.5340626    525.35678  0.012933451  0.012183663            8 
 3386000   0.69654287   -8.5687199    524.93105  0.012919154  0.012179156            8 
 3387000   0.71490143   -8.5625451     524.4938  0.012904581  0.012174645            5 
 3388000   0.69864618   -8.5656316    525.55601  0.012926899  0.012170142            7 
 3389000   0.70613607   -8.5841056    524.03427  0.012885666  0.012165625            5 
 3390000   0.70964446   -8.5811588      524.392  0.012890659  0.012161107           10 
 3391000   0.69894581   -8.5743375    524.69891    0.0128944  0.012156597            3 
 3392000   0.69446501   -8.5879543    523.56569  0.012862758  0.012152087            2 
 3393000    0.7138314   -8.5586703    524.77689  0.012888714  0.012147586            3 
 3394000    0.7023662   -8.5505586    524.36314  0.012874758  0.012143087            3 
 3395000   0.70183935    -8.554777    524.57007  0.012876045  0.012138588            5 
 3396000   0.70023033   -8.5738515    523.78909  0.012853089  0.012134095            4 
 3397000   0.72080949   -8.5798348    524.66427  0.012870775  0.012129602            5 
 3398000    0.7193035   -8.5798867    525.65071  0.012891179  0.012125111            2 
 3399000   0.69703391    -8.574264    525.17974  0.012875839  0.012120626            3 
 3400000   0.69763144   -8.5904222    523.55764  0.012832295  0.012116145            3 
 3401000   0.71729789    -8.551827    524.86135  0.012860466  0.012111665            3 
 3402000   0.70000428   -8.5816799    525.30139  0.012867465  0.012107195            7 
 3403000   0.68865443    -8.593795    524.33071  0.012839913   0.01210271            1 
 3404000    0.7072747   -8.6042034    524.74915  0.012846385  0.012098229            2 
 3405000   0.72164612   -8.5835687    524.39144  0.012833858  0.012093742            3 
 3406000   0.69164611   -8.5649441    524.43101  0.012831058  0.012089257            5 
 3407000   0.70754198   -8.5969367    523.96854   0.01281598  0.012084776            3 
 3408000    0.7094253   -8.5751793    524.19418  0.012817737  0.012080298            1 
 3409000   0.71015455   -8.5993725    524.00489   0.01280935  0.012075822            3 
 3410000   0.72229826   -8.5839325     525.1122  0.012832654  0.012071359            2 
 3411000   0.70565092   -8.5886565    525.46434  0.012837495  0.012066887            6 
 3412000   0.69495581   -8.6148652    523.73366  0.012791463  0.012062409            5 
 3413000   0.70221935   -8.5816467    524.41214  0.012804281  0.012057935            3 
 3414000   0.71089007   -8.5972915    525.27725  0.012821647  0.012053465            3 
 3415000   0.72064454   -8.5695462    524.06829  0.012788392     0.012049            6 
 3416000   0.72161927   -8.5637156      524.603  0.012797692  0.012044524            1 
 3417000   0.70333731   -8.5518147    523.19831   0.01275969   0.01204006            3 
 3418000   0.69699027   -8.5701667    524.13555  0.012778807  0.012035601            2 
 3419000   0.70303654    -8.569158    524.13102  0.012774959  0.012031144            5 
 3420000   0.70370148   -8.5768358    523.52646  0.012756493  0.012026685            6 
 3421000   0.70866436    -8.571366    524.09781  0.012766682  0.012022233            6 
 3422000   0.71108739    -8.579899    525.36066  0.012793704  0.012017777            8 
 3423000   0.69820123   -8.5732711    524.96895   0.01278043  0.012013322            7 
 3424000   0.69599476   -8.6017775    523.53382  0.012741769  0.012008861            7 
 3425000   0.70929753   -8.5895614    523.91634  0.012747356  0.012004405            3 
 3426000   0.69528725   -8.5860752    524.59321    0.0127601  0.011999948            4 
 3427000    0.6999027   -8.5940498    523.89924  0.012739501  0.011995502            8 
 3428000   0.69469832   -8.5981343    524.29223  0.012745338  0.011991057            9 
 3429000   0.71310597   -8.6202737    522.96857  0.012709453    0.0119866            6 
 3430000   0.69999704   -8.5914425    524.54174  0.012743968  0.011982137            4 
 3431000   0.70125758   -8.6036529    524.58713  0.012741357  0.011977677            4 
 3432000   0.70285256   -8.5975926    523.99182  0.012723189  0.011973222            9 
 3433000   0.69415637   -8.6146359    522.83767  0.012691467  0.011968765            5 
 3434000   0.71424077   -8.5703448     524.7585  0.012734384  0.011964322            5 
 3435000   0.70433901   -8.5907825    523.47225  0.012699472  0.011959878            5 
 3436000   0.70006688   -8.5775415    524.98385  0.012732437  0.011955433            5 
 3437000   0.70801646    -8.576879    524.11258  0.012707608  0.011950994            3 
 3438000   0.70081747    -8.572143    523.92561   0.01269938  0.011946565            3 
 3439000   0.71500598   -8.5875009    523.13821  0.012676607  0.011942123            1 
 3440000   0.70417035   -8.5518768    523.47864  0.012681169  0.011937694           11 
 3441000   0.69622392   -8.5497468    524.04957   0.01269131   0.01193326            3 
 3442000    0.7077867   -8.5928909    523.26888  0.012668722   0.01192882            4 
 3443000   0.69288303   -8.5860948    524.16718  0.012686784  0.011924383            2 
 3444000   0.70052677   -8.5917004     523.8038  0.012674308  0.011919942            3 
 3445000   0.71367467   -8.5932104    523.89983  0.012672952  0.011915505            4 
 3446000   0.69386319   -8.5899218     523.9349  0.012670122  0.011911078            6 
 3447000   0.68976837   -8.5861119    524.32533  0.012675886  0.011906635            3 
 3448000   0.70757781   -8.5767014    524.67731  0.012680716  0.011902197            6 
 3449000    0.7077221   -8.6112179    523.26727  0.012642971  0.011897763            4 
 3450000   0.70716832   -8.5866437    524.30021  0.012664256  0.011893353            5 
 3451000   0.70163265     -8.61432    524.28584  0.012660239  0.011888931            5 
 3452000   0.69537436   -8.5963676    525.58832  0.012688015  0.011884507            5 
 3453000   0.69948791   -8.5945027    524.18949  0.012650581  0.011880085            4 
 3454000   0.70337184   -8.6098188    523.51339  0.012630607  0.011875665            2 
 3455000   0.70612173   -8.5731146    523.77819  0.012633338  0.011871251            5 
 3456000   0.71018006   -8.5959372    523.17834  0.012615219  0.011866838            1 
 3457000   0.70150293   -8.6094094    523.77885  0.012626045  0.011862415            3 
 3458000    0.6913974   -8.6087812    523.48613   0.01261534  0.011857994            4 
 3459000   0.68947772   -8.5726336    524.34817   0.01263246  0.011853576            5 
 3460000   0.69360054   -8.6006055    523.80671  0.012615768  0.011849167            3 
 3461000   0.67883722   -8.5822749     523.8346  0.012612795   0.01184475            3 
 3462000   0.69996097   -8.6171952    523.37991  0.012598207  0.011840343            9 
 3463000   0.69606921   -8.6184739    523.39398  0.012594908  0.011835934            1 
 3464000   0.69913375   -8.5962593    523.57973   0.01259574  0.011831514            2 
 3465000   0.69469888   -8.5970966    524.21445   0.01260737  0.011827104            2 
 3466000   0.69482942   -8.6114692     524.8712  0.012619523  0.011822694            3 
 3467000   0.68997571   -8.5931056    524.69767  0.012611712  0.011818296            3 
 3468000    0.6878569   -8.6191166    523.77942  0.012586011  0.011813895            4 
 3469000   0.71652113   -8.6206671    523.94819  0.012586437   0.01180949            2 
 3470000   0.69565514   -8.5948346    524.76986  0.012602542  0.011805083            2 
 3471000    0.6961948   -8.6050147    524.59792  0.012594783  0.011800679            3 
 3472000    0.7044202   -8.6111217    523.16654  0.012556801  0.011796284            8 
 3473000   0.70017905   -8.5950881    523.08217  0.012551161  0.011791883            5 
 3474000   0.69549668   -8.6228172     523.6127  0.012560274  0.011787477           11 
 3475000   0.70322416   -8.6100285    524.07203  0.012567675   0.01178308            2 
 3476000   0.71286782   -8.6239303    524.16737  0.012566345  0.011778688            8 
 3477000   0.70283005   -8.6235741    523.39659  0.012544257  0.011774285            5 
 3478000    0.6883607   -8.6023278    523.43951  0.012541679  0.011769893            7 
 3479000   0.70805803   -8.6127895    524.53618  0.012564343  0.011765495            4 
 3480000   0.71169446   -8.6077069    522.76357  0.012518285  0.011761093            7 
 3481000   0.70742267   -8.6131091    523.87755  0.012541357  0.011756691            9 
 3482000   0.69168001   -8.6360646    522.74555  0.012510663  0.011752289            3 
 3483000   0.69539385   -8.5988479    523.91296  0.012535002  0.011747884            4 
 3484000   0.68076687   -8.6434201    524.37035  0.012542345  0.011743491            3 
 3485000   0.70052418   -8.6035385    523.45726  0.012516912  0.011739102            4 
 3486000   0.70354812   -8.5960591    523.74889  0.012520293  0.011734718            5 
 3487000   0.71059022   -8.6269104    522.73832  0.012492551  0.011730337            2 
 3488000   0.70013079   -8.6032884    523.39869  0.012504747  0.011725958            3 
 3489000   0.69798945   -8.6048863    523.71593   0.01250874  0.011721585            8 
 3490000    0.6849548   -8.5936751    524.17896  0.012516212  0.011717216            7 
 3491000   0.69273735   -8.5803726    523.89624  0.012505878  0.011712842            5 
 3492000    0.6980281   -8.6130803    523.46115  0.012491914  0.011708477            6 
 3493000   0.70070111   -8.5952273    524.20429  0.012506067   0.01170411            7 
 3494000   0.68854641   -8.5846919    524.97093  0.012520772  0.011699757            4 
 3495000   0.70394325   -8.6005549     524.0921  0.012496235  0.011695406            5 
 3496000   0.69891799   -8.6105581    525.00249  0.012514361   0.01169105            5 
 3497000   0.67384827     -8.59601    524.52242  0.012499343   0.01168671            2 
 3498000   0.69362435   -8.6020364     524.5848  0.012497256  0.011682363            8 
 3499000   0.69157351   -8.6104901    523.90848  0.012477576  0.011678007            2 
 3500000   0.68091527   -8.6300085    523.81498  0.012471785  0.011673642            8 
 3501000   0.70603421   -8.6339277    523.19835  0.012453545  0.011669278            4 
 3502000   0.70555687   -8.6287403    523.46114  0.012456243  0.011664926            5 
 3503000   0.68821563   -8.6155294     522.5801  0.012431728  0.011660571           10 
 3504000   0.68187619   -8.6420739    523.24356  0.012443958  0.011656213            6 
 3505000   0.71006269   -8.6275371    523.30477  0.012441863  0.011651862            5 
 3506000   0.68668582   -8.6353879    523.06827  0.012432693   0.01164751            2 
 3507000   0.68619336   -8.6269169    523.28357  0.012434264  0.011643161            4 
 3508000    0.6834936   -8.6267349    523.70111  0.012440638  0.011638814           12 
 3509000   0.69905347   -8.6177456    523.52963  0.012433021  0.011634462            3 
 3510000   0.68034575   -8.6092838    523.95892   0.01243967  0.011630114            3 
 3511000   0.70397339   -8.6219645    523.05498  0.012414672  0.011625763            6 
 3512000   0.69347427   -8.6198283    522.70031  0.012402722  0.011621415            5 
 3513000   0.69914497   -8.6309815    522.38536   0.01239172  0.011617069            2 
 3514000   0.68828588   -8.6222887    523.69508  0.012419253  0.011612727            7 
 3515000   0.69214538   -8.6386874    522.43576  0.012385865  0.011608379           14 
 3516000   0.68881629   -8.6124264    522.06952  0.012373661  0.011604043            4 
 3517000   0.69377534   -8.6284966    523.11416  0.012394895  0.011599701            7 
 3518000   0.70526116   -8.6077334    523.26604   0.01239497  0.011595356            4 
 3519000   0.69682507   -8.6318275    523.97427  0.012408219  0.011591026            2 
 3520000   0.70321512   -8.6419348    522.68225  0.012374106  0.011586691            6 
 3521000   0.68668842   -8.6151242    522.64135  0.012369624  0.011582359            5 
 3522000   0.69649296   -8.6409106    523.12092  0.012377459  0.011578033            4 
 3523000   0.69223082   -8.6249333    524.40676  0.012404361  0.011573694            2 
 3524000   0.69162982   -8.6469452    522.91385  0.012365537  0.011569363            5 
 3525000   0.70728115   -8.6320821     523.0573  0.012365421  0.011565029            5 
 3526000   0.69687828   -8.6347377    523.52459  0.012372958  0.011560697            4 
 3527000    0.6873258   -8.6268128    523.66352  0.012372732  0.011556375            2 
 3528000   0.69165312   -8.6092989    523.49985  0.012365359  0.011552048            6 
 3529000   0.69111588   -8.6593161    523.50962  0.012362086  0.011547736            3 
 3530000   0.68086605   -8.6299295    523.44874  0.012357147  0.011543421           12 
 3531000   0.68269879   -8.6267811    523.65373  0.012358485  0.011539105            4 
 3532000    0.6904597   -8.6329648    523.77062  0.012357744  0.011534781            3 
 3533000   0.67247264   -8.6111625    523.87534  0.012356716  0.011530462            4 
 3534000   0.69643138   -8.6154202    523.57455  0.012346127  0.011526145            4 
 3535000   0.68818462    -8.637548    523.46764  0.012340114  0.011521827            3 
 3536000    0.6978433   -8.6384321    522.53229  0.012314581  0.011517506            1 
 3537000   0.68179306   -8.6317047    523.80409  0.012341063  0.011513191            1 
 3538000   0.69032611   -8.6277554    523.24298  0.012324359  0.011508884            3 
 3539000   0.68743624   -8.6509099     523.5482  0.012328064  0.011504577            2 
 3540000   0.67235775    -8.633102    522.79565  0.012306866  0.011500265            4 
 3541000    0.6954315    -8.642393    523.30612  0.012315403  0.011495955            3 
 3542000   0.67974031   -8.6540317    522.82979   0.01230072  0.011491652            3 
 3543000   0.68351653    -8.656454    522.53533  0.012290322  0.011487343            2 
 3544000   0.69280023   -8.6593031    522.55269  0.012287262  0.011483025            2 
 3545000     0.685733   -8.6448877    522.88627  0.012291638  0.011478712            2 
 3546000   0.67892659   -8.6309024    523.10679  0.012293354  0.011474402            3 
 3547000   0.68228356   -8.6367389    523.02742  0.012288023  0.011470107            3 
 3548000   0.68244034   -8.6383299    523.64721  0.012299117  0.011465808            5 
 3549000   0.68371646   -8.6575401     523.3206  0.012287983  0.011461507            4 
 3550000   0.67179612   -8.6463119    524.66935  0.012316182  0.011457209            4 
 3551000   0.67989282   -8.6590196    522.33607  0.012257957  0.011452908            5 
 3552000   0.68512101   -8.6424087    522.97196  0.012269425  0.011448613            2 
 3553000   0.68185607   -8.6607347    522.54984  0.012256071  0.011444315            1 
 3554000   0.68629089   -8.6565865    523.10414   0.01226562  0.011440025            5 
 3555000   0.66082843    -8.657713    523.71894  0.012276581  0.011435739            3 
 3556000    0.6780994   -8.6597722    522.21089  0.012237788  0.011431439            1 
 3557000   0.68797479   -8.6555564    523.04257  0.012253832  0.011427146            4 
 3558000    0.6961522   -8.6574621    522.89677  0.012246973   0.01142286            4 
 3559000   0.68887349   -8.6669991    522.40056  0.012231913  0.011418564            5 
 3560000   0.68588612   -8.6651578     522.6135  0.012233462  0.011414267            4 
 3561000   0.68252754   -8.6618752    522.45687  0.012226361   0.01140998            4 
 3562000   0.68035262   -8.6715985    522.55007  0.012225109  0.011405685            4 
 3563000   0.68690214   -8.6694647    521.84909  0.012205283  0.011401395            4 
 3564000    0.6884568   -8.6471585    522.76471  0.012223268  0.011397117            5 
 3565000   0.67852656   -8.6225119    524.15455  0.012252327  0.011392838            5 
 3566000   0.68759283   -8.6525046    523.29212  0.012228737  0.011388563            3 
 3567000   0.68088501   -8.6737277    522.15567  0.012198759  0.011384294            2 
 3568000   0.68671872   -8.6363125    522.64916  0.012206866   0.01138002            4 
 3569000   0.67911087   -8.6701582    522.80178  0.012207009  0.011375755            3 
 3570000   0.68372084   -8.6740713    523.14669  0.012211641  0.011371487            3 
 3571000   0.68378845   -8.6547552    522.08354  0.012183411  0.011367222            3 
 3572000   0.67292419   -8.6401423    522.51505  0.012190067  0.011362959            6 
 3573000   0.69485844   -8.6420355     521.8649  0.012171492  0.011358695            4 
 3574000   0.67067422   -8.6567616    522.66908  0.012186837  0.011354437            5 
 3575000   0.66575593   -8.6619352    522.38663  0.012176844  0.011350178            3 
 3576000   0.68454405   -8.6539326    522.83543  0.012183898  0.011345915            6 
 3577000   0.67784079   -8.6364714    523.27428  0.012190716   0.01134166            5 
 3578000   0.69237595   -8.6319311    523.13446  0.012184052  0.011337411            5 
 3579000   0.67296869   -8.6593097    523.05986  0.012178911   0.01133316            7 
 3580000   0.65843491    -8.671362    522.15218   0.01215438  0.011328908            7 
 3581000   0.67404469   -8.6589953    523.83108  0.012190056  0.011324663            9 
 3582000   0.68554953   -8.6834605    522.61727  0.012158414  0.011320423            4 
 3583000   0.68312757   -8.6523022    522.64391   0.01215564   0.01131618            3 
 3584000   0.66859106   -8.6857558    522.13797  0.012140485  0.011311935            7 
 3585000   0.68633854   -8.6649822    522.58568  0.012147505  0.011307685            4 
 3586000   0.67374661   -8.6617447     522.5641  0.012143616  0.011303442            4 
 3587000   0.67799884   -8.6533866    522.38305  0.012136025  0.011299206            4 
 3588000   0.67121673   -8.6465412     523.1697  0.012150913  0.011294973            3 
 3589000   0.66813504   -8.6682467    523.01337  0.012143897  0.011290746            4 
 3590000   0.68663556   -8.6503466    523.06795  0.012141781  0.011286517            5 
 3591000   0.68341594   -8.6540462    522.23649  0.012119105  0.011282297            5 
 3592000   0.67317952   -8.6831284    522.75856  0.012127843  0.011278069            4 
 3593000   0.68861047   -8.6645045    522.14037   0.01211013  0.011273841            5 
 3594000   0.68993843    -8.681627    521.49325  0.012091756  0.011269627            3 
 3595000   0.67486238   -8.6193262    523.11219   0.01212592  0.011265413            9 
 3596000   0.67555682   -8.6521187    522.83328  0.012116085  0.011261193            7 
 3597000   0.67801394   -8.6436617     522.7128  0.012109925  0.011256976            2 
 3598000   0.68917046   -8.6644854    522.86098  0.012109991  0.011252759            6 
 3599000   0.69344837   -8.6631979    521.29299   0.01207032  0.011248545            2 
 3600000   0.69234607   -8.6737265     522.6316  0.012097954  0.011244333            2 
 3601000   0.68154379   -8.6752378    522.02314  0.012080513  0.011240115            3 
 3602000   0.66935478   -8.6528832    521.96061  0.012075713  0.011235907            4 
 3603000   0.69384184   -8.6678522     522.6179  0.012087563  0.011231699            4 
 3604000   0.66355226   -8.6921408    522.33465   0.01207766  0.011227485            5 
 3605000   0.68371333   -8.6641882    522.49511  0.012078019  0.011223266            7 
 3606000   0.67612687   -8.6757228     521.8716  0.012060261  0.011219042            5 
 3607000   0.67449043   -8.6805861    522.49039  0.012071213  0.011214823            2 
 3608000   0.66409419   -8.6604997    522.90026  0.012077334  0.011210609            3 
 3609000   0.65810338   -8.6941024    521.58935  0.012043718  0.011206388            4 
 3610000   0.67801975    -8.688668    521.68062  0.012042489  0.011202169            3 
 3611000   0.68686135   -8.6778588    522.57267   0.01205974  0.011197952            5 
 3612000   0.67466793   -8.6744282    523.18147  0.012070447  0.011193742            4 
 3613000   0.66831873   -8.6898405    521.98202  0.012039441  0.011189529            4 
 3614000   0.65812362   -8.6533582    523.42349  0.012069348  0.011185322            3 
 3615000   0.67416888   -8.6847304    522.44439  0.012043439   0.01118112            7 
 3616000   0.66369441   -8.6633152    522.47011  0.012040701  0.011176928            6 
 3617000   0.67952466   -8.6909274    522.13219  0.012029587   0.01117274            5 
 3618000     0.676319   -8.6805985    522.38529  0.012032092  0.011168556            4 
 3619000   0.69456261     -8.68036    522.05267  0.012021108  0.011164372            7 
 3620000   0.67344587   -8.6661063    522.51518  0.012028434  0.011160187            6 
 3621000   0.67728617    -8.647752    523.24092  0.012041814  0.011156006            6 
 3622000   0.67800529   -8.6609466     522.4303  0.012019839  0.011151829            6 
 3623000   0.67662375   -8.6994159    521.83781  0.012002894  0.011147649            8 
 3624000   0.68004133   -8.6442975    522.96869  0.012025586  0.011143467            9 
 3625000   0.66315534   -8.6780732    522.69905   0.01201607   0.01113929            5 
 3626000    0.6811567   -8.6942092    520.12196  0.011953529  0.011135108            5 
 3627000   0.67493157    -8.673753    523.82585  0.012035333  0.011130934            4 
 3628000   0.66829404   -8.6806854    522.18358  0.011994294  0.011126758            7 
 3629000   0.67532128   -8.6833975    521.67938  0.011979411  0.011122586            5 
 3630000   0.66115271    -8.679979    522.64253  0.011998222  0.011118413            6 
 3631000   0.67300121   -8.6705517    522.66021  0.011995323  0.011114246            5 
 3632000   0.65087975   -8.6802084    522.48634  0.011988031  0.011110076            8 
 3633000   0.68104844   -8.6707224    522.93609  0.011995047  0.011105907            4 
 3634000   0.67699465   -8.7083398      522.803  0.011988695  0.011101745            7 
 3635000   0.67231703   -8.6877786    522.79757  0.011985272  0.011097577            7 
 3636000    0.6579702   -8.6807566    522.13059  0.011966689   0.01109341           12 
 3637000   0.66282208   -8.6816226    522.19967  0.011964982  0.011089249            7 
 3638000   0.67040695   -8.6812156    522.74595  0.011974206  0.011085091            4 
 3639000   0.66511845    -8.667262    522.32402  0.011961254  0.011080928            3 
 3640000   0.68045086   -8.6606198    522.05038  0.011951703  0.011076775            6 
 3641000   0.67269992   -8.6792878    521.63274  0.011938862  0.011072619            4 
 3642000   0.66438203   -8.6999697    522.07866  0.011945787  0.011068466            5 
 3643000   0.67455314   -8.6621237    521.29339  0.011924545  0.011064311           10 
 3644000   0.67131356    -8.690315    522.43324  0.011947339  0.011060159            6 
 3645000   0.67355999   -8.7000136    522.65744  0.011949187  0.011056007            4 
 3646000   0.65706242   -8.6851871    522.45205  0.011941215   0.01105186            5 
 3647000   0.68615772   -8.6748779    521.80167   0.01192308  0.011047705            4 
 3648000   0.67109638   -8.6736499    521.89808  0.011922014  0.011043557            5 
 3649000   0.68226717   -8.6876578    521.34956   0.01190622  0.011039408            3 
 3650000   0.66621073    -8.673159    522.03935  0.011918707  0.011035261            5 
 3651000   0.66386849   -8.6925517    521.84438  0.011910992   0.01103112            8 
 3652000   0.67688753   -8.7082495    522.10717  0.011913727   0.01102698            5 
 3653000   0.67303293   -8.6851934     521.4832  0.011896231  0.011022829            3 
 3654000   0.66076179   -8.6818475    521.96192  0.011903893  0.011018682            4 
 3655000   0.65579794   -8.6947769    521.19405  0.011883129   0.01101454            3 
 3656000    0.6655965     -8.71123    520.57723  0.011865819  0.011010398            4 
 3657000   0.67318181   -8.6995976    521.16672  0.011876008  0.011006258            8 
 3658000   0.66041357   -8.7018409    521.97345  0.011891139  0.011002122            4 
 3659000   0.68505886   -8.6982035    522.35671  0.011896618  0.010997979            3 
 3660000   0.68909606   -8.6952888    522.42832  0.011894998  0.010993848            3 
 3661000   0.67936568   -8.6953912     522.3296  0.011889502  0.010989714            6 
 3662000   0.66865887   -8.7008969    522.20153  0.011883341  0.010985591            3 
 3663000   0.65724035   -8.6915494    522.85284  0.011894914  0.010981463            4 
 3664000   0.66282453   -8.7026343    521.68765  0.011865167  0.010977333            6 
 3665000   0.67189294   -8.7146546    520.97401  0.011845703  0.010973207           11 
 3666000   0.65171857   -8.6949694    522.59481  0.011879315  0.010969082            5 
 3667000   0.66724037   -8.6984262     521.2962  0.011846564  0.010964956            6 
 3668000   0.65840747   -8.6865037    521.76018  0.011853875   0.01096083            2 
 3669000   0.65853169    -8.690434     521.9496  0.011854947  0.010956713            3 
 3670000   0.64822021   -8.6863964    522.08053   0.01185469  0.010952591           10 
 3671000   0.65893653   -8.6937633    521.05118  0.011828094  0.010948471            8 
 3672000   0.66159618   -8.6776787     522.3818   0.01185507   0.01094436            7 
 3673000   0.67512395    -8.679565      522.376  0.011851711  0.010940255            4 
 3674000   0.65537293   -8.7034754    522.11063  0.011842466  0.010936151            5 
 3675000   0.65823334   -8.6631303    523.07468  0.011861104   0.01093206            4 
 3676000   0.66111499   -8.6917792    522.52579  0.011845434  0.010927968            3 
 3677000   0.66534434   -8.7018936    522.36602  0.011838592  0.010923865            4 
 3678000   0.66143246   -8.6928349    521.79999  0.011822548  0.010919774            5 
 3679000   0.65746349   -8.7074163    521.59767  0.011814752  0.010915679            2 
 3680000   0.63925018   -8.7071273     523.1262  0.011846155  0.010911583            2 
 3681000   0.67072803   -8.6778188    522.56508  0.011830234  0.010907489            3 
 3682000   0.64555518   -8.6885954    522.36966  0.011822598  0.010903394            3 
 3683000   0.66396499    -8.711832    521.72915  0.011804895    0.0108993            2 
 3684000   0.67594404   -8.7118594    521.97016  0.011807143  0.010895211            2 
 3685000   0.67243042   -8.6792303    521.64517  0.011796589  0.010891125            6 
 3686000    0.6503793   -8.6778043    522.07251   0.01180305  0.010887041           13 
 3687000   0.67363586   -8.7003096    522.35984  0.011806343   0.01088296            4 
 3688000   0.66514997   -8.6748701    521.95411  0.011793974  0.010878886            2 
 3689000   0.66035508   -8.7206269    522.13851  0.011794942  0.010874816            5 
 3690000   0.66951968     -8.67763    522.12031  0.011791335  0.010870745            5 
 3691000    0.6508373         -8.7    522.46508  0.011795924  0.010866686            4 
 3692000   0.65265607   -8.6833709      521.544  0.011771939  0.010862623            4 
 3693000    0.6636578   -8.6773052    521.42486  0.011766063   0.01085855            6 
 3694000   0.67058689   -8.7078344    520.98547  0.011752966  0.010854472            8 
 3695000   0.64803435   -8.6999319    522.14079  0.011775841  0.010850394            6 
 3696000   0.66097167   -8.6939242    522.24845  0.011775082  0.010846314            3 
 3697000   0.66446906   -8.6909328    522.56773  0.011779094   0.01084224            6 
 3698000   0.64956321    -8.708617    521.97197  0.011762484  0.010838164            3 
 3699000   0.66326192   -8.7016475    521.85177  0.011756596  0.010834086            8 
 3700000   0.66443847   -8.7099081     520.8699  0.011731304  0.010830015           13 
 3701000   0.65811721   -8.7334352    521.88852   0.01175107  0.010825944            6 
 3702000   0.66209109    -8.709313    520.88219  0.011725243  0.010821871            8 
 3703000   0.67268091   -8.7118105    521.56794  0.011737509    0.0108178            6 
 3704000   0.66462324   -8.7116463    521.45609  0.011731823  0.010813732            9 
 3705000   0.65337204   -8.7118221     521.5571  0.011730929  0.010809669            6 
 3706000    0.6656744   -8.7199959    521.94144  0.011736406  0.010805614            7 
 3707000   0.65984427     -8.70217    522.28629  0.011740992  0.010801559            8 
 3708000   0.65367853   -8.7027282    521.61759  0.011722797  0.010797508            7 
 3709000   0.66244111    -8.713088     521.4058  0.011714878   0.01079345            4 
 3710000   0.66389639   -8.7086004    521.42431  0.011712136  0.010789398            4 
 3711000   0.65080929   -8.6960462    521.95823   0.01172097  0.010785346            7 
 3712000   0.65474455   -8.7173821    521.53213  0.011708246  0.010781305            4 
 3713000   0.65227462   -8.6998682    522.29938  0.011722313  0.010777268            5 
 3714000   0.66424857   -8.7206221    521.45271  0.011700159  0.010773226            4 
 3715000   0.66138412   -8.6809942    521.05603  0.011688112  0.010769194           12 
 3716000   0.65735413   -8.7044207    523.13835  0.011731664  0.010765162            6 
 3717000   0.63465916   -8.7258704    520.63105  0.011672295  0.010761127            4 
 3718000   0.64710686   -8.6919176    521.97298  0.011699233  0.010757089            3 
 3719000   0.63663974   -8.6882469    521.62756  0.011688347  0.010753053            4 
 3720000   0.67164536   -8.7014425    522.75687  0.011710503  0.010749022            9 
 3721000   0.64862166   -8.7177339    520.45098  0.011655715  0.010744996            7 
 3722000   0.65609671   -8.7146637    521.93711  0.011685857  0.010740963            5 
 3723000   0.66173348   -8.6927706    522.30529  0.011690959  0.010736933           11 
 3724000   0.65658328   -8.6970551    522.17967  0.011685009  0.010732907            8 
 3725000   0.66947007   -8.7174796    521.35938  0.011663521  0.010728881           18 
 3726000   0.65392235   -8.6962675    521.44713  0.011662353  0.010724854           18 
 3727000    0.6669291   -8.7116491    521.19568  0.011653602  0.010720837           21 
 3728000   0.66898923   -8.7083437    522.26859  0.011674459  0.010716818           19 
 3729000   0.65002095   -8.7153728    522.00911  0.011665529  0.010712791            4 
 3730000   0.64574183   -8.7068606    521.79588  0.011657638  0.010708768           14 
 3731000    0.6427482    -8.706031    521.31994  0.011643883  0.010704755           19 
 3732000   0.66390183   -8.7157761    522.04985  0.011657062  0.010700739           15 
 3733000   0.65145301    -8.724485    522.09462  0.011654938  0.010696725           11 
 3734000   0.67192161   -8.7193858    521.55407  0.011639753  0.010692708            4 
 3735000   0.64569258   -8.7320051    521.81476  0.011642453  0.010688693            9 
 3736000   0.65617117   -8.7097127    521.70994  0.011636999  0.010684679            9 
 3737000    0.6504358   -8.7434677    520.86497  0.011615042  0.010680672            9 
 3738000   0.64167316   -8.7254169    522.13544  0.011640259  0.010676661            9 
 3739000   0.65715909   -8.7297981    521.94177  0.011632829  0.010672656            9 
 3740000   0.66626674    -8.727265    521.58005  0.011621659  0.010668647           16 
 3741000   0.64707711   -8.7433435     521.2832   0.01161194  0.010664645           17 
 3742000   0.66689881   -8.7050066    522.47117  0.011635292  0.010660641            6 
 3743000   0.64910938    -8.730349    520.65725  0.011591799  0.010656642            7 
 3744000   0.65369127   -8.7270578    520.07557  0.011575756  0.010652639            6 
 3745000   0.65242527   -8.7185355    520.67997  0.011586114  0.010648637           11 
 3746000    0.6566158   -8.7185388    521.61761   0.01160388  0.010644643            8 
 3747000   0.65624677   -8.7133374    521.79452  0.011604717  0.010640649            8 
 3748000   0.63162672   -8.7365249    520.68352  0.011576919  0.010636657           14 
 3749000   0.64909194   -8.7156511    521.50013  0.011591983  0.010632661            9 
 3750000   0.65037112   -8.7259949    521.00585  0.011577908  0.010628668            9 
 3751000   0.63896183   -8.7173092    521.23443  0.011579899  0.010624685            7 
 3752000   0.64340606    -8.713069    521.60638  0.011585074    0.0106207            5 
 3753000   0.63950837   -8.7060229    521.64102  0.011582757  0.010616717            5 
 3754000   0.65060804   -8.6923847    521.60209  0.011578807  0.010612736            6 
 3755000    0.6343089   -8.7236867    521.43569   0.01157203   0.01060876            2 
 3756000   0.63175621    -8.707633    521.93474  0.011580022  0.010604782           15 
 3757000   0.64784303   -8.7230495    520.88362  0.011553625  0.010600806           17 
 3758000   0.65428667   -8.7376281      521.088  0.011555082  0.010596829            8 
 3759000   0.64663387   -8.7194965    520.71284  0.011543692  0.010592858            9 
 3760000   0.64979461   -8.7228009    521.26167  0.011552785  0.010588885           18 
 3761000   0.65328992   -8.7190951    521.94252  0.011564799  0.010584916            3 
 3762000   0.64315604   -8.7504968    520.68579  0.011533887  0.010580943            9 
 3763000   0.64645222   -8.7219241    521.12827  0.011540621  0.010576969            4 
 3764000   0.64990907   -8.7351257    521.50126  0.011545813  0.010573002            4 
 3765000   0.64532686   -8.7228703    521.21111  0.011536324  0.010569031            4 
 3766000   0.64808746    -8.723408    521.72621  0.011544659  0.010565072            8 
 3767000   0.65450563   -8.7354922    520.76421  0.011520313  0.010561112            5 
 3768000   0.65901188   -8.7294517    521.31869  0.011529518  0.010557153            5 
 3769000   0.65555861   -8.7279696    521.79043  0.011536889  0.010553198            6 
 3770000   0.65573689   -8.7366621    521.08543  0.011518245  0.010549247            7 
 3771000   0.65989361   -8.7193724    521.26247  0.011519103  0.010545297           16 
 3772000   0.65231323   -8.7234316    521.60391  0.011523593  0.010541348            5 
 3773000   0.65165716   -8.7285603    521.81206  0.011525136  0.010537402           10 
 3774000   0.64913317   -8.7452722    521.80349  0.011521893  0.010533457           15 
 3775000   0.65742068   -8.7120626    522.17806  0.011527109  0.010529516            4 
 3776000   0.64838495   -8.7380096    521.26142  0.011503827  0.010525581            5 
 3777000   0.65412062   -8.7326952    521.55794  0.011507324  0.010521646            5 
 3778000   0.62916874   -8.7244025    520.96527  0.011491205  0.010517711            9 
 3779000   0.64175583   -8.7201508    521.54128  0.011500866  0.010513765            9 
 3780000   0.64525527   -8.7045319    521.35494  0.011493716  0.010509828            8 
 3781000   0.65170604   -8.7412544    520.89648  0.011480571   0.01050589            5 
 3782000    0.6404619   -8.7171123    521.35587  0.011487658  0.010501958            6 
 3783000   0.65320841   -8.7381208    521.41799   0.01148599  0.010498029            7 
 3784000   0.63521073   -8.7280856    521.16266  0.011477331  0.010494097            4 
 3785000   0.64128495   -8.7293874    520.96883  0.011470032  0.010490171            9 
 3786000   0.64641975    -8.731071    520.81695  0.011463659  0.010486242            9 
 3787000   0.63306784   -8.7152056      520.341  0.011450158  0.010482316            6 
 3788000   0.64070017   -8.7166896    521.38213   0.01147004  0.010478389            7 
 3789000   0.63881359   -8.7237262    521.70081  0.011474021  0.010474466            6 
 3790000   0.65359152    -8.727392     520.6386  0.011447638  0.010470544            8 
 3791000   0.66325984   -8.7271543    521.08481  0.011454427   0.01046662            6 
 3792000   0.65568215   -8.7514477    521.35611  0.011457369  0.010462701            7 
 3793000   0.64862407   -8.7215266    521.08001  0.011448282  0.010458778            5 
 3794000     0.639953   -8.7340805    520.59406  0.011434591  0.010454858            3 
 3795000   0.64004191   -8.7011887    521.37647  0.011448759  0.010450933            3 
 3796000    0.6403785   -8.7261876    519.84314  0.011412082  0.010447016            3 
 3797000   0.63694293   -8.7130809    521.25667  0.011440099  0.010443104            6 
 3798000    0.6501004   -8.7092745    520.76647  0.011426331  0.010439195            4 
 3799000   0.65399894   -8.7151535    522.00966  0.011450594  0.010435291            2 
 3800000   0.64010873   -8.7019966    521.00785  0.011425611  0.010431398            4 
 3801000   0.62557798   -8.7354637    521.68687  0.011437492  0.010427493            4 
 3802000   0.64917874   -8.7594049    519.80734  0.011393287  0.010423591            2 
 3803000   0.64163353   -8.7181368    521.52681  0.011427969  0.010419689            8 
 3804000   0.65003592    -8.733802    520.89332  0.011411087  0.010415795            2 
 3805000   0.64776377   -8.7408865    521.11269  0.011412893  0.010411889            7 
 3806000   0.64179666   -8.7247403    520.87015  0.011404584  0.010407992            7 
 3807000   0.64877021   -8.7418023    520.84443  0.011401025  0.010404097            3 
 3808000   0.63537304   -8.7414718    521.09862  0.011403594  0.010400195            5 
 3809000   0.64703383   -8.7503935    521.29279  0.011404848    0.0103963            4 
 3810000   0.63858706   -8.7309017    521.05169  0.011396581  0.010392407            5 
 3811000   0.65488494   -8.7402769    521.56018   0.01140471  0.010388513            5 
 3812000   0.62195344   -8.7587862    520.10811  0.011369974  0.010384621            7 
 3813000   0.66070746   -8.7492227    521.36694  0.011394504  0.010380732            7 
 3814000   0.63295256   -8.7241318    521.13107  0.011386363  0.010376842            6 
 3815000   0.63555564   -8.7487972    520.17779  0.011362556  0.010372963            5 
 3816000   0.64069569   -8.7546798    519.95787  0.011354775  0.010369083            5 
 3817000   0.63626491   -8.7469017    521.66541   0.01138908  0.010365205            5 
 3818000   0.65339016   -8.7590796    521.12643  0.011374333  0.010361321            6 
 3819000   0.64068996   -8.7384063    521.70128  0.011383898  0.010357444            9 
 3820000   0.63624039   -8.7223365    521.12781  0.011368408  0.010353577            4 
 3821000     0.639133   -8.7484634    521.26683  0.011368464  0.010349703            7 
 3822000   0.65037252    -8.740799     521.6103  0.011372979  0.010345832            4 
 3823000   0.63208105   -8.7505552     521.8557  0.011375353  0.010341956            4 
 3824000   0.65111139   -8.7426253    519.96575  0.011331192  0.010338082            5 
 3825000   0.64597872   -8.7509016    519.94665  0.011327814  0.010334215            2 
 3826000   0.65042992   -8.7539463    521.08413  0.011349628  0.010330346           10 
 3827000   0.63578375   -8.7443232    520.38573  0.011331455  0.010326486            7 
 3828000   0.64542817   -8.7436611     520.6501   0.01133425   0.01032262            5 
 3829000   0.64078785   -8.7552251    520.82331   0.01133506  0.010318762            7 
 3830000   0.64115975   -8.7379943      521.429  0.011345278  0.010314907            5 
 3831000   0.63905561   -8.7518569    520.81405   0.01132894  0.010311047            4 
 3832000   0.63946794   -8.7215081    520.72862  0.011324126  0.010307197            5 
 3833000   0.62901408   -8.7464212    520.33006  0.011312507  0.010303344            4 
 3834000   0.64442442   -8.7498723     521.8024  0.011341558  0.010299497           11 
 3835000   0.63131711   -8.7531868    520.58936  0.011312242  0.010295649            2 
 3836000   0.64697165   -8.7397056     521.1125  0.011320657  0.010291801            2 
 3837000   0.65144291   -8.7265195    521.02707  0.011315852  0.010287959            6 
 3838000   0.63642537   -8.7447088    520.24578  0.011295939  0.010284115            9 
 3839000   0.64357569   -8.7585715    521.17411  0.011313148  0.010280277            5 
 3840000   0.61787573   -8.7486767     520.9933  0.011306278  0.010276436            2 
 3841000   0.63907211   -8.7341256    521.65754  0.011317746  0.010272597            6 
 3842000   0.63104755   -8.7435103    521.57969  0.011313111  0.010268757            7 
 3843000   0.64625168   -8.7486158    521.48979  0.011308218   0.01026492            3 
 3844000   0.63277399   -8.7380243    521.39659  0.011303256  0.010261086            2 
 3845000   0.63883851   -8.7312932    520.51752  0.011281264  0.010257255            4 
 3846000   0.64600801   -8.7419621    521.28468  0.011294953  0.010253424            5 
 3847000   0.62644604   -8.7382546      521.805  0.011303288  0.010249594            6 
 3848000   0.63804073   -8.7425782    520.91378   0.01128105  0.010245762            7 
 3849000   0.63687424   -8.7503948    520.50458   0.01126926  0.010241929            3 
 3850000    0.6484113   -8.7425886    520.79869  0.011272699    0.0102381            5 
 3851000   0.65308003   -8.7611474    520.33725  0.011259787  0.010234279            3 
 3852000   0.62724648    -8.741149    521.44705  0.011280872  0.010230456            4 
 3853000   0.63456937   -8.7154743    521.37915  0.011276476  0.010226629            5 
 3854000   0.64471704   -8.7391888    520.76147  0.011260194  0.010222805            5 
 3855000    0.6347868   -8.7583053    519.82114  0.011236946  0.010218983            8 
 3856000    0.6239005   -8.7465479     520.8225  0.011255673  0.010215163            8 
 3857000   0.63672544   -8.7623611    519.53127  0.011224857  0.010211347            9 
 3858000   0.64166896   -8.7338234    521.60392  0.011266717  0.010207534            3 
 3859000   0.64432875   -8.7509283    520.92248  0.011249082  0.010203723            5 
 3860000   0.64287835   -8.7526428    520.78143  0.011243122  0.010199912            4 
 3861000   0.63411653   -8.7408194    520.41466  0.011232294  0.010196101            7 
 3862000   0.63925593   -8.7266815    521.00185  0.011242056  0.010192291            9 
 3863000   0.62281964   -8.7509512    519.93606  0.011216154  0.010188488           10 
 3864000   0.63561766   -8.7444645    520.98579  0.011235891  0.010184683            5 
 3865000   0.62787383    -8.751129    521.01492  0.011233612  0.010180872            5 
 3866000   0.62734343   -8.7549428    520.33354  0.011216019  0.010177067            7 
 3867000   0.63424596   -8.7603346    520.57593  0.011218342  0.010173265            6 
 3868000   0.63427794    -8.741031    520.45581  0.011212854  0.010169456            4 
 3869000   0.62528026   -8.7599118    519.83248   0.01119653  0.010165651            6 
 3870000   0.62301348   -8.7586104    520.43046  0.011206513  0.010161845            6 
 3871000   0.63510838   -8.7853283    519.30113  0.011179306  0.010158043            6 
 3872000   0.63468714   -8.7651923    520.36177  0.011199246  0.010154244            3 
 3873000   0.62837505   -8.7427621    520.90261  0.011207991  0.010150456            6 
 3874000   0.63886974   -8.7624889    520.40327  0.011194357  0.010146664            7 
 3875000   0.62956577   -8.7810053    520.96431  0.011203534  0.010142875            8 
 3876000   0.63615916   -8.7438577    520.91389  0.011199559  0.010139088            4 
 3877000   0.63321324    -8.763541    520.12358  0.011179683    0.0101353            4 
 3878000   0.63049269   -8.7765375    519.91637  0.011172348   0.01013152            4 
 3879000   0.62716896   -8.7812296     520.1768  0.011175062  0.010127738            7 
 3880000   0.61708722   -8.7651597    520.84084  0.011186444  0.010123958            5 
 3881000   0.63110316    -8.767197    520.71367  0.011180831  0.010120183            3 
 3882000    0.6281003   -8.7657405    519.97028  0.011161993  0.010116406           11 
 3883000   0.63543224    -8.759678    521.20216  0.011185556  0.010112629           11 
 3884000   0.63248507   -8.7667695    520.92993  0.011176835  0.010108855            7 
 3885000   0.62963996   -8.7476615    521.14261   0.01117852  0.010105081           12 
 3886000   0.62137816    -8.761262    520.03775   0.01115195  0.010101302            4 
 3887000   0.62355956   -8.7482334     520.1814  0.011152161  0.010097524           11 
 3888000   0.61875738   -8.7660005    519.93146  0.011143936  0.010093748           14 
 3889000   0.62504732   -8.7502613    520.15912  0.011145948  0.010089977           11 
 3890000   0.62493823    -8.746269      521.596  0.011173865   0.01008621            9 
 3891000   0.63279262   -8.7480649    520.33372  0.011143959  0.010082447            2 
 3892000   0.62948974   -8.7643438    519.93088   0.01113247  0.010078681            9 
 3893000   0.63280245   -8.7821467    520.31778  0.011137892  0.010074913            6 
 3894000   0.62662231   -8.7706083     519.3956  0.011115297  0.010071144            8 
 3895000   0.63094756    -8.766072     521.2913  0.011153002  0.010067382            3 
 3896000   0.62497309   -8.7592537    520.62413  0.011135869  0.010063614            4 
 3897000   0.63054038   -8.7630622    520.62678  0.011133068  0.010059859            7 
 3898000   0.61737565   -8.7585401    520.30045  0.011123235  0.010056101            8 
 3899000   0.63435783   -8.7723435    519.56756  0.011104718  0.010052347            5 
 3900000   0.62755097   -8.7433817    519.66345   0.01110392  0.010048593            6 
 3901000   0.64040154    -8.777297    519.95755  0.011107356  0.010044838           13 
 3902000   0.63629283   -8.7837944     518.7551  0.011078829  0.010041083           11 
 3903000   0.62722318   -8.7583241    519.81102  0.011098536  0.010037331            7 
 3904000   0.62146687    -8.762439     520.4284  0.011108871  0.010033578            4 
 3905000   0.63426545   -8.7515441    520.32145  0.011103744  0.010029832            9 
 3906000    0.6241162   -8.7687145    520.26899  0.011099782  0.010026082           14 
 3907000   0.63004335   -8.7655811    520.50881  0.011102056  0.010022333            6 
 3908000   0.62212152   -8.7752193    520.81313  0.011105705  0.010018586           15 
 3909000    0.6299759   -8.7545651    521.14665  0.011109974  0.010014843            7 
 3910000   0.63230701   -8.7836249    521.23117  0.011108934    0.0100111            7 
 3911000   0.62118101   -8.7715907    520.26204  0.011085444  0.010007362            3 
 3912000   0.61739206   -8.8121145    519.88015  0.011074475  0.010003623            4 
 3913000   0.63411056   -8.7850521      519.748   0.01106883 0.0099998824            6 
 3914000   0.61016295   -8.7625601    519.93569  0.011069998 0.0099961485            6 
 3915000   0.62133587   -8.7831248    519.86173  0.011065597 0.0099924164            6 
 3916000   0.61867103   -8.7789625    519.86063  0.011062747  0.009988691           15 
 3917000   0.63180298   -8.8044493    520.23346  0.011067855 0.0099849611            6 
 3918000   0.62437894   -8.8043248    519.76561  0.011055079  0.009981233            6 
 3919000   0.63025423   -8.7923604    519.80962  0.011053194 0.0099775006            8 
 3920000   0.62878519    -8.779125    519.62351  0.011046418 0.0099737779            4 
 3921000    0.6116729   -8.7941544     519.8126   0.01104762 0.0099700497            3 
 3922000   0.62516634   -8.7835436    520.54933  0.011060457  0.009966317            3 
 3923000   0.62742072   -8.7809458    519.91904  0.011044248 0.0099625918            2 
 3924000   0.62583325   -8.7864744    518.75958  0.011016811 0.0099588687           12 
 3925000   0.62607406   -8.7823624    520.05695  0.011041549 0.0099551478            3 
 3926000    0.6160414   -8.8014256    519.26492  0.011021925 0.0099514299            7 
 3927000   0.60546656   -8.7826833    519.19699  0.011017677 0.0099477109            4 
 3928000   0.62825621    -8.793623    519.43117   0.01101984 0.0099439949            5 
 3929000   0.63305369    -8.790487    519.99536  0.011029002 0.0099402802            4 
 3930000   0.63074118   -8.7824309    519.77431  0.011021508 0.0099365626            4 
 3931000   0.62047332   -8.7836811    519.96827  0.011022816 0.0099328484            4 
 3932000   0.64205969   -8.7906444    520.01609  0.011021026 0.0099291374           16 
 3933000   0.62451633    -8.772211     520.2217   0.01102258 0.0099254332            4 
 3934000   0.62743688   -8.7807791    519.42372  0.011002875 0.0099217258            3 
 3935000   0.61604194   -8.7755353    519.23903  0.010996167 0.0099180135            6 
 3936000   0.60780711     -8.79358    519.01955  0.010988727 0.0099143004            6 
 3937000   0.61646678   -8.7983388     519.6815  0.010999947 0.0099105961            5 
 3938000   0.63458477   -8.7879742    519.89835  0.011001743 0.0099068914            3 
 3939000   0.61633316   -8.7758106    519.37859  0.010987954 0.0099031954            4 
 3940000   0.60518981   -8.7695052    520.33784  0.011005453 0.0098994944            8 
 3941000   0.60575604    -8.798556    519.66096  0.010988348 0.0098957933            7 
 3942000    0.6173838   -8.7980576    519.06467  0.010972955 0.0098920989           13 
 3943000   0.61498055   -8.7739063    520.79375  0.011006715 0.0098884077            2 
 3944000   0.60490171   -8.7788435      519.358  0.010973589 0.0098847164           10 
 3945000   0.61333916   -8.7763187    519.13601  0.010966118 0.0098810284            5 
 3946000   0.62959563   -8.7812978    519.44456  0.010969855 0.0098773426            4 
 3947000   0.61173425    -8.799326     519.2488  0.010962942  0.009873654            4 
 3948000    0.6318687   -8.7898485    519.72871  0.010970295 0.0098699682            4 
 3949000   0.62070835   -8.7895074    519.89742  0.010971077 0.0098662859            8 
 3950000   0.62487286   -8.7926763    518.34328  0.010935512 0.0098626052            3 
 3951000   0.61735919    -8.787396    519.84064  0.010964326 0.0098589321            7 
 3952000   0.61890524   -8.7799491      520.098  0.010966979 0.0098552563            6 
 3953000   0.61260743   -8.7959018    519.14081  0.010944026 0.0098515785            6 
 3954000   0.62790062   -8.7866744    520.17448  0.010963043 0.0098479004            2 
 3955000   0.61539565   -8.7954979     520.5476  0.010968133 0.0098442294            2 
 3956000    0.6098134   -8.7833725    520.56891   0.01096581 0.0098405644            6 
 3957000   0.62077176   -8.7712024    520.21854   0.01095566  0.009836897            5 
 3958000   0.61406174   -8.7892264    518.90307  0.010925195 0.0098332338            5 
 3959000   0.61694528   -8.8014477    519.76953  0.010940674 0.0098295682            4 
 3960000   0.63356087   -8.8013342    520.20153  0.010947002 0.0098259072            6 
 3961000   0.61904571   -8.7764933    520.27896  0.010945867 0.0098222452            4 
 3962000   0.62158356   -8.7857454    519.64853  0.010929844 0.0098185851            4 
 3963000    0.6058499   -8.7917639    519.77916  0.010929833 0.0098149228            8 
 3964000   0.60760437   -8.7934867    520.14277   0.01093472 0.0098112644            3 
 3965000   0.61068984   -8.7918855    518.99783  0.010907899  0.009807607            3 
 3966000   0.62156907   -8.8084576    519.20486  0.010909499 0.0098039512            5 
 3967000    0.6142798   -8.7781579    519.12031  0.010904972 0.0098002962            5 
 3968000   0.59688622   -8.7887003    519.07015  0.010901171 0.0097966426            5 
 3969000   0.61116068   -8.8045646    518.76894    0.0108921 0.0097929858            3 
 3970000   0.60348247   -8.8093086    518.98221  0.010893833 0.0097893321            4 
 3971000    0.6200433   -8.8056659    518.86814  0.010888696 0.0097856797            8 
 3972000   0.60696565   -8.7909866    520.31016  0.010916208 0.0097820308            2 
 3973000   0.61497596   -8.7879448    519.92967   0.01090548 0.0097783856            6 
 3974000   0.61127132   -8.8256127    519.16344  0.010886668 0.0097747405            5 
 3975000   0.62184769   -8.7949163    519.98498  0.010901153 0.0097710948           11 
 3976000   0.60151508   -8.7803398    520.06722  0.010900134 0.0097674481            5 
 3977000   0.61871591   -8.8200514    519.18777  0.010878966 0.0097638046            9 
 3978000   0.61152461   -8.7891911    519.86088  0.010890332 0.0097601584            3 
 3979000   0.62268419   -8.7971553    518.50691  0.010859238 0.0097565135            9 
 3980000   0.60495514   -8.8108438    519.02598  0.010867378 0.0097528681            5 
 3981000   0.61334207   -8.8096132     519.2578  0.010869501 0.0097492314            6 
 3982000   0.61342127    -8.778909    519.48929  0.010871616 0.0097455955            4 
 3983000   0.62602904   -8.8119736    520.44906  0.010888967 0.0097419606            3 
 3984000   0.59782311   -8.8048089    519.72449  0.010871078 0.0097383312            4 
 3985000    0.6122875   -8.8046194    518.93905  0.010851925 0.0097347041            3 
 3986000   0.60102783     -8.80912    519.23416  0.010855372 0.0097310716            5 
 3987000   0.60925549   -8.7963474    519.26983  0.010853395 0.0097274449           12 
 3988000   0.60131984   -8.7806437    518.88606  0.010842654 0.0097238187            8 
 3989000   0.61994891   -8.7918426     519.8915   0.01086094 0.0097201946            5 
 3990000   0.60329181   -8.8013794    519.55932  0.010851281 0.0097165736            5 
 3991000   0.61113717   -8.8054742    520.14944  0.010860884  0.009712953            7 
 3992000   0.60757045   -8.8171938     518.8779  0.010831619 0.0097093314            4 
 3993000   0.61607235   -8.8036393    518.91337  0.010829647 0.0097057164            6 
 3994000   0.61488529   -8.8004503    519.14749   0.01083182 0.0097020999            3 
 3995000   0.60630923    -8.827645    518.50652  0.010815739   0.00969848            3 
 3996000   0.62468833   -8.7997831    519.17535   0.01082698 0.0096948624            3 
 3997000   0.61269615   -8.8037428    518.63074  0.010812917 0.0096912499            5 
 3998000   0.61514792   -8.8034011    519.57595  0.010829914 0.0096876382            5 
 3999000   0.59770006   -8.8217251    520.09113  0.010837941 0.0096840274            4 
 4000000   0.60317525   -8.8074803    519.17738  0.010816195 0.0096804173            5 
 4001000   0.61362799   -8.7923364    519.50929  0.010820405 0.0096768077            7 
 4002000   0.60893522   -8.8094399    518.51505  0.010796998 0.0096732026            3 
 4003000   0.61345974   -8.7990324    519.47713  0.010814329 0.0096695972            4 
 4004000   0.62206616   -8.8238057    519.04973  0.010802733 0.0096659989            6 
 4005000   0.61030266   -8.7993558    519.28958  0.010805027 0.0096623997            2 
 4006000   0.60863527   -8.8269999    519.19143  0.010800288  0.009658804            3 
 4007000    0.6247365   -8.8241964    518.99115  0.010793427  0.009655208            3 
 4008000   0.60551542   -8.7996042    519.46745  0.010800637 0.0096516108            4 
 4009000   0.60640802   -8.8251802    518.48389  0.010777498 0.0096480183            2 
 4010000   0.61648377   -8.8393058     519.4214  0.010794293 0.0096444282            4 
 4011000   0.62657787   -8.8047251    519.36581  0.010790447 0.0096408352            3 
 4012000   0.61278775    -8.820828    519.85843   0.01079799 0.0096372446            4 
 4013000   0.62609773   -8.8140691    519.49465  0.010787745 0.0096336535            3 
 4014000   0.61859861   -8.8238652    519.44037  0.010783931 0.0096300642            3 
 4015000   0.59340024   -8.8213929    518.53771   0.01076251 0.0096264766            4 
 4016000   0.61216099   -8.8318236    519.05644  0.010770593 0.0096228893            3 
 4017000   0.60339857   -8.8282594    518.94699  0.010765642 0.0096193057            4 
 4018000   0.60808605   -8.8112941    518.73953   0.01075866 0.0096157261            4 
 4019000   0.61473032   -8.7990776    520.22513  0.010786786 0.0096121468            5 
 4020000   0.61549667   -8.8168401    518.50459  0.010748437 0.0096085628            4 
 4021000   0.59385832   -8.8068153    518.16295  0.010738683 0.0096049791            6 
 4022000   0.60904441   -8.8333562    519.04455   0.01075428 0.0096013952            3 
 4023000    0.6086247   -8.8318619    519.07528  0.010752243 0.0095978185            2 
 4024000   0.60326845   -8.8110555    518.82627  0.010744414 0.0095942369            2 
 4025000   0.61362616   -8.8379451    518.75416  0.010740252 0.0095906608            3 
 4026000   0.59770375   -8.8285152    519.00481  0.010742772 0.0095870844            2 
 4027000   0.61724152    -8.829896    519.00487  0.010740106 0.0095835064            3 
 4028000   0.59767266   -8.8211522    518.79255  0.010733047  0.009579934            6 
 4029000   0.60220318   -8.8313238    518.38852  0.010722026 0.0095763649            4 
 4030000   0.60228768   -8.8256807    518.76512  0.010727153 0.0095727959            4 
 4031000   0.59781975    -8.839569    518.33455  0.010715591 0.0095692282            3 
 4032000   0.61128455   -8.8261246    520.20991  0.010751693 0.0095656594            4 
 4033000   0.60516517   -8.8572234    518.36097  0.010710823 0.0095620958            2 
 4034000   0.60443751   -8.8183266    518.43072  0.010709608 0.0095585388            4 
 4035000   0.61201115   -8.8110043    519.78647  0.010734954 0.0095549804            2 
 4036000   0.60542325   -8.8194604    518.90788  0.010714153 0.0095514247            5 
 4037000   0.61553876   -8.8273821    519.02232  0.010713862 0.0095478649            2 
 4038000   0.60068456   -8.8556961    517.85514  0.010687121 0.0095443088            5 
 4039000   0.60589181   -8.8210392    519.15182  0.010711229 0.0095407521            1 
 4040000   0.60194055    -8.827657    518.79149  0.010701145 0.0095372009            4 
 4041000   0.60554587   -8.8280868    518.28262  0.010688002 0.0095336471            2 
 4042000   0.61796991   -8.8182494    518.94094  0.010698931 0.0095300961            3 
 4043000   0.61574522   -8.8161043    518.13688  0.010679711   0.00952655            2 
 4044000   0.60123536   -8.8381824    518.20721   0.01067852 0.0095230012            5 
 4045000   0.59768476   -8.8353774    519.02696  0.010692768 0.0095194539            6 
 4046000   0.60672577   -8.8236175    519.29932  0.010695735 0.0095159111            4 
 4047000   0.59442143   -8.8173815    518.68408  0.010680423 0.0095123693            3 
 4048000   0.59927064   -8.8167743    519.37624  0.010692034 0.0095088327            4 
 4049000   0.60872154   -8.8196422    519.03648    0.0106824 0.0095052961            3 
 4050000   0.59552409   -8.8104901    518.55932  0.010669945 0.0095017626            4 
 4051000   0.61717455   -8.8111952     518.1457  0.010658802 0.0094982255            2 
 4052000   0.60882154   -8.8429832    517.89903  0.010651099 0.0094946868            3 
 4053000   0.61000036   -8.8267581    518.33881  0.010657513 0.0094911496            3 
 4054000   0.60610341   -8.8274242    518.38134  0.010655758 0.0094876197            4 
 4055000   0.60172261   -8.8157918    519.09208  0.010667737  0.009484092            5 
 4056000   0.60055176   -8.8283863    517.82785  0.010639132 0.0094805622            3 
 4057000   0.59736523   -8.8400696    519.47636  0.010670371 0.0094770382            4 
 4058000   0.59924371   -8.8376131     517.5467  0.010628115 0.0094735154            3 
 4059000   0.60110999   -8.8105959    518.21771  0.010639273 0.0094699904            2 
 4060000   0.60233339    -8.838071    517.59244  0.010623819 0.0094664695            3 
 4061000   0.59973503   -8.8287997    518.91686   0.01064838 0.0094629485            5 
 4062000   0.59883664   -8.8336675    518.23713  0.010631814 0.0094594278            3 
 4063000   0.60853114   -8.8460443     517.8381  0.010621013 0.0094559086            4 
 4064000    0.5941098   -8.8259371    519.56477  0.010653805 0.0094523901            6 
 4065000    0.5987323    -8.844308    518.20369  0.010623282  0.009448877            3 
 4066000   0.58757489   -8.8303951     519.3061  0.010643263 0.0094453651            3 
 4067000   0.60091411    -8.827879    518.66007  0.010627409 0.0094418549            5 
 4068000   0.59699172   -8.8441085    518.74057  0.010626446 0.0094383466            2 
 4069000   0.61854972   -8.8501279    518.42368  0.010617344 0.0094348412            4 
 4070000   0.59620599   -8.8412685    517.89953  0.010604003 0.0094313354            4 
 4071000   0.60113144   -8.8352482     519.0504  0.010624957 0.0094278335            3 
 4072000   0.59466233   -8.8454383    518.81546   0.01061754 0.0094243279            3 
 4073000   0.59421151   -8.8342253    519.00307  0.010618771 0.0094208216            2 
 4074000   0.61286004   -8.8428065    518.68257  0.010609609 0.0094173193            4 
 4075000   0.60070914   -8.8216614    518.65789  0.010606501 0.0094138184            3 
 4076000   0.60632212   -8.8469061    517.92313  0.010588877 0.0094103175            3 
 4077000   0.60146873   -8.8359062    519.50248  0.010618561  0.009406821            5 
 4078000   0.58989526   -8.8308513    519.05406  0.010606794 0.0094033229            3 
 4079000   0.60016912    -8.833732    517.96098  0.010581862 0.0093998295            4 
 4080000   0.59774663   -8.8270796    518.07454  0.010581588  0.009396335            4 
 4081000   0.59918351   -8.8294162    518.06505  0.010578801 0.0093928401            2 
 4082000   0.60390423   -8.8442771    517.96073   0.01057408 0.0093893511            4 
 4083000   0.60411749   -8.8401746    517.49828  0.010562052 0.0093858646            4 
 4084000   0.60414322   -8.8275956    517.67061  0.010562982 0.0093823789            3 
 4085000   0.59052648   -8.8457689    518.65163  0.010580409 0.0093788878            2 
 4086000   0.60797398   -8.8353439    517.83627   0.01056119 0.0093753988            2 
 4087000   0.58254771   -8.8444294    518.23709  0.010566779 0.0093719093            2 
 4088000    0.5844737   -8.8315826    518.25794  0.010564619 0.0093684209            7 
 4089000   0.59114493   -8.8327999    517.11537   0.01053875 0.0093649364            4 
 4090000   0.58855592   -8.8212314    518.34499  0.010561226 0.0093614541            2 
 4091000   0.58825798   -8.8168264    519.03321  0.010572664 0.0093579697            3 
 4092000   0.59980951   -8.8488873      518.049  0.010550037 0.0093544905            2 
 4093000    0.6106046   -8.8332929    518.49018  0.010556442 0.0093510119            4 
 4094000   0.59509056   -8.8498793    517.90314  0.010541914  0.009347535            4 
 4095000   0.60647528     -8.84606    517.55731  0.010532302 0.0093440577            2 
 4096000   0.60119428   -8.8606686     517.2568  0.010523616 0.0093405862            2 
 4097000    0.5929487   -8.8351521    517.54325  0.010526874 0.0093371122            3 
 4098000   0.59438845   -8.8443382    518.10194  0.010535667 0.0093336406            4 
 4099000   0.60793263   -8.8357276      517.971  0.010530434  0.009330175            2 
 4100000    0.5971115   -8.8469893    517.57088  0.010519733 0.0093267113            6 
 4101000   0.60263251   -8.8487408    518.11804  0.010528287 0.0093232441            2 
 4102000   0.59643455   -8.8710951    517.83967  0.010520065 0.0093197785            3 
 4103000   0.60096048   -8.8452086    517.82956  0.010517296 0.0093163149            3 
 4104000   0.60899108   -8.8656134    518.70036  0.010532415 0.0093128535            4 
 4105000   0.58295965   -8.8423677    518.29029  0.010521524 0.0093093891            7 
 4106000    0.5882903   -8.8233972    517.55195  0.010503977 0.0093059319            3 
 4107000   0.59270675   -8.8535206    517.86531  0.010507778 0.0093024794            4 
 4108000   0.58971057   -8.8437776    517.74191  0.010502716  0.009299024            5 
 4109000   0.60102357   -8.8283227    519.00367   0.01052575 0.0092955702            2 
 4110000   0.59870338   -8.8533355    517.90137  0.010500839 0.0092921176           10 
 4111000   0.60017091   -8.8452092    517.54499   0.01049106 0.0092886645            3 
 4112000   0.59079593   -8.8488413    517.59149  0.010489451 0.0092852148            4 
 4113000   0.59133767   -8.8426612    518.34806   0.01050223  0.009281768            4 
 4114000   0.59592871   -8.8364944    518.51717  0.010503103 0.0092783263            5 
 4115000   0.59101362   -8.8650458    517.63151  0.010482615 0.0092748814            2 
 4116000   0.59596235   -8.8622904    518.48968  0.010497442 0.0092714381            3 
 4117000   0.58777318   -8.8261235    517.43861  0.010473618 0.0092679925            2 
 4118000   0.60542133   -8.8409924    517.51662  0.010472653 0.0092645521            2 
 4119000   0.58789578    -8.875333    517.94076  0.010478691 0.0092611136            2 
 4120000   0.59128704   -8.8536658    517.09427  0.010459026 0.0092576746            3 
 4121000   0.58865328   -8.8584257    517.60394  0.010466795 0.0092542407            5 
 4122000   0.58453506   -8.8772176    518.20395  0.010476386 0.0092508075            4 
 4123000   0.59195142   -8.8641016    518.14721  0.010472698 0.0092473724            6 
 4124000   0.60306379   -8.8699585    517.47051  0.010456485 0.0092439427            2 
 4125000    0.5971059   -8.8708148     517.5418   0.01045539 0.0092405183            5 
 4126000   0.60283979   -8.8280782    518.66592   0.01047556  0.009237093            6 
 4127000   0.59189079   -8.8444031    518.77089  0.010475141 0.0092336685            2 
 4128000   0.59823414   -8.8458345     518.8169  0.010473532 0.0092302418            4 
 4129000   0.59312864   -8.8389441     518.2775  0.010460109 0.0092268178            3 
 4130000   0.59845835   -8.8516677     518.0693  0.010453376 0.0092233981            5 
 4131000   0.59313718    -8.845657    518.55937  0.010460731 0.0092199764            3 
 4132000   0.60078869   -8.8468089    517.70642  0.010440997 0.0092165555           10 
 4133000   0.58841142   -8.8695846    517.64854  0.010437304 0.0092131358            5 
 4134000   0.59026416   -8.8719883    517.89908   0.01043983 0.0092097219            4 
 4135000   0.60099818    -8.846013    517.26475  0.010424521  0.009206308            4 
 4136000   0.59911508   -8.8596346     517.5681  0.010428113 0.0092028964            5 
 4137000   0.59133657   -8.8444356    518.06476  0.010435597 0.0091994831            5 
 4138000   0.59560672   -8.8499321    517.17712  0.010415199  0.009196073            9 
 4139000   0.59998368   -8.8579717    517.69556  0.010423121 0.0091926627            6 
 4140000   0.59527697   -8.8360695    518.00673  0.010426867 0.0091892537            4 
 4141000   0.59764354   -8.8477034    517.41774  0.010412496 0.0091858511           12 
 4142000   0.59242922   -8.8654279    517.80169  0.010417707 0.0091824459            4 
 4143000   0.58450821   -8.8686716    517.64554  0.010412051 0.0091790427            7 
 4144000   0.59085174   -8.8511063    516.91664  0.010394881 0.0091756405            6 
 4145000   0.59537719   -8.8548864     517.7485  0.010409097 0.0091722358           10 
 4146000   0.59454213   -8.8619347    516.78153  0.010387151 0.0091688391            4 
 4147000   0.58864275   -8.8565028    517.34837  0.010396037 0.0091654421            4 
 4148000   0.58687065   -8.8836424    517.58809  0.010398346 0.0091620479            3 
 4149000   0.58523581   -8.8534082    518.52776  0.010414714 0.0091586547            2 
 4150000   0.59838465   -8.8476278    517.03606   0.01038225 0.0091552608            4 
 4151000   0.58954193    -8.859852    517.99902  0.010399081 0.0091518709            4 
 4152000   0.59617707   -8.8572489    517.63052   0.01038918 0.0091484813            4 
 4153000   0.58993966   -8.8687409    517.43163  0.010382688 0.0091450952            7 
 4154000   0.58167252   -8.8664361    517.90856  0.010389756 0.0091417103            3 
 4155000   0.59161626   -8.8585506    518.13508  0.010391799 0.0091383244            4 
 4156000   0.59559209   -8.8679081    518.09189  0.010388432 0.0091349395            2 
 4157000   0.57703982   -8.8481866    518.46844  0.010393482   0.00913156            5 
 4158000    0.5901765   -8.8654422    518.40052  0.010389621 0.0091281803            5 
 4159000    0.5865073   -8.8619603    517.78787  0.010374847 0.0091247971            7 
 4160000   0.59247161   -8.8595205    517.88152  0.010374229 0.0091214204            2 
 4161000   0.57679691   -8.8763464    518.29895  0.010380096 0.0091180447            3 
 4162000   0.59106048   -8.8480976    517.70934  0.010365796 0.0091146668            2 
 4163000   0.58186066   -8.8531568    517.68298  0.010362779 0.0091112922            2 
 4164000   0.58979955   -8.8641279    517.57117  0.010358053 0.0091079189            4 
 4165000   0.57993394    -8.858884    518.33631  0.010370875 0.0091045534            5 
 4166000   0.58482252    -8.874648    517.59208  0.010353498 0.0091011848            3 
 4167000    0.5785736   -8.8728659    517.11212  0.010341415 0.0090978161            6 
 4168000   0.59348656   -8.8729761    516.76368  0.010331967 0.0090944518            8 
 4169000   0.58162919   -8.8563844    518.05445   0.01035529 0.0090910914            5 
 4170000    0.5828504   -8.8491575    517.12427  0.010334218 0.0090877253            4 
 4171000    0.5855487   -8.8698189     517.1389  0.010332033  0.009084363            6 
 4172000   0.57304622   -8.8600689    517.14342  0.010329646 0.0090810037            7 
 4173000   0.59001157   -8.8645251    518.43399  0.010352943 0.0090776485            2 
 4174000   0.57213955   -8.8615156     517.5987  0.010333787 0.0090742985            5 
 4175000   0.59749724   -8.8548534    517.36677  0.010326682 0.0090709482            4 
 4176000   0.57909404   -8.8718119    516.48528  0.010306619 0.0090675973            5 
 4177000   0.58041115   -8.8554542     517.5453  0.010325299 0.0090642507            7 
 4178000   0.57931537   -8.8490337    517.75268  0.010326964    0.0090609            3 
 4179000   0.58754835   -8.8725803    516.92283  0.010307945 0.0090575524            3 
 4180000   0.59413183   -8.8627144    517.48444  0.010316675 0.0090542092            5 
 4181000   0.58026873   -8.8460391     518.2507  0.010329481 0.0090508648            2 
 4182000   0.57775502      -8.8718    517.94664  0.010320952 0.0090475238            2 
 4183000   0.59248551   -8.8745225    517.21482  0.010303905 0.0090441828            5 
 4184000    0.5820216   -8.8841148    516.71555  0.010291498 0.0090408442            3 
 4185000    0.5757611    -8.861319    517.17809   0.01029825 0.0090375054            3 
 4186000    0.5836209   -8.8633456    517.85455  0.010309256  0.009034168            5 
 4187000   0.57574728   -8.8897028    517.56741  0.010301079 0.0090308359            3 
 4188000    0.5774417   -8.8445116    518.07305  0.010308681 0.0090275051            4 
 4189000   0.57779194   -8.8927365    517.52453  0.010295308  0.009024174            4 
 4190000    0.5778341   -8.8529615     517.4221  0.010290813 0.0090208444            6 
 4191000   0.57697984   -8.8644626    516.99896  0.010279944 0.0090175205            6 
 4192000   0.58631114   -8.8642451    517.63401  0.010290116 0.0090141953            5 
 4193000   0.57974663   -8.8869633    517.72497   0.01028947 0.0090108724            5 
 4194000   0.58040752   -8.8621218    517.64565   0.01028544 0.0090075489            3 
 4195000   0.56627503   -8.8545022    518.47769  0.010299517 0.0090042305            7 
 4196000   0.56933103   -8.8943638    517.93219  0.010286229 0.0090009072            8 
 4197000   0.58288562   -8.8769888    517.85781  0.010282301 0.0089975847            2 
 4198000   0.58585291   -8.8604881    518.03645  0.010283398 0.0089942642            2 
 4199000   0.57467775   -8.8680229    517.54115  0.010271119 0.0089909477            2 
 4200000   0.58342291   -8.8881259    517.54163  0.010268683 0.0089876352            1 
 4201000   0.58471139    -8.870165    517.32662  0.010261974 0.0089843179            5 
 4202000    0.5712975   -8.8691718    517.95144  0.010271923 0.0089810093            6 
 4203000    0.5604338   -8.8604282    518.63073  0.010282947 0.0089776992            3 
 4204000    0.5903053   -8.8619543    517.40306  0.010256166 0.0089743901            5 
 4205000   0.57896142   -8.8609818    517.49987  0.010255645 0.0089710823            6 
 4206000   0.57966502   -8.8681086     517.7681  0.010258522 0.0089677745            3 
 4207000   0.57320035   -8.8635349    516.92844  0.010239451 0.0089644716            2 
 4208000   0.57462753   -8.8629656    516.71045  0.010232701 0.0089611687            7 
 4209000    0.5792155   -8.8886228    517.77544  0.010251355 0.0089578697            3 
 4210000   0.56791684   -8.8681367     517.5411  0.010244281   0.00895457            6 
 4211000    0.5763332     -8.86428    517.93215  0.010249587 0.0089512674            2 
 4212000   0.57957892   -8.8701251    516.99124  0.010228538 0.0089479697            5 
 4213000   0.57706737   -8.8783282    516.95279   0.01022535 0.0089446696            4 
 4214000   0.57075099   -8.8652426    518.05663  0.010244752  0.008941378            4 
 4215000   0.58293023   -8.8803212    517.29236  0.010227211 0.0089380838            3 
 4216000   0.57396404   -8.8648244    516.84239  0.010215892 0.0089347914            5 
 4217000    0.5784017   -8.8485305    517.51463  0.010226753 0.0089315039            4 
 4218000   0.57327018   -8.8549472    516.35374  0.010201394 0.0089282153            8 
 4219000   0.58213733   -8.8716484    517.73237  0.010226206 0.0089249335            4 
 4220000   0.57002978   -8.8721653    517.73026  0.010223741 0.0089216548            3 
 4221000   0.57428316   -8.8631803    517.31134  0.010213049  0.008918377            2 
 4222000   0.57229984   -8.8714705     518.3357  0.010230848 0.0089150962            6 
 4223000    0.5737706   -8.8662685    517.94565  0.010220729 0.0089118202            1 
 4224000   0.59003368   -8.8796893    517.61146  0.010211716 0.0089085456            4 
 4225000   0.57205241   -8.8948913    517.16966  0.010200585 0.0089052673            4 
 4226000   0.57493846    -8.885654    516.85784  0.010192022 0.0089019925            4 
 4227000   0.55177178   -8.8852013    517.67066  0.010205636 0.0088987168            5 
 4228000   0.57328726   -8.8755472    517.35645  0.010197029 0.0088954426            6 
 4229000   0.57711499   -8.8859935     516.3572  0.010174927 0.0088921687            3 
 4230000   0.57474051   -8.8706089    516.77026  0.010180659 0.0088889048            4 
 4231000   0.57540223   -8.8925747    516.87577  0.010180331 0.0088856381            5 
 4232000   0.59052348   -8.8867439    516.61504  0.010172791 0.0088823677            5 
 4233000   0.57225979   -8.8857406    517.59492  0.010189679 0.0088791015            5 
 4234000   0.58093431   -8.8666575    517.23444  0.010180177 0.0088758359            4 
 4235000   0.56988098   -8.8540966    516.75608   0.01016836  0.008872575            2 
 4236000   0.56309159   -8.8908302    516.52712  0.010161456 0.0088693157            2 
 4237000   0.58565589    -8.882813     517.2828   0.01017392 0.0088660593            5 
 4238000   0.56937073   -8.8820893    516.89336  0.010163862 0.0088628023            3 
 4239000   0.57798214    -8.877447    516.80921   0.01015981 0.0088595457            5 
 4240000   0.56799845   -8.8989236    517.70871  0.010175093 0.0088562953            6 
 4241000   0.57795535   -8.8899513     517.1905  0.010162511 0.0088530433            7 
 4242000   0.58534992    -8.882584    517.28303  0.010161933 0.0088497925            5 
 4243000   0.57839484   -8.9001433    516.42641  0.010142714 0.0088465412            3 
 4244000   0.57395259   -8.8799129    517.16434  0.010154813 0.0088432958            3 
 4245000   0.58093789   -8.8632001    517.18984  0.010152922 0.0088400497            7 
 4246000   0.58216903   -8.8830716    517.35762  0.010153824 0.0088368061            8 
 4247000   0.57132637   -8.8902351    516.98924  0.010144205 0.0088335567            5 
 4248000   0.57871798   -8.8829742    517.12038  0.010144389 0.0088303088            7 
 4249000   0.57279055   -8.8960005    517.51397  0.010149721 0.0088270669            5 
 4250000   0.57552907   -8.8867135    517.26561  0.010142463 0.0088238237            6 
 4251000   0.57356656   -8.9038782    517.71177  0.010148823 0.0088205845            8 
 4252000   0.55868503   -8.8896137    517.27369  0.010137851 0.0088173498            3 
 4253000   0.56139373   -8.8931008    517.38479  0.010137644 0.0088141114            5 
 4254000   0.57452806   -8.8837566    516.52661  0.010118449  0.008810876            7 
 4255000   0.56904142    -8.891437    517.14014  0.010128087 0.0088076419            3 
 4256000   0.56815434   -8.8753144    516.77993  0.010118655   0.00880441            7 
 4257000   0.57857686   -8.8791379    517.38514  0.010128125 0.0088011752            5 
 4258000   0.57137013   -8.8917076    516.64566  0.010111274 0.0087979444            9 
 4259000    0.5779282   -8.8879548    517.37621  0.010123194 0.0087947206            6 
 4260000    0.5705496   -8.8743159    517.03249  0.010114094 0.0087914946            4 
 4261000   0.57825905    -8.892202    517.04608  0.010111986 0.0087882694            6 
 4262000   0.56779092    -8.883292    517.13847   0.01011142 0.0087850418            3 
 4263000   0.57736869   -8.8832563    517.66574  0.010119355 0.0087818205            5 
 4264000   0.56629268   -8.9009838    516.78517  0.010099773 0.0087786004            3 
 4265000   0.56609218   -8.8913496    517.27777   0.01010703 0.0087753834            5 
 4266000   0.56702398   -8.8845009    518.01905  0.010119141 0.0087721702            3 
 4267000   0.57264402   -8.9052718    517.09988  0.010098818 0.0087689553            3 
 4268000   0.56941881    -8.895057    517.54335  0.010105111 0.0087657434            5 
 4269000    0.5647093   -8.8833858    517.37928  0.010099541 0.0087625263            3 
 4270000   0.57342993   -8.8903253    516.54182  0.010080832 0.0087593138            4 
 4271000   0.56939946   -8.9103755    517.71521  0.010101366 0.0087561015            6 
 4272000   0.56844277   -8.8915538    517.10231  0.010087046   0.00875289            2 
 4273000   0.57330902   -8.8859903    517.42713   0.01009102 0.0087496805            8 
 4274000   0.57053027     -8.90942    517.46401  0.010089378 0.0087464728            4 
 4275000   0.56918779   -8.8939893    517.37723  0.010085326 0.0087432666            2 
 4276000    0.5781645   -8.8992006    516.29038  0.010061786 0.0087400611            4 
 4277000   0.55759753   -8.8933707    517.46283  0.010082278 0.0087368549            4 
 4278000   0.56606286   -8.8944635    517.12467  0.010073334 0.0087336569            5 
 4279000   0.55960307   -8.8933762    516.77024  0.010064077 0.0087304545            3 
 4280000   0.55705765   -8.8737079    517.47546  0.010075457 0.0087272571            5 
 4281000   0.56481523    -8.889665    517.65416  0.010076582 0.0087240647            4 
 4282000   0.55499687   -8.9024957    516.21657  0.010046251  0.008720868            2 
 4283000     0.564317   -8.8691959    517.28114  0.010064619 0.0087176732            9 
 4284000   0.57292467    -8.876965    516.72784  0.010051506 0.0087144858            5 
 4285000   0.56155147   -8.9192247    516.53522  0.010045415 0.0087112965            5 
 4286000   0.56526431   -8.8947033    517.12247  0.010054489 0.0087081075            2 
 4287000   0.55755931   -8.8779294     517.0886  0.010051485 0.0087049176            4 
 4288000   0.56329343   -8.8948763    515.79034  0.010023911 0.0087017322            3 
 4289000   0.56890676   -8.8950784    517.57905  0.010056327 0.0086985428            6 
 4290000   0.56148575   -8.9060904    517.48427  0.010052142 0.0086953578            6 
 4291000   0.57465333   -8.8953346    516.14557  0.010023801 0.0086921764            7 
 4292000   0.56412277   -8.8955013    516.93962  0.010036883 0.0086889943            4 
 4293000   0.56308219   -8.8941361    517.36771  0.010042855 0.0086858171            3 
 4294000   0.56575771   -8.8976414    516.70719  0.010027697  0.008682636            8 
 4295000   0.56305837   -8.9029051    516.58595   0.01002301 0.0086794581            6 
 4296000   0.56906774   -8.9063966    517.05018  0.010029682 0.0086762798            6 
 4297000   0.56365053    -8.914617    515.81762  0.010003445 0.0086731079            5 
 4298000   0.56198406   -8.8950599    516.65269  0.010017308 0.0086699331            6 
 4299000   0.56368181   -8.8918462    516.93005  0.010020354 0.0086667636            6 
 4300000   0.57705104   -8.9067632    516.00364  0.010000071 0.0086635968            6 
 4301000   0.54709705   -8.8964767    516.84196  0.010013988 0.0086604309            4 
 4302000   0.55563133   -8.8815507    517.17836  0.010018177  0.008657267            4 
 4303000   0.55880155   -8.9262887    516.59235    0.0100045 0.0086541005            5 
 4304000   0.56299629    -8.902011    516.62469  0.010002802 0.0086509366            6 
 4305000    0.5665882   -8.9105181    517.12911  0.010010242 0.0086477759            3 
 4306000   0.56551295   -8.8986142    517.12087  0.010007758 0.0086446167            4 
 4307000   0.57282532   -8.8954177    516.13983  0.009986453 0.0086414587            3 
 4308000    0.5618283   -8.9001794    516.56303  0.009992321 0.0086383015            5 
 4309000   0.56098943   -8.9032433    515.92185 0.0099776021 0.0086351484            7 
 4310000    0.5655747   -8.9145311    516.23943 0.0099814276 0.0086319908            7 
 4311000   0.57097781    -8.899515    517.13092 0.0099963451 0.0086288372            4 
 4312000    0.5670941   -8.9106157    517.65883  0.010004229 0.0086256861            3 
 4313000    0.5643733   -8.8997027    517.30124 0.0099950005 0.0086225344            5 
 4314000   0.55586694   -8.8987279    516.62237 0.0099795697 0.0086193885            2 
 4315000   0.56281496   -8.8803602    517.73794 0.0099988014 0.0086162416            5 
 4316000   0.56574254    -8.924223    516.68638 0.0099761812 0.0086130921            2 
 4317000   0.57070344   -8.9057639    516.58756 0.0099719628  0.008609945            6 
 4318000   0.55768558   -8.9059922    517.33847 0.0099841452 0.0086068004            3 
 4319000   0.57387986    -8.894426    517.00974 0.0099754909 0.0086036627            5 
 4320000   0.55023539   -8.8939301    516.60339 0.0099653432 0.0086005249            3 
 4321000   0.54568765   -8.9043997    515.66013 0.0099448454 0.0085973868            4 
 4322000   0.55865277   -8.8900901    516.54588 0.0099596228 0.0085942544            6 
 4323000   0.55966967   -8.9141243    516.19496 0.0099505544 0.0085911208            5 
 4324000   0.56075309   -8.9112062    516.76322 0.0099592048 0.0085879874            4 
 4325000   0.55493304   -8.9070511    515.85011 0.0099393084  0.008584852            4 
 4326000   0.55409323   -8.8961093    515.96254 0.0099391767 0.0085817206            4 
 4327000   0.56318979    -8.913517    517.26386 0.0099619417 0.0085785914            5 
 4328000   0.57430715   -8.9026339    516.76295 0.0099499952 0.0085754649            8 
 4329000   0.55802262   -8.8936021    517.10804 0.0099543398 0.0085723391            7 
 4330000   0.55959931   -8.9016972    517.42821 0.0099582026  0.008569215            8 
 4331000   0.56491183   -8.9047737    516.45092 0.0099370992 0.0085660939            6 
 4332000   0.55584176   -8.9000975    516.94424 0.0099442952 0.0085629728            5 
 4333000   0.56262445   -8.9101189    516.49495 0.0099333592 0.0085598559            3 
 4334000   0.56287939    -8.891611    516.45664 0.0099303307 0.0085567361            3 
 4335000   0.55925131   -8.9060911    515.55561 0.0099107191 0.0085536236            4 
 4336000   0.55071564   -8.8953556    516.66683   0.00992979  0.008550512            6 
 4337000   0.54039539   -8.9043491     516.4083 0.0099225329 0.0085474019            7 
 4338000   0.55940715   -8.9147331    516.65572 0.0099249984 0.0085442872            6 
 4339000   0.55280129   -8.9021454    516.06415 0.0099113496 0.0085411727            7 
 4340000   0.56290289   -8.9037862    517.25124 0.0099318594 0.0085380603            5 
 4341000   0.54768261   -8.8960781    516.67837 0.0099185743 0.0085349509            7 
 4342000   0.56010012   -8.9169035    516.96007 0.0099216965 0.0085318423            9 
 4343000    0.5631219   -8.9073163    515.69458 0.0098951298 0.0085287296            5 
 4344000   0.55353187   -8.9115703    516.27915  0.009904066 0.0085256205            5 
 4345000   0.55062217   -8.8973047    516.51192 0.0099062508 0.0085225132            5 
 4346000   0.55131349    -8.897292    516.20763 0.0098981368 0.0085194089            3 
 4347000   0.56362442    -8.912502    516.25747 0.0098968152 0.0085163031            9 
 4348000   0.55462245   -8.8941306      516.043 0.0098904285 0.0085132001            6 
 4349000   0.55992777   -8.9093385    516.58814    0.0098986  0.008510101            4 
 4350000   0.55531858   -8.9092701    516.35835 0.0098919225 0.0085069982            5 
 4351000   0.56035511   -8.9184866    516.57192 0.0098937394 0.0085038994            6 
 4352000   0.55792769   -8.9251825    515.83138  0.009877286 0.0085008044            8 
 4353000   0.55609973   -8.8982279    516.26894 0.0098833934 0.0084977098            5 
 4354000   0.55753441   -8.9196215    516.42483 0.0098841071 0.0084946148            5 
 4355000   0.55065871   -8.9032376    517.28927 0.0098983787 0.0084915251           11 
 4356000   0.55819146   -8.9172023    515.97134 0.0098708934 0.0084884318            5 
 4357000   0.56063583   -8.9234604    516.77069 0.0098839164 0.0084853417            3 
 4358000    0.5640452   -8.9030031    517.12466 0.0098884171 0.0084822542           10 
 4359000   0.55146511   -8.9085759    515.92806 0.0098632725 0.0084791692            4 
 4360000   0.56448844    -8.914834    516.52802 0.0098724774 0.0084760871            5 
 4361000   0.56444222   -8.9147705    516.54779 0.0098705914 0.0084730044            4 
 4362000   0.54623362   -8.9125929     516.0376 0.0098585817 0.0084699242           12 
 4363000   0.55788597   -8.9250922    517.37308 0.0098818297  0.008466842            4 
 4364000    0.5530226   -8.9007934     516.0721 0.0098547223 0.0084637637            4 
 4365000   0.55017874   -8.9362807    516.02258 0.0098515193 0.0084606881           13 
 4366000   0.54693158   -8.9150315    516.71748 0.0098625264 0.0084576147            7 
 4367000   0.55956166   -8.9009622    516.95691 0.0098648369 0.0084545396            4 
 4368000   0.56711489   -8.9099584    516.15756 0.0098473283 0.0084514679            5 
 4369000    0.5531204   -8.9231817    516.20249 0.0098459314 0.0084483974            8 
 4370000   0.54882606   -8.9160768    515.09998 0.0098226541 0.0084453226            5 
 4371000   0.55881565   -8.9152078    516.75078 0.0098518795 0.0084422538            3 
 4372000   0.54872878   -8.9127057    517.06463 0.0098556082 0.0084391847           10 
 4373000   0.56030427   -8.9209059    516.96185 0.0098513959 0.0084361172            6 
 4374000   0.54363916   -8.9112145    516.76957 0.0098454803 0.0084330521            5 
 4375000   0.55556813    -8.913129      516.381 0.0098358286 0.0084299876            5 
 4376000   0.55360313   -8.9138098    516.73817 0.0098403825 0.0084269246            6 
 4377000   0.55581949    -8.918825    516.70932 0.0098375851 0.0084238612            5 
 4378000   0.54411831   -8.9210545     516.1417 0.0098245337 0.0084208009            5 
 4379000     0.563975   -8.9186269    516.27085 0.0098247479  0.008417744            3 
 4380000   0.55466027   -8.9124628    516.28877 0.0098228457 0.0084146873            4 
 4381000   0.56463875   -8.9312163    516.84697 0.0098312214 0.0084116331            6 
 4382000   0.55338275   -8.9110506    515.85011 0.0098100204 0.0084085806            4 
 4383000   0.54953789   -8.9164443    517.43044 0.0098378287 0.0084055303            8 
 4384000   0.55614411    -8.917658    516.06694 0.0098096666 0.0084024809            5 
 4385000   0.53911069   -8.9090509    515.96346  0.009805463  0.008399432            5 
 4386000   0.54104018   -8.9146101    516.12624 0.0098063202 0.0083963846            9 
 4387000   0.54967998   -8.9121851    516.95204 0.0098197712 0.0083933373            3 
 4388000   0.54259021   -8.9098207    515.11504 0.0097826465 0.0083902916            4 
 4389000    0.5582994   -8.9202638    516.68541 0.0098102342 0.0083872453           13 
 4390000    0.5543495   -8.9072824    516.56167 0.0098056505 0.0083842031            4 
 4391000   0.55474916   -8.9090642    515.40533 0.0097814722 0.0083811617            8 
 4392000   0.55407458   -8.9087076    516.76387 0.0098050219 0.0083781203            5 
 4393000   0.54076312   -8.9325009    515.82318 0.0097849453 0.0083750777            5 
 4394000   0.56158286   -8.9314181    516.58903  0.009797243 0.0083720396            5 
 4395000   0.55030461   -8.9217672    515.52871 0.0097749091 0.0083690015           10 
 4396000   0.54568581   -8.9035007    516.79966 0.0097967785  0.008365967            4 
 4397000   0.55465838   -8.9150448    516.25265 0.0097841834 0.0083629358            3 
 4398000   0.54885405   -8.9470997     516.3474 0.0097837539 0.0083599024            6 
 4399000   0.54119219   -8.9204661    515.32617  0.009762184 0.0083568723            9 
 4400000   0.54916286   -8.9307124    515.71393 0.0097673092 0.0083538411            3 
 4401000   0.55290757   -8.9184615    515.69529  0.009764737  0.008350811            6 
 4402000   0.54579748   -8.9111803    515.98824 0.0097680645 0.0083477806            6 
 4403000   0.55109512   -8.9199829    516.26552 0.0097710939  0.008344753            6 
 4404000   0.54308895   -8.9155853    516.67476 0.0097766191 0.0083417318            6 
 4405000   0.54795905   -8.9528352    514.99456 0.0097426137 0.0083387069            5 
 4406000   0.53722366    -8.924883    516.18101 0.0097628426 0.0083356836            4 
 4407000   0.54892534   -8.9261826    515.32727 0.0097444836  0.008332663            3 
 4408000   0.53975624   -8.9142279     516.9841 0.0097735953 0.0083296443            4 
 4409000   0.55679219   -8.9189677    516.78143 0.0097675479 0.0083266292            4 
 4410000   0.54316448   -8.9280122    515.61339 0.0097432613 0.0083236159            2 
 4411000   0.54644164   -8.9253132    517.66372 0.0097797877 0.0083206041            5 
 4412000   0.56587769   -8.9229724     515.6246 0.0097390563 0.0083175928            4 
 4413000   0.54397937   -8.9411134    516.34973 0.0097505424 0.0083145836            4 
 4414000     0.540523   -8.9368466    516.14135 0.0097443995 0.0083115739            4 
 4415000   0.54523569   -8.9237541    516.64433 0.0097516862 0.0083085696            3 
 4416000    0.5368266   -8.9347502    517.09833 0.0097580451 0.0083055646            4 
 4417000   0.54118019   -8.9378183    516.02203   0.00973553 0.0083025621            4 
 4418000   0.54616318   -8.9479087    516.13977 0.0097355471 0.0082995609            3 
 4419000   0.54499873   -8.9328244    516.06906 0.0097320106 0.0082965591            3 
 4420000   0.54278383    -8.926975    516.42318 0.0097364853 0.0082935556            4 
 4421000   0.54805465   -8.9475921     515.8252 0.0097230114 0.0082905577            4 
 4422000   0.53215894   -8.9464761    515.78591 0.0097200722 0.0082875606            2 
 4423000   0.55044054   -8.9459307    515.49589 0.0097124103 0.0082845663            3 
 4424000   0.54759553   -8.9372063    515.78692 0.0097156969  0.008281571            3 
 4425000   0.55756716   -8.9428565    515.49966 0.0097080914 0.0082785756            2 
 4426000   0.54336767   -8.9339184    515.96421 0.0097146448 0.0082755826            4 
 4427000   0.54735687   -8.9364877      516.744 0.0097271289 0.0082725923            3 
 4428000   0.54003316    -8.939718    515.57162 0.0097028685 0.0082696058            6 
 4429000    0.5436771   -8.9367311    516.19147 0.0097123404  0.008266618            4 
 4430000   0.53462986   -8.9299413    515.65296 0.0097000182 0.0082636295            5 
 4431000   0.53592652   -8.9455688    515.80458 0.0097006804 0.0082606428            3 
 4432000   0.55051307   -8.9460155    514.93338 0.0096821108 0.0082576588            4 
 4433000   0.54878791   -8.9484245    516.68407 0.0097128369 0.0082546747            5 
 4434000   0.54640698   -8.9331687    516.08615  0.009699409 0.0082516892            3 
 4435000   0.54308967   -8.9414657    516.55486  0.009706029 0.0082487039            2 
 4436000   0.52622185   -8.9523333    515.83416 0.0096903021 0.0082457218            6 
 4437000   0.53784904   -8.9422347     515.9461 0.0096902205 0.0082427395            5 
 4438000    0.5470726    -8.944024    516.67539 0.0097017311 0.0082397612            5 
 4439000   0.54284478   -8.9448458    515.63773 0.0096800655 0.0082367813            4 
 4440000   0.53810595   -8.9399241    516.28221 0.0096899814 0.0082338071            4 
 4441000   0.53439096   -8.9453132    515.82692 0.0096792562 0.0082308301            4 
 4442000   0.53865591   -8.9643257    516.91951 0.0096975745 0.0082278565            3 
 4443000   0.54128042   -8.9448477     515.6244 0.0096711006 0.0082248781            3 
 4444000   0.53602778   -8.9308129    516.41431 0.0096837366  0.008221905            4 
 4445000   0.53884763   -8.9378083    515.75051 0.0096691134 0.0082189349            5 
 4446000   0.53857745   -8.9561744    516.20556 0.0096754678 0.0082159643            4 
 4447000   0.54799914   -8.9377282    515.79344 0.0096655694 0.0082129962            4 
 4448000    0.5460978   -8.9590455    516.38924 0.0096745586 0.0082100276            3 
 4449000   0.53072565   -8.9450057        515.9 0.0096632203 0.0082070613            4 
 4450000   0.53860664   -8.9460984    515.91012 0.0096612382 0.0082040993            6 
 4451000   0.52391348   -8.9474478    516.28521 0.0096660902 0.0082011347            5 
 4452000   0.54334897   -8.9354138    515.82835 0.0096553674 0.0081981738            5 
 4453000   0.54711803   -8.9237465    515.46649 0.0096464274  0.008195211            6 
 4454000   0.54531168   -8.9557791    514.20735 0.0096207034 0.0081922535            4 
 4455000   0.54054725   -8.9558853    515.31013  0.009639172 0.0081892951            4 
 4456000   0.53845251   -8.9521109    515.21096 0.0096351542 0.0081863413           11 
 4457000    0.5356709   -8.9580625    515.43602 0.0096372003 0.0081833837            7 
 4458000   0.53465545    -8.949845     515.7218 0.0096403807 0.0081804329            8 
 4459000   0.54755128   -8.9223064    516.48568 0.0096524946 0.0081774835            8 
 4460000   0.54631915   -8.9325797    515.25835 0.0096273981  0.008174535            7 
 4461000   0.53951505   -8.9578406    515.85952 0.0096364701  0.008171589            7 
 4462000   0.53081347   -8.9575479    515.59075 0.0096292908 0.0081686429            5 
 4463000   0.54006281   -8.9516843    516.18055  0.009638146 0.0081656979            5 
 4464000   0.53961187   -8.9556399    516.37146 0.0096395508 0.0081627546            3 
 4465000   0.53371374   -8.9483765    515.06667 0.0096130398 0.0081598085            4 
 4466000   0.53608916   -8.9493165    515.22714 0.0096138815 0.0081568655            3 
 4467000   0.53759257   -8.9475071    514.64125 0.0096007994 0.0081539227            5 
 4468000   0.52946683   -8.9459965    515.55174 0.0096156323 0.0081509794            7 
 4469000   0.52863209   -8.9491205    515.63815 0.0096150919 0.0081480395            8 
 4470000   0.53219182   -8.9409638    515.91601  0.009618121 0.0081451018            6 
 4471000    0.5351494   -8.9474896    515.20951 0.0096028015 0.0081421647            3 
 4472000   0.52725396   -8.9333099    516.11614 0.0096175488 0.0081392309            3 
 4473000   0.53614373    -8.945216    515.68931 0.0096074466 0.0081362961            4 
 4474000   0.51749896   -8.9324457     514.7912  0.009588571 0.0081333668            4 
 4475000   0.53476393   -8.9589236    515.03786 0.0095910215 0.0081304363            2 
 4476000   0.54445217   -8.9551467    515.59511 0.0095992536 0.0081275089            6 
 4477000   0.53538799   -8.9434667    515.60646 0.0095973207 0.0081245832           11 
 4478000   0.53514182   -8.9343385    516.24208 0.0096070061  0.008121657           10 
 4479000   0.54179073   -8.9488734    515.71046 0.0095949702 0.0081187336            4 
 4480000   0.53023329   -8.9362644    516.20787 0.0096020809 0.0081158085            6 
 4481000   0.54902485   -8.9758645    515.33136 0.0095836375 0.0081128858            7 
 4482000   0.53371785   -8.9336345    515.98014  0.009593562 0.0081099648            8 
 4483000    0.5294068   -8.9418617    515.33534  0.009579436 0.0081070451            4 
 4484000   0.52508216   -8.9379275     515.3715 0.0095779717  0.008104123            4 
 4485000   0.52165974   -8.9479616    514.49468 0.0095595445  0.008101205            8 
 4486000   0.54382521   -8.9572183    515.93053 0.0095840862 0.0080982884            6 
 4487000   0.54133909   -8.9562396    514.30421 0.0095517459 0.0080953737            3 
 4488000   0.52391441   -8.9588687    515.56255 0.0095729827  0.008092461            8 
 4489000   0.54681036   -8.9606793    515.39539  0.009567747 0.0080895491            6 
 4490000   0.54609658   -8.9591649    515.78933 0.0095729275 0.0080866363            4 
 4491000   0.53287312    -8.959874    515.62526 0.0095677514 0.0080837247            7 
 4492000   0.52975177   -8.9638392    515.27179  0.009559064 0.0080808168            6 
 4493000   0.53007457   -8.9581701    516.53859 0.0095804324 0.0080779084            3 
 4494000   0.52532149   -8.9735862     515.3085 0.0095554906 0.0080750017            5 
 4495000   0.53873351   -8.9762237    514.99789 0.0095476064  0.008072097            6 
 4496000   0.53795261   -8.9598727    514.83929 0.0095425433  0.008069195            5 
 4497000   0.52888801   -8.9626269    515.73363 0.0095569941 0.0080662931            5 
 4498000   0.53177736   -8.9562525    515.14637 0.0095439893  0.008063392            3 
 4499000   0.54380122   -8.9457515    514.95532 0.0095383293 0.0080604902            6 
 4500000   0.52285869   -8.9730609    515.17827 0.0095403384 0.0080575929            4 
 4501000   0.54121806   -8.9579908    515.86701 0.0095509703 0.0080546964            8 
 4502000   0.53410672   -8.9512035    515.44788 0.0095410906    0.0080518            5 
 4503000   0.53219965   -8.9419434    515.33146 0.0095368174 0.0080489065            4 
 4504000   0.52369124   -8.9356885    516.25771 0.0095518375 0.0080460152            2 
 4505000   0.51686534   -8.9492033    515.06729 0.0095276968 0.0080431242            6 
 4506000   0.52948984   -8.9582237    515.20092 0.0095280537 0.0080402371            4 
 4507000     0.535268   -8.9490343    515.14518  0.009524909 0.0080373444            4 
 4508000   0.53649225   -8.9645212    515.68307 0.0095327394 0.0080344548            3 
 4509000   0.52298884    -8.947348    516.10438 0.0095384117 0.0080315683            4 
 4510000   0.52030071   -8.9643098     514.7745 0.0095117239 0.0080286837            3 
 4511000   0.52652937   -8.9517074    515.73111 0.0095272872 0.0080257976            3 
 4512000   0.52229134    -8.967917    515.09701 0.0095134643 0.0080229143            3 
 4513000   0.52424579   -8.9651265    515.25023 0.0095141854 0.0080200303            9 
 4514000    0.5270981   -8.9270427    516.00428 0.0095259985 0.0080171499            4 
 4515000   0.53354449   -8.9630447    514.79193 0.0095015122  0.008014274            6 
 4516000   0.54063026   -8.9412386     515.8537 0.0095190009 0.0080113964            4 
 4517000   0.53814256   -8.9673017    514.71684 0.0094959199 0.0080085225            3 
 4518000     0.531757   -8.9650073    514.63645 0.0094923352 0.0080056453            3 
 4519000   0.53958989   -8.9586735    515.53099 0.0095067307 0.0080027714            3 
 4520000   0.52573515   -8.9549826    515.43952  0.009502941  0.007999903            6 
 4521000   0.53457365   -8.9619107    514.92165 0.0094912934 0.0079970315            4 
 4522000   0.52607088   -8.9705904    514.77976 0.0094865797 0.0079941625            3 
 4523000   0.53012696   -8.9695627    515.51505 0.0094980295  0.007991296            4 
 4524000   0.52066903    -8.949477    514.90742 0.0094847374 0.0079884284            3 
 4525000   0.52927912   -8.9610242    515.35262 0.0094908401 0.0079855644            6 
 4526000   0.52057758   -8.9653626    515.43878 0.0094903296 0.0079827035            6 
 4527000   0.51690447   -8.9615126    514.51356 0.0094712017 0.0079798401           10 
 4528000   0.52342911   -8.9672284    514.79067 0.0094742099 0.0079769762            7 
 4529000   0.52194349   -8.9727956    515.52552 0.0094856392 0.0079741182            5 
 4530000   0.52935634   -8.9713389    514.80069 0.0094702114 0.0079712608            6 
 4531000   0.51964604   -8.9561324    514.74719 0.0094671373 0.0079684057            5 
 4532000   0.52222881   -8.9595884    514.08527 0.0094528771 0.0079655511            6 
 4533000   0.52616476   -8.9576142    515.25415 0.0094722802 0.0079626975            9 
 4534000   0.52103558   -8.9471626    515.81154 0.0094804355 0.0079598462            5 
 4535000     0.534624   -8.9712957    515.31212  0.009469168 0.0079569928            6 
 4536000   0.53889393   -8.9763372    514.91533 0.0094597907 0.0079541456            5 
 4537000   0.53461094   -8.9555661    514.72633 0.0094542342 0.0079512969            5 
 4538000   0.52028157    -8.947486    515.14419 0.0094598243 0.0079484507            8 
 4539000   0.52600384    -8.957333     515.3985 0.0094624091  0.007945603            7 
 4540000   0.51979194   -8.9817595    515.15908 0.0094559303 0.0079427554            4 
 4541000   0.53089987   -8.9554672    515.64387 0.0094627444 0.0079399113            5 
 4542000    0.5153275   -8.9714818    514.92081 0.0094473948 0.0079370703            4 
 4543000   0.51165084   -8.9637742    514.54901 0.0094384953  0.007934229            2 
 4544000   0.53127038   -8.9773227    515.40553  0.009452126 0.0079313852            3 
 4545000   0.54508982   -8.9761958    514.61016 0.0094354631 0.0079285436            4 
 4546000   0.52385877    -8.971059    514.99864 0.0094405088 0.0079257067            3 
 4547000   0.51850654   -8.9746261    515.99238 0.0094566451 0.0079228709            4 
 4548000   0.52306243   -8.9558966     514.6852 0.0094306141 0.0079200357            7 
 4549000   0.52361187   -8.9725825    516.01683 0.0094529353 0.0079172048            4 
 4550000   0.52303078   -8.9557134    514.90342 0.0094304655 0.0079143705            7 
 4551000   0.52170558   -8.9768171     514.7915 0.0094263441 0.0079115415            3 
 4552000   0.53456039   -8.9566091    514.81863 0.0094247698 0.0079087109            8 
 4553000   0.51816801   -8.9694405    515.21711 0.0094299932 0.0079058824            4 
 4554000   0.52560786    -8.989367    514.79098 0.0094201249 0.0079030555            6 
 4555000   0.52473845   -8.9670301    514.97287 0.0094213844   0.00790023            5 
 4556000   0.52735138   -8.9776402    514.93671  0.009418655 0.0078974053            7 
 4557000   0.52432234   -8.9566348    514.96164 0.0094170441 0.0078945784            4 
 4558000   0.51405507   -8.9735344    514.41733 0.0094050264 0.0078917552            9 
 4559000   0.52218635   -8.9740006    515.28841 0.0094188859 0.0078889311            6 
 4560000   0.52053039   -8.9736634    515.16936 0.0094146448 0.0078861112            8 
 4561000   0.51948758   -8.9711984    515.36231  0.009416106 0.0078832922            6 
 4562000   0.53031995   -8.9857339    514.50774 0.0093984317 0.0078804761            6 
 4563000   0.52013846   -8.9729179    514.98463 0.0094050813 0.0078776602           10 
 4564000   0.51177753   -8.9905228    514.11334 0.0093871118 0.0078748433           11 
 4565000   0.53308308   -8.9593326    514.79451 0.0093974902 0.0078720279            4 
 4566000   0.52403237   -8.9729011    515.13072 0.0094015681 0.0078692167            5 
 4567000   0.52444343   -8.9499558    514.13951  0.009381423 0.0078664042            5 
 4568000   0.52724212   -8.9630584    515.14982 0.0093978003 0.0078635937            8 
 4569000   0.52847725   -8.9729069     515.6707 0.0094052437 0.0078607837            9 
 4570000   0.53058321   -8.9564933    514.86867 0.0093885607  0.007857975            6 
 4571000   0.52948811   -8.9706214    514.85014 0.0093861689 0.0078551693            8 
 4572000   0.53212916   -8.9789526    514.69917 0.0093813644 0.0078523639            4 
 4573000   0.53113829   -8.9797687    514.72306 0.0093797482 0.0078495585            5 
 4574000   0.52203019   -8.9650293    514.28446 0.0093697066 0.0078467568            5 
 4575000    0.5249295   -8.9800052    515.50817 0.0093899485 0.0078439538            5 
 4576000   0.53282638   -8.9587886    515.91576  0.009395319 0.0078411524            7 
 4577000     0.518406   -8.9786054     514.1377 0.0093608933 0.0078383503            3 
 4578000    0.5292486   -8.9755346     514.5088 0.0093656036 0.0078355512            5 
 4579000   0.50460105    -8.972522    515.65491 0.0093844163 0.0078327528            5 
 4580000   0.51260785   -8.9660642    514.27312 0.0093572256 0.0078299564            6 
 4581000   0.51506835    -8.966607    514.96371 0.0093677456 0.0078271618            4 
 4582000     0.507071   -8.9630062    514.37431 0.0093549816 0.0078243694            4 
 4583000   0.52467871   -8.9721909    514.69662  0.009358801 0.0078215801            9 
 4584000   0.51393902   -8.9610853    514.64987 0.0093559094 0.0078187893            4 
 4585000   0.50580065    -8.974082    515.45984 0.0093685903 0.0078160019            6 
 4586000   0.52437077   -8.9719697    514.55255 0.0093500608 0.0078132153            3 
 4587000     0.530883   -8.9614913    515.03401 0.0093567693 0.0078104302            4 
 4588000   0.52439303   -8.9649037    515.35027 0.0093604742 0.0078076447            3 
 4589000   0.52746601    -8.971043    515.55335 0.0093621223 0.0078048599            4 
 4590000   0.50886332   -8.9894733    514.48593 0.0093407032 0.0078020741            4 
 4591000   0.51154485    -8.973738    515.15586 0.0093508288  0.007799291            8 
 4592000   0.52320661   -8.9667537    514.48482 0.0093366147 0.0077965127            4 
 4593000    0.5171561   -8.9610972    515.53234 0.0093535877 0.0077937332            4 
 4594000   0.51905418   -8.9823571    514.46232  0.009332142  0.007790956            4 
 4595000   0.51864674   -8.9815152    514.74741 0.0093352812 0.0077881786            4 
 4596000   0.52709214   -8.9850485    514.28609 0.0093248855 0.0077854034            7 
 4597000   0.51893658   -8.9733466    514.88296 0.0093336771 0.0077826275            8 
 4598000   0.51001753   -8.9795734    514.90031 0.0093319615 0.0077798553            3 
 4599000   0.52360949   -8.9861841    515.16834 0.0093347891 0.0077770838           11 
 4600000   0.51975021    -8.984338    514.71373 0.0093245242 0.0077743135            6 
 4601000   0.51397087   -8.9896392    515.44347 0.0093357145 0.0077715429            5 
 4602000   0.51066148   -8.9795974    514.36511 0.0093141588 0.0077687768            7 
 4603000   0.51925729    -8.971108    514.61847 0.0093167223 0.0077660081            8 
 4604000   0.51357132   -8.9950751    514.70467 0.0093162588 0.0077632398            5 
 4605000   0.51134808   -8.9828366    514.58565  0.009312082 0.0077604746            6 
 4606000   0.50739947   -8.9864384    514.66546 0.0093115042 0.0077577127            9 
 4607000   0.50785138    -8.978675    514.33573 0.0093035187 0.0077549486            2 
 4608000   0.52576967   -8.9643678    513.91005 0.0092938015 0.0077521888            6 
 4609000   0.51444612   -8.9785407    513.95514 0.0092926004 0.0077494306            8 
 4610000   0.51454331   -8.9908361    514.77964 0.0093054888 0.0077466714            6 
 4611000   0.51040969   -8.9677318    514.54279 0.0092991902 0.0077439165            4 
 4612000   0.52010173   -8.9862576    514.32177 0.0092931802 0.0077411585            3 
 4613000   0.51259278   -8.9876981    514.76743 0.0092992165 0.0077384022            5 
 4614000   0.51658182   -8.9723777    514.80064 0.0092978008 0.0077356485            4 
 4615000   0.51603695   -8.9639243    515.07643 0.0093007662 0.0077328971            6 
 4616000   0.50977118   -8.9784229    514.25093 0.0092838483 0.0077301481            3 
 4617000   0.50305345   -8.9886869    514.74553 0.0092907647    0.0077274            5 
 4618000   0.51221909   -8.9895513    514.83631 0.0092903911 0.0077246495            7 
 4619000   0.49946925   -8.9827548    514.13411 0.0092757111 0.0077219029            3 
 4620000   0.51999215   -8.9898083    514.55153 0.0092812325 0.0077191556            3 
 4621000   0.52368263   -8.9733732    515.23284 0.0092915104 0.0077164144            5 
 4622000   0.52188745   -8.9816504    514.06182  0.009268387 0.0077136759           10 
 4623000   0.51889123   -8.9893981    514.41868 0.0092728149 0.0077109365            5 
 4624000   0.51855287   -8.9814843    515.25856 0.0092859458    0.0077082            7 
 4625000    0.4985026   -8.9843554    513.52196 0.0092526478 0.0077054623            8 
 4626000   0.51483673   -8.9876489    515.01869   0.00927761 0.0077027262            2 
 4627000   0.50424158   -8.9841882    514.64322 0.0092688427  0.007699988            4 
 4628000   0.52321724   -8.9860312    513.69498 0.0092497656 0.0076972568            6 
 4629000   0.51479255   -8.9834922    514.32626 0.0092591319 0.0076945253            5 
 4630000   0.51650614   -8.9916236     514.7317 0.0092644295 0.0076917936            6 
 4631000    0.5085678   -8.9955251    513.48247 0.0092399494 0.0076890604            4 
 4632000   0.51600243   -8.9886998    514.53445 0.0092568806 0.0076863276            5 
 4633000   0.50693486   -8.9812784    514.54073 0.0092549954 0.0076835973            5 
 4634000   0.51058575   -8.9753254    515.31793 0.0092669747 0.0076808706            4 
 4635000   0.51864607    -8.986417    514.49661 0.0092502088 0.0076781435            4 
 4636000   0.51448297   -8.9785854    514.29176 0.0092445312 0.0076754178            7 
 4637000   0.51488669   -9.0029864    513.91846 0.0092358288 0.0076726948            7 
 4638000   0.51494936   -8.9980796    514.75835 0.0092489282 0.0076699704            7 
 4639000    0.5199986   -8.9906822    514.24789 0.0092377649 0.0076672495            3 
 4640000    0.5171426   -8.9889262    514.99166 0.0092491319  0.007664527            7 
 4641000   0.50265675   -8.9779529    514.91689 0.0092457964 0.0076618067            5 
 4642000   0.50596859   -8.9945401    515.03149 0.0092458619 0.0076590901            4 
 4643000   0.50429439   -8.9832415    514.56425 0.0092354845 0.0076563722            6 
 4644000   0.51776038   -8.9848444    514.60766 0.0092342748 0.0076536587            6 
 4645000   0.50652667   -9.0077816     513.9673 0.0092207983 0.0076509459            5 
 4646000   0.50370838   -8.9922733    514.15617 0.0092222013 0.0076482341            5 
 4647000   0.51618206   -8.9731602    514.03563 0.0092180551  0.007645522            6 
 4648000   0.50392633   -9.0000045    513.55172 0.0092073959 0.0076428115            2 
 4649000   0.52154238   -9.0084605    514.61672 0.0092245057 0.0076401006            5 
 4650000   0.50626806   -8.9900213    513.58356 0.0092040064 0.0076373898            8 
 4651000   0.51384164   -8.9945248    514.65315 0.0092211917  0.007634683            7 
 4652000   0.51130843   -8.9806394    514.40413 0.0092147488 0.0076319787           11 
 4653000   0.50955089   -8.9814603    514.31521 0.0092111758 0.0076292736            6 
 4654000   0.51670995   -9.0106771    514.46585 0.0092118939 0.0076265682            4 
 4655000   0.50448492   -9.0020454    514.03572 0.0092022148  0.007623864            5 
 4656000    0.4992103   -8.9787895    514.87849 0.0092153223 0.0076211649            3 
 4657000   0.50621252   -8.9749769    514.37759 0.0092043803 0.0076184691            3 
 4658000   0.50348652   -8.9948713    513.37971 0.0091845519 0.0076157721            3 
 4659000   0.51734107   -9.0028277    514.66918 0.0092056447 0.0076130739            4 
 4660000   0.51560983   -8.9917625    514.18764  0.009195058 0.0076103803            5 
 4661000   0.50553504   -8.9855404     513.8379 0.0091868323  0.007607688            4 
 4662000   0.50025099    -8.990374    514.54813  0.009197557 0.0076049964            3 
 4663000   0.50527924   -9.0062787    514.11965 0.0091879271 0.0076023065            3 
 4664000   0.52267964   -9.0218473    514.12688 0.0091860864 0.0075996164            2 
 4665000   0.51122609   -8.9988514    513.61462 0.0091749665 0.0075969269            3 
 4666000   0.50484243   -8.9993532     515.0896 0.0091993428 0.0075942397            3 
 4667000   0.50768959   -8.9959495    513.16947  0.009163086 0.0075915547            8 
 4668000   0.49949841   -9.0047661    514.11864 0.0091780677 0.0075888689           10 
 4669000   0.51058086   -8.9901735    513.95492 0.0091731798 0.0075861867            3 
 4670000   0.50186239   -8.9964632    514.25006 0.0091764822 0.0075835046            6 
 4671000   0.51101571   -9.0084731    514.13995 0.0091725532 0.0075808272            7 
 4672000   0.50452503   -9.0085304    513.45814 0.0091584286 0.0075781471            8 
 4673000   0.51615683   -8.9880436     514.5487 0.0091759166 0.0075754699            5 
 4674000   0.50640074   -8.9928123    514.98964  0.009181815 0.0075727951            9 
 4675000   0.49971264   -8.9939956    513.63392 0.0091556848 0.0075701199            9 
 4676000   0.51034158   -8.9944306    514.50474 0.0091692461 0.0075674464            5 
 4677000   0.50053553   -8.9945741    514.48909 0.0091670069 0.0075647728            4 
 4678000   0.51399824   -9.0034089    513.55329  0.009148377 0.0075621005           10 
 4679000   0.49659009   -8.9967897    513.83476 0.0091514347 0.0075594282            7 
 4680000   0.50715861   -8.9927534    513.91372 0.0091508853 0.0075567589           10 
 4681000   0.49007105   -8.9711208    513.47086 0.0091410465 0.0075540885            7 
 4682000   0.51604785   -8.9895204    514.13348 0.0091508878 0.0075514221            4 
 4683000   0.50934222   -9.0064808    514.44537 0.0091544837 0.0075487531            6 
 4684000   0.49948557   -9.0012479    514.13256 0.0091469641 0.0075460868            5 
 4685000   0.49472144   -9.0001646    513.93994 0.0091415856 0.0075434208            9 
 4686000    0.5015087   -8.9861425    513.97741 0.0091403011 0.0075407533            5 
 4687000   0.50827875   -8.9987569    514.47139 0.0091471338 0.0075380929            5 
 4688000   0.50623874   -8.9939871    514.09463 0.0091384852 0.0075354291            3 
 4689000   0.51066082   -9.0002588    514.13817 0.0091373102 0.0075327691            7 
 4690000   0.49321391   -8.9944618    514.61347 0.0091438073  0.007530111            6 
 4691000   0.50839554   -8.9937273    514.96877 0.0091481697 0.0075274576            4 
 4692000   0.50473317   -9.0072632    514.22928  0.009133086 0.0075248003            8 
 4693000   0.49767177   -9.0054424    513.53685 0.0091188445 0.0075221435            5 
 4694000   0.51378058   -8.9935044    514.55004 0.0091348892 0.0075194891            4 
 4695000   0.50367847   -9.0086578     514.0058 0.0091232837 0.0075168353            5 
 4696000   0.49292631   -9.0041539    515.16054 0.0091418324 0.0075141831            7 
 4697000   0.50286169   -8.9999513    514.28794 0.0091244045 0.0075115339            3 
 4698000      0.49489    -9.016168    514.10495 0.0091192165 0.0075088848            7 
 4699000   0.49814484   -8.9848179    514.29779 0.0091206957 0.0075062352           11 
 4700000   0.49199153   -9.0012757    514.59738  0.009124067  0.007503591            5 
 4701000   0.50717819   -9.0080205    513.49593 0.0091026011 0.0075009476            8 
 4702000   0.50489929   -8.9949944    514.47685   0.00911805 0.0074983057            4 
 4703000   0.49955784   -9.0015525    514.60066 0.0091183049 0.0074956665            7 
 4704000   0.49402022   -8.9995973    514.79408  0.009119793 0.0074930273            9 
 4705000   0.48985907   -9.0085862    514.26507 0.0091084852 0.0074903899           12 
 4706000   0.50122106   -9.0066558    514.32793 0.0091076627   0.00748775            9 
 4707000   0.49003179   -9.0095507    514.00725 0.0091000505  0.007485114            5 
 4708000   0.49810282   -8.9988074    514.06433 0.0090991279 0.0074824789           11 
 4709000   0.49961327   -9.0161351    513.68285 0.0090904447 0.0074798454            5 
 4710000   0.50000384   -9.0073705    514.00713 0.0090942521 0.0074772114            4 
 4711000   0.50470297   -8.9939065    513.41481 0.0090818441  0.007474579           11 
 4712000    0.4936683   -9.0295499    513.99889 0.0090902464 0.0074719467            6 
 4713000    0.4978067   -9.0096242    514.49495 0.0090970886 0.0074693159            9 
 4714000     0.493653    -9.001351     514.3951 0.0090933938 0.0074666851            6 
 4715000   0.49330038   -8.9936013    514.22296 0.0090884228 0.0074640575            8 
 4716000   0.49922126   -9.0042692    514.56735 0.0090925811 0.0074614308            9 
 4717000   0.49640541    -8.999466     513.5625 0.0090729013 0.0074588039           10 
 4718000   0.49775288   -8.9963683    513.53327 0.0090704619 0.0074561773            5 
 4719000   0.48492667   -9.0036529    514.17502 0.0090798726 0.0074535554            6 
 4720000   0.50156205   -9.0054784    514.14369 0.0090773957 0.0074509339            5 
 4721000   0.49542611   -9.0222742    514.16569 0.0090758613  0.007448314            7 
 4722000   0.50075058   -9.0038196    514.00079 0.0090710291 0.0074456943            4 
 4723000   0.49233668   -9.0061809    513.75886 0.0090648398 0.0074430752           14 
 4724000   0.49208855   -9.0044695    514.26897 0.0090719194 0.0074404606           10 
 4725000   0.48633349   -9.0144343    514.00754 0.0090653887 0.0074378469            7 
 4726000   0.50781391   -9.0064273    514.56098 0.0090732292 0.0074352318            6 
 4727000   0.50182302    -9.016315    514.02271 0.0090618206 0.0074326196            4 
 4728000   0.49226737     -8.99372    514.29498 0.0090647029 0.0074300093            5 
 4729000   0.49041521   -9.0137857    514.07293  0.009058873  0.007427398            2 
 4730000   0.48385616   -9.0246685    513.84279 0.0090529033 0.0074247889            5 
 4731000   0.48049011   -8.9970532    513.36765 0.0090426204 0.0074221816            4 
 4732000   0.49411966   -9.0171955    513.58859 0.0090446005 0.0074195761            7 
 4733000   0.49649791   -9.0155567    514.13322 0.0090522787   0.00741697            8 
 4734000   0.49499997   -8.9979764    514.52251 0.0090572192 0.0074143656            7 
 4735000   0.48651241   -9.0079481     514.5792 0.0090563042 0.0074117606            9 
 4736000   0.48345578   -9.0117784     514.3643 0.0090506106 0.0074091602            5 
 4737000   0.49601368   -9.0116922    513.71841 0.0090373375 0.0074065573            5 
 4738000   0.49724959   -9.0127132    513.71224 0.0090353215 0.0074039576            6 
 4739000   0.49470616    -9.013417     513.4639  0.009029048 0.0074013616            4 
 4740000   0.48980709   -9.0240003    513.49846 0.0090277507 0.0073987648            3 
 4741000   0.47909383   -9.0078849    514.57104 0.0090446995 0.0073961681            5 
 4742000   0.50023907   -9.0196387    514.25394 0.0090372195 0.0073935714            3 
 4743000   0.47399098   -9.0165089    513.46104 0.0090213832 0.0073909791            4 
 4744000   0.49062997   -9.0251004    514.36622 0.0090353818 0.0073883862            4 
 4745000   0.49343701   -9.0065702     514.2701 0.0090317897  0.007385797            7 
 4746000   0.49636673    -9.011477    513.72113 0.0090202474 0.0073832064            8 
 4747000   0.48914794   -9.0226495    513.83101 0.0090202762 0.0073806182            3 
 4748000   0.48305369   -9.0128722    512.91764 0.0090023455 0.0073780307            3 
 4749000   0.48216734   -8.9988389    514.15894 0.0090222316 0.0073754439            4 
 4750000   0.48904872   -9.0232469    513.78405 0.0090137553 0.0073728565            9 
 4751000    0.4978804   -9.0105328    513.80059 0.0090121481 0.0073702721            5 
 4752000   0.49500849   -9.0125152    513.12096 0.0089983333  0.007367688            6 
 4753000   0.48528359   -9.0179305    513.64683 0.0090056602 0.0073651064            6 
 4754000   0.49368103   -9.0242974    514.18812 0.0090132541  0.007362523            8 
 4755000   0.50494161   -9.0115817    514.35347 0.0090142564 0.0073599456            4 
 4756000   0.48240685   -9.0169019    512.92047 0.0089872524 0.0073573677            3 
 4757000   0.49371239   -9.0143148    513.25042 0.0089911432 0.0073547889            3 
 4758000   0.48706566   -9.0213671    513.45131  0.008992772 0.0073522119            8 
 4759000   0.49379765   -9.0146607    514.14509 0.0090030309 0.0073496374            6 
 4760000   0.49588407   -9.0116704    513.45939  0.008989135 0.0073470646            6 
 4761000   0.49413708   -9.0215357    513.21138 0.0089829059 0.0073444918            7 
 4762000   0.49868366   -9.0182187    514.54057   0.00900428 0.0073419202            3 
 4763000   0.48712722   -9.0129188    513.78156 0.0089891097 0.0073393513            3 
 4764000   0.48922673   -9.0093097    513.50181 0.0089823295 0.0073367836            3 
 4765000   0.49194049   -9.0037379    513.61982 0.0089825083 0.0073342142            7 
 4766000   0.48262034   -9.0283468    513.48768  0.008978313 0.0073316464            5 
 4767000   0.49302395   -9.0282156    513.92325  0.008984044 0.0073290797            6 
 4768000   0.48111741   -9.0217433    513.74097 0.0089789739 0.0073265151            6 
 4769000    0.4937655   -9.0233494    513.47718 0.0089724817 0.0073239499            9 
 4770000   0.49878222   -9.0046122     514.4469  0.008987542 0.0073213871            3 
 4771000   0.49890296   -9.0213764    513.41802 0.0089676871 0.0073188243            7 
 4772000   0.48041706   -9.0131398    513.95796 0.0089752368 0.0073162636            4 
 4773000   0.48668465   -9.0143933    513.58261 0.0089668031 0.0073137064            5 
 4774000   0.49293126   -9.0449141    513.33618 0.0089606232  0.007311147            4 
 4775000   0.49803264   -9.0297735    513.58335 0.0089630602  0.007308591            8 
 4776000   0.48156621   -9.0213773    513.87416 0.0089662577 0.0073060369            3 
 4777000   0.49523339   -9.0413219    513.27156 0.0089538685  0.007303483            6 
 4778000   0.48172848   -9.0203869     513.4679 0.0089554189 0.0073009303            6 
 4779000   0.48746102   -9.0328991    513.88949 0.0089608965 0.0072983795            5 
 4780000   0.48498107   -9.0094307    514.21602 0.0089647144  0.007295827            3 
 4781000   0.48461482   -9.0213897    514.29195 0.0089641628 0.0072932734            2 
 4782000   0.47918467   -9.0351077    513.50317 0.0089485425 0.0072907226            8 
 4783000   0.48145283   -9.0201903    512.95508 0.0089371224 0.0072881723            6 
 4784000   0.48686353    -9.029306    513.38312 0.0089427105  0.007285626            5 
 4785000   0.48991668   -9.0156662    513.67391 0.0089459057 0.0072830785            4 
 4786000   0.49168312   -9.0234304    513.16483 0.0089351725 0.0072805308            4 
 4787000   0.47801704   -9.0210123    513.23944 0.0089346048  0.007277985            4 
 4788000   0.48067141   -9.0258797    512.96362 0.0089279382 0.0072754397            4 
 4789000   0.48399756    -9.035384    513.18017 0.0089298422 0.0072728966            6 
 4790000   0.47818072   -9.0309501    513.98092 0.0089419088 0.0072703556            6 
 4791000    0.4698868   -9.0172525    513.53511 0.0089322882 0.0072678175            3 
 4792000   0.48411513   -9.0304325    514.67694 0.0089502807 0.0072652805            5 
 4793000   0.48686964   -9.0169341    513.93217 0.0089354643 0.0072627455            3 
 4794000   0.48686576   -9.0302762     513.1991 0.0089208576 0.0072602114            4 
 4795000   0.48012951   -9.0385168    513.42547 0.0089229313 0.0072576782            3 
 4796000   0.48587439    -9.036926    513.95556 0.0089302815 0.0072551436            8 
 4797000   0.48490683   -9.0331913    513.93415 0.0089280479 0.0072526128            9 
 4798000   0.48587368   -9.0375429    514.18671 0.0089305737 0.0072500842            4 
 4799000   0.48151056   -9.0397761    512.92775 0.0089068512 0.0072475537            4 
 4800000   0.48661151    -9.028377    513.19037  0.008909555 0.0072450241           10 
 4801000   0.49169323   -9.0225025    513.73915 0.0089172248 0.0072424973           10 
 4802000   0.47419852   -9.0185299    513.36942 0.0089089515  0.007239971            6 
 4803000   0.47309401   -9.0398515    513.89226  0.008916168 0.0072374446            3 
 4804000   0.47175735   -9.0245984    513.45462 0.0089067204 0.0072349201            8 
 4805000   0.47861233   -9.0378146    513.71504 0.0089093833  0.007232398            7 
 4806000   0.47597333   -9.0334139    512.84325 0.0088924131 0.0072298755            7 
 4807000   0.47530386   -9.0303344    513.74147 0.0089061347 0.0072273526            9 
 4808000   0.48234672   -9.0296715    514.04765 0.0089095891 0.0072248323            6 
 4809000    0.4900298   -9.0333334    513.86279  0.008904533 0.0072223161            6 
 4810000   0.48608371   -9.0108529    513.70989 0.0089000328 0.0072197984            5 
 4811000   0.48582353   -9.0481162    513.14756 0.0088884424 0.0072172808            7 
 4812000   0.49111192   -9.0283965    513.14848 0.0088866112 0.0072147644            4 
 4813000   0.47966393   -9.0290848    513.59585 0.0088925108 0.0072122498            9 
 4814000    0.4743351   -9.0274053    513.07102 0.0088815784 0.0072097367            6 
 4815000   0.47796456   -9.0327088    513.71652 0.0088909054 0.0072072244            5 
 4816000   0.47960732   -9.0389665    514.69471 0.0089059854 0.0072047111            5 
 4817000   0.47588944    -9.041626    512.57675 0.0088674962 0.0072021983            7 
 4818000    0.4737141   -9.0286606     513.1593 0.0088757316 0.0071996868            5 
 4819000   0.48623235   -9.0312156    512.58928 0.0088640327 0.0071971778            6 
 4820000   0.48181032   -9.0452627    513.47703 0.0088775421 0.0071946693           10 
 4821000   0.49714269    -9.030719    513.48062 0.0088757627 0.0071921626            4 
 4822000    0.4768106    -9.017023    513.13367 0.0088679259 0.0071896559            7 
 4823000     0.475115   -9.0345138    514.00687 0.0088811748 0.0071871525            6 
 4824000   0.48543755   -9.0366121    513.30597 0.0088672258   0.00718465           11 
 4825000   0.48193478   -9.0351975     513.4708 0.0088682349 0.0071821523            7 
 4826000   0.48500649   -9.0223626    513.28939 0.0088632648  0.007179653            8 
 4827000   0.49025591   -9.0257111    513.98329 0.0088734081 0.0071771562            6 
 4828000   0.47956252   -9.0379903    512.54635  0.008846768 0.0071746582            6 
 4829000   0.47746287   -9.0227135    513.78504 0.0088663119 0.0071721628            6 
 4830000   0.47049682   -9.0292566     513.2123 0.0088545945 0.0071696681            6 
 4831000    0.4827899   -9.0490668     513.0688 0.0088502864 0.0071671744            7 
 4832000   0.48691503   -9.0251156    513.10168 0.0088490219 0.0071646794            6 
 4833000   0.47940287   -9.0452057    513.15584 0.0088481248 0.0071621877           11 
 4834000   0.47476748   -9.0484396    513.49776 0.0088521887 0.0071596962            6 
 4835000   0.46701974   -9.0233633    513.53718 0.0088510373 0.0071572068            5 
 4836000   0.46575606   -9.0369293    513.08975 0.0088414969 0.0071547182            5 
 4837000   0.48240144   -9.0371457    512.87458  0.008835962 0.0071522296            5 
 4838000   0.47444151   -9.0569343    512.98536 0.0088360439 0.0071497447            3 
 4839000   0.47918356    -9.038686    513.47849 0.0088427101 0.0071472585            8 
 4840000   0.48397785   -9.0293969    512.81418 0.0088294452 0.0071447732            6 
 4841000   0.48250568   -9.0409278    513.38436 0.0088374364 0.0071422914            5 
 4842000   0.47830749   -9.0444957    512.76534 0.0088249577 0.0071398086            6 
 4843000    0.4782343   -9.0369118    513.46658 0.0088352016 0.0071373281            5 
 4844000   0.47634972   -9.0230745    513.38155 0.0088319148 0.0071348476            5 
 4845000   0.47110011   -9.0502775     513.2665 0.0088281132 0.0071323687            3 
 4846000   0.48481956   -9.0455433    513.36107 0.0088279176 0.0071298909           10 
 4847000   0.47582344   -9.0495154    512.97375 0.0088194373 0.0071274115            8 
 4848000   0.47333138   -9.0437831    513.32591 0.0088236715 0.0071249353            6 
 4849000     0.473172   -9.0425978    513.17727 0.0088192972 0.0071224576            5 
 4850000   0.47396764   -9.0323805    513.00899 0.0088145875 0.0071199849            4 
 4851000   0.48540532   -9.0300153    513.31023 0.0088179452 0.0071175116            7 
 4852000   0.47119067   -9.0244392    513.95043 0.0088271233 0.0071150422            3 
 4853000   0.47800941   -9.0357395    512.92407 0.0088076803 0.0071125712            3 
 4854000   0.48063514   -9.0384122    513.75774 0.0088201782 0.0071101034            3 
 4855000   0.47812754    -9.046546    512.73645 0.0088008316 0.0071076346            6 
 4856000   0.47302343    -9.052319    512.98121 0.0088032195 0.0071051676            5 
 4857000   0.47575606   -9.0489351    513.43433 0.0088091814 0.0071027009            5 
 4858000   0.47503688   -9.0438891    514.02842  0.008817559 0.0071002353            2 
 4859000   0.48021974   -9.0325394    513.17569 0.0088011197 0.0070977722            4 
 4860000   0.48609584   -9.0213406    512.82738 0.0087933365 0.0070953117           10 
 4861000   0.46539532   -9.0494912    513.68808 0.0088062826 0.0070928513            6 
 4862000    0.4738687   -9.0521465    512.98735 0.0087924612 0.0070903902            3 
 4863000    0.4740085    -9.042226    513.22077  0.008794653 0.0070879309            5 
 4864000   0.47725821   -9.0399918    513.48474 0.0087973674 0.0070854735            9 
 4865000     0.479237   -9.0479938    512.99301 0.0087871361 0.0070830164           12 
 4866000   0.47656404   -9.0378097    512.58105 0.0087782753 0.0070805571            9 
 4867000   0.48123393   -9.0521688    512.82902 0.0087807174 0.0070781015            5 
 4868000   0.47317853   -9.0403854    512.88597 0.0087798885 0.0070756482            3 
 4869000   0.47482877   -9.0460088     513.1322 0.0087822995 0.0070731952            4 
 4870000   0.47155443   -9.0414634    513.71118 0.0087904035 0.0070707439            3 
 4871000   0.48034654   -9.0431659    512.63805 0.0087702397 0.0070682935            2 
 4872000   0.46664054   -9.0582443    513.40389 0.0087815388 0.0070658426            4 
 4873000   0.47343191   -9.0510793     512.9633 0.0087722023 0.0070633927            5 
 4874000   0.47506253   -9.0614838     513.0411 0.0087717327 0.0070609445            8 
 4875000   0.47588039   -9.0440556    512.15201 0.0087547351 0.0070584971            4 
 4876000   0.47742176   -9.0492224    512.99725 0.0087673853 0.0070560492            4 
 4877000   0.46728896   -9.0440089    513.56259 0.0087752476 0.0070536029            7 
 4878000   0.47167014    -9.033918    512.92625 0.0087625777 0.0070511568            6 
 4879000   0.47049648   -9.0612785    513.09671 0.0087636933 0.0070487131            9 
 4880000   0.46769187   -9.0537991    512.40735 0.0087501256 0.0070462715            9 
 4881000    0.4779256   -9.0478563    512.49255 0.0087497875 0.0070438322            5 
 4882000   0.46885706   -9.0616413    513.26117 0.0087611151 0.0070413943           10 
 4883000   0.46526233   -9.0363449    512.32681 0.0087433752 0.0070389584            3 
 4884000   0.46404086   -9.0583902    512.46181 0.0087438884 0.0070365204            3 
 4885000   0.45984351   -9.0475289    512.21284 0.0087378512 0.0070340823            6 
 4886000   0.46671278   -9.0393661    512.36673 0.0087386875 0.0070316476            4 
 4887000    0.4714232   -9.0567328     512.5364 0.0087397926 0.0070292148            6 
 4888000   0.46569781   -9.0564116    513.87981 0.0087609079 0.0070267834            4 
 4889000   0.47231158   -9.0637727    512.76003 0.0087400291 0.0070243506            6 
 4890000   0.47543851   -9.0483053    513.10043 0.0087440428 0.0070219179            6 
 4891000   0.47298949   -9.0396675    512.93853 0.0087394966 0.0070194893            4 
 4892000    0.4753864   -9.0643524    512.66692 0.0087330832  0.007017059           10 
 4893000   0.47114381   -9.0649991     512.8723 0.0087347963 0.0070146303            4 
 4894000   0.47050437   -9.0388129    513.00228 0.0087352248 0.0070122031            7 
 4895000   0.47341936   -9.0562691    512.33734 0.0087221203 0.0070097774            3 
 4896000   0.46574762   -9.0628298    512.20121 0.0087180216 0.0070073543            6 
 4897000   0.47520413   -9.0474875    513.35646 0.0087359006 0.0070049315            7 
 4898000   0.46727554    -9.056225      512.208 0.0087145775 0.0070025084            8 
 4899000    0.4538062   -9.0537215    512.71242 0.0087213789 0.0070000866            4 
 4900000   0.46992186   -9.0556227    512.76036 0.0087204143 0.0069976662            6 
 4901000   0.46778884   -9.0451973    512.74977 0.0087184549 0.0069952472           10 
 4902000   0.46515764   -9.0544312    512.74672 0.0087166244 0.0069928297            5 
 4903000    0.4722998   -9.0560707     513.1396 0.0087215242 0.0069904131            4 
 4904000   0.47145209   -9.0499942    513.42021 0.0087245142 0.0069879969            6 
 4905000   0.46539995   -9.0425119    513.68511  0.008727236 0.0069855824            5 
 4906000   0.46121862   -9.0476932    512.78483 0.0087101649 0.0069831709            2 
 4907000   0.46100128   -9.0466857    512.96508  0.008711451 0.0069807582            4 
 4908000   0.46390216   -9.0548742    513.16875 0.0087131342 0.0069783479            3 
 4909000   0.47359957   -9.0556439    513.00172 0.0087085239 0.0069759375            3 
 4910000   0.45622694    -9.036982    513.16551 0.0087095301 0.0069735296            3 
 4911000   0.46613767   -9.0558417    512.38838 0.0086945696 0.0069711206            4 
 4912000   0.44965598   -9.0651076     513.4945 0.0087115652 0.0069687144            3 
 4913000   0.45800022   -9.0535522    512.18916 0.0086876511 0.0069663085            4 
 4914000   0.47304317   -9.0480176     512.8295 0.0086967424 0.0069639037            3 
 4915000   0.46077206   -9.0565922      513.114 0.0086997966 0.0069615001            3 
 4916000   0.45438285    -9.055894    513.47483 0.0087041435 0.0069590972            4 
 4917000   0.46806327   -9.0499007    512.36506 0.0086835649 0.0069566957            5 
 4918000   0.46282472   -9.0531704    512.37345 0.0086819414 0.0069542943            6 
 4919000   0.46972127   -9.0447585    512.99643 0.0086907304 0.0069518961            5 
 4920000   0.45873965   -9.0563132    512.67763 0.0086835641 0.0069494987            5 
 4921000   0.46260075   -9.0519794    512.19345 0.0086736003 0.0069471028            6 
 4922000   0.45770294   -9.0553117    512.30019 0.0086736453 0.0069447057            3 
 4923000   0.45264934   -9.0555116    512.00399 0.0086668695 0.0069423094            5 
 4924000   0.46755763   -9.0537545    512.58858 0.0086750031 0.0069399145            5 
 4925000   0.47403601   -9.0537683     513.0385 0.0086808544 0.0069375222            4 
 4926000   0.47024827   -9.0660082    513.30649 0.0086836258 0.0069351302            5 
 4927000   0.46461667   -9.0591237    512.31811 0.0086651463 0.0069327391            4 
 4928000   0.46782338   -9.0511267     512.4448 0.0086655303 0.0069303491            5 
 4929000    0.4595075   -9.0609094    512.25123 0.0086604995 0.0069279586            4 
 4930000   0.46941622   -9.0544999    512.81433 0.0086682612 0.0069255711            6 
 4931000   0.46392966   -9.0580512    513.16459 0.0086724226 0.0069231852            9 
 4932000   0.46077061   -9.0433553    512.39281 0.0086576239 0.0069208011            6 
 4933000   0.46812396   -9.0606821    512.85074 0.0086636046 0.0069184171            9 
 4934000   0.45733651   -9.0640741    512.77057 0.0086604948 0.0069160352            5 
 4935000   0.45536728   -9.0651923    512.40235 0.0086525219 0.0069136548            4 
 4936000   0.45996444   -9.0657568    512.42398 0.0086511342 0.0069112732            5 
 4937000   0.46018959   -9.0677919    512.28864 0.0086470974 0.0069088927            3 
 4938000   0.46187901   -9.0684628    512.73477 0.0086528751 0.0069065156            3 
 4939000   0.45280353   -9.0597542     512.7778 0.0086518493 0.0069041369            6 
 4940000   0.46043051    -9.068516    512.85576 0.0086514129 0.0069017593            4 
 4941000   0.45958044   -9.0635883    513.23234 0.0086560134 0.0068993844            7 
 4942000   0.47028497   -9.0616218    512.56169 0.0086429532 0.0068970083            6 
 4943000   0.46936733   -9.0526775    512.92656 0.0086473558 0.0068946348            5 
 4944000    0.4762324   -9.0509214    512.86949 0.0086446448 0.0068922622            5 
 4945000   0.45701499   -9.0701619    512.51754 0.0086369656 0.0068898881            6 
 4946000   0.45896943   -9.0654388    512.94939 0.0086424955 0.0068875178            4 
 4947000   0.45623767   -9.0678429    512.51968 0.0086335099 0.0068851486            5 
 4948000   0.45155352   -9.0638299    512.38155 0.0086294386 0.0068827803            4 
 4949000   0.46875772   -9.0640533    512.54292 0.0086304122 0.0068804125            4 
 4950000    0.4560484   -9.0615977    513.03786 0.0086370011  0.006878046            4 
 4951000   0.45504034   -9.0712238    511.58497 0.0086108021  0.006875678            9 
 4952000   0.46692734   -9.0660463    512.69284 0.0086277067 0.0068733109            4 
 4953000   0.46042898   -9.0621422      512.594 0.0086243018 0.0068709472            3 
 4954000   0.46176297    -9.075689    513.02874 0.0086298738 0.0068685845            3 
 4955000   0.45659889   -9.0751136     512.0356 0.0086114295 0.0068662235            2 
 4956000   0.46155423   -9.0550359    512.72342 0.0086212574 0.0068638629            9 
 4957000   0.45445877   -9.0650263    512.53262 0.0086163106 0.0068615038            6 
 4958000   0.45571853   -9.0634879    512.16205 0.0086083442  0.006859146            7 
 4959000   0.45948957   -9.0681354    512.02731 0.0086043441  0.006856789            1 
 4960000   0.46236371   -9.0806426    511.84078 0.0085994755 0.0068544329            8 
 4961000   0.45483946   -9.0750925    512.83629 0.0086144643 0.0068520769            3 
 4962000   0.46789724   -9.0677323    512.88319 0.0086135159 0.0068497225            2 
 4963000   0.45603616   -9.0617884    512.51771 0.0086056437 0.0068473679            4 
 4964000   0.45015009   -9.0655162     512.5157 0.0086038762 0.0068450157            2 
 4965000   0.45562566   -9.0646188    512.03959 0.0085941523 0.0068426649            3 
 4966000   0.44642861   -9.0636099     512.1481 0.0085942425 0.0068403141            5 
 4967000   0.46458269   -9.0779417    511.71147 0.0085851867 0.0068379646            3 
 4968000   0.45427068   -9.0675402    512.60537 0.0085984529  0.006835616            5 
 4969000   0.44921904   -9.0872723     512.4767 0.0085945646 0.0068332685            5 
 4970000   0.45563408    -9.059216    512.21323 0.0085884177 0.0068309228            4 
 4971000   0.45402722   -9.0654859    511.85862 0.0085807452 0.0068285779            5 
 4972000   0.45456508   -9.0818972    512.72709 0.0085935754 0.0068262355            5 
 4973000   0.45863042   -9.0745585    511.57171 0.0085724867 0.0068238913            6 
 4974000    0.4496781   -9.0868824    512.20133 0.0085813117 0.0068215502           10 
 4975000   0.45621951    -9.090401    512.76231 0.0085889834 0.0068192093           10 
 4976000   0.45872024    -9.077735    511.91618 0.0085730871 0.0068168713            5 
 4977000   0.46938543   -9.0704246    512.08516  0.008574194 0.0068145324            9 
 4978000   0.46703475   -9.0684704    512.22804 0.0085748634 0.0068121936            4 
 4979000   0.45007952   -9.0814235    511.73911  0.008564958 0.0068098561            5 
 4980000   0.45650538   -9.0841992    511.47842 0.0085588759 0.0068075204            5 
 4981000   0.45580081   -9.0684145    512.11573 0.0085678199 0.0068051873            5 
 4982000   0.45609395   -9.0784213    513.23497 0.0085848216 0.0068028546            3 
 4983000   0.45725284   -9.0875496     511.9457 0.0085615376 0.0068005245            8 
 4984000   0.45117915   -9.0621106    512.26039 0.0085650813 0.0067981952            2 
 4985000   0.43668482   -9.0791872    512.99041 0.0085755669  0.006795866            5 
 4986000   0.45867784   -9.0744692     512.3436 0.0085630365  0.006793538            6 
 4987000   0.45003252    -9.077093    512.50486 0.0085640141 0.0067912098            4 
 4988000    0.4571293   -9.0790375    512.04377 0.0085545938 0.0067888827            3 
 4989000   0.46093001     -9.07291    511.88763 0.0085502711  0.006786557            6 
 4990000   0.45633355     -9.09013    512.26122 0.0085547966 0.0067842308            2 
 4991000   0.44622027   -9.0809395    512.00611  0.008548823  0.006781907            6 
 4992000   0.45580292   -9.0622623    511.83717 0.0085442904 0.0067795845            5 
 4993000   0.44327477   -9.0695803    512.25383 0.0085495332 0.0067772614            9 
 4994000   0.45205781   -9.0797496    512.11121 0.0085454413 0.0067749422           12 
 4995000    0.4511125   -9.0862828     512.4423 0.0085492543 0.0067726226            8 
 4996000   0.45126901   -9.0787775    512.52229 0.0085488773 0.0067703048            4 
 4997000   0.45739962   -9.0829132    512.58854 0.0085482713 0.0067679851            4 
 4998000   0.45400261   -9.0753114    512.10679 0.0085385286 0.0067656674            7 
 4999000    0.4540047    -9.082346      511.527 0.0085271555 0.0067633503            9 
 5000000   0.45534186   -9.0869594    511.91302 0.0085318836 0.0067610353            9 
 5001000    0.4506655    -9.065731    512.20059 0.0085349695 0.0067587215            5 
 5002000   0.44308059   -9.0855401    513.03771 0.0085472096 0.0067564087            2 
 5003000    0.4557319   -9.0761841    511.68828 0.0085230242 0.0067540978            9 
 5004000   0.45246159   -9.0878305    512.28874 0.0085313206 0.0067517891            6 
 5005000    0.4512422    -9.077275     512.0536 0.0085257009 0.0067494792            6 
 5006000   0.44391567   -9.0798992    511.79342 0.0085196668 0.0067471712            5 
 5007000   0.44356326   -9.0682248    511.36829 0.0085108896 0.0067448641            6 
 5008000   0.44953506    -9.090017    511.98739  0.008519492 0.0067425581            5 
 5009000   0.45882931   -9.0931236    511.60121 0.0085113664 0.0067402529            6 
 5010000   0.45088686   -9.0755387    512.65137 0.0085271353 0.0067379503            3 
 5011000   0.45564445   -9.0767898    512.42998 0.0085217517 0.0067356482            3 
 5012000   0.44907797   -9.0865558    513.04856 0.0085303364 0.0067333466            7 
Loop time of 12580.7 on 48 procs for 5000000 steps with 4000 atoms

Performance: 68676.841 tau/day, 397.435 timesteps/s
99.4% CPU use with 48 MPI tasks x no OpenMP threads

MPI task timing breakdown:
Section |  min time  |  avg time  |  max time  |%varavg| %total
---------------------------------------------------------------
Pair    | 869.8      | 931.23     | 997.24     |  99.0 |  7.40
Neigh   | 83.046     | 86.398     | 89.344     |  15.4 |  0.69
Comm    | 792.29     | 859.34     | 924.66     | 106.8 |  6.83
Output  | 13.737     | 13.743     | 13.834     |   0.4 |  0.11
Modify  | 10545      | 10575      | 10602      |  13.8 | 84.06
Other   |            | 114.6      |            |       |  0.91

Nlocal:        83.3333 ave          90 max          78 min
Histogram: 4 3 4 6 9 13 2 5 1 1
Nghost:        2223.29 ave        2240 max        2202 min
Histogram: 1 0 3 5 8 8 11 6 4 2
Neighs:        14915.5 ave       16198 max       13526 min
Histogram: 1 2 7 6 7 8 6 3 4 4
FullNghs:      29830.2 ave       32020 max       27483 min
Histogram: 2 2 3 5 9 13 5 3 4 2

Total # of neighbors = 1431848
Ave neighs/atom = 357.96200
Neighbor list builds = 266645
Dangerous builds = 1

#clear
#
#next RN
#
#jump SELF
Total wall time: 3:29:44
