
units lj                  # Use reduced LJ style units
atom_style atomic         # Uncharged point particles
atom_modify map hash      # Needed for indexing of clusters etc
                          # Used to be able to find where atoms are in relation to each other.

lattice fcc 1.0 spacing 1 1 1
Lattice spacing in x,y,z = 1.5874011 1.5874011 1.5874011
region box block 0 10 0 10 0 10 units lattice
create_box 2 box
Created orthogonal box = (0.0000000 0.0000000 0.0000000) to (15.874011 15.874011 15.874011)
  3 by 4 by 4 MPI processor grid
create_atoms 1 box
Created 4000 atoms
  using lattice units in orthogonal box = (0.0000000 0.0000000 0.0000000) to (15.874011 15.874011 15.874011)
  create_atoms CPU = 0.027 seconds
set type 1 type/fraction 2 0.58 78393
Setting atom values ...
  2338 settings made for type/fraction
mass 1 1.0
mass 2 1.0
pair_style lj/cut  3.5
pair_modify tail  yes
pair_coeff 1  1  1.0  1.0   # Intearaction between 1 and 1 set with epsilon = 1 and sigma = 1
pair_coeff 1  2  1.5  0.8
pair_coeff 2  2  0.5  0.88

write_data data.0
System init for write_data ...
Neighbor list info ...
  update every 1 steps, delay 10 steps, check yes
  max neighbors/atom: 2000, page size: 100000
  master list distance cutoff = 3.8
  ghost atom cutoff = 3.8
  binsize = 1.9, bins = 9 9 9
  1 neighbor lists, perpetual/occasional/extra = 1 0 0
  (1) pair lj/cut, perpetual
      attributes: half, newton on
      pair build: half/bin/atomonly/newton
      stencil: half/bin/3d
      bin: standard
WARNING: Not all mixed pair coeffs generated from mixing. Use write_data with 'pair ij' option to store all pair coeffs. (../write_data.cpp:312)


#############################
#   M E L T   S Y S T E M   #
#############################

velocity all create 2.4 5300450 mom yes dist gaussian # Assign velocities
                                                    # Temperature 2.4, random number seed, zero linear momentum
                                                                                # Gaussian distribution

timestep 0.002   # simulation timestep
thermo 1000       # output thermodynamic data every 1000 steps bf 100

# Define a fix  in this case with index 1 applied to all
# particles in the simulation. This fix is for simulations
# in the anisotropic NPT ensemble. Note that we use the MTK
# correction.
fix 1 all npt temp 2.4 2.4 0.1 iso 5.68 5.68 0.5 mtk yes tchain 5 pchain 5 # Use NPT ensemble
                                                                         # Set temperature and pressure and damping
                                                                         # Numbers of thermostats in chain and in barostat
run 10000          # run for 10000 steps
Per MPI rank memory allocation (min/avg/max) = 3.642 | 3.644 | 3.648 Mbytes
Step Temp E_pair E_mol TotEng Press Volume 
       0          2.4   -4.8268882            0   -1.2277882   -4.1002737         4000 
    1000    2.3749082   -4.5491588            0  -0.98768707    5.7153364    3620.5822 
    2000    2.3452123   -4.5441068            0   -1.0271678    5.8554179    3623.3296 
    3000    2.3839216   -4.5995866            0   -1.0245981    5.5239736    3611.4851 
    4000    2.3648127   -4.4965536            0  -0.95022139    5.7667724    3637.7389 
    5000    2.3931046   -4.5193676            0  -0.93060814    5.4900208    3672.8635 
    6000    2.4286537   -4.5538577            0  -0.91178788    5.8519433    3618.2275 
    7000    2.3693679   -4.5718274            0   -1.0186641    5.8547241    3604.4324 
    8000    2.4153349   -4.5766334            0  -0.95453674    5.7035204    3617.7396 
    9000    2.4254152   -4.5999226            0  -0.96270935     5.852746    3590.0738 
   10000     2.383217   -4.5805912            0   -1.0066594    5.2671972    3644.0255 
Loop time of 2.64533 on 48 procs for 10000 steps with 4000 atoms

Performance: 653227.303 tau/day, 3780.251 timesteps/s
99.6% CPU use with 48 MPI tasks x no OpenMP threads

MPI task timing breakdown:
Section |  min time  |  avg time  |  max time  |%varavg| %total
---------------------------------------------------------------
Pair    | 1.1726     | 1.2702     | 1.4481     |   3.8 | 48.02
Neigh   | 0.21484    | 0.22372    | 0.25732    |   1.4 |  8.46
Comm    | 0.70304    | 0.89516    | 1.002      |   5.5 | 33.84
Output  | 0.0002414  | 0.00024909 | 0.00032192 |   0.0 |  0.01
Modify  | 0.20221    | 0.24053    | 0.3063     |   5.7 |  9.09
Other   |            | 0.01543    |            |       |  0.58

Nlocal:        83.3333 ave          93 max          75 min
Histogram: 3 3 6 8 6 5 11 2 2 2
Nghost:        1749.35 ave        1784 max        1718 min
Histogram: 3 2 6 5 9 9 6 4 3 1
Neighs:        10484.8 ave       12348 max        9078 min
Histogram: 4 2 5 9 12 11 1 1 1 2

Total # of neighbors = 503269
Ave neighs/atom = 125.81725
Neighbor list builds = 904
Dangerous builds = 181

# Equilibrate just above the melting temperature to avoid step fn in T

fix 1 all npt temp 1.25 1.25 0.1 iso 5.68 5.68 0.5 mtk yes tchain 5 pchain 5
run 2000
Per MPI rank memory allocation (min/avg/max) = 3.644 | 3.646 | 3.650 Mbytes
Step Temp E_pair E_mol TotEng Press Volume 
   10000     2.383217   -4.5805912            0   -1.0066594    5.2671972    3644.0255 
   11000    1.2362068   -6.6202208            0   -4.7663741       5.8752    2783.9159 
   12000    1.2397796   -6.7322245            0   -4.8730201    6.1905189    2746.4615 
Loop time of 0.65332 on 48 procs for 2000 steps with 4000 atoms

Performance: 528990.448 tau/day, 3061.287 timesteps/s
99.6% CPU use with 48 MPI tasks x no OpenMP threads

MPI task timing breakdown:
Section |  min time  |  avg time  |  max time  |%varavg| %total
---------------------------------------------------------------
Pair    | 0.30502    | 0.32258    | 0.34694    |   1.9 | 49.38
Neigh   | 0.042657   | 0.044502   | 0.048839   |   0.6 |  6.81
Comm    | 0.20887    | 0.23796    | 0.26021    |   2.6 | 36.42
Output  | 5.0478e-05 | 5.1754e-05 | 6.9404e-05 |   0.0 |  0.01
Modify  | 0.040377   | 0.043502   | 0.046591   |   0.8 |  6.66
Other   |            | 0.004719   |            |       |  0.72

Nlocal:        83.3333 ave          91 max          75 min
Histogram: 1 4 3 10 5 5 11 1 5 3
Nghost:        2114.10 ave        2136 max        2092 min
Histogram: 1 0 8 5 9 13 5 4 1 2
Neighs:        13902.8 ave       15613 max       12118 min
Histogram: 2 1 7 4 6 15 3 4 5 1

Total # of neighbors = 667334
Ave neighs/atom = 166.83350
Neighbor list builds = 146
Dangerous builds = 8

#############################
# L I N E A R  Q U E N C H  #
#############################

# Define solid atoms. This closely follows ten Wolde  Ruiz-Montero and Frenkel  Faraday Discuss  1996  104  93-110
# Compute components of the per-atom q6 vector
compute q6 all orientorder/atom degrees 1 6 components 6 nnn NULL cutoff 1.3 # compute the Q6 parameter.
                                                                             # Use all neighbours within 1.3 unit cell.

# get number of connections
compute coord_number all coord/atom orientorder q6 0.5

# An atom is solid if it has 8 or more connections (of a possible 14)
variable is_solid atom c_coord_number>=8
group solid dynamic all var is_solid    # Must be dynamic to update
dynamic group solid defined

# do clustering
compute cluster solid cluster/atom 1.3 # Create a cluster where all atoms within are solid and max 1.3 units from another member

# define chunks one chunk per cluster
compute clus_chunks solid chunk/atom c_cluster nchunk every compress yes  # Says which atoms are in which chunk

# count the size of each chunk
compute size_chunks solid property/chunk clus_chunks count


# Find the maximum entry in the vector of chunk sizes
variable max_n equal max(c_size_chunks)


# Thermo style which includes this variable
# thermo_style custom step temp pe vol v_max_n

thermo ${N}  # Print the thermo information every 100 steps
thermo 1000  

# Reset the npt fix at a lower temperature (below freezing)
fix 1  all npt temp  ${temp} ${temp}  0.1  iso  5.68  5.68  0.5  mtk yes tchain  5  pchain  5
fix 1  all npt temp  0.45 ${temp}  0.1  iso  5.68  5.68  0.5  mtk yes tchain  5  pchain  5
fix 1  all npt temp  0.45 0.45  0.1  iso  5.68  5.68  0.5  mtk yes tchain  5  pchain  5

dump dmp2 all dcd ${N} traj.dcd
dump dmp2 all dcd 1000 traj.dcd


compute msd all msd com yes
variable twopoint equal c_msd[4]/6/(step*dt+1.0e-6)
fix 9 all vector 10 c_msd[4]
variable fit equal slope(f_9)/6/(10*dt)
thermo_style custom step temp pe c_msd[4] v_twopoint v_fit v_max_n

fix 1 all npt temp 1.25 ${temp} 0.1 iso 5.68 5.68 0.5 mtk yes tchain 5 pchain 5
fix 1 all npt temp 1.25 0.45 0.1 iso 5.68 5.68 0.5 mtk yes tchain 5 pchain 5
run 500000 # 5000000  # Run for this many steps
Neighbor list info ...
  update every 1 steps, delay 10 steps, check yes
  max neighbors/atom: 2000, page size: 100000
  master list distance cutoff = 3.8
  ghost atom cutoff = 3.8
  binsize = 1.9, bins = 8 8 8
  4 neighbor lists, perpetual/occasional/extra = 1 3 0
  (1) pair lj/cut, perpetual
      attributes: half, newton on
      pair build: half/bin/atomonly/newton
      stencil: half/bin/3d
      bin: standard
  (2) compute orientorder/atom, occasional
      attributes: full, newton on
      pair build: full/bin/atomonly
      stencil: full/bin/3d
      bin: standard
  (3) compute coord/atom, occasional
      attributes: full, newton on
      pair build: full/bin/atomonly
      stencil: full/bin/3d
      bin: standard
  (4) compute cluster/atom, occasional
      attributes: full, newton on
      pair build: full/bin/atomonly
      stencil: full/bin/3d
      bin: standard
Per MPI rank memory allocation (min/avg/max) = 9.846 | 9.851 | 9.854 Mbytes
Step Temp PotEng c_msd[4] v_twopoint v_fit v_max_n 
   12000    1.2397796   -6.7322245 1.5303902e-30 1.0627709e-32 8.3333333e+20            2 
   13000    1.2396641   -6.7148566   0.47876977 0.0030690368  0.039055797            2 
   14000    1.2382328   -6.7274383   0.92703859 0.0055180867  0.038067397            2 
   15000    1.2236766   -6.7803779    1.3437126 0.0074650696  0.036698312            6 
   16000    1.2495981   -6.7747756      1.76943 0.0092157811   0.03605756            2 
   17000    1.1997658   -6.7588251    2.2140361  0.010853118  0.035950493            2 
   18000    1.2211299   -6.7904746    2.5680604  0.011889168  0.035645814            2 
   19000    1.2310683   -6.8297278    2.9231757  0.012820946  0.034938586            3 
   20000    1.2279671   -6.8197763    3.3354619  0.013897758  0.034397696            3 
   21000    1.2690172    -6.833666    3.6702322  0.014564413  0.033912239            2 
   22000    1.2371625   -6.8230495    4.0399178  0.015302719  0.033332886            2 
   23000     1.218918   -6.7672057    4.4205397  0.016016448  0.032979643            2 
   24000    1.2051005   -6.7607123    4.8137931  0.016714559  0.032797386            2 
   25000    1.2224288   -6.8380212    5.2004589  0.017334863  0.032667156            2 
   26000    1.2456894   -6.7528504    5.6802097    0.0182058     0.032715            3 
   27000    1.1979764   -6.8068381    6.0563726  0.018692508  0.032734587            2 
   28000    1.2157411   -6.8774709    6.4377506  0.019159972  0.032728767            2 
   29000    1.2185682   -6.8161717    6.8129268  0.019577376    0.0327093            1 
   30000    1.2300715   -6.8858936     7.233344  0.020092622  0.032711191            2 
   31000    1.2082979   -6.8488645    7.6441219  0.020548714  0.032724113            2 
   32000    1.2240195   -6.8291643    8.0116301   0.02086362  0.032734899            3 
   33000    1.2323708   -6.8894945    8.2838494  0.020918811  0.032678956            3 
   34000    1.2055261   -6.8706404    8.6297032  0.021151233  0.032581589            2 
   35000    1.2311603   -6.8934484    9.0007287  0.021430306   0.03242297            3 
   36000    1.2006507   -6.7920534     9.453186  0.021882375  0.032329365            4 
   37000    1.2142124   -6.8640305    9.8862896  0.022266418  0.032307556            2 
   38000    1.2063837   -6.8729264    10.301373  0.022590731  0.032305573            3 
   39000    1.2131022   -6.9136149    10.682578  0.022826022  0.032322966            3 
   40000    1.1916095    -6.864183    11.104387  0.023134139  0.032336985            2 
   41000    1.2023179   -6.8950181    11.538567  0.023452373  0.032363161            5 
   42000    1.1952398   -6.8953382     11.86773  0.023547083  0.032425178            1 
   43000    1.1829508   -6.9384196    12.158439  0.023562865  0.032416853            2 
   44000    1.1941489   -6.8900447    12.507677  0.023688782  0.032368231            2 
   45000    1.1883842   -6.9022851    12.892904  0.023875748  0.032324047            2 
   46000    1.2173143   -6.9244808    13.188608  0.023892405  0.032261038            2 
   47000    1.1941352     -6.92515    13.476799  0.023895033  0.032186453            2 
   48000    1.1596953   -6.8994058    13.877218  0.024092392  0.032096571            3 
   49000    1.1615341   -6.9050681    14.250274   0.02423516  0.031993157            2 
   50000    1.1862574   -6.9361587    14.580215  0.024300359  0.031928342            3 
   51000    1.1786031   -6.9324809    14.843852   0.02425466  0.031838005            2 
   52000    1.1759653   -6.9211614    15.238275  0.024420312  0.031746977            1 
   53000    1.1926769   -6.9083778    15.670053  0.024638447  0.031677593            1 
   54000    1.1964977   -6.8961347     15.97794  0.024657314  0.031618253            7 
   55000    1.1756183   -6.9426811    16.226257  0.024585237  0.031532277            3 
   56000    1.1731113   -6.9397396    16.575471  0.024665879  0.031445773            5 
   57000    1.1692179   -6.9393893    17.007151  0.024864255  0.031376056            2 
   58000    1.1520437   -7.0028435    17.407434   0.02501068  0.031323397            2 
   59000    1.1750439   -6.9303312    17.879907  0.025254106  0.031281178            3 
   60000    1.1840978    -6.903774    18.377772  0.025524684  0.031263492            4 
   61000    1.1698352   -6.9729596    18.658639  0.025489944  0.031250221            5 
   62000    1.1915993   -6.9444846    19.002841  0.025541453  0.031229937            2 
   63000    1.1565761    -6.967522    19.431014  0.025702399  0.031216693            1 
   64000    1.1729196   -6.9155895     19.69606  0.025645911  0.031200074            2 
   65000    1.1675291   -6.9410999    20.010562  0.025654567  0.031165053            3 
   66000     1.177536   -6.9425887    20.376565  0.025727986  0.031127133            2 
   67000    1.1595862   -7.0173739    20.584325  0.025602394  0.031091701            6 
   68000    1.1657787   -6.9979694    21.000083  0.025735395  0.031033395            3 
   69000    1.1418271   -6.9650604    21.379513  0.025820668  0.030984777            2 
   70000    1.1438223   -6.9425365    21.602793   0.02571761  0.030943511            4 
   71000    1.1752416   -7.0266713    21.842082  0.025636246  0.030886433            3 
   72000    1.1625044   -7.0283505    22.108466  0.025588502  0.030824266            4 
   73000    1.1649868   -7.0218064    22.364918  0.025530728  0.030750078            5 
   74000     1.175299   -7.0116956    22.737529  0.025605325  0.030670305            3 
   75000    1.1487934   -7.0257514     22.94998  0.025499978  0.030590573            2 
   76000    1.1500607   -7.0167339    23.363919  0.025618332  0.030515433            3 
   77000    1.1413055   -7.0621012    23.496369   0.02542897  0.030430008            3 
   78000    1.1601321   -7.0217814    23.945951  0.025583281  0.030345028            3 
   79000    1.1624356   -7.0248839    24.334741  0.025669558  0.030270483            2 
   80000    1.1350438    -7.024605    24.465951  0.025485365  0.030195718            2 
   81000    1.1450186    -7.016156    24.725515  0.025437773  0.030113883            2 
   82000    1.1381258   -7.0692878    25.069214  0.025476843  0.030029122            2 
   83000    1.1451132   -7.0825816     25.24184  0.025343213  0.029939635            3 
   84000     1.145184   -7.0836159    25.534855  0.025332198  0.029848588            4 
   85000     1.121253   -7.0894601    25.791372  0.025285659   0.02975757            2 
   86000    1.1506736   -7.1067085    26.271546  0.025456925    0.0296735            3 
   87000    1.1362883   -7.0675099    26.568808   0.02544905  0.029598878            6 
   88000    1.1472425   -7.1084746    26.849969  0.025426106  0.029522399            6 
   89000     1.122717   -7.1024218     27.10954  0.025383465  0.029441648            4 
   90000    1.1419236   -7.0566309    27.314078  0.025290813  0.029367906            1 
   91000    1.1391178   -7.0594294    27.630264  0.025302439  0.029282058            4 
   92000    1.1217244   -7.0293069     27.88784  0.025260724  0.029198954            1 
   93000    1.1439533   -7.0609973     28.15066  0.025224605  0.029119012            4 
   94000    1.1121175   -7.0789358    28.596714  0.025351697  0.029039273            2 
   95000    1.1287392   -7.0625623    28.874072  0.025328133  0.028963752            2 
   96000    1.1254754   -7.1536086    28.973942  0.025150991  0.028884615            4 
   97000    1.1232984   -7.1542903    29.146204  0.025039694   0.02879783            5 
   98000    1.0956194   -7.1069466    29.561361  0.025137212  0.028719587            2 
   99000     1.117401   -7.1238792     29.82872   0.02510835   0.02863993            6 
  100000    1.0798111   -7.1460758    29.991519  0.024992932  0.028562765            1 
  101000     1.100577    -7.106332    30.411267  0.025091805  0.028489797            8 
  102000    1.1074628   -7.1089572    30.679083   0.02506461  0.028414817            4 
  103000    1.0768198   -7.1355561    31.022766  0.025099325  0.028344314            2 
  104000    1.1179062   -7.1666478    31.159942  0.024967902  0.028268332            3 
  105000    1.0860995   -7.2043665    31.254924  0.024805495  0.028187789            3 
  106000    1.0803751   -7.1680887    31.423932  0.024704349   0.02810101            2 
  107000     1.104361   -7.1786741    31.810457  0.024774499  0.028014602            3 
  108000    1.0872002   -7.1118496    32.123164  0.024786392  0.027933641            2 
  109000    1.0830779   -7.1359932    32.486629  0.024836872  0.027860949            3 
  110000    1.0812364   -7.1396826    32.738143  0.024801624  0.027790669            5 
  111000    1.1021843   -7.1786839    32.922412  0.024716526  0.027715573            3 
  112000    1.0848092     -7.19715    32.937111  0.024506779  0.027635068            3 
  113000    1.1021872   -7.2011562    33.205976  0.024488182  0.027554064            3 
  114000    1.0718333   -7.1750449    33.367045  0.024391115  0.027472799            3 
  115000    1.0893822   -7.1744467    33.531544   0.02429822   0.02738594            4 
  116000    1.1025728   -7.1509759    33.856978  0.024322542  0.027300392            2 
  117000    1.0893371   -7.1968487    34.239603  0.024387182  0.027219226            7 
  118000    1.0581505   -7.2428548    34.267852   0.02420046  0.027139142            4 
  119000    1.0827848   -7.2461269    34.726366  0.024318184  0.027060522            3 
  120000    1.0894876   -7.2169592    34.992922   0.02430064  0.026985184            3 
  121000    1.0954778   -7.2270145    35.163784  0.024217482  0.026909077            4 
  122000    1.0829084   -7.1617781    35.426105  0.024198159  0.026830461            8 
  123000    1.0835639   -7.2097846    35.442611  0.024012609  0.026749173            2 
  124000    1.0885067   -7.2369895    35.722177  0.024006839  0.026666721            3 
  125000    1.1027126   -7.2650616    35.773422  0.023848948  0.026582337            6 
  126000    1.0643377   -7.2418743    35.980685  0.023796749  0.026495135            7 
  127000    1.0776994   -7.2399137    36.187099  0.023744815   0.02640776            7 
  128000    1.0619573   -7.2435537    36.338747  0.023658038  0.026320557            4 
  129000    1.0785229   -7.2478965    36.562118  0.023618939  0.026234992            7 
  130000    1.0617634   -7.3074265    36.707353  0.023530354  0.026147437            3 
  131000    1.0551968   -7.2903781    36.869164  0.023453667  0.026059621            4 
  132000    1.0558996   -7.2752197    37.050859  0.023390694  0.025972561            5 
  133000    1.0541117   -7.2554209    37.297536  0.023369383  0.025885474            5 
  134000    1.0650513   -7.3136309    37.589308  0.023376435  0.025800893            6 
  135000    1.0409616    -7.272354    37.778872  0.023320291  0.025717117            6 
  136000    1.0519011   -7.2830815    37.898534  0.023222141  0.025629532            3 
  137000    1.0575683   -7.3062056    38.081824  0.023164126  0.025545522            5 
  138000    1.0452993   -7.3376762    38.298492  0.023127108  0.025460868            5 
  139000    1.0587827   -7.3431463    38.402048   0.02302281  0.025375643            9 
  140000    1.0361849   -7.3046465     38.63903  0.022999423  0.025290236            7 
  141000    1.0403009    -7.308673    38.879911  0.022978671  0.025205701            8 
  142000    1.0200088    -7.301404     39.02063  0.022899431  0.025124682            3 
  143000     1.077363   -7.2811319    39.246122    0.0228707   0.02504167            7 
  144000    1.0380091   -7.3492027    39.336312  0.022764069  0.024956982            4 
  145000    1.0566676   -7.3285562    39.506435  0.022704847  0.024872838            6 
  146000    1.0559499    -7.338316    39.824284  0.022730756  0.024791568            4 
  147000    1.0152955   -7.3418282     40.03594  0.022696111  0.024712229            3 
  148000    1.0306961   -7.3649678     40.19991  0.022635084  0.024633908            4 
  149000    1.0270851   -7.4154446    40.217693  0.022493117  0.024554471            4 
  150000    1.0271717   -7.3457505     40.63448  0.022574711  0.024477581            9 
  151000     1.026904    -7.382696    40.678433  0.022449466   0.02440202            2 
  152000    1.0374016   -7.3485053    41.106465  0.022536439  0.024325819            6 
  153000    1.0362756   -7.3530646     41.10736  0.022389629  0.024252342            2 
  154000    1.0282283   -7.3616513      41.4467  0.022427868  0.024178122            5 
  155000    1.0169329   -7.4043968    41.426152  0.022272124  0.024102419            3 
  156000     1.022833   -7.4058775    41.594308  0.022219182  0.024027321            3 
  157000    1.0331986   -7.3804915    41.776796   0.02217452  0.023952608            5 
  158000     1.028462   -7.3804767    41.927513  0.022113667   0.02387641            5 
  159000   0.98805373    -7.387401    42.131056  0.022081266  0.023801263            4 
  160000   0.99707721   -7.3918232    42.248462  0.022004407   0.02372547            5 
  161000   0.98819714   -7.3742093    42.552293  0.022024996  0.023649863            5 
  162000    1.0089962   -7.4127538    42.536649  0.021880992   0.02357461           35 
  163000    1.0037187   -7.4229263    42.728015  0.021844588  0.023500466            3 
  164000    1.0060334   -7.4018296    42.887585  0.021792472  0.023426988            5 
  165000   0.99577561    -7.414659    43.056022  0.021745465  0.023353947            3 
  166000   0.99045411   -7.4093564    43.203214  0.021688361  0.023280087            3 
  167000    1.0189966   -7.4112669    43.409583  0.021661469  0.023207009            2 
  168000   0.99508929   -7.4291692    43.436706  0.021545985  0.023133108            5 
  169000   0.99313126   -7.5025704    43.513105  0.021456166  0.023058951            3 
  170000   0.98773517   -7.4444459    43.697427  0.021420307  0.022984331            3 
  171000    1.0168874   -7.4609791    43.844972  0.021366945  0.022909203            3 
  172000   0.98889157   -7.4270844    44.011865  0.021323578  0.022835684            5 
  173000   0.99432906   -7.4243167    44.171459  0.021277196  0.022762517            7 
  174000   0.99293204   -7.4819371     44.21551   0.02117601  0.022689774            3 
  175000   0.97844446   -7.4524878    44.391362  0.021138744  0.022615971            6 
  176000     1.004523   -7.4977197    44.483708  0.021062362  0.022539617            5 
  177000    1.0013429   -7.4999453    44.598795   0.02099755  0.022465892            4 
  178000   0.98326311   -7.4620563    44.743623  0.020947389  0.022392706            4 
  179000    0.9802335   -7.4928878    44.867494  0.020888033  0.022318959            6 
  180000   0.98321783   -7.4906456    45.006741  0.020836454   0.02224629            4 
  181000    0.9819451   -7.4515976    45.395035  0.020900108  0.022173968            3 
  182000   0.95543626   -7.4981472    45.307848  0.020745352  0.022101743            3 
  183000   0.97780522   -7.4903872    45.361136  0.020656255  0.022028952            3 
  184000   0.99230197   -7.4906684    45.422634  0.020571845  0.021954925            4 
  185000   0.95998406   -7.4991005    45.630602  0.020554325  0.021881026            5 
  186000   0.96840452   -7.5140547    45.890899  0.020560439  0.021808106            4 
  187000   0.97601069   -7.5236602    45.824585  0.020420938  0.021735441            8 
  188000   0.97054721   -7.5383805     45.79874   0.02030086  0.021661757            7 
  189000   0.98267455   -7.5283087    46.076432  0.020315887  0.021588405            6 
  190000   0.96453016   -7.5485695    46.217912  0.020271014  0.021515541            2 
  191000   0.94512204    -7.556436    46.224448  0.020167735  0.021441779           11 
  192000   0.95598202   -7.5370661    46.506233  0.020184997  0.021368226           10 
  193000    0.9463895    -7.548228    46.521497  0.020087002  0.021296708            8 
  194000   0.96720627   -7.5782577    46.659255  0.020042635   0.02122456            8 
  195000    0.9544189   -7.5768402    46.680487  0.019948926  0.021152486            5 
  196000   0.93426062   -7.5997847    46.888469  0.019935573  0.021080838            6 
  197000   0.94666545   -7.5585149    47.066878  0.019909847  0.021009617            3 
  198000   0.94919201   -7.5952482    47.110495  0.019827649  0.020938378            4 
  199000   0.93566323   -7.5816593    47.164742  0.019750729   0.02086663           11 
  200000   0.94151697   -7.5989606    47.261102  0.019692126  0.020795051            4 
  201000   0.96550278   -7.6090292    47.444242  0.019670084  0.020724378            6 
  202000   0.96053737   -7.5762881    47.430315  0.019566961  0.020653973            4 
  203000   0.96868735    -7.633388    47.476213  0.019489414  0.020583236            8 
  204000   0.94748044   -7.6059799    47.421882  0.019371684  0.020511188            5 
  205000   0.92409403   -7.5759339    47.623602  0.019359188  0.020439687            7 
  206000   0.92674774   -7.6251604    47.611277  0.019260225  0.020367118            5 
  207000   0.95132928   -7.6737967    47.525558  0.019132672  0.020293014            5 
  208000   0.95449534   -7.6216415     47.83193  0.019163433  0.020218294            3 
  209000   0.92716331   -7.6700101    47.786442  0.019053605  0.020145601            8 
  210000   0.94440477   -7.6379527    47.980222  0.019039771  0.020073977            7 
  211000    0.9387202   -7.6470245    48.082173    0.0189898  0.020003202            6 
  212000   0.94708176   -7.6473175    48.279628  0.018977841  0.019932363            3 
  213000   0.93478248   -7.6624891    48.158535  0.018841367  0.019860999            5 
  214000   0.92442154   -7.6384809    48.324995  0.018818145  0.019789713            5 
  215000   0.93237764   -7.6924763    48.432222  0.018772179  0.019718822           15 
  216000   0.92957824   -7.6424663    48.640342  0.018765564  0.019649479            9 
  217000   0.90787998   -7.6694584    48.720141  0.018709732  0.019580689            5 
  218000   0.91950135   -7.6676164    48.805049  0.018656364  0.019512551            4 
  219000   0.91976503   -7.6805253    48.881993  0.018600454  0.019444764           10 
  220000    0.9185724   -7.7222574    49.085143  0.018592857   0.01937678            6 
  221000   0.91550794   -7.6718766    49.139594  0.018529259  0.019308769           10 
  222000   0.92040785   -7.7091585    49.205862  0.018470669  0.019241309            6 
  223000   0.92577852   -7.7355173     49.19264    0.0183829  0.019174168           10 
  224000   0.89959511    -7.658469    49.596041  0.018450908  0.019107995            4 
  225000   0.93561272   -7.7159826    49.494852  0.018331427  0.019042485           13 
  226000   0.91502972   -7.7363631    49.461258  0.018237927  0.018976227            6 
  227000   0.91331818   -7.7186673    49.635963  0.018221719  0.018910611            7 
  228000   0.90774902    -7.675187    49.764104  0.018188635  0.018845174           13 
  229000   0.89640632   -7.6855637    49.901671  0.018159269   0.01878037            4 
  230000   0.89833451    -7.726084    49.901378  0.018080209  0.018715997            7 
  231000   0.90470075   -7.7624825    49.840787  0.017980082  0.018651259            7 
  232000   0.90656244   -7.7334826    50.129436  0.018006263  0.018586978            7 
  233000   0.90614674   -7.7394095     50.05964   0.01790402   0.01852322            9 
  234000    0.9039485   -7.7564789    50.080555  0.017834956  0.018458932            7 
  235000   0.90688533   -7.8044398    49.965622  0.017718306   0.01839422           16 
  236000   0.91232708   -7.7928824    50.240979  0.017740459  0.018330092           18 
  237000   0.88007761   -7.7961139    50.393697  0.017719303  0.018266432           11 
  238000   0.90691938   -7.8211338    50.380912  0.017640375  0.018203094           18 
  239000    0.8889446    -7.826281    50.466339  0.017596353  0.018139838            8 
  240000   0.90058266   -7.8225025    50.512256  0.017538978  0.018075759            5 
  241000   0.87772578   -7.8054815    50.482701  0.017455982  0.018011466           12 
  242000    0.8933462   -7.8423686    50.290445  0.017317646  0.017947167            7 
  243000   0.87769876    -7.830662    50.366339  0.017272407  0.017882793            7 
  244000    0.8697605   -7.8495872    50.496835  0.017246187  0.017818307            7 
  245000   0.88060971   -7.8525467    50.654381  0.017229381   0.01775399           11 
  246000   0.87222022   -7.8150955    50.730458  0.017185114  0.017689519            5 
  247000   0.87084616   -7.8553684     50.67134  0.017095594  0.017624943           12 
  248000   0.86666644   -7.8467788    50.677811  0.017028834  0.017560273           11 
  249000   0.86870067   -7.8410745    50.807829  0.017003959  0.017496108            5 
  250000   0.88057616   -7.8632927    50.718366  0.016906122  0.017432113           17 
  251000   0.88419355   -7.8598579     50.73383  0.016843901  0.017367411            9 
  252000   0.87858775   -7.8775988    50.821959  0.016806203  0.017303089            5 
  253000   0.85099646   -7.8782001      50.7419  0.016713406  0.017239153           12 
  254000   0.86048179   -7.9063451     50.96572  0.016721037  0.017175186           10 
  255000   0.85697778   -7.8818863    51.113943  0.016703903  0.017112013            8 
  256000   0.86149834   -7.8930838    51.066588  0.016623238  0.017048928           11 
  257000   0.86290396   -7.8595941    50.986097  0.016532457  0.016986465           11 
  258000   0.87439036   -7.9118708    51.017359  0.016478475  0.016923228            5 
  259000   0.85204804   -7.9045024     51.05167  0.016425891  0.016859936            5 
  260000   0.85413349   -7.8940515     51.12329   0.01638567  0.016797052            8 
  261000   0.85330717   -7.9380108    51.118912  0.016321492  0.016734489            5 
  262000   0.84185351   -7.9182332    51.322665  0.016324003  0.016672134            9 
  263000   0.86234808    -7.932292    51.263706  0.016243253   0.01661014           20 
  264000   0.85355531   -7.9330138    51.265607  0.016182325  0.016548371           22 
  265000   0.84802297   -7.9218314    51.369127  0.016153813  0.016486594           10 
  266000   0.85112883   -7.9365164    51.385241  0.016098133  0.016425329            9 
  267000   0.84846678    -7.944358    51.435342  0.016053478  0.016364177           18 
  268000   0.84483675   -7.9344565    51.382978  0.015977294  0.016302921           10 
  269000   0.84115701   -7.9767023    51.261215  0.015880178  0.016241269            7 
  270000    0.8245218   -7.9888857    51.416516  0.015869295  0.016179653           14 
  271000   0.81998045   -7.9640254    51.461204  0.015824478  0.016118568            5 
  272000   0.84040733   -7.9717705    51.541214  0.015790813  0.016057941           11 
  273000   0.82427844   -7.9675993    51.632568  0.015760857  0.015998146           17 
  274000   0.83345964   -7.9523485    51.818851  0.015759991  0.015939028            9 
  275000   0.81770336    -7.955386    51.665305  0.015656153  0.015879686           16 
  276000   0.82947083   -7.9509858     51.80881  0.015642757  0.015820727           17 
  277000   0.82466135    -7.954529    51.840598  0.015595848  0.015761804            8 
  278000    0.8173574   -7.9721743    51.835197  0.015538129  0.015703246           15 
  279000   0.80158533   -7.9848637    51.898036  0.015501206  0.015645047           11 
  280000   0.82875293    -7.978468    51.789981  0.015413685  0.015586793           13 
  281000   0.80927118   -7.9944052    51.943999  0.015404508  0.015528861            6 
  282000   0.82840565    -8.006512    52.012772  0.015370204  0.015471685           12 
  283000    0.8226495   -7.9851165    51.980053  0.015306258  0.015414514           12 
  284000   0.82627572    -7.982471    52.063047  0.015276716  0.015357362           12 
  285000   0.80079972    -8.030123    51.971164  0.015196247  0.015300278            6 
  286000   0.81385362   -8.0215548    51.967193  0.015141956  0.015242838           19 
  287000   0.80264921   -8.0261759    51.894056  0.015067961  0.015185187           18 
  288000   0.80856636   -8.0719229    51.961426  0.015035135  0.015127562            6 
  289000   0.81968374   -8.0602361    52.013383  0.014998092  0.015070207           12 
  290000   0.82235555   -8.0404594    52.149646  0.014985531  0.015013441           12 
  291000   0.80064563   -8.0504595    52.123211  0.014926464  0.014956707           15 
  292000   0.80446485   -8.0776001     52.10609  0.014870459  0.014900354           10 
  293000   0.80114929   -8.0797411    52.087448  0.014814405  0.014844219            7 
  294000   0.79950835   -8.0906751    52.062034  0.014756812  0.014788214           20 
  295000   0.78545859   -8.0625414     52.26181  0.014763223  0.014732985           14 
  296000   0.78913507   -8.0757449    52.223349  0.014702519  0.014677522           14 
  297000   0.78010699   -8.0901883    52.095169  0.014617051   0.01462197           22 
  298000   0.80101285   -8.0963734    52.241586  0.014608944  0.014566733           19 
  299000   0.79595567    -8.082629    52.149496  0.014534419  0.014511905           19 
  300000   0.76846973   -8.1043851    52.290611   0.01452517  0.014457047           31 
  301000    0.7965778   -8.1034924    52.182777  0.014447059  0.014402742           33 
  302000   0.78232729   -8.1192121    52.363325  0.014449041    0.0143484           15 
  303000   0.78648187   -8.1173018    52.380269  0.014406015  0.014294405           31 
  304000   0.78777362   -8.1314304    52.279368  0.014330967  0.014240121           29 
  305000    0.7804964   -8.1582438     52.26384  0.014279738  0.014185933           22 
  306000   0.77477415   -8.1377473    52.138027  0.014198809   0.01413184           22 
  307000    0.7760054    -8.145955    52.290422  0.014193926  0.014077374           20 
  308000   0.76612779   -8.1380973    52.226015  0.014130415  0.014023339           20 
  309000   0.76702688    -8.174958     52.16895  0.014069296  0.013969582           29 
  310000    0.7731455   -8.1735883    52.137714  0.014015514  0.013916001           21 
  311000    0.7772017   -8.1392016    52.208813    0.0139895   0.01386256           31 
  312000   0.77674234   -8.1644631     52.33099  0.013977294  0.013809584           35 
  313000   0.76871931   -8.1442808    52.294557  0.013922938  0.013756961           23 
  314000   0.77287717   -8.1850297    52.345466  0.013892109     0.013704           59 
  315000   0.74222636   -8.1778677    52.252096  0.013823306  0.013651511           28 
  316000   0.76475363   -8.1455628    52.477479  0.013838998  0.013599183           86 
  317000   0.75763381   -8.1845987    52.332012  0.013757101  0.013547054           46 
  318000   0.75626765   -8.1911459    52.332918  0.013714077  0.013495159           95 
  319000   0.76872852   -8.2241056    52.322254    0.0136683  0.013443537           46 
  320000   0.74850531   -8.1803338    52.379621  0.013640526  0.013392004           45 
  321000   0.76460356   -8.1958292    52.373605  0.013596471  0.013340718           90 
  322000   0.76398126   -8.2135638    52.344972  0.013546835  0.013289657           45 
  323000   0.74966367   -8.2203173    52.440883   0.01352964  0.013238527           95 
  324000   0.74261934   -8.2332504    52.340198  0.013461985  0.013187725           73 
  325000   0.74337019   -8.2176726    52.356872  0.013424839  0.013137355           50 
  326000   0.75253509   -8.2182345    52.489972  0.013417682  0.013087269           87 
  327000   0.74076894   -8.2539534    52.384237  0.013349704  0.013037074          109 
  328000   0.75090923   -8.2608527    52.340098  0.013297789  0.012987003           67 
  329000   0.73590462   -8.2476174    52.369909  0.013264921  0.012937273           98 
  330000    0.7424255   -8.2248949    52.452296  0.013245529  0.012887502           82 
  331000   0.74635745   -8.2608197    52.369975  0.013184787  0.012838012          114 
  332000   0.72649246    -8.260018    52.359738  0.013142504   0.01278841           82 
  333000   0.75457237   -8.2630066    52.328542  0.013095231  0.012739017           95 
  334000   0.75353057    -8.266338    52.353924  0.013062356  0.012689965           98 
  335000   0.72587681   -8.2606981    52.428306  0.013041867  0.012640841          105 
  336000   0.72432795   -8.2712676    52.285042   0.01296752  0.012592039          125 
  337000   0.72705649   -8.2729083    52.294185  0.012931302  0.012543133          127 
  338000   0.72819831   -8.2770939    52.248958  0.012881893  0.012494168          130 
  339000   0.73267273   -8.2902984    52.302307  0.012857008  0.012445576          153 
  340000   0.71757416   -8.2964113    52.227067  0.012800752   0.01239732          163 
  341000   0.73275759   -8.3186603    52.261577  0.012771646   0.01234936          178 
  342000    0.7097586   -8.3134509    52.359686  0.012758208  0.012301745          164 
  343000   0.71757495   -8.2933662    52.361742  0.012721512  0.012254239          180 
  344000   0.71297625   -8.3367768    52.398386  0.012693407  0.012207006          145 
  345000   0.70842652   -8.3389402    52.377245  0.012651508  0.012159835          189 
  346000   0.72492999   -8.3453264     52.38762  0.012617442  0.012112973          191 
  347000   0.71008878    -8.358186    52.313928  0.012563383  0.012066244          383 
  348000   0.71071122   -8.3407315    52.295358  0.012522835  0.012019617          210 
  349000    0.7172843   -8.3598168    52.257506  0.012477914  0.011973087          199 
  350000   0.71323408   -8.3396588    52.268276  0.012444828  0.011926809          160 
  351000   0.69773384   -8.3584021    52.352666  0.012429408  0.011880825          190 
  352000     0.697695   -8.3662832    52.372643  0.012398826  0.011834802          190 
  353000   0.69057299   -8.3575588    52.324187  0.012352263  0.011788816          195 
  354000   0.69373845   -8.3524474    52.334632  0.012319829  0.011742993          169 
  355000   0.70635096   -8.3799399    52.246351  0.012264402   0.01169732          185 
  356000   0.70919989   -8.4034316     52.38069  0.012261397  0.011651886          304 
  357000   0.70285017   -8.3890036     52.29288  0.012206555  0.011606515          185 
  358000   0.70069493   -8.3980436    52.056742  0.012117491  0.011561377          159 
  359000   0.68640541   -8.3829745     52.15385  0.012106279  0.011516341          156 
  360000   0.71645393   -8.4014969    52.215036  0.012086814  0.011471586          179 
  361000   0.67474783   -8.4122893    52.252707  0.012062028  0.011426893          177 
  362000   0.69358137   -8.3979272    52.213822  0.012019757  0.011382239          200 
  363000   0.67612345   -8.3840208    52.154689  0.011973069   0.01133785          174 
  364000   0.68985966   -8.3963068    52.087658   0.01192483  0.011293819          160 
  365000   0.69482137   -8.4136227    52.084906  0.011891531  0.011249895          176 
  366000   0.67907403   -8.3769012    52.241947  0.011894797  0.011206192          206 
  367000   0.68948559   -8.4262818    52.157945  0.011843312  0.011162522          198 
  368000   0.67833495   -8.4150503    52.244484  0.011830726  0.011118934          218 
  369000   0.66742159   -8.4371273    52.190916  0.011786566  0.011075692          192 
  370000   0.68262725   -8.4436747    52.057606  0.011724686  0.011032628          198 
  371000   0.69300654   -8.4736185    52.076643  0.011697359  0.010989623          209 
  372000   0.66870976    -8.442944    52.069826  0.011664388  0.010946844          448 
  373000   0.68210236   -8.4247077    52.078958  0.011635156  0.010904236          222 
  374000   0.66192966   -8.4651022    52.018027  0.011590469  0.010861735          224 
  375000   0.69904993   -8.4523479    52.077091  0.011572687  0.010819528          446 
  376000   0.67206379   -8.4705417    52.186756  0.011566214   0.01077747          204 
  377000   0.67467795   -8.4739016    52.094559  0.011515155  0.010735701          218 
  378000   0.67657209   -8.4564249    51.973743  0.011458056   0.01069399          193 
  379000   0.66014993   -8.4745685    52.017776  0.011437506  0.010652452          239 
  380000   0.65595648   -8.4618987    52.053812   0.01141531  0.010611152          231 
  381000   0.65092193   -8.4662646    52.017339  0.011377371  0.010570018          212 
  382000   0.65685012   -8.4917208    51.993262  0.011342335  0.010528889          242 
  383000   0.65057415   -8.4762859    52.000758  0.011314351  0.010487972          250 
  384000   0.65908841    -8.472866    51.965326  0.011277197  0.010447311          253 
  385000   0.66741775   -8.4678395    51.970496  0.011249025   0.01040672          215 
  386000   0.64728976   -8.4737119     52.08794  0.011245238  0.010366412          206 
  387000   0.64661512   -8.5208498    51.943465   0.01118507  0.010326261          226 
  388000   0.64559253   -8.4763806    51.962011  0.011160226  0.010286249          246 
  389000   0.65837035   -8.5122057    52.034139  0.011146988  0.010246418          259 
  390000   0.64001604   -8.5164098    51.938741  0.011098022  0.010206883          228 
  391000   0.64922503   -8.5210761     52.05192   0.01109376  0.010167585          254 
  392000   0.61760382   -8.5128841    52.074734  0.011070309  0.010128469          224 
  393000   0.63073333   -8.5167956    52.006168  0.011027601  0.010089603          277 
  394000   0.62106178   -8.5040574    52.034631  0.011005633  0.010050908          229 
  395000   0.63836802   -8.4813742     52.07771  0.010986859  0.010012606          250 
  396000   0.64677298   -8.5098267    52.092202  0.010962164 0.0099744333          236 
  397000   0.63095628   -8.4969652    52.056695  0.010927098 0.0099364539          238 
  398000   0.63245725   -8.5135084    52.077692  0.010904039 0.0098986205          278 
  399000   0.63737155   -8.5380325    51.959597  0.010852046 0.0098608347          247 
  400000   0.62223714   -8.5536661    52.023419  0.010838212 0.0098232034          251 
  401000   0.63064811    -8.516864    51.976878  0.010801512 0.0097857224          235 
  402000   0.62865595     -8.52366    51.988048  0.010776958 0.0097484336          247 
  403000   0.64560112   -8.5522548    51.894405  0.010730853 0.0097112359          232 
  404000   0.62059247   -8.5416163    51.958529  0.010717518 0.0096743389          238 
  405000   0.62183583    -8.537142    51.933564  0.010685919 0.0096376492          233 
  406000   0.61042245   -8.5361873    51.865539  0.010645636 0.0096009185          239 
  407000   0.62338258   -8.5265257    51.914744  0.010629554 0.0095643725          245 
  408000   0.61057591   -8.5660589     51.85967  0.010592253 0.0095279802          279 
  409000   0.60550609   -8.5463843    51.947905  0.010584333 0.0094917961          278 
  410000   0.60965443   -8.5548949    51.879618  0.010544638 0.0094557753          257 
  411000   0.60707811   -8.5693436    51.862469  0.010515505 0.0094199264          259 
  412000   0.60100827   -8.5407647    51.880178  0.010493564 0.0093841736          247 
  413000   0.61881953   -8.5564855    51.829046  0.010457838 0.0093485591          261 
  414000   0.58792079   -8.5860672    51.779614  0.010422628 0.0093130116          260 
  415000   0.61401234    -8.596306    51.764646  0.010394507 0.0092776801          508 
  416000   0.60332006   -8.5648847    51.863549  0.010389333 0.0092425673          301 
  417000   0.59435403    -8.585807    51.795749  0.010350869 0.0092076137          300 
  418000   0.59300375   -8.5729068    51.725606  0.010312122 0.0091727953          297 
  419000   0.59721166   -8.5849586    51.801964  0.010302698 0.0091381314          511 
  420000   0.59863689   -8.5884164    51.725397  0.010262976 0.0091036218          327 
  421000   0.60728814   -8.5793019    51.724052  0.010238332  0.009069413          290 
  422000   0.60528262   -8.6067164    51.837632  0.010236499 0.0090352852          307 
  423000   0.59271608   -8.5978248    51.844832  0.010213718 0.0090012349          278 
  424000    0.5990641   -8.6004783    51.892199  0.010198938 0.0089673959          246 
  425000   0.60131559   -8.6007489    51.741719  0.010145435 0.0089337495          292 
  426000   0.58517013   -8.6334278    51.791934  0.010131443 0.0089001954          331 
  427000    0.5921831   -8.5986743    51.818711  0.010112941 0.0088668288          263 
  428000   0.58783251    -8.606352     51.80273  0.010086201 0.0088335929          332 
  429000   0.58197182   -8.6151876    51.832526  0.010068478 0.0088004815          497 
  430000   0.58741902   -8.6159313    51.681352  0.010015766  0.008767457          549 
  431000   0.59489318   -8.6147165    51.706967 0.0099974801  0.008734638          573 
  432000   0.58739384   -8.6118659    51.763377 0.0099852194 0.0087019595          552 
  433000   0.56959189   -8.6195892    51.701042 0.0099501621 0.0086694054          539 
  434000   0.57254117   -8.6525867    51.603414 0.0099084896 0.0086370079          313 
  435000   0.57932845   -8.6439266    51.625914 0.0098900219 0.0086047564          310 
  436000   0.58166145   -8.6523023    51.674861 0.0098766937 0.0085726526          322 
  437000   0.56854277   -8.6493099    51.774518 0.0098730964 0.0085407755          299 
  438000   0.56762455   -8.6470705    51.730354 0.0098421526 0.0085089771          334 
  439000   0.57150407    -8.658755    51.734778  0.009820573 0.0084773473          565 
  440000   0.56058763   -8.6450758    51.668208 0.0097856455 0.0084459556          548 
  441000   0.57588153   -8.6568106    51.646155 0.0097592886 0.0084145801          340 
  442000   0.55629504   -8.6461841    51.633791 0.0097348776 0.0083833941          551 
  443000   0.56825405   -8.6720491    51.528858 0.0096931636 0.0083522883          316 
  444000   0.56399082   -8.6646131    51.611905  0.009686919 0.0083213209          602 
  445000   0.55618712   -8.6611666    51.704974 0.0096825794 0.0082905174          549 
  446000   0.56768553   -8.6642769    51.612624 0.0096436143 0.0082598332          259 
  447000   0.55395482   -8.6606252    51.626829 0.0096246884  0.008229359          321 
  448000   0.54001929   -8.6957311    51.607196 0.0095995529 0.0081989795          566 
  449000   0.55566545   -8.6765437    51.643174 0.0095848505  0.008168697          269 
  450000   0.55235119   -8.6733926    51.613317 0.0095580216 0.0081385837          304 
  451000   0.55145744   -8.6900956     51.57169 0.0095291371 0.0081086226          515 
  452000    0.5552505   -8.6953781    51.554763 0.0095049342 0.0080787896          550 
  453000   0.55133602   -8.6886999    51.510423 0.0094757952 0.0080491056          516 
  454000   0.54254242   -8.6658399    51.517546 0.0094562309 0.0080195379          498 
  455000   0.54202285   -8.6778755    51.568722 0.0094448209 0.0079901719          249 
  456000   0.53144853   -8.6843589    51.532262 0.0094174455 0.0079609026          554 
  457000   0.54305973    -8.683823    51.553699 0.0094007475 0.0079318672          286 
  458000   0.53816882   -8.6776883    51.651223 0.0093979663 0.0079029076          265 
  459000   0.52644219   -8.6845349    51.648061 0.0093769173 0.0078740876          490 
  460000   0.53374766   -8.7035978    51.539577 0.0093368799 0.0078453957          526 
  461000   0.53510763   -8.6965643    51.509768 0.0093112379 0.0078167978          493 
  462000   0.52903759   -8.7011111    51.505794 0.0092903668 0.0077883471          264 
  463000   0.54139015   -8.6990502    51.479383 0.0092655476 0.0077600337          562 
  464000   0.52048957   -8.7147613    51.546603 0.0092576514  0.007731875          275 
  465000   0.52136111   -8.7124798    51.571879 0.0092422723 0.0077038749          288 
  466000   0.52145092   -8.7162071    51.555989 0.0092195974 0.0076760027          535 
  467000   0.52826233   -8.6951397    51.559471 0.0092004766 0.0076482296          531 
  468000   0.51019773   -8.7407879    51.495164 0.0091693668  0.007620661          593 
  469000   0.51988587   -8.7189988    51.446539 0.0091411761  0.007593202          276 
  470000   0.52333672    -8.725105     51.45781 0.0091237252 0.0075657837          288 
  471000   0.51185492   -8.7380714    51.449046 0.0091028035 0.0075385788          490 
  472000   0.50201523   -8.7279394    51.390129  0.009073116 0.0075114365          275 
  473000   0.50723111   -8.7355648    51.528601   0.00907833 0.0074844691          546 
  474000   0.51089329   -8.7437661    51.463297 0.0090476964 0.0074576235          530 
  475000   0.49823998   -8.7267519    51.458399 0.0090277893 0.0074309132          546 
  476000   0.50551824   -8.7524957    51.471001 0.0090110296 0.0074043243          311 
  477000   0.50378406   -8.7581569    51.490163 0.0089954863 0.0073778438          505 
  478000   0.50165857   -8.7485075    51.394443 0.0089599796 0.0073514965          291 
  479000   0.50376793   -8.7473779    51.370757 0.0089371533 0.0073252543          568 
  480000     0.499388   -8.7532682     51.36919 0.0089182622 0.0072990897          342 
  481000   0.49796992   -8.7641783    51.408844 0.0089065911 0.0072731288          309 
  482000   0.48709383   -8.7713505    51.392494  0.008885286  0.007247304          321 
  483000   0.48755615   -8.7619649    51.420508 0.0088717233 0.0072215419          294 
  484000   0.49477188   -8.7702727    51.446821 0.0088579237  0.007195884          522 
  485000   0.49421587   -8.7756647    51.417585 0.0088346366 0.0071703422          578 
  486000   0.49911229   -8.7741328    51.424288 0.0088176076   0.00714499          546 
  487000   0.49225009   -8.7546967    51.479861 0.0088090111 0.0071197539          316 
  488000   0.49340361    -8.785524    51.425292 0.0087816414 0.0070945968          308 
  489000   0.48810287   -8.7829102    51.384561 0.0087567418  0.007069574          307 
  490000   0.50333806   -8.7646642    51.399789 0.0087414606 0.0070446952          293 
  491000   0.48358931   -8.7857954    51.439811 0.0087304499 0.0070198775          344 
  492000   0.48742109   -8.8049112    51.443125 0.0087132664 0.0069952283          305 
  493000   0.48636656   -8.7758274    51.433157 0.0086939076  0.006970632          290 
  494000   0.48429731   -8.7966144    51.404759  0.008671518 0.0069461504          340 
  495000   0.47304082   -8.7839969     51.38277  0.008650298 0.0069218071          322 
  496000   0.46704799   -8.8125146    51.348063 0.0086270267 0.0068975729          314 
  497000   0.48022641   -8.7982106    51.320357  0.008605023 0.0068734277          318 
  498000   0.47356456    -8.799067    51.390338 0.0085994541 0.0068493667          560 
  499000   0.46750678   -8.7970126    51.378103 0.0085801775 0.0068254711          348 
  500000   0.48244344    -8.806884    51.252891 0.0085421485 0.0068016335          271 
  501000    0.4633184   -8.8174804    51.338537 0.0085393441 0.0067779167          305 
  502000   0.47649061   -8.8300994    51.352842 0.0085247082 0.0067542712          298 
  503000   0.46076032   -8.8232832    51.297039 0.0084985153 0.0067307561          334 
  504000   0.45522215     -8.81523    51.278105 0.0084785226 0.0067073455          257 
  505000   0.46310064   -8.8309385    51.330903  0.008470446 0.0066840593          563 
  506000   0.45985369   -8.8027259    51.339294  0.008455088 0.0066608933          547 
  507000   0.44904909   -8.8328726    51.238185 0.0084217924 0.0066377901          288 
  508000   0.44641749   -8.8282946     51.27802 0.0084117488 0.0066147771          627 
  509000   0.45168675   -8.8488324    51.252936 0.0083911159 0.0065918619          515 
  510000   0.44433045   -8.8422198    51.244913 0.0083733519 0.0065690652          336 
  511000   0.45374025      -8.8401    51.200026 0.0083496455 0.0065463679          527 
  512000   0.45064762   -8.8465419    51.167846 0.0083280999 0.0065237472          332 
Loop time of 1324.1 on 48 procs for 500000 steps with 4000 atoms

Performance: 65251.888 tau/day, 377.615 timesteps/s
99.4% CPU use with 48 MPI tasks x no OpenMP threads

MPI task timing breakdown:
Section |  min time  |  avg time  |  max time  |%varavg| %total
---------------------------------------------------------------
Pair    | 93.057     | 101.59     | 113.54     |  43.0 |  7.67
Neigh   | 9.0407     | 9.3878     | 9.8027     |   6.2 |  0.71
Comm    | 81.784     | 94.346     | 103.43     |  47.3 |  7.13
Output  | 1.2212     | 1.222      | 1.2396     |   0.2 |  0.09
Modify  | 1099.9     | 1104.6     | 1109.2     |   6.9 | 83.42
Other   |            | 13         |            |       |  0.98

Nlocal:        83.3333 ave          90 max          78 min
Histogram: 5 3 4 7 7 11 5 3 1 2
Nghost:        2402.62 ave        2424 max        2381 min
Histogram: 2 0 3 10 12 6 7 5 2 1
Neighs:        16572.5 ave       19480 max       14471 min
Histogram: 5 4 9 6 5 5 9 3 1 1
FullNghs:      33143.7 ave       35714 max       30939 min
Histogram: 5 1 6 6 10 6 7 4 1 2

Total # of neighbors = 1590897
Ave neighs/atom = 397.72425
Neighbor list builds = 26629
Dangerous builds = 0

#clear
#
#next RN
#
#jump SELF
Total wall time: 0:22:07
