
units lj                  # Use reduced LJ style units
atom_style atomic         # Uncharged point particles
atom_modify map hash      # Needed for indexing of clusters etc
                          # Used to be able to find where atoms are in relation to each other.

lattice fcc 1.0 spacing 1 1 1
Lattice spacing in x,y,z = 1.5874011 1.5874011 1.5874011
region box block 0 10 0 10 0 10 units lattice
create_box 2 box
Created orthogonal box = (0.0000000 0.0000000 0.0000000) to (15.874011 15.874011 15.874011)
  3 by 4 by 4 MPI processor grid
create_atoms 1 box
Created 4000 atoms
  using lattice units in orthogonal box = (0.0000000 0.0000000 0.0000000) to (15.874011 15.874011 15.874011)
  create_atoms CPU = 0.002 seconds
set type 1 type/fraction 2 0.07 78393
Setting atom values ...
  309 settings made for type/fraction
mass 1 1.0
mass 2 1.0
pair_style lj/cut  3.5
pair_modify tail  yes
pair_coeff 1  1  1.0  1.0   # Intearaction between 1 and 1 set with epsilon = 1 and sigma = 1
pair_coeff 1  2  1.5  0.8
pair_coeff 2  2  0.5  0.88

write_data data.0
System init for write_data ...
Neighbor list info ...
  update every 1 steps, delay 10 steps, check yes
  max neighbors/atom: 2000, page size: 100000
  master list distance cutoff = 3.8
  ghost atom cutoff = 3.8
  binsize = 1.9, bins = 9 9 9
  1 neighbor lists, perpetual/occasional/extra = 1 0 0
  (1) pair lj/cut, perpetual
      attributes: half, newton on
      pair build: half/bin/atomonly/newton
      stencil: half/bin/3d
      bin: standard
WARNING: Not all mixed pair coeffs generated from mixing. Use write_data with 'pair ij' option to store all pair coeffs. (../write_data.cpp:312)


#############################
#   M E L T   S Y S T E M   #
#############################

velocity all create 2.4 9580093 mom yes dist gaussian # Assign velocities
                                                    # Temperature 2.4, random number seed, zero linear momentum
                                                                                # Gaussian distribution

timestep 0.002   # simulation timestep
thermo 1000       # output thermodynamic data every 1000 steps bf 100

# Define a fix  in this case with index 1 applied to all
# particles in the simulation. This fix is for simulations
# in the anisotropic NPT ensemble. Note that we use the MTK
# correction.
fix 1 all npt temp 2.4 2.4 0.1 iso 5.68 5.68 0.5 mtk yes tchain 5 pchain 5 # Use NPT ensemble
                                                                         # Set temperature and pressure and damping
                                                                         # Numbers of thermostats in chain and in barostat
run 10000          # run for 10000 steps
Per MPI rank memory allocation (min/avg/max) = 3.642 | 3.644 | 3.648 Mbytes
Step Temp E_pair E_mol TotEng Press Volume 
       0          2.4   -7.8774228            0   -4.2783228   -2.8368304         4000 
    1000    2.4116978   -4.5428861            0   -0.9262438    5.6068157    4952.7319 
    2000    2.4108596   -4.5522314            0  -0.93684615     5.768428    4925.4594 
    3000    2.3964219   -4.5521117            0  -0.95837751     5.766423    4918.3016 
    4000    2.3616381    -4.588969            0   -1.0473975    5.7779042    4904.8291 
    5000    2.3960343   -4.5742477            0  -0.98109474    5.7753549    4912.5909 
    6000    2.4001765   -4.5586183            0   -0.9592537    6.1179852    4871.6182 
    7000    2.3620536   -4.5216505            0  -0.97945593     6.127536    4891.7266 
    8000    2.3833031   -4.4593406            0  -0.88527977    5.7445862    4986.8118 
    9000     2.435852   -4.5290813            0  -0.87621677    5.6676218    4955.4672 
   10000    2.4120823   -4.5034075            0  -0.88618861    5.4588963     5001.896 
Loop time of 2.13268 on 48 procs for 10000 steps with 4000 atoms

Performance: 810248.103 tau/day, 4688.936 timesteps/s
99.6% CPU use with 48 MPI tasks x no OpenMP threads

MPI task timing breakdown:
Section |  min time  |  avg time  |  max time  |%varavg| %total
---------------------------------------------------------------
Pair    | 0.8618     | 0.93984    | 1.0281     |   3.2 | 44.07
Neigh   | 0.18698    | 0.19552    | 0.21434    |   1.1 |  9.17
Comm    | 0.64314    | 0.74919    | 0.8314     |   4.3 | 35.13
Output  | 0.00023869 | 0.00024224 | 0.00030611 |   0.0 |  0.01
Modify  | 0.19487    | 0.23357    | 0.27173    |   4.2 | 10.95
Other   |            | 0.01431    |            |       |  0.67

Nlocal:        83.3333 ave          91 max          73 min
Histogram: 1 1 4 7 3 6 10 10 3 3
Nghost:        1413.50 ave        1437 max        1392 min
Histogram: 6 4 2 3 8 7 8 6 3 1
Neighs:        7614.52 ave        8588 max        6343 min
Histogram: 1 2 0 7 8 10 8 2 7 3

Total # of neighbors = 365497
Ave neighs/atom = 91.374250
Neighbor list builds = 903
Dangerous builds = 190

# Equilibrate just above the melting temperature to avoid step fn in T

fix 1 all npt temp 1.25 1.25 0.1 iso 5.68 5.68 0.5 mtk yes tchain 5 pchain 5
run 2000
Per MPI rank memory allocation (min/avg/max) = 3.643 | 3.645 | 3.648 Mbytes
Step Temp E_pair E_mol TotEng Press Volume 
   10000    2.4120823   -4.5034075            0  -0.88618861    5.4588963     5001.896 
   11000    1.2655961   -6.0995997            0   -4.2016801    5.6246378    4086.9342 
   12000    1.2619088   -6.0981851            0   -4.2057951    5.7213962    4080.1692 
Loop time of 0.467864 on 48 procs for 2000 steps with 4000 atoms

Performance: 738676.736 tau/day, 4274.750 timesteps/s
99.6% CPU use with 48 MPI tasks x no OpenMP threads

MPI task timing breakdown:
Section |  min time  |  avg time  |  max time  |%varavg| %total
---------------------------------------------------------------
Pair    | 0.19606    | 0.21753    | 0.25757    |   2.0 | 46.49
Neigh   | 0.030307   | 0.03224    | 0.037117   |   0.6 |  6.89
Comm    | 0.12359    | 0.16328    | 0.18739    |   2.9 | 34.90
Output  | 4.9058e-05 | 5.0249e-05 | 6.3588e-05 |   0.0 |  0.01
Modify  | 0.042752   | 0.050356   | 0.065774   |   3.1 | 10.76
Other   |            | 0.004409   |            |       |  0.94

Nlocal:        83.3333 ave          89 max          73 min
Histogram: 1 0 0 2 3 12 14 6 5 5
Nghost:        1625.69 ave        1650 max        1610 min
Histogram: 5 7 5 9 5 8 3 3 1 2
Neighs:        9346.73 ave       10399 max        8269 min
Histogram: 1 1 3 13 7 8 8 3 1 3

Total # of neighbors = 448643
Ave neighs/atom = 112.16075
Neighbor list builds = 141
Dangerous builds = 16

#############################
# L I N E A R  Q U E N C H  #
#############################

# Define solid atoms. This closely follows ten Wolde  Ruiz-Montero and Frenkel  Faraday Discuss  1996  104  93-110
# Compute components of the per-atom q6 vector
compute q6 all orientorder/atom degrees 1 6 components 6 nnn NULL cutoff 1.3 # compute the Q6 parameter.
                                                                             # Use all neighbours within 1.3 unit cell.

# get number of connections
compute coord_number all coord/atom orientorder q6 0.5

# An atom is solid if it has 8 or more connections (of a possible 14)
variable is_solid atom c_coord_number>=8
group solid dynamic all var is_solid    # Must be dynamic to update
dynamic group solid defined

# do clustering
compute cluster solid cluster/atom 1.3 # Create a cluster where all atoms within are solid and max 1.3 units from another member

# define chunks one chunk per cluster
compute clus_chunks solid chunk/atom c_cluster nchunk every compress yes  # Says which atoms are in which chunk

# count the size of each chunk
compute size_chunks solid property/chunk clus_chunks count


# Find the maximum entry in the vector of chunk sizes
variable max_n equal max(c_size_chunks)


# Thermo style which includes this variable
# thermo_style custom step temp pe vol v_max_n

thermo ${N}  # Print the thermo information every 100 steps
thermo 1000  

# Reset the npt fix at a lower temperature (below freezing)
fix 1  all npt temp  ${temp} ${temp}  0.1  iso  5.68  5.68  0.5  mtk yes tchain  5  pchain  5
fix 1  all npt temp  0.45 ${temp}  0.1  iso  5.68  5.68  0.5  mtk yes tchain  5  pchain  5
fix 1  all npt temp  0.45 0.45  0.1  iso  5.68  5.68  0.5  mtk yes tchain  5  pchain  5

dump dmp2 all dcd ${N} traj.dcd
dump dmp2 all dcd 1000 traj.dcd


compute msd all msd com yes
variable twopoint equal c_msd[4]/6/(step*dt+1.0e-6)
fix 9 all vector 10 c_msd[4]
variable fit equal slope(f_9)/6/(10*dt)
thermo_style custom step temp pe c_msd[4] v_twopoint v_fit v_max_n

fix 1 all npt temp 1.25 ${temp} 0.1 iso 5.68 5.68 0.5 mtk yes tchain 5 pchain 5
fix 1 all npt temp 1.25 0.45 0.1 iso 5.68 5.68 0.5 mtk yes tchain 5 pchain 5
run 500000 # 5000000  # Run for this many steps
Neighbor list info ...
  update every 1 steps, delay 10 steps, check yes
  max neighbors/atom: 2000, page size: 100000
  master list distance cutoff = 3.8
  ghost atom cutoff = 3.8
  binsize = 1.9, bins = 9 9 9
  4 neighbor lists, perpetual/occasional/extra = 1 3 0
  (1) pair lj/cut, perpetual
      attributes: half, newton on
      pair build: half/bin/atomonly/newton
      stencil: half/bin/3d
      bin: standard
  (2) compute orientorder/atom, occasional
      attributes: full, newton on
      pair build: full/bin/atomonly
      stencil: full/bin/3d
      bin: standard
  (3) compute coord/atom, occasional
      attributes: full, newton on
      pair build: full/bin/atomonly
      stencil: full/bin/3d
      bin: standard
  (4) compute cluster/atom, occasional
      attributes: full, newton on
      pair build: full/bin/atomonly
      stencil: full/bin/3d
      bin: standard
Per MPI rank memory allocation (min/avg/max) = 9.746 | 9.751 | 9.757 Mbytes
Step Temp PotEng c_msd[4] v_twopoint v_fit v_max_n 
   12000    1.2619088   -6.0981851 2.1950055e-30 1.5243093e-32 8.3333333e+20            4 
   13000    1.2398514   -6.1225526   0.55784085 0.0035759028  0.045557215            4 
   14000    1.2439181   -6.1109086     1.089044 0.0064824043  0.045126642            3 
   15000    1.2478372   -6.1346529    1.6246437 0.0090257978  0.044786003            2 
   16000    1.2376105   -6.1248869    2.1079224  0.010978762  0.044266796            2 
   17000    1.2111039   -6.1451417    2.6438466  0.012960032  0.043730141            3 
   18000    1.2403443   -6.1548632    3.1968502  0.014800232  0.043716838            4 
   19000    1.2328704   -6.1904522    3.6976608   0.01621781  0.043766701            2 
   20000    1.2090245   -6.1454596    4.2238262  0.017599275  0.043696789            3 
   21000    1.1967601   -6.1256328    4.7648825  0.018908263   0.04374014            2 
   22000    1.2227505   -6.1116388    5.3233795  0.020164316  0.043745187            5 
   23000    1.2246214   -6.1504722    5.9119741  0.021420196  0.043918191            2 
   24000    1.2267006   -6.1235206    6.4225954  0.022300678  0.044254716            2 
   25000    1.2308045   -6.1695533    6.9318084  0.023106028  0.044364439            3 
   26000    1.2165449   -6.1260564    7.3770495  0.023644389  0.044246776            2 
   27000     1.213502   -6.0822916    7.9961504  0.024679476  0.044145848            7 
   28000    1.2187875   -6.1197576    8.4633786  0.025188626  0.044129673            4 
   29000     1.202635   -6.1188416    8.9782166  0.025799472  0.044055775            4 
   30000    1.2093002   -6.1295457    9.4845643  0.026346012  0.043985638            1 
   31000    1.2337578   -6.1670288    9.8699203  0.026532043  0.043833074            2 
   32000    1.2032657   -6.1176172    10.292122  0.026802401  0.043586251            4 
   33000      1.22482   -6.1163819    10.731123  0.027098796  0.043252304            3 
   34000    1.2110818   -6.1184113    11.196233  0.027441748  0.042976078            2 
   35000    1.1925644    -6.153513    11.541725  0.027480297  0.042627532            2 
   36000    1.2032739   -6.1872017    12.068086  0.027935383  0.042324154            3 
   37000    1.1962798   -6.1949188     12.75542  0.028728422  0.042160667            3 
   38000    1.2070792   -6.1647895    13.210061  0.028969433  0.042084743            6 
   39000    1.2360849   -6.1757153     13.80505   0.02949797  0.042030083            4 
   40000    1.1876085   -6.1869003    14.373258  0.029944287  0.042032934            4 
   41000    1.2255787   -6.1983567    14.902466  0.030289564  0.042076781            2 
   42000    1.2031007    -6.188018    15.421456  0.030598127  0.042102925            7 
   43000    1.2019277   -6.1811346    15.969256   0.03094817  0.042159532            2 
   44000    1.1924639   -6.1984145    16.424951  0.031107861  0.042201962            4 
   45000     1.213569   -6.1880386    17.121595  0.031706658  0.042258098            3 
   46000    1.1705118   -6.2294162    17.446305  0.031605625  0.042313795            5 
   47000    1.1949993   -6.2057974    18.038866  0.031983804  0.042350685            2 
   48000    1.1888117   -6.2044514    18.525819   0.03216288  0.042381762            1 
   49000    1.1713742   -6.1919505    18.938202  0.032207827  0.042382155            5 
   50000     1.168142   -6.2215866     19.33421  0.032223684  0.042342264            2 
   51000    1.2122428   -6.2020414    19.795716  0.032345941  0.042303178            4 
   52000    1.1769708   -6.2161881    20.446788  0.032767288  0.042283887            6 
   53000    1.2086227   -6.2264405    20.993329  0.033008378  0.042291895            2 
   54000    1.1896352   -6.2245276    21.427558  0.033067219  0.042279881            2 
   55000    1.1639421   -6.2198596    21.847885  0.033102855  0.042253272            3 
   56000     1.184935   -6.2165549    22.324632  0.033221178  0.042213627            3 
   57000    1.2165752   -6.2227667    22.629654  0.033084289  0.042159983            1 
   58000    1.1783868   -6.2475289    22.977229   0.03301326   0.04206451            2 
   59000    1.1541984   -6.2011422    23.485972  0.033172276  0.041960286            3 
   60000     1.163576   -6.2123516    23.757321  0.032996278  0.041838562            1 
   61000    1.1541201   -6.2396837    24.207487  0.033070337  0.041722343            2 
   62000    1.1474803   -6.2805875    24.756908  0.033275414  0.041600617            3 
   63000    1.1827947   -6.2420791     25.19989  0.033333188  0.041508728            4 
   64000    1.1552816   -6.2802797    25.756741  0.033537423  0.041421184            4 
   65000    1.1790714   -6.2562584    26.023478  0.033363433  0.041333471            3 
   66000    1.1748656   -6.2444984    26.588098  0.033570831  0.041243966            4 
   67000     1.158633    -6.231638    27.207902  0.033840674   0.04115912            3 
   68000    1.1502537   -6.2471392    27.581618  0.033801003  0.041095858            2 
   69000    1.1571939   -6.2557907    28.119966  0.033961312  0.041042662            4 
   70000    1.1300044   -6.2671609    28.498177  0.033926401  0.040980495            3 
   71000    1.1365403   -6.2542936    28.992156  0.034028352  0.040905133            4 
   72000    1.1575791   -6.3114207    29.446019   0.03408104  0.040838937            6 
   73000    1.1300562    -6.324839    29.829804  0.034052288  0.040783201            3 
   74000    1.1382519   -6.2643763     30.45105  0.034291723  0.040733323            5 
   75000    1.1399278   -6.3109736    30.979205  0.034421339  0.040692935            3 
   76000    1.1403993   -6.2656731    31.625596  0.034677189  0.040668152           14 
   77000    1.1693321   -6.3010623    32.217629  0.034867563  0.040659822            5 
   78000    1.1486737   -6.2646081    32.509051  0.034731892  0.040646617            1 
   79000    1.1346386   -6.3374655    33.027007  0.034838615  0.040634585            8 
   80000    1.1330107   -6.3135516    33.452912  0.034846784  0.040622305            4 
   81000    1.1370049    -6.288366    33.730475  0.034702135  0.040584579            2 
   82000     1.155502   -6.2893743    34.179184  0.034734943  0.040533634            3 
   83000    1.1237039   -6.3226068    34.398316  0.034536461   0.04048432            3 
   84000    1.1258228   -6.3123445    34.852562  0.034575954  0.040427821            3 
   85000    1.1630045   -6.3200637    35.220492  0.034529893  0.040367263            5 
   86000    1.1629382   -6.3120387    35.552769  0.034450357  0.040296075            5 
   87000    1.1244288   -6.3583212    36.009911  0.034492251  0.040215865            2 
   88000    1.0952739   -6.2860112    36.465357  0.034531588   0.04014345           10 
   89000    1.1388492   -6.3042279    36.966938  0.034613238  0.040070571            3 
   90000    1.1147058   -6.3031665    37.432377  0.034659608  0.040006566            9 
   91000    1.1362722   -6.3676837    37.685676  0.034510692  0.039942705            4 
   92000    1.1412993   -6.3450782    38.047833  0.034463617  0.039878234            5 
   93000    1.1324646   -6.3112264    38.711119  0.034687383  0.039811159            3 
   94000    1.1311391   -6.3031811    39.082016  0.034647177  0.039749285            1 
   95000    1.1105448   -6.3367331     39.40268  0.034563754  0.039691672            4 
   96000    1.1170946   -6.3372153     40.17244   0.03487191  0.039641415            2 
   97000    1.1076656   -6.3505542     40.44736  0.034748591  0.039583116            5 
   98000    1.1056291   -6.3563349    40.873234  0.034756151  0.039526225            3 
   99000    1.1130646   -6.3742291    41.198414    0.0346788  0.039474916            4 
  100000    1.0970365   -6.3294582     41.63537  0.034696141  0.039416986            3 
  101000    1.1189325   -6.3844933    41.873143  0.034548798  0.039357635            5 
  102000    1.1022482    -6.340481    42.235545  0.034506164  0.039293571            7 
  103000    1.0903047   -6.3632137    42.481384  0.034370051  0.039220541            2 
  104000    1.0913694   -6.3999899    42.924566  0.034394684  0.039144312            2 
  105000    1.1056104   -6.4194782    43.424413  0.034463819  0.039068964            3 
  106000    1.1020368   -6.3707188    43.720774  0.034371678  0.038999599            5 
  107000    1.0845457   -6.3842851    44.008237  0.034274328  0.038929376            5 
  108000    1.0919697     -6.36087     44.50903  0.034343387  0.038856732            2 
  109000    1.0903431   -6.3964645    45.062223   0.03445124  0.038788907            8 
  110000    1.1063014   -6.3779746    45.478176  0.034453164  0.038728458            4 
  111000    1.0828621   -6.3901226    45.762765   0.03435643  0.038664322            5 
  112000    1.0944495   -6.3418012    46.163826  0.034348084   0.03860083            2 
  113000    1.0981799   -6.3449191    46.594289   0.03436157  0.038534258            2 
  114000    1.0775244   -6.3909487    46.852483  0.034248891  0.038465428            4 
  115000    1.0937704   -6.4306592    46.961129  0.034029803  0.038389333            3 
  116000    1.0890514   -6.3839004    47.572129   0.03417538  0.038319915            3 
  117000    1.0772524   -6.3853007    47.765242  0.034020827  0.038246193            2 
  118000    1.0580536   -6.4396634    48.190078  0.034032541  0.038169225            6 
  119000    1.0684258   -6.4332983    48.633228  0.034056882  0.038094151            9 
  120000    1.0839952    -6.383623    49.074627  0.034079602  0.038020893            4 
  121000    1.0526954   -6.3997716    49.329396  0.033973413  0.037947998            3 
  122000    1.0823329   -6.4408528    49.829191  0.034036332  0.037876987            3 
  123000     1.074589   -6.4140432    49.954508  0.033844518  0.037801431            9 
  124000    1.0968533   -6.3910399    50.305748  0.033807626  0.037722174            5 
  125000    1.0719513   -6.4128568    50.717276  0.033811517  0.037643427            5 
  126000    1.0925918   -6.4092275    50.944637  0.033693543  0.037562433            4 
  127000     1.046723   -6.4256132    51.181353  0.033583565  0.037476096            4 
  128000    1.0771104   -6.4325387    51.487967  0.033520812  0.037391311            3 
  129000    1.0569371   -6.4433291    51.897832  0.033525731   0.03730837           11 
  130000    1.0789033   -6.4418587    52.407827  0.033594761  0.037229483            3 
  131000    1.0512762   -6.4153419     52.78347  0.033577271  0.037156031           10 
  132000    1.0706788   -6.4607013    53.160786  0.033561102  0.037087503            8 
  133000    1.0487152   -6.4977244    53.468271  0.033501423  0.037018567            4 
  134000    1.0578061   -6.4607149    53.928188   0.03353743  0.036947462            4 
  135000    1.0419359   -6.4816098    54.127084   0.03341178  0.036875827            3 
  136000    1.0513957   -6.4634647    54.368125  0.033313802  0.036801373           11 
  137000    1.0413436   -6.4668778    54.724386  0.033287339  0.036722999            4 
  138000    1.0368941   -6.4370898    55.133538  0.033293199  0.036643354            4 
  139000    1.0710923   -6.4678905    55.387777  0.033206101  0.036564143            2 
  140000    1.0416641   -6.4747535    55.658786   0.03313023  0.036487727            5 
  141000    1.0613066   -6.4692736    55.799177  0.032978237  0.036407465            7 
  142000    1.0334533    -6.470672    55.981037  0.032852721  0.036323756            3 
  143000    1.0481072   -6.4566573    56.325268  0.032823583  0.036237816            3 
  144000    1.0544195   -6.4364462    56.687264  0.032805129   0.03615239            2 
  145000    1.0239382   -6.4460167    57.044041  0.032783932  0.036066238            5 
  146000    1.0206355   -6.4784148    57.188277   0.03264171  0.035980816            3 
  147000    1.0372952   -6.4993256      57.6307  0.032670465  0.035896197            4 
  148000    1.0362392   -6.5061921    57.832911  0.032563576  0.035810808            6 
  149000    1.0319749   -6.4795944    58.145255  0.032519717   0.03572855            4 
  150000    1.0343774   -6.5173991    58.487844  0.032493247  0.035644186            9 
  151000    1.0411701   -6.5050988    58.868426  0.032488093  0.035560558            8 
  152000    1.0220381   -6.5036904    59.161659   0.03243512  0.035481951            4 
  153000    1.0387141   -6.5438501    59.559012  0.032439549  0.035403901            7 
  154000    1.0054855   -6.5259157    59.841257  0.032381633  0.035325613            4 
  155000    1.0274644   -6.5426852    60.292724  0.032415443  0.035251006            5 
  156000   0.99626119   -6.5185926    60.722841  0.032437415  0.035177587            4 
  157000    1.0254064   -6.5260332    60.985373  0.032370155  0.035104511            8 
  158000    1.0032651   -6.5210683    60.930031  0.032136092  0.035028664           11 
  159000    1.0260767   -6.5763329    61.257447   0.03210558  0.034950537            5 
  160000   0.98268437   -6.5197003    61.610141  0.032088615  0.034872996           16 
  161000    1.0133714   -6.5456263    62.004488   0.03209342  0.034798837            4 
  162000    0.9936392   -6.5787583    62.232823  0.032012769  0.034724283            6 
  163000    1.0046132   -6.5331351    62.468638  0.031936932  0.034648533            6 
  164000    1.0087423     -6.56418    62.603091  0.031810514  0.034571636            6 
  165000   0.99724904   -6.5398308    62.775211  0.031704652  0.034490358            2 
  166000   0.99529734   -6.5691537    63.103661  0.031678545  0.034411065            5 
  167000    1.0007543   -6.5213272    63.565852  0.031719487  0.034331462            4 
  168000    1.0152731   -6.5700422    63.537406   0.03151657  0.034249176            5 
  169000    1.0022937   -6.5592988    63.817032  0.031467964  0.034167719            4 
  170000   0.97930772   -6.5989616    64.078806  0.031411179  0.034085345            2 
  171000     1.003215   -6.5730734    64.482036  0.031423994  0.034004735            6 
  172000    1.0044179   -6.5755226    64.791568  0.031391263  0.033925711            7 
  173000     1.007678   -6.5749557    65.145255   0.03138018  0.033847641            4 
  174000   0.99195479   -6.5943111    65.556799  0.031396934  0.033772234            4 
  175000    0.9771018   -6.6024277    65.506116  0.031193389  0.033695749            4 
  176000   0.99405962   -6.5874151     65.86243  0.031184863  0.033619682            5 
  177000    1.0060049   -6.5837284    66.347559  0.031237081  0.033546086            4 
  178000    1.0156829   -6.5710925     66.75073  0.031250342  0.033471859            3 
  179000   0.97342257   -6.5786477    66.708486  0.031056092  0.033395744            4 
  180000   0.98262615   -6.5796261    67.025043  0.031030113  0.033318961            6 
  181000    1.0063038   -6.6035389    67.361303  0.031013491  0.033243893            2 
  182000    0.9879916    -6.594472    67.479557  0.030897233  0.033167333            3 
  183000   0.98049253    -6.587335    67.593845  0.030780439  0.033090961            6 
  184000   0.97455332   -6.5810093    67.760624  0.030688689   0.03301314            8 
  185000    1.0087117   -6.5977278    68.008537  0.030634476  0.032935706            7 
  186000   0.97885543   -6.6157387    68.397157  0.030643887  0.032859346            5 
  187000   0.95392755   -6.6303072    68.466722  0.030511017  0.032784033            5 
  188000   0.95906187   -6.5957899    68.967647  0.030570765  0.032709513            5 
  189000   0.95878725   -6.6503154    68.764056  0.030319249  0.032634266            6 
  190000   0.96647986   -6.6244472    69.320287  0.030403635  0.032557181            6 
  191000   0.97761458   -6.6217637     69.33971  0.030252927  0.032479851            8 
  192000   0.95406278   -6.6270726     69.84187  0.030313311  0.032403645            4 
  193000   0.96259154   -6.6378853     70.12879  0.030280134  0.032328356            7 
  194000     0.952059      -6.6504    70.392321  0.030237251  0.032255416            4 
  195000   0.97493885   -6.6365859    70.561244  0.030154378  0.032180936            6 
  196000   0.94974141   -6.6504708    70.675533  0.030049121  0.032104456           10 
  197000   0.95055054   -6.6743335     70.69006  0.029902733   0.03202761            6 
  198000   0.95453005   -6.6446654    71.169173  0.029953356  0.031950617           10 
  199000   0.94453292   -6.6375844    71.253133  0.029837995  0.031875478           10 
  200000   0.95517436   -6.6987253    71.472857  0.029780357  0.031799693            4 
  201000   0.94169985   -6.6646236    71.712539  0.029731567  0.031724191           10 
  202000    0.9527611    -6.649703    72.114454  0.029750187  0.031649288            2 
  203000   0.93601578   -6.6899769    72.031344  0.029569517  0.031574621            4 
  204000   0.92251759   -6.6861787    72.627268  0.029668002  0.031500884            6 
  205000   0.92528217   -6.6686995    72.757711  0.029576305  0.031426491            3 
  206000   0.96872468   -6.6927285    72.973619  0.029520072  0.031352471            3 
  207000   0.93202576   -6.6585514    73.272103  0.029497626  0.031281686            3 
  208000   0.93760769   -6.6549343    73.537351   0.02946208  0.031210202            5 
  209000   0.94976814   -6.6711369    73.779467   0.02941765  0.031137382            4 
  210000   0.93400153   -6.6687433    73.849917  0.029305522   0.03106621           14 
  211000   0.93749286   -6.6779418    74.193949  0.029302507   0.03099517            7 
  212000   0.92455065   -6.6909066    74.224617  0.029176343  0.030925169            6 
  213000   0.92468825   -6.6853794    74.534439  0.029160579  0.030853994            4 
  214000   0.91659017   -6.6718542    74.814919  0.029133535  0.030782016            6 
  215000   0.90670259   -6.7095993    74.693345  0.028950909  0.030709302            3 
  216000   0.92646277   -6.7047242    74.820964  0.028866113  0.030634547            8 
  217000   0.90684922   -6.7322556    75.181539  0.028871559  0.030560767           11 
  218000   0.89641275   -6.7202845    75.335872  0.028798116  0.030487925            5 
  219000   0.92535141    -6.695027     75.41919  0.028698322  0.030414133            7 
  220000   0.93666613   -6.7316408    75.523631  0.028607436  0.030339112            9 
  221000   0.90327172   -6.7257006    75.810716  0.028586243  0.030262425            7 
  222000   0.91764129   -6.7399024    75.786085   0.02844823  0.030186514            5 
  223000   0.91771457   -6.7341674    75.751203  0.028307624  0.030110209            8 
  224000   0.91135868   -6.7310898    76.495087  0.028457994  0.030034528            8 
  225000   0.90643444   -6.7444102    76.219622   0.02822949  0.029958927            9 
  226000   0.91356607   -6.7564582    76.482598  0.028201548  0.029883026            4 
  227000   0.89212117   -6.7686662    76.630349  0.028131552   0.02980805           10 
  228000   0.90544398   -6.7868461    76.745207  0.028050149  0.029733255            5 
  229000   0.91053951   -6.7760572    77.071602  0.028046435  0.029659802            6 
  230000   0.90406308   -6.7689734     77.28296  0.028001072  0.029587476           15 
  231000   0.89277352   -6.7652107    77.559539  0.027979632  0.029516005            3 
  232000   0.89506643   -6.7774793    77.856021  0.027965525  0.029443576           15 
  233000    0.9076271   -6.7680149    77.818987  0.027832256  0.029370065            6 
  234000   0.87555493   -6.7775944    77.885116  0.027736865  0.029297347            8 
  235000    0.9119083   -6.7785801    78.087961  0.027690766  0.029224492            7 
  236000   0.88516844   -6.7756766    78.536419  0.027731786  0.029152511            9 
  237000   0.89634102   -6.7635754    78.462312  0.027588717  0.029081064            7 
  238000   0.88082824    -6.797217    78.999881  0.027661023   0.02900962            5 
  239000   0.90472805   -6.7629797    79.251866  0.027633147   0.02893907           14 
  240000   0.87768492   -6.7833052    79.183854  0.027494394  0.028868899            7 
  241000   0.89046667   -6.8170603    79.265813  0.027408649  0.028796997            6 
  242000   0.87291098   -6.8057923    79.205048  0.027274466   0.02872493           10 
  243000   0.87971357   -6.7862116     79.53669  0.027275957  0.028653212            4 
  244000   0.88180488   -6.8056767    79.821518  0.027261447  0.028582372            4 
  245000    0.8937995    -6.825723    80.040807  0.027224764  0.028512568            3 
  246000   0.89189904   -6.8260826    80.221088  0.027175165  0.028443645            7 
  247000   0.87911294   -6.8074613    80.402676  0.027126409  0.028375048           23 
  248000   0.87531108   -6.8068137     80.63826  0.027096189  0.028306629            7 
  249000   0.89014002     -6.79263    80.587368  0.026970337  0.028238072            9 
  250000   0.85400142   -6.7811202    80.956017  0.026985339  0.028168888            4 
  251000   0.88025204   -6.8331085    80.893092  0.026856936  0.028100181            7 
  252000   0.88612155   -6.8525283    81.126911  0.026827682  0.028032025            4 
  253000   0.85083144   -6.8587737    81.016313  0.026685215  0.027963282            7 
  254000   0.87709946   -6.8110838    81.343584  0.026687527  0.027893918           16 
  255000    0.8543078   -6.8323026     81.71736   0.02670502  0.027824699           10 
  256000   0.84557688   -6.8314657    81.981668  0.026686741  0.027757263            5 
  257000    0.8682342   -6.8203414    82.219398  0.026659986   0.02769102            6 
  258000   0.84936049    -6.858198    81.849391  0.026437142  0.027624349           15 
  259000   0.86194938   -6.8612263    82.423936  0.026519928  0.027557516           12 
  260000   0.85579113   -6.8477836     82.34461  0.026392503  0.027491276           12 
  261000   0.86738883   -6.8326467    82.501185  0.026341375  0.027424957            4 
  262000   0.85318913   -6.8620453    82.562707  0.026260403  0.027357995           13 
  263000   0.85526789   -6.8418702    82.866955  0.026256957  0.027290402            6 
  264000   0.86220785   -6.8667737    82.793485  0.026134307  0.027223392           23 
  265000    0.8427687   -6.8285061    83.088275  0.026128388  0.027156416            7 
  266000   0.84548208   -6.8460519    82.890727  0.025968273  0.027088988           15 
  267000   0.84008115   -6.8938426    82.881711  0.025868199   0.02702075            8 
  268000   0.84143836   -6.8755859     83.44498  0.025946822  0.026952217           15 
  269000   0.81413837   -6.8568577    83.579652  0.025892086  0.026884312           10 
  270000   0.82693699   -6.8637354    83.617463  0.025807859  0.026817486            9 
  271000   0.85677849   -6.8776474    83.811863  0.025772406  0.026750292            7 
  272000   0.83214484   -6.8677191    83.962752  0.025723882  0.026682841            8 
  273000   0.84806323   -6.8768602    83.798924  0.025579647  0.026615818            8 
  274000   0.81483511   -6.8847266    84.042171  0.025560271   0.02654819            8 
  275000   0.83698682   -6.8909288    83.779076  0.025387599  0.026480643            8 
  276000   0.82876462    -6.896378    84.090736  0.025389715     0.026413            9 
  277000   0.82430452   -6.9472438    84.088822   0.02529748  0.026343805            9 
  278000   0.82966865   -6.9169023    84.202286  0.025240493  0.026274073            8 
  279000   0.81269151   -6.8748342    84.648429  0.025283282  0.026205098           15 
  280000   0.83173608   -6.9083268       84.581  0.025172917  0.026137043           14 
  281000   0.82747162   -6.9097519    84.900369  0.025178045  0.026069136           14 
  282000   0.81663073   -6.9542072    84.729257  0.025038196  0.026000921            8 
  283000   0.82498608   -6.9177081    84.790999  0.024967903   0.02593253           14 
  284000   0.81428786   -6.9318358     84.96238  0.024930276  0.025864735            8 
  285000   0.80509251   -6.9332945    85.121873  0.024889437  0.025797745           14 
  286000   0.81055673    -6.923333    85.523748  0.024919507  0.025730803           16 
  287000   0.82594918   -6.9528287    85.454276  0.024812507  0.025664589           23 
  288000   0.80707489   -6.9790535    85.237273  0.024663563  0.025596975            7 
  289000   0.81477186   -6.9356529    85.618832  0.024688245   0.02552919           11 
  290000   0.81573193    -6.942735    85.524278  0.024575942  0.025461835            6 
  291000   0.80811069   -6.9534157    85.380453  0.024450302  0.025394857           24 
  292000   0.79644194   -6.9462762     85.67472  0.024450548  0.025327059           27 
  293000   0.78704442   -6.9283383    85.827875  0.024410658  0.025259806           12 
  294000   0.79828321   -6.9600532    86.045072  0.024389193  0.025192846           13 
  295000   0.79569468   -6.9601424    85.925842  0.024272837  0.025126167           21 
  296000   0.79852854   -6.9478012    85.924101  0.024190344  0.025058489            5 
  297000   0.81541272   -6.9533287    86.069237  0.024149618  0.024990586            9 
  298000   0.77193633   -6.9679226    86.098441  0.024076745  0.024923296            7 
  299000   0.78276236   -6.9820715    86.055406  0.023984227   0.02485559           12 
  300000   0.79931197   -7.0001067    86.569097  0.024046971  0.024788572           11 
  301000   0.80241619    -6.965167    86.503247   0.02394885  0.024722015           13 
  302000   0.79349233   -6.9734638    86.633323  0.023905442   0.02465559            4 
  303000   0.79284652   -7.0066775    86.738924   0.02385559  0.024589692           13 
  304000   0.77993385   -6.9988701    87.006474  0.023850459  0.024524202            7 
  305000   0.77939847   -6.9999653     87.08055    0.0237925   0.02445907            9 
  306000   0.78296699   -6.9876594    87.007232   0.02369478  0.024393841           15 
  307000   0.78829844   -7.0168838    87.028676  0.023623419   0.02432827            9 
  308000   0.77112293   -7.0065831    87.087684  0.023562685  0.024262519           24 
  309000   0.78352408   -6.9866017    87.298216  0.023543208  0.024196949           16 
  310000   0.77159893   -7.0490283    86.849712  0.023346697  0.024130872            8 
  311000   0.75835952    -7.014823    87.228368  0.023373089  0.024064451            7 
  312000   0.76970695    -6.994165    87.241056  0.023301564  0.023998622           15 
  313000   0.78414098   -7.0181036    87.369131  0.023261217  0.023933109           12 
  314000   0.77046786   -7.0105568    87.401689  0.023195777  0.023867776            7 
  315000   0.77171876    -7.009397    87.523465  0.023154356  0.023802673           35 
  316000   0.74868747   -7.0275073    87.585453  0.023097429    0.0237378           19 
  317000   0.75945772    -7.048703    87.650896  0.023041771  0.023672666            9 
  318000   0.76203991   -7.0164201    87.594282  0.022954476  0.023607408           11 
  319000   0.74828869   -7.0244139    87.575276  0.022877554  0.023542507            8 
  320000   0.74620773   -7.0360176    87.758781  0.022853849  0.023477534           10 
  321000   0.73380962   -7.0343311    87.713328  0.022770854   0.02341274           12 
  322000   0.77173779   -7.0495321    87.737668  0.022706436  0.023347686            9 
  323000   0.75194767   -7.0520259    87.969124  0.022695852  0.023282427           22 
  324000   0.76016462   -7.0270881    88.036757  0.022643199   0.02321735           15 
  325000   0.74616937   -7.0754241    88.011362  0.022567016  0.023152882           23 
  326000   0.73741181   -7.0524471    88.296058  0.022570567  0.023088567           21 
  327000   0.74929561   -7.0599001    88.236546  0.022486378  0.023024802           26 
  328000   0.75055186   -7.0681088    88.351794  0.022447102    0.0229608           16 
  329000   0.75829626   -7.0729742    88.465172  0.022407592  0.022896967           12 
  330000    0.7614731   -7.0636515    88.347135  0.022309883  0.022833403            9 
  331000   0.75100903   -7.0999566    88.464295  0.022271977  0.022769661           11 
  332000   0.73233901   -7.0935404    88.469967  0.022206317   0.02270565           12 
  333000   0.72822485   -7.0964573    88.596108  0.022171198  0.022642053            8 
  334000   0.73707806   -7.0797085    88.530766  0.022088514  0.022578216           17 
  335000   0.73411686   -7.0986789    88.733438  0.022072995  0.022514437           16 
  336000   0.72849481   -7.0967128    88.585379   0.02197058  0.022451043           26 
  337000   0.74407477   -7.1040999    88.653998  0.021922354  0.022387781           36 
  338000   0.74627536   -7.1136369    88.578169  0.021838799  0.022324712           16 
  339000   0.71241851   -7.1391696    88.732006  0.021812194  0.022261255           64 
  340000   0.71134704   -7.1212255    88.639284  0.021725315  0.022197361           15 
  341000   0.71397862   -7.1033595    88.750167  0.021688702  0.022134395           38 
  342000   0.71948621   -7.1153508    88.879841  0.021656881  0.022071289           55 
  343000   0.71945087   -7.1226358    88.922886    0.0216042  0.022008026           20 
  344000   0.72154554   -7.1578291    88.895788  0.021534832  0.021945121           13 
  345000   0.72974534   -7.0978097    88.847738  0.021460806  0.021882149           15 
  346000   0.72311192   -7.1241242    88.729704  0.021370353   0.02181941           13 
  347000   0.71082898   -7.1170672    89.122399  0.021403074  0.021756977           17 
  348000   0.70691741    -7.122091    88.811466  0.021267113   0.02169482           31 
  349000   0.71800049   -7.1451503    89.192658  0.021297196  0.021632852           23 
  350000   0.70807473   -7.1177732    89.263375  0.021253184  0.021571295           33 
  351000     0.721781   -7.1640975     89.34244  0.021211405  0.021509664           37 
  352000   0.70603915   -7.1631468    89.573158  0.021205767  0.021448399           37 
  353000   0.69981224   -7.1734537    89.186486  0.021054411  0.021387127           46 
  354000   0.69562937   -7.1544424    89.228215  0.021004759  0.021325679           37 
  355000   0.69990357    -7.155755    89.241188  0.020948636  0.021264031           41 
  356000   0.70517413   -7.1871257    89.271792  0.020896955  0.021202345           30 
  357000   0.69974592   -7.1795147    89.313703  0.020848203  0.021140937           34 
  358000   0.70235618   -7.1930882    89.376539  0.020804595  0.021079375           55 
  359000   0.70536735   -7.1621616    89.414693    0.0207555  0.021018112           65 
  360000   0.68374321   -7.1427805    89.282705  0.020667293  0.020957067           54 
  361000   0.68117883   -7.1700946    89.317522   0.02061808  0.020895933           40 
  362000    0.6913546   -7.1580233    89.414738  0.020583503  0.020834742           28 
  363000   0.71528498   -7.1910545    89.348929  0.020511692   0.02077372           50 
  364000    0.6945479   -7.1937285    89.171361  0.020414689  0.020712371           43 
  365000    0.6806601   -7.2152317     89.26815  0.020380856  0.020651176           59 
  366000   0.69818007   -7.1763603    89.267338  0.020324986   0.02059014           53 
  367000   0.68177505   -7.2033331    89.316654  0.020280802  0.020529595           47 
  368000   0.69113101    -7.193118    89.348635  0.020232934  0.020469256           76 
  369000   0.67164886   -7.1943044    89.540513  0.020221435  0.020408886           44 
  370000   0.69044785   -7.2113297    89.463748  0.020149493  0.020348681           34 
  371000   0.68560736   -7.2126398    89.534241  0.020111015  0.020288698           32 
  372000   0.67026687    -7.219169    89.398159  0.020026469  0.020228751           23 
  373000   0.67666337   -7.2361272    89.459183  0.019986413  0.020169047           39 
  374000   0.67604162   -7.2385616    89.508357   0.01994393   0.02010924           33 
  375000   0.67498865   -7.2521929    89.552626  0.019900583  0.020049356           51 
  376000   0.67024728   -7.2525712     89.35452   0.01980375  0.019989304           85 
  377000   0.66416513   -7.2297003    89.344482  0.019749001   0.01992947           90 
  378000   0.66655732   -7.2575792    89.304554  0.019687953  0.019869405           66 
  379000   0.66778524   -7.2538414    89.366448  0.019649615  0.019809506           33 
  380000   0.67612853   -7.2541296    89.267589  0.019576226  0.019749621           72 
  381000   0.65001166   -7.2510331    89.308824  0.019533863  0.019689773           41 
  382000   0.65475507   -7.2510892    89.455638  0.019514755  0.019630212           42 
  383000   0.65783919   -7.2459033     89.79559   0.01953777  0.019571132           38 
  384000   0.67905627   -7.2597652    89.595269  0.019443418  0.019512298          126 
  385000   0.64187011   -7.2504433    89.575344  0.019388603  0.019453593          101 
  386000   0.65523189   -7.2912103    89.528115  0.019328177  0.019395115          113 
  387000   0.66851731   -7.2556603    89.432525   0.01925765  0.019336438          116 
  388000   0.64196503   -7.2459521    89.476881  0.019217543  0.019277885          120 
  389000   0.65124991   -7.2765246    89.357658    0.0191426  0.019219455           87 
  390000   0.64874917    -7.286719    89.381633   0.01909864  0.019161103           91 
  391000   0.64462787   -7.2832579    89.335787  0.019040023  0.019102908           78 
  392000   0.63530434    -7.281997    89.297493   0.01898331  0.019044564          152 
  393000   0.64343971   -7.2819257    89.578759  0.018994648  0.018986655          113 
  394000   0.63388874   -7.2957605    89.476299  0.018924767  0.018928691           95 
  395000   0.62881785   -7.2813819    89.484384  0.018878562  0.018870742           94 
  396000   0.63903196   -7.3121108    89.269782  0.018785728  0.018812957          137 
  397000    0.6327218    -7.280489    89.510608  0.018788961  0.018755293           75 
  398000   0.62000929   -7.3165506    89.440939  0.018727165  0.018697991           75 
  399000   0.63017624   -7.2992288    89.534124  0.018699692  0.018640886          109 
  400000    0.6403532   -7.3192839    89.545302  0.018655271  0.018583865           99 
  401000   0.62500247   -7.3019658    89.381263   0.01857466  0.018526954           90 
  402000   0.62615787   -7.3313781    89.525218  0.018558296  0.018470023          104 
  403000   0.61524316   -7.3166592    89.462926  0.018499364   0.01841322           77 
  404000   0.62103105    -7.336107    89.485991  0.018458331    0.0183566           87 
  405000   0.62686258   -7.3395187    89.389975  0.018392999  0.018300202          126 
  406000   0.61522491   -7.3378471    89.404601  0.018350698  0.018244004          136 
  407000   0.61343954   -7.3204837    89.614897  0.018348668  0.018188331           91 
  408000   0.61513472   -7.3517949    89.490421  0.018278272  0.018132686          108 
  409000   0.60706327   -7.3495891    89.545054  0.018244713  0.018077157          244 
  410000   0.61371818    -7.347062    89.479192  0.018186828  0.018021578          153 
  411000   0.62280143   -7.3465721    89.490811  0.018144933  0.017966282          138 
  412000   0.61181573   -7.3598777    89.377714  0.018078017  0.017910963          166 
  413000   0.61310057   -7.3427328    89.286797  0.018015899  0.017855859          228 
  414000   0.60904829   -7.3660173    89.417958  0.017998784  0.017800925          209 
  415000   0.62566667    -7.344365    89.575371  0.017987022  0.017746085          238 
  416000   0.61013554   -7.3737407    89.659016   0.01796054  0.017691411          195 
  417000   0.58387834   -7.3808603     89.34816  0.017855348  0.017636897          312 
  418000   0.60731962   -7.3780515    89.420424  0.017827038   0.01758243          354 
  419000   0.60247096   -7.3875843    89.586305  0.017817483  0.017528139          274 
  420000   0.59767826   -7.3872809    89.447833  0.017747586  0.017474075          337 
  421000   0.59573092    -7.388418    89.422435  0.017700403  0.017420315          457 
  422000   0.58959856   -7.4014581    89.495051  0.017672798  0.017366641          515 
  423000   0.58949745   -7.3794558    89.580162  0.017647786  0.017313152          468 
  424000   0.57533578   -7.4044507    89.305771  0.017552235   0.01725988          562 
  425000   0.60310197   -7.4093102    89.491455  0.017547344  0.017206775          539 
  426000    0.5857745   -7.4071641    89.526361  0.017512981  0.017153889          547 
  427000   0.57759658   -7.4032007    89.397582  0.017446835  0.017100919          635 
  428000   0.57425584   -7.3990529      89.4503  0.017416336  0.017048245          572 
  429000   0.58311041   -7.4214491    89.449453  0.017375574  0.016995624          627 
  430000   0.56827659   -7.4462858    89.377138  0.017321151  0.016943118          685 
  431000   0.58611045   -7.4249218    89.590519  0.017322219  0.016890888          594 
  432000   0.57670176   -7.4361658    89.535539  0.017271516  0.016838945          624 
  433000   0.57225124   -7.4290061    89.575854  0.017239387  0.016787197          400 
  434000   0.56319261   -7.4516973    89.512729  0.017187544  0.016735672          591 
  435000    0.5888842   -7.4332479    89.375557  0.017121754  0.016684127          643 
  436000   0.55835208   -7.4517494    89.386452  0.017084567  0.016632639          621 
  437000   0.56232122   -7.4497799    89.321381  0.017033063  0.016581244          630 
  438000   0.56556759   -7.4347599    89.403293  0.017009759  0.016530067          291 
  439000   0.56567512   -7.4462221      89.3124  0.016953759   0.01647902          647 
  440000   0.56475092   -7.4400773    89.348592  0.016922082    0.0164282          676 
  441000   0.57214846   -7.4443105    89.513523  0.016914876   0.01637763          691 
  442000   0.56778669   -7.4600838     89.30493  0.016837279  0.016327108          668 
  443000   0.56088362   -7.4821941    89.473631  0.016831006  0.016276706          722 
  444000   0.54616985   -7.4738254    89.326946  0.016765568  0.016226384          573 
  445000    0.5581409   -7.4850819     89.26769  0.016716796  0.016176195          715 
  446000   0.54075361    -7.473377    89.406198  0.016705194  0.016126193          720 
  447000   0.55232872   -7.4680236    89.200149  0.016629409   0.01607641          717 
  448000   0.55573561   -7.4909273    89.338757  0.016618072  0.016026736          746 
  449000   0.54724995   -7.4907372    89.335952   0.01658054   0.01597723          782 
  450000   0.55845814    -7.488758    89.349142  0.016546137  0.015927838          708 
  451000   0.54143484   -7.4800683     89.32099  0.016504248  0.015878575          778 
  452000   0.54038089   -7.4819045    89.258618  0.016456235  0.015829388          789 
  453000   0.54604195   -7.4906206    89.149669  0.016399866  0.015780441          862 
  454000   0.53665655   -7.4983184    89.258887   0.01638379  0.015731642          799 
  455000   0.54681635   -7.4899053    89.308605  0.016356887  0.015683127          781 
  456000    0.5391244    -7.512335    89.358482  0.016330132  0.015634588          751 
  457000   0.53971976    -7.514073    89.176206  0.016261161  0.015586334          855 
  458000   0.54878892   -7.5152097    89.182847  0.016226864  0.015538187          839 
  459000   0.52818492   -7.5104639    89.050937  0.016167563  0.015490088          823 
  460000    0.5333014   -7.5189216    89.183557  0.016156441  0.015442196          772 
  461000   0.53172451    -7.507151    89.211254  0.016126402  0.015394546          808 
  462000   0.53886121   -7.5000289    89.162225  0.016082652  0.015347053          821 
  463000   0.51216467   -7.5169327    89.136647  0.016043313  0.015299664          818 
  464000   0.52142287   -7.5170866    89.189181  0.016018172  0.015252501          835 
  465000   0.52297991   -7.5436912    89.238389  0.015992543  0.015205421          827 
  466000   0.52406558   -7.5272574    89.198385   0.01595107   0.01515835          786 
  467000   0.53308072   -7.5348527    89.164187  0.015910811  0.015111539          762 
  468000   0.51311066   -7.5227962    89.046019  0.015855773  0.015064919          823 
  469000   0.52003268   -7.5320794    88.939852  0.015803101  0.015018488          852 
  470000   0.51455602   -7.5457157    89.092268  0.015796501  0.014972092          801 
  471000   0.50478854   -7.5409245    89.093044  0.015763101  0.014925963          826 
  472000   0.51772219   -7.5357743    89.051188  0.015722314   0.01487997          841 
  473000   0.52592842   -7.5427999    89.075323  0.015693327  0.014834053          868 
  474000   0.52313981   -7.5588952    88.847865  0.015620229  0.014788278          822 
  475000    0.5095958   -7.5574481    88.997323  0.015613565  0.014742663          908 
  476000   0.50672843    -7.557811    88.863482  0.015557332  0.014697102          817 
  477000   0.50743368   -7.5659664     89.09963  0.015565973  0.014651733          835 
  478000    0.5098519   -7.5736562    89.197953   0.01555055  0.014606504          787 
  479000   0.50938169   -7.5869153    88.891278  0.015464732  0.014561468          873 
  480000    0.5012433    -7.573885    88.881971  0.015430898  0.014516479          842 
  481000   0.49802721   -7.5673946    88.858139  0.015394688  0.014471759          880 
  482000   0.50512092   -7.5873992    88.949298  0.015378509   0.01442711          926 
  483000   0.48900508   -7.5627928    88.765761  0.015315004   0.01438257          916 
  484000   0.49521508   -7.5779458    88.927291  0.015311173   0.01433824          887 
  485000   0.47460291   -7.6003147    88.919369  0.015278242     0.014294          863 
  486000    0.4978337   -7.5791365    88.921135  0.015247108  0.014249973          925 
  487000   0.48865436   -7.5775736    88.827124  0.015199713  0.014206059          925 
  488000   0.48552078   -7.5821148    88.787658  0.015161827  0.014162282          909 
  489000   0.48399139   -7.5951526    88.816454  0.015135728    0.0141186          958 
  490000   0.48904504   -7.5901515    88.732414  0.015090547  0.014075124          936 
  491000   0.48329998   -7.5934948    88.842177  0.015078442  0.014031844          931 
  492000   0.47341827   -7.6095938    88.767905  0.015035214  0.013988639          981 
  493000   0.47665446   -7.6134264    88.739107  0.014999849   0.01394568          943 
  494000    0.4826788   -7.5909793    88.856693  0.014989321  0.013902827          991 
  495000   0.47865705   -7.6191484    88.842555  0.014956659  0.013860143          872 
  496000   0.47281369   -7.6018283    88.772429  0.014914723  0.013817656          922 
  497000   0.47054683   -7.6075241    88.830481  0.014894447  0.013775224          951 
  498000    0.4786522   -7.6155275    88.811653  0.014861388  0.013732935          943 
  499000   0.47410994   -7.6076768    88.699597  0.014812892  0.013690832          938 
  500000   0.46099576   -7.6157186    88.548955  0.014758159  0.013648914          979 
  501000     0.464514   -7.6096313    88.764724  0.014764591  0.013607048          969 
  502000   0.46410109   -7.6178991    88.631275  0.014713027  0.013565414          976 
  503000   0.46359582   -7.6230112    88.524712  0.014666122   0.01352395          995 
  504000   0.46108622   -7.6274791    88.708401  0.014667394  0.013482526          935 
  505000   0.46578434   -7.6323387    88.686634  0.014634758  0.013441291          975 
  506000   0.47415236   -7.6322267    88.548401   0.01458307  0.013400252          934 
  507000   0.46183551   -7.6141845    88.616231  0.014565455  0.013359324          983 
  508000    0.4574404   -7.6300399    88.535581  0.014523553  0.013318499          953 
  509000   0.45206585   -7.6278346    88.735146  0.014527692  0.013277881          959 
  510000   0.45332972   -7.6432893    88.669248  0.014488439  0.013237353          969 
  511000   0.44466734   -7.6293396    88.516186  0.014435125  0.013196945          954 
  512000   0.45352211   -7.6527579    88.505422  0.014405179  0.013156697          904 
Loop time of 1076.15 on 48 procs for 500000 steps with 4000 atoms

Performance: 80286.171 tau/day, 464.619 timesteps/s
99.4% CPU use with 48 MPI tasks x no OpenMP threads

MPI task timing breakdown:
Section |  min time  |  avg time  |  max time  |%varavg| %total
---------------------------------------------------------------
Pair    | 66.531     | 71.547     | 79.425     |  33.8 |  6.65
Neigh   | 6.6011     | 6.854      | 7.247      |   4.3 |  0.64
Comm    | 56.488     | 65.301     | 71.182     |  43.1 |  6.07
Output  | 0.93168    | 0.93214    | 0.94135    |   0.1 |  0.09
Modify  | 914.05     | 918.9      | 928.18     |   8.8 | 85.39
Other   |            | 12.61      |            |       |  1.17

Nlocal:        83.3333 ave          90 max          75 min
Histogram: 1 0 5 4 7 6 15 3 4 3
Nghost:        1786.04 ave        1809 max        1764 min
Histogram: 1 3 6 6 9 8 4 6 4 1
Neighs:        10902.5 ave       12078 max        9986 min
Histogram: 2 7 3 10 7 9 6 0 1 3
FullNghs:      21806.1 ave       23697 max       19584 min
Histogram: 1 3 4 6 6 9 7 7 2 3

Total # of neighbors = 1046695
Ave neighs/atom = 261.67375
Neighbor list builds = 26988
Dangerous builds = 0

#clear
#
#next RN
#
#jump SELF
Total wall time: 0:17:59
