
units lj                  # Use reduced LJ style units
atom_style atomic         # Uncharged point particles
atom_modify map hash      # Needed for indexing of clusters etc
                          # Used to be able to find where atoms are in relation to each other.

lattice fcc 1.0 spacing 1 1 1
Lattice spacing in x,y,z = 1.5874011 1.5874011 1.5874011
region box block 0 10 0 10 0 10 units lattice
create_box 2 box
Created orthogonal box = (0.0000000 0.0000000 0.0000000) to (15.874011 15.874011 15.874011)
  3 by 4 by 4 MPI processor grid
create_atoms 1 box
Created 4000 atoms
  using lattice units in orthogonal box = (0.0000000 0.0000000 0.0000000) to (15.874011 15.874011 15.874011)
  create_atoms CPU = 0.003 seconds
set type 1 type/fraction 2 0.42 78393
Setting atom values ...
  1685 settings made for type/fraction
mass 1 1.0
mass 2 1.0
pair_style lj/cut  3.5
pair_modify tail  yes
pair_coeff 1  1  1.0  1.0   # Intearaction between 1 and 1 set with epsilon = 1 and sigma = 1
pair_coeff 1  2  1.5  0.8
pair_coeff 2  2  0.5  0.88

write_data data.0
System init for write_data ...
Neighbor list info ...
  update every 1 steps, delay 10 steps, check yes
  max neighbors/atom: 2000, page size: 100000
  master list distance cutoff = 3.8
  ghost atom cutoff = 3.8
  binsize = 1.9, bins = 9 9 9
  1 neighbor lists, perpetual/occasional/extra = 1 0 0
  (1) pair lj/cut, perpetual
      attributes: half, newton on
      pair build: half/bin/atomonly/newton
      stencil: half/bin/3d
      bin: standard
WARNING: Not all mixed pair coeffs generated from mixing. Use write_data with 'pair ij' option to store all pair coeffs. (../write_data.cpp:312)


#############################
#   M E L T   S Y S T E M   #
#############################

velocity all create 2.4 9622624 mom yes dist gaussian # Assign velocities
                                                    # Temperature 2.4, random number seed, zero linear momentum
                                                                                # Gaussian distribution

timestep 0.002   # simulation timestep
thermo 1000       # output thermodynamic data every 1000 steps bf 100

# Define a fix  in this case with index 1 applied to all
# particles in the simulation. This fix is for simulations
# in the anisotropic NPT ensemble. Note that we use the MTK
# correction.
fix 1 all npt temp 2.4 2.4 0.1 iso 5.68 5.68 0.5 mtk yes tchain 5 pchain 5 # Use NPT ensemble
                                                                         # Set temperature and pressure and damping
                                                                         # Numbers of thermostats in chain and in barostat
run 10000          # run for 10000 steps
Per MPI rank memory allocation (min/avg/max) = 3.642 | 3.644 | 3.648 Mbytes
Step Temp E_pair E_mol TotEng Press Volume 
       0          2.4   -5.7538232            0   -2.1547232    -4.186528         4000 
    1000    2.3998988   -5.0276588            0   -1.4287106    5.5289113    3857.0684 
    2000    2.3808786   -5.0058371            0    -1.435412    5.4127807    3882.8348 
    3000    2.3536004   -5.0438971            0   -1.5143791    5.5978284    3845.0281 
    4000    2.3603375   -5.0526081            0    -1.512987    5.3417425    3860.3524 
    5000    2.3801334   -5.0394299            0   -1.4701224    5.4518266    3859.2376 
    6000    2.4533473   -4.9919584            0   -1.3128573    5.9028886     3848.667 
    7000    2.3875074    -4.967275            0   -1.3869093    5.6372131    3877.0972 
    8000    2.4788878   -5.0203792            0   -1.3029772    5.2205946    3888.4097 
    9000    2.3481694   -5.0262842            0   -1.5049107    5.7532785    3840.5621 
   10000    2.4315938   -5.0124581            0   -1.3659793    5.6957812     3854.141 
Loop time of 2.57 on 48 procs for 10000 steps with 4000 atoms

Performance: 672372.525 tau/day, 3891.045 timesteps/s
99.6% CPU use with 48 MPI tasks x no OpenMP threads

MPI task timing breakdown:
Section |  min time  |  avg time  |  max time  |%varavg| %total
---------------------------------------------------------------
Pair    | 1.1426     | 1.1936     | 1.3067     |   2.7 | 46.44
Neigh   | 0.20969    | 0.21742    | 0.23129    |   0.9 |  8.46
Comm    | 0.79573    | 0.87667    | 0.97045    |   4.3 | 34.11
Output  | 0.00025131 | 0.00025539 | 0.00032687 |   0.0 |  0.01
Modify  | 0.21077    | 0.26659    | 0.30846    |   5.9 | 10.37
Other   |            | 0.01548    |            |       |  0.60

Nlocal:        83.3333 ave          94 max          74 min
Histogram: 2 1 7 8 8 8 6 3 2 3
Nghost:        1685.00 ave        1711 max        1653 min
Histogram: 1 3 5 6 3 5 10 10 3 2
Neighs:        9905.08 ave       11182 max        8403 min
Histogram: 2 1 5 4 10 5 9 7 2 3

Total # of neighbors = 475444
Ave neighs/atom = 118.86100
Neighbor list builds = 904
Dangerous builds = 190

# Equilibrate just above the melting temperature to avoid step fn in T

fix 1 all npt temp 1.25 1.25 0.1 iso 5.68 5.68 0.5 mtk yes tchain 5 pchain 5
run 2000
Per MPI rank memory allocation (min/avg/max) = 3.643 | 3.645 | 3.649 Mbytes
Step Temp E_pair E_mol TotEng Press Volume 
   10000    2.4315938   -5.0124581            0   -1.3659793    5.6957812     3854.141 
   11000    1.2562045   -7.0372608            0   -5.1534252    5.6644717    3047.1131 
   12000     1.238329   -7.1271601            0   -5.2701309    5.7940773    3015.4837 
Loop time of 0.602277 on 48 procs for 2000 steps with 4000 atoms

Performance: 573822.567 tau/day, 3320.732 timesteps/s
99.7% CPU use with 48 MPI tasks x no OpenMP threads

MPI task timing breakdown:
Section |  min time  |  avg time  |  max time  |%varavg| %total
---------------------------------------------------------------
Pair    | 0.27481    | 0.29615    | 0.31396    |   1.7 | 49.17
Neigh   | 0.039395   | 0.041648   | 0.044183   |   0.5 |  6.92
Comm    | 0.19644    | 0.21671    | 0.24175    |   2.4 | 35.98
Output  | 5.0959e-05 | 5.2485e-05 | 6.648e-05  |   0.0 |  0.01
Modify  | 0.039812   | 0.043031   | 0.046566   |   0.9 |  7.14
Other   |            | 0.004681   |            |       |  0.78

Nlocal:        83.3333 ave          89 max          76 min
Histogram: 4 2 2 5 8 6 6 4 4 7
Nghost:        1994.10 ave        2016 max        1976 min
Histogram: 3 4 4 12 6 2 8 4 2 3
Neighs:        12691.0 ave       14345 max       11315 min
Histogram: 3 6 4 6 8 7 7 4 2 1

Total # of neighbors = 609170
Ave neighs/atom = 152.29250
Neighbor list builds = 143
Dangerous builds = 10

#############################
# L I N E A R  Q U E N C H  #
#############################

# Define solid atoms. This closely follows ten Wolde  Ruiz-Montero and Frenkel  Faraday Discuss  1996  104  93-110
# Compute components of the per-atom q6 vector
compute q6 all orientorder/atom degrees 1 6 components 6 nnn NULL cutoff 1.3 # compute the Q6 parameter.
                                                                             # Use all neighbours within 1.3 unit cell.

# get number of connections
compute coord_number all coord/atom orientorder q6 0.5

# An atom is solid if it has 8 or more connections (of a possible 14)
variable is_solid atom c_coord_number>=8
group solid dynamic all var is_solid    # Must be dynamic to update
dynamic group solid defined

# do clustering
compute cluster solid cluster/atom 1.3 # Create a cluster where all atoms within are solid and max 1.3 units from another member

# define chunks one chunk per cluster
compute clus_chunks solid chunk/atom c_cluster nchunk every compress yes  # Says which atoms are in which chunk

# count the size of each chunk
compute size_chunks solid property/chunk clus_chunks count


# Find the maximum entry in the vector of chunk sizes
variable max_n equal max(c_size_chunks)


# Thermo style which includes this variable
# thermo_style custom step temp pe vol v_max_n

thermo ${N}  # Print the thermo information every 100 steps
thermo 1000  

# Reset the npt fix at a lower temperature (below freezing)
fix 1  all npt temp  ${temp} ${temp}  0.1  iso  5.68  5.68  0.5  mtk yes tchain  5  pchain  5
fix 1  all npt temp  0.45 ${temp}  0.1  iso  5.68  5.68  0.5  mtk yes tchain  5  pchain  5
fix 1  all npt temp  0.45 0.45  0.1  iso  5.68  5.68  0.5  mtk yes tchain  5  pchain  5

dump dmp2 all dcd ${N} traj.dcd
dump dmp2 all dcd 1000 traj.dcd


compute msd all msd com yes
variable twopoint equal c_msd[4]/6/(step*dt+1.0e-6)
fix 9 all vector 10 c_msd[4]
variable fit equal slope(f_9)/6/(10*dt)
thermo_style custom step temp pe c_msd[4] v_twopoint v_fit v_max_n

fix 1 all npt temp 1.25 ${temp} 0.1 iso 5.68 5.68 0.5 mtk yes tchain 5 pchain 5
fix 1 all npt temp 1.25 0.45 0.1 iso 5.68 5.68 0.5 mtk yes tchain 5 pchain 5
run 5000000 # 5000000  # Run for this many steps
Neighbor list info ...
  update every 1 steps, delay 10 steps, check yes
  max neighbors/atom: 2000, page size: 100000
  master list distance cutoff = 3.8
  ghost atom cutoff = 3.8
  binsize = 1.9, bins = 8 8 8
  4 neighbor lists, perpetual/occasional/extra = 1 3 0
  (1) pair lj/cut, perpetual
      attributes: half, newton on
      pair build: half/bin/atomonly/newton
      stencil: half/bin/3d
      bin: standard
  (2) compute orientorder/atom, occasional
      attributes: full, newton on
      pair build: full/bin/atomonly
      stencil: full/bin/3d
      bin: standard
  (3) compute coord/atom, occasional
      attributes: full, newton on
      pair build: full/bin/atomonly
      stencil: full/bin/3d
      bin: standard
  (4) compute cluster/atom, occasional
      attributes: full, newton on
      pair build: full/bin/atomonly
      stencil: full/bin/3d
      bin: standard
Per MPI rank memory allocation (min/avg/max) = 9.828 | 9.835 | 9.840 Mbytes
Step Temp PotEng c_msd[4] v_twopoint v_fit v_max_n 
   12000     1.238329   -7.1271601  1.83351e-30 1.2732708e-32 8.3333333e+20            3 
   13000    1.2580342   -7.1218305   0.46546347 0.0029837401  0.038041483            4 
   14000    1.2190686   -7.1518658   0.88235805 0.0052521311  0.035399778            3 
   15000    1.2461486   -7.1391361    1.2798024 0.0071100133  0.034567256            1 
   16000    1.2400739   -7.1033202    1.6697805 0.0086967732  0.033864694            3 
   17000    1.2531843   -7.1601062     2.071782  0.010155794  0.033581143            2 
   18000    1.2458039   -7.0835601    2.5360598  0.011741017  0.033924109            2 
   19000    1.2455359   -7.1500428    2.9987802  0.013152544  0.034549481            1 
   20000    1.2383355   -7.1150805    3.4244093  0.014268372  0.035057472            1 
   21000    1.2493025     -7.16237    3.8263776  0.015184038  0.035243405            1 
   22000    1.2273513   -7.1388356    4.1689458  0.015791461  0.035082868            3 
   23000    1.2573027   -7.1403433    4.5751874  0.016576765  0.034914198            4 
   24000    1.2334847   -7.0678027    5.0204189   0.01743201  0.034812185            2 
   25000     1.250732   -7.0995013    5.4904042  0.018301347  0.034862569            2 
   26000     1.250015   -7.0790863     5.949489  0.019068875  0.034887103            2 
   27000    1.2581937   -7.1131073    6.3761282  0.019679408   0.03497945            1 
   28000    1.2718058   -7.1167092    6.8497598  0.020386189    0.0351562       -1e+20 
   29000    1.2197802   -7.1082079    7.3135298   0.02101589   0.03533427            2 
   30000    1.2226744   -7.1783316    7.7170882  0.021436356  0.035462205            3 
   31000    1.2150956    -7.125165    8.1392864  0.021879802  0.035561015            2 
   32000    1.2547913    -7.165752    8.5777821  0.022337974  0.035615604       -1e+20 
   33000    1.2421214    -7.113991    9.1261192  0.023045755  0.035745416            1 
   34000    1.2431652    -7.097673    9.5321671  0.023363154   0.03589783            1 
   35000    1.2377714   -7.1281372    9.9464276   0.02368197  0.035973157            2 
   36000    1.2039106   -7.1442689     10.33192   0.02391648  0.036012157            2 
   37000    1.2671403   -7.0748743    10.776758  0.024271977  0.036006911            1 
   38000    1.2529864   -7.1402014    11.125612  0.024398271  0.035981244       -1e+20 
   39000    1.2227887   -7.2024998    11.530621  0.024638078  0.035945156            1 
   40000    1.2464811   -7.1390661    11.980821  0.024960043  0.035914073            1 
   41000    1.2422789   -7.1376918    12.394057  0.025191173  0.035902043            2 
   42000    1.2363476   -7.0957986    12.888826  0.025573067  0.035892946            2 
   43000    1.2531076   -7.1972955    13.287322  0.025750624  0.035874867            3 
   44000    1.2266362   -7.1356867    13.664794  0.025880291  0.035859839            1 
   45000    1.2334597    -7.132519    14.147586  0.026199233  0.035820516            1 
   46000    1.2565865   -7.1322119    14.720493   0.02666756  0.035849713            2 
   47000     1.240553   -7.1286129     15.24415  0.027028635  0.035910553            2 
   48000    1.2431818   -7.1390751    15.667926   0.02720126  0.035984846            3 
   49000    1.2183174   -7.1218492     16.05066  0.027297041  0.036058086            1 
   50000    1.2586374   -7.1042091    16.395891  0.027326485  0.036099721            1 
   51000    1.2527192   -7.1319669    16.782755  0.027422802  0.036091283            3 
   52000    1.2418555   -7.0791792    17.480001  0.028012821  0.036117296            3 
   53000    1.2204285   -7.1396959    17.892905  0.028133498  0.036180149            2 
   54000    1.2745525   -7.1017383    18.288656  0.028223234   0.03622439            2 
   55000     1.245015    -7.164186    18.705474  0.028341627  0.036274406            3 
   56000    1.2487221   -7.1366432    19.226529  0.028610906  0.036311294            2 
   57000    1.2636591   -7.1518836    19.729389  0.028844135  0.036359407            1 
   58000    1.2507776   -7.1652503    20.168967  0.028978401  0.036416867            1 
   59000    1.2592033   -7.1350669     20.64608  0.029161129  0.036462174            3 
   60000    1.2361422   -7.0928989    21.256372  0.029522739  0.036523449            1 
   61000    1.2273076   -7.1053066    21.339507  0.029152332  0.036555211            3 
   62000    1.2445748   -7.1420093    21.752499   0.02923723  0.036549764            2 
   63000    1.2227025    -7.135956    22.167155  0.029321633  0.036533379            2 
   64000    1.2353231   -7.1721756    22.641203  0.029480733  0.036524877            1 
   65000    1.2869492   -7.1010271    23.055907  0.029558855  0.036522434            2 
   66000    1.2280125   -7.1324937    23.639254  0.029847543  0.036530997            1 
   67000    1.2402121   -7.1430707     23.98172   0.02982801  0.036549557            2 
   68000    1.2714707   -7.1317518    24.566805  0.030106378  0.036566405            1 
   69000    1.2680688   -7.1159263    25.140023  0.030362347  0.036596193            2 
   70000    1.2473813   -7.1185867    25.530649  0.030393629  0.036615862            2 
   71000    1.2437592   -7.1991802    25.831126  0.030318223  0.036627057            1 
   72000    1.2352641   -7.1640282    26.202487  0.030326952  0.036630302            1 
   73000    1.2224914   -7.1878697    26.537319  0.030293743  0.036638407            1 
   74000    1.2652805   -7.1458963    26.906028  0.030299581  0.036614017            1 
   75000     1.237839   -7.1409804    27.440854  0.030489838  0.036592506            2 
   76000    1.2086141   -7.1926864    27.684783  0.030356122  0.036568815            1 
   77000    1.2405323   -7.1620367    27.982192  0.030283758  0.036527523            1 
   78000    1.2260417   -7.1333795     28.35083  0.030289348  0.036478888            1 
   79000    1.2482168   -7.1215697    28.990972  0.030581194  0.036432267            4 
   80000    1.2279103   -7.1546153    29.293977  0.030514559  0.036407784            1 
   81000     1.257469   -7.1902715    29.742653  0.030599437  0.036379856            1 
   82000    1.2409541    -7.136952    30.188249  0.030679114   0.03635726            2 
   83000    1.2601656   -7.1608016     30.45938  0.030581707  0.036318971            2 
   84000    1.1951176   -7.1423922    30.774232  0.030529992   0.03627734            2 
   85000    1.2355367   -7.1749961    31.265057  0.030652016  0.036234683            1 
   86000    1.2337082   -7.1427487    31.720667   0.03073708  0.036199503            1 
   87000    1.2510375   -7.1745608    31.921472  0.030576123  0.036156159            1 
   88000    1.2607856   -7.1552765    32.213426  0.030505139  0.036096382            1 
   89000    1.2280593   -7.1271645    32.612683   0.03053622  0.036036458            1 
   90000    1.2558385     -7.12666    32.935152  0.030495511  0.035977325            1 
   91000    1.2524863   -7.1380663    33.130444  0.030339235  0.035906743            1 
   92000    1.2347211   -7.1602954    33.509629  0.030352924  0.035833457            2 
   93000    1.2531505   -7.1322741    34.128343  0.030580953  0.035768328            1 
   94000    1.2426816   -7.1679439    34.245423  0.030359418  0.035700567            2 
   95000    1.2370131   -7.1535923    34.883014  0.030599135  0.035638639            2 
   96000    1.2321609   -7.1651033    35.420723  0.030747155  0.035590294            1 
   97000    1.2401724   -7.1086577    35.805949  0.030761125  0.035544127            1 
   98000    1.2489348    -7.167648    36.177677  0.030763331  0.035504039            2 
   99000    1.2258945   -7.1564186    36.690353  0.030884135    0.0354649            1 
  100000    1.2217035   -7.1309576    37.104116  0.030920097  0.035428929            1 
  101000    1.2159337   -7.1456938    37.415684  0.030871026  0.035393774            1 
  102000    1.2167284   -7.1578669    37.943484  0.030999578  0.035356354            3 
  103000    1.2250814   -7.1832067    38.178494  0.030888749  0.035323454            2 
  104000    1.2283271   -7.1352302     38.58887  0.030920569  0.035286264            2 
  105000    1.2430235    -7.141202    38.919407  0.030888418  0.035243228            1 
  106000    1.2466542   -7.2003746    39.057896  0.030705893  0.035199325            2 
  107000    1.2499271   -7.1190762     39.64182  0.030873691  0.035154102            2 
  108000    1.2499497   -7.1387804    40.269726  0.031072319  0.035114909            1 
  109000    1.2158799   -7.1712434    40.465915  0.030937244  0.035082201            1 
  110000    1.2474833   -7.2253198    40.713317  0.030843422  0.035045525            1 
  111000    1.2434295   -7.1442531    41.285677  0.030995253  0.035010022            1 
  112000    1.2318132   -7.1522998    41.735114  0.031052912  0.034979022            2 
  113000     1.250084   -7.1661373    41.913516  0.030909672  0.034943875            1 
  114000      1.22288   -7.1550612    42.555234  0.031107627  0.034907905            2 
  115000    1.2483133   -7.1581422    42.782604  0.031001887  0.034871884       -1e+20 
  116000     1.233941    -7.182796    43.083008  0.030950437   0.03483906            1 
  117000    1.2604724   -7.2090958    43.463584  0.030956968  0.034801172            1 
  118000    1.2050433   -7.1675251    43.992198  0.031067937  0.034765389            1 
  119000    1.2606454    -7.159497    44.528246  0.031182245  0.034736546            2 
  120000    1.2314985   -7.1487608    45.084918  0.031308971  0.034714178            2 
  121000    1.2336407   -7.1624017    45.525878   0.03135391  0.034699678            1 
  122000    1.2102028    -7.136279     45.98948  0.031413579  0.034686736            2 
  123000    1.2047687   -7.2110112    46.289747  0.031361617  0.034671918            1 
  124000    1.2121336    -7.191917    46.658172  0.031356298  0.034657284            7 
  125000    1.2187271   -7.1401048    47.138741  0.031425827  0.034644789            2 
  126000     1.236078   -7.1487903    47.561208  0.031455825  0.034633209            3 
  127000    1.2449992   -7.1879855    47.761607  0.031339637  0.034617063            1 
  128000    1.2376666   -7.1535095    48.277464   0.03143064  0.034597522            1 
  129000    1.2289192    -7.159216    48.418796  0.031278292  0.034575855            2 
  130000    1.2632778   -7.1860936    48.727693    0.0312357  0.034549078            1 
  131000    1.2427663   -7.1804051    49.038794  0.031195161  0.034523591            2 
  132000    1.2431935   -7.1871257    49.593942  0.031309307  0.034497972            1 
  133000    1.2172229   -7.2099717    49.526626   0.03103172  0.034468902            1 
  134000    1.2456746   -7.1701745    50.326404  0.031297515  0.034437044            1 
  135000    1.2538612   -7.1783968    50.450449  0.031142252  0.034405039            1 
  136000    1.2206934   -7.1687921     51.12639  0.031327445  0.034377405            1 
  137000    1.2380347   -7.1737613    51.371114  0.031247636  0.034353289            1 
  138000    1.2184472   -7.1830877    51.736678  0.031241955  0.034327219            2 
  139000    1.2480288   -7.1855107    52.299551  0.031354647  0.034305189            1 
  140000    1.2096533   -7.1637223    52.722047  0.031382171  0.034283157            1 
  141000     1.205529   -7.1863527    53.264553  0.031480232  0.034266261            1 
  142000    1.2501588   -7.2031192     53.49493  0.031393738  0.034252353            1 
  143000    1.2564245   -7.2589073    54.100956  0.031527364  0.034242058            4 
  144000    1.2506007   -7.2449873    54.310407  0.031429634  0.034231942            2 
  145000     1.226105   -7.1634679    55.068843   0.03164876  0.034221401            2 
  146000    1.2482708   -7.2071122    55.267215  0.031545214  0.034212654            3 
  147000    1.2363848   -7.1994972    55.697818  0.031574727  0.034202766            2 
  148000    1.2176689   -7.2181649    55.941904   0.03149882  0.034190269            2 
  149000    1.2603984    -7.165989    56.449748  0.031571448  0.034178593            2 
  150000    1.2301186   -7.1610417    56.788925  0.031549403  0.034164863            3 
  151000    1.2503698    -7.166148    57.386312   0.03167015  0.034154861            2 
  152000    1.1998359   -7.2146838    57.717971  0.031643624  0.034142924            2 
  153000     1.243619   -7.1826563    58.152687  0.031673577  0.034135492            2 
  154000    1.2199739   -7.2165568    58.343193  0.031570992  0.034127483            2 
  155000    1.2311075   -7.1836207    58.976418  0.031707751  0.034119447            3 
  156000    1.2392699   -7.1831347    59.501998  0.031785256  0.034113003            4 
  157000    1.2208922    -7.151333    60.332719  0.032023736  0.034112445            4 
  158000    1.2029683   -7.1800703    60.750428  0.032041365  0.034112205            2 
  159000    1.2000487   -7.1960747    60.566899  0.031743658  0.034111673            3 
  160000    1.2190604   -7.1832124    61.171069  0.031859932  0.034110715            1 
  161000    1.2259155   -7.1769894    61.773902  0.031974069  0.034110368            2 
  162000    1.2333734   -7.1835178    62.413486  0.032105702  0.034112797            2 
  163000    1.2196964   -7.1722473    62.850312  0.032132061   0.03411694            1 
  164000    1.2276383   -7.2255053    62.784682  0.031902786  0.034119651            2 
  165000    1.2242413   -7.1555714    63.525516  0.032083594  0.034118674            2 
  166000    1.2080052   -7.1544071    63.676252   0.03196599   0.03411508            1 
  167000    1.2140442   -7.1965632     64.12637  0.031999186  0.034113521            1 
  168000    1.2078794   -7.1608386    64.535109  0.032011463  0.034112463            2 
  169000    1.2157775    -7.142452    64.971765  0.032037359  0.034111851            3 
  170000     1.243282    -7.190506    65.276052  0.031998065  0.034108764            1 
  171000    1.2096673   -7.1682498    65.630637  0.031983741  0.034104659            1 
  172000    1.2212662   -7.1953707    65.770133  0.031865375  0.034098717            1 
  173000    1.2335031   -7.1651007    66.244162  0.031909519  0.034088067            2 
  174000    1.2244949   -7.2049829    66.498095  0.031847747  0.034078058            1 
  175000    1.1830466   -7.1675412    67.038945  0.031923307  0.034070345            3 
  176000    1.2273819   -7.1687789    67.511308  0.031965581  0.034061862            1 
  177000     1.222335   -7.2290439    67.671154  0.031860242  0.034053167            2 
  178000    1.2213975   -7.1816976    67.969454  0.031820905  0.034044247            3 
  179000    1.2132462   -7.2052638    68.522276  0.031900501  0.034035926            2 
  180000    1.2070847   -7.1728094     68.78744  0.031846037  0.034026788            1 
  181000    1.2278544   -7.1801436    69.386954  0.031946111  0.034016547            1 
  182000    1.2170048   -7.1756733    69.745888   0.03193493  0.034009283            5 
  183000    1.2067486   -7.1846581    69.997071  0.031874805  0.033998295            1 
  184000    1.2468741   -7.1567722    70.378972  0.031874534  0.033986689            1 
  185000    1.2455785   -7.2261858    70.721413  0.031856492  0.033974794            2 
  186000    1.2090087   -7.2394172    71.068883  0.031840898  0.033964115            3 
  187000    1.2411179   -7.1984087    71.629565  0.031920483  0.033956585            3 
  188000    1.2111008   -7.1903362    72.564296  0.032165025  0.033952934            3 
  189000    1.2368534    -7.211254    73.165215  0.032259795  0.033951175            1 
  190000    1.2351177   -7.2030524     72.95411  0.031997417  0.033949989            1 
  191000    1.2081075   -7.2149616    73.513336  0.032073881  0.033946381            3 
  192000    1.2166755   -7.1836111    73.782815  0.032023791  0.033943081            1 
  193000    1.2080866   -7.2152889     74.48893   0.03216275  0.033939807            3 
  194000    1.2111859   -7.1825509    74.954598  0.032196992    0.0339374            1 
  195000    1.2015775   -7.1426774    75.502731  0.032266124  0.033934787            2 
  196000    1.2089868   -7.2281523    75.598902   0.03214239  0.033933009            1 
  197000     1.214963   -7.1725453    76.395986  0.032316407  0.033931411            1 
  198000    1.1954348   -7.1989979    76.251191  0.032092252  0.033928043            1 
  199000    1.2279681   -7.1993345    77.088568  0.032281645  0.033926975            2 
  200000    1.2225909   -7.1748615    77.591877  0.032329949  0.033927793            2 
  201000     1.221966   -7.2106127    77.579467  0.032163958  0.033928778            1 
  202000    1.1942184   -7.1818393    77.992066  0.032174945  0.033926875            2 
  203000     1.221762   -7.1314269    78.693889  0.032304552   0.03392509            1 
  204000    1.1987045   -7.1463379    79.144701  0.032330352  0.033922548            1 
  205000    1.1909401   -7.1884445    79.111567  0.032159174  0.033920918            1 
  206000    1.2137931    -7.209599    79.668589  0.032228393  0.033920352            1 
  207000    1.2337335   -7.1918924    80.518934   0.03241503  0.033921454            5 
  208000    1.2120372   -7.2042583    80.674926  0.032321685  0.033924171            1 
  209000    1.2077767   -7.2299929     81.00393  0.032298218   0.03392385            1 
  210000    1.1982362   -7.2047626    81.449702   0.03232131  0.033921997            1 
  211000    1.2356596   -7.2386042    81.513975  0.032193513  0.033920227            1 
  212000    1.2274316   -7.1813223    82.422533  0.032398794  0.033919442            2 
  213000    1.2063109   -7.2027103    82.581365  0.032308828  0.033916731            4 
  214000    1.2266794   -7.1824814    82.965388  0.032307394  0.033914703            1 
  215000    1.2259357   -7.1979462    83.386177  0.032320223  0.033911778            1 
  216000    1.2363751   -7.2115853     83.51649  0.032220868  0.033908585            3 
  217000    1.2177325   -7.1868599    83.735507  0.032156493  0.033901868            3 
  218000    1.1962189   -7.1735323    84.220053   0.03219421   0.03389499            2 
  219000    1.1915081   -7.2036509    84.483873  0.032147592  0.033885808            1 
  220000    1.2299656   -7.2307445    85.002097  0.032197764  0.033878062            2 
  221000    1.2240685   -7.2001884    85.290575   0.03216085  0.033871839            2 
  222000     1.231205   -7.2029223    85.650145  0.032150955  0.033862812            2 
  223000    1.2131622   -7.1985401    85.785524   0.03205737  0.033854485            3 
  224000    1.2078967    -7.205355     86.24819   0.03208638  0.033846122            2 
  225000    1.2225219   -7.2188262    86.561213  0.032059708   0.03383706            2 
  226000    1.2173714   -7.2130119    87.168779   0.03214188  0.033829321            2 
  227000    1.2148463   -7.2325909      87.5539  0.032141667  0.033821739            2 
  228000    1.1965482   -7.2076653    88.690894  0.032416262  0.033818428            1 
  229000    1.1900457   -7.2077664    88.882227  0.032344333  0.033816961            2 
  230000    1.2039253    -7.198368    89.152221  0.032301529  0.033813921            2 
  231000    1.2190457   -7.1790931    89.319252  0.032221952  0.033809976            2 
  232000    1.1991811   -7.2206945    89.778047  0.032247862  0.033803727            1 
  233000     1.221573   -7.2371649    89.510628  0.032013815   0.03379633            1 
  234000    1.2101948   -7.2356796    89.765172  0.031967654  0.033786383            1 
  235000    1.1937603   -7.1788387    90.546804  0.032108796  0.033777138            1 
  236000    1.2192793   -7.1625101    91.096733  0.032166925  0.033766362            2 
  237000    1.2181319    -7.222867    91.053609  0.032016037  0.033757492            2 
  238000     1.249684   -7.2287441    91.769774  0.032132274  0.033749279            2 
  239000    1.2074864   -7.1776176    92.085178  0.032107803   0.03374108            1 
  240000     1.179657   -7.2363475    92.954843  0.032275987   0.03373583            4 
  241000    1.2212734   -7.2191609     92.87887  0.032115792  0.033729972            1 
  242000     1.254362   -7.2749109    92.496651  0.031851464  0.033721198            2 
  243000    1.1892456   -7.2053571    93.251943  0.031979404  0.033709169            2 
  244000    1.2032726   -7.1981324    94.137026  0.032150624  0.033698046            2 
  245000    1.1969716   -7.2568661    94.015597  0.031978094  0.033688881            4 
  246000    1.1922637   -7.2309864    94.582809  0.032040247  0.033680273            2 
  247000     1.204607   -7.2436605    95.162829  0.032106218  0.033672445            1 
  248000    1.2158126   -7.1756694    95.821573  0.032198109  0.033664918            1 
  249000    1.1834906   -7.2083201     95.65823  0.032014133  0.033658173            2 
  250000    1.1887978   -7.2054585    96.354851  0.032118284  0.033651905            3 
  251000    1.2096406   -7.1811144    96.822737  0.032145663  0.033645187            3 
  252000    1.2226824   -7.2345197      97.0456  0.032091799  0.033638195            3 
  253000    1.2162925   -7.2024028    97.642023  0.032161404   0.03363098            1 
  254000    1.2240428   -7.2115157    98.050808    0.0321689  0.033625182            2 
  255000    1.1918529   -7.1880097    98.706893  0.032257155  0.033617765            1 
  256000    1.2375444   -7.2606124    98.453411  0.032048636  0.033610937            1 
  257000    1.2015434   -7.2065678    99.437758  0.032243112  0.033604483            1 
  258000    1.2157903   -7.1813343      99.7806  0.032228876  0.033599433            1 
  259000    1.2090086    -7.194379    100.25142  0.032255927  0.033593398            1 
  260000    1.2253246   -7.2215128    100.32117  0.032154222  0.033588585            3 
  261000    1.2202325   -7.2231973    100.86588  0.032204942  0.033582999            2 
  262000    1.2112533   -7.2433681    101.23971  0.032200925  0.033578359            5 
  263000    1.2086032     -7.18948    101.81961  0.032262233   0.03357402            2 
  264000    1.1850868   -7.2158254    102.09993  0.032228514  0.033567974            2 
  265000    1.2184323   -7.2442249    102.03639  0.032086916  0.033561421            2 
  266000    1.1993462   -7.2362115    102.62229   0.03214984  0.033556444            1 
  267000     1.214025   -7.1791932    103.28315   0.03223569  0.033551166            1 
  268000    1.1956228   -7.2399237    103.55074  0.032198614  0.033545715            2 
  269000    1.1796575   -7.2146949    103.95812  0.032205118  0.033539844            1 
  270000    1.1719578   -7.1986373    104.14071  0.032142195  0.033533675            3 
  271000    1.2300678    -7.177866    104.94622  0.032271284  0.033526812            1 
  272000     1.229539   -7.2266616    105.14754  0.032214319  0.033520209            2 
  273000     1.201939    -7.219289    105.31092  0.032146192  0.033513411            2 
  274000    1.2135931   -7.2162003    105.72487  0.032154765  0.033506913            1 
  275000    1.1725076   -7.1718169    105.95304  0.032106981  0.033499841            3 
  276000    1.1963075   -7.1955701    106.78459  0.032241723  0.033494016            1 
  277000    1.2197352   -7.2221771    106.72558  0.032107576   0.03348796            2 
  278000    1.2254559   -7.2249913     107.2971  0.032163398  0.033481015            2 
  279000    1.2152542   -7.1742272    107.81655   0.03220327  0.033474559            2 
  280000    1.1974958   -7.2347044    107.74036  0.032065582  0.033465785            2 
  281000    1.2108676   -7.1881928    108.25629  0.032104474  0.033456922            3 
  282000    1.2055274    -7.213441    108.46555  0.032052467  0.033447096            1 
  283000    1.2282727   -7.1953407    108.43415  0.031929962  0.033437208            1 
  284000    1.1979135   -7.2191709     108.6007  0.031866404  0.033427191            3 
  285000    1.2011393   -7.1957563     109.2948  0.031957544  0.033415712            1 
  286000     1.212727   -7.2086099    109.64359  0.031947432  0.033403262            5 
  287000      1.17948   -7.2254053    109.82107  0.031887652  0.033391601            2 
  288000    1.1839144   -7.2232605    110.11987  0.031863389  0.033378797            1 
  289000    1.2395454   -7.2541959    110.35794  0.031821782  0.033366752            1 
  290000    1.1897176   -7.2096922    111.33592  0.031993081  0.033356747            1 
  291000    1.2003057   -7.1974227    111.73705   0.03199801  0.033346108            3 
  292000    1.2039756   -7.2446995    111.71251  0.031881424  0.033335502            1 
  293000    1.2343021   -7.2495581    111.95298  0.031841008  0.033324861            1 
  294000    1.1960866   -7.1996165    112.64076  0.031927654  0.033313739            2 
  295000    1.2129393    -7.183173    112.94825  0.031906285  0.033302813            3 
  296000    1.2053559   -7.2239297      113.059  0.031829674  0.033290731            4 
  297000    1.1994995    -7.263425    113.28658  0.031786359  0.033278497            2 
  298000    1.1912985   -7.2205571    113.40575  0.031713018  0.033264704            3 
  299000    1.1902654   -7.2767297    113.34868  0.031591049  0.033249851            2 
  300000    1.1934618   -7.2692265    113.92763  0.031646563  0.033235163            3 
  301000    1.2263777   -7.2415699    114.65683  0.031743309  0.033221341            2 
  302000    1.2103472   -7.2457332    115.41306  0.031846872   0.03321054            2 
  303000    1.2220909   -7.2105897    115.71332  0.031824346   0.03319996            3 
  304000    1.2098555    -7.244019    116.27456   0.03187351  0.033191003            2 
  305000    1.2194785   -7.2389028    116.57026  0.031849799  0.033183183            1 
  306000    1.1845044   -7.2617425     117.0029  0.031863535  0.033173763            1 
  307000    1.2086409   -7.2623398    117.56043  0.031911083   0.03316684            4 
  308000    1.1897156   -7.2545502    117.97224  0.031918897  0.033159711            2 
  309000    1.2001741   -7.2537365    118.64914   0.03199815  0.033153939            2 
  310000    1.1864638   -7.2805261    118.56921  0.031873443  0.033146962            1 
  311000    1.1950891   -7.2481288    118.80191  0.031833309  0.033138094            3 
  312000    1.1797948   -7.2477254    119.60029  0.031944523  0.033129429            4 
  313000    1.2235306   -7.2754284    119.76296  0.031885771  0.033121116            1 
  314000    1.1967739   -7.2033704    120.34351  0.031938298  0.033113227            2 
  315000    1.1876907   -7.2778676    120.38798  0.031848673  0.033105094            1 
  316000    1.2150031   -7.2180525    120.68765  0.031826913  0.033096331            3 
  317000    1.2004527   -7.2741776    120.65497   0.03171792  0.033086557            2 
  318000    1.2006175   -7.2561258    120.94297   0.03169365   0.03307528            1 
  319000    1.2312754   -7.2254756    121.82729  0.031825311  0.033064765            3 
  320000    1.1995258   -7.2336505    121.71229  0.031695909  0.033055029            2 
  321000    1.2094336   -7.1863515    122.56814  0.031819352  0.033044838            2 
  322000    1.1778955   -7.2111917    122.87606  0.031800223  0.033035342            2 
  323000    1.2028226   -7.2484568    123.13405  0.031768332  0.033025391            1 
  324000    1.2103927   -7.2502679    123.42942  0.031746251  0.033015894            1 
  325000    1.2059361   -7.2635284    124.01206  0.031797964  0.033005791            1 
  326000        1.213   -7.2298621     124.2802  0.031768966  0.032996102            1 
  327000    1.2081892   -7.2343662    124.65191  0.031766542  0.032985761            1 
  328000    1.1737457   -7.2210896    124.45594  0.031619904  0.032975049            3 
  329000    1.1904517   -7.2158486    124.98856  0.031658703  0.032964218            2 
  330000    1.2349693   -7.2215696     125.0926  0.031589041  0.032953436            2 
  331000    1.2079449   -7.2610165    125.44822  0.031583136  0.032942097            1 
  332000    1.1850173    -7.246376    125.95414  0.031614995  0.032931437            2 
  333000    1.1963692   -7.2665703    126.24487  0.031592811  0.032919579            2 
  334000    1.2316958     -7.27037    126.49603  0.031560886  0.032907605            1 
  335000    1.2135778   -7.2537812    127.36345   0.03168245  0.032896992            5 
  336000    1.1858645   -7.2487254    127.42276  0.031602866  0.032886167            3 
  337000    1.2225925   -7.1866414    128.44024  0.031760693  0.032875804            5 
  338000    1.2090162   -7.2342728    128.44185  0.031667124  0.032866077            2 
  339000    1.1957782   -7.2334054    129.27534  0.031778598  0.032856051            1 
  340000    1.1730746   -7.2457632    129.48713  0.031737041  0.032846795            2 
  341000    1.2060807   -7.2452367    130.07379  0.031787339  0.032837994            2 
  342000     1.201359   -7.2591542    130.01654  0.031680443  0.032829912            3 
  343000    1.1991515    -7.179045    131.28233   0.03189561  0.032823464            2 
  344000     1.174884    -7.282736    130.86598  0.031702029  0.032816463            3 
  345000    1.2165063   -7.2299164    131.53298  0.031771252  0.032808169            1 
  346000    1.1960189   -7.2008855    131.87717  0.031762325  0.032800389            1 
  347000    1.1734552   -7.2360961    132.49877   0.03182007  0.032793185            3 
  348000    1.2015033   -7.2589889    132.46886   0.03172147   0.03278519            1 
  349000    1.1989459   -7.1948892    132.85755  0.031723387  0.032777527            3 
  350000    1.1909625   -7.2442869    132.92782  0.031649482  0.032769755            2 
  351000    1.1876894   -7.2644127    133.48138  0.031690736  0.032762796            1 
  352000    1.1962659      -7.2416     134.3942  0.031816808  0.032755488            2 
  353000     1.197716    -7.236485    134.79639  0.031821622  0.032748354            2 
  354000    1.1883659   -7.2612441    134.72116   0.03171402  0.032740636            3 
  355000    1.1769576   -7.2538606    134.86184  0.031657709  0.032732606            2 
  356000    1.1978777   -7.3057275    135.15603  0.031637648  0.032725295            2 
  357000    1.1791781   -7.2864193    135.34125  0.031592261  0.032717413            2 
  358000    1.1893901   -7.2581861    136.67527  0.031814542   0.03271062            1 
  359000     1.206072   -7.2336398    136.50403  0.031686172  0.032703134            1 
  360000    1.1952375   -7.2795188    136.91565  0.031693436  0.032695188            4 
  361000    1.1921914   -7.2685051    137.16877  0.031664074  0.032687197            2 
  362000    1.1902933   -7.3007173     137.3414  0.031616345  0.032679465            1 
  363000    1.2022593   -7.2676756    138.07906   0.03169859  0.032671601            1 
  364000    1.1836414   -7.2388657    138.43551   0.03169311  0.032664247            2 
  365000    1.2027263   -7.2849312    138.26136   0.03156652  0.032656558            1 
  366000    1.2044363   -7.2636892    138.71778  0.031584194  0.032648182            2 
  367000    1.1848878   -7.2430658    139.85133  0.031755524  0.032639322            1 
  368000    1.2067243   -7.2334293    139.64737  0.031623046  0.032630251            3 
  369000    1.1859967   -7.2745002    139.93669  0.031602684  0.032622548            1 
  370000    1.2070978   -7.2376325    140.79531  0.031710656  0.032614167            1 
  371000    1.2066688   -7.2457603    140.54869  0.031569786  0.032605884            1 
  372000     1.186705   -7.2899085    140.40584  0.031452921  0.032596971            1 
  373000    1.2068636   -7.2719734    141.34527  0.031578478  0.032588642            1 
  374000    1.1596711   -7.2654608     141.8288  0.031601783  0.032579713            1 
  375000    1.2044591   -7.2248358    141.92529  0.031538954   0.03257037            1 
  376000    1.2199673   -7.2283872    142.28275  0.031534297  0.032561633            4 
  377000     1.203661    -7.238498    142.75965  0.031556067  0.032552697            1 
  378000    1.1765649   -7.2862468     143.1315  0.031554563   0.03254341            1 
  379000    1.1947915   -7.2793506    143.02811  0.031448573  0.032533986            5 
  380000    1.1954097   -7.3028836    143.57102  0.031484872  0.032525018            2 
  381000    1.1852833   -7.2598519    144.81263  0.031673804  0.032517265            2 
  382000    1.1836307   -7.2194825    144.69338  0.031564873  0.032509808       -1e+20 
  383000    1.1896097   -7.2488778    145.31575  0.031617875  0.032502388            2 
  384000    1.1794224   -7.2059215    145.57068  0.031590859  0.032494696            1 
  385000    1.1561715    -7.286745    145.45564  0.031483906  0.032487129            3 
  386000     1.203743   -7.2430747    146.15426  0.031553165  0.032478793            1 
  387000    1.1755045   -7.2314108    146.52158  0.031550728  0.032469869            1 
  388000    1.1626536   -7.2608064    146.40534  0.031444446   0.03246136            1 
  389000    1.2101028   -7.2722686    147.07068  0.031506145  0.032452645            2 
  390000    1.2100962   -7.2580595    147.70903  0.031561759  0.032444592            1 
  391000    1.1913663   -7.2694042    147.72879   0.03148525  0.032436231            3 
  392000    1.1840565    -7.275443    147.98086  0.031458517  0.032428241            2 
  393000    1.1702101   -7.2873789    148.66572   0.03152369  0.032420171            2 
  394000    1.1812221    -7.250134     149.3248  0.031583078  0.032412486            1 
  395000    1.1920676    -7.273485    149.05962  0.031447176  0.032404294            1 
  396000    1.1785711   -7.2628795    149.68714  0.031499818  0.032395681            2 
  397000    1.1967862   -7.2602593    150.19984  0.031528095  0.032387986       -1e+20 
  398000    1.1615193   -7.2524365    150.66405  0.031546075  0.032380059            2 
  399000    1.2044002   -7.2944389    150.52033  0.031436994  0.032372506            1 
  400000    1.1793725   -7.2668615    151.54473  0.031571819  0.032364402            3 
  401000    1.2006878    -7.178048    151.98688  0.031584971  0.032357099            1 
  402000    1.1808382   -7.2591279    152.14788  0.031539775  0.032350843            2 
  403000    1.1954672   -7.2396844    152.44208  0.031522349  0.032344111            2 
  404000    1.1821891   -7.2960368    152.75431  0.031508728   0.03233896       -1e+20 
  405000    1.1742432   -7.2678277    153.13454  0.031509164  0.032332255            1 
  406000    1.1915044   -7.2676846    153.69489  0.031546571  0.032325828            1 
  407000     1.177647    -7.261606    153.76736  0.031483898  0.032318432            4 
  408000    1.2064482   -7.2537994    154.54628  0.031565825  0.032311649            1 
  409000    1.2013753   -7.2886071    154.63075  0.031505857  0.032304683            2 
  410000    1.2052673   -7.2707689    155.35176  0.031575561  0.032297852            1 
  411000    1.1825374   -7.3034136    155.45697  0.031520066  0.032290467            1 
  412000    1.2134623   -7.2710308    155.10961  0.031373303  0.032283261            3 
  413000    1.1655547   -7.2500099    155.90127  0.031457076  0.032275116            1 
  414000    1.1864063   -7.2595736    156.29693  0.031460735  0.032267447            1 
  415000    1.1729979   -7.2798492    156.10795  0.031346977  0.032259206            1 
  416000    1.1910084   -7.2676695    156.48209  0.031346573  0.032249823            1 
  417000    1.1958569   -7.2633286    156.98284  0.031371471  0.032240319            3 
  418000     1.204811   -7.2530864    157.03306  0.031306432  0.032231462            1 
  419000    1.1812201   -7.2766202     157.2306  0.031271002  0.032222066            2 
  420000    1.1828284   -7.2385827    157.73602  0.031296829  0.032213098            1 
  421000    1.1807185   -7.2998041    158.08798  0.031292157  0.032203548            1 
  422000    1.1663082   -7.2755269    158.84182  0.031366867  0.032194997            2 
  423000    1.1772258   -7.2770175    159.22937  0.031369064  0.032186343            1 
  424000    1.1812229   -7.2249195    159.69616  0.031386824  0.032177827            4 
  425000    1.1654687   -7.2993978    158.80197  0.031137641  0.032169513            2 
  426000    1.1636157   -7.3094089    159.49818  0.031200739  0.032160672            2 
  427000    1.2025801   -7.2787282    159.97516  0.031220758  0.032152619            1 
  428000    1.1724993   -7.2799979    161.40411  0.031426033   0.03214472            1 
  429000    1.1741414   -7.2840326    161.61157  0.031393079  0.032138353            3 
  430000    1.1814973   -7.2776697    162.15357  0.031425111  0.032131709            2 
  431000    1.1784036   -7.2937193    162.29611  0.031379759  0.032124944            3 
  432000    1.1884747   -7.2770117    162.08259  0.031265933  0.032118051            1 
  433000    1.2027031   -7.2552052    162.80238  0.031332251  0.032111466            1 
  434000    1.1680428   -7.3060387    163.24722  0.031345473  0.032105112            2 
  435000    1.1926167   -7.3013949    163.62392  0.031345578  0.032098259            2 
  436000    1.1565997   -7.2445452    164.13381  0.031371142  0.032091379            2 
  437000    1.1780946   -7.2944966    164.14705  0.031301878  0.032084085            2 
  438000    1.1786466   -7.2577919    164.54839  0.031306771  0.032077162            2 
  439000     1.194234   -7.2401679    165.26233  0.031370982  0.032070539            1 
  440000    1.1632188    -7.268546    165.54738   0.03135367  0.032063384            2 
  441000    1.1535388   -7.2906794    165.62802  0.031297811  0.032055978            1 
  442000    1.1796193   -7.3238275    165.62185  0.031225839  0.032047958            1 
  443000    1.1958227   -7.3121869     165.9424   0.03121565  0.032040115            1 
  444000    1.1758927   -7.3073491    166.71999   0.03129129  0.032033039            3 
  445000    1.1648965   -7.3052841    166.45488  0.031171325  0.032025868            3 
  446000    1.1925258   -7.2894126    167.22579  0.031245476  0.032018073            2 
  447000    1.2063641   -7.2984867    167.74051  0.031271535  0.032009785            1 
  448000    1.1853633   -7.2745822    168.27139  0.031300482  0.032002381            3 
  449000    1.1808169   -7.2565275    168.13783  0.031205982  0.031994986            2 
  450000    1.2116197   -7.2814394    168.86558  0.031271403  0.031988035            2 
  451000    1.1808034   -7.3111699    168.50841   0.03113607  0.031980893            2 
  452000    1.1810692   -7.2581338    169.51044  0.031251924  0.031973592            2 
  453000    1.1705413   -7.3238934    169.43151  0.031168416  0.031966037            1 
  454000    1.1633643    -7.286521    170.06801  0.031216594  0.031957953            1 
  455000    1.1876217   -7.2827431    170.21712  0.031175297  0.031950655            1 
  456000    1.1429788   -7.2931474    170.64301   0.03118476   0.03194335            1 
  457000    1.1785704   -7.3138912    170.92432  0.031167819  0.031935716            2 
  458000    1.1820905   -7.2863274    171.60774  0.031224115  0.031927902            1 
  459000    1.1975153   -7.2641615    171.99627  0.031226628  0.031921149            3 
  460000    1.2102183   -7.3222681     172.2706  0.031208442  0.031914825            2 
  461000    1.1731858   -7.3203778    172.25606  0.031138117  0.031907486            3 
  462000    1.1890674   -7.2761566     172.7696  0.031163348  0.031899667            1 
  463000    1.1875134   -7.3070158    173.11546   0.03115829   0.03189276            2 
  464000    1.1532485   -7.2721984    173.40655  0.031143418  0.031885401            1 
  465000    1.1790379   -7.3095372    173.76184  0.031140115  0.031878396            2 
  466000    1.1962813   -7.2717686    174.24306  0.031159346  0.031871173            2 
  467000    1.1827216    -7.337453    174.88745  0.031207611  0.031864136            2 
  468000    1.2024525   -7.3598992    174.77456  0.031120827  0.031857154            1 
  469000    1.1750985   -7.3053491     175.3799   0.03116203  0.031850731            1 
  470000    1.1660508   -7.2669603    176.42175  0.031280453  0.031844095            1 
  471000    1.1852093   -7.3057155    176.29809   0.03119216  0.031838205            2 
  472000    1.1789492   -7.2559877    177.16586  0.031279283  0.031832649            1 
  473000    1.1601705   -7.2655529     177.8625  0.031335888  0.031826558            2 
  474000     1.169019   -7.3005811    177.04923  0.031126798  0.031820402            1 
  475000    1.1711943   -7.3056617    177.84911  0.031201598  0.031814771            1 
  476000    1.1510255   -7.3380273     178.3232  0.031219047  0.031809237            3 
  477000    1.1795927   -7.3352933    179.10984  0.031291028  0.031803317            2 
  478000    1.1488429   -7.3260788    178.77472   0.03116714  0.031797022            3 
  479000    1.2026984   -7.2571857    179.30503  0.031194333  0.031791028            3 
  480000    1.1936865   -7.3171311    179.84442  0.031222989  0.031785612            1 
  481000    1.1906883   -7.3098886    180.01935  0.031188384  0.031779452            3 
  482000     1.173572   -7.2647357    180.49066  0.031205162  0.031773356            1 
  483000    1.1729402   -7.3109061    180.53969  0.031149015  0.031766664            2 
  484000    1.1657673   -7.2833997    180.57646  0.031090988  0.031760274            3 
  485000    1.1915054   -7.2607853    182.11708  0.031291595  0.031754608            2 
  486000    1.1767725   -7.2606721    182.09323  0.031223119  0.031748731            2 
  487000    1.1752784   -7.3282065    182.09317  0.031158996  0.031743252            1 
  488000    1.1843857   -7.2990468    182.38963   0.03114577  0.031736745            1 
  489000    1.1787564   -7.2693604    182.45155   0.03109263  0.031730102            2 
  490000    1.1545775   -7.3436149    182.29539  0.031002618  0.031722827            2 
  491000     1.172283   -7.3218504     182.6679  0.031002698  0.031715605            1 
  492000    1.1514719    -7.326608    182.85604  0.030971551  0.031708124            2 
  493000    1.1599581   -7.3337436    183.66924  0.031046187  0.031701086            3 
  494000     1.170339    -7.333173    183.84519  0.031013021  0.031693969            1 
  495000    1.1562316   -7.3294207    183.53495   0.03089814  0.031686682            2 
  496000    1.1591104   -7.2990211    184.83651  0.031054522   0.03167928            3 
  497000     1.167269   -7.3051341    184.97109  0.031014603  0.031672116            3 
  498000    1.1929225   -7.2774453    185.42739   0.03102868  0.031665365            2 
  499000    1.1664283   -7.3029625    185.85427  0.031037787  0.031658745            2 
  500000    1.1483617   -7.3176163    186.91125  0.031151875   0.03165233            1 
  501000    1.1584325   -7.2898583    186.69952  0.031054477  0.031646263            2 
  502000    1.1911835     -7.34924    187.01515  0.031045011  0.031640436            2 
  503000    1.1578383   -7.3160675    187.30836  0.031031868  0.031634411            1 
  504000    1.1465651   -7.3278442    187.79734  0.031051147   0.03162797            4 
  505000    1.1613267   -7.3179353    187.98538  0.031020689  0.031622144            1 
  506000    1.1890448     -7.29188    188.59331  0.031059504  0.031617146            3 
  507000    1.1600027   -7.3167982    189.69249  0.031178911  0.031611491            3 
  508000    1.1591188   -7.2994405    189.65544  0.031111457  0.031605614            1 
  509000    1.1777352   -7.3221592    189.97499   0.03110265  0.031600252            1 
  510000    1.1694244   -7.3334493    190.30725  0.031095956  0.031594973            3 
  511000    1.1728784   -7.3108322    190.58708  0.031080737  0.031590634            1 
  512000    1.1718371   -7.3069857    191.12201  0.031107098  0.031585915            3 
  513000     1.178754   -7.3381766    191.22972  0.031063956  0.031581262            1 
  514000    1.1562808   -7.2771884    192.31519  0.031179505  0.031576629       -1e+20 
  515000     1.194072    -7.324338    191.47507  0.030983021  0.031572013            3 
  516000    1.1691081    -7.317967    192.47134  0.031083872  0.031566926            1 
  517000    1.1919379   -7.2684835    192.66897  0.031055604  0.031561414            2 
  518000    1.1751486   -7.2966565    193.11682  0.031067699  0.031555891            2 
  519000    1.1873148   -7.3041476    192.88624  0.030970815  0.031550553            2 
  520000    1.1831806    -7.261376    193.63076  0.031030571  0.031545188            2 
  521000    1.1678513   -7.3123275    194.27866  0.031074642  0.031539653            1 
  522000    1.1601732   -7.3209356    194.14892    0.0309944  0.031533816            6 
  523000    1.1629978   -7.3114881    194.54585  0.030998383  0.031528563            1 
  524000    1.1709924   -7.3188381    194.78685  0.030977552   0.03152311            1 
  525000     1.178183   -7.2977738    195.40443  0.031016576  0.031517757       -1e+20 
  526000    1.1478667   -7.2915573    195.65692   0.03099761  0.031512931            2 
  527000     1.172087    -7.296774    195.69963  0.030945546   0.03150683            1 
  528000      1.16835   -7.3148924    195.77697  0.030899142  0.031500573            2 
  529000    1.1575364    -7.296933    197.04726   0.03104084  0.031494839            1 
  530000    1.1701824   -7.3329294    196.33858  0.030870846  0.031489263            2 
  531000    1.1922147   -7.3256595    197.01359  0.030918642  0.031483203            2 
  532000    1.1805515   -7.3337359    197.25896   0.03089896  0.031477292            1 
  533000    1.1653235   -7.2796084    198.41073  0.031021064  0.031471268            3 
  534000    1.1795975   -7.3313722    197.71132  0.030853826  0.031464795            2 
  535000    1.1689337    -7.296198    198.12087  0.030859948  0.031458336            2 
  536000    1.1491835   -7.3442972    198.00291  0.030784034  0.031451748            1 
  537000    1.1802065   -7.3176228    198.62926  0.030823908  0.031444632            2 
  538000    1.1585785   -7.3378157     198.4808  0.030743618  0.031437568            1 
  539000    1.1441446   -7.3414466    199.10606   0.03078325  0.031430055            3 
  540000    1.1449545   -7.3569315    198.83104  0.030683803  0.031422441            2 
  541000    1.1662288   -7.3193164    199.58319  0.030742943  0.031414665            2 
  542000    1.1317137   -7.3143613    200.64112  0.030848881  0.031407169            3 
  543000    1.1507886   -7.3153173    200.49029  0.030768922  0.031400244            1 
  544000    1.1448185   -7.3192121    200.94579  0.030782136  0.031393351            1 
  545000    1.1792539   -7.2959062    200.99387  0.030733008  0.031385978            1 
  546000    1.1653505   -7.3188988    201.42265  0.030742163  0.031378854            3 
  547000    1.1746884   -7.2706868    202.72177  0.030883877  0.031371976            1 
  548000    1.1544626   -7.3074832    202.22148  0.030751441  0.031364972            2 
  549000    1.1626742   -7.3338976    203.12756  0.030832962  0.031358072            3 
  550000    1.1646054   -7.3270896    202.42172  0.030669958  0.031350674            1 
  551000    1.1635318   -7.3560331    202.32292  0.030599353  0.031342587            1 
  552000    1.1576551   -7.3539374    202.04341  0.030501723  0.031333796            1 
  553000    1.1668641   -7.3587816    202.68575  0.030543362  0.031325485            2 
  554000    1.1760684    -7.352518    203.56385  0.030620314  0.031316888            2 
  555000     1.151679   -7.3524229    203.21279   0.03051243  0.031308017            2 
  556000    1.1708847   -7.3418205    203.92981  0.030565019  0.031299245            1 
  557000    1.1350488   -7.3193255    204.48717  0.030593533   0.03129035            2 
  558000    1.1904015   -7.3350509    205.03641   0.03062073  0.031282473            3 
  559000    1.1503066   -7.3366954    204.76718  0.030525817  0.031274496            2 
  560000    1.1444218   -7.3369948    205.28366  0.030548163     0.031266            2 
  561000     1.177942   -7.3267586    205.20542  0.030482089  0.031257568            1 
  562000    1.1603226   -7.3151302    206.70184   0.03064974  0.031249683            2 
  563000    1.1825508   -7.3979621     205.3178  0.030390438  0.031241703            3 
  564000    1.1650894   -7.2765941    207.07263  0.030595838  0.031233592            1 
  565000    1.1603179   -7.3473191    207.52783  0.030608824  0.031225786            2 
  566000    1.1554261   -7.3111738    207.50175  0.030550905   0.03121838            2 
  567000    1.1365923   -7.3403006    208.16456  0.030594438  0.031210501            1 
  568000    1.1738323   -7.3310995    209.03305  0.030667995  0.031202515            5 
  569000    1.1567031   -7.3231628    209.29952  0.030653122  0.031195199            2 
  570000     1.136498   -7.3191171    209.38379  0.030611665  0.031187868            2 
  571000    1.1561972   -7.3712023    209.35856  0.030554372  0.031181455            2 
  572000    1.1655071   -7.3773955    208.95169   0.03044168  0.031174379            3 
  573000    1.1740705   -7.3063479    210.43527  0.030604315  0.031167644            3 
  574000    1.1523479   -7.3216091    211.16652   0.03065716  0.031160876            2 
  575000    1.1529674   -7.3597909    211.42392  0.030641148  0.031154194            3 
  576000    1.1588965    -7.341024    211.33959  0.030575751  0.031147105            1 
  577000    1.1673396   -7.3408578     211.3163  0.030519397  0.031139904            2 
  578000    1.1662436   -7.3653477    211.93579   0.03055591  0.031132415            2 
  579000    1.1572668   -7.3443719    211.74138  0.030475155  0.031125472            4 
  580000    1.1642054   -7.3411963    212.68114  0.030557636  0.031118665            2 
  581000    1.1457844   -7.3268224     212.4008  0.030464831  0.031111066            1 
  582000    1.1670233   -7.3657812    212.68819  0.030453636  0.031102933            2 
  583000    1.1634674   -7.3201978    213.46541  0.030512495  0.031095271            2 
  584000     1.170104   -7.3691696    213.33379  0.030441466   0.03108787            1 
  585000    1.1475649   -7.2894663    213.63502  0.030432339  0.031079882            3 
  586000    1.1591734   -7.3397939     213.6494  0.030382451  0.031071991            1 
  587000    1.1742933   -7.3501416    214.42705  0.030441092  0.031063786            2 
  588000    1.1546471   -7.3349674     214.6213  0.030416851  0.031055333            3 
  589000    1.1635012    -7.314472    214.39649  0.030333403  0.031047128            1 
  590000    1.1783909    -7.314107    214.52021  0.030299465  0.031038925            3 
  591000    1.1550682     -7.31101    215.52858  0.030390381   0.03103068            1 
  592000    1.1564034   -7.3637827    215.44477  0.030327249  0.031022188            1 
  593000     1.169358   -7.3392041    216.06375  0.030363091  0.031013561            3 
  594000    1.1551046   -7.3457179    216.70724   0.03040225  0.031004986            4 
  595000    1.1852549   -7.3396357    216.40162   0.03030835  0.030996163            1 
  596000    1.1900804   -7.3461602    217.42356  0.030400385  0.030987431            1 
  597000    1.1427301   -7.3490167    216.78407    0.0302602  0.030978423            2 
  598000    1.1433076   -7.3520024    217.46496  0.030304481  0.030969432            1 
  599000    1.1705315   -7.3503172    217.34139  0.030236698  0.030960644            4 
  600000    1.1734625   -7.3589652    218.04223  0.030283643   0.03095221            2 
  601000    1.1755147   -7.3833311    218.01685  0.030229735  0.030942984            2 
  602000    1.1405326   -7.3138021    217.64845  0.030128523  0.030933423            2 
  603000    1.1522434    -7.381713    218.00444  0.030127755  0.030923947            2 
  604000    1.1677402   -7.3912786    218.53822   0.03015152  0.030914083            2 
  605000    1.1574165   -7.3507469    218.89504  0.030150833  0.030904752            2 
  606000    1.1492166   -7.3401708    219.36677  0.030165948  0.030895953            1 
  607000    1.1543602   -7.3560137     219.6331  0.030152815  0.030887492            3 
  608000    1.1617625   -7.3357401    220.45494  0.030215864  0.030879061            1 
  609000    1.1623633   -7.3531464    221.40861  0.030296745  0.030870527            1 
  610000    1.1788346   -7.2942698    222.37558  0.030379177  0.030862423            1 
  611000    1.1556924   -7.3551049    221.48516  0.030208014  0.030854359            2 
  612000    1.1655454   -7.3806774    222.14173  0.030248057  0.030845858            2 
  613000    1.1557855   -7.3323977    221.98478  0.030177376  0.030837402            1 
  614000    1.1510051   -7.3502272    222.54893  0.030204795  0.030828762            2 
  615000    1.1435022   -7.3457155    222.62474  0.030165954  0.030820121            4 
  616000    1.1552372    -7.392355     222.0879  0.030044358  0.030811171            1 
  617000    1.1694481   -7.3539883    223.40092  0.030173004  0.030802441            1 
  618000    1.1599239   -7.3410791    223.26701  0.030106123  0.030793897            2 
  619000    1.1495887   -7.3266631    223.94091   0.03014821  0.030785593            2 
  620000    1.1592068   -7.3079603    225.31967  0.030284902  0.030777425            2 
  621000    1.1596007   -7.3899507    224.08252  0.030070119  0.030768975            3 
  622000    1.1555451   -7.3242614    225.53629  0.030216544  0.030760552            1 
  623000    1.1525794   -7.3417387    225.80616  0.030204142  0.030752742            3 
  624000    1.1182151   -7.3541789    225.36695  0.030097083  0.030744835            2 
  625000    1.1319252   -7.3421025    226.70244  0.030226992  0.030737399            1 
  626000    1.1670784   -7.3532448    226.33684  0.030130038  0.030730032            1 
  627000    1.1298042   -7.3628338    226.05609  0.030044669  0.030722404            2 
  628000    1.1539892   -7.3438575    227.15073  0.030142081  0.030714635            2 
  629000    1.1484264   -7.3621431    227.01349  0.030075979  0.030706608            1 
  630000     1.177151   -7.3718279    227.69011   0.03011774  0.030698679            1 
  631000    1.1598035    -7.351124    227.26367  0.030013691  0.030690552            2 
  632000    1.1527521   -7.3364339    228.42302   0.03011907  0.030682351            1 
  633000      1.16167   -7.3403467    228.30058  0.030055368  0.030674706            2 
  634000    1.1404289   -7.3457899     229.5483  0.030171964  0.030667003            4 
  635000    1.1838841   -7.3668025    229.32106  0.030094627    0.0306594            1 
  636000    1.1563431   -7.3289301     229.2835  0.030042387  0.030651619            2 
  637000    1.1534862    -7.325797    230.78264  0.030191345  0.030643935            1 
  638000    1.1292212   -7.3457427    230.09225  0.030053847  0.030636127            2 
  639000    1.1508485   -7.3805182    230.10713  0.030008755  0.030628175            1 
  640000     1.161066   -7.3335533    230.94759  0.030071301  0.030620933            2 
  641000    1.1475548   -7.3948973    231.88592  0.030146376  0.030613667            1 
  642000    1.1402299   -7.3728486    231.50757  0.030050307  0.030605989            2 
  643000    1.1402866   -7.3775909     231.7738  0.030038077  0.030598546            1 
  644000    1.1592365    -7.358687    232.06222  0.030028755  0.030590566            3 
  645000    1.1772722   -7.3120408    233.46369  0.030163267   0.03058297            1 
  646000    1.1562264   -7.3645654     233.7797  0.030157341  0.030575695            2 
  647000    1.1487589   -7.3459202    233.63111   0.03009159  0.030568065            2 
  648000    1.1780876   -7.3379047    234.01475  0.030094489  0.030560915            3 
  649000    1.1540436   -7.3941064    234.36813  0.030093493  0.030553394            2 
  650000    1.1681016   -7.3798787     234.5655    0.0300725  0.030546149            1 
  651000    1.1255264   -7.3153234    235.23463   0.03011196  0.030538861            1 
  652000    1.1165164   -7.4041784    233.95734  0.029902523  0.030531325            1 
  653000    1.1637779   -7.3056587    236.08704  0.030128514  0.030523697            6 
  654000    1.1472871   -7.3397863    235.53054  0.030011536   0.03051644            1 
  655000     1.165365    -7.325558    235.41218  0.029950659  0.030508781            1 
  656000    1.1334193   -7.3679893    235.71229  0.029943126  0.030500921       -1e+20 
  657000    1.1552653   -7.3762256    236.33726  0.029976821  0.030493378            2 
  658000    1.1510911   -7.3644956    237.56331  0.030086539    0.0304863            1 
  659000    1.1397347   -7.3648104    237.90773  0.030084437  0.030479141            2 
  660000    1.1334177   -7.3581468    237.95707  0.030045085  0.030472317            4 
  661000    1.1161081   -7.3604716    238.34143  0.030048087  0.030465053            2 
  662000    1.1526431   -7.3478987    238.38921  0.030008712  0.030458646            1 
  663000    1.1464089   -7.3166811    239.86169  0.030148528   0.03045241            3 
  664000    1.1687426   -7.3772819    239.73656   0.03008742  0.030446249            1 
  665000    1.1706139   -7.4075927      239.425  0.030003133  0.030440426            1 
  666000    1.1250532   -7.3565085    240.43522  0.030084487  0.030433966            3 
  667000    1.1213838    -7.356974    241.40169  0.030160131  0.030427937            1 
  668000    1.1168944   -7.3326672    241.98245  0.030187431  0.030422172            3 
  669000    1.1068662   -7.4102354    240.70606  0.029983315  0.030415827            1 
  670000    1.1351198   -7.3870102    241.39792  0.030024617  0.030409582            2 
  671000    1.1625786   -7.3759401    241.73158  0.030021309  0.030403367            1 
  672000    1.1612276   -7.3510606    242.36051  0.030054627  0.030397302            2 
  673000    1.1325019    -7.397513    242.99596  0.030088653   0.03039105            1 
  674000    1.1575513   -7.3291456    244.43728  0.030222216  0.030385052            1 
  675000    1.1712536   -7.3626304     243.3938  0.030048617  0.030379376            2 
  676000     1.144752   -7.3928615    243.35717  0.029999651  0.030373459            2 
  677000    1.1448093   -7.3903712    244.05652  0.030041423  0.030367909            1 
  678000    1.1401419   -7.3626371    244.22734   0.03001811  0.030362267            5 
  679000    1.1347783   -7.4024388    244.92165  0.030059112  0.030356886            3 
  680000    1.1523551   -7.3839894    245.53827  0.030090474  0.030351195            5 
  681000    1.1331309   -7.4158667    246.19283  0.030126386  0.030345833            1 
  682000     1.147965   -7.3993953    246.35573  0.030102118  0.030340663            3 
  683000    1.1360248   -7.3840859    246.96076  0.030131864  0.030335456            1 
  684000    1.1381971   -7.3950811    247.45866  0.030148473  0.030330815            1 
  685000    1.1302277   -7.3776487    247.14745    0.0300666  0.030326164            3 
  686000     1.142137   -7.3959893    247.35829  0.030048383  0.030321305            4 
  687000    1.1310869   -7.3934474    247.44488  0.030015148  0.030316276            2 
  688000     1.160673   -7.3556017    248.36523  0.030082997  0.030311263            4 
  689000    1.1206031   -7.4218913    248.40619   0.03004429  0.030305875            2 
  690000    1.1544917   -7.3707887    249.09277  0.030083668  0.030300803            3 
  691000     1.150647   -7.3957453    249.08212  0.030038847  0.030295451            3 
  692000    1.1396943   -7.3624373    249.19865  0.030009472  0.030289679            1 
  693000    1.1093511   -7.4061524    248.84547  0.029923698  0.030284003            1 
  694000    1.1428089   -7.3693861    250.30362   0.03005567  0.030278118            3 
  695000    1.1658233   -7.3769447    250.18956  0.029998748  0.030272026            2 
  696000     1.153023   -7.4037948    249.70119  0.029897174   0.03026541            2 
  697000    1.1615328   -7.4097043    249.58134   0.02983995  0.030259118            2 
  698000    1.1421272   -7.4053445    249.51064  0.029788759   0.03025242            2 
  699000     1.138289   -7.3484287    251.40669  0.029972185  0.030245951            1 
  700000    1.1366123   -7.3953844    250.52343  0.029824218  0.030239347            3 
  701000    1.1399324   -7.4278223    250.72995  0.029806224  0.030232216            1 
  702000    1.1319381    -7.380093    250.71611  0.029762121  0.030225209            2 
  703000    1.1371613   -7.3904805    251.34544  0.029794385    0.0302184            3 
  704000    1.1489144   -7.3972806    251.75655  0.029800728  0.030211769            1 
  705000    1.1471462   -7.3768099    252.18045  0.029808564  0.030205407            3 
  706000    1.1235607   -7.4174917    251.71309  0.029711177  0.030198669            2 
  707000    1.1459575   -7.3608759    252.77529  0.029794352  0.030192287            3 
  708000    1.1401348   -7.3428886    253.74766  0.029866721  0.030186349            2 
  709000    1.1275441   -7.4183228    253.40689  0.029784543  0.030179847            1 
  710000    1.1204466   -7.3973161    252.59549  0.029647358   0.03017263            2 
  711000    1.1126557    -7.347923    254.79633  0.029863611  0.030165466            1 
  712000    1.1224752   -7.3820078    254.77619   0.02981931  0.030158328            1 
  713000    1.1524159   -7.3537289    254.34563  0.029727165  0.030151264            2 
  714000    1.1496348   -7.4121455    253.75098  0.029616128   0.03014411            1 
  715000    1.1379976   -7.3561652    255.42758  0.029770114  0.030137197            1 
  716000    1.1697923   -7.3990613    255.20882  0.029703075  0.030130355            1 
  717000     1.146066   -7.4043932    255.90475  0.029742532  0.030123049            1 
  718000     1.175008   -7.4046328    255.06698  0.029603875  0.030115789            2 
  719000    1.1641882   -7.3831059    255.87914  0.029656831  0.030108408            2 
  720000    1.1380383    -7.367225    256.45785  0.029682621  0.030101214            2 
  721000     1.119084    -7.399438    256.28993  0.029622045  0.030093925            1 
  722000    1.1440513   -7.4388943    255.91336  0.029537553  0.030086458            1 
  723000    1.1270335   -7.3845092    257.23526  0.029649062  0.030078876            2 
  724000    1.1347195   -7.4071425    257.40656  0.029627827  0.030071487            2 
  725000    1.1689823   -7.4593253    257.05703  0.029546786   0.03006355            2 
  726000    1.1297929   -7.4257598    256.93448  0.029492021   0.03005569            2 
  727000     1.127616   -7.3762659    257.52525  0.029519171  0.030048307            2 
  728000    1.1394981   -7.4149402     258.1671  0.029552095  0.030040769            5 
  729000    1.1511731    -7.425692    258.14576  0.029509118  0.030032908            4 
  730000    1.1233225   -7.3993237    257.94781  0.029446097  0.030024809            1 
  731000    1.1468213    -7.390931     258.5596  0.029475559  0.030016702            3 
  732000    1.1211898   -7.3408115    259.47967  0.029540035  0.030008919            3 
  733000    1.1362188   -7.4560045    259.12878  0.029459843    0.0300011            2 
  734000    1.1236713   -7.4058788    258.54498  0.029353426   0.02999266            1 
  735000    1.1343546   -7.4475278    259.50942  0.029422837  0.029984462            4 
  736000    1.1270289   -7.4353508    260.11873  0.029451849  0.029976273            2 
  737000    1.1338897    -7.391728     261.2494  0.029539734  0.029968226            1 
  738000    1.1495127   -7.3608282    261.68566  0.029548967  0.029960542            2 
  739000     1.136324   -7.4122487    260.90205  0.029420619  0.029952916            2 
  740000    1.1236015    -7.406801    261.86588  0.029489401  0.029944809            1 
  741000    1.1025378   -7.4410597    260.97757  0.029349704  0.029936534            2 
  742000    1.1559291   -7.4567951     260.9571   0.02930785  0.029928353            3 
  743000    1.1348934   -7.3506781    263.36454  0.029538419  0.029920622            4 
  744000    1.1303457    -7.409847    261.88576  0.029333083  0.029912926            1 
  745000    1.1221513   -7.4198039    263.20785  0.029441594  0.029904725            2 
  746000    1.1504911   -7.3955965    263.31315  0.029413891  0.029896903            3 
  747000    1.1332983    -7.400603    262.65227  0.029300788  0.029889281            3 
  748000    1.1386195   -7.4024252    263.33133   0.02933727  0.029881149            2 
  749000    1.1156128    -7.395883    264.30171  0.029406064  0.029873093            1 
  750000    1.1217188   -7.3735398    264.50397   0.02938933  0.029865465            1 
  751000    1.1358999   -7.4015486    264.64553  0.029365904  0.029857551            2 
  752000    1.1300352   -7.4211388    264.58433  0.029320073  0.029849451            2 
  753000    1.1063728    -7.416781    264.79793  0.029304773  0.029841397            5 
  754000    1.1296999   -7.3938291    265.20843  0.029311276  0.029833495            1 
  755000     1.136174   -7.4154365    265.39767  0.029293341   0.02982584            2 
  756000    1.1315407   -7.3719125    265.73154  0.029291396    0.0298179            2 
  757000    1.1282564   -7.4270412    266.19295  0.029303495  0.029810108            1 
  758000     1.135801   -7.4151856    266.52331  0.029301156  0.029802047            3 
  759000    1.1541461   -7.4117924    266.84136   0.02929747  0.029794279            2 
  760000    1.1128299    -7.424922    266.79323  0.029253643  0.029786489            2 
  761000    1.1324303   -7.4284939    267.17388  0.029256886  0.029778339            2 
  762000    1.1356276   -7.3944365    267.89698  0.029297569  0.029769914            1 
  763000    1.1127001   -7.3900626    267.69926  0.029237577   0.02976193            1 
  764000     1.137219   -7.3696448    268.50038  0.029286691  0.029754136            1 
  765000    1.1413971   -7.4241489    267.86785  0.029179504  0.029746157            1 
  766000    1.1268087   -7.4177813    268.63187  0.029224529   0.02973816            2 
  767000      1.11412   -7.4026723    268.87673   0.02921303  0.029730052            3 
  768000    1.1486717   -7.3813239    268.38024   0.02912112  0.029721643            2 
  769000    1.1385277   -7.4115361     269.1616  0.029167924  0.029713296            2 
  770000    1.1224062   -7.3920351    270.04464   0.02922561  0.029705029            3 
  771000    1.1563445   -7.4141888    270.19488  0.029203943  0.029696775            4 
  772000    1.1185534   -7.4114869    270.02685  0.029147976  0.029688716            2 
  773000    1.1239547   -7.4164163    270.14583  0.029123095  0.029680567            1 
  774000    1.1428233   -7.4422523    270.72566  0.029147896  0.029672273            2 
  775000    1.1292328   -7.4199158    271.68685   0.02921364  0.029664477            1 
  776000    1.1133298   -7.4358054    271.46518  0.029152189  0.029656768            2 
  777000    1.1499456   -7.3827205    272.89765  0.029268302   0.02964911            2 
  778000    1.1132993   -7.3699399    273.38072  0.029282425  0.029641715            2 
  779000     1.123081   -7.4094568    273.73503  0.029282738  0.029634567            5 
  780000    1.1223104   -7.4109272    273.78931  0.029250994  0.029627029            1 
  781000    1.1041371     -7.37922    274.10101    0.0292468  0.029619739            1 
  782000    1.1258842   -7.4442677    273.97477  0.029195947  0.029612733            2 
  783000    1.1149358   -7.4332431    274.48345  0.029212798  0.029605659            3 
  784000    1.1189591   -7.4605664    274.39325   0.02916595  0.029597835            1 
  785000    1.1090334   -7.4104472    273.92762  0.029079366  0.029590092            1 
  786000     1.148453   -7.4130864    275.02153  0.029158347  0.029582464            2 
  787000    1.1352777   -7.4736202    274.13191  0.029027098  0.029574725            2 
  788000    1.0981103   -7.4023517    275.40015  0.029124381  0.029567072            2 
  789000    1.1264263   -7.4340413    275.89694  0.029139938  0.029559296            1 
  790000    1.1266621    -7.409672    275.89121  0.029102448  0.029551958            1 
  791000    1.1404192    -7.380751    276.79742  0.029161127  0.029544706            2 
  792000    1.1386785   -7.4304019    276.86431  0.029131345  0.029537207            1 
  793000    1.1301602   -7.4120483    277.33842  0.029144432  0.029529756            4 
  794000    1.1009856   -7.3922181    277.96285  0.029173263  0.029522552            1 
  795000    1.1268145   -7.3866688    278.21647  0.029163152  0.029515331            4 
  796000    1.1486707    -7.425106    277.87218  0.029090471  0.029507696            2 
  797000    1.1318037   -7.4556182    277.51873  0.029017015  0.029499922            2 
  798000    1.1164578   -7.4167693    278.80963  0.029115459  0.029492468            3 
  799000    1.1085959   -7.4237452     279.2179    0.0291216  0.029485102            1 
  800000    1.1207052   -7.4264022    279.47786  0.029112277  0.029477933            3 
  801000    1.1335899   -7.3928552    280.61184  0.029193907  0.029471001            2 
  802000    1.1164231   -7.4172025    280.18747  0.029113411  0.029464257            3 
  803000    1.1239161   -7.4609258    279.75922  0.029032713  0.029457183            1 
  804000    1.1158719   -7.4222736     280.6049  0.029084256   0.02945019            1 
  805000    1.1352776   -7.4606795    280.42514  0.029029517  0.029443083            2 
  806000    1.1146787   -7.3963111    280.86794  0.029039283   0.02943574            2 
  807000    1.1518995   -7.4001865    282.33131  0.029154411  0.029428612            1 
  808000    1.1137728    -7.431562    280.72423  0.028952582  0.029421119            2 
  809000    1.1137897   -7.4248924    282.21794  0.029070657  0.029413623            1 
  810000    1.1074794   -7.4214333     281.9897  0.029011286  0.029406511            3 
  811000    1.1352271     -7.45686    281.40756  0.028915696  0.029399238            2 
  812000    1.1127456   -7.4591994      282.264   0.02896798  0.029391793            4 
  813000    1.1762947   -7.4558319    283.14385  0.029022535   0.02938448            2 
  814000     1.130406   -7.4508431    284.19378  0.029094367  0.029377573            2 
  815000    1.1154021   -7.4420297    283.84456  0.029022961   0.02937105            1 
  816000    1.1165736   -7.4500515    284.34785  0.029038791  0.029364768            1 
  817000    1.1040696   -7.4568679    284.42852  0.029011477  0.029358206            3 
  818000    1.0957518   -7.4527471    284.69317  0.029002972  0.029351299            2 
  819000    1.1391979   -7.4614523    285.15693  0.029014747  0.029344284            3 
  820000    1.1164408   -7.3917038    285.76561  0.029041221  0.029337198            4 
  821000     1.095262   -7.4348591    284.91077   0.02891908  0.029330071            2 
  822000    1.1675941   -7.4415967    284.71241  0.028863788  0.029323015            2 
  823000     1.097632   -7.4072793    286.09576  0.028968789  0.029315514            1 
  824000    1.1244096   -7.4119772    285.98675  0.028922609  0.029308238            2 
  825000    1.1070896   -7.4688828    285.64133   0.02885266  0.029300482            2 
  826000    1.1347997   -7.4404413    286.37944  0.028892195  0.029292691            1 
  827000    1.1139486   -7.4012333    287.72372  0.028992716  0.029285217            4 
  828000    1.1278035   -7.4269038    287.62053  0.028947316  0.029278099            1 
  829000    1.1313183   -7.4686229    287.29844  0.028880021  0.029270921            3 
  830000    1.1224256   -7.4348656    287.57259   0.02887275  0.029263874            2 
  831000    1.1540393   -7.4287275    288.43979  0.028924969  0.029256907            5 
  832000    1.1152552   -7.4355391    288.95651  0.028941959  0.029250042            2 
  833000    1.1177516   -7.4370002    288.74705  0.028886259  0.029243322            2 
  834000    1.1321892   -7.4267335    289.66264   0.02894311  0.029236362            1 
  835000    1.1346667   -7.4431115     289.0544  0.028847745  0.029229434            1 
  836000    1.1277908   -7.4621256    289.34284   0.02884199   0.02922232            3 
  837000    1.1275172   -7.4443108    290.93288  0.028965838   0.02921538            1 
  838000    1.1299214   -7.4657086    290.34862  0.028873172  0.029208747            4 
  839000    1.1125713   -7.4317541    290.73492  0.028877128  0.029201824            2 
  840000    1.1115497   -7.4238357    291.12764   0.02888171  0.029194816            1 
  841000    1.1291787   -7.4176448    291.32308  0.028866734  0.029188111            4 
  842000    1.1011663   -7.4339019    291.40753  0.028840809  0.029181404            1 
  843000    1.1050379   -7.4487626    291.07394   0.02877362  0.029174085            3 
  844000    1.1026159   -7.4689301    291.24927  0.028756839  0.029166819            1 
  845000    1.1124789   -7.4544537    291.93428  0.028790363  0.029159588            1 
  846000    1.1352544   -7.3814835    292.69571  0.028831335  0.029152459            2 
  847000    1.1330235    -7.438814    292.17283  0.028745851  0.029145058            2 
  848000    1.0966249   -7.4505242     291.9491  0.028689967  0.029137717            2 
  849000    1.1251911   -7.4265373    293.16304  0.028775328  0.029130216            2 
  850000    1.1310174   -7.4472305    292.90296  0.028715977  0.029122678            1 
  851000    1.1328367   -7.4432295    294.33079  0.028822052  0.029115197            1 
  852000    1.1291556    -7.440057    293.73231  0.028729686  0.029108052            2 
  853000    1.1116774   -7.4505185     294.3847   0.02875974  0.029100863            2 
  854000     1.130963   -7.3829753    295.88024  0.028871999  0.029093489            1 
  855000    1.1300464   -7.4390337    294.40532  0.028694476  0.029086436            2 
  856000     1.108929   -7.4583075    295.37725  0.028755573  0.029079132            1 
  857000    1.1178408   -7.4251126    294.17635  0.028605246  0.029071976            2 
  858000    1.1258732   -7.4487753    295.58225  0.028708455  0.029064839            1 
  859000    1.1349244    -7.413959    296.05631  0.028721023  0.029057563            4 
  860000    1.0978304    -7.498813    295.12465   0.02859735  0.029050276            2 
  861000    1.1259857   -7.4467149    296.75871  0.028722291  0.029042693            1 
  862000    1.1312777   -7.4405636    296.89215  0.028701871  0.029035533            2 
  863000    1.1134088   -7.4599967    297.61197   0.02873812  0.029028489            2 
  864000    1.1144622    -7.416005    297.78546  0.028721591  0.029021703            2 
  865000    1.1048695   -7.3976201     299.3754   0.02884156  0.029014959            3 
  866000    1.1117251   -7.5015419    297.82761  0.028659316  0.029007994            2 
  867000    1.1051943    -7.459377     298.9056  0.028729874  0.029001171            5 
  868000    1.1005672   -7.4906376    299.01751  0.028707518  0.028994218            1 
  869000    1.1134826   -7.4534041    299.28787   0.02870041  0.028987371            2 
  870000    1.1250633   -7.4382539    299.77597  0.028714173  0.028980432            3 
  871000    1.1030579   -7.4420551    299.52474   0.02865717  0.028973488            3 
  872000    1.1394914   -7.4616838    299.92996  0.028663031  0.028966367            2 
  873000    1.1094904   -7.4425591    299.51978  0.028591044  0.028959251            4 
  874000    1.0972764   -7.4313785    300.28325  0.028631126  0.028952213            2 
  875000    1.1217304    -7.476455    301.06006  0.028672386  0.028945016            5 
  876000    1.1051622   -7.4242295     302.0294  0.028731868  0.028938131            2 
  877000    1.1007341   -7.4678292    300.66112  0.028569091  0.028931184            2 
  878000    1.1206838   -7.4741594    301.00731   0.02856941  0.028924273            2 
  879000    1.1043015   -7.4676998    300.43974    0.0284831  0.028916878            3 
  880000     1.109633   -7.4320039    301.39178  0.028540888  0.028909379            2 
  881000    1.1132988   -7.4079282    302.13103  0.028578417  0.028901776            2 
  882000    1.1009819   -7.5010262    300.57388  0.028398892  0.028894055            2 
  883000    1.1042454   -7.4504596    301.82136  0.028484462  0.028885875            2 
  884000    1.0963087   -7.4580157     302.2317  0.028490922  0.028878094            2 
  885000    1.1105455   -7.4282389    302.35637  0.028470468   0.02887035            5 
  886000    1.1096638   -7.4048294    302.76175  0.028476462  0.028862999            3 
  887000    1.0970327   -7.4430736    303.29565  0.028494518  0.028855583            2 
  888000    1.1057425   -7.4481698    303.84189  0.028513691     0.028848            2 
  889000    1.1186204   -7.4442196    304.67846  0.028560036   0.02884056            2 
  890000    1.1177463   -7.4551922    303.61165  0.028428057  0.028833137            1 
  891000    1.0869691   -7.4500877    304.23425  0.028454382  0.028825501            3 
  892000    1.0882077   -7.5064945    303.23767  0.028329379  0.028817828            3 
  893000    1.1275896    -7.489698    304.73143  0.028437051  0.028810139            1 
  894000    1.1153571   -7.4628975    304.36811  0.028371375  0.028802399            3 
  895000    1.1150729    -7.452845    305.07099   0.02840512  0.028794794            2 
  896000    1.0829891   -7.4415155    306.37913  0.028495082  0.028787128            2 
  897000    1.1036751   -7.4449593    305.48401  0.028380157  0.028779528            1 
  898000    1.0927482    -7.427987    305.90426  0.028387552  0.028771972            1 
  899000    1.1098748   -7.4779462    306.33216  0.028395639  0.028764586            1 
  900000    1.1425844    -7.426078    307.58567  0.028480154  0.028757003            2 
  901000    1.0900937   -7.4656526    307.19028  0.028411975  0.028749759            1 
  902000    1.1104016   -7.4495669    306.92439  0.028355912  0.028742183            5 
  903000    1.0738275   -7.4732998    307.04474  0.028335616   0.02873426            2 
  904000    1.1218294   -7.4960692     306.0305  0.028210776  0.028726498            1 
  905000    1.1171159   -7.4646298    306.16825  0.028192289  0.028718615            2 
  906000    1.0965594   -7.3996568    307.49646  0.028283338  0.028710478            3 
  907000     1.104143   -7.4403993    307.97759  0.028296361  0.028702386            1 
  908000    1.1227692   -7.4036587    308.61771  0.028323946  0.028694083            3 
  909000    1.0822598   -7.4281537    308.04433  0.028240221  0.028686062            2 
  910000    1.0865677   -7.4897414    307.08403  0.028121248  0.028677569            1 
  911000    1.0986022   -7.4366094    308.38388  0.028209283   0.02866939            1 
  912000    1.1177554   -7.4300559    309.16373   0.02824961  0.028661237            2 
  913000    1.0840007   -7.4502459    308.24273  0.028134605  0.028653037            3 
  914000    1.1014307    -7.503545    308.51093  0.028128276  0.028644727            2 
  915000    1.1053448     -7.47595    308.64629  0.028109863  0.028636291            2 
  916000    1.1106997   -7.4489665    309.58486  0.028164562  0.028627936            1 
  917000    1.1256238   -7.4986504    308.90893  0.028072422  0.028619562            2 
  918000    1.1310068   -7.5085846    310.34202  0.028171934  0.028611117            1 
  919000    1.1059413   -7.4626413    309.88401  0.028099747   0.02860256            1 
  920000    1.0916412   -7.4451674    310.53582  0.028128245  0.028593952            4 
  921000    1.0991801   -7.4791073    309.48604  0.028002718   0.02858537            2 
  922000    1.1128861   -7.4999706    309.26139  0.027952041  0.028576678            5 
  923000    1.0998379   -7.4878574    310.78479  0.028059298  0.028567683            3 
  924000    1.0979507   -7.4709641    310.89135  0.028038542  0.028558937            4 
  925000    1.1057318   -7.4568753    311.54506  0.028067122  0.028550312            1 
  926000    1.0791217   -7.4796703    311.75483   0.02805569  0.028541693            3 
  927000    1.1081195   -7.4375182    312.50381  0.028092755   0.02853331            3 
  928000    1.1007132   -7.4824722    312.77354  0.028086704  0.028524742            1 
  929000    1.1382586   -7.4443849    312.08216  0.027994453  0.028516302            1 
  930000    1.1014112   -7.4631683    313.08032  0.028053792  0.028508149            3 
  931000    1.0718697   -7.4744944    312.42754  0.027965229  0.028499807            3 
  932000    1.1152904   -7.4786442    312.99936  0.027986352   0.02849142            1 
  933000    1.1149406   -7.4936664    313.94169  0.028040522  0.028482735            1 
  934000    1.1118561   -7.5065801    313.57262  0.027977572  0.028474154            4 
  935000    1.1217332   -7.5159059    313.91976  0.027978589  0.028465598            1 
  936000    1.1176236    -7.445507    314.92613  0.028038295   0.02845724            2 
  937000    1.1294356   -7.4762915    315.02086  0.028016797  0.028448663            3 
  938000    1.0891229    -7.455621     314.3761  0.027929646  0.028440103            2 
  939000    1.0917302   -7.4665226    314.20333   0.02788457  0.028431763            2 
  940000    1.0725644    -7.492244    315.19289  0.027942632  0.028423116            2 
  941000    1.1331962   -7.4531073    315.95899  0.027980782   0.02841467            2 
  942000    1.1037578    -7.455835    315.59951  0.027919277   0.02840637            2 
  943000    1.1002689   -7.4600822    316.87498  0.028002384  0.028398175            1 
  944000    1.1058256   -7.4889621    315.47745  0.027849351  0.028389999            1 
  945000    1.0794854   -7.4691229    316.35416  0.027897192  0.028381709            2 
  946000    1.0933348   -7.4697323    316.00881  0.027837281  0.028373334            1 
  947000    1.0863974   -7.4351885    316.98314  0.027893624  0.028364839            2 
  948000    1.0972028   -7.5035365    317.22481  0.027885444  0.028356455            1 
  949000    1.0741648   -7.4757816    316.85258  0.027823374  0.028347762            2 
  950000    1.1098932   -7.4944096    316.99876  0.027806908  0.028338918            1 
  951000     1.079281   -7.5117328    317.22178  0.027797212  0.028330243            1 
  952000    1.0958683   -7.4657807    317.90698  0.027827992  0.028321803            2 
  953000    1.1144696    -7.508022    319.01534   0.02789571   0.02831349            1 
  954000    1.0737792   -7.4558824    318.72184  0.027840832  0.028304995            2 
  955000    1.1021153   -7.5173396    319.43899  0.027874257  0.028296448            1 
  956000    1.1059622   -7.5263382    318.18892  0.027736133  0.028287904            4 
  957000    1.1227319   -7.5062383      320.233  0.027885145  0.028279114            2 
  958000    1.1028756   -7.4816818    319.67531  0.027807525  0.028270443            2 
  959000    1.0948208   -7.4855115    319.86325   0.02779486  0.028261723            2 
  960000    1.1015615    -7.552212    319.35903  0.027722138  0.028252828            2 
  961000    1.1133794   -7.4801607    320.27597  0.027772803  0.028243838            1 
  962000    1.0905898   -7.5103242     319.5595  0.027681869  0.028235002            2 
  963000    1.1161181    -7.494797    320.01895  0.027692883  0.028226272            1 
  964000    1.0889742   -7.4648745    320.44308  0.027700819  0.028217707            6 
  965000    1.1027527   -7.5080494    320.20761   0.02765178  0.028209116            2 
  966000    1.1194698   -7.4572106    321.47209  0.027732237  0.028200361            2 
  967000    1.1059496   -7.5026569    322.13592  0.027760766   0.02819197            1 
  968000    1.1014924   -7.4734459    323.67634  0.027864698  0.028183475            2 
  969000    1.0711318   -7.4935806    321.49479  0.027648331  0.028175041            3 
  970000    1.0843523   -7.4766512    322.78085  0.027730314  0.028166541            1 
  971000    1.0951955   -7.4506959    324.19064  0.027822746  0.028158282            3 
  972000    1.0949451   -7.4807457    322.97017  0.027689486  0.028149853            3 
  973000    1.0857955   -7.5185185    322.89772  0.027654823  0.028141384            1 
  974000    1.0865242   -7.5154648    324.42658  0.027757237  0.028133133            2 
  975000    1.0847262   -7.5058664    322.99011  0.027605992  0.028124721            4 
  976000    1.0946906   -7.5230239     324.0984  0.027672336  0.028116402            1 
  977000    1.0702711   -7.4765863    325.11275  0.027730531  0.028108006            1 
  978000    1.0977755    -7.464873    325.36992   0.02772409  0.028099711            2 
  979000     1.119508   -7.5173401    325.62315  0.027717327  0.028091373            1 
  980000    1.1296091   -7.5019356     325.2629   0.02765841  0.028083106            4 
  981000    1.0945099   -7.5286268    324.87952  0.027597649   0.02807487            2 
  982000    1.0773903   -7.5150046    325.64505  0.027634508  0.028066574            4 
  983000    1.0952565   -7.4776628    325.94599  0.027631908  0.028058224            1 
  984000    1.0880895   -7.5043768    325.46589  0.027563168  0.028049782            1 
  985000     1.078495   -7.5038789    326.06457  0.027585835  0.028041249            1 
  986000    1.1032815    -7.451089    328.06506  0.027726932  0.028032843            1 
  987000    1.1000764   -7.4931143    326.54821  0.027570771  0.028024567            1 
  988000    1.1145986   -7.5398798     326.7607  0.027560788  0.028016162            3 
  989000     1.098284   -7.4809757    327.41347  0.027587923  0.028007931            2 
  990000    1.0909436   -7.4874596    328.40941  0.027643889  0.027999593            3 
  991000    1.0975487   -7.4856678    327.37327  0.027528866  0.027991516            1 
  992000    1.1181681   -7.4841096    327.74775  0.027532573  0.027982982            2 
  993000    1.1156904   -7.4697295    328.57055  0.027573896  0.027974647            2 
  994000    1.1031175   -7.5409101     328.7044  0.027557377  0.027966363            1 
  995000    1.0908785   -7.5077738    328.91318  0.027547168  0.027958117            1 
  996000    1.0850176   -7.4875921    329.46853  0.027565974  0.027949641            3 
  997000    1.0821908   -7.5150901    328.79496  0.027482026  0.027941306            1 
  998000    1.0993223   -7.5105926    329.16911   0.02748573   0.02793306            3 
  999000    1.0799303   -7.5308829    329.35738  0.027473922  0.027924493            2 
 1000000    1.1102865   -7.4891169    329.23899  0.027436582  0.027915968            2 
 1001000    1.1018655   -7.4873016    331.59842  0.027605596  0.027907635            9 
 1002000    1.1122532   -7.5072601    331.16126  0.027541688  0.027899612            2 
 1003000    1.1085315   -7.4516054    331.36578  0.027531221  0.027891602            2 
 1004000    1.0929954   -7.4594713    331.65144   0.02752751  0.027883308            2 
 1005000    1.0904394   -7.5052619    331.10578  0.027454874  0.027875142            2 
 1006000    1.0834669   -7.5033281    331.10444  0.027427472  0.027867015            3 
 1007000    1.0737569   -7.5081857    332.26172  0.027496004  0.027858957            2 
 1008000    1.0892051   -7.4996202    332.71634  0.027506311  0.027850762            1 
 1009000    1.0885663   -7.5354042    331.83376  0.027406158  0.027842369            1 
 1010000    1.1012943   -7.5567497    332.49859  0.027433877  0.027833885            2 
 1011000    1.1005969   -7.5486482    332.52093  0.027408583  0.027825383            4 
 1012000    1.0904334   -7.5360311    332.23595  0.027358033  0.027817055            1 
 1013000    1.0824187   -7.5355452    332.49897  0.027352663  0.027808613            2 
 1014000    1.0528982   -7.5350203    333.38497  0.027398502  0.027800164            1 
 1015000    1.0970891   -7.5457491     333.3484  0.027368506   0.02779181            2 
 1016000    1.0921112     -7.54104    333.76704  0.027375906   0.02778328            1 
 1017000    1.0907237   -7.4934392     333.5543  0.027331555  0.027774527            3 
 1018000    1.0761299   -7.5161565    334.31111  0.027366659  0.027766035            1 
 1019000    1.0974376    -7.514246    334.75225  0.027375879  0.027757837            1 
 1020000     1.069713    -7.546906    334.25151   0.02730813  0.027749428            1 
 1021000    1.0876144   -7.5211443    334.17984  0.027275534  0.027740997            1 
 1022000    1.0792092    -7.540995    333.99267  0.027233584  0.027732449            2 
 1023000    1.0768795   -7.5224524    335.28756  0.027312443  0.027724186            1 
 1024000    1.1077723    -7.524558    335.79499  0.027327066  0.027715896            1 
 1025000    1.0811511   -7.5338183    335.59892  0.027284465  0.027707551            2 
 1026000    1.0938735   -7.4963557    336.68371   0.02734598  0.027699377            3 
 1027000    1.1266464   -7.5015541    336.68702  0.027319622  0.027691272            4 
 1028000    1.0888187   -7.5600589    336.67225  0.027291849  0.027682914            1 
 1029000    1.1305668   -7.4956952    336.82664   0.02727783  0.027674694            2 
 1030000    1.0666666   -7.5363629     335.9924  0.027183851  0.027666563            2 
 1031000    1.0871326   -7.5587013    337.22293  0.027256945  0.027658329            1 
 1032000    1.0840447   -7.4993658    337.95757  0.027289855  0.027649729            4 
 1033000    1.0864499   -7.5475388    337.40099  0.027218538  0.027641357            2 
 1034000     1.104269   -7.4786091    338.08489  0.027247332  0.027633113            3 
 1035000    1.0934274   -7.5373283    338.36668  0.027243694  0.027624798            2 
 1036000    1.0869358   -7.5260238    337.78585  0.027170677  0.027616348            1 
 1037000    1.0869193   -7.5012642    339.16453  0.027255266  0.027608086            3 
 1038000    1.0830726   -7.5650313    338.38909  0.027166754  0.027599898            2 
 1039000    1.1063519   -7.5109828    338.72967  0.027167923  0.027591729            2 
 1040000    1.0921789   -7.5141193    339.24469  0.027183068  0.027583433            2 
 1041000    1.0925768    -7.526154    338.78205  0.027119921  0.027575373            3 
 1042000     1.075403   -7.5062751    339.69031  0.027166531  0.027566967            2 
 1043000    1.0818357   -7.5175735    340.91928  0.027238677  0.027558729            4 
 1044000     1.111802     -7.53992    340.11333  0.027148254  0.027550496            2 
 1045000    1.0755855   -7.5027765     340.6979  0.027168892  0.027542293            4 
 1046000    1.0804157   -7.5180752    340.61596  0.027136389  0.027534114            3 
 1047000    1.0996678   -7.4907598    341.56739  0.027186198   0.02752589            1 
 1048000     1.091458   -7.5501843    340.79507  0.027098845  0.027517793            1 
 1049000    1.0674997   -7.5230403    341.85954  0.027157574  0.027509599            1 
 1050000    1.1040661    -7.507762    341.70057  0.027119093  0.027501598            2 
 1051000    1.0917038    -7.526511    342.00684  0.027117573  0.027493455            1 
 1052000    1.0751293   -7.5226297    342.27823  0.027113295  0.027485316            4 
 1053000     1.088593   -7.5271723    343.69599  0.027199746  0.027477151            3 
 1054000    1.0786866   -7.5315326    342.68702  0.027094167  0.027469261            5 
 1055000    1.0782161   -7.5455749    342.54594  0.027057341  0.027461135            2 
 1056000    1.0797149   -7.5098122    342.23638   0.02700729  0.027452883            2 
 1057000     1.098847   -7.5329686    343.22285  0.027059512  0.027444772            4 
 1058000    1.0928977   -7.5654321    342.84891  0.027004483  0.027436534            5 
 1059000    1.0877174   -7.4998151    343.44743   0.02702608   0.02742832            1 
 1060000    1.0858985   -7.5602152    342.95159  0.026961603  0.027420019            1 
 1061000    1.0810126   -7.5604013    343.80839  0.027003487  0.027411642            1 
 1062000    1.0657072   -7.5128944    343.96192  0.026990107  0.027403477            3 
 1063000     1.088814   -7.5089889    345.03938  0.027049183  0.027395491            1 
 1064000    1.0737231   -7.5106608    345.79708  0.027083105    0.0273875            3 
 1065000    1.0665269   -7.4975805    345.55943  0.027039079  0.027379504            2 
 1066000    1.0755025   -7.5007853     346.7508  0.027106848   0.02737161            1 
 1067000    1.0682853   -7.5561044    345.62804  0.026993755  0.027363783            2 
 1068000    1.0605016   -7.5611371    345.51213  0.026959436  0.027355688            1 
 1069000    1.0560806   -7.5073138    346.92041  0.027043998  0.027347691            4 
 1070000    1.0600175   -7.5233774    348.27409   0.02712415  0.027340068            2 
 1071000    1.0781394   -7.5115019    348.08072  0.027083779  0.027332367            2 
 1072000    1.0713682    -7.552288    347.47898  0.027011737  0.027324685            1 
 1073000    1.0624548   -7.5285515    347.82116  0.027013138  0.027316935            1 
 1074000    1.0737811   -7.5391411    348.74989  0.027060047  0.027309208            1 
 1075000    1.0771499   -7.5213978     348.2995  0.026999962  0.027301339            3 
 1076000    1.1118087   -7.5605587    348.43615  0.026985451  0.027293618            1 
 1077000    1.0710931   -7.5019833    348.19663  0.026941863  0.027285766            1 
 1078000    1.0899975   -7.5099679     348.8142  0.026964611  0.027277821            4 
 1079000    1.0929467   -7.5499693    348.39708  0.026907405  0.027270088            1 
 1080000    1.0751463   -7.5404553    349.32163   0.02695383  0.027262204            1 
 1081000    1.0776836   -7.5755242    349.04753  0.026907765  0.027254301            3 
 1082000     1.075642   -7.5419427    349.69022  0.026932395  0.027246386            1 
 1083000    1.0706453   -7.5073107    350.60083  0.026977595  0.027238682            2 
 1084000    1.0786669   -7.5183699    350.87292  0.026973625  0.027231153            2 
 1085000    1.0669367   -7.5351453    350.87085  0.026948606   0.02722352            2 
 1086000    1.0920385   -7.5366077    350.11866  0.026866073   0.02721596            1 
 1087000    1.0729576   -7.5086353    352.99374  0.027061771  0.027208538            4 
 1088000    1.0926008   -7.5007151      352.332  0.026986213  0.027201007            3 
 1089000    1.0650333   -7.5591588    352.01107  0.026936874  0.027193477            4 
 1090000    1.0811833   -7.5346224    353.24454  0.027006463  0.027186139            2 
 1091000    1.0741848   -7.5541769    352.54944  0.026928616  0.027178716            2 
 1092000    1.0575725   -7.5259874    353.51047  0.026977295  0.027171348            1 
 1093000    1.0822571   -7.5394498    354.28628  0.027011763  0.027164036            1 
 1094000    1.0724157   -7.5343044    353.88302  0.026956354  0.027156792            3 
 1095000    1.0786406   -7.5749507    351.94873   0.02678453  0.027149403            1 
 1096000    1.0814185   -7.5458669    353.58284   0.02688434  0.027141717            2 
 1097000    1.0899793   -7.5843195    352.39602  0.026769676  0.027133948            2 
 1098000    1.0797665   -7.5976958    353.75725  0.026848607  0.027126083            3 
 1099000    1.0547162   -7.5841345    353.12797  0.026776461  0.027118245            1 
 1100000    1.0621056   -7.5414976     353.8305  0.026805341  0.027110407            2 
 1101000     1.064157    -7.530275    354.95032  0.026865753  0.027102716            1 
 1102000    1.0972417    -7.512706    355.05019  0.026848925  0.027095079            3 
 1103000    1.0832359   -7.5588366    355.68706    0.0268727  0.027087526            1 
 1104000    1.0656894   -7.5334158    356.12872  0.026881697  0.027080005            1 
 1105000    1.0915126   -7.5255989    356.74871  0.026904126  0.027072514            2 
 1106000    1.0903086   -7.5139867    357.41622  0.026930095  0.027065246            1 
 1107000    1.0670841   -7.5205533    356.99525  0.026874078  0.027057967            2 
 1108000    1.0896996   -7.5900494    354.62072  0.026671234  0.027050424            2 
 1109000    1.0583074   -7.5161526     357.4634   0.02686079  0.027042645            1 
 1110000    1.0460527   -7.5475609    356.09229  0.026733656  0.027034915            2 
 1111000    1.0789467   -7.4920841    357.58936  0.026821884   0.02702691            3 
 1112000    1.0802669   -7.5421744    356.36822  0.026706252   0.02701905            3 
 1113000    1.0861869   -7.5288983    356.87872  0.026720479  0.027011356            2 
 1114000    1.0605157   -7.5381437    358.30811   0.02680342  0.027003826            2 
 1115000    1.0620367   -7.5851636    355.91292  0.026600368  0.026996196            2 
 1116000    1.0775979   -7.5685306    358.36979   0.02675999  0.026988456            3 
 1117000    1.0768175   -7.5157117    358.00705  0.026708971  0.026980862            1 
 1118000    1.0733688   -7.5874658    358.78629  0.026743164  0.026973243            2 
 1119000    1.0619168   -7.5256917    358.90774  0.026728309  0.026965782            3 
 1120000    1.0749494   -7.5286029    358.86506  0.026701269  0.026958214            1 
 1121000    1.0640617   -7.5414477    360.03763  0.026764617  0.026950797            1 
 1122000    1.0723613   -7.5026609    360.23171  0.026755178  0.026943514            1 
 1123000    1.1093984   -7.5655107    359.83445  0.026701874  0.026936133            2 
 1124000    1.0686556    -7.571445    360.55477  0.026731522  0.026928695            1 
 1125000    1.0608884   -7.5166413     361.3156  0.026764118  0.026921357            2 
 1126000    1.0760616   -7.5299725    361.90335  0.026783848  0.026914018            1 
 1127000    1.0528006   -7.5797939    360.98931  0.026692496  0.026906665            1 
 1128000    1.0719757   -7.5422708    361.17742  0.026682729  0.026899145            1 
 1129000    1.0943035   -7.5639998    362.47398  0.026754796  0.026891738            4 
 1130000    1.0905767   -7.5916091    361.71607  0.026675226  0.026884222            2 
 1131000    1.0731617   -7.5231778    361.91707  0.026666451   0.02687684            1 
 1132000    1.0719437   -7.5501562    361.55198  0.026616017  0.026869348            2 
 1133000    1.0735447   -7.5619834    361.89112   0.02661747  0.026861713            3 
 1134000    1.0822463   -7.5498307    362.33782  0.026626824  0.026854295            1 
 1135000    1.0932211   -7.5246645     362.6609  0.026627085  0.026846861            1 
 1136000    1.0494602   -7.5281036    363.50392  0.026665487  0.026839521            2 
 1137000    1.0599589   -7.5263932    362.90647  0.026598246  0.026832224            2 
 1138000    1.0547487   -7.5558993     362.9318  0.026576728  0.026824833            1 
 1139000    1.0754288   -7.5614751    363.15799  0.026569944  0.026817473            1 
 1140000    1.0612888   -7.5165433    364.14575  0.026618841  0.026809814            3 
 1141000    1.0948994   -7.5729172    364.22228  0.026601101  0.026802375            1 
 1142000    1.0580615   -7.5639818    363.40029  0.026517826   0.02679502            3 
 1143000    1.0825888   -7.5578934    365.63414  0.026657491  0.026787642            1 
 1144000    1.0591249   -7.5427349    366.11942  0.026669538  0.026780419            2 
 1145000    1.0596781   -7.5430158    366.00506  0.026637923  0.026773207            2 
 1146000    1.0854038   -7.5297996    366.19225   0.02662829  0.026766176            2 
 1147000    1.0652827   -7.5916403    366.64089   0.02663767  0.026759288            3 
 1148000    1.0624629   -7.5826099    365.88143  0.026559337  0.026752184            3 
 1149000    1.1012748   -7.6023963    366.47489  0.026579264  0.026744997            2 
 1150000    1.0594577   -7.5785564    366.44032  0.026553646  0.026737712            4 
 1151000    1.0728883   -7.5470709    367.17947  0.026584091  0.026730706            2 
 1152000      1.07162   -7.5436601    367.96108  0.026617555  0.026723813       -1e+20 
 1153000    1.0802171   -7.5489492    367.44974  0.026557512  0.026716939            2 
 1154000    1.0689858   -7.6050113    367.33269  0.026526046  0.026709824            2 
 1155000    1.0424876   -7.5410647    369.22874   0.02663988  0.026702894            3 
 1156000    1.0796275   -7.5192267    368.22083  0.026544178  0.026695824            2 
 1157000    1.0636399   -7.5642741    368.34382  0.026530094  0.026688624            3 
 1158000    1.0623241   -7.5497448    368.68126  0.026531467  0.026681394            1 
 1159000    1.0585116   -7.5678688    367.46132   0.02642086  0.026674323            1 
 1160000    1.0644845   -7.5934497    368.71748  0.026488325  0.026667025            3 
 1161000    1.0596065   -7.5660061    369.34806  0.026510771  0.026659778            1 
 1162000    1.0620258   -7.5648604    369.65564  0.026510014  0.026652771            2 
 1163000    1.0803088   -7.5579853    370.88583  0.026575367  0.026645819            3 
 1164000    1.0619998   -7.5706095    370.35295  0.026514386   0.02663888            4 
 1165000    1.0779849   -7.5911298    369.47392   0.02642875  0.026631719            2 
 1166000    1.0548565   -7.5688073    370.10904  0.026451475  0.026624576            2 
 1167000    1.0395574   -7.5830563     370.7284  0.026473037  0.026617608            4 
 1168000    1.0860346   -7.5621865    371.10461  0.026477213  0.026610519            2 
 1169000    1.0722568   -7.6210737     370.5223  0.026413053  0.026603416            3 
 1170000    1.0533814   -7.5995144    371.89096   0.02648796  0.026596307            2 
 1171000    1.0839852   -7.5708207    370.77481   0.02638591  0.026589073            2 
 1172000    1.0554901   -7.5787761    371.16673  0.026391264  0.026581824            3 
 1173000    1.0874392   -7.5753251    371.77466  0.026411954   0.02657458            3 
 1174000     1.041067   -7.6139417    370.89106  0.026326736  0.026567403            2 
 1175000    1.0785335   -7.5639665    371.98564   0.02638196  0.026560251            3 
 1176000    1.0723713   -7.5807145    371.59139  0.026331589  0.026553029            4 
 1177000    1.0757507   -7.5679583    371.93179  0.026333319  0.026545777            3 
 1178000    1.0403705   -7.5947689    372.73556  0.026367824   0.02653854            3 
 1179000    1.0561682   -7.5951518     372.5343  0.026331234  0.026531354            2 
 1180000    1.0442124    -7.539084    374.67534  0.026460123  0.026524073            2 
 1181000    1.0538611   -7.5349302    374.38043  0.026416908  0.026517073            2 
 1182000    1.0568232   -7.5254766    374.50311  0.026403208  0.026510075            3 
 1183000    1.0730514   -7.5806524    374.74868  0.026398188   0.02650307            1 
 1184000     1.081517   -7.5922978    373.54298  0.026291032  0.026495948            2 
 1185000    1.0395311   -7.5820862    374.96932  0.026369151  0.026488865            2 
 1186000    1.0485856   -7.6060264    374.49117   0.02631332  0.026481865            2 
 1187000    1.0605746   -7.5820602    375.27728  0.026346341     0.026475            1 
 1188000    1.0639054   -7.5842658    375.82377  0.026362498  0.026468302            2 
 1189000    1.0492664   -7.5912191    376.48723  0.026386825  0.026461564            1 
 1190000    1.0950302   -7.5762817    376.06111  0.026334812  0.026454698            2 
 1191000    1.0543604   -7.5820528    376.03018  0.026310536   0.02644785            2 
 1192000    1.0553254    -7.578608    376.73242  0.026337557  0.026441003            3 
 1193000     1.057053   -7.5588871    378.44905  0.026435391  0.026434266            1 
 1194000    1.0747133   -7.5944734     376.8071  0.026298653  0.026427535            2 
 1195000    1.0474388   -7.5898108    378.17738  0.026372202  0.026420813            3 
 1196000    1.0473702   -7.5477168    379.17124  0.026419401  0.026414101            2 
 1197000    1.0592545   -7.6025455    377.54625    0.0262842  0.026407244            2 
 1198000    1.0556408   -7.5933134    378.69478  0.026342152  0.026400465            1 
 1199000    1.0507014   -7.6000224    377.82926  0.026260026  0.026393414            2 
 1200000    1.0251763   -7.6295241    378.18544  0.026262878  0.026386367            6 
 1201000    1.0379499   -7.5934734    378.66233    0.0262741  0.026379527            1 
 1202000    1.0737934   -7.6173925    377.90165  0.026199504  0.026372684            7 
 1203000    1.0361161   -7.6324628    378.51254  0.026220043  0.026365753            2 
 1204000    1.0571244   -7.5535746    380.84681  0.026359829  0.026359007            1 
 1205000    1.0740009   -7.5445193    379.88545  0.026271469  0.026352344            2 
 1206000    1.0590242   -7.5673604    380.15968  0.026268635  0.026345581            2 
 1207000    1.0503093   -7.5890404    379.79398  0.026221622  0.026338822            2 
 1208000    1.0569767   -7.5610685    380.16184  0.026225292  0.026332061            1 
 1209000    1.0567065   -7.5640077     381.1839  0.026274049  0.026325236            1 
 1210000    1.0801059   -7.6013398    380.28318  0.026190302  0.026318442            1 
 1211000    1.0424009   -7.5690318    381.04407  0.026221034  0.026311704            3 
 1212000     1.059381   -7.5850289    380.26544  0.026145863  0.026305065            1 
 1213000    1.0512707   -7.6226045    381.63893  0.026218668  0.026298381            2 
 1214000    1.0851219   -7.5647558    382.61008  0.026263734  0.026291598            1 
 1215000    1.0685124   -7.6249699     381.9032  0.026193635  0.026284821            3 
 1216000    1.0570172   -7.6071943    382.05138  0.026182249  0.026277969            2 
 1217000    1.0460613   -7.5701568    383.17202   0.02623747  0.026271265            4 
 1218000    1.0542363   -7.6030044    382.29979  0.026156253  0.026264509            2 
 1219000    1.0475519   -7.5709399    383.98393  0.026249927  0.026257884            2 
 1220000    1.0890362   -7.5915132    381.72902  0.026074386  0.026251051            2 
 1221000    1.0488256   -7.5840856    383.99992   0.02620802    0.0262443            3 
 1222000    1.0775155   -7.5786179    383.59463  0.026158936  0.026237576            2 
 1223000    1.0442438    -7.629674    383.54915  0.026134447  0.026230757            3 
 1224000    1.0682863   -7.6057994    384.33077  0.026166311  0.026224086            4 
 1225000    1.0550139   -7.5937747    383.97247  0.026120576  0.026217322            2 
 1226000    1.0419926   -7.6024351    385.58169  0.026208652  0.026210653            2 
 1227000    1.0701058   -7.5960063    385.51655  0.026182868  0.026204134            1 
 1228000    1.0614542    -7.561836    386.21984  0.026209273   0.02619768            1 
 1229000    1.0560311    -7.559877    386.46536  0.026204595  0.026191328            2 
 1230000    1.0560086   -7.5774488    386.78339  0.026204837  0.026185052            2 
 1231000    1.0576529   -7.6199355    386.00131  0.026130606  0.026178714            1 
 1232000    1.0530434    -7.593227    387.59267  0.026217037  0.026172294       -1e+20 
 1233000    1.0761323   -7.6392125    387.59595  0.026195995  0.026165897            2 
 1234000    1.0454289   -7.5502598    387.84922  0.026191871  0.026159527            1 
 1235000    1.0291937   -7.5513302     387.9339  0.026176376  0.026153343            1 
 1236000    1.0357786   -7.6063474    388.12757  0.026168256  0.026147064            3 
 1237000    1.0820273   -7.6021565    388.99053  0.026205237   0.02614078            1 
 1238000    1.0630028   -7.6112675    387.14889  0.026060103  0.026134381            2 
 1239000    1.0710445   -7.6343316    388.24763  0.026112969  0.026127907            3 
 1240000    1.0589176   -7.5938301    388.06243  0.026079464   0.02612141            2 
 1241000    1.0829555   -7.6084747    389.21306  0.026135715  0.026115023            2 
 1242000    1.0510399   -7.5781535    389.29436  0.026120126  0.026108663            2 
 1243000    1.0413275   -7.6043973    387.64651  0.025988637  0.026102324            3 
 1244000    1.0396652   -7.5771826    390.32262  0.026147014  0.026095941            1 
 1245000    1.0534348   -7.5930755    389.12582  0.026045905  0.026089509            3 
 1246000    1.0496646   -7.5985025     390.9891  0.026149619  0.026083049            3 
 1247000    1.0444125   -7.6070554    390.33787  0.026085129  0.026076571            2 
 1248000    1.0549196   -7.5910883    389.82454   0.02602995  0.026070013            2 
 1249000    1.0671538   -7.6174054    391.01836  0.026088761  0.026063626            1 
 1250000    1.0650451   -7.5887932    390.65457  0.026043638  0.026057209            3 
 1251000    1.0842823   -7.5908726     391.7502  0.026095803  0.026050912            3 
 1252000    1.0430156   -7.6129233    391.24591  0.026041395  0.026044478            4 
 1253000    1.0487452   -7.6416507    391.18481  0.026016548  0.026038002            1 
 1254000    1.0759469   -7.6177239    391.44907  0.026013362  0.026031474            3 
 1255000    1.0567327   -7.5670601    391.74294  0.026012147  0.026025172            3 
 1256000    1.0663948   -7.5898142     392.1585  0.026019008   0.02601885            2 
 1257000    1.0557904   -7.5668923    392.27158  0.026005806  0.026012636            3 
 1258000    1.0533307   -7.6396386    391.99651  0.025966912  0.026006188            1 
 1259000    1.0502119   -7.6429321    391.98301  0.025945394  0.025999576            2 
 1260000     1.043894   -7.5877282    393.48336  0.026024032  0.025992906            2 
 1261000    1.0472579   -7.6527694     391.7832  0.025891039  0.025986386            2 
 1262000    1.0842679   -7.5885353     393.0081  0.025951407  0.025979723            1 
 1263000    1.0498773   -7.5781844    393.39027  0.025956075   0.02597316            2 
 1264000    1.0629121   -7.5732544    393.90089  0.025969204  0.025966576            1 
 1265000    1.0607109   -7.5791407    394.15158   0.02596519  0.025960048            3 
 1266000    1.0451823   -7.6201614    392.61362  0.025843445  0.025953514            2 
 1267000    1.0737245   -7.6368871    394.59087  0.025953096  0.025946899            3 
 1268000    1.0451086   -7.6188805    394.08929  0.025899664  0.025940269            2 
 1269000     1.049028   -7.6201342    394.51504  0.025907213  0.025933548            2 
 1270000    1.0699855   -7.5997384    394.25291  0.025869613  0.025927033            4 
 1271000    1.0452909   -7.6128825    393.69998  0.025813007  0.025920427            1 
 1272000    1.0519791   -7.5786724    394.61059  0.025852371  0.025913977            2 
 1273000    1.0428367   -7.6055764    395.36368  0.025881362   0.02590745            1 
 1274000    1.0396102   -7.6171116    395.41628  0.025864487  0.025900767            3 
 1275000    1.0697982   -7.6142636    395.56461  0.025853896  0.025894147            1 
 1276000    1.0619353   -7.5816635      397.054  0.025930904   0.02588755            3 
 1277000    1.0721483   -7.5988363    396.16214  0.025852397  0.025880921            1 
 1278000    1.0493609   -7.6342874    395.30214  0.025776092  0.025874299            1 
 1279000    1.0365653    -7.592163    395.55448  0.025772379  0.025867569            2 
 1280000    1.0283819   -7.6358449    395.68525  0.025760759  0.025860799            2 
 1281000    1.0423405   -7.6066347    396.87565  0.025818088  0.025854059            2 
 1282000    1.0390688   -7.5997344    396.85395  0.025796539  0.025847516            1 
 1283000    1.0234661   -7.5822729    398.08065  0.025856109  0.025840862            2 
 1284000    1.0558897   -7.6043553    397.35564  0.025788918  0.025834303            2 
 1285000    1.0420499    -7.613133    398.36636  0.025834394  0.025827747            2 
 1286000    1.0366214   -7.5960275     398.8155   0.02584341  0.025821327            5 
 1287000     1.046638   -7.6125523    399.36334  0.025858802  0.025814845            2 
 1288000    1.0728365   -7.5563145    400.33264  0.025901439  0.025808459            1 
 1289000    1.0443204   -7.5977296    399.22045  0.025809442  0.025801982            6 
 1290000    1.0604288   -7.6034511    399.78311  0.025825782  0.025795603            3 
 1291000    1.0347144   -7.6029452     400.3133  0.025840001   0.02578926            3 
 1292000    1.0597178   -7.6130987    399.43114  0.025763102  0.025782877            6 
 1293000    1.0214394   -7.6488086    399.91385  0.025774288  0.025776458            3 
 1294000    1.0370125   -7.6567798    399.70925  0.025741193  0.025769961            3 
 1295000    1.0596707   -7.6133623    400.19914  0.025752841  0.025763527            2 
 1296000    1.0602583   -7.6189141    401.21783  0.025798471  0.025757292            3 
 1297000    1.0320201   -7.6486575    399.45251  0.025665157  0.025751001            2 
 1298000    1.0465521   -7.6232715    400.69011   0.02572484   0.02574458            2 
 1299000     1.042466   -7.6851803    399.54544  0.025631604   0.02573819            1 
 1300000    1.0197916   -7.6078587    402.84332  0.025823289   0.02573186            2 
 1301000    1.0554153   -7.6356589    402.62598   0.02578952  0.025725611            3 
 1302000    1.0500149   -7.6432234    401.52145  0.025699018  0.025719183            2 
 1303000    1.0369645   -7.6271045    403.48453  0.025804843  0.025712789            2 
 1304000    1.0277058   -7.6151092    403.74052  0.025801413  0.025706527            1 
 1305000     1.069168   -7.6014479    403.58685  0.025771829  0.025700332            1 
 1306000    1.0553626   -7.6318862    402.03864  0.025653308  0.025694233            2 
 1307000     1.051646    -7.611353    403.99877  0.025758656  0.025687912            1 
 1308000    1.0337983   -7.6055735    404.48676  0.025770053  0.025681692            2 
 1309000    1.0525901   -7.6486612    404.48353  0.025750161  0.025675559            2 
 1310000    1.0511593   -7.6169626    404.80324  0.025750842  0.025669442            1 
 1311000    1.0270487   -7.6004686    404.73443  0.025726826  0.025663379            2 
 1312000    1.0311915   -7.6409701    403.89208  0.025653714  0.025657145            1 
 1313000     1.040492   -7.6416483    403.49832  0.025609185  0.025650733            1 
 1314000    1.0300933   -7.6597837    404.34845  0.025643611  0.025644102            1 
 1315000    1.0494906   -7.5876883    405.16056  0.025675574  0.025637526            2 
 1316000    1.0194312   -7.6153284    404.45401  0.025611323  0.025631125            1 
 1317000    1.0430602   -7.5986308    405.40854  0.025652274  0.025624743            1 
 1318000    1.0390495   -7.6042511    405.10061  0.025613341  0.025618328            2 
 1319000    1.0210995   -7.5890551     405.5932  0.025625044  0.025611805            2 
 1320000    1.0373247   -7.6210998    405.31517  0.025588079  0.025605273            3 
 1321000    1.0318134   -7.6076035    404.82833  0.025537997  0.025598933            1 
 1322000    1.0203669   -7.6497798    404.97534  0.025527946  0.025592376            2 
 1323000    1.0399257   -7.6535765    405.94077  0.025569461  0.025585936            1 
 1324000    1.0470056    -7.661932    404.74847  0.025475105  0.025579328            1 
 1325000    1.0418918   -7.6793913    405.55473  0.025506587  0.025572582            1 
 1326000    1.0690101   -7.6381417    406.00227  0.025515477  0.025565842            3 
 1327000    1.0369388   -7.6003367    406.82064  0.025547641   0.02555921            2 
 1328000    1.0419145   -7.6606147    406.12114  0.025484509  0.025552537            1 
 1329000    1.0494488   -7.6220195    407.72416  0.025565849  0.025545938            3 
 1330000    1.0559103    -7.641469    406.46492  0.025467727  0.025539409            3 
 1331000    1.0417329    -7.626598     408.4435  0.025572471  0.025532825            4 
 1332000     1.037243   -7.6111435    408.25702  0.025541606  0.025526286            2 
 1333000    1.0613338    -7.637693    408.15862  0.025516293  0.025519825            2 
 1334000    1.0407217   -7.6283775    408.74554  0.025533829  0.025513273            3 
 1335000     1.023095   -7.6344203    407.71536  0.025450397  0.025506712            1 
 1336000    1.0590348   -7.6558907    407.76064  0.025434171  0.025500137            3 
 1337000    1.0398043   -7.5794904    409.90029   0.02554851  0.025493563            1 
 1338000     1.026767   -7.6318592    408.78321  0.025459841  0.025486905            2 
 1339000    1.0252408   -7.6451216    408.41905  0.025418163    0.0254801            4 
 1340000    1.0550524   -7.6277464    408.53006  0.025406098  0.025473317            1 
 1341000    1.0252211   -7.5923433    410.13049  0.025486608  0.025466631            2 
 1342000    1.0347258   -7.6574838    407.72935  0.025318514   0.02545985            1 
 1343000    1.0404828   -7.6200442     407.9129  0.025311051  0.025453041            1 
 1344000    1.0322179   -7.6631699    409.32479  0.025379761  0.025446025            2 
 1345000    1.0477072   -7.6547786    409.34541  0.025362169  0.025439235            3 
 1346000     1.039212   -7.6513589    409.38936  0.025346048  0.025432446            2 
 1347000    1.0254543   -7.6254225    409.89234  0.025358348  0.025425618            2 
 1348000    1.0132649   -7.6106589    410.66541  0.025387328  0.025418905            1 
 1349000    1.0221901   -7.6685758    410.50813  0.025358793  0.025412225            2 
 1350000    1.0522691   -7.6593391    411.10282  0.025376717  0.025405452            2 
 1351000    1.0410396   -7.6217028    409.40041  0.025252925  0.025398659            3 
 1352000    1.0324503   -7.6514227    411.05864  0.025336455  0.025391671            3 
 1353000    1.0283266    -7.669663    411.57941  0.025349804  0.025384786            1 
 1354000    1.0503816   -7.6416727    410.43841  0.025260857  0.025377837            2 
 1355000    1.0510097   -7.6561742    410.27767  0.025232329  0.025370769            2 
 1356000    1.0306129   -7.6449806    411.49965  0.025288819    0.0253638            3 
 1357000    1.0482547   -7.6851049    411.37431  0.025262485  0.025356831            2 
 1358000    1.0543469   -7.6307712    411.76928   0.02526812  0.025349957            3 
 1359000    1.0288773   -7.6435914    411.09265  0.025208036  0.025343075            1 
 1360000    1.0264795   -7.6951711    411.15798  0.025193504  0.025336127            2 
 1361000    1.0370564   -7.6346609    412.52897  0.025258937  0.025329188            2 
 1362000    1.0285844   -7.6465889    411.90247   0.02520206  0.025322203            1 
 1363000    1.0475166   -7.6199161    412.48806  0.025219373  0.025315202            2 
 1364000    1.0222878   -7.6685644    412.13304  0.025179194  0.025308292            1 
 1365000    1.0171227   -7.7029728    411.79208  0.025139931  0.025301314            2 
 1366000    1.0481294    -7.661487    412.64947  0.025173833  0.025294269            2 
 1367000    1.0445501   -7.6570618    412.88259  0.025169629  0.025287301            3 
 1368000    1.0606128   -7.5994993    414.51709  0.025250797  0.025280548            1 
 1369000    1.0220457   -7.6115261    415.90519  0.025316849  0.025273891            2 
 1370000    1.0302113   -7.6576321     414.1552  0.025191922    0.0252671            2 
 1371000    1.0287342   -7.6449414    415.59042  0.025260784  0.025260428            3 
 1372000    1.0229097   -7.6654144    413.40524  0.025109648  0.025253548            3 
 1373000    1.0473562   -7.6249545    415.73077  0.025232506  0.025246688            2 
 1374000    1.0333687   -7.6722716    414.22311  0.025122702  0.025239811            2 
 1375000    1.0378808   -7.6463669    414.88575  0.025144591  0.025232893            1 
 1376000     1.031056   -7.6321819    414.80514  0.025121436   0.02522606            2 
 1377000    1.0443906   -7.6671247    415.24117  0.025129579  0.025219183            2 
 1378000    1.0385085   -7.6804316     415.4915  0.025126481  0.025212201            3 
 1379000    1.0380727   -7.6625832    414.88976  0.025071898    0.0252052            1 
 1380000    1.0427914   -7.6500056    415.91745  0.025115788  0.025198364            2 
 1381000     1.015668   -7.6702135    415.54554  0.025075159  0.025191517            1 
 1382000    1.0089667   -7.6097073    416.98705  0.025143937  0.025184806            2 
 1383000    1.0477556   -7.6751584    416.58927  0.025101788  0.025178031            4 
 1384000     1.052643   -7.6430208    418.53523  0.025200821  0.025171308            1 
 1385000    1.0340511   -7.6613648    418.05415  0.025153679  0.025164583            3 
 1386000    1.0055462     -7.62841    417.03724  0.025074389  0.025157942            3 
 1387000    1.0210114   -7.6347186    417.17608  0.025064653  0.025151344            2 
 1388000    1.0305257   -7.6611958    417.87642  0.025088642  0.025144534            3 
 1389000    1.0079423   -7.6401935    416.76583  0.025003949  0.025137741            2 
 1390000    1.0416379    -7.652989    417.60828  0.025036468  0.025130953            1 
 1391000    1.0284797   -7.6466782    418.70952  0.025084443  0.025124063            1 
 1392000     1.003876   -7.6256903    417.73832  0.025008281  0.025117204            2 
 1393000    1.0122784   -7.6948136     418.2748  0.025022422  0.025110224            1 
 1394000     1.013462   -7.6657722    417.66288  0.024967891  0.025103206            3 
 1395000    1.0186001   -7.6927837      417.654  0.024949462  0.025096293            1 
 1396000    1.0326855   -7.6870715    416.91435  0.024887437  0.025089286            1 
 1397000    1.0361188   -7.6590907    417.49665  0.024904358  0.025082202            2 
 1398000    1.0200803   -7.6589111    417.66613  0.024896646  0.025075221            2 
 1399000    1.0488491    -7.600253    419.45011  0.024985115  0.025068308            4 
 1400000    1.0257664   -7.6886105    418.47395  0.024909164  0.025061436            2 
 1401000    1.0077911   -7.6285586    418.98536  0.024921803  0.025054343            4 
 1402000    1.0247816   -7.6415641    420.33056  0.024983985  0.025047459            3 
 1403000    1.0333525   -7.6475012    418.93075  0.024883034  0.025040502            3 
 1404000    1.0113292   -7.6912499     419.5048  0.024899383    0.0250335            1 
 1405000    1.0377896   -7.6197995     420.9344  0.024966453  0.025026621            1 
 1406000    1.0376721   -7.6640594    420.97667  0.024951202  0.025019699            3 
 1407000    1.0350939   -7.6853232    420.48166  0.024904149   0.02501266            1 
 1408000    1.0202469   -7.7237783    419.24484   0.02481326  0.025005663            4 
 1409000    1.0045904   -7.6567602    420.09023  0.024845649  0.024998526            2 
 1410000    1.0170571   -7.6778231    420.08164   0.02482752  0.024991421            2 
 1411000    1.0119398    -7.648745    421.42075  0.024889012  0.024984371            2 
 1412000    1.0313404   -7.6204831    422.34813  0.024926117  0.024977418            2 
 1413000    1.0300059   -7.7172216    420.52165  0.024800758  0.024970367            2 
 1414000    1.0061619   -7.6652276    421.82685   0.02486014  0.024963294            5 
 1415000    1.0267009    -7.625385    421.82463   0.02484244  0.024956382            1 
 1416000    1.0487144   -7.6672845      422.318  0.024853931  0.024949427            2 
 1417000    1.0406984    -7.600247    423.08391  0.024881434  0.024942509            1 
 1418000    1.0169073   -7.6371135    423.52412  0.024889758  0.024935633            3 
 1419000    1.0125554    -7.663663     422.2416  0.024796899   0.02492861            1 
 1420000    1.0451681   -7.6384536    423.05757  0.024827322  0.024921552            2 
 1421000    1.0122694   -7.6392249    423.58149  0.024840576  0.024914538            2 
 1422000    1.0352835   -7.6828147    422.72528   0.02477293  0.024907575            2 
 1423000    1.0382494   -7.7000654    423.74061   0.02481498  0.024900574            2 
 1424000    1.0125894   -7.6756367    423.34953  0.024774668  0.024893696            6 
 1425000    1.0039107   -7.6746784    423.65583  0.024775195  0.024886773            3 
 1426000    1.0209766    -7.698951      424.394  0.024800958  0.024879705            1 
 1427000    1.0036873   -7.6404806    424.99082  0.024818432  0.024872744            1 
 1428000    1.0377231   -7.6860566    424.58873  0.024777587   0.02486565            2 
 1429000     1.010729   -7.6539383    423.19742  0.024679112   0.02485866            2 
 1430000    1.0434559   -7.6836244    424.94656  0.024763786  0.024851699           10 
 1431000    1.0436503   -7.6997595    424.11388   0.02469799  0.024844703            2 
 1432000    1.0215494   -7.6717153    424.38209   0.02469635  0.024837705            1 
 1433000    1.0288769   -7.6841802    425.41397  0.024739123   0.02483072            4 
 1434000    1.0195246    -7.628482    427.62968  0.024850632  0.024823847            1 
 1435000    1.0275412   -7.6733727    425.93165  0.024734707  0.024817019            1 
 1436000    1.0308154    -7.719044    424.45628  0.024631864  0.024810168            2 
 1437000    1.0373756   -7.6915667    426.85937  0.024754081  0.024803187            1 
 1438000    1.0220743   -7.6833336    425.48448   0.02465719  0.024796363            3 
 1439000    1.0254153   -7.6925703    427.20209  0.024739524  0.024789635            3 
 1440000    1.0278601   -7.6803655    427.04599   0.02471331  0.024782736            4 
 1441000    1.0330856   -7.6915754    425.67507  0.024616879  0.024775708            2 
 1442000    1.0419288    -7.734537    424.95394  0.024558133  0.024768649            3 
 1443000     1.034576   -7.6651156     428.3033   0.02473454  0.024761699            5 
 1444000    1.0186281     -7.66293    427.26268  0.024657357  0.024754766            4 
 1445000    1.0481324   -7.7016618    428.19037  0.024693793  0.024747831            2 
 1446000    1.0438778   -7.6662817    427.05624  0.024611355  0.024740911            1 
 1447000    1.0134067   -7.6877362    428.15767  0.024657779  0.024733955            4 
 1448000    1.0133632   -7.6631873    429.80354  0.024735471  0.024727032            2 
 1449000    1.0082523   -7.7006161    427.28842  0.024573753  0.024720095            4 
 1450000    1.0054437   -7.6864979     426.9582  0.024537827  0.024713057            1 
 1451000    1.0166746   -7.6404379    430.07902   0.02470015  0.024706239            2 
 1452000    1.0077407   -7.6615124    428.46425  0.024590464  0.024699384            2 
 1453000     1.003977   -7.6947523    428.68207  0.024586033  0.024692435            2 
 1454000    1.0107905   -7.6585772    429.89508  0.024638645  0.024685599            1 
 1455000    1.0068364    -7.699276    429.06628  0.024574243  0.024678752            2 
 1456000    1.0223871   -7.6755393     429.1087  0.024559793   0.02467177            2 
 1457000    1.0342734   -7.6860042    430.57717  0.024626926  0.024664787            2 
 1458000    1.0223821   -7.6668975    430.18456  0.024587595  0.024657736            2 
 1459000    1.0176195   -7.6989977    429.47945  0.024530469  0.024650779            2 
 1460000    1.0376012   -7.6747196    430.89399  0.024594406  0.024643955            1 
 1461000    1.0197377   -7.7085046    429.27167  0.024485037  0.024637076            2 
 1462000    1.0136594   -7.6993129    430.44253  0.024535028   0.02462999            3 
 1463000    1.0282647   -7.6701562    431.35109   0.02457001  0.024622951            3 
 1464000    1.0227393   -7.6606152    430.91776  0.024528561  0.024616045            2 
 1465000    1.0196876   -7.7003428    431.56486  0.024548627  0.024609105            2 
 1466000    1.0062799   -7.7059828    431.04626  0.024502402  0.024602309            2 
 1467000    1.0220234   -7.7399843    430.64394  0.024462846  0.024595388            1 
 1468000    1.0346224   -7.6644628    431.32784  0.024485004  0.024588414            2 
 1469000    1.0171386   -7.7083564    432.83356  0.024553753  0.024581612            2 
 1470000    1.0235268   -7.7456892    431.56124  0.024464923  0.024574831            3 
 1471000    1.0033177   -7.6812244    432.79015   0.02451791  0.024568029            6 
 1472000    1.0446388   -7.6869955    433.04292  0.024515564  0.024561267            1 
 1473000     1.017705   -7.7278943    432.37648  0.024461218  0.024554514            2 
 1474000    1.0167277   -7.6616661    433.88997  0.024530188  0.024547796            3 
 1475000    1.0056602   -7.6711428    433.69627  0.024502614   0.02454109            1 
 1476000    1.0299389   -7.7189115     432.3676  0.024410998  0.024534224           14 
 1477000    1.0238318   -7.6987434      433.271  0.024445441  0.024527198            4 
 1478000   0.99747417   -7.6815414    435.69863  0.024565777  0.024520309            1 
 1479000    1.0072583   -7.6997695    434.19119  0.024464232  0.024513732            2 
 1480000    1.0293043   -7.7292613    433.58316  0.024413466     0.024507            2 
 1481000    1.0146971   -7.7070005    434.04489  0.024422963  0.024500178            1 
 1482000    1.0226199   -7.6682589    434.88413  0.024453673  0.024493414            1 
 1483000     1.000802    -7.676576    435.32238   0.02446181  0.024486642            1 
 1484000    1.0034906   -7.6970131    434.75305  0.024413356   0.02447983            4 
 1485000    1.0257142   -7.6764225      434.049  0.024357408  0.024472951            3 
 1486000    1.0008089   -7.6702249    436.01305  0.024451158  0.024466065            3 
 1487000    1.0109702   -7.6609432    435.73493  0.024419128  0.024459346            3 
 1488000    1.0313231   -7.6943131    435.42911  0.024385591  0.024452634            4 
 1489000    1.0145378   -7.6978051    435.73642  0.024386413  0.024445789            1 
 1490000    1.0297633   -7.6562078    435.75466  0.024371066  0.024438822            3 
 1491000    1.0181718   -7.7181953     435.7662  0.024355365   0.02443188            1 
 1492000    1.0136453   -7.7008621    435.41494  0.024319422  0.024424924            1 
 1493000    1.0136601   -7.7265892    434.95272  0.024277334  0.024418006            4 
 1494000    1.0197258   -7.6967357    436.63327  0.024354823  0.024411095            2 
 1495000     1.012502   -7.7020267    435.62415  0.024282282  0.024404262            2 
 1496000    1.0052732   -7.6589937    437.62103  0.024377286  0.024397494            5 
 1497000   0.99827999   -7.7236597    437.45507  0.024351763  0.024390812            3 
 1498000    1.0251643   -7.7033128    436.94548  0.024307158  0.024383929            2 
 1499000   0.97953688   -7.6927898    438.41385  0.024372573  0.024377221            2 
 1500000    1.0148198   -7.6986173    437.89726  0.024327625  0.024370571            1 
 1501000    1.0068542   -7.7208161    438.15764  0.024325874  0.024363914            3 
 1502000    1.0027276   -7.6943386    437.31805  0.024263096  0.024357246            2 
 1503000   0.98151262   -7.7091081    438.46286  0.024310427   0.02435059            7 
 1504000    1.0480218   -7.7059287    438.89123  0.024317998  0.024343858            3 
 1505000   0.98607969   -7.6671193    438.99478  0.024307574  0.024337153            1 
 1506000    1.0041438   -7.6886726     440.2513  0.024360962  0.024330474            2 
 1507000    1.0166041   -7.7366691    438.79972  0.024264528  0.024323823            1 
 1508000    1.0070677    -7.697044    439.37914  0.024280456  0.024317204            3 
 1509000   0.99902033   -7.6756793    440.14303  0.024306551  0.024310536            1 
 1510000    1.0150765   -7.7194531    439.50766  0.024255389  0.024303777            1 
 1511000    1.0014032   -7.6530845    442.02012  0.024377902  0.024297167            1 
 1512000    1.0092496   -7.7388569    439.99098  0.024249944  0.024290517            4 
 1513000   0.97434347   -7.7359364    440.64879  0.024270147  0.024283884            2 
 1514000    1.0291065   -7.7213274    439.69008  0.024201348  0.024277269            2 
 1515000    1.0211023   -7.7026524    441.89149  0.024306463  0.024270676            3 
 1516000    1.0130391   -7.6909317    441.71762  0.024280872  0.024264074            2 
 1517000    1.0164581   -7.7376004    440.78295  0.024213522  0.024257553            2 
 1518000    1.0031573   -7.7154137    441.64975  0.024245155  0.024250919            2 
 1519000    1.0045138   -7.7293289    441.37341  0.024214034  0.024244314            2 
 1520000    1.0219517   -7.7435402    441.29982  0.024194069  0.024237755            2 
 1521000    1.0135246   -7.7370432    440.92182  0.024157452  0.024231179            2 
 1522000    1.0052155   -7.7333807    442.98138  0.024254346  0.024224618            3 
 1523000    1.0326891   -7.7292086    442.38991  0.024206058  0.024218083            3 
 1524000    1.0137331   -7.7119344    443.23934  0.024236622  0.024211675            2 
 1525000   0.99290014   -7.6971923    444.01503  0.024263117  0.024205332            3 
 1526000    1.0055502   -7.7061818    444.78249  0.024289127   0.02419899            3 
 1527000   0.98659573   -7.6895463    445.85637  0.024331825  0.024192707            2 
 1528000    1.0302785    -7.700931    445.53201  0.024298211  0.024186478            2 
 1529000    1.0122619   -7.7103611    444.20443  0.024209965  0.024180205            4 
 1530000   0.98493715   -7.7311384    445.76287  0.024279023  0.024173916            4 
 1531000    1.0090683   -7.7432321    444.03913  0.024169341  0.024167552            2 
 1532000   0.98395887   -7.7148796    446.46399  0.024285465  0.024161211            3 
 1533000    1.0107621   -7.6685694    446.12853  0.024251388   0.02415487            2 
 1534000    1.0135351   -7.7168213    446.08671  0.024233307   0.02414854       -1e+20 
 1535000    1.0196554   -7.7418144    445.06802  0.024162216   0.02414216            2 
 1536000    1.0226937   -7.7224059     445.7304  0.024182422  0.024135836            3 
 1537000   0.99932867   -7.7196396    445.79946  0.024170433  0.024129598            3 
 1538000    1.0071355   -7.6967364    447.34432  0.024238422   0.02412341            3 
 1539000   0.99476995   -7.6698015    447.06609  0.024207607  0.024117252            2 
 1540000    1.0029613   -7.7134094     446.7587  0.024175254  0.024110993            3 
 1541000   0.98266527   -7.7079809    447.34498  0.024191271  0.024104688            1 
 1542000    1.0202758   -7.7237052    448.03165  0.024212692  0.024098492            3 
 1543000   0.99889054   -7.7174748    446.38246  0.024107931  0.024092179            2 
 1544000    1.0114151   -7.7274408    446.28955  0.024087303  0.024085754            2 
 1545000   0.99950543   -7.7584781    446.34106  0.024074491  0.024079306            1 
 1546000    1.0050317   -7.7403427    447.56281  0.024124774  0.024072799            2 
 1547000   0.98388029   -7.6882633    447.91487  0.024128144  0.024066303            2 
 1548000    1.0175842   -7.7394536     447.7965  0.024106185  0.024059869            6 
 1549000    1.0036965   -7.7178643    448.04787  0.024104146  0.024053504            3 
 1550000    1.0250555   -7.7074281    449.22171  0.024151705  0.024047146            2 
 1551000    1.0144692   -7.6599884    447.19091  0.024027021  0.024040762            2 
 1552000    1.0004346   -7.7089469    448.97915  0.024107557  0.024034338            2 
 1553000    1.0115338   -7.7164647    448.44679  0.024063468   0.02402787            3 
 1554000    1.0362813   -7.7353278    448.29873  0.024040044  0.024021378            1 
 1555000   0.99108469   -7.7276763    448.05736  0.024011648  0.024014821            2 
 1556000    0.9978891   -7.7548765    447.45347  0.023963875  0.024008255            3 
 1557000   0.97542317   -7.6947325     449.1695  0.024040329  0.024001744            2 
 1558000   0.98703408   -7.7369752    449.70972  0.024053794  0.023995327            4 
 1559000   0.98345426   -7.7012985    449.27737  0.024015254  0.023988787            3 
 1560000    1.0206645   -7.7045475    447.84903  0.023923559  0.023982157            4 
 1561000    1.0134111   -7.7861508    447.75276  0.023903094  0.023975387            2 
 1562000    1.0048014   -7.7602406    448.16221  0.023909636  0.023968524            2 
 1563000    1.0023508   -7.7564779     448.3552  0.023904628  0.023961638            1 
 1564000   0.99261066   -7.7431457    447.89725  0.023864943  0.023954874            4 
 1565000   0.99272619   -7.7020794    450.60376  0.023993811  0.023948159            3 
 1566000    1.0104266   -7.7313961    448.60266  0.023872002  0.023941523            2 
 1567000    1.0120348   -7.7293741    450.00128  0.023931146  0.023934868            3 
 1568000   0.99661811   -7.7195998    448.79544  0.023851798  0.023928118            1 
 1569000    0.9959535   -7.7441989    449.14455  0.023855139  0.023921329            4 
 1570000    1.0015107   -7.6945149    450.35434  0.023904158  0.023914597            5 
 1571000   0.98475315   -7.7218317    449.74201  0.023856461   0.02390776            2 
 1572000    1.0137633   -7.7223533    448.60517  0.023781021  0.023901039            1 
 1573000    1.0011755   -7.7748518     449.4112  0.023808603  0.023894153            2 
 1574000   0.97905789   -7.7425887    449.37257  0.023791432  0.023887263            2 
 1575000   0.99009124   -7.7179027    451.26152  0.023876271  0.023880388            1 
 1576000   0.97586586   -7.7013483    450.56523  0.023824304  0.023873581            1 
 1577000    1.0007415   -7.7410037     449.3884  0.023747009  0.023866783            3 
 1578000   0.98665123   -7.7268909    450.42609   0.02378676  0.023859863            2 
 1579000   0.98856336   -7.7346607    450.52087  0.023776698  0.023852819            1 
 1580000    1.0104992   -7.7672239    449.45715  0.023705546  0.023845883            2 
 1581000    1.0077228   -7.7570259    450.27573  0.023733698  0.023838814            1 
 1582000    1.0113505   -7.7296933    450.09965  0.023709421   0.02383175            2 
 1583000    1.0027074   -7.7235277    449.61032  0.023668684  0.023824763            2 
 1584000    1.0104652    -7.714267    450.96172  0.023724838  0.023817713            3 
 1585000   0.99401831   -7.7062675    451.01884  0.023712873  0.023810784            2 
 1586000   0.97788657   -7.6916036    451.45236    0.0237207  0.023803988            4 
 1587000    1.0125079   -7.7313444    451.19494  0.023692236  0.023797037            1 
 1588000   0.98524863   -7.6995164    451.99261  0.023719175  0.023790084            2 
 1589000    1.0161258   -7.7331391    451.34847  0.023670467  0.023783127            1 
 1590000   0.98582291   -7.7146865    452.28546  0.023704689  0.023776128            2 
 1591000   0.99454281   -7.7273949    451.77898  0.023663261  0.023769219            3 
 1592000   0.99487684    -7.725103    451.53452  0.023635601  0.023762181            1 
 1593000     1.008839   -7.7511068     451.2536  0.023606068  0.023755207            4 
 1594000   0.99303424   -7.7288885    452.01577  0.023631105  0.023748235            2 
 1595000    1.0025477   -7.7049321    453.48627  0.023693118  0.023741336            3 
 1596000    1.0037656   -7.7631401    452.14648  0.023608317  0.023734416            3 
 1597000    1.0077779   -7.7416965    453.03205  0.023639744  0.023727529            2 
 1598000   0.96307319    -7.730328    453.66579  0.023657999  0.023720675            4 
 1599000     1.002853    -7.746882    453.51812  0.023635508  0.023713722            2 
 1600000    1.0279364   -7.7277904    455.28141  0.023712574  0.023706788            1 
 1601000   0.98695005   -7.7651426    453.65991  0.023613362  0.023699858            2 
 1602000    1.0025986    -7.754205    453.52346  0.023591524  0.023692892            1 
 1603000   0.98998109   -7.7644378     453.6098  0.023581296  0.023685915            4 
 1604000   0.99513953   -7.7285611    453.80012  0.023576482  0.023679037            1 
 1605000    1.0203779   -7.7311923     453.8958   0.02356676  0.023672094            3 
 1606000   0.98851241    -7.792618    452.89518  0.023500165  0.023665009            4 
 1607000   0.99567497   -7.7371063    455.23238   0.02360674   0.02365806            1 
 1608000   0.98234448   -7.7716626    453.32143  0.023493026  0.023650923            2 
 1609000    1.0083882   -7.8054289     452.0026   0.02341012  0.023643813            1 
 1610000   0.97546088   -7.7940388    453.44607  0.023470294  0.023636692            2 
 1611000   0.96950309   -7.7688574    454.88797  0.023530311  0.023629477            2 
 1612000   0.98711308   -7.7769488    454.64223   0.02350301  0.023622341            4 
 1613000   0.99996883   -7.7075815    455.56331  0.023536026  0.023615432            2 
 1614000    1.0196112   -7.7213676    455.51627  0.023519014  0.023608581            5 
 1615000     0.969495   -7.7690609    456.01676  0.023530276  0.023601593            3 
 1616000    0.9840226   -7.7771596    455.88267  0.023508801   0.02359457            1 
 1617000    1.0075326   -7.7682516    456.53557   0.02352791  0.023587659            2 
 1618000   0.99398719    -7.779067    454.69437   0.02341854  0.023580669            2 
 1619000   0.99351282   -7.7866749    456.67329  0.023505934  0.023573738            1 
 1620000    0.9856873   -7.7627385    456.35514  0.023475059  0.023566839            4 
 1621000   0.97922835   -7.7548663    457.31227  0.023509782  0.023559969            2 
 1622000   0.99822719   -7.7436877    456.54471  0.023455852  0.023553103            5 
 1623000    1.0011468   -7.7167604    457.57932  0.023494523  0.023546254            6 
 1624000   0.98975604   -7.7746554    456.33974  0.023416448  0.023539315            2 
 1625000    1.0069741   -7.7581587    456.68129  0.023419554   0.02353236            2 
 1626000   0.98007602   -7.7737931    457.05308  0.023424205  0.023525357            3 
 1627000   0.97366461   -7.7469011     456.6577  0.023389556   0.02351835            2 
 1628000    1.0132186   -7.7277278     456.0122  0.023342148  0.023511372            4 
 1629000   0.99877725    -7.755132    456.96197  0.023376405  0.023504258            3 
 1630000   0.99072098   -7.7691843     456.4534  0.023336064  0.023497206            1 
 1631000   0.98555793   -7.7855671    457.12509  0.023356075  0.023490187            3 
 1632000    0.9822696    -7.756943    459.31942   0.02345381  0.023483131            5 
 1633000   0.99278742   -7.7704322    456.26026  0.023283337  0.023476039            1 
 1634000    1.0198557   -7.7460832    457.89732  0.023352576  0.023469006            3 
 1635000   0.97269066   -7.7718545    458.13317  0.023350314   0.02346195            4 
 1636000   0.96325242   -7.7907243    457.33339  0.023295303  0.023454854            3 
 1637000   0.96989679   -7.7829141     458.2084  0.023325616  0.023447756            3 
 1638000   0.99737015   -7.7593548    458.20308  0.023311105  0.023440695            3 
 1639000   0.97981578   -7.7857843    459.62032   0.02336894  0.023433723            1 
 1640000    1.0096473   -7.7973335    458.35745  0.023290521   0.02342671            1 
 1641000   0.98041014   -7.7652643    458.70402  0.023293927  0.023419593            1 
 1642000   0.98167266    -7.745058    459.56622  0.023323499  0.023412595            1 
 1643000   0.94757747   -7.7616754    460.22518  0.023342726   0.02340553            5 
 1644000   0.97464404   -7.7898575    457.86364  0.023208822  0.023398391            1 
 1645000   0.98442711   -7.7323783    459.72803  0.023289161  0.023391348            3 
 1646000   0.97214474   -7.7303303    459.34929  0.023255837  0.023384317            1 
 1647000    0.9900293   -7.7701029    459.65887   0.02325738  0.023377208            2 
 1648000    1.0006596    -7.790793    459.22589  0.023221374  0.023370178            2 
 1649000   0.98307202   -7.7699189    459.87964   0.02324033  0.023363102            2 
 1650000    1.0109108   -7.7439262    463.19752  0.023393814  0.023356216            3 
 1651000    1.0061845   -7.7531109    460.41761   0.02323933  0.023349377            2 
 1652000   0.97426528   -7.7597324    460.90955  0.023250078  0.023342448            2 
 1653000   0.98701729   -7.8149174    459.70561  0.023175318  0.023335448            2 
 1654000    1.0007871   -7.7842513    460.74976  0.023213914  0.023328362            3 
 1655000   0.95318451   -7.7840892    461.12082  0.023218571  0.023321258            3 
 1656000   0.99313497   -7.7854355    460.54506  0.023175576  0.023314153            2 
 1657000   0.97805749   -7.7964096    460.85111  0.023176982  0.023307105            2 
 1658000    1.0039755   -7.7819545    460.63302  0.023152042   0.02330002            2 
 1659000   0.97552089   -7.7765126    459.95902   0.02310423   0.02329291            6 
 1660000   0.97944052   -7.7630534    461.25299   0.02315527  0.023285745            3 
 1661000   0.98398283   -7.8008234    461.65264  0.023161381  0.023278599            1 
 1662000   0.98981729   -7.7486835    462.03002  0.023166367  0.023271518            6 
 1663000    1.0014542   -7.7887717    461.66487  0.023134139  0.023264516            1 
 1664000    1.0072324   -7.7790491     462.2369  0.023148883  0.023257477            2 
 1665000   0.97359691   -7.7822948    462.52809  0.023149554  0.023250386            2 
 1666000   0.98409231   -7.7310785    463.37444  0.023177993  0.023243419            1 
 1667000   0.98023988   -7.7805641    463.22237  0.023156487  0.023236477            2 
 1668000   0.99156036    -7.769949    462.12827  0.023087943  0.023229457            1 
 1669000   0.96221061   -7.7892143    461.48627  0.023042054  0.023222344            3 
 1670000     0.986033   -7.7513539    463.58059  0.023132764  0.023215281            2 
 1671000    0.9775788   -7.7926566    463.12716  0.023096307  0.023208219            2 
 1672000    1.0174862   -7.7807621    462.70907  0.023061656  0.023201213            2 
 1673000   0.97672451   -7.7696663    462.60075  0.023042476  0.023194175            5 
 1674000    1.0094525   -7.7174357      464.568  0.023126643  0.023187172            3 
 1675000   0.97695459   -7.7801716    464.54356   0.02311162  0.023180308            4 
 1676000   0.99560508     -7.77938    463.78624  0.023060175    0.0231733            3 
 1677000   0.99440456   -7.7949799    464.12232  0.023063125  0.023166327            2 
 1678000   0.98771295   -7.7957782    464.91612  0.023088802  0.023159325            4 
 1679000   0.99959149   -7.7661777    463.26811  0.022993255  0.023152383            1 
 1680000   0.98403237   -7.7880727    463.93208  0.023012504  0.023145471            2 
 1681000   0.96455308   -7.8137968    464.60547  0.023032196  0.023138503            3 
 1682000   0.96835776   -7.7883138      465.774  0.023076397  0.023131407            7 
 1683000    0.9928989   -7.7874223    465.28277  0.023038363   0.02312443            2 
 1684000   0.97790316    -7.776243    465.84852  0.023052678  0.023117468            2 
 1685000    1.0028677    -7.790725    465.87352  0.023040233  0.023110558            3 
 1686000   0.97962643   -7.7420548    465.75034  0.023020479  0.023103617            1 
 1687000    0.9887738   -7.7930626    465.11233  0.022975318  0.023096614            3 
 1688000   0.98058709   -7.7762533      464.985  0.022955421  0.023089595            5 
 1689000   0.95874024   -7.7810729    466.44346  0.023013788  0.023082653            2 
 1690000   0.97762102    -7.786453    466.81873  0.023018675  0.023075675            1 
 1691000    0.9957795   -7.7298772    467.40618  0.023034012  0.023068788            7 
 1692000   0.97406897   -7.7926495    467.37955  0.023019087  0.023061875            3 
 1693000   0.98908721   -7.7297478    467.77986  0.023025195  0.023054952            1 
 1694000    0.9739883   -7.7909446    465.36952   0.02289303  0.023047876            1 
 1695000   0.99411319   -7.7926739    465.51057  0.022886459  0.023040772            2 
 1696000   0.98937348    -7.781724    465.66388  0.022880497  0.023033696            2 
 1697000   0.97091165   -7.7557267    466.84892  0.022925207  0.023026547            1 
 1698000   0.97409743   -7.7693422     467.1059  0.022924318  0.023019345            2 
 1699000   0.96663347   -7.7699453    466.65082  0.022888504  0.023012178            2 
 1700000   0.97282091    -7.800309    466.81964  0.022883316  0.023005067            2 
 1701000    0.9822292   -7.7797873    466.76053  0.022866967  0.022997862            1 
 1702000   0.98622257   -7.8096815    466.10228  0.022821302   0.02299065            5 
 1703000   0.98615674   -7.8102114    466.05074   0.02280538  0.022983495            2 
 1704000   0.98336158    -7.809485    465.69477  0.022774588  0.022976291            2 
 1705000   0.97996062    -7.760015    467.56267  0.022852525   0.02296905            2 
 1706000   0.97745335     -7.75662    467.32928   0.02282773  0.022961884            1 
 1707000   0.99935125   -7.8197598    466.98999  0.022797793  0.022954585            2 
 1708000      0.98339   -7.7804764    466.44268  0.022757742  0.022947332            1 
 1709000   0.96598971   -7.7497636    467.89236  0.022815114   0.02294014            3 
 1710000   0.96925219   -7.7637226    468.49215  0.022831002  0.022932997            3 
 1711000   0.97841787    -7.790434    468.05983  0.022796602  0.022925855            2 
 1712000   0.97254379   -7.8111065    466.17611  0.022691594  0.022918654            3 
 1713000   0.97640701   -7.8019642    467.20312  0.022728309  0.022911312            2 
 1714000   0.99969982   -7.7832941    467.88031  0.022747973  0.022904155            2 
 1715000   0.97647998   -7.7944413    467.16357  0.022699882   0.02289691            3 
 1716000   0.96898927    -7.807851    469.27001  0.022788948  0.022889759            2 
 1717000   0.98197746    -7.779001    469.08075   0.02276649  0.022882626            2 
 1718000   0.97780907   -7.7669685    468.71057  0.022735282  0.022875581            3 
 1719000   0.98911291   -7.7460912    469.94854   0.02278207  0.022868615            1 
 1720000   0.94988283   -7.7397921    471.55253  0.022846537  0.022861527            1 
 1721000   0.97364049   -7.7687555    469.60905  0.022739156  0.022854446            4 
 1722000   0.97796067    -7.815939    469.43124  0.022717346  0.022847265            4 
 1723000   0.97466579   -7.8084449     469.2402  0.022694922  0.022840162            3 
 1724000   0.97400095   -7.8149199    470.18784  0.022727564  0.022833045            3 
 1725000   0.97441767   -7.7902585    468.81581  0.022648107  0.022825906            2 
 1726000   0.95752607   -7.8160075    470.00391  0.022692348  0.022818766            2 
 1727000   0.97705154   -7.7801897    470.36637  0.022696698  0.022811651            1 
 1728000   0.96386604   -7.8222046    470.39448  0.022684919  0.022804545            3 
 1729000   0.95785451   -7.7732992    471.02481  0.022702179  0.022797429            2 
 1730000   0.96925067   -7.8098082    469.31463  0.022606678  0.022790314            1 
 1731000   0.96053724    -7.786707    470.17393  0.022634986  0.022783253            2 
 1732000   0.97049581   -7.7732982     470.4068  0.022633122  0.022776209            6 
 1733000   0.97591855   -7.8032465    469.41356  0.022572301  0.022769055            4 
 1734000   0.99216534   -7.7925249    469.90388  0.022582847  0.022761861            3 
 1735000   0.97574785   -7.7888881    470.86773  0.022616125  0.022754692            5 
 1736000   0.98785527   -7.8338994    471.06596  0.022612613  0.022747461            2 
 1737000   0.96026739   -7.7952231    470.60026  0.022577253  0.022740271            1 
 1738000    0.9697602   -7.8410213    470.36689  0.022553073  0.022733021            1 
 1739000   0.99996865   -7.8011324    470.84415  0.022562974  0.022725771            2 
 1740000   0.95682518   -7.7776742    471.37107  0.022575243  0.022718537            2 
 1741000    0.9640726   -7.8111389    471.48568  0.022567762  0.022711337            6 
 1742000   0.97304465   -7.8248705    470.13621  0.022490251  0.022704102            4 
 1743000   0.97533323    -7.832658    469.40076  0.022442186  0.022696844            6 
 1744000   0.98592735   -7.8062206    471.69603  0.022538992  0.022689571            3 
 1745000   0.95851045   -7.7733071    471.23442  0.022504031  0.022682312            3 
 1746000   0.98870552   -7.7808182    472.57001  0.022554888  0.022675081            2 
 1747000   0.96584624   -7.7861055     471.3952  0.022485938  0.022667806            6 
 1748000   0.96466687   -7.8199218    471.18703   0.02246315  0.022660582            4 
 1749000   0.96942416   -7.8742171    471.14193  0.022448157  0.022653235            4 
 1750000   0.97091666   -7.7850252    471.16535  0.022436445  0.022645858            3 
 1751000   0.97109905   -7.8204932    470.43236  0.022388747  0.022638431            4 
 1752000   0.96237481   -7.8086617    472.88642  0.022492695  0.022631004            2 
 1753000   0.98055415    -7.832297    470.94984  0.022387804  0.022623605            1 
 1754000   0.97063978   -7.8252279    472.06428  0.022427987  0.022616158            4 
 1755000   0.97476216    -7.835963    470.49506  0.022340696  0.022608776            4 
 1756000   0.97411297   -7.7929961    472.45026   0.02242076  0.022601451            4 
 1757000    0.9811814   -7.7766803      474.062  0.022484443  0.022594124            2 
 1758000    1.0062623    -7.783774    473.37826  0.022439243  0.022586798            2 
 1759000   0.97899324   -7.8085762    472.79683   0.02239894  0.022579479            5 
 1760000   0.96173583   -7.7828763    472.26993  0.022361266  0.022572212            2 
 1761000   0.98322033   -7.8102416    474.06798  0.022433654  0.022564879            1 
 1762000   0.98101336   -7.7745212    475.08565  0.022469053  0.022557616            2 
 1763000   0.98497549   -7.8125117     474.2156  0.022415182  0.022550405            2 
 1764000   0.99437117   -7.8193271    473.40959  0.022364399  0.022543241            2 
 1765000   0.95741917   -7.8173973    473.46962  0.022354562  0.022536006            2 
 1766000   0.96125048    -7.783937    475.06083  0.022416989  0.022528805            2 
 1767000   0.95882889   -7.8325564    474.00964  0.022354728  0.022521581            1 
 1768000   0.97506891   -7.8264775    474.98622  0.022388114  0.022514372            1 
 1769000   0.95320614   -7.8211701    474.86299  0.022369653  0.022507214            5 
 1770000   0.96659768   -7.8265524    475.12014  0.022369122  0.022499986            4 
 1771000   0.96694647   -7.8510889    474.70034  0.022336737  0.022492663            2 
 1772000    0.9841259   -7.8606376    474.65932  0.022322203  0.022485383            2 
 1773000   0.97437229    -7.850859    474.92924  0.022322299  0.022478109            5 
 1774000   0.97526542   -7.8853598    474.17622  0.022274343  0.022470855            3 
 1775000   0.97729756   -7.8296533     475.1029  0.022305301  0.022463595            1 
 1776000   0.97323287   -7.8632434    476.02942  0.022336215  0.022456412            3 
 1777000   0.95810028   -7.7773628    477.29254   0.02238288  0.022449315            3 
 1778000   0.96030235   -7.7881214    476.77074  0.022345835  0.022442246            1 
 1779000    0.9711507    -7.838032    475.32803  0.022265694  0.022435105            4 
 1780000   0.97370139   -7.7914332    476.32715   0.02229996  0.022428021            4 
 1781000   0.97440418   -7.8524637    476.06994  0.022275404  0.022420881            2 
 1782000   0.96659565   -7.8340842    477.35808  0.022323142  0.022413674            2 
 1783000   0.94293225   -7.8079305    477.86681    0.0223344  0.022406494            1 
 1784000   0.97420219    -7.830767    476.35968   0.02225148  0.022399282            3 
 1785000   0.96834002   -7.8186816    476.45095  0.022243275  0.022392062            5 
 1786000    0.9477045   -7.8162096    476.29391  0.022223494  0.022384922            1 
 1787000   0.96324652   -7.8120293     477.8264  0.022282522   0.02237783            4 
 1788000   0.98304391   -7.8314391    475.72681  0.022172204  0.022370664            2 
 1789000   0.95939145   -7.8242487    477.56365  0.022245372  0.022363468            5 
 1790000   0.95495965   -7.8639239    477.13246   0.02221287  0.022356392            2 
 1791000   0.97788419   -7.8472757    476.76657  0.022183443  0.022349162            1 
 1792000   0.97317441   -7.8073751    479.88483  0.022316073  0.022342039            2 
 1793000   0.97296052    -7.798528    479.03719  0.022264231   0.02233499            2 
 1794000   0.98525977   -7.8090566    477.90932  0.022199429  0.022327935            2 
 1795000   0.96709841    -7.820653    478.48171  0.022213636  0.022320828            3 
 1796000   0.96221192   -7.8391997    478.14456  0.022185623  0.022313656            2 
 1797000   0.94244717   -7.8471752    478.41138  0.022185651  0.022306498            2 
 1798000   0.97248526      -7.8411    477.85963   0.02214774  0.022299307            5 
 1799000   0.94100143   -7.8158551    479.75976  0.022223447  0.022292257            3 
 1800000   0.96136584   -7.8167025    479.51106  0.022199586  0.022285179            5 
 1801000   0.95293814   -7.8579635    478.36983  0.022134455   0.02227804            3 
 1802000   0.96238629   -7.8225881    478.82411  0.022143179   0.02227092            3 
 1803000   0.98344071   -7.8219332    477.87418  0.022086993  0.022263693            2 
 1804000   0.94649411   -7.8367813    478.00762  0.022080914  0.022256461            2 
 1805000    0.9995434   -7.8232806    478.95292  0.022112323  0.022249209            1 
 1806000   0.95330271   -7.8120021    481.03075  0.022195955  0.022242079            1 
 1807000    0.9553004   -7.8376056    479.60357  0.022117855     0.022235            1 
 1808000   0.97125793   -7.7885023    479.04708  0.022079972  0.022227863            2 
 1809000   0.97556025   -7.8536941    479.67959  0.022096904  0.022220712            2 
 1810000     0.974795    -7.843163    480.07362  0.022102837  0.022213582            2 
 1811000   0.96860994   -7.8269468    481.07178  0.022136563  0.022206492            6 
 1812000   0.96948585    -7.831977    480.59364  0.022102356   0.02219937            3 
 1813000   0.95922114   -7.8216181    480.83822  0.022101408  0.022192297            4 
 1814000   0.97327422   -7.8183419    480.57495  0.022077129  0.022185245            3 
 1815000   0.95252511   -7.8287063    479.44617  0.022013139  0.022178102            4 
 1816000   0.97663279   -7.8512126    480.18002  0.022034692  0.022170833            2 
 1817000    0.9547244   -7.8142857    481.57612  0.022086595  0.022163612            3 
 1818000    0.9719325    -7.846276    480.90096  0.022043498  0.022156495            3 
 1819000   0.95182795   -7.8517131    480.23832  0.022001022  0.022149288            2 
 1820000   0.96922857    -7.830796    481.37021   0.02204076  0.022142128            2 
 1821000   0.97108208   -7.8132843    481.48434   0.02203388  0.022134999            1 
 1822000   0.97706634   -7.8344972    481.25873  0.022011468  0.022127917            3 
 1823000   0.97150714   -7.8601703    480.72149  0.021974835  0.022120766            1 
 1824000    0.9776441    -7.853973    482.29133  0.022034509   0.02211364            3 
 1825000   0.95139411   -7.8645858    481.54137   0.02198819  0.022106519            1 
 1826000    0.9629283   -7.8427033    481.91561  0.021993228  0.022099379            3 
 1827000   0.95315609   -7.8250057    482.87993  0.022025175  0.022092283            3 
 1828000    0.9680187   -7.8576951    482.02877  0.021974324  0.022085279            1 
 1829000   0.92672614   -7.8525446    482.09789  0.021965459    0.0220782            3 
 1830000   0.96058728   -7.8526724    482.84322  0.021987396  0.022071119            1 
 1831000   0.93358529   -7.8264665    484.13722  0.022034281  0.022064077            1 
 1832000   0.96111644   -7.8596596     483.2518  0.021981978     0.022057            1 
 1833000   0.96074202    -7.812023    483.13461  0.021964658  0.022049993            1 
 1834000   0.93402309   -7.8626882    481.88941  0.021896102  0.022043009            4 
 1835000   0.98277136    -7.851927    483.56603   0.02196031  0.022036015            1 
 1836000   0.96869544   -7.8990129    482.35418  0.021893345  0.022028966            2 
 1837000   0.98413204   -7.8728469     482.7305  0.021898499  0.022021843            1 
 1838000   0.95556518   -7.8676651    484.61277  0.021971925  0.022014789            4 
 1839000   0.96213748   -7.8416319    483.88977  0.021927214  0.022007839            3 
 1840000   0.96296529   -7.8516874     484.1459  0.021926898  0.022000926            3 
 1841000   0.93847911    -7.877107    485.33311  0.021968727  0.021993966            2 
 1842000   0.94994631   -7.8454898    485.89557  0.021982246  0.021987042            1 
 1843000    0.9589626    -7.893546    483.63197  0.021867968  0.021980012            4 
 1844000   0.96280732    -7.882882    483.32033  0.021842025  0.021973001            4 
 1845000   0.94982406   -7.8746565     484.5565  0.021886021  0.021965999            2 
 1846000   0.96475546   -7.8778444    483.93056  0.021845908  0.021958996            4 
 1847000   0.97425619   -7.8647387    484.99693  0.021882193  0.021952068            5 
 1848000   0.95376862   -7.8558608    484.97282  0.021869265  0.021945034            5 
 1849000   0.94236698   -7.8364077    485.41952   0.02187757  0.021938159            1 
 1850000   0.94690912   -7.8550114    485.16404  0.021854236  0.021931226            2 
 1851000   0.96944061   -7.8574111    485.76032  0.021869274  0.021924346            2 
 1852000   0.92759072   -7.8608996    487.67202  0.021943486  0.021917431            4 
 1853000   0.93993837   -7.8769218    484.67692  0.021796947  0.021910449            2 
 1854000   0.96757098   -7.8429292    486.02366  0.021845724   0.02190347            3 
 1855000   0.97251126   -7.8908058    485.85958  0.021826576  0.021896493            2 
 1856000   0.94767681   -7.8114804    487.31133  0.021879998  0.021889591            5 
 1857000   0.94560801   -7.8473281    485.53325  0.021788424  0.021882607            4 
 1858000   0.92903931   -7.8146793    486.32071  0.021812016  0.021875634            1 
 1859000    0.9373422   -7.8596918    485.63393  0.021769497  0.021868621            2 
 1860000   0.93468543   -7.8664149    486.14981  0.021780906  0.021861477            2 
 1861000   0.94309196   -7.8541822    485.16545  0.021725123  0.021854351            4 
 1862000   0.97815817   -7.9004123    483.91154  0.021657337    0.0218472            2 
 1863000   0.97444723   -7.8594287     486.0764  0.021742548   0.02184005            3 
 1864000   0.95734875    -7.856539    485.67766  0.021713057  0.021833008            2 
 1865000   0.97535612   -7.8718402    487.55507  0.021785302  0.021825951            2 
 1866000   0.96184956   -7.8572299    486.14896  0.021710832  0.021818937            6 
 1867000   0.94612978   -7.8730266    486.84221  0.021730147  0.021811967            2 
 1868000   0.96549419   -7.8588519    488.27924  0.021782621  0.021805005            4 
 1869000   0.94288446   -7.8805323    487.11077  0.021718868  0.021798017            1 
 1870000   0.95006851   -7.8686126    486.56238  0.021682815  0.021791039            2 
 1871000   0.94835252    -7.834249    488.08663  0.021739116  0.021784126            3 
 1872000   0.95343216   -7.8639314    489.02318  0.021769194  0.021777253            1 
 1873000   0.96015936   -7.8688918    489.16689  0.021763966  0.021770332            2 
 1874000   0.94850447   -7.8752277    488.06349  0.021703286  0.021763382            4 
 1875000   0.97287283   -7.8769162    488.89643   0.02172873   0.02175647            3 
 1876000   0.96593768   -7.8561411     488.8485  0.021715019  0.021749535            2 
 1877000   0.96085198   -7.8582221    489.15644  0.021717121  0.021742641            2 
 1878000   0.94158964   -7.8750961    489.39546  0.021716163  0.021735774            4 
 1879000   0.95525405   -7.9087956    488.52225   0.02166588  0.021728881            2 
 1880000   0.94817251   -7.8862582    489.88927   0.02171495  0.021722024            2 
 1881000   0.96486125   -7.8924242    489.71063  0.021695491  0.021715223            3 
 1882000   0.93972751   -7.8764329    489.42428  0.021671284  0.021708374            4 
 1883000   0.94846413   -7.8508116    490.33622  0.021700134  0.021701533            2 
 1884000   0.96461491   -7.8397375     491.0704   0.02172109  0.021694732            4 
 1885000   0.96987882   -7.9222594    487.92388  0.021570463  0.021687906            2 
 1886000   0.97608218   -7.8502165    490.75909  0.021684301  0.021681044            2 
 1887000   0.93541976   -7.8754111    490.33243  0.021653967  0.021674188            2 
 1888000   0.93961521   -7.8335104    490.13872  0.021633948  0.021667368            2 
 1889000   0.95946431   -7.8623849    489.54322  0.021596224  0.021660504            2 
 1890000   0.95519714   -7.8650794    490.06239  0.021607689  0.021653627            5 
 1891000   0.97097712   -7.8827915    490.86477  0.021631622  0.021646883            2 
 1892000   0.96248947   -7.8690795     491.1212  0.021631483   0.02164002            3 
 1893000   0.94965941   -7.8747405    491.06923  0.021617768   0.02163317            2 
 1894000   0.94197567   -7.8755432    490.30685  0.021572811  0.021626359            4 
 1895000   0.94064759   -7.8961167    489.24014  0.021514518  0.021619528            2 
 1896000   0.94491754   -7.8712734    490.94848  0.021578256  0.021612674            1 
 1897000   0.92928722   -7.8987089    491.23508  0.021579471  0.021605778            5 
 1898000   0.95304096   -7.8956336    490.84102    0.0215508  0.021598834            1 
 1899000   0.97405237   -7.9229725    489.58663  0.021484405  0.021591934            1 
 1900000   0.94484749   -7.8817325    491.37697  0.021551621   0.02158505            2 
 1901000   0.97815064   -7.8961045    490.79694  0.021514858  0.021578128            2 
 1902000   0.98398354   -7.8645678    490.84084   0.02150547  0.021571268            1 
 1903000   0.95492458   -7.8303754    493.03081  0.021590069  0.021564404            3 
 1904000   0.94566598   -7.8650018    491.15157   0.02149648  0.021557572            2 
 1905000   0.96202467   -7.8985644    491.30313  0.021491826  0.021550745            2 
 1906000   0.94676699   -7.8818202    491.37183  0.021483553  0.021543812            2 
 1907000   0.94333844   -7.8595131    492.36405  0.021515646  0.021536889            1 
 1908000   0.96304744   -7.8681365    491.22236  0.021454506  0.021529924            1 
 1909000   0.94567751   -7.8833752    491.48138  0.021454574  0.021523016            3 
 1910000   0.96006629   -7.8628775    492.96246  0.021507961  0.021516169            3 
 1911000    0.9491349   -7.8670522    492.14676  0.021461136  0.021509326            4 
 1912000   0.96199652   -7.8796509    492.82192  0.021479338  0.021502455            4 
 1913000   0.96267404   -7.8909224    492.61294  0.021459006  0.021495614            1 
 1914000   0.96018992   -7.8887301    492.53311  0.021444318   0.02148877            2 
 1915000   0.94664324   -7.8984413    492.91309  0.021449656  0.021481923            5 
 1916000    0.9368556   -7.8748395    494.61439  0.021512456   0.02147508            2 
 1917000   0.95485529   -7.9326761    492.21931  0.021397119  0.021468219            2 
 1918000   0.94211741   -7.9123687    494.87015  0.021501136  0.021461391            2 
 1919000   0.94596834   -7.9005567     493.6527  0.021437064  0.021454517            1 
 1920000   0.93815718   -7.8960379     494.3868   0.02145776  0.021447618            3 
 1921000   0.94569467   -7.8669943    494.00434  0.021429999  0.021440814            3 
 1922000   0.93701627    -7.913188    494.07917  0.021422094  0.021434019            3 
 1923000   0.96901061   -7.9259041    493.55061  0.021388049  0.021427148            3 
 1924000   0.95161252   -7.9007292    493.93611  0.021393629  0.021420264            1 
 1925000   0.94212715   -7.8644221    496.10498  0.021476406  0.021413481            2 
 1926000   0.94040225   -7.8862724    494.16685  0.021381397  0.021406782            1 
 1927000   0.94313403   -7.8817926    494.56639   0.02138758  0.021399978            4 
 1928000   0.95345363   -7.8999229    493.95685  0.021350141  0.021393241            2 
 1929000   0.92349274   -7.9156636    494.92525  0.021380908  0.021386486            3 
 1930000   0.94362576   -7.8613646    495.40282   0.02139045   0.02137973            3 
 1931000   0.94095817   -7.8788966    494.87905  0.021356769   0.02137301            2 
 1932000   0.94417101   -7.8911786     493.8918  0.021303132  0.021366245            3 
 1933000   0.95312929   -7.9197145    495.81644  0.021375083    0.0213594            2 
 1934000   0.92998625   -7.8927037     495.7403  0.021360751  0.021352557            3 
 1935000    0.9429894   -7.8936752    496.27311  0.021372658  0.021345809            2 
 1936000   0.95414009   -7.8949685    495.60797  0.021332988  0.021339058            1 
 1937000   0.94346044   -7.8957956    497.00824  0.021382216  0.021332368            1 
 1938000   0.94663375    -7.859267    496.64159  0.021355417  0.021325635            5 
 1939000   0.95044816   -7.8845544    497.03201  0.021361183   0.02131894            3 
 1940000   0.94560983   -7.8929133     497.0572  0.021351254  0.021312285            2 
 1941000   0.96754578   -7.8928743    496.03634  0.021296425  0.021305541            2 
 1942000   0.94755291   -7.9092373    496.00072  0.021283931  0.021298889            5 
 1943000   0.94660067   -7.8912524    495.96659  0.021271513  0.021292146            3 
 1944000   0.93450666   -7.9144677    497.37983  0.021321152  0.021285417            4 
 1945000    0.9545285   -7.8973485    497.15842  0.021300703  0.021278696            2 
 1946000   0.94603886   -7.8791567    499.62147  0.021395233  0.021271946            2 
 1947000   0.95952261     -7.88308    497.64148  0.021299498  0.021265296            4 
 1948000    0.9533851   -7.9134119    497.82614  0.021296464  0.021258642            2 
 1949000   0.94738565   -7.9159575    498.41568  0.021310744  0.021251957            1 
 1950000     0.939873   -7.8672145    499.50281  0.021346274  0.021245392            7 
 1951000   0.93287238   -7.8920169    498.17765  0.021278731  0.021238767            1 
 1952000   0.95260111   -7.9021924     497.6851  0.021246803   0.02123217            3 
 1953000   0.94557929   -7.9074036    498.78557   0.02128288  0.021225474            5 
 1954000    0.9214052   -7.9315343    496.58297  0.021178052  0.021218798            2 
 1955000   0.93904974   -7.8822706     499.7199  0.021300934  0.021212157            1 
 1956000   0.91856243   -7.9011879    499.02182  0.021260302  0.021205537            3 
 1957000   0.93193111    -7.911987    498.25217  0.021216665  0.021198842            4 
 1958000    0.9166206   -7.8855634    499.90968  0.021276374  0.021192104            3 
 1959000   0.92171972   -7.8654503    500.83396  0.021304831  0.021185431            1 
 1960000    0.9302257    -7.908458    498.46278  0.021193146  0.021178756            4 
 1961000   0.92065622   -7.9377261    498.07994  0.021166069  0.021172114            1 
 1962000   0.94899046   -7.9123675    499.69832   0.02122402  0.021165481            2 
 1963000   0.94105523   -7.9092664    498.61556  0.021167242  0.021158885            1 
 1964000   0.93848084   -7.8861686    499.76945  0.021205425  0.021152264            1 
 1965000   0.92598151   -7.8819589    498.78845   0.02115303  0.021145635            6 
 1966000   0.94506007   -7.8886363    499.65143   0.02117885  0.021139011            6 
 1967000   0.93360488   -7.8858951    500.61381  0.021208855  0.021132427            3 
 1968000   0.92825953   -7.8548252    500.00826  0.021172437  0.021125868            5 
 1969000   0.93363595   -7.8756786     501.2536   0.02121439  0.021119295            2 
 1970000    0.9586924   -7.9056658    501.87978  0.021230109  0.021112653            5 
 1971000   0.95314997   -7.9122841    500.15575  0.021146447  0.021106047            3 
 1972000   0.94551494   -7.8992901     501.5128  0.021193069  0.021099451            3 
 1973000   0.95017927   -7.8937229     500.3644  0.021133823  0.021092754            3 
 1974000   0.93899209   -7.9334094    500.17254  0.021115018  0.021085986            2 
 1975000   0.92407393   -7.9037685    501.01154  0.021139728  0.021079256            2 
 1976000    0.9027654   -7.8975983    500.83718  0.021121676  0.021072559            6 
 1977000   0.93223583   -7.9031715    500.28851  0.021087865  0.021065856            2 
 1978000   0.90596863   -7.9400291    500.48214  0.021085361  0.021059134            7 
 1979000   0.95105468    -7.944961    500.57356  0.021078556  0.021052377            3 
 1980000   0.93852165   -7.9459592    499.78911  0.021034895  0.021045564            7 
 1981000   0.94637782   -7.9011563    501.04323  0.021077033  0.021038859            3 
 1982000   0.94882815    -7.938537    501.81555  0.021098871  0.021032157            2 
 1983000   0.95946789   -7.9272714    500.60514  0.021037365  0.021025471            4 
 1984000   0.92673568   -7.9205426    500.85885  0.021037418  0.021018772            1 
 1985000    0.9331916   -7.8934966     500.9246   0.02102958  0.021012071            6 
 1986000   0.93382072   -7.8711594    503.26585  0.021117231  0.021005425            1 
 1987000   0.95521671   -7.8734768    502.97292  0.021094318  0.020998841            2 
 1988000   0.93263277   -7.8896972    502.21835  0.021052077   0.02099229            4 
 1989000   0.89771735   -7.8980794    501.57909   0.02101471  0.020985633            2 
 1990000   0.95673772   -7.9252803    500.83487  0.020972985  0.020978969            3 
 1991000    0.9352174   -7.8922751    502.89555    0.0210487  0.020972341            1 
 1992000   0.91770311    -7.857974    502.42169   0.02101831  0.020965743            3 
 1993000   0.91267283   -7.9314306    502.38368  0.021006175   0.02095919            1 
 1994000   0.93316357   -7.9280531    502.66352  0.021007335  0.020952577            2 
 1995000   0.93250573   -7.9028596    503.33184  0.021024722  0.020945916            3 
 1996000   0.94773154   -7.9325913    503.85051  0.021035843  0.020939349            3 
 1997000   0.90307638   -7.9061542    502.26917  0.020959321  0.020932801            3 
 1998000   0.93584241   -7.9296949    501.96104  0.020935979  0.020926191            2 
 1999000   0.92811225   -7.9380536      503.819   0.02100296  0.020919622            2 
 2000000   0.94224088   -7.9408546    503.47588  0.020978162  0.020913011            1 
 2001000   0.94723544    -7.898711    502.69136  0.020935006  0.020906406            2 
 2002000   0.91722385   -7.9299776    502.56172  0.020919152  0.020899832            2 
 2003000   0.91497473   -7.9145023    502.78402  0.020917957  0.020893159            3 
 2004000   0.93392611   -7.9535605    503.16803  0.020923488  0.020886432            2 
 2005000   0.93590814   -7.9597826    503.40627  0.020922954  0.020879667            4 
 2006000   0.92196772    -7.923441    503.68208  0.020923981  0.020872986            4 
 2007000   0.94594019   -7.8986695    504.48702  0.020946978  0.020866424            2 
 2008000   0.93433447   -7.8985093    504.22033  0.020925478  0.020859795            2 
 2009000   0.91885573    -7.913802    503.33243  0.020878233  0.020853157            3 
 2010000   0.92545924   -7.9383419    502.80295  0.020845893  0.020846465            4 
 2011000   0.92680239   -7.8940136    504.46323  0.020904327  0.020839749            2 
 2012000   0.92580496   -7.9566807    502.96325  0.020831811   0.02083301            3 
 2013000   0.91708374   -7.9374769    503.26874  0.020834109  0.020826274            6 
 2014000   0.93874807   -7.9555921    502.69595  0.020800064  0.020819536            2 
 2015000   0.93039279   -7.9327556    504.22085  0.020852806  0.020812788            4 
 2016000   0.92985502   -7.8993768    505.07801  0.020877894  0.020806053            1 
 2017000   0.92621577   -7.9349066      504.087  0.020826599  0.020799353            1 
 2018000   0.93321343   -7.9489521    503.78396  0.020803765  0.020792673            2 
 2019000   0.92954694   -7.9289516    504.41948  0.020819691   0.02078595            3 
 2020000   0.90754707   -7.9420934     503.4445  0.020769162  0.020779215            1 
 2021000   0.93043999   -7.9540322    502.86316  0.020734915  0.020772456            1 
 2022000   0.93956337    -7.930891    504.18977  0.020779334   0.02076571            2 
 2023000   0.93904689   -7.8979785    505.03111   0.02080372  0.020758905            3 
 2024000    0.9263577   -7.9087735    505.15283  0.020798453  0.020752137            2 
 2025000   0.92043991   -7.9437382    502.69245  0.020686932  0.020745379            3 
 2026000   0.91596637   -7.9469492    505.85584  0.020806838  0.020738631            3 
 2027000   0.90628787   -7.9238694    504.83932  0.020754782  0.020732006            2 
 2028000   0.91044075   -7.9352927    505.45556   0.02076987  0.020725395            4 
 2029000   0.92858522   -7.9186448    505.47602  0.020760474  0.020718773            2 
 2030000   0.92175069   -7.9267747    505.01659  0.020731387  0.020712064            2 
 2031000   0.93956133   -7.9181838    504.95219  0.020718537  0.020705382            7 
 2032000   0.91939122   -7.9340804    506.46593   0.02077042  0.020698742            4 
 2033000   0.93787948   -7.9519184    505.73801  0.020730366   0.02069208            6 
 2034000   0.92225329   -7.9145921    507.04589  0.020773758  0.020685429            8 
 2035000   0.92289575   -7.9432928    505.58704   0.02070381  0.020678821            1 
 2036000   0.94008957    -7.944501    505.92446  0.020707452  0.020672123            2 
 2037000   0.93687123   -7.9485321    505.18281  0.020666945  0.020665425            3 
 2038000   0.92079767   -7.9614298    506.76982  0.020721697  0.020658803            3 
 2039000   0.93691246   -7.9530474    505.98156  0.020679318  0.020652145            3 
 2040000   0.93183462   -7.9318696     506.3385  0.020683762   0.02064547            9 
 2041000    0.9050597   -7.9655424    507.05053    0.0207027  0.020638811            3 
 2042000   0.92349963   -7.9391744     505.7095  0.020637835  0.020632146            2 
 2043000   0.93029495   -7.9123633    508.22568  0.020730367   0.02062558            3 
 2044000    0.9119987   -7.9778747    505.76336  0.020619837  0.020618939            2 
 2045000   0.93215869   -7.9026905    507.18488  0.020667681  0.020612333            1 
 2046000     0.924811   -7.9600562    508.52322   0.02071209  0.020605821            2 
 2047000   0.92679224   -7.9762387    506.07425  0.020602274  0.020599217            3 
 2048000   0.90513272   -7.9765366    507.83318  0.020663785  0.020592629            1 
 2049000   0.91254726   -7.9640032    508.14454  0.020666363  0.020586019            3 
 2050000   0.92770912   -7.9283801    507.93613   0.02064781  0.020579503            2 
 2051000   0.95199302   -7.9648491    506.82387  0.020592551  0.020572923            2 
 2052000   0.92371217   -7.9532873    507.38467  0.020605291  0.020566222            2 
 2053000   0.94675428   -7.9304381    507.05121  0.020581718  0.020559554            3 
 2054000   0.91341655   -7.8884785    509.42832   0.02066814  0.020552957            4 
 2055000   0.93144292   -7.9241217     508.1221  0.020605114  0.020546346            3 
 2056000   0.93445607   -7.9268479    508.55718  0.020612726  0.020539722            3 
 2057000   0.91159143   -7.9350157    507.63365  0.020565291  0.020533079            2 
 2058000   0.91630424   -7.9464663    509.58784  0.020634428  0.020526474            1 
 2059000    0.9402819   -7.9615715    508.40088  0.020576367  0.020519819            2 
 2060000   0.90847929   -7.9257063    509.50675  0.020611115  0.020513297            2 
 2061000   0.93169943   -7.9200355    508.34261  0.020554044  0.020506737            2 
 2062000   0.91102836   -7.9278357    509.70431  0.020599107   0.02050007            2 
 2063000   0.91263166   -7.9345886    509.66779  0.020587647  0.020493447            1 
 2064000   0.93533882   -7.9649993    508.24268  0.020520134  0.020486788            2 
 2065000   0.93030428   -7.9858028    507.78048  0.020491545  0.020480113            6 
 2066000   0.94155439   -7.9163159    507.89881  0.020486399  0.020473373            3 
 2067000   0.90462777    -7.908961    510.05174  0.020563286  0.020466749            2 
 2068000   0.93047089   -7.9102646    509.30186  0.020523124   0.02046011            3 
 2069000   0.91697335   -7.9266138    510.39184  0.020557107   0.02045354            3 
 2070000   0.90689197   -7.9043727    510.40924  0.020547876  0.020446959            4 
 2071000   0.91351226   -7.9566876    509.11734   0.02048597  0.020440345            4 
 2072000   0.91392228   -7.9507628    508.22087  0.020440029  0.020433638            6 
 2073000   0.92098729   -7.9166483     510.2671  0.020512426  0.020426971            1 
 2074000   0.92763206   -7.9279441    510.76199   0.02052242   0.02042037            3 
 2075000   0.92519646   -7.9469269    509.47472  0.020460832  0.020413702            1 
 2076000   0.94688753   -7.9491498    509.65798  0.020458333  0.020406997            2 
 2077000      0.92008   -7.9321247    508.25364  0.020392138  0.020400292            4 
 2078000   0.91811689   -7.9269428    509.14541  0.020418087  0.020393603            2 
 2079000   0.92073501   -7.9604452    508.85732  0.020396718   0.02038689            2 
 2080000   0.93049377   -7.9120954    509.97182  0.020431563  0.020380216            2 
 2081000   0.92508674    -7.969913    509.90597  0.020419108  0.020373556            4 
 2082000   0.90135537   -7.9523054    510.08638  0.020416522  0.020366857            3 
 2083000   0.89901377    -7.931069    510.03113   0.02040451  0.020360157            2 
 2084000   0.90485804   -7.9541951    510.41623  0.020410118  0.020353436            3 
 2085000   0.90937878   -7.9669482    510.65855  0.020410014  0.020346762            2 
 2086000   0.93481141   -7.9426589    509.40359  0.020350096  0.020340116            1 
 2087000    0.9285458   -7.9424697    510.28884  0.020375693  0.020333456            3 
 2088000   0.91819845   -7.9205177     511.5222  0.020415158   0.02032678            2 
 2089000   0.94084188   -7.9701108    510.22348  0.020353578  0.020320124            1 
 2090000    0.9190329    -7.933241    510.69574  0.020362669  0.020313435            9 
 2091000   0.91805029   -7.9500061    510.92066  0.020361895  0.020306769            3 
 2092000   0.89656166    -7.949851    509.93124  0.020312749  0.020300102            7 
 2093000   0.93437085    -7.957935    509.93369  0.020303141  0.020293412            3 
 2094000   0.92630774   -7.9614727    509.56686  0.020278847  0.020286713            4 
 2095000    0.9257084   -7.9362463    511.94434  0.020363737  0.020280056            3 
 2096000   0.91579308   -7.9547278    510.44856  0.020294551  0.020273364            3 
 2097000   0.91429269   -7.9871627    510.08055  0.020270249  0.020266691            6 
 2098000   0.91758366   -7.9448087     511.3038  0.020309175   0.02025998            2 
 2099000   0.88796694   -7.9320103    511.82685  0.020320266  0.020253316            1 
 2100000   0.91479222   -7.9613128    511.55995  0.020299998  0.020246727            3 
 2101000    0.9212454   -7.9527776    511.36067  0.020282432  0.020240091            3 
 2102000   0.90826878    -7.939571    512.84557  0.020331651  0.020233436            3 
 2103000   0.91273399   -7.9291884    512.67234  0.020315119   0.02022683            4 
 2104000   0.90747383   -7.9383071    511.85801   0.02027321  0.020220176            2 
 2105000   0.91393658   -7.9709758    511.72481  0.020258306   0.02021352            3 
 2106000   0.90165625   -7.9557666     511.8492  0.020253609  0.020206875            3 
 2107000    0.9101308    -7.979936    511.39709  0.020226115  0.020200168            2 
 2108000   0.90254645   -7.9760692    511.08684  0.020204255   0.02019344            2 
 2109000   0.91796304   -7.9665784    511.60545  0.020215167   0.02018677            3 
 2110000   0.90153262   -7.9604196    512.65614  0.020247083  0.020180144            3 
 2111000   0.90771283   -7.9499613    512.58801  0.020234802    0.0201735            3 
 2112000    0.9065609   -7.9840842    511.56966   0.02018504  0.020166873            2 
 2113000   0.92853336   -7.9357738    513.40828     0.020248  0.020160239            2 
 2114000   0.93198212   -7.9905736    511.19365  0.020151122  0.020153611            1 
 2115000   0.89578452   -7.9466302    512.94574  0.020210628  0.020146974            2 
 2116000   0.92170333    -7.986272    512.02971  0.020165001  0.020140342            2 
 2117000    0.9089324   -7.9592492    512.03921   0.02015585  0.020133744            1 
 2118000   0.91870371   -7.9641418    514.43569  0.020240624  0.020127156            2 
 2119000   0.89429583   -7.9665506     512.1171  0.020139889  0.020120592            1 
 2120000   0.90203205   -7.9749144    513.76191  0.020195044  0.020114017            3 
 2121000    0.9384808   -7.9668763     513.2793   0.02016656  0.020107435            1 
 2122000   0.95618458    -7.952984     514.6433  0.020210623  0.020100959            2 
 2123000   0.90816483   -7.9964094    512.76953  0.020127552  0.020094445            3 
 2124000   0.90578251   -7.9436969    513.54015  0.020148311  0.020087853            2 
 2125000   0.90826347   -7.9517627    515.03946  0.020197626  0.020081277            2 
 2126000   0.91099139   -7.9815881    513.98102  0.020146638  0.020074725            3 
 2127000   0.89794377   -7.9752131     512.9194  0.020095573  0.020068169            2 
 2128000   0.91421493   -7.9539103    513.96074  0.020126909  0.020061617            5 
 2129000   0.88838689   -7.9558262    514.21956  0.020127586  0.020055012            1 
 2130000   0.90413969   -7.9670687    515.66521  0.020174695  0.020048483            2 
 2131000   0.91722379   -7.9843285    514.35739  0.020114085  0.020041932            2 
 2132000   0.90059688   -7.9909023    515.18054  0.020136825  0.020035366            2 
 2133000   0.90465469   -7.9538375     515.3346  0.020133404  0.020028873            3 
 2134000   0.90239455   -7.9686085    514.87664  0.020106085  0.020022317            3 
 2135000   0.89187379   -7.9551943    514.93326  0.020098878  0.020015737            4 
 2136000   0.90054268   -7.9926588    515.01755  0.020092757  0.020009166            3 
 2137000   0.90965903   -7.9929726    513.48015  0.020023403   0.02000256           10 
 2138000   0.90194359   -7.9742713    514.20101  0.020042135  0.019995943            4 
 2139000   0.89975758   -7.9600341    514.12244  0.020029704   0.01998933            2 
 2140000   0.91429809   -7.9611535    513.79163  0.020007462  0.019982731            6 
 2141000   0.92840504   -7.9530647    514.94907  0.020043168  0.019976116            7 
 2142000   0.91888172   -7.9399121    515.78535  0.020066346  0.019969563            3 
 2143000   0.90396441   -7.9874131    515.44901  0.020043903  0.019962948            1 
 2144000    0.9060245    -7.986559    513.47186  0.019957706  0.019956295            2 
 2145000   0.90363154   -7.9578647     515.4544  0.020025423  0.019949665            3 
 2146000   0.91888292     -7.98074    514.39764  0.019975056  0.019943059            4 
 2147000   0.91652039   -7.9675152     515.2525  0.019998933  0.019936424            3 
 2148000    0.8773634   -7.9731386    516.62871  0.020043013  0.019929843            1 
 2149000   0.90693172   -7.9398157    515.83496  0.020002907  0.019923242            2 
 2150000   0.89833511   -8.0003418    514.83841  0.019954977  0.019916592            2 
 2151000   0.92591742   -7.9861597    515.57073  0.019974071  0.019909962            2 
 2152000    0.9201071   -7.9699337    514.48886  0.019922896  0.019903294            2 
 2153000   0.90614474   -7.9925165    515.30344  0.019945171  0.019896607            3 
 2154000   0.90833797   -8.0045859    515.60876  0.019947724   0.01988994            3 
 2155000   0.91755121   -8.0044571    514.69716  0.019903216  0.019883268            1 
 2156000   0.91127799   -7.9947866    516.69739  0.019971297  0.019876625            5 
 2157000   0.91842516   -7.9876485    516.72151   0.01996297  0.019870035            3 
 2158000   0.91720314   -7.9966921    515.26962  0.019897653  0.019863421            4 
 2159000   0.89870758   -8.0004432    516.23172  0.019925572  0.019856809            4 
 2160000   0.89635042   -7.9707465    515.44598  0.019886033   0.01985016           10 
 2161000    0.9028178    -7.984584    517.07892  0.019939801  0.019843553            1 
 2162000   0.89289606   -7.9949765    517.60049  0.019950682  0.019836985            1 
 2163000   0.89046956   -7.9858453       517.35  0.019931808  0.019830459            2 
 2164000    0.9174708   -7.9514125    516.82596  0.019902417  0.019823911            1 
 2165000   0.91435718   -7.9998264    517.11275  0.019904263   0.01981734            7 
 2166000     0.890863    -7.998209    517.02525  0.019891707  0.019810757            3 
 2167000    0.9024711   -8.0175878    516.08496  0.019846368  0.019804138            3 
 2168000   0.90337081   -7.9998256    516.42359   0.01985023  0.019797504            3 
 2169000   0.89398399   -8.0050831    516.80106  0.019855581  0.019790867            3 
 2170000   0.90629356   -8.0094908    515.49127  0.019796132  0.019784233            4 
 2171000   0.90614652   -8.0204993    516.78018  0.019836488  0.019777576            6 
 2172000   0.88352816   -8.0001265    517.14497  0.019841351  0.019770908            5 
 2173000   0.90406576   -7.9967719    517.17084  0.019833212   0.01976423            6 
 2174000   0.91491135   -8.0293163    515.64292  0.019765521   0.01975749            1 
 2175000   0.92604967   -8.0073395    514.89986  0.019727964  0.019750736            3 
 2176000   0.88390628   -8.0052483    516.54248  0.019781804  0.019744041            1 
 2177000   0.90022649   -7.9779638    517.86774  0.019823447  0.019737338            2 
 2178000   0.91723838   -8.0084219    517.24556   0.01979054  0.019730684            3 
 2179000   0.90125904   -8.0071025    516.50549  0.019753155  0.019724027            3 
 2180000   0.90146101   -7.9637601    518.31309  0.019813192  0.019717421            3 
 2181000   0.90718463   -8.0059262    517.51891  0.019773762  0.019710743            1 
 2182000   0.89717219   -7.9892554    517.37565  0.019759229  0.019704134            2 
 2183000   0.89280636   -8.0345662    517.45697  0.019753282  0.019697495           10 
 2184000   0.90368905   -8.0348607    516.69084  0.019715004  0.019690896            2 
 2185000   0.89695291   -7.9885639    518.02836  0.019756993  0.019684276            2 
 2186000   0.90891819   -8.0065457     517.7608  0.019737755   0.01967771            4 
 2187000   0.91631138   -8.0102034    517.52682  0.019719815  0.019671086            2 
 2188000    0.8998921   -8.0262549    518.23009  0.019737587  0.019664447            2 
 2189000     0.882288   -7.9829114    518.67881  0.019745653  0.019657825            2 
 2190000   0.89171426   -7.9902718    518.46054  0.019728331  0.019651243            3 
 2191000   0.89658592   -8.0067074    518.21109  0.019709839  0.019644674            2 
 2192000   0.90695516    -7.996311    518.60909  0.019715978  0.019638084            6 
 2193000   0.89363493   -7.9820399    518.77566  0.019713317   0.01963156            3 
 2194000   0.88159871   -7.9967188    519.09069  0.019716298  0.019625012            2 
 2195000   0.91126592   -8.0171052     520.6981  0.019768341   0.01961855            1 
 2196000   0.90234921   -7.9968965    519.17982  0.019701724  0.019612074            6 
 2197000   0.90281057   -8.0055522    519.17255   0.01969248  0.019605566            2 
 2198000   0.88551048   -7.9829481    520.46447  0.019732502  0.019599088            1 
 2199000   0.89293732   -7.9783014    518.96956  0.019666878  0.019592589            5 
 2200000   0.89398866   -8.0124278    519.27257  0.019669416  0.019586086            5 
 2201000    0.9102381   -8.0273337    521.23506  0.019734782  0.019579648            3 
 2202000   0.90040466   -8.0117199    520.36814  0.019693012  0.019573207            3 
 2203000   0.90248512   -7.9930764    519.44497  0.019649151  0.019566759            2 
 2204000   0.90026465   -8.0047522    519.68991  0.019649497  0.019560325            8 
 2205000   0.89684339   -8.0498924     520.2069  0.019660125  0.019553827            3 
 2206000   0.88963527   -8.0147879    519.43059  0.019621887  0.019547362            8 
 2207000   0.88635736   -7.9744839    521.50161  0.019691195  0.019540933            2 
 2208000   0.89239974   -8.0059166     520.3602  0.019639199  0.019534491            2 
 2209000   0.88823708   -8.0182156    520.22246  0.019625112  0.019528047            2 
 2210000   0.90678532   -7.9929765    519.86383  0.019602709  0.019521597            3 
 2211000    0.8925363   -8.0427992    520.44822  0.019615868  0.019515112            3 
 2212000   0.89600941   -8.0189545    519.65774   0.01957722   0.01950868            1 
 2213000   0.88084076   -8.0238837    520.16184  0.019587356   0.01950218            1 
 2214000   0.91356273   -8.0281515    519.95077  0.019570565  0.019495693            6 
 2215000   0.91096304   -8.0083003    520.65564  0.019588248  0.019489182            5 
 2216000   0.89641451   -8.0363309    520.64638  0.019579061  0.019482673            2 
 2217000   0.89576849   -8.0168149    521.77215  0.019612545  0.019476212            5 
 2218000   0.88912063   -8.0107465    522.09801  0.019615946  0.019469738            4 
 2219000    0.8942413   -8.0208899    520.28978  0.019539198  0.019463245            2 
 2220000   0.90596272   -8.0076906    521.96728  0.019593366  0.019456795            1 
 2221000   0.88001194   -8.0389333    521.15149  0.019553936  0.019450302            1 
 2222000   0.86947636    -8.054614    521.46479  0.019556885  0.019443794            2 
 2223000   0.90124733   -8.0423886    521.28122  0.019541206  0.019437252            2 
 2224000   0.89470785   -8.0339943    522.28427  0.019570004  0.019430754            1 
 2225000   0.92194372   -8.0293177     522.2636  0.019560435  0.019424228            7 
 2226000   0.91109108   -8.0048272    522.27921  0.019552231  0.019417744            4 
 2227000   0.88488206   -8.0534449    520.81619  0.019488707  0.019411215            2 
 2228000   0.89341782   -8.0581211    521.65162  0.019511207  0.019404655            5 
 2229000   0.90714937   -8.0467168     521.9835  0.019514861  0.019398079            3 
 2230000   0.89063264   -8.0445937    520.46554  0.019449385  0.019391572            3 
 2231000   0.90630348   -8.0339734    521.04261  0.019462222  0.019385013            6 
 2232000   0.89718231   -8.0541901    520.49519  0.019433064  0.019378436            2 
 2233000    0.9033057   -8.0315772    520.50502  0.019424728  0.019371837            2 
 2234000   0.88986343   -8.0354536    521.09397  0.019438002  0.019365259            1 
 2235000    0.8893627   -8.0540689    522.29619  0.019474131  0.019358686            2 
 2236000    0.9044843   -8.0167504    522.74494  0.019482146  0.019352159            4 
 2237000    0.8807881   -7.9917509    521.48072  0.019426342   0.01934569            4 
 2238000   0.87047157    -8.010214    522.71436  0.019463597  0.019339194            2 
 2239000   0.89602711    -8.000585    522.39116  0.019442875  0.019332713            3 
 2240000   0.91435815   -8.0367804    521.79629  0.019412064  0.019326186            4 
 2241000   0.90406683   -8.0022916    522.54538  0.019431257  0.019319651            2 
 2242000   0.89759273   -8.0158037    523.16096  0.019445471  0.019313101            3 
 2243000   0.87605296   -7.9980816    522.00035  0.019393682  0.019306636            1 
 2244000   0.90815232   -8.0205735    522.69748  0.019410928  0.019300133            2 
 2245000   0.88862112   -8.0179435    522.82024  0.019406839  0.019293659            1 
 2246000   0.92808598   -7.9846172    522.69149  0.019393421  0.019287181            5 
 2247000   0.88831222   -8.0317048    522.26854  0.019369105  0.019280678            3 
 2248000   0.87847368   -8.0162657    521.98931  0.019350138  0.019274169            3 
 2249000   0.89827968   -8.0501822    522.61982  0.019364896  0.019267631            6 
 2250000   0.89579117   -8.0266391    522.77419  0.019362007  0.019261135            3 
 2251000   0.89358631   -8.0329604    523.67944  0.019386919  0.019254617            2 
 2252000   0.89261735   -8.0074436    522.93593  0.019350797  0.019248132            2 
 2253000   0.88014953   -8.0247155    522.65436  0.019331793  0.019241665            2 
 2254000   0.90363021   -8.0245835    523.50411  0.019354633  0.019235217            3 
 2255000    0.8789331   -8.0368441    522.05626  0.019292545  0.019228736            3 
 2256000    0.8861875   -8.0299834    522.92442  0.019316062  0.019222269            2 
 2257000   0.89426098   -8.0647504    522.46754  0.019290634  0.019215817            2 
 2258000   0.87169972   -8.0672219    522.88664  0.019297558   0.01920941            4 
 2259000   0.89669524     -8.01221    523.47011   0.01931054  0.019203001            6 
 2260000    0.8870491   -8.0297405    524.67931  0.019346582  0.019196668            3 
 2261000   0.89113853   -8.0114221    525.34197  0.019362449  0.019190329            3 
 2262000   0.88276261    -7.997689    525.67869  0.019366294  0.019184002            3 
 2263000   0.88104815    -8.022495    524.20058  0.019303306    0.0191777            6 
 2264000   0.89106312   -8.0283811    524.29714  0.019298334  0.019171371            4 
 2265000    0.8878977   -8.0556376    524.94768  0.019313748  0.019165063            2 
 2266000   0.90034384   -8.0589605    525.33142  0.019319337  0.019158708            2 
 2267000   0.88764409    -8.020516    524.52281  0.019281091  0.019152296            3 
 2268000   0.89619782   -7.9823853    525.43007  0.019305925  0.019145956            4 
 2269000   0.90191666   -8.0215456    526.22447  0.019326593  0.019139601            2 
 2270000    0.9261735   -8.0359278    525.50687  0.019291735  0.019133249            3 
 2271000   0.88221474   -8.0339484    524.29306    0.0192387  0.019126906            2 
 2272000    0.8871955   -8.0277223    525.13298   0.01926104  0.019120523            3 
 2273000   0.88732731   -8.0578428    524.89913  0.019243992  0.019114147            2 
 2274000   0.89380661   -8.0367225    526.39359  0.019290296  0.019107774            2 
 2275000   0.88595075   -8.0599212    525.99632  0.019267264  0.019101407            2 
 2276000   0.88666904   -8.0142309    524.51107  0.019204418  0.019095098            2 
 2277000   0.87655921   -8.0446406    525.04832  0.019215646  0.019088732            3 
 2278000   0.87188607   -8.0561672     524.8874  0.019201324  0.019082347            2 
 2279000   0.87531087   -8.0487999    525.11081  0.019201068  0.019075956            3 
 2280000   0.88596818   -8.0688086    525.96249  0.019223775  0.019069489            4 
 2281000   0.88456157   -8.0333538    525.57267  0.019201106  0.019063065            2 
 2282000   0.88833899    -8.038424    526.20406  0.019215749  0.019056635            3 
 2283000   0.88925514   -8.0640326    526.44703    0.0192162  0.019050287            2 
 2284000   0.89109999   -8.0444732    525.55084  0.019175089  0.019043913            2 
 2285000   0.87856304   -8.0447946    525.15633   0.01915231  0.019037496            2 
 2286000   0.90223073   -8.0105002    525.27198  0.019148147  0.019031108            3 
 2287000   0.90460665   -8.0326974    527.34251  0.019215221  0.019024748            1 
 2288000   0.89326464   -8.0414042    526.64063  0.019181258  0.019018393            3 
 2289000   0.88794421   -8.0190803    525.67247  0.019137632  0.019012022            7 
 2290000   0.89054535   -8.0392601    525.80621  0.019134141   0.01900567            1 
 2291000   0.87961444   -8.0391874    527.73538  0.019195962  0.018999311            2 
 2292000   0.88084339   -8.0015476    526.85493  0.019155575  0.018993001            2 
 2293000   0.86952041   -8.0341107      525.922  0.019113316  0.018986637            2 
 2294000   0.88397721   -8.0342442     527.2057  0.019151617   0.01898024            1 
 2295000   0.85849817   -8.0200562    526.46559  0.019116398  0.018973818            3 
 2296000   0.87610972   -8.0362543    527.02425  0.019128348  0.018967432            3 
 2297000   0.87317215   -8.0216432     527.1326  0.019123951  0.018961056            1 
 2298000   0.87331924   -8.0312723    524.69542  0.019027249  0.018954641            2 
 2299000    0.8781164   -8.0289662    527.77724  0.019130681  0.018948273            4 
 2300000   0.87172259   -8.0580675    527.07929  0.019097076  0.018941878            4 
 2301000   0.86265175   -8.0575104    525.98509  0.019049149  0.018935462            2 
 2302000   0.87962117   -8.0636229    526.05382  0.019043362  0.018929002            2 
 2303000   0.88963249   -8.0622879    526.05492  0.019035132  0.018922571            3 
 2304000   0.87770331   -8.0355668      525.872  0.019020255  0.018916136            2 
 2305000    0.8666169   -8.0278052    525.97201  0.019015619  0.018909703            2 
 2306000   0.89614628   -8.0474192    526.80929   0.01903763  0.018903318            1 
 2307000   0.86439336   -8.0873172    526.64406  0.019023409  0.018896887            5 
 2308000   0.88969388   -8.0448381    527.51279  0.019046533  0.018890463            2 
 2309000   0.89078084   -8.0686432    527.14807  0.019025121  0.018884039            6 
 2310000   0.88720868   -8.0532545    527.59192  0.019032898  0.018877597            3 
 2311000   0.88853535   -8.0612633    526.00204  0.018967331  0.018871156            2 
 2312000   0.89530326   -8.0530549    526.29134  0.018969555   0.01886474            2 
 2313000   0.87898327   -8.0745268    525.57129  0.018935412  0.018858291            2 
 2314000   0.88949835     -8.07151    527.02328  0.018979519  0.018851858            3 
 2315000   0.87256578   -8.0493184    526.76992    0.0189622  0.018845453            4 
 2316000   0.88509931   -8.0672849    526.48295  0.018943687  0.018839028            2 
 2317000   0.88484484   -8.0563348    526.84545  0.018948549  0.018832601            1 
 2318000   0.86837538    -8.054615    527.05543  0.018947923  0.018826161            2 
 2319000   0.85778414   -8.0937168    525.88004  0.018897515  0.018819706            4 
 2320000    0.8798632   -8.0471403    526.54873  0.018913388  0.018813211            2 
 2321000   0.88140632   -8.0559749     526.8029  0.018914365  0.018806774            1 
 2322000   0.87849766   -8.0301578     528.8282  0.018978905  0.018800418            8 
 2323000   0.88936178   -8.0370178    527.55761  0.018925154   0.01879403            3 
 2324000   0.87135419   -8.0918254    526.92496  0.018894326  0.018787613            5 
 2325000   0.87490582   -8.0607324    528.57324  0.018945277  0.018781243            2 
 2326000   0.85817866   -8.0598521    527.75023  0.018907647  0.018774919            5 
 2327000   0.88103352   -8.0389317    528.77684  0.018936286  0.018768613            2 
 2328000   0.87929747   -8.0342734    530.40949  0.018986594  0.018762269            8 
 2329000   0.89150953   -8.0515131    529.74641  0.018954716   0.01875591            4 
 2330000   0.90203948   -8.0827171    527.51205  0.018866669  0.018749541            4 
 2331000   0.88238989   -8.0505033    529.23762  0.018920264  0.018743195            8 
 2332000   0.88596607   -8.0539843    528.86189  0.018898724  0.018736832            3 
 2333000   0.88719405    -8.051927    529.54564  0.018915046   0.01873046            1 
 2334000   0.87672242   -8.0694148    528.47027  0.018868547  0.018724105            5 
 2335000   0.88069543   -8.0865487    526.86704  0.018803249  0.018717729            3 
 2336000   0.87963999   -8.0837125    528.35979  0.018848451  0.018711377            3 
 2337000    0.8724235   -8.0759634    529.16281  0.018869021  0.018705016            4 
 2338000   0.88021411   -8.0895255    527.43682   0.01879943  0.018698645            2 
 2339000   0.89434988   -8.0736728    528.62617  0.018833767  0.018692312            2 
 2340000   0.86611228   -8.0611668    528.87264  0.018834496  0.018685972            4 
 2341000   0.88597296   -8.0654891    528.75231  0.018822167  0.018679639            3 
 2342000   0.90317998   -8.0577868    529.29598  0.018833475  0.018673319            4 
 2343000   0.88668228   -8.0832013    528.99252  0.018814644  0.018667008            2 
 2344000    0.8642301   -8.0481678    529.82664  0.018836271  0.018660694            3 
 2345000   0.87512914   -8.0614689    530.59765  0.018855638  0.018654349            2 
 2346000   0.88766398   -8.0782724    530.21981  0.018834179  0.018648031            1 
 2347000   0.88618316   -8.0686573    529.82713  0.018812212  0.018641711            3 
 2348000   0.88842034   -8.0733171    529.81674  0.018803831  0.018635404            2 
 2349000   0.89503196   -8.0859822    529.54215  0.018786084  0.018629109            2 
 2350000   0.86246821   -8.0422705    531.18959   0.01883651  0.018622814            2 
 2351000   0.87162987   -8.0730601     530.3184  0.018797618  0.018616543            5 
 2352000   0.86899463   -8.0569382    529.66012  0.018766302  0.018610292            2 
 2353000   0.88140625   -8.0676463    530.21808  0.018778088  0.018604039            2 
 2354000    0.8559187   -8.0326816    530.65831  0.018785695  0.018597785            5 
 2355000   0.86494742   -8.0904368    530.08878  0.018757565  0.018591463            1 
 2356000   0.85119131   -8.0738003    529.55186  0.018730612  0.018585151            2 
 2357000   0.89090827   -8.0839435    530.17548  0.018744714  0.018578832            2 
 2358000   0.86439962   -8.0690352    532.20306   0.01880842  0.018572575            2 
 2359000       0.8649   -8.0420522    530.56479  0.018742574   0.01856635            2 
 2360000   0.86923586   -8.0599626     531.0161  0.018750568  0.018560127            3 
 2361000    0.8820268   -8.0738551    531.74352  0.018768302  0.018553934            3 
 2362000   0.85798659   -8.0809917    529.58527  0.018684211  0.018547714            1 
 2363000   0.87634427   -8.0969372     530.5445  0.018710132  0.018541511            3 
 2364000   0.85987632   -8.0629357    530.34822  0.018695298  0.018535217            1 
 2365000   0.88075607   -8.0870658    530.91472  0.018707354  0.018528957            1 
 2366000   0.87505791   -8.0821743    531.44509  0.018718128  0.018522707            9 
 2367000   0.87538409   -8.0642816    532.43758  0.018745162  0.018516459            1 
 2368000    0.8736169   -8.0680866    531.56496  0.018706537  0.018510217            2 
 2369000   0.87964782   -8.0538741    530.10053  0.018647127  0.018503981            4 
 2370000   0.86536998   -8.0883707    531.37916  0.018684218  0.018497685            5 
 2371000   0.85475124    -8.062994    531.49917  0.018680556   0.01849142            2 
 2372000    0.8679116   -8.0859022    530.90553  0.018651824   0.01848518            3 
 2373000   0.88108302   -8.0751213    531.61008  0.018668706  0.018478964            3 
 2374000   0.87459017    -8.088787    531.75048  0.018665771  0.018472736            2 
 2375000   0.86945191   -8.0523574    531.39443  0.018645418  0.018466481            3 
 2376000   0.87782059   -8.0904071    531.42122  0.018638511  0.018460241            4 
 2377000   0.88012286   -8.0826156     531.6546  0.018638852  0.018453976            3 
 2378000    0.8653179   -8.0710213    532.00148  0.018643169  0.018447732            2 
 2379000   0.87891074   -8.1144314    530.82165  0.018594005  0.018441425            2 
 2380000   0.88264069   -8.0932876    532.03042  0.018628516    0.0184351            5 
 2381000   0.87282129   -8.1132773    532.44368  0.018635156  0.018428825            2 
 2382000   0.88283212   -8.0834223    532.36981  0.018624748  0.018422594            3 
 2383000   0.84571385   -8.0918305    532.63207  0.018626104   0.01841636            3 
 2384000   0.88056441   -8.1214168    531.82052  0.018589923  0.018410129            6 
 2385000   0.88727065   -8.0991119    532.88082  0.018619176  0.018403891           11 
 2386000   0.87599084   -8.0395566    533.64138  0.018637936  0.018397678            2 
 2387000    0.8795791   -8.0684259    533.92406  0.018639997  0.018391519            2 
 2388000    0.8651483   -8.0940679    533.28481  0.018609883  0.018385313            5 
 2389000   0.88169156   -8.0856515    533.04039  0.018593567  0.018379094            2 
 2390000    0.8555124   -8.0797652    532.84115  0.018578841  0.018372877            3 
 2391000   0.86268353   -8.0773337    532.69249  0.018565889  0.018366669            3 
 2392000   0.85542318   -8.0783297    532.99551  0.018568684  0.018360428            4 
 2393000   0.88179688   -8.1004177    532.89587  0.018557455  0.018354186            4 
 2394000   0.84249928   -8.1149712    532.73998  0.018544277  0.018347941            9 
 2395000    0.8638928   -8.1179759    531.67928  0.018499627  0.018341649            2 
 2396000   0.86453882   -8.0742019    533.38628  0.018551276  0.018335391            5 
 2397000   0.84838435   -8.1017297    533.09716  0.018533485  0.018329191            3 
 2398000   0.86927476   -8.0822184    533.43041  0.018537337  0.018323028            2 
 2399000   0.87838508   -8.1362774    531.84727  0.018474617  0.018316815            4 
 2400000   0.86227641   -8.1054615    533.39526  0.018520669  0.018310614            1 
 2401000   0.87302423   -8.1058091    533.23494  0.018507391  0.018304369            5 
 2402000   0.86436814      -8.0692    531.69084  0.018446116  0.018298128            3 
 2403000   0.87589668   -8.1097279    532.97832  0.018483088  0.018291903            4 
 2404000   0.85541035   -8.1118192    533.40788   0.01849029  0.018285669            4 
 2405000   0.86179765   -8.0886021    532.81951  0.018462215  0.018279424            1 
 2406000   0.85992883   -8.1047413     533.3316  0.018472277  0.018273173            2 
 2407000   0.85743611   -8.0797277    534.40396   0.01850173  0.018266956            1 
 2408000   0.86465719    -8.088768     533.8205  0.018473855  0.018260741            2 
 2409000   0.86606935   -8.0968936    533.04784  0.018439458  0.018254527            3 
 2410000   0.85376587   -8.0707209     534.0996  0.018468174   0.01824832            3 
 2411000   0.89979888   -8.1096899    532.50091  0.018405258  0.018242116            3 
 2412000   0.87446918   -8.1108915    532.31822  0.018391315  0.018235834            1 
 2413000   0.84697438   -8.1402455    532.40559   0.01838671  0.018229532            2 
 2414000   0.85872367   -8.1046371    534.63822  0.018456166  0.018223259            2 
 2415000   0.86543596   -8.1068145    532.69403  0.018381437  0.018216986            5 
 2416000   0.87409499   -8.1107945    532.56021  0.018369213   0.01821072           11 
 2417000   0.86301807   -8.0756772    533.88546  0.018407304  0.018204433            2 
 2418000   0.86773945   -8.1182021    532.56179  0.018354073  0.018198119            3 
 2419000   0.87803478   -8.0895705    532.84688  0.018356307  0.018191857            1 
 2420000   0.85716378   -8.1542056    533.13023  0.018358479   0.01818554            2 
 2421000   0.87294611   -8.0994269    534.17254  0.018386773   0.01817926            5 
 2422000   0.87867234   -8.1089829    531.71464  0.018294613  0.018172982            3 
 2423000   0.84655521   -8.1045992    532.94136  0.018329253  0.018166681            3 
 2424000   0.85595006   -8.0639224    534.66692  0.018381014  0.018160401            3 
 2425000   0.87882465    -8.089849    533.37171  0.018328925  0.018154184            4 
 2426000   0.84450957    -8.086733    534.37102  0.018355696  0.018147924            3 
 2427000    0.8722266   -8.1238785     533.9923  0.018335129  0.018141657            2 
 2428000   0.87151642   -8.0874307    533.36028  0.018305885  0.018135361            5 
 2429000   0.86352505   -8.1002368    534.23623  0.018328401  0.018129076            4 
 2430000   0.85802811   -8.0910653    533.60097  0.018299073  0.018122777            2 
 2431000   0.87243857   -8.0887902    534.15675  0.018310597  0.018116503            2 
 2432000   0.86870073   -8.1211841    531.87628  0.018224927  0.018110194            3 
 2433000   0.86704318   -8.0924764    534.40299   0.01830398  0.018103865            3 
 2434000   0.86972158   -8.1172833    533.81725  0.018276405  0.018097546            1 
 2435000     0.864316    -8.109017      532.453  0.018222211  0.018091255            2 
 2436000   0.86164628   -8.1043005    533.95521   0.01826612  0.018084918            1 
 2437000   0.85668589   -8.0967805    533.41285  0.018240078  0.018078594            3 
 2438000   0.85660097   -8.1278959    532.29902  0.018194525  0.018072257            8 
 2439000   0.86685131   -8.1042358    533.32507  0.018222122  0.018065892            2 
 2440000   0.87195394   -8.0750347    534.29616   0.01824782  0.018059643            3 
 2441000   0.87433705   -8.0770366    533.72684  0.018220908  0.018053391            4 
 2442000   0.83048307   -8.0416858    534.69383  0.018246445   0.01804716            3 
 2443000     0.865202   -8.1207013    533.05194   0.01818297  0.018040902            5 
 2444000   0.84884666   -8.0861266    534.87709  0.018237762  0.018034614            8 
 2445000   0.85446968   -8.0964634    533.38181  0.018179339   0.01802836            3 
 2446000   0.85943402   -8.0998252    534.00115  0.018193007  0.018022119            2 
 2447000   0.86348676   -8.1101992    533.12645  0.018155784  0.018015874            2 
 2448000   0.84108348   -8.1414296    534.05686   0.01818004  0.018009602            2 
 2449000    0.8615232   -8.1056943    534.36171   0.01818299  0.018003313            3 
 2450000   0.85506809   -8.1043905    535.04505  0.018198811  0.017997029            2 
 2451000   0.85431625   -8.1550106    532.81104  0.018115431  0.017990734            3 
 2452000   0.87024148   -8.1096797    534.27252  0.018157712  0.017984463            3 
 2453000   0.85667387   -8.0906447    534.97952  0.018174328  0.017978221            1 
 2454000   0.85856764   -8.0965444    534.79176  0.018160546  0.017971989            3 
 2455000   0.88136716   -8.1126805    535.49995  0.018177188  0.017965774            1 
 2456000   0.86734383   -8.1257545    535.10058  0.018156236  0.017959569            1 
 2457000    0.8597789   -8.1412421    534.45613  0.018126988  0.017953349            2 
 2458000   0.85803287   -8.1141615    534.74088  0.018129268  0.017947162            8 
 2459000   0.86274486   -8.1153982    534.55262  0.018115515  0.017940961            6 
 2460000   0.85577161   -8.1018896    535.90692  0.018154028  0.017934814            6 
 2461000   0.85873649    -8.139702    535.52586  0.018133748  0.017928614            2 
 2462000   0.84426482   -8.0973295    536.42827  0.018156928  0.017922357            4 
 2463000   0.86936338   -8.1363249    535.76638  0.018127161  0.017916152            2 
 2464000   0.84986302   -8.1086029    535.72097  0.018118269  0.017909926            1 
 2465000   0.86295982   -8.1515037     534.7585  0.018078381  0.017903691            2 
 2466000   0.86185747   -8.1447738     534.9569  0.018077754  0.017897452            1 
 2467000   0.86484377   -8.1527713    535.52944  0.018089766  0.017891222            2 
 2468000   0.87439475   -8.1386637    535.00831   0.01806484  0.017884999            4 
 2469000   0.85800852   -8.1060879    536.86359  0.018120143  0.017878801            2 
 2470000   0.86045463   -8.1131888    536.35792  0.018095746   0.01787263            2 
 2471000   0.86898795    -8.110901    536.10875   0.01808002  0.017866445            1 
 2472000   0.85965627   -8.1165378    535.66945  0.018057897  0.017860243            2 
 2473000   0.84706169   -8.0824674    537.08882  0.018098424  0.017854074            4 
 2474000   0.86147074   -8.1246085    536.61369  0.018075104  0.017847951            2 
 2475000   0.87638949   -8.1019107    537.16999  0.018086532  0.017841776            2 
 2476000   0.85709856   -8.1211268    536.41745  0.018053899  0.017835587            3 
 2477000   0.84552524   -8.1223234    535.93886  0.018030509  0.017829366            3 
 2478000   0.83479172   -8.1064453    536.16724  0.018030913  0.017823199            4 
 2479000   0.86541552   -8.1460718    536.95959  0.018050275  0.017817081            2 
 2480000   0.85058955   -8.1036572    536.88923  0.018040633  0.017810942            2 
 2481000   0.86338671   -8.0951379     537.7438  0.018062065  0.017804799            3 
 2482000   0.85223795    -8.145518    537.18589  0.018036056  0.017798662            3 
 2483000   0.85324601   -8.1550338    536.73107  0.018013528   0.01779247            2 
 2484000   0.84028519   -8.1328164    536.48992  0.017998186  0.017786303            2 
 2485000   0.87550327    -8.166291    535.31401   0.01795151  0.017780118            3 
 2486000   0.83199684   -8.1295194    537.21106   0.01800788  0.017773927            4 
 2487000     0.845571   -8.1012662    536.69008  0.017983182  0.017767752            2 
 2488000   0.85095681   -8.1213684    536.44831  0.017967856  0.017761615            3 
 2489000   0.87027133   -8.1251678    536.09517  0.017948814  0.017755473            2 
 2490000   0.84867546   -8.1388717    536.83269  0.017966288  0.017749322            2 
 2491000   0.83213347   -8.1453266     536.6728  0.017953727  0.017743101            3 
 2492000   0.85666465   -8.1332342     536.5754  0.017943265  0.017736927            2 
 2493000   0.85753542   -8.1330073    536.75004  0.017941905   0.01773076            1 
 2494000   0.85442514   -8.1691747    536.40845  0.017923297  0.017724598            4 
 2495000   0.85378009   -8.1276045    537.88645  0.017965479  0.017718465            2 
 2496000   0.83808609   -8.1372611    538.15427  0.017967223  0.017712336            3 
 2497000   0.84423262    -8.146931    538.04669  0.017956437  0.017706218            4 
 2498000   0.84513315   -8.1059993    538.52952  0.017965356  0.017700109            2 
 2499000   0.86727001   -8.1147765    537.26759  0.017916086   0.01769397            3 
 2500000   0.85972562    -8.123424    537.09077  0.017903026  0.017687835            3 
 2501000   0.84474347   -8.1269465    537.99377  0.017925955  0.017681715            4 
 2502000   0.84157344    -8.142556    538.30644  0.017929205  0.017675602            4 
 2503000   0.84309627   -8.1538969    536.88552  0.017874734  0.017669463            2 
 2504000   0.84214343   -8.1433512    538.12833  0.017908957  0.017663364            2 
 2505000   0.85194629   -8.1327728     539.0263   0.01793168  0.017657252            2 
 2506000   0.82737655    -8.153384    538.34921  0.017902009  0.017651137            4 
 2507000   0.83908322   -8.1243541    539.15602  0.017921687  0.017645026            5 
 2508000   0.86614394   -8.1191031    538.82354  0.017903494  0.017638912            5 
 2509000   0.88297158   -8.1217187    538.35546  0.017880811    0.0176328            2 
 2510000   0.83962206   -8.1186655    538.44113  0.017876531  0.017626705            3 
 2511000   0.85318004   -8.1225549    537.69594  0.017844682  0.017620563            1 
 2512000   0.83180965   -8.1656209    537.16169  0.017819854  0.017614454            2 
 2513000   0.85749017   -8.1299992    537.75101  0.017832306  0.017608289            2 
 2514000   0.84270893   -8.1111466    539.04165  0.017867994  0.017602174           15 
 2515000   0.84349623   -8.1403553    537.77141  0.017818801  0.017596015            9 
 2516000   0.86201622   -8.1606468     537.1715  0.017791849  0.017589869            2 
 2517000   0.87686936   -8.1785586    538.65391   0.01783386  0.017583704            7 
 2518000   0.85368105   -8.1554406    538.64994  0.017826646  0.017577549            3 
 2519000   0.84315148   -8.1548679    538.85839  0.017826465   0.01757145            2 
 2520000   0.85058657   -8.1832645    538.51794  0.017808133  0.017565325            1 
 2521000   0.83953732   -8.1344896    539.40005  0.017830228   0.01755921            4 
 2522000   0.87204865   -8.1657337    537.77423  0.017769437  0.017553092            5 
 2523000   0.85497896   -8.1675896    538.25282  0.017778201  0.017546986            4 
 2524000    0.8369425   -8.1309229    539.22453   0.01780324  0.017540902            2 
 2525000   0.82340924   -8.1642805    538.92826  0.017786411  0.017534813            2 
 2526000   0.86313284    -8.145504    537.62063  0.017736231  0.017528722            2 
 2527000   0.84310923   -8.1351607    538.36617  0.017753798   0.01752262            3 
 2528000    0.8493381   -8.1504606    538.03136  0.017735739  0.017516518            2 
 2529000    0.8505596   -8.1531126    537.68208  0.017717216  0.017510434            4 
 2530000   0.83700453   -8.1349259    538.20748  0.017727519  0.017504282            2 
 2531000   0.84132351   -8.1854451    536.86922  0.017676453  0.017498124            6 
 2532000   0.85107279   -8.1029424    540.16528  0.017777952     0.017492            2 
 2533000   0.82153108   -8.1382178    538.92249  0.017730046   0.01748589            6 
 2534000   0.84339183   -8.1429445    540.36747  0.017770569  0.017479785            3 
 2535000   0.84609643   -8.1699479    537.36706  0.017664926   0.01747368            2 
 2536000   0.83505076   -8.1862288    538.76135  0.017703777  0.017467555            2 
 2537000    0.8607231   -8.1301181    538.55487  0.017690017  0.017461438            4 
 2538000   0.83412008   -8.1397059    538.33594  0.017675858  0.017455328            4 
 2539000   0.85073819   -8.1315337    539.69697  0.017713567  0.017449239            3 
 2540000   0.83412411   -8.1039524    539.91097  0.017713614  0.017443136            8 
 2541000   0.85537612   -8.1479444    538.64088   0.01766499  0.017437056            2 
 2542000    0.8480589   -8.1516175    537.92888    0.0176347  0.017430964            3 
 2543000    0.8424402   -8.1680594    537.37268  0.017609539  0.017424831            3 
 2544000   0.85422352   -8.1687772     539.0855  0.017658723  0.017418662            2 
 2545000   0.85213757   -8.1718812     538.2654  0.017624931  0.017412503            3 
 2546000   0.86217625   -8.1939179    538.57913  0.017628277  0.017406339            4 
 2547000   0.85367985   -8.1674573    536.98803  0.017569298  0.017400178            6 
 2548000   0.86583551   -8.1800437    538.30595  0.017605506  0.017394045            2 
 2549000   0.85511923   -8.1950412    539.32021  0.017631758  0.017387865            5 
 2550000   0.84089315   -8.1678683    539.20431  0.017621056  0.017381704            3 
 2551000    0.8372314   -8.1929706    538.22811  0.017582259  0.017375516            4 
 2552000   0.83261709   -8.1744675     537.6891  0.017557768  0.017369318            3 
 2553000   0.83510941   -8.1770074    537.86022  0.017556477   0.01736314            2 
 2554000   0.84474715   -8.1749508    538.73477  0.017578138   0.01735697            3 
 2555000   0.82121069   -8.1888871    537.60492  0.017534407  0.017350804            3 
 2556000   0.83192342   -8.1876346    537.04181  0.017509188  0.017344624            3 
 2557000   0.84633652   -8.1623452    539.74841  0.017590549  0.017338467            2 
 2558000    0.8270348   -8.1503133    540.32705  0.017602523  0.017332345            2 
 2559000   0.83858431   -8.1704361    539.86411  0.017580569  0.017326255            3 
 2560000   0.86028493   -8.1700063    539.64003  0.017566407  0.017320131            2 
 2561000   0.83173536   -8.1843586    537.75346   0.01749816  0.017313996            4 
 2562000   0.83456493   -8.1800353    539.71172  0.017555026   0.01730786            4 
 2563000   0.83889819   -8.1460948    539.91688  0.017554847  0.017301775            4 
 2564000   0.84854937   -8.1538222    540.39171  0.017563433  0.017295725            5 
 2565000   0.85259805   -8.1450109    539.25355  0.017519608  0.017289655            8 
 2566000   0.83299225   -8.1469383    540.40575    0.0175502  0.017283632            5 
 2567000   0.83569184   -8.1544762    540.64736  0.017551206  0.017277589            3 
 2568000   0.83621993    -8.138197    539.96979  0.017522384  0.017271562            3 
 2569000   0.86446659   -8.1767462     539.5374  0.017501538  0.017265515            2 
 2570000   0.85614901   -8.1589806    540.48197  0.017525356  0.017259491            4 
 2571000   0.84441886   -8.1804016    539.85755    0.0174983  0.017253462            2 
 2572000   0.83953387   -8.1574278    540.15828   0.01750124  0.017247396            3 
 2573000    0.8287574   -8.2014683    539.94211  0.017487437  0.017241306            2 
 2574000   0.85336023   -8.1685873    540.17269  0.017488108  0.017235254            1 
 2575000   0.83678954    -8.175696     540.7042  0.017498518  0.017229193            1 
 2576000   0.84941673   -8.1518299    541.78793  0.017526783  0.017223167            3 
 2577000   0.83260953   -8.1422813    541.55392  0.017512415  0.017217139            2 
 2578000   0.82177133   -8.1928488    541.12747  0.017491837  0.017211109            4 
 2579000   0.81755212   -8.1841621    540.08419  0.017451344  0.017205071            3 
 2580000   0.84168232   -8.1755889    540.94571  0.017472407  0.017199047            5 
 2581000   0.85389744   -8.2118482    540.50371  0.017451366  0.017192995            4 
 2582000   0.84159354   -8.1833422    539.83366  0.017422982   0.01718694            4 
 2583000   0.81222957   -8.1704971    541.36169  0.017465534  0.017180897            5 
 2584000   0.83012388   -8.2124006    541.03739  0.017448316   0.01717489            3 
 2585000    0.8460743   -8.1848699    540.99501    0.0174402  0.017168852            3 
 2586000   0.83502988   -8.1668204    541.53519  0.017450863  0.017162796            2 
 2587000   0.83456505   -8.1687319    541.59287  0.017445976  0.017156788            1 
 2588000   0.82959146   -8.1919276    541.25285  0.017428286  0.017150754            2 
 2589000   0.83257295   -8.1502251    540.87059   0.01740925  0.017144739            7 
 2590000   0.83165896   -8.1565104    541.98015  0.017438229  0.017138725            2 
 2591000   0.85784542   -8.1713019    540.62072  0.017387776  0.017132703            3 
 2592000   0.82971114   -8.1807354    541.00037  0.017393273   0.01712667            2 
 2593000   0.83744947   -8.1636243    542.20895  0.017425406  0.017120634            4 
 2594000   0.83971693   -8.1988743    539.96926  0.017346738  0.017114597            1 
 2595000   0.83984177   -8.1652206    542.30495  0.017415059  0.017108561            3 
 2596000   0.81713544   -8.1850236    540.55363  0.017352132  0.017102537            7 
 2597000   0.84836455   -8.1867968    541.22356  0.017366948  0.017096515            2 
 2598000   0.85763269   -8.1722137    541.17619  0.017358743  0.017090479            2 
 2599000   0.83706026   -8.1835772    541.42149   0.01735993  0.017084448            3 
 2600000   0.83909359   -8.1760312    541.79039  0.017365076  0.017078455            1 
 2601000   0.83828811   -8.1531029    541.94937  0.017363494  0.017072442            3 
 2602000   0.83390895   -8.1899679    542.51842  0.017375045  0.017066454            8 
 2603000   0.83374399   -8.1932091    540.62907  0.017307884  0.017060436            2 
 2604000   0.84254597   -8.2023035    540.61842  0.017300897  0.017054399            3 
 2605000   0.84142477   -8.1682402    542.95793  0.017369096  0.017048379            3 
 2606000   0.84571532    -8.179364    542.16744  0.017337153  0.017042376            2 
 2607000   0.84178515    -8.151407    543.00678  0.017357332  0.017036371            3 
 2608000    0.8286414   -8.2120896    540.26316   0.01726301  0.017030356            4 
 2609000   0.82382608   -8.1865639    542.03794  0.017313081  0.017024334            1 
 2610000   0.83509033   -8.1947215    542.47768  0.017320488  0.017018319            4 
 2611000   0.83239675   -8.1901434    542.13372  0.017302876  0.017012327            2 
 2612000   0.82795185   -8.1989458    541.25113  0.017268094  0.017006348            2 
 2613000   0.83208887   -8.1495645    542.65647  0.017306304  0.017000387            4 
 2614000   0.84475978   -8.2087891    541.05656  0.017248679  0.016994408            3 
 2615000   0.84634843   -8.1863145    543.87715  0.017331968  0.016988436            1 
 2616000   0.83533457   -8.1893913    542.04637  0.017267023  0.016982426            3 
 2617000   0.82864389   -8.2249141    540.83115  0.017221728  0.016976414            2 
 2618000   0.80560012   -8.1978876    541.27953  0.017229422    0.0169704            2 
 2619000   0.83831889   -8.2169636    540.71693  0.017204942  0.016964375            5 
 2620000   0.82622791    -8.211538    541.30749  0.017217159  0.016958349            4 
 2621000    0.8292949   -8.1761362    542.00014  0.017232613  0.016952334            3 
 2622000   0.81969971   -8.2121019    542.00461  0.017226182  0.016946324            2 
 2623000   0.83067459   -8.1712815    541.76022  0.017211851  0.016940306            3 
 2624000   0.83173547   -8.1554711    541.58687  0.017199786  0.016934347            3 
 2625000   0.82970002   -8.1821355    542.83067   0.01723272  0.016928369            2 
 2626000   0.83308522   -8.2023401    542.71006   0.01722233  0.016922386            1 
 2627000   0.84516826   -8.2351448    542.54671  0.017210592  0.016916418            3 
 2628000   0.83385635   -8.2049534    541.51326  0.017171273  0.016910418            4 
 2629000   0.82841254   -8.2040346    541.40546  0.017161324   0.01690443            3 
 2630000   0.84899191   -8.1931205    542.73723  0.017196997  0.016898471            3 
 2631000   0.86169776   -8.1931363    542.31526  0.017177095  0.016892496            5 
 2632000   0.83512847   -8.1972853    541.92012  0.017158058  0.016886528            4 
 2633000   0.84526881   -8.2001687    542.65356  0.017174755  0.016880568            6 
 2634000   0.81216782   -8.1908404    542.77932  0.017172213  0.016874603            1 
 2635000   0.82039233   -8.2425772    541.41639  0.017122593  0.016868624            3 
 2636000   0.84923795   -8.1953612    541.54698  0.017120226  0.016862606            2 
 2637000   0.82978609   -8.2087531    542.34454  0.017138937  0.016856591            3 
 2638000   0.83216714    -8.202477    542.13867  0.017125937  0.016850608            4 
 2639000   0.83837453   -8.1904058    541.76512  0.017107652  0.016844623            3 
 2640000   0.81935052   -8.2011933     542.3901    0.0171209  0.016838633            3 
 2641000   0.82171133   -8.1993191     541.8987  0.017098911  0.016832641            3 
 2642000   0.83851059   -8.2219516    542.20585  0.017102128  0.016826629            1 
 2643000    0.8163899   -8.2126795    541.78768  0.017082472  0.016820648            4 
 2644000   0.82702286   -8.2237656    542.31368   0.01709259  0.016814653            3 
 2645000   0.81061851   -8.2171211    541.51402  0.017060933   0.01680867            2 
 2646000   0.82495164   -8.2276623    542.37017  0.017081449  0.016802668            5 
 2647000   0.79310247   -8.2110846    542.20566  0.017069817   0.01679669            4 
 2648000   0.81680544     -8.18139    543.20911  0.017094949  0.016790723            1 
 2649000   0.83828816   -8.2376242     542.8502  0.017077205  0.016784741            4 
 2650000   0.83834201   -8.2312127    541.92644  0.017041712  0.016778765            5 
 2651000   0.82280389   -8.1772543    542.25098  0.017045485    0.0167728            8 
 2652000   0.80639758   -8.1782968    544.35234  0.017105089  0.016766823            2 
 2653000   0.85470532    -8.228234    542.67017  0.017045802  0.016760886            1 
 2654000   0.83874943   -8.2069573    543.55644  0.017067208  0.016754918            1 
 2655000   0.83988106   -8.2217382    542.30785   0.01702159  0.016748949            2 
 2656000   0.80906441   -8.2048909    542.98598  0.017036458  0.016742979            2 
 2657000   0.82000176    -8.202292    543.17501  0.017035975  0.016737011            4 
 2658000   0.81639567   -8.1886062    542.47233  0.017007535  0.016731062            3 
 2659000   0.82735691   -8.2242163    542.79548  0.017011266    0.0167251            4 
 2660000   0.82151017   -8.1920082    543.56389  0.017028944  0.016719154            2 
 2661000   0.82874712   -8.1936824    544.03392  0.017037264  0.016713221            5 
 2662000   0.82817817   -8.2031609     545.0222  0.017061802  0.016707292            3 
 2663000   0.83272462   -8.1903202    542.60173  0.016979651  0.016701338            6 
 2664000   0.84389363   -8.1860036    543.69614  0.017007512  0.016695379            3 
 2665000   0.83128183    -8.213577    542.70115  0.016970017  0.016689426            6 
 2666000   0.83133239   -8.1834868    542.87757  0.016969166  0.016683476            3 
 2667000   0.80932768   -8.1972565    545.12129  0.017032911  0.016677524            4 
 2668000   0.82606448   -8.1973915    543.68558  0.016981684  0.016671572            8 
 2669000   0.82986034   -8.1900557    545.44823  0.017030355  0.016665678            3 
 2670000   0.81707053   -8.2228239    543.03183  0.016948559  0.016659794            3 
 2671000   0.82922444   -8.2141335    543.50769   0.01695706  0.016653909            3 
 2672000   0.83072722   -8.2156258    543.44467  0.016948748  0.016648007            2 
 2673000   0.83334174   -8.2131529    543.17587  0.016934028  0.016642102            9 
 2674000   0.81185388   -8.2244533    542.89552  0.016918958  0.016636188            1 
 2675000   0.83877583   -8.2040453    543.64223  0.016935895  0.016630265            3 
 2676000   0.81202837   -8.2182542    543.09228   0.01691244  0.016624349            2 
 2677000   0.80270613   -8.2491507    543.87159  0.016930382  0.016618418            6 
 2678000    0.8215094   -8.2093274    543.87737   0.01692424  0.016612498            2 
 2679000   0.80853166   -8.1961806    544.22519  0.016928742  0.016606583            1 
 2680000   0.83015797   -8.2184114    542.57069  0.016870979  0.016600636            3 
 2681000   0.82103955   -8.2082335    544.46156   0.01692346  0.016594699            2 
 2682000   0.80703596   -8.2017393    544.05234  0.016904435  0.016588804            6 
 2683000   0.84808088   -8.1896904    544.74471  0.016919639  0.016582894            5 
 2684000    0.8217271   -8.2203324    544.37637  0.016901899  0.016576977            5 
 2685000   0.81318588   -8.2044026     543.7186  0.016875189   0.01657108            2 
 2686000   0.82983564   -8.2206727    543.06134  0.016848515  0.016565159            3 
 2687000   0.81292451   -8.2257979    543.47597  0.016855104  0.016559263            6 
 2688000   0.82852535   -8.2261611    543.01771  0.016834626  0.016553371            4 
 2689000   0.83121438   -8.2233622    544.09638  0.016861794  0.016547455            3 
 2690000   0.81133175   -8.2134077    543.04258  0.016822881  0.016541525            3 
 2691000   0.82190578   -8.2370369    543.70904  0.016837267  0.016535601            9 
 2692000   0.82955153   -8.2016872    544.23544  0.016847308  0.016529677           14 
 2693000   0.81842297   -8.2252188    544.39904  0.016846115  0.016523744            7 
 2694000   0.82737283   -8.2216424    544.19825   0.01683365  0.016517812            9 
 2695000   0.82576395   -8.2043156    544.93345  0.016850138  0.016511876            4 
 2696000   0.82618787   -8.2112986    543.50927  0.016799866   0.01650595            2 
 2697000   0.82186046   -8.2422264    543.87915  0.016805066  0.016500005            3 
 2698000   0.82228453   -8.2086753     545.9905  0.016864051  0.016494059            1 
 2699000   0.82697807   -8.2405509    543.41573  0.016778305   0.01648813            2 
 2700000    0.8150019   -8.2322076    544.18836  0.016795937  0.016482182            5 
 2701000   0.82232007   -8.2289602    543.13324  0.016757165  0.016476243            2 
 2702000   0.82280132   -8.2469473    542.48561   0.01673099  0.016470305            7 
 2703000   0.82571345    -8.205111     544.1657  0.016776597  0.016464343            2 
 2704000   0.81128774   -8.2212491    544.03696  0.016766425  0.016458422            2 
 2705000   0.82365902   -8.2388888    543.59927  0.016746743  0.016452498            4 
 2706000   0.82018613   -8.1886083    545.13293  0.016787784  0.016446603            2 
 2707000   0.82813374   -8.2041696    544.83597  0.016772441  0.016440727            2 
 2708000   0.79400117   -8.2308625    545.87503  0.016798222  0.016434857            2 
 2709000   0.81209976   -8.1938876    546.11032  0.016799259  0.016428986            3 
 2710000   0.81129721   -8.2364066    544.84051  0.016754013  0.016423129            3 
 2711000   0.81416958   -8.2042853    545.18727  0.016758492   0.01641724            3 
 2712000   0.83385587   -8.2162072    544.82961  0.016741323  0.016411379            5 
 2713000   0.82033137   -8.2328325    544.89258  0.016737086  0.016405509            2 
 2714000   0.80911313   -8.2412979    544.22136   0.01671031  0.016399635            2 
 2715000   0.80971364    -8.265006    543.49176  0.016681761  0.016393737            4 
 2716000   0.82908435   -8.2471776    543.64505  0.016680322  0.016387834            4 
 2717000   0.81004535   -8.2621902    543.47844  0.016669073  0.016381953            3 
 2718000   0.80995917   -8.2632508     545.2523  0.016717326   0.01637604            2 
 2719000   0.82840754   -8.2611183    546.05262  0.016735706  0.016370129            2 
 2720000   0.81565996   -8.2740219    543.73241  0.016658469  0.016364239            1 
 2721000   0.80573193   -8.2334151    543.48362  0.016644727  0.016358379            3 
 2722000   0.81517042   -8.2382013     544.5348  0.016670794  0.016352489            4 
 2723000   0.81630839   -8.2459546    545.24884  0.016686523  0.016346614            2 
 2724000   0.80311261    -8.221455    544.83446  0.016667721  0.016340733           12 
 2725000   0.80466172   -8.2381771    546.07432  0.016699521  0.016334866            3 
 2726000   0.83818146   -8.2656548    543.26903  0.016607637  0.016328994            4 
 2727000   0.80731356   -8.2651281    544.86587  0.016650344   0.01632313            3 
 2728000   0.81428832    -8.250964     544.1028  0.016620931  0.016317263            1 
 2729000   0.81164327    -8.252218    544.22993  0.016618723  0.016311398            5 
 2730000   0.83379676   -8.2771668    544.99535     0.016636  0.016305536            2 
 2731000    0.8151831   -8.2540773    544.80242  0.016624021  0.016299681            4 
 2732000   0.80978377   -8.2395589    545.30231  0.016633184  0.016293839            2 
 2733000   0.80803834   -8.2546109    546.01357  0.016648786  0.016288005            3 
 2734000   0.83331415   -8.2812385    545.16321  0.016616777  0.016282146            2 
 2735000   0.80785193   -8.2535827    545.71807  0.016627607  0.016276317            2 
 2736000   0.82415767   -8.2807743    544.78884  0.016593227  0.016270478            2 
 2737000   0.80046548   -8.2568676      544.944  0.016591889  0.016264634            2 
 2738000   0.81770818    -8.281954    544.65282  0.016576967   0.01625878            2 
 2739000   0.82228118   -8.2189518      546.856  0.016637946  0.016252957            4 
 2740000   0.81577141   -8.2132815    546.75494    0.0166288  0.016247159            2 
 2741000   0.83953655   -8.2271986    545.92319  0.016597446  0.016241362            3 
 2742000    0.8144383   -8.2107954    546.46745  0.016607934  0.016235568            3 
 2743000   0.81394326    -8.219936    545.24961   0.01656488  0.016229736            4 
 2744000   0.82815839   -8.2487351    547.11545  0.016615508  0.016223915            9 
 2745000   0.81792469   -8.2220002    546.87454  0.016602142  0.016218089            4 
 2746000   0.80875016   -8.2112409    546.51525  0.016585192  0.016212277            3 
 2747000   0.80642478   -8.2472051    546.20896  0.016569863  0.016206472            2 
 2748000   0.81068568   -8.2135094    547.92782  0.016615958  0.016200698            5 
 2749000   0.81503295   -8.2759593    546.19724  0.016557452  0.016194913            3 
 2750000   0.82899557   -8.2490714    545.38162  0.016526716  0.016189097            3 
 2751000   0.81984074   -8.2899433    544.50815  0.016494249  0.016183248            4 
 2752000   0.80428992   -8.2928305    545.52574  0.016519069  0.016177388            5 
 2753000   0.81809381   -8.2537013    545.15247   0.01650177  0.016171537            1 
 2754000   0.80768859   -8.2511488    546.02216  0.016522094  0.016165703            3 
 2755000   0.80683829   -8.2609739    544.56792  0.016472109  0.016159859            8 
 2756000    0.8230953   -8.2383777    546.68072  0.016530017  0.016154036            3 
 2757000   0.80188302   -8.2646817    545.11553  0.016476712  0.016148207            5 
 2758000   0.80648107   -8.3002902     544.6923   0.01645795  0.016142376            4 
 2759000   0.82619458   -8.2903603    545.67948  0.016481801  0.016136515           10 
 2760000   0.79644541   -8.2542219    546.95017  0.016514196  0.016130674            4 
 2761000   0.81956273   -8.2846388    546.05646   0.01648124  0.016124845            2 
 2762000   0.79922799   -8.2657839    546.53987  0.016489858   0.01611902            3 
 2763000   0.81802149   -8.2826269    546.33588  0.016477738  0.016113209            2 
 2764000   0.79952656   -8.2367236    545.67743  0.016451925  0.016107383            2 
 2765000   0.80674078   -8.2600301    546.43127  0.016468694  0.016101575            3 
 2766000   0.80326896   -8.2428504    546.62134  0.016468466  0.016095769            3 
 2767000   0.81285625    -8.247286    546.46576  0.016457829  0.016089993            1 
 2768000   0.80687532   -8.2880933    545.45275  0.016421386   0.01608418            4 
 2769000   0.82426147     -8.25823    544.67814  0.016392143   0.01607836            1 
 2770000   0.80950911   -8.2660557    547.38562  0.016467678  0.016072577            2 
 2771000   0.81286624   -8.2504454    546.65262  0.016439691  0.016066805            6 
 2772000    0.8216223   -8.2234558    545.27399  0.016392316  0.016061062            2 
 2773000   0.81914863   -8.2745872    546.16871  0.016413292  0.016055306            2 
 2774000   0.81384004   -8.2417048     546.8135  0.016426745  0.016049552            2 
 2775000   0.79112976   -8.2353384    547.21464  0.016432872  0.016043802            3 
 2776000   0.79031639   -8.2564673     546.4309  0.016403425  0.016038045            3 
 2777000   0.80162374   -8.2713664    547.33496  0.016424648  0.016032302            2 
 2778000   0.83581507   -8.2311731    547.19881  0.016414651  0.016026568            4 
 2779000   0.79739829   -8.2649365     547.6326  0.016421753  0.016020857            5 
 2780000   0.80440517   -8.2263727    548.23556   0.01643392  0.016015126            2 
 2781000   0.81538556   -8.2767526    548.12353  0.016424653  0.016009418            3 
 2782000    0.7996272   -8.2543807    547.61305  0.016403458  0.016003729            3 
 2783000   0.79624887   -8.2485132    547.66338  0.016399071  0.015998055            2 
 2784000   0.81025267   -8.2650792    546.90421  0.016370457  0.015992341            2 
 2785000   0.79197829   -8.2755187    546.71817  0.016359012   0.01598662            5 
 2786000   0.79591228   -8.2521196    546.69569  0.016352467  0.015980878            2 
 2787000   0.79388574   -8.2585049    546.54579  0.016342118   0.01597516            3 
 2788000   0.80180774   -8.2590178    547.47537  0.016364041  0.015969438            1 
 2789000   0.80315815   -8.2793555    547.91354  0.016371266  0.015963715            2 
 2790000   0.78591553   -8.2844172    547.06092  0.016339932  0.015957969            2 
 2791000   0.82444757   -8.3044814    545.65054  0.016291966  0.015952216            1 
 2792000   0.80458879   -8.2781892    547.44525  0.016339698  0.015946449            2 
 2793000   0.80138135   -8.2971225    548.64898  0.016369763  0.015940735            4 
 2794000    0.7998557   -8.2966361    547.02082  0.016315343  0.015935022            2 
 2795000   0.79934683   -8.2671452    547.12398  0.016312582  0.015929305            5 
 2796000   0.80774365   -8.2757804    549.23203  0.016369577  0.015923611           14 
 2797000   0.80811136   -8.2757932     548.2944  0.016335788   0.01591794            2 
 2798000   0.78520277    -8.263818    547.45237  0.016304872  0.015912243            5 
 2799000   0.80371392   -8.2674737    546.58133  0.016273113  0.015906564            3 
 2800000    0.8076679   -8.2471109    548.61805  0.016327918  0.015900902            2 
 2801000   0.80257653   -8.2596324    547.50199  0.016288885  0.015895225            2 
 2802000   0.81520065   -8.2734588    547.67529  0.016288225  0.015889536            3 
 2803000   0.78996443   -8.2868423    548.43719  0.016305066  0.015883863            5 
 2804000   0.81139388   -8.2823793    548.85597  0.016311697  0.015878195            6 
 2805000   0.79604149   -8.2732898    548.80812   0.01630446  0.015872546            2 
 2806000   0.79109446   -8.2840449    548.48662  0.016289101  0.015866882            2 
 2807000   0.80171055   -8.2627589    548.11022  0.016272124  0.015861231            2 
 2808000   0.79690896   -8.2806306      548.004  0.016263177   0.01585558            7 
 2809000   0.79950461    -8.271074    547.22022  0.016234135  0.015849928            2 
 2810000   0.81949134   -8.2563397    548.97465  0.016280387  0.015844284            7 
 2811000   0.80850617   -8.2716618    548.21174  0.016251979  0.015838632            4 
 2812000   0.81189798   -8.2955313    547.53733  0.016226213  0.015832963            3 
 2813000   0.79255668   -8.2999256    548.23544  0.016241126  0.015827258            3 
 2814000   0.78595593   -8.2842964    547.69178  0.016219254  0.015821555            3 
 2815000   0.80133549   -8.2757314    546.78365  0.016186609  0.015815863            2 
 2816000   0.81402761   -8.2581727    548.38911  0.016228371   0.01581018            1 
 2817000   0.80666655   -8.2562249    548.36643  0.016221939   0.01580452            3 
 2818000   0.80069278   -8.2658938    549.21192  0.016241185  0.015798856            3 
 2819000   0.81154573   -8.2888453    547.85497  0.016195311  0.015793195            2 
 2820000   0.81072493   -8.2658487    548.89526  0.016220309  0.015787539            2 
 2821000   0.79825999   -8.2983221    547.79537  0.016182068  0.015781883            3 
 2822000   0.79037348   -8.2700191     547.9646  0.016181331  0.015776212            1 
 2823000   0.79189772   -8.2724098    548.75386  0.016198898  0.015770555            1 
 2824000   0.80711104   -8.2445718    548.04945  0.016172375  0.015764913            5 
 2825000   0.80393723   -8.2674458    548.70444  0.016185972  0.015759275            4 
 2826000   0.79105056   -8.2700285    546.60946  0.016118467  0.015753619            4 
 2827000   0.78493887   -8.2886766    546.96364  0.016123206  0.015747942            3 
 2828000   0.80508337    -8.283835    548.80385  0.016171731  0.015742294            4 
 2829000   0.80087923   -8.2433919    549.46817  0.016185583  0.015736657            3 
 2830000   0.79674355   -8.2731755    550.31691  0.016204856   0.01573107            3 
 2831000   0.81437542   -8.2600414     548.4521  0.016144239  0.015725459            7 
 2832000   0.78064565   -8.2815214    549.05365   0.01615624  0.015719836            2 
 2833000   0.79881214   -8.2499757    550.17803  0.016183611  0.015714231            3 
 2834000   0.81008412   -8.2578688    549.70429   0.01616397  0.015708644            3 
 2835000   0.78288746   -8.2409196    550.09388   0.01616972  0.015703066            6 
 2836000   0.80186211   -8.2652937    549.41289  0.016144008  0.015697491            3 
 2837000    0.7881996   -8.2839031    549.12271  0.016129794  0.015691893            1 
 2838000   0.81393514   -8.2630602    550.08449  0.016152352  0.015686292            2 
 2839000    0.8049011   -8.2783335    549.41944  0.016127141   0.01568069            2 
 2840000   0.80047504   -8.3164222     548.3645  0.016090508  0.015675081            2 
 2841000   0.77992039   -8.2774799    549.09146  0.016106167  0.015669464            2 
 2842000   0.80384136   -8.3006336    550.09118  0.016129814  0.015663853            1 
 2843000   0.79085488   -8.3138654    548.92105  0.016089842  0.015658251            3 
 2844000   0.80505131   -8.2905503    549.53343  0.016102128  0.015652655            3 
 2845000   0.78422451   -8.2945242    549.81591  0.016104742  0.015647059            4 
 2846000   0.80126083   -8.2908854    549.55572  0.016091465  0.015641465            2 
 2847000   0.79011488   -8.3073345     548.8474   0.01606508   0.01563586            2 
 2848000   0.80748213   -8.3192252     547.7407  0.016027057  0.015630238            5 
 2849000   0.79487033    -8.335068    548.69064  0.016049217  0.015624581            1 
 2850000   0.79464685    -8.314976    549.27494  0.016060671  0.015618928            4 
 2851000   0.79204397   -8.2887074     548.7255  0.016038978  0.015613324            4 
 2852000   0.81418706   -8.2853413     548.9736  0.016040603  0.015607724           10 
 2853000   0.79866699   -8.2937874    548.62457  0.016024786  0.015602105            2 
 2854000   0.79317477   -8.3041509    547.42521  0.015984151  0.015596476            7 
 2855000   0.80294459   -8.3174319    548.15513  0.015999858  0.015590836            8 
 2856000   0.79639133    -8.289193    549.65079  0.016037897  0.015585208            4 
 2857000   0.80025433   -8.2819146    550.02928  0.016043323  0.015579613            2 
 2858000   0.78106383   -8.3272153     548.6972  0.015998869  0.015573991            9 
 2859000    0.7914569   -8.3015797    548.70258   0.01599343  0.015568382            4 
 2860000    0.7923399   -8.2961536    549.35908  0.016006966   0.01556281            2 
 2861000   0.77857296    -8.307499    549.38933  0.016002252  0.015557231            3 
 2862000   0.79151251   -8.3056902    550.48124  0.016028454  0.015551661            2 
 2863000   0.81889518   -8.3071782    551.00545  0.016038114  0.015546073            4 
 2864000   0.79416185   -8.3079984    549.19324  0.015979785  0.015540499            3 
 2865000   0.78704899   -8.3234089    549.43482  0.015981234  0.015534909            3 
 2866000   0.81336164   -8.3072229    548.28623  0.015942261  0.015529333            4 
 2867000   0.79032021   -8.2995965    549.81694  0.015981192  0.015523752            3 
 2868000   0.78992952    -8.329112     550.1653  0.015985742   0.01551817            5 
 2869000   0.80341445   -8.2870685    550.53744  0.015990979  0.015512588            3 
 2870000   0.79425302   -8.3008046    549.84437  0.015965284  0.015507024            3 
 2871000   0.77798337   -8.3201125    548.58287  0.015923107  0.015501446            2 
 2872000   0.80552441   -8.3186569    548.75594  0.015922584  0.015495867            4 
 2873000   0.80178983   -8.2709682    551.90008   0.01600824  0.015490308            3 
 2874000    0.8112552   -8.2961261    551.06313  0.015978402  0.015484784            2 
 2875000   0.80057722   -8.2506888     551.0124  0.015971374  0.015479282            2 
 2876000   0.79328261    -8.295974    550.00224  0.015936551  0.015473758            1 
 2877000   0.78951029   -8.2973522    549.84314  0.015926403  0.015468223            1 
 2878000   0.79631927   -8.2929233    550.44036  0.015938162  0.015462695            2 
 2879000   0.79075943   -8.2891994    551.08317  0.015951232  0.015457177            4 
 2880000   0.79680713   -8.2970119     550.7048  0.015934745  0.015451647            4 
 2881000   0.78001581   -8.2989239    550.91549  0.015935309  0.015446135            4 
 2882000   0.78484868   -8.2967018     550.1331  0.015907156  0.015440623            2 
 2883000    0.7905514   -8.2918639    550.71476  0.015918452  0.015435105            3 
 2884000   0.79081814   -8.3207214    549.81697  0.015886991    0.0154296            2 
 2885000    0.7873267   -8.3360246    550.20623  0.015892728  0.015424086            4 
 2886000   0.79301515   -8.3257155    550.31077  0.015890239  0.015418566            8 
 2887000   0.79632231   -8.3534717    548.78728   0.01584076  0.015413032            3 
 2888000    0.7848407    -8.322302    549.85635  0.015866123  0.015407497            4 
 2889000   0.78501828   -8.3301797    549.84781  0.015860384  0.015401962            5 
 2890000   0.78083264   -8.3285845    549.97128  0.015858457  0.015396423            9 
 2891000   0.79159482   -8.2994013    551.36763  0.015893221  0.015390896            9 
 2892000   0.79563949   -8.2838062     551.5422  0.015892756  0.015385378           10 
 2893000   0.77826882   -8.3080712    550.80111  0.015865915  0.015379888            2 
 2894000   0.78240545    -8.294278    550.97572  0.015865461  0.015374402            2 
 2895000   0.79216481    -8.304844    550.80885  0.015855177  0.015368938            1 
 2896000   0.80535957   -8.2960907    551.01939  0.015855761  0.015363455            1 
 2897000   0.77846756   -8.3107436    550.70493  0.015841242  0.015357966            6 
 2898000   0.80243555   -8.3254346    550.51188  0.015830224  0.015352484            2 
 2899000    0.7958905   -8.3055477    550.70271  0.015830249  0.015347028            3 
 2900000   0.79329251   -8.2847032    551.52017  0.015848281  0.015341564            3 
 2901000      0.79241   -8.3166238    550.22703  0.015805671  0.015336091            2 
 2902000   0.79509397   -8.2873813    550.55163  0.015809546  0.015330615            2 
 2903000   0.79177483    -8.291601    552.25791   0.01585308  0.015325155            3 
 2904000   0.77925435   -8.3300172    550.63476  0.015801043  0.015319691            3 
 2905000   0.77639705    -8.305554    550.71517  0.015797911  0.015314206            4 
 2906000   0.77646371   -8.3032512    551.13012  0.015804374  0.015308755            3 
 2907000   0.77154151   -8.3251731     549.3422  0.015747684   0.01530328            3 
 2908000   0.78148346   -8.2752478    551.98921  0.015818123  0.015297804            2 
 2909000   0.79586392   -8.3425476    550.44561  0.015768466  0.015292334            3 
 2910000    0.8041807   -8.2945748    551.58938  0.015795801  0.015286857            2 
 2911000   0.78169666    -8.288498    551.78078  0.015795854   0.01528139            2 
 2912000   0.79213107   -8.3335042    552.48202  0.015810497  0.015275922            3 
 2913000   0.78288021   -8.2995683    552.16602   0.01579603  0.015270478            2 
 2914000    0.7843315   -8.3274733    550.86337  0.015753356  0.015265038            2 
 2915000   0.79189879   -8.3276672    550.86458  0.015747987  0.015259606            3 
 2916000   0.77862424   -8.3219601    550.63344  0.015735981  0.015254151            5 
 2917000   0.80657935   -8.3139676    552.83684  0.015793533  0.015248718            6 
 2918000   0.77943681   -8.3087046    553.11411  0.015796039  0.015243314            2 
 2919000   0.78611811   -8.3289602    551.29309   0.01573864  0.015237897            4 
 2920000   0.78401221   -8.3255485    551.13254  0.015728668   0.01523249            2 
 2921000   0.79265693   -8.3053435    552.23267  0.015754669  0.015227084            5 
 2922000   0.78342096   -8.2784393    552.30874  0.015751447  0.015221677            3 
 2923000   0.78197445   -8.3061412    552.33969  0.015746941  0.015216274            3 
 2924000   0.77113101   -8.3410878    552.35644  0.015742033  0.015210853            5 
 2925000   0.78240528   -8.3307589    550.71011  0.015689747  0.015205432            3 
 2926000   0.78768773   -8.3091482     552.4884  0.015735031  0.015200001            2 
 2927000   0.78089709   -8.3198094    551.40436  0.015698792  0.015194593            4 
 2928000   0.80493981   -8.2838558    552.86205  0.015734917  0.015189174            2 
 2929000   0.79781212   -8.3139255    551.81084  0.015699637  0.015183781            3 
 2930000   0.77477679    -8.334489    550.56106  0.015658733  0.015178372            2 
 2931000   0.76945017   -8.3327928    551.69223  0.015685552  0.015172938            3 
 2932000   0.79235066   -8.3326425    551.66065  0.015679304  0.015167508            2 
 2933000   0.79524485   -8.3387676    552.41277  0.015695328  0.015162073            1 
 2934000   0.78833704   -8.3488454    550.98808  0.015649514  0.015156625            3 
 2935000   0.77040985   -8.3254532    551.29298  0.015652839  0.015151204            3 
 2936000   0.77806011   -8.3199311    552.69886  0.015687411  0.015145788            4 
 2937000   0.80063798   -8.3231842     551.4176  0.015645716  0.015140392            3 
 2938000   0.77825745   -8.3424098    551.11317  0.015631755   0.01513499            2 
 2939000   0.78693483    -8.371381    550.56694  0.015610949  0.015129575            1 
 2940000   0.78312599   -8.3157978    551.73928  0.015638869  0.015124152            1 
 2941000   0.77747309   -8.3600856    551.70547  0.015632593  0.015118723            7 
 2942000   0.79501189   -8.3090236    551.60037  0.015624302  0.015113302            3 
 2943000   0.77683536   -8.3416165    551.17817  0.015607038  0.015107883            5 
 2944000   0.78992666   -8.3488632    552.36449  0.015635317  0.015102444            2 
 2945000   0.77211102    -8.318222    552.12109  0.015623121  0.015097004            4 
 2946000   0.77517444    -8.369256    551.90526  0.015611712   0.01509158            2 
 2947000     0.764947   -8.3303517    551.31974  0.015589858  0.015086151            7 
 2948000   0.78309844   -8.3166981    551.48245  0.015589169   0.01508074            4 
 2949000   0.78721592   -8.3596214    552.13422  0.015602301  0.015075319            3 
 2950000   0.77964659   -8.3388728    550.61517  0.015554101  0.015069903            2 
 2951000    0.7776217   -8.3264189    553.77146  0.015637961  0.015064487            4 
 2952000   0.78898902   -8.3206689    551.30464  0.015563026  0.015059071            2 
 2953000    0.8016352    -8.334523    552.52508  0.015592197  0.015053645            2 
 2954000   0.78592869   -8.3684344    550.14356  0.015519735  0.015048202            2 
 2955000   0.78493802   -8.3470757    552.04288  0.015568045  0.015042759            2 
 2956000   0.77157722   -8.3756064    551.46444  0.015546472  0.015037329            2 
 2957000    0.7562238   -8.3395748    552.35014  0.015566175  0.015031901            3 
 2958000   0.76897245   -8.3126562    552.20354  0.015556782  0.015026461            6 
 2959000   0.79109788   -8.3281244    550.26703  0.015496987  0.015021026            4 
 2960000   0.78838291   -8.3302353    553.57784  0.015584962  0.015015607            3 
 2961000   0.77326449   -8.3167905    552.32097  0.015544325  0.015010205            4 
 2962000   0.77302836   -8.3587929     552.5797  0.015546357  0.015004783            2 
 2963000   0.79135356   -8.3321841    551.61766  0.015514053  0.014999357            6 
 2964000   0.78010931   -8.3453133    551.91875  0.015517284  0.014993928            6 
 2965000   0.78545903   -8.3537117    550.40546  0.015469518  0.014988503            2 
 2966000   0.78408257   -8.3588072    551.09935  0.015483798  0.014983075            8 
 2967000   0.77501459   -8.3445453    551.33917  0.015485315  0.014977667            3 
 2968000   0.77465863   -8.3652845    550.41042  0.015454021  0.014972259            7 
 2969000   0.77484039   -8.3421763     553.0352  0.015522488  0.014966861            3 
 2970000   0.77766413   -8.3317433    550.87878  0.015456756  0.014961464            5 
 2971000   0.79216923   -8.3856207    550.47109  0.015440118  0.014956064            4 
 2972000   0.79264438   -8.3167505    551.73385   0.01547033  0.014950678            2 
 2973000   0.79367151   -8.3321478     551.1021  0.015447418  0.014945306            5 
 2974000   0.78127138   -8.3470977    552.43982  0.015479708  0.014939933            4 
 2975000   0.77073565   -8.3606675    553.00067  0.015490215  0.014934543            4 
 2976000    0.7742311   -8.3698242    550.84276  0.015424584   0.01492916            2 
 2977000   0.78046233    -8.363365    549.68793  0.015387077  0.014923767            2 
 2978000   0.77795657   -8.3705469    550.74436  0.015411472  0.014918369            4 
 2979000   0.77828972   -8.3309116    553.24283   0.01547619  0.014913001            6 
 2980000   0.78760924   -8.3791239    551.69623  0.015427747   0.01490762            8 
 2981000   0.78517116   -8.3454084    552.01029  0.015431351  0.014902229            1 
 2982000   0.76089547   -8.3371755     551.9012  0.015423128  0.014896847            3 
 2983000     0.755135   -8.3778584    551.72658  0.015413079  0.014891477            4 
 2984000    0.7713839   -8.3536444    551.58927  0.015404079   0.01488612            2 
 2985000    0.7895166   -8.3781121    553.08107  0.015440566  0.014880753            6 
 2986000   0.77296082   -8.3480006    551.92841  0.015403227  0.014875393            6 
 2987000   0.78113052    -8.346811    552.49342  0.015413833  0.014870048            3 
 2988000   0.77441479    -8.345827    553.24895  0.015429745  0.014864705            1 
 2989000   0.77644046   -8.3562071    554.53896  0.015460549  0.014859379            4 
 2990000    0.7912522   -8.3166534    554.34455   0.01544996  0.014854063            3 
 2991000   0.77300681   -8.3572094    553.93359  0.015433344  0.014848739            2 
 2992000   0.78502386   -8.3580082    552.34853  0.015384039  0.014843396            6 
 2993000    0.7758319   -8.3664704    552.59151  0.015385664  0.014838043            3 
 2994000   0.77937685   -8.3702279     552.1369  0.015367872  0.014832683            4 
 2995000   0.75135437   -8.3501079    551.27251   0.01533869  0.014827336            2 
 2996000   0.77328127   -8.3771053    551.14295  0.015329966  0.014821977            2 
 2997000   0.77624425   -8.3391806    551.59075  0.015337302  0.014816609            2 
 2998000   0.75937643   -8.3587564    552.08388  0.015345894  0.014811258            1 
 2999000   0.77137041   -8.3905795    552.74261  0.015359081  0.014805879            2 
 3000000   0.76977393   -8.3844672    552.00577  0.015333494  0.014800488            2 
 3001000   0.78820788   -8.4168065    551.23713   0.01530704  0.014795097            2 
 3002000   0.76064299   -8.4042101    551.37248  0.015305698  0.014789707            3 
 3003000   0.77271205   -8.3896499    551.31417  0.015298983  0.014784308            3 
 3004000   0.76546124   -8.3923012    552.37228  0.015323243  0.014778913            4 
 3005000   0.77173089   -8.3823511    551.92719  0.015305801  0.014773542            2 
 3006000   0.76391577   -8.3683729     552.5597  0.015318244  0.014768169            3 
 3007000   0.77216843   -8.3688246    552.11455  0.015300813  0.014762798            7 
 3008000   0.75849582   -8.3614723    552.74837  0.015313286  0.014757408            1 
 3009000   0.75838432   -8.3913167    552.99554  0.015315042  0.014752031            3 
 3010000   0.76136098   -8.3779038    551.29717  0.015262934  0.014746656            2 
 3011000   0.76024491   -8.3896627    551.77757   0.01527116  0.014741284            2 
 3012000   0.76628109   -8.3878006    551.67385  0.015263221  0.014735924            2 
 3013000   0.76162655   -8.3856938    551.25177  0.015246481  0.014730558            5 
 3014000   0.78866093   -8.3617999    551.81181  0.015256907  0.014725222           12 
 3015000   0.75867282   -8.3640441     553.1835   0.01528976  0.014719902            1 
 3016000   0.76344806    -8.373424    551.19967  0.015229876  0.014714577            3 
 3017000    0.7805892   -8.3858517    551.46993  0.015232293  0.014709228            4 
 3018000   0.75228639   -8.3560911    551.70106  0.015233628  0.014703879            4 
 3019000   0.77341862   -8.3755361    551.42302  0.015220907  0.014698544            3 
 3020000   0.76240577   -8.3561363    552.42692  0.015243568  0.014693205            8 
 3021000   0.76962087   -8.3944451    551.11703   0.01520239  0.014687862            3 
 3022000   0.77253091   -8.3792933    552.09091  0.015224214  0.014682527            4 
 3023000   0.76371074   -8.3532425    552.75429  0.015237465  0.014677202            4 
 3024000   0.77367692    -8.382497    552.24754  0.015218462  0.014671865            5 
 3025000   0.76735131   -8.3793643    552.57095   0.01522234  0.014666534            4 
 3026000   0.77806163   -8.3253383    553.30331  0.015237478  0.014661227            6 
 3027000   0.75799167   -8.3331256    553.58535  0.015240209  0.014655936            2 
 3028000   0.76487996   -8.3820209    553.23334  0.015225488  0.014650632            3 
 3029000   0.77799804     -8.36235     553.5038  0.015227903  0.014645349            4 
 3030000   0.74823897    -8.370145    552.68202  0.015200276  0.014640066            5 
 3031000   0.77734012   -8.3858189    553.37371  0.015214278  0.014634761            3 
 3032000   0.75743871   -8.3800738     552.8808  0.015195712  0.014629456            3 
 3033000   0.75951852    -8.382986    552.84789  0.015189798  0.014624182            3 
 3034000   0.76899569   -8.3696284    552.47849  0.015174646  0.014618891            3 
 3035000   0.76402363   -8.4081688    552.04584  0.015157766  0.014613582            5 
 3036000   0.76590049   -8.3966247    551.95526  0.015150287  0.014608279            3 
 3037000   0.76642034   -8.3709808    552.54719  0.015161541  0.014602982            3 
 3038000   0.77098084   -8.4086867    552.60808   0.01515822  0.014597702            5 
 3039000   0.76233968   -8.3634224    553.62968  0.015181246  0.014592415            2 
 3040000   0.78046734     -8.40774    551.81706  0.015126564  0.014587122            4 
 3041000   0.77181892    -8.352677     552.7942  0.015148367  0.014581844            4 
 3042000   0.76740055   -8.3994714    552.10095  0.015124396  0.014576569           12 
 3043000   0.78809449   -8.3780445    552.60689  0.015133281  0.014571286            2 
 3044000   0.78085269   -8.3892088    552.51958  0.015125919  0.014565991            2 
 3045000   0.75494962    -8.405771    552.27368  0.015114222  0.014560696            2 
 3046000   0.77422388   -8.3970699     553.8843  0.015153324  0.014555409            5 
 3047000   0.76135801   -8.3806788    552.98401  0.015123729  0.014550124            5 
 3048000   0.76897526   -8.4069538    550.58887  0.015053283  0.014544852            5 
 3049000   0.75846936   -8.4028248    551.90807  0.015084401  0.014539575            4 
 3050000   0.76238059   -8.4251209    551.61355  0.015071409  0.014534288            7 
 3051000   0.75647317   -8.3906606    552.84346  0.015100062   0.01452899            2 
 3052000   0.75374043   -8.3946874    552.68345  0.015090745  0.014523708            4 
 3053000   0.75483623   -8.3816017    553.27366  0.015101912  0.014518436            3 
 3054000   0.77369089   -8.3829367    553.62489  0.015106551  0.014513158            7 
 3055000   0.77573903   -8.3841896    553.07439   0.01508659   0.01450788            7 
 3056000   0.75163474   -8.3866315    553.02111    0.0150802  0.014502623            6 
 3057000   0.76002587   -8.3746813    551.91929  0.015045232  0.014497363            5 
 3058000   0.76554204   -8.4147262    553.38613  0.015080285  0.014492109            3 
 3059000   0.77224707   -8.4051149    553.15004  0.015068923  0.014486857            4 
 3060000   0.75765292   -8.3792373    552.26224  0.015039821  0.014481603            6 
 3061000   0.75499626   -8.3738657     552.9375  0.015053291  0.014476327            2 
 3062000   0.74892465   -8.3958388    552.37577  0.015033088  0.014471082            4 
 3063000   0.76204284    -8.387236     552.1417  0.015021811   0.01446583            4 
 3064000   0.77217184   -8.3871175    553.52246  0.015054462  0.014460574            7 
 3065000   0.77191708    -8.429175    552.91127  0.015032933  0.014455328            6 
 3066000   0.76305451   -8.3647905    554.89604  0.015081975  0.014450089            3 
 3067000   0.77782507   -8.4068903    553.97537  0.015052043   0.01444486            4 
 3068000   0.75048676   -8.3927447     552.1296  0.014997001   0.01443961            5 
 3069000    0.7570886    -8.404976    552.66264  0.015006589  0.014434359            4 
 3070000   0.75277114   -8.4007293    552.19703  0.014989062  0.014429123            2 
 3071000   0.76729226   -8.3893772    551.64984  0.014969333  0.014423882            4 
 3072000   0.76364185   -8.4083708     553.3068  0.015009408  0.014418635            2 
 3073000   0.76663164   -8.3802045    552.67215  0.014987313  0.014413409            3 
 3074000   0.75723771       -8.404    552.38719  0.014974712  0.014408172            4 
 3075000   0.75684106   -8.4133686    552.57549  0.014974946   0.01440292            4 
 3076000   0.75693357   -8.3818366    552.93553  0.014979831  0.014397672            2 
 3077000   0.76540919   -8.4004362    553.44057  0.014988641  0.014392435            4 
 3078000   0.77207419   -8.4365266    553.16445  0.014976295  0.014387203            4 
 3079000   0.76011364   -8.3948925    553.68397  0.014985492  0.014381972            7 
 3080000   0.75515274   -8.4168944    553.87338  0.014985752  0.014376735            4 
 3081000   0.75389217   -8.4229478    551.73218  0.014922973  0.014371503            7 
 3082000   0.76910262   -8.4289441    553.14063  0.014956214  0.014366262            3 
 3083000   0.76315379   -8.4248712     552.2155  0.014926357  0.014361034            5 
 3084000    0.7641204   -8.3963437    552.22567  0.014921792  0.014355815            5 
 3085000   0.75457956   -8.4278217    552.24122  0.014917375  0.014350592            5 
 3086000   0.75350598   -8.4252907    552.68112   0.01492442  0.014345374            4 
 3087000    0.7625186    -8.414151    552.58702  0.014917045  0.014340161            6 
 3088000   0.77024447   -8.3921425    552.74522  0.014916484  0.014334948            8 
 3089000   0.75535579   -8.4111211    551.81203   0.01488648  0.014329738            8 
 3090000   0.75942185   -8.4225975    552.29451  0.014894674   0.01432452            5 
 3091000   0.76055237   -8.4242373    553.31729  0.014917429  0.014319297            4 
 3092000   0.76562201   -8.3857561    554.10626  0.014933869   0.01431412            3 
 3093000   0.75741264   -8.3880813    552.54182   0.01488689  0.014308928            4 
 3094000   0.76679962   -8.4220861     553.0849  0.014896706   0.01430373            6 
 3095000   0.75392894   -8.4041999    553.14909  0.014893621   0.01429853            4 
 3096000   0.75752931   -8.4382258    551.82367  0.014853135  0.014293326            3 
 3097000   0.75643738   -8.4236701    553.93444  0.014905135  0.014288131           10 
 3098000   0.76085783   -8.4148839    552.86512   0.01487156  0.014282926            6 
 3099000   0.75229846   -8.4291865    552.07417  0.014845492  0.014277711            3 
 3100000   0.74827236   -8.4457969    551.83279  0.014834215  0.014272489            3 
 3101000   0.75760515   -8.4362879    552.71233  0.014853067   0.01426725           10 
 3102000   0.76280371   -8.4643229    552.54213  0.014843706  0.014262015            7 
 3103000   0.75232748   -8.4633736    553.32445  0.014859932  0.014256791           15 
 3104000   0.73882807    -8.439487    551.66335  0.014810549  0.014251589            7 
 3105000   0.75984731   -8.4258703    554.08088  0.014870662  0.014246382            5 
 3106000   0.76167293   -8.4391111    553.22595  0.014842937  0.014241177           21 
 3107000   0.74801884    -8.452772    552.18214  0.014810164  0.014235963            7 
 3108000   0.75588611   -8.4684502     552.8436  0.014823134  0.014230755           27 
 3109000   0.74404202   -8.4449736    553.99455  0.014849216  0.014225558           13 
 3110000   0.75693577   -8.4430588    553.29524  0.014825703  0.014220368           18 
 3111000   0.76031855   -8.4186189    554.38464  0.014850119  0.014215194            4 
 3112000   0.75974108   -8.3978343    552.68744  0.014799899  0.014210016           12 
 3113000   0.73905276   -8.4393543    553.17788  0.014808274  0.014204858            4 
 3114000   0.74994942   -8.4210671    553.98383  0.014825087  0.014199689           15 
 3115000   0.75695731   -8.4247765    553.87649  0.014817456  0.014194532            5 
 3116000   0.73349085   -8.3974187    554.41663  0.014827146  0.014189375            4 
 3117000   0.74336853   -8.3995413    552.91794  0.014782321  0.014184222            3 
 3118000   0.76392421   -8.4375985    553.71734  0.014798945  0.014179086            5 
 3119000   0.76004006   -8.4275581    553.24331  0.014781535  0.014173943            5 
 3120000   0.75669688   -8.4331713     554.9186  0.014821544  0.014168805            3 
 3121000   0.73978735   -8.4235965    553.94393   0.01479077   0.01416367            2 
 3122000   0.75594694   -8.3779223     555.2607   0.01482118  0.014158534            6 
 3123000   0.72437784    -8.411154    554.74422  0.014802653  0.014153418            4 
 3124000   0.74286718   -8.4323359    553.71508  0.014770462  0.014148301            3 
 3125000   0.74089175   -8.3779295    555.85102  0.014822694   0.01414319            4 
 3126000   0.75311087   -8.4343391    553.82416   0.01476392  0.014138083            4 
 3127000   0.75303436   -8.4158843    553.57322  0.014752511  0.014132959            3 
 3128000   0.76234516   -8.4280314    554.95327  0.014784561   0.01412786            8 
 3129000    0.7675865   -8.4222685    553.67861  0.014745888  0.014122738            4 
 3130000   0.75779922   -8.4012831    554.25606  0.014756551  0.014117615            4 
 3131000   0.74388584   -8.4471753    553.30063  0.014726409  0.014112482            5 
 3132000   0.75088829   -8.4385872    553.80761  0.014735196  0.014107355            1 
 3133000   0.75638301   -8.4333111    553.88218  0.014732476  0.014102236            4 
 3134000    0.7683492   -8.4553361    554.40896  0.014741783  0.014097119            2 
 3135000   0.76275565   -8.4494769    554.36296  0.014735858  0.014092005            5 
 3136000   0.73920506   -8.4440285    553.20022  0.014700261  0.014086905            4 
 3137000   0.73149655   -8.4626149    553.26264  0.014697233  0.014081787            2 
 3138000   0.74560708    -8.442431    553.77232  0.014706084  0.014076663            1 
 3139000   0.75229689   -8.4391877     554.9496  0.014732654  0.014071548            3 
 3140000   0.75558426   -8.4643425     553.3278   0.01468492  0.014066432            2 
 3141000   0.75264842   -8.4496843    552.84598  0.014667462  0.014061297            5 
 3142000   0.74665524    -8.440705    553.60986  0.014683054  0.014056157            9 
 3143000    0.7597412   -8.4397598    553.36968  0.014672014  0.014051044            3 
 3144000   0.74705346    -8.441815    554.24977  0.014690674  0.014045912            8 
 3145000   0.76101744   -8.4440326    553.38521  0.014663095  0.014040791            7 
 3146000   0.75042814   -8.4370672    553.40377  0.014658926   0.01403567            4 
 3147000   0.73649091   -8.4480591    553.47649  0.014656193  0.014030559            2 
 3148000    0.7352313   -8.4303859    555.27934  0.014699262  0.014025451            3 
 3149000   0.75607131   -8.4547833    553.68324  0.014652356  0.014020333            5 
 3150000    0.7508694   -8.4514061    555.09532  0.014685061   0.01401522            2 
 3151000   0.74036606   -8.4548749    554.61939  0.014667814  0.014010131            3 
 3152000   0.75663946   -8.4712139    553.05519  0.014621806  0.014005035            5 
 3153000    0.7531207   -8.4173221    553.36117  0.014625256   0.01399993            3 
 3154000   0.77307223   -8.4648944    554.52515  0.014651373  0.013994831            7 
 3155000   0.74930031   -8.4610604    554.53811  0.014647071  0.013989736            9 
 3156000    0.7441912   -8.4313651    555.06732  0.014656404  0.013984635           11 
 3157000   0.75650497    -8.441809    554.66435  0.014641124  0.013979558           12 
 3158000   0.75049838   -8.4264444    554.81252  0.014640398  0.013974485           14 
 3159000   0.74062187   -8.4442759    554.70337  0.014632884  0.013969431            6 
 3160000   0.75815608   -8.4291267    555.05647  0.014637565  0.013964351            4 
 3161000   0.73798656   -8.4339411    553.86403  0.014601498   0.01395928            2 
 3162000   0.73812489   -8.4502445    553.66957  0.014591756   0.01395419            3 
 3163000   0.73931094   -8.4319196     553.1904  0.014574518  0.013949125            3 
 3164000   0.74176846   -8.4150038    554.86537  0.014614027  0.013944064            6 
 3165000    0.7419735   -8.4400739    555.34695  0.014622089  0.013939008            4 
 3166000   0.75657156   -8.4398425    555.27775  0.014615649  0.013933948            4 
 3167000   0.74497008    -8.444239    554.52402  0.014591201  0.013928898            3 
 3168000   0.74189845   -8.4535608     554.2831  0.014580258  0.013923829            3 
 3169000   0.75950454   -8.4214892    554.63406  0.014584886  0.013918772            6 
 3170000   0.74013961   -8.4565845    554.39523  0.014574007  0.013913701            6 
 3171000   0.73769044   -8.4597948    554.16305  0.014563309  0.013908641            5 
 3172000   0.73695566   -8.4575269       553.75  0.014547867  0.013903571            8 
 3173000   0.75158886   -8.4548069    554.27512  0.014557073  0.013898518            7 
 3174000   0.74428963   -8.4575435    553.94831  0.014543907   0.01389347            4 
 3175000    0.7490405   -8.4652214    554.68618  0.014558692  0.013888419            2 
 3176000   0.76528647   -8.4218554    554.25591  0.014542819  0.013883382            1 
 3177000   0.74796127    -8.447206      552.935  0.014503594  0.013878332            3 
 3178000   0.73505318   -8.4495171     554.3947  0.014537306  0.013873277            5 
 3179000   0.73284255   -8.4340141    554.37637  0.014532253  0.013868209            3 
 3180000    0.7409753   -8.4515607    554.10786  0.014520646  0.013863171            5 
 3181000   0.74918047   -8.4086896    554.48395  0.014525934  0.013858144            4 
 3182000    0.7483656   -8.4306414     555.1738  0.014539435  0.013853107            6 
 3183000     0.742825   -8.4892164     552.7498  0.014471405  0.013848065            3 
 3184000   0.73784796   -8.4529118    554.10121   0.01450223  0.013843013            2 
 3185000   0.74071187   -8.4671486     554.0358  0.014495965   0.01383796            2 
 3186000   0.75434489   -8.4601524    554.16686  0.014494844  0.013832901            2 
 3187000   0.73953917   -8.4723602    553.32623  0.014468315  0.013827851            2 
 3188000   0.73178908   -8.4562433    555.14371  0.014511285  0.013822801            2 
 3189000   0.75729679    -8.454255    553.58364  0.014465967   0.01381775            3 
 3190000   0.74287839   -8.4710431    554.23232  0.014478378  0.013812703            3 
 3191000   0.72629983   -8.4332778    553.67136  0.014459191  0.013807667            3 
 3192000   0.72869669   -8.4511505    554.67093  0.014480757  0.013802607            4 
 3193000    0.7276503   -8.4609484    553.93902   0.01445712  0.013797569            2 
 3194000   0.74653988   -8.4318331    554.51835  0.014467709  0.013792532            3 
 3195000   0.73785473   -8.4623166    553.88917   0.01444677  0.013787501            2 
 3196000     0.723864    -8.428705    554.35088  0.014454289  0.013782473            3 
 3197000   0.74197104   -8.4772547    553.86789  0.014437178  0.013777434            3 
 3198000   0.73955624   -8.4428473    553.80318  0.014430977  0.013772405            5 
 3199000   0.72534413   -8.4381676    554.55136  0.014445956   0.01376739            2 
 3200000   0.74112918   -8.4439188    554.08148  0.014429205  0.013762372            3 
 3201000   0.74394031   -8.4381082    554.99184  0.014448397  0.013757369            2 
 3202000   0.74564129   -8.4536722     555.4716  0.014456371  0.013752368            2 
 3203000   0.73179538   -8.4555085    554.60104  0.014429208  0.013747377            2 
 3204000   0.75583114   -8.4571301    554.13596  0.014412608  0.013742386            4 
 3205000   0.74951272   -8.4681053    554.95512   0.01442941  0.013737391            1 
 3206000   0.74122787   -8.4436248    554.89967  0.014423468  0.013732391            4 
 3207000    0.7229975   -8.4631983    554.35599  0.014404843  0.013727393            6 
 3208000   0.75828177   -8.4413403    554.05566  0.014392551  0.013722402            1 
 3209000   0.74761867    -8.456497    553.41034  0.014371308  0.013717418            6 
 3210000   0.73813127   -8.4562284    554.56505  0.014396808  0.013712433            3 
 3211000   0.73562607   -8.4584799    555.76904  0.014423571   0.01370746            2 
 3212000   0.73702855   -8.4256519    555.29536  0.014406791  0.013702485            5 
 3213000   0.72062807   -8.4346682    554.51766  0.014382137  0.013697515            2 
 3214000   0.73559847    -8.459638    555.61007  0.014405986  0.013692554            4 
 3215000   0.73766084   -8.4678678    555.65843  0.014402759  0.013687581            3 
 3216000   0.73718018   -8.4680758    555.45487  0.014393006  0.013682616            8 
 3217000   0.73790552    -8.418877    556.45385  0.014414409  0.013677662           11 
 3218000   0.74931155   -8.4632288    553.73128  0.014339426  0.013672699            4 
 3219000   0.74354019   -8.4534754    555.09338  0.014370234  0.013667745           13 
 3220000   0.72257703   -8.4559015    556.32037  0.014397525  0.013662796            4 
 3221000   0.73173411   -8.4452593     554.6308  0.014349343   0.01365784            6 
 3222000   0.74221662   -8.4382878    555.83406   0.01437601  0.013652893            2 
 3223000   0.73695147   -8.4525615    556.44339  0.014387304  0.013647961            2 
 3224000   0.72743682   -8.4676051    554.75596  0.014339226   0.01364301            9 
 3225000   0.74572235   -8.4573976    555.10518  0.014343803  0.013638074            3 
 3226000   0.72590905   -8.4501169    555.03264  0.014337483  0.013633131            2 
 3227000   0.73058202   -8.4533904      554.345  0.014315282  0.013628193            5 
 3228000   0.72789381   -8.4380363    555.04116   0.01432882   0.01362326            2 
 3229000   0.74586521   -8.4367823    556.27658  0.014356266  0.013618335            3 
 3230000   0.73338546   -8.4630465    555.09125   0.01432124    0.0136134            5 
 3231000   0.72607932   -8.4735392    554.95423  0.014313273  0.013608458            3 
 3232000   0.72295136   -8.4539308    554.44751  0.014295779  0.013603521            2 
 3233000   0.73617639   -8.4541476    554.62841   0.01429602  0.013598586            6 
 3234000   0.73498642   -8.4354929    555.15106  0.014305068  0.013593658            4 
 3235000   0.72394432   -8.4786646    555.62567  0.014312872  0.013588725            3 
 3236000   0.72883568   -8.4517024    554.81372  0.014287539  0.013583791            3 
 3237000   0.73018878   -8.4789635    554.51277  0.014275378  0.013578853            2 
 3238000   0.74027747   -8.4634859    555.38131  0.014293322  0.013573924            5 
 3239000   0.71802844   -8.4912659    554.19881  0.014258485  0.013568988            3 
 3240000   0.72759434   -8.4952834    554.68236  0.014266522  0.013564047            4 
 3241000   0.72951293   -8.4856524    554.86248  0.014266751  0.013559119            3 
 3242000   0.73888547   -8.5058359    554.19402  0.014245168  0.013554179            4 
 3243000   0.73346107    -8.470771    555.04635  0.014262677  0.013549254           11 
 3244000   0.73943168   -8.4731143    556.17233  0.014287205  0.013544335            2 
 3245000   0.73830637   -8.4765907     555.1654  0.014256944  0.013539438            3 
 3246000   0.74470177   -8.4616554    554.77744  0.014242592  0.013534524            5 
 3247000   0.73131082   -8.4766423    554.73553   0.01423713  0.013529599            4 
 3248000   0.72253619   -8.4903186    554.80751  0.014234593  0.013524679            7 
 3249000   0.73620748   -8.4810522     554.3041    0.0142173  0.013519751            5 
 3250000   0.72048052   -8.5036878    554.43591  0.014216305  0.013514823            3 
 3251000   0.74307301   -8.4970504    554.77482   0.01422062  0.013509894            4 
 3252000    0.7501319   -8.4970269    555.07719  0.014223995  0.013504961            3 
 3253000   0.73662227    -8.474967    555.33037  0.014226109  0.013500054            2 
 3254000   0.72861747   -8.5086975    554.91295  0.014211047  0.013495143            1 
 3255000   0.71790238    -8.491361    554.66558  0.014200348  0.013490222            4 
 3256000   0.73484697    -8.476328    555.72711  0.014223155  0.013485315            6 
 3257000   0.73327096   -8.4712064    556.11525  0.014228719  0.013480401            4 
 3258000   0.73495171   -8.5206719    554.62422  0.014186214  0.013475495            3 
 3259000    0.7358648   -8.4952604    554.91862  0.014189389   0.01347058            2 
 3260000   0.73369474   -8.5021181    554.22508  0.014167308   0.01346567           11 
 3261000   0.72552824   -8.4715738    554.82036  0.014178175  0.013460752           10 
 3262000   0.71267044   -8.5152802    554.05872  0.014154371  0.013455837            8 
 3263000   0.73347192   -8.4523548    556.27501  0.014206635  0.013450934            4 
 3264000   0.72676307   -8.4613691    556.08737  0.014197492  0.013446048            6 
 3265000   0.74100136   -8.4849364    554.56059  0.014154175  0.013441155            4 
 3266000   0.73537732   -8.4994232    556.01356  0.014186915  0.013436266            8 
 3267000    0.7262239   -8.4783886     555.3543  0.014165756  0.013431379            8 
 3268000   0.72827664   -8.4711339    556.13394  0.014181302  0.013426502           11 
 3269000   0.73130558   -8.4974824    554.42703  0.014133451  0.013421618            9 
 3270000    0.7369728   -8.5010639    554.79035  0.014138388  0.013416744            9 
 3271000   0.70953918   -8.4831337    556.67202  0.014182004  0.013411879            7 
 3272000   0.72658489   -8.4571022    556.56883  0.014175041  0.013407008           12 
 3273000   0.73051673    -8.472273    556.33586  0.014164779  0.013402136           10 
 3274000   0.71630652    -8.473487    557.46527  0.014189199  0.013397275           18 
 3275000   0.73627061   -8.4847245    555.38076  0.014131826  0.013392425            7 
 3276000   0.72266939   -8.4655586     555.4182  0.014128465  0.013387552            7 
 3277000   0.72676198   -8.4825326     555.9075  0.014136596  0.013382689            6 
 3278000   0.73036318   -8.4583373    555.83584  0.014130462  0.013377824            9 
 3279000   0.71101023   -8.4785051     555.4217  0.014115627  0.013372965            2 
 3280000   0.73223315   -8.4682911    556.68581   0.01414344  0.013368109           11 
 3281000    0.7284386   -8.4872589    554.68739  0.014088372  0.013363264            9 
 3282000   0.71606917   -8.4956608    555.35377     0.014101  0.013358416            6 
 3283000   0.69532148   -8.4730189    554.83541  0.014083547  0.013353571            7 
 3284000   0.72107965   -8.4682995    554.57846  0.014072738  0.013348733           16 
 3285000   0.73583542   -8.4685467    555.65214  0.014095691  0.013343898            5 
 3286000   0.72488174   -8.4595667    555.81136  0.014095439  0.013339058            3 
 3287000   0.73394727   -8.4914009    556.76103  0.014115227  0.013334213            3 
 3288000   0.74727882   -8.4819583    555.67759  0.014083475  0.013329362            2 
 3289000   0.72374808   -8.4760845    555.81689  0.014082722  0.013324504            3 
 3290000   0.73244442   -8.4921786    555.51299  0.014070744  0.013319644            3 
 3291000   0.72389642    -8.475357    555.18043  0.014058048  0.013314791            2 
 3292000   0.72441413   -8.4985302     555.4377   0.01406029  0.013309945            2 
 3293000   0.72349895   -8.4885213     555.1743  0.014049355  0.013305106            2 
 3294000   0.74551833   -8.4897142    554.67015  0.014032335  0.013300266            5 
 3295000   0.71728422   -8.4905077     554.6988  0.014028801  0.013295409            5 
 3296000   0.71580455   -8.5022041    554.96435  0.014031259  0.013290568            2 
 3297000   0.73290946   -8.5013464    555.47059  0.014039799  0.013285728            3 
 3298000   0.72114485   -8.4675723    554.89268  0.014020939  0.013280885            5 
 3299000    0.7224381   -8.4965023    555.05461  0.014020779  0.013276059            5 
 3300000   0.72568532   -8.4968929    554.95268  0.014013957  0.013271224            7 
 3301000   0.71027833   -8.4815401    555.58147  0.014025585  0.013266387            4 
 3302000   0.73300577   -8.4863909    555.93078  0.014030153  0.013261555            4 
 3303000   0.72647935   -8.5200125    554.58606  0.013991978  0.013256708            4 
 3304000   0.72812871   -8.5042716    555.23649  0.014004149  0.013251874            2 
 3305000   0.73069065    -8.496012    556.67897  0.014036283  0.013247041            6 
 3306000   0.73225663   -8.4802379    555.28029  0.013996781  0.013242202            8 
 3307000   0.71936096   -8.5116927    554.46848  0.013972092  0.013237368            7 
 3308000   0.71552905   -8.5104807    554.36091  0.013965158  0.013232521            5 
 3309000   0.70749563   -8.5139697     555.4485  0.013988327  0.013227682            7 
 3310000   0.72720963   -8.5056267    554.97738   0.01397224  0.013222851            9 
 3311000   0.70806042   -8.5400889     554.1124   0.01394625  0.013218003           10 
 3312000    0.7274656   -8.5094244    554.53217  0.013952601  0.013213165            3 
 3313000   0.72882766   -8.5056885    555.10333  0.013962756  0.013208347            2 
 3314000   0.70524643   -8.4997471    554.90936  0.013953665  0.013203523            3 
 3315000   0.72351094   -8.5236397    555.88659  0.013974022  0.013198692            7 
 3316000    0.7019832   -8.5012127     554.4358  0.013933348  0.013193863            3 
 3317000   0.71979544   -8.5167411    554.20793  0.013923423  0.013189024            2 
 3318000   0.72278427    -8.515111    554.14411  0.013917624  0.013184195            4 
 3319000   0.72196732    -8.530244    554.28178  0.013916887  0.013179355            6 
 3320000   0.71563756   -8.5138563    554.06122  0.013907159  0.013174517            6 
 3321000   0.71077007   -8.5123672    554.46524  0.013913109  0.013169661            4 
 3322000   0.71318852    -8.541512     552.8222  0.013867705  0.013164821            4 
 3323000   0.71690934   -8.5393968    553.91437  0.013890921  0.013159971            3 
 3324000   0.71695927   -8.5218856    553.54079  0.013877376  0.013155122            2 
 3325000   0.72111537   -8.5379304    553.91302  0.013882532  0.013150277            4 
 3326000   0.72479338   -8.5410641    554.10053  0.013883056  0.013145433            4 
 3327000    0.7212974   -8.4900351    555.08074  0.013903435  0.013140597            2 
 3328000   0.71274501   -8.5213588    553.96493  0.013871317  0.013135775            4 
 3329000   0.69766975   -8.5470609     554.0336  0.013868869   0.01313094            6 
 3330000    0.7175144   -8.5546258    553.96584  0.013863009  0.013126087            5 
 3331000   0.70396273   -8.5337624    553.72062  0.013852712  0.013121238            4 
 3332000   0.72355742    -8.541135    553.40466  0.013840653  0.013116391            4 
 3333000    0.7297544   -8.5297324    554.62146  0.013866923  0.013111551            6 
 3334000   0.70468597    -8.543134    553.28473  0.013829352  0.013106712            3 
 3335000   0.72684368   -8.5047942    554.54849  0.013856784  0.013101882            4 
 3336000   0.72612133   -8.5308662    554.36065  0.013847938  0.013097054            8 
 3337000   0.71476596   -8.5234329    554.85708  0.013856185  0.013092231            3 
 3338000   0.71807909   -8.5439796    554.37383   0.01383997  0.013087411            6 
 3339000   0.72577509   -8.5593826    553.18138  0.013806064   0.01308258            3 
 3340000   0.70101442   -8.5268322    553.95142  0.013821143  0.013077766            3 
 3341000   0.71996014   -8.5404478    554.73595  0.013836575  0.013072951            4 
 3342000   0.71602271   -8.5218267    553.90918  0.013811819  0.013068144            2 
 3343000   0.70518619   -8.5496802    554.29909  0.013817407  0.013063331           10 
 3344000    0.7151895   -8.5440388     554.9072  0.013828429   0.01305851            4 
 3345000   0.71195766   -8.5119645    554.42036  0.013812166  0.013053697            2 
 3346000    0.7091423   -8.5359666    553.90364  0.013795169  0.013048895            3 
 3347000   0.71176725   -8.5505482     555.0271  0.013819019   0.01304409            2 
 3348000   0.71307268   -8.5395754    554.38642  0.013798945  0.013039283            5 
 3349000   0.70586327   -8.5462274    555.00417  0.013810196  0.013034474            5 
 3350000   0.70850214   -8.5291678    555.26139  0.013812472  0.013029663            2 
 3351000   0.74381879   -8.5082791    555.75231  0.013820559  0.013024861            2 
 3352000   0.72357024    -8.550662    552.86464  0.013744646   0.01302005            3 
 3353000   0.71388086   -8.5426367    553.58627  0.013758482  0.013015249            3 
 3354000   0.71199149   -8.5552204    552.54884  0.013728604  0.013010443            6 
 3355000   0.72096597   -8.5609236     553.0579  0.013737156  0.013005619            3 
 3356000   0.71199198   -8.5713135    553.06934  0.013733347  0.013000807            5 
 3357000   0.71876201   -8.5282054    554.72895  0.013770453  0.012996008            4 
 3358000   0.72624651   -8.5498646    552.38349  0.013708147  0.012991203            3 
 3359000   0.71351055    -8.555511    554.44795  0.013755283  0.012986395            6 
 3360000   0.72990756   -8.5734178    553.81759  0.013735555  0.012981584            6 
 3361000    0.6984595   -8.5579527    553.78396  0.013730635  0.012976773            2 
 3362000   0.71543393   -8.5776021    552.82512  0.013702784  0.012971964            3 
 3363000   0.70676175   -8.5649981     553.8852  0.013724978  0.012967175            2 
 3364000   0.69954796   -8.5331774    553.63654  0.013714738  0.012962382            3 
 3365000    0.7047212   -8.5515255    554.18784  0.013724315  0.012957598            9 
 3366000   0.69934999    -8.561538    554.31446  0.013723372  0.012952802            2 
 3367000   0.71853758   -8.5605275    555.25446  0.013742562   0.01294802            3 
 3368000     0.716577   -8.5450303    554.94226  0.013730757  0.012943247            4 
 3369000   0.71764699   -8.5299335    553.26213  0.013685122  0.012938468            4 
 3370000   0.70705829   -8.5403684    554.39159  0.013708991  0.012933689            3 
 3371000   0.71539804   -8.5368722    554.57264    0.0137094  0.012928919            5 
 3372000     0.718483   -8.5201337    555.32775  0.013723995  0.012924146            4 
 3373000   0.70418375   -8.5483736    555.06736  0.013713493  0.012919383            5 
 3374000   0.71282741   -8.5381849    554.60488  0.013698006  0.012914609            6 
 3375000   0.71682281   -8.5466676    553.28596  0.013661382   0.01290984            7 
 3376000   0.72265811    -8.538039     554.6951  0.013692118  0.012905079            7 
 3377000   0.71432394    -8.567701    554.13014  0.013674122  0.012900303            5 
 3378000   0.70515485   -8.5535716    553.80823  0.013662133  0.012895533            7 
 3379000   0.71393799   -8.5644508    554.03937   0.01366379  0.012890751            4 
 3380000    0.7204238   -8.5407295    554.69435  0.013675896  0.012885993            6 
 3381000   0.71705288   -8.5404947    553.61348  0.013645211   0.01288123            5 
 3382000   0.69662425   -8.5572682    554.02675  0.013651359  0.012876467            5 
 3383000   0.72823487   -8.5494391    553.71741  0.013639704  0.012871702            2 
 3384000   0.69817825   -8.5502167    553.29591  0.013625293  0.012866935            3 
 3385000   0.72019252   -8.5640887    553.24013  0.013619895  0.012862169            5 
 3386000   0.71453471   -8.5534619    554.44045  0.013645414  0.012857412            4 
 3387000   0.70315251   -8.5584701     554.2615  0.013636982  0.012852653            4 
 3388000   0.71468616   -8.5662854    554.05717  0.013627931  0.012847904            4 
 3389000   0.70812567   -8.5694888    553.75175    0.0136164  0.012843161            6 
 3390000   0.71264695   -8.5766262    553.71933  0.013611586  0.012838407            4 
 3391000   0.69465132   -8.5780675    553.80903  0.013609777  0.012833641            4 
 3392000     0.683413   -8.5428962    554.27358  0.013617177  0.012828879            2 
 3393000   0.72218727   -8.5501246    554.89161  0.013628343  0.012824122            3 
 3394000   0.70032767    -8.556843    553.95318  0.013601286  0.012819366            6 
 3395000   0.71116543   -8.5484698     553.5916  0.013588405  0.012814617            2 
 3396000   0.71846656   -8.5495574    554.49344  0.013606533   0.01280987            9 
 3397000   0.69793226   -8.5249912    552.85195   0.01356226  0.012805131            4 
 3398000   0.69484889   -8.5344853    553.20719   0.01356698  0.012800399            4 
 3399000   0.71608085   -8.5454042    553.41378  0.013568054  0.012795663            3 
 3400000    0.6961892   -8.5527395    554.00591  0.013578576   0.01279093            4 
 3401000   0.69908994   -8.5571972    554.06518  0.013576036  0.012786202            3 
 3402000   0.70377672    -8.540383    554.02732  0.013571118  0.012781466            4 
 3403000   0.71020611   -8.5540636    553.15348  0.013545731  0.012776744            5 
 3404000   0.68963947   -8.5686855    553.43359  0.013548609  0.012772023            8 
 3405000   0.70342168   -8.5717714    554.89153  0.013580312  0.012767306            5 
 3406000   0.70098666   -8.5526049      553.726  0.013547808  0.012762585            2 
 3407000   0.70548511   -8.5832057    553.90358  0.013548175  0.012757866            4 
 3408000   0.71161825   -8.5649443    553.87322  0.013543457  0.012753158            4 
 3409000   0.72923755   -8.5327714    554.92768  0.013565261  0.012748457            3 
 3410000   0.69311549   -8.5422495     553.0146  0.013514531  0.012743759            6 
 3411000   0.69852814   -8.5307461    554.04949  0.013535852  0.012739045            3 
 3412000   0.71145618   -8.5587954    554.27014  0.013537274  0.012734347            2 
 3413000   0.70201311   -8.5414134    554.34692  0.013535182  0.012729647            5 
 3414000   0.68884862   -8.5366339    554.17369  0.013526989  0.012724953            3 
 3415000   0.70608317   -8.5553748    554.70164  0.013535911  0.012720251            4 
 3416000   0.71438926   -8.5555114    555.43859  0.013549927  0.012715556            4 
 3417000   0.71307926   -8.5617623    554.03428  0.013511713  0.012710858            3 
 3418000   0.70337586   -8.5505191    553.61489  0.013497535  0.012706163            6 
 3419000   0.72556374   -8.5393394    554.55201  0.013516428  0.012701466            7 
 3420000   0.69482682    -8.545605    554.32644   0.01350698  0.012696788            4 
 3421000   0.71069978   -8.5498662    555.35159  0.013528003  0.012692105            3 
 3422000   0.71335638   -8.5307224    554.16311  0.013495108   0.01268744            2 
 3423000   0.70846444   -8.5681352    553.92216  0.013485299  0.012682751            6 
 3424000   0.70372569   -8.5640407    554.19456  0.013487991  0.012678075            3 
 3425000   0.69778319   -8.5531152    554.47279  0.013490822   0.01267339            4 
 3426000   0.69649954   -8.5488788    554.81051  0.013495099  0.012668723            5 
 3427000    0.7097205   -8.5525515    554.39676    0.0134811  0.012664059            3 
 3428000    0.6971538   -8.5439214    554.61128  0.013482382  0.012659406            4 
 3429000   0.71136059   -8.5346515     554.3361  0.013471763  0.012654754            4 
 3430000    0.7037952   -8.5642272    554.24794  0.013465693  0.012650103            4 
 3431000   0.70420634   -8.5370216    555.47955  0.013491683  0.012645446            5 
 3432000   0.70474484   -8.5741813    554.74826  0.013469995  0.012640787            5 
 3433000   0.71222063     -8.54565    554.73737  0.013465807  0.012636139            5 
 3434000   0.69296412    -8.519273    554.41314  0.013454017  0.012631496            2 
 3435000   0.70351594   -8.5449286    554.34374  0.013448417  0.012626848            2 
 3436000   0.69137685   -8.5556766    554.14549  0.013439695  0.012622183            4 
 3437000   0.71037084   -8.5394742     554.3303  0.013440265  0.012617525            3 
 3438000   0.70626257   -8.5561597    555.09562  0.013454906  0.012612874            4 
 3439000    0.7011046   -8.5827447    554.24591  0.013430404  0.012608221            4 
 3440000    0.6998541   -8.5729292    553.87485  0.013417511  0.012603566            2 
 3441000   0.69992976    -8.576438    552.99867  0.013392393  0.012598902            4 
 3442000   0.70703968   -8.5659279    554.16297   0.01341669  0.012594246            7 
 3443000   0.69873058   -8.5711098    553.42881  0.013395024  0.012589585            4 
 3444000   0.69816619   -8.5760429    553.91145  0.013402813   0.01258493            3 
 3445000    0.6845049   -8.5897049    552.75993  0.013371067  0.012580269            3 
 3446000   0.71594661   -8.5580411    554.61278  0.013411994  0.012575621            2 
 3447000   0.70000327   -8.5653415    554.85028  0.013413845   0.01257098            6 
 3448000   0.70127855   -8.5629688    553.23607  0.013370941  0.012566329            3 
 3449000    0.7002569   -8.5699384    554.39889   0.01339516  0.012561675            6 
 3450000   0.68280966   -8.5753325    554.30793   0.01338908  0.012557028            4 
 3451000   0.70622789    -8.558708    553.65489  0.013369431  0.012552377            7 
 3452000   0.70938088   -8.5648139    553.02883  0.013350445  0.012547724           10 
 3453000   0.70017639   -8.5836667    553.97783  0.013369481   0.01254306            7 
 3454000   0.70238859   -8.5864672    554.40501  0.013375917  0.012538407            5 
 3455000   0.69737819   -8.5797653    554.43421   0.01337275  0.012533749            8 
 3456000   0.71803553    -8.574426    553.63674  0.013349651  0.012529104            6 
 3457000   0.70432656   -8.6013509    553.63122  0.013345657  0.012524456            5 
 3458000   0.71027366   -8.5750289    553.21212  0.013331697  0.012519817            3 
 3459000   0.70100129    -8.564179    552.98516  0.013322375  0.012515171            4 
 3460000   0.70852153   -8.5818944    554.53261  0.013355795  0.012510514            4 
 3461000   0.68978869   -8.5809984    553.28482  0.013321892  0.012505875            2 
 3462000   0.68894004   -8.5735199    554.04298  0.013336294  0.012501233            4 
 3463000    0.6957842   -8.5709503    553.88281  0.013328588  0.012496596            3 
 3464000   0.69614717   -8.5775765    553.47768  0.013314994   0.01249196            8 
 3465000   0.69762527   -8.5976673    553.16679  0.013303675  0.012487312            2 
 3466000   0.69709779   -8.5815775    552.97029  0.013295112   0.01248268            8 
 3467000   0.68292349   -8.5766772    553.46269  0.013303112  0.012478041            4 
 3468000   0.68359096   -8.6084211    553.39459   0.01329764  0.012473393           14 
 3469000   0.71995027   -8.5726061    553.56574  0.013297918  0.012468755            5 
 3470000   0.70605214   -8.5685971    553.64849  0.013296073  0.012464117            5 
 3471000   0.68772901   -8.5906811    553.50504  0.013288799  0.012459491            4 
 3472000   0.69721261    -8.564079    552.79768  0.013267994  0.012454876            5 
 3473000   0.69114156   -8.5957684    552.56885  0.013258682  0.012450251            3 
 3474000   0.70575546   -8.5749186    554.48072  0.013300727  0.012445625            7 
 3475000   0.69856914   -8.5674349    552.78251  0.013256175  0.012441011            8 
 3476000   0.69400789    -8.583375    553.13812  0.013260887  0.012436401            8 
 3477000   0.69572649   -8.5740237     554.1926  0.013282346  0.012431795            5 
 3478000   0.68866504   -8.5726278    552.98689  0.013249638  0.012427198            6 
 3479000   0.69369475   -8.5788885    553.20308  0.013251008  0.012422592            3 
 3480000   0.69552452   -8.5747213    553.72625  0.013259728  0.012417988           11 
 3481000   0.69871021   -8.5634101     553.6133  0.013253215  0.012413393            9 
 3482000   0.69975614   -8.5734671      553.813  0.013254188  0.012408792            3 
 3483000   0.69512892   -8.5751623     552.5757   0.01322078  0.012404192            4 
 3484000   0.69915775   -8.5599156    552.79333   0.01322219  0.012399583           11 
 3485000   0.70585062   -8.5687787    553.78314  0.013242064  0.012394993            7 
 3486000   0.69452313   -8.5804313    552.94337  0.013218191  0.012390396            4 
 3487000   0.68850034   -8.6022479     554.4949  0.013251479  0.012385792            5 
 3488000   0.67958598    -8.574365    554.28425  0.013242648  0.012381194            5 
 3489000   0.69487871   -8.5719063    553.92548  0.013230283  0.012376599           10 
 3490000   0.69367443   -8.5775014    553.00963  0.013204624  0.012371996            8 
 3491000   0.68702167   -8.5925045    552.59519  0.013190948  0.012367408            8 
 3492000   0.70347191   -8.5740913    553.66671  0.013212741  0.012362816            6 
 3493000   0.68429724   -8.5916495    553.56927  0.013206634  0.012358221            5 
 3494000   0.68962563   -8.6022091    554.95272   0.01323585  0.012353633            6 
 3495000   0.69037723   -8.6104358    553.18266  0.013189858  0.012349045            5 
 3496000   0.68345629   -8.5772889     554.2854  0.013212371  0.012344453            9 
 3497000    0.6833645   -8.5896941     553.2257  0.013183341   0.01233986            8 
 3498000   0.69539644   -8.6113551    553.17591  0.013178385  0.012335261            6 
 3499000   0.70045194   -8.5761364    553.14754  0.013173944  0.012330672            5 
 3500000   0.69061531   -8.5959981    553.73308  0.013184121   0.01232608            2 
 3501000   0.67974886   -8.6303421    552.84044  0.013159108  0.012321493            2 
 3502000   0.70941233   -8.5905128    553.78746  0.013177886  0.012316901            4 
 3503000   0.69522502   -8.6086765     552.9023  0.013153066   0.01231232            3 
 3504000   0.69484065   -8.6129564    552.13462  0.013131056  0.012307734            7 
 3505000   0.69606377   -8.5972167    553.96748  0.013170886  0.012303153            5 
 3506000   0.67713304   -8.6045542    552.98306  0.013143731  0.012298577            3 
 3507000   0.67801422   -8.5942684    553.11653  0.013143155   0.01229399            3 
 3508000   0.69774748   -8.5939167    553.46012   0.01314757  0.012289414            4 
 3509000      0.67245   -8.5970606     553.3032  0.013140097  0.012284856            3 
 3510000   0.69169059   -8.5698082    553.80692  0.013148312  0.012280291            7 
 3511000   0.69448099   -8.5751779    553.26827  0.013131783  0.012275721            5 
 3512000   0.68752044   -8.6080082    551.54162  0.013087073  0.012271152            2 
 3513000    0.6772588   -8.6122616    554.12987  0.013144745  0.012266587            2 
 3514000   0.67332199   -8.5846626    553.33036  0.013122044   0.01226202            2 
 3515000   0.69839001   -8.6062129    552.84297  0.013106756   0.01225746            3 
 3516000   0.69231959   -8.5993162    553.10083   0.01310914  0.012252899            4 
 3517000   0.68466813   -8.6081834    551.93525  0.013077795  0.012248335            4 
 3518000   0.70117599   -8.5927912    553.60867  0.013113717  0.012243773            5 
 3519000   0.69704823   -8.6020993    552.68581  0.013088136   0.01223921            4 
 3520000   0.69480114   -8.5844313    552.30713  0.013075453  0.012234646            3 
 3521000    0.7033854   -8.6082646    553.14046  0.013091462  0.012230089            3 
 3522000   0.69292483   -8.5900218    553.46333  0.013095384  0.012225534            3 
 3523000   0.69520197   -8.6215002    552.85194  0.013077206   0.01222097            3 
 3524000   0.67878626   -8.6142301    553.81484  0.013096265  0.012216418            2 
 3525000   0.69055097   -8.6053818    554.06432  0.013098447  0.012211867            6 
 3526000   0.68740108   -8.5991841     552.5084   0.01305796  0.012207312            5 
 3527000   0.69159865   -8.6348113     552.7354  0.013059621  0.012202758            2 
 3528000   0.69109815   -8.6186748    552.46204  0.013049462  0.012198208            4 
 3529000    0.6702794   -8.5920702    553.08484  0.013060471  0.012193655            4 
 3530000   0.69097169   -8.6108364     553.3034  0.013061931  0.012189106            2 
 3531000   0.68556877   -8.6183383    553.45935  0.013061912  0.012184562            7 
 3532000    0.6792565   -8.6154392    553.03346  0.013048166  0.012180015            6 
 3533000    0.6908187   -8.6265045    553.78191  0.013062126  0.012175478            3 
 3534000   0.69202464   -8.6149008    552.99951  0.013039981  0.012170935            5 
 3535000   0.68885993   -8.6202822    552.52713  0.013025156   0.01216639            3 
 3536000   0.67990968   -8.6219807    552.10423  0.013011506   0.01216184            5 
 3537000   0.69991466   -8.5979385    552.15245  0.013008964    0.0121573            3 
 3538000   0.67910509   -8.6227517    552.41192  0.013011398  0.012152762            5 
 3539000   0.67784267   -8.6088586     553.5933   0.01303554  0.012148223            4 
 3540000   0.69142768   -8.6119386    553.16684  0.013021818  0.012143692            4 
 3541000   0.69643211   -8.5915142    552.95933  0.013013257  0.012139157            3 
 3542000    0.6873428   -8.5951565    552.93254  0.013008953  0.012134634            5 
 3543000   0.70465241   -8.6396632    551.70199  0.012976338  0.012130101            7 
 3544000   0.68376802   -8.6219176    552.04997  0.012980859  0.012125564            2 
 3545000   0.69760991   -8.6062263    551.32922  0.012960254   0.01212103            6 
 3546000   0.68515932    -8.620608    552.90245  0.012993571   0.01211649            3 
 3547000   0.67662119   -8.6266783    552.88025  0.012989387  0.012111962           10 
 3548000    0.6908473   -8.6322054    552.90828  0.012986384   0.01210743            5 
 3549000   0.68384577   -8.6148206    552.80666  0.012980338  0.012102901            5 
 3550000   0.68008965   -8.6311897    553.23898  0.012986831  0.012098366           10 
 3551000   0.66938834    -8.629283    553.01006  0.012977801  0.012093833            4 
 3552000   0.68444786    -8.632354    552.06778  0.012952041   0.01208931            4 
 3553000   0.68922257   -8.6005471    552.74732  0.012964334  0.012084787            8 
 3554000   0.68125209   -8.6323426    553.43036  0.012976701  0.012080273            4 
 3555000   0.68972582   -8.6200404    552.12071  0.012942351   0.01207575            4 
 3556000   0.68905173   -8.6244326    552.23412   0.01294137  0.012071232            2 
 3557000   0.68787511   -8.6027085    552.63094  0.012947028   0.01206671            6 
 3558000   0.69130053   -8.6199873    552.52538  0.012940917  0.012062188            6 
 3559000   0.68795343   -8.6340003    551.14687  0.012905003  0.012057677            5 
 3560000   0.67801472   -8.6331527    552.03197  0.012922097  0.012053161            6 
 3561000   0.67246303   -8.6420243    553.07499  0.012942876  0.012048656            5 
 3562000    0.6766167   -8.6120165    553.02208  0.012938005  0.012044146            4 
 3563000   0.68100978   -8.6251292    552.17516  0.012914566  0.012039643            9 
 3564000   0.69128251   -8.6342912    552.81497  0.012925902  0.012035132            5 
 3565000   0.68650804   -8.6195103    552.56928  0.012916533  0.012030629            4 
 3566000    0.6668513   -8.6213204    552.02926  0.012900291  0.012026123            4 
 3567000   0.66581149   -8.6290439    551.60031  0.012886653  0.012021616            2 
 3568000   0.68644213   -8.6405228    551.73081   0.01288609  0.012017105            5 
 3569000    0.6841937   -8.6190826     552.8538    0.0129087  0.012012604            3 
 3570000    0.6819972   -8.6486879    551.80553  0.012880615    0.0120081            3 
 3571000   0.68279938   -8.6484369    552.05157  0.012882749  0.012003607            5 
 3572000   0.67287097   -8.6364599    551.95742  0.012876946  0.011999118            6 
 3573000   0.68214273   -8.6160186    552.64908  0.012889474   0.01199463            5 
 3574000   0.66905618   -8.6236042    552.31226  0.012878014  0.011990143            3 
 3575000     0.670285   -8.6464045    552.78964  0.012885539  0.011985654           11 
 3576000   0.68871444   -8.6460941     551.4689  0.012851158  0.011981171            6 
 3577000   0.68512207   -8.6317694    551.19367  0.012841153  0.011976695            6 
 3578000   0.68115529   -8.6478856    551.33862   0.01284094  0.011972219            4 
 3579000   0.66886184   -8.6489159    551.61763  0.012843849   0.01196774            5 
 3580000   0.66963565   -8.6305984    551.56535  0.012839044  0.011963256            6 
 3581000     0.672548   -8.6583074    552.23166  0.012850965  0.011958779            3 
 3582000   0.67570042    -8.629469    552.92335  0.012863469  0.011954302            5 
 3583000    0.6814046   -8.6520636    552.23959  0.012843976   0.01194982            6 
 3584000   0.68661464   -8.6353451    552.01001  0.012835054  0.011945344            5 
 3585000    0.6748302   -8.6395499    552.69211  0.012847329  0.011940869            5 
 3586000   0.67561924   -8.6513088    551.91183  0.012825614   0.01193639            3 
 3587000   0.67840583   -8.6507216    552.16316  0.012827877   0.01193192            5 
 3588000   0.68266598   -8.6633658    553.08704   0.01284576  0.011927453            3 
 3589000   0.68151005   -8.6466535    552.30968  0.012824131  0.011922981            3 
 3590000   0.68503024   -8.6523239    552.46722  0.012824216  0.011918511            3 
 3591000   0.67369168   -8.6494211    551.99472   0.01280968  0.011914041            5 
 3592000   0.68914499    -8.645274    553.13315  0.012832525  0.011909587            7 
 3593000   0.67472805   -8.6454941    554.22937  0.012854378   0.01190513            3 
 3594000   0.66972889   -8.6704038    552.37339  0.012807767  0.011900668            8 
 3595000   0.67333245   -8.6527483    552.41017  0.012805057  0.011896203            4 
 3596000   0.67251123    -8.680835    551.13341  0.012771909  0.011891735           10 
 3597000   0.69325839   -8.6321134    551.03316  0.012766036  0.011887268            4 
 3598000   0.67883483   -8.6789966    550.74753  0.012755872  0.011882805            4 
 3599000   0.66205012   -8.6522112    553.03472  0.012805287  0.011878341            3 
 3600000   0.67200328   -8.6595521    551.54943  0.012767348  0.011873896            6 
 3601000   0.69035193   -8.6724924    552.16865  0.012778132  0.011869449           11 
 3602000   0.67512228   -8.6517503    551.83583  0.012766885  0.011864998            4 
 3603000     0.681305   -8.6642119    551.08166  0.012745898  0.011860552            4 
 3604000   0.67610824   -8.6645493    551.84129  0.012759926  0.011856102            7 
 3605000   0.66820036   -8.6401023    552.41002  0.012769534  0.011851655            4 
 3606000   0.65844347   -8.6501589     552.5982  0.012770341  0.011847215            7 
 3607000   0.66700785   -8.6367075    551.75688  0.012747363  0.011842785            6 
 3608000   0.67863095   -8.6524367    551.94802  0.012748245   0.01183835            9 
 3609000   0.67680259    -8.636344    552.34386  0.012753853  0.011833921            2 
 3610000   0.67229763   -8.6465798    551.92715  0.012740701  0.011829487            5 
 3611000   0.67612579   -8.6713623    552.67141  0.012754348  0.011825055            6 
 3612000   0.67582794   -8.6578915    552.35704  0.012743564  0.011820626            9 
 3613000   0.67222822   -8.6593133    551.96193  0.012730924  0.011816204            6 
 3614000    0.6769716   -8.6625665    552.75894  0.012745779  0.011811771            6 
 3615000    0.6611492   -8.6430867     551.4717  0.012712579  0.011807338            5 
 3616000   0.68257727   -8.6639234    551.99567  0.012721139  0.011802917           10 
 3617000   0.67676388   -8.6267184      552.249  0.012723459  0.011798498            3 
 3618000   0.67620509   -8.6739744    550.75685  0.012685573  0.011794083            7 
 3619000   0.67667113   -8.6819513    551.55159  0.012700368   0.01178967            8 
 3620000   0.66793522   -8.6715629    551.42683  0.012693988  0.011785252            5 
 3621000   0.67329443   -8.6504328    552.98447   0.01272633  0.011780838            7 
 3622000   0.68044135   -8.6661271    552.15985  0.012703843  0.011776422            8 
 3623000   0.67205431   -8.6376799    551.93926  0.012695263  0.011772016           11 
 3624000   0.66554315   -8.6607885    552.63147  0.012707677  0.011767611           13 
 3625000   0.66315613   -8.6296403    552.56685  0.012702686  0.011763214           13 
 3626000   0.66655027   -8.6562961    552.10957  0.012688674  0.011758819           13 
 3627000   0.66619422   -8.6450675    552.54562  0.012695194  0.011754427            3 
 3628000   0.67751539   -8.6586033    553.10895  0.012704634  0.011750034            3 
 3629000   0.66657739   -8.6544957    552.31801  0.012682971   0.01174564            5 
 3630000   0.66751848   -8.6668483    552.42046  0.012681829  0.011741246            3 
 3631000   0.64541806   -8.6602487    551.29635  0.012652537  0.011736849            6 
 3632000   0.67063819   -8.6664318    551.34105  0.012650079  0.011732447            6 
 3633000   0.66280291   -8.6953448     550.4309   0.01262572  0.011728055            6 
 3634000   0.66104311   -8.6715587     552.0321  0.012658964  0.011723665            9 
 3635000   0.68721128   -8.6770471    552.26629   0.01266085  0.011719274            7 
 3636000   0.66378361    -8.685805    551.63338  0.012642863  0.011714884            4 
 3637000   0.65333396   -8.6688606    551.30364  0.012631831  0.011710493            8 
 3638000   0.66576414   -8.6787244    551.33295   0.01262903  0.011706105            8 
 3639000   0.65125488   -8.6826759    551.21568  0.012622874  0.011701718            2 
 3640000   0.66210403   -8.6642456    552.86505  0.012657167  0.011697333            3 
 3641000   0.65391917    -8.673612    552.55008  0.012646482   0.01169295            5 
 3642000   0.67222936   -8.6627175    551.63685  0.012622114  0.011688561            3 
 3643000   0.65602075   -8.6691471    551.90358   0.01262475   0.01168418            3 
 3644000   0.67854497   -8.6878208    551.34921  0.012608608  0.011679807            3 
 3645000   0.67140585    -8.677727    551.94672  0.012618809  0.011675431            5 
 3646000   0.66234981    -8.673408    552.04825  0.012617669  0.011671058            5 
 3647000    0.6708383   -8.6673718    552.20327  0.012617751  0.011666693            3 
 3648000   0.67197107   -8.6781484    551.14882  0.012590205  0.011662334            5 
 3649000    0.6680969   -8.6706837    551.88005  0.012603454  0.011657974            3 
 3650000   0.66332648   -8.6809895    550.82614  0.012575939  0.011653617            3 
 3651000   0.66377178   -8.6881131    552.22468  0.012604416  0.011649262            7 
 3652000   0.65996195   -8.6521402    552.47025  0.012606568   0.01164491            4 
 3653000   0.65819711   -8.6688922    552.80243  0.012610695  0.011640559            8 
 3654000   0.67677562   -8.6989793    551.19023  0.012570476  0.011636208            3 
 3655000   0.65790075    -8.669047    552.25746  0.012591369  0.011631855            4 
 3656000   0.66403681   -8.6701489    553.68499  0.012620464  0.011627511            6 
 3657000   0.65570532   -8.6613698    551.95795  0.012577658  0.011623174            3 
 3658000   0.66810191   -8.6867674    551.92747  0.012573525  0.011618834            7 
 3659000   0.67145782   -8.6842916    552.95162  0.012593414  0.011614495            4 
 3660000   0.66744961   -8.6726119    551.76518   0.01256296  0.011610158           12 
 3661000   0.66888711   -8.6744795    551.73934   0.01255894  0.011605823           14 
 3662000   0.65412984   -8.6566939    553.03076  0.012584898  0.011601481           17 
 3663000   0.67297197   -8.6830869    551.35003  0.012543226  0.011597144            2 
 3664000   0.66684773   -8.6859912    551.90015  0.012552314   0.01159281            3 
 3665000   0.66201229   -8.6803681    551.73006  0.012545022  0.011588482            6 
 3666000   0.65363023   -8.6702764    553.19659  0.012574936   0.01158415            4 
 3667000   0.65694243   -8.6699303    551.88567  0.012541716  0.011579822            9 
 3668000   0.66041275   -8.6751225    551.10183  0.012520489  0.011575494            8 
 3669000   0.67816422   -8.6570215    552.19305  0.012541861   0.01157118           11 
 3670000    0.6605365   -8.6692956    551.22017  0.012516353  0.011566863           11 
 3671000   0.68008775   -8.6522103    551.39396  0.012516888  0.011562548            5 
 3672000   0.66351448   -8.6859209    551.98888  0.012526981   0.01155823            9 
 3673000   0.65776668   -8.6811661    551.67906  0.012516541  0.011553919            5 
 3674000   0.66212502   -8.6683763    552.24903  0.012526062   0.01154961            9 
 3675000   0.66678413   -8.7117068    551.54857   0.01250677  0.011545293            7 
 3676000   0.66735824   -8.6865496    551.30559   0.01249786  0.011540986            5 
 3677000   0.66470693   -8.6730609    553.21551  0.012537746  0.011536681            7 
 3678000   0.66306909   -8.6766027    552.02723  0.012507414  0.011532384            6 
 3679000    0.6743161    -8.670963    552.20048  0.012507939  0.011528093            6 
 3680000   0.66057969   -8.6783838    551.77908  0.012494997  0.011523799           13 
 3681000   0.66264763   -8.6954237    552.36396  0.012504844   0.01151951           14 
 3682000   0.65835881   -8.6924197     551.9151  0.012491289  0.011515221           12 
 3683000   0.65516976   -8.6631047    552.05201  0.012490995  0.011510932           15 
 3684000   0.66296756   -8.6702527    552.26399  0.012492399  0.011506644            5 
 3685000   0.65850896   -8.6440601    552.49404  0.012494212  0.011502363            5 
 3686000   0.67284256   -8.6643818    552.63317  0.012493968  0.011498092            3 
 3687000   0.66775073   -8.6732459    551.98296  0.012475883   0.01149382           13 
 3688000   0.66015652   -8.6635212    552.78703  0.012490669  0.011489561            6 
 3689000   0.65715884   -8.6784603    552.37439  0.012477961  0.011485294            6 
 3690000   0.66889591   -8.6642627     553.1712  0.012492575  0.011481026            9 
 3691000   0.66730873   -8.6659789    552.42289  0.012472295  0.011476767            4 
 3692000   0.65506591   -8.6843988    552.24569  0.012464917  0.011472499            7 
 3693000   0.67433402   -8.6712433    552.66787  0.012471068  0.011468237            3 
 3694000   0.66120194   -8.6540221    552.59239   0.01246599  0.011463976            3 
 3695000   0.66115765   -8.6706436    552.91353  0.012469859  0.011459721            6 
 3696000   0.65293936   -8.6587295    552.22805  0.012451029   0.01145547            4 
 3697000   0.67324986   -8.6700417    552.46013  0.012452893  0.011451218            5 
 3698000   0.66446839   -8.6570218    552.38284  0.012447783  0.011446978            4 
 3699000   0.66101341   -8.6754539    551.79271  0.012431124  0.011442736            2 
 3700000   0.65698091   -8.6619085    553.64755  0.012469539  0.011438501            3 
 3701000   0.66571094   -8.6670099    552.85908  0.012448417  0.011434255            2 
 3702000   0.65680763   -8.6702615    552.72066  0.012441938  0.011430014            2 
 3703000   0.65980876   -8.6931357    551.46711  0.012410368  0.011425771            3 
 3704000   0.66235046   -8.6779653    551.11455  0.012399085  0.011421535            7 
 3705000   0.66874022   -8.6885993    552.47852  0.012426418   0.01141729            7 
 3706000   0.64398583   -8.6661635    551.76226  0.012406958  0.011413048            4 
 3707000   0.65322189   -8.6750374    551.94644  0.012407752  0.011408801            8 
 3708000    0.6497937   -8.7003409    551.76749  0.012400384  0.011404558            5 
 3709000   0.65446591   -8.6548423    552.44226  0.012412201   0.01140032            8 
 3710000   0.68963731   -8.6815944    551.77873  0.012393952  0.011396091            5 
 3711000   0.67109582   -8.6937563     551.9101  0.012393562  0.011391867            4 
 3712000   0.66747549   -8.6908932    552.37302  0.012400616  0.011387634            3 
 3713000    0.6548852   -8.6830997     552.8788  0.012408627  0.011383404            5 
 3714000    0.6494145   -8.6850236    551.54251  0.012375303  0.011379173            4 
 3715000   0.63803332   -8.6529671    550.89889  0.012357534  0.011374945            2 
 3716000   0.65764079   -8.6876574    552.89602  0.012398996  0.011370718            5 
 3717000   0.66071676   -8.6651288     552.5528  0.012387965  0.011366492            6 
 3718000   0.66058889   -8.6797909    552.27782   0.01237847   0.01136227            4 
 3719000   0.66929536   -8.7037868    551.78641   0.01236413  0.011358048            5 
 3720000   0.65284158   -8.6731571    552.11761  0.012368226   0.01135383            8 
 3721000   0.65859551   -8.6947751    551.59982  0.012353306  0.011349615            7 
 3722000   0.64284674   -8.6818411    550.84554  0.012333099  0.011345391            6 
 3723000    0.6611869    -8.694376    551.34793  0.012341032  0.011341169            3 
 3724000   0.66450025   -8.6954159    551.95119  0.012351217  0.011336947            4 
 3725000   0.66558505   -8.6793855    552.58864  0.012362162  0.011332732            6 
 3726000   0.65870357   -8.7006202    552.74025  0.012362235  0.011328518            3 
 3727000   0.64988962   -8.6708804    553.34546   0.01237245  0.011324305            4 
 3728000   0.63730196   -8.6846274    552.48908  0.012349988   0.01132009            3 
 3729000   0.65311288   -8.6894205    551.66476  0.012328255  0.011315882            3 
 3730000   0.64013946   -8.6636361    552.06275  0.012333842  0.011311677            7 
 3731000   0.65225929   -8.6812589    550.24559  0.012289949  0.011307465            8 
 3732000   0.66321963    -8.677159    551.75219  0.012320297  0.011303258            4 
 3733000   0.65079331   -8.7004921    552.17722  0.012326485  0.011299051            2 
 3734000   0.64764874   -8.7105864    551.91377  0.012317304  0.011294848            3 
 3735000   0.64142925   -8.7019415    551.46465  0.012303986  0.011290639            5 
 3736000   0.64361301   -8.7045005    551.43994  0.012300141  0.011286441            7 
 3737000   0.64694403   -8.7047223    551.80684  0.012305032  0.011282241            6 
 3738000   0.65227985   -8.6971566    551.78091  0.012301162  0.011278047            3 
 3739000   0.65019817   -8.6762557     552.7444  0.012319346  0.011273852            5 
 3740000   0.64625059   -8.7056963    552.33744  0.012306984  0.011269656            6 
 3741000   0.65175062   -8.6933167    551.58743  0.012286987  0.011265461            5 
 3742000   0.65779628   -8.6899821    550.74558  0.012264956   0.01126126            5 
 3743000   0.64731829   -8.6923253    551.63333  0.012281444  0.011257065            4 
 3744000   0.64619509   -8.7057873     551.5826  0.012277034  0.011252875            6 
 3745000   0.65046303   -8.7143968    551.19658  0.012265166  0.011248681            6 
 3746000   0.64600729   -8.7101228    551.88905  0.012277297  0.011244485            5 
 3747000   0.64934442   -8.7047418    552.02301     0.012277    0.0112403            4 
 3748000   0.65246698   -8.7053615    550.98653  0.012250679  0.011236112            6 
 3749000   0.65044764   -8.7201997    550.92017  0.012245936  0.011231926            2 
 3750000   0.64950809   -8.6951075    550.85827  0.012241295  0.011227737            2 
 3751000   0.65006139   -8.6858731    550.26462  0.012224843  0.011223551            2 
 3752000   0.64186074    -8.691648     551.5766  0.012250724   0.01121937            3 
 3753000   0.65972183   -8.7201343    551.08233  0.012236485  0.011215183            3 
 3754000   0.64143084   -8.7308246    550.91085  0.012229419  0.011211001            4 
 3755000   0.65372656   -8.7252079    551.85945  0.012247214  0.011206818            5 
 3756000   0.64143692   -8.6917508    551.20862  0.012229513  0.011202643            2 
 3757000   0.64350047   -8.7153196    551.56306   0.01223412  0.011198465            7 
 3758000   0.63874382   -8.7193284    551.46965  0.012228793  0.011194295            5 
 3759000   0.63793147   -8.7114336    552.27812  0.012243463  0.011190123           10 
 3760000   0.64203887   -8.7304453    551.30458   0.01221863  0.011185958            7 
 3761000   0.66387974   -8.7269538    551.39631  0.012217414   0.01118179            2 
 3762000   0.65678734   -8.7205944    550.93969  0.012204051  0.011177624            5 
 3763000   0.65864696   -8.7244142    551.01109  0.012202389  0.011173456           10 
 3764000   0.64355654   -8.7259913    550.93314  0.012197422  0.011169289            5 
 3765000   0.64284743   -8.7235376    552.11257  0.012220287  0.011165129            9 
 3766000   0.64370674   -8.7404425    552.10589  0.012216894  0.011160965            9 
 3767000   0.64907225   -8.7147458    551.42293  0.012198543  0.011156806            7 
 3768000   0.63338823   -8.7103163    550.20023  0.012168264  0.011152639            5 
 3769000   0.64761727   -8.7351472    550.76986   0.01217763  0.011148471            2 
 3770000   0.66082604   -8.7194845    551.54315  0.012191493  0.011144314            6 
 3771000   0.65291807   -8.7158319    550.67785  0.012169138  0.011140163            3 
 3772000   0.62814484   -8.7400697    550.93014  0.012171486  0.011136007            7 
 3773000   0.63545263    -8.729816    551.62575  0.012183624  0.011131857            4 
 3774000   0.64301995   -8.7190201    550.91956  0.012164802  0.011127702            6 
 3775000   0.65187343   -8.7308323    550.88881  0.012160901  0.011123549            3 
 3776000   0.65514278   -8.7266457    551.49582  0.012171077  0.011119403            7 
 3777000   0.64187556   -8.7080382    551.31087  0.012163774  0.011115262            9 
 3778000   0.63729818   -8.7113521    551.13309  0.012156633  0.011111122            5 
 3779000   0.64884878   -8.7172361    551.93408  0.012171079  0.011106982            7 
 3780000   0.63548855   -8.7157137    551.39877  0.012156057  0.011102853            6 
 3781000   0.62623181   -8.7094451    551.57824  0.012156798   0.01109872            7 
 3782000   0.65507964   -8.7202036     550.8248  0.012136982  0.011094586            5 
 3783000   0.64334336   -8.7513104    550.52689  0.012127211  0.011090455            4 
 3784000   0.64279975   -8.7135194    552.18951  0.012160622  0.011086321            5 
 3785000    0.6413245   -8.7381993    551.34132  0.012138734  0.011082191            6 
 3786000   0.65009023    -8.710435    551.43992  0.012137699  0.011078066            4 
 3787000   0.65760778   -8.7261516    550.98379  0.012124456  0.011073939           11 
 3788000   0.63712247   -8.7247974    550.94484  0.012120399   0.01106981            6 
 3789000   0.64840099   -8.7267474    550.96896   0.01211773  0.011065683           13 
 3790000   0.64477308   -8.7513124    550.42824  0.012102644  0.011061554            8 
 3791000   0.65839159   -8.7271605    549.92452  0.012088379  0.011057425            3 
 3792000   0.67350147   -8.7159696    551.05404  0.012110013  0.011053302            4 
 3793000    0.6485077   -8.7666984    550.28594  0.012089945   0.01104918           11 
 3794000   0.65216889   -8.7525856    551.02751  0.012103047  0.011045055           11 
 3795000   0.63646634   -8.7207072    551.00448  0.012099352  0.011040939            4 
 3796000   0.64485619   -8.7174227    551.67519  0.012110889  0.011036829            8 
 3797000   0.64307814   -8.7441622    551.32979  0.012100118  0.011032718            8 
 3798000   0.63853994   -8.7226416    551.75763   0.01210632  0.011028609           10 
 3799000   0.65320741    -8.755081    550.78663  0.012081834  0.011024495           13 
 3800000   0.66208331   -8.7322871    549.85742  0.012058277  0.011020387           10 
 3801000   0.64377751   -8.7490418    550.36161  0.012066158  0.011016273            9 
 3802000   0.63320099   -8.7464308     551.3854  0.012085424  0.011012168            6 
 3803000   0.62665125   -8.7386091     550.3431  0.012059407  0.011008069            7 
 3804000   0.64095412   -8.7214111    550.50922  0.012059876  0.011003973           11 
 3805000   0.64132474   -8.7440315    551.11597  0.012069995  0.010999876            5 
 3806000    0.6441431   -8.7566069    551.33121  0.012071536  0.010995777            6 
 3807000    0.6371876    -8.711481    551.67532  0.012075898  0.010991677            6 
 3808000   0.63567534   -8.7555178    550.99695  0.012057881  0.010987582            7 
 3809000   0.66159674   -8.7250111    550.64571  0.012047031  0.010983487           11 
 3810000   0.62465833   -8.7290818    551.53119  0.012063237  0.010979396            4 
 3811000   0.64422495   -8.7379547    551.10378  0.012050725  0.010975304            5 
 3812000    0.6492909   -8.7645112    551.40526  0.012054155  0.010971224            7 
 3813000    0.6434159   -8.7074483    551.14914  0.012045396  0.010967141            4 
 3814000   0.64495616    -8.751008    551.03991  0.012039851   0.01096306            6 
 3815000   0.64127317   -8.7317834    551.76816  0.012052603  0.010958983           10 
 3816000   0.62721405   -8.7198187    550.96452  0.012031895  0.010954901            4 
 3817000   0.63688915   -8.7460606    551.46255  0.012039615  0.010950822            4 
 3818000   0.64533725   -8.7427437     551.6192  0.012039881  0.010946747            4 
 3819000   0.64719069   -8.7346334    551.32942  0.012030405  0.010942675            5 
 3820000   0.62367589    -8.730104     551.4928   0.01203082  0.010938602            4 
 3821000   0.64691042    -8.743859    551.47523  0.012027288  0.010934537            7 
 3822000   0.64080108   -8.7311367    551.86772  0.012032699  0.010930471            3 
 3823000    0.6411193   -8.7358859     551.1855  0.012014681  0.010926395            7 
 3824000   0.63752945   -8.7326726    550.94287  0.012006251  0.010922328            7 
 3825000   0.64023659     -8.74487    549.56438   0.01197308  0.010918263            6 
 3826000   0.63898329   -8.7359976    550.74162  0.011995592    0.0109142            4 
 3827000   0.63616967    -8.713036    552.21921  0.012024632  0.010910144            8 
 3828000   0.62886853   -8.7217773    551.90402  0.012014629  0.010906081            7 
 3829000   0.63530667   -8.7356834    549.81809  0.011966094  0.010902023            6 
 3830000   0.64074811   -8.7499085    550.16657  0.011970552   0.01089796            8 
 3831000   0.63699139   -8.7343545    552.25698  0.012012899  0.010893909            4 
 3832000   0.63241641   -8.7629076     551.3333  0.011989677  0.010889858            4 
 3833000   0.63313901   -8.7438964    550.27915   0.01196363  0.010885805            7 
 3834000   0.63579003   -8.7351189     551.2504  0.011981621  0.010881755            7 
 3835000   0.63132264   -8.7409219    551.02759  0.011973655  0.010877712            5 
 3836000   0.63160434   -8.7328889    550.47612  0.011958553  0.010873666            9 
 3837000     0.638111   -8.7342252    550.79344  0.011962328  0.010869622            4 
 3838000   0.64230302   -8.7445591    550.04502  0.011942961  0.010865577            5 
 3839000   0.64465656   -8.7583032    550.14858  0.011942098   0.01086153            7 
 3840000   0.62945581   -8.7663255    549.62134  0.011927546  0.010857487            5 
 3841000   0.64787938   -8.7443024    550.22642  0.011937569  0.010853446            9 
 3842000   0.64638375    -8.732237    550.24484  0.011934861  0.010849405            7 
 3843000   0.64390448   -8.7514928    550.23437  0.011931528  0.010845371            4 
 3844000   0.64808673    -8.760641    550.86118  0.011942013  0.010841332           13 
 3845000   0.63306211   -8.7563397    550.74918   0.01193648   0.01083729            3 
 3846000   0.63774221   -8.7411257    550.38147  0.011925409  0.010833254            6 
 3847000   0.64431343   -8.7630334    550.37562  0.011922182  0.010829216            8 
 3848000   0.65716861   -8.7444958    550.92853  0.011931058  0.010825185            9 
 3849000   0.63658367   -8.7561601    550.03478  0.011908608  0.010821155            5 
 3850000   0.64464208    -8.768126    551.04091  0.011927292  0.010817122            4 
 3851000   0.63817601   -8.7574474    550.46923  0.011911824    0.0108131            6 
 3852000   0.63367893   -8.7512613    550.27285  0.011904484  0.010809066            3 
 3853000   0.64812781     -8.76309    550.83477  0.011913547  0.010805043            6 
 3854000   0.63423745   -8.7530765     550.1924  0.011896566  0.010801022            3 
 3855000   0.63532357   -8.7554047    549.52888  0.011879137  0.010796995            6 
 3856000   0.62382448    -8.749378    550.07139  0.011887781  0.010792972            7 
 3857000   0.60994047   -8.7681063    549.71521  0.011877003  0.010788956            3 
 3858000   0.63613175   -8.7626199    550.39129  0.011888528  0.010784937            3 
 3859000   0.64103863   -8.7755323    549.58609  0.011868059  0.010780917            5 
 3860000   0.62552382   -8.7555765    549.58678     0.011865  0.010776896            3 
 3861000   0.63869958   -8.7704247    548.96709  0.011848551  0.010772882            2 
 3862000   0.64345745   -8.7530918    550.84945  0.011886101  0.010768867            5 
 3863000   0.63659128   -8.7580029     550.9598  0.011885404  0.010764862            2 
 3864000   0.62810742   -8.7795967    549.90607  0.011859603  0.010760853            2 
 3865000   0.63038178   -8.7712348    550.31666  0.011865387   0.01075684            6 
 3866000   0.63770719   -8.7572576    550.71661  0.011870939  0.010752833            6 
 3867000   0.62424255   -8.7738951    550.32419  0.011859413  0.010748827            7 
 3868000   0.64276952   -8.7448214    551.50771  0.011881845   0.01074483            6 
 3869000   0.63649872   -8.7679217    549.60449  0.011837781  0.010740829            6 
 3870000   0.64499361    -8.743771    550.65763    0.0118574  0.010736831            4 
 3871000   0.63540802   -8.7671371    551.21302  0.011866293  0.010732831            4 
 3872000   0.62804333   -8.7701822    551.00739  0.011858802  0.010728833            6 
 3873000   0.62698507   -8.7764678    550.79407  0.011851151  0.010724848            2 
 3874000   0.63404681   -8.7568596    550.67924  0.011845621  0.010720866            5 
 3875000   0.63933839   -8.7684492    550.83395  0.011845891  0.010716878            3 
 3876000   0.64218367   -8.7516512    550.61969  0.011838229  0.010712892            1 
 3877000    0.6359879    -8.762976    549.01495  0.011800682  0.010708913            3 
 3878000   0.62485161   -8.7646539     550.4414  0.011828292  0.010704929           11 
 3879000   0.62997614   -8.7705691    551.58042  0.011849713  0.010700945            5 
 3880000   0.63094653   -8.7690271    550.54816  0.011824488  0.010696974            8 
 3881000   0.63927259   -8.7415506    550.16671  0.011813251     0.010693            4 
 3882000   0.61865658   -8.7598518    550.77817  0.011823334  0.010689019            3 
 3883000   0.63489929    -8.770401    550.79506  0.011820651  0.010685045            3 
 3884000   0.63807615   -8.7514896    549.76646  0.011795539  0.010681067            2 
 3885000    0.6308206   -8.7806386    549.77339  0.011792651  0.010677088            4 
 3886000   0.63559582   -8.7527434    550.42808  0.011803656  0.010673115            5 
 3887000   0.62634525   -8.7720666    550.63224  0.011804996  0.010669142            2 
 3888000   0.63792026   -8.7613206    550.62841  0.011801878  0.010665176            3 
 3889000   0.63789491   -8.7545463    549.98681  0.011785095  0.010661214            2 
 3890000   0.62834761   -8.7600111    550.16139  0.011785805  0.010657251            3 
 3891000   0.64485847   -8.7559138    550.97963  0.011800301  0.010653292            3 
 3892000   0.64714864   -8.7765847    550.36372  0.011784081  0.010649332            4 
 3893000    0.6265568   -8.7832959     549.0589  0.011753123  0.010645367            4 
 3894000    0.6297892   -8.7748641    549.88217  0.011767723  0.010641409            4 
 3895000    0.6429616    -8.763031    548.75698  0.011740628  0.010637452            3 
 3896000   0.63493459   -8.7744549     549.9706  0.011763574  0.010633499            4 
 3897000   0.63087883   -8.7605574    549.89908  0.011759026  0.010629544            4 
 3898000   0.61828187   -8.7846239    549.54949  0.011748535  0.010625596            5 
 3899000   0.63400159   -8.7707972    550.50835  0.011766016  0.010621646            4 
 3900000   0.61524251    -8.764781    550.20781  0.011756577  0.010617699            3 
 3901000   0.64578847   -8.7668477    551.02237  0.011770964  0.010613754            5 
 3902000   0.61963163   -8.7604672    549.51096  0.011735669  0.010609808            2 
 3903000   0.63286879   -8.7712714    550.18231  0.011746996  0.010605862            4 
 3904000   0.61696424   -8.7583999    551.11109  0.011763813  0.010601922            5 
 3905000   0.61008342   -8.7548997    551.30534  0.011764945  0.010597979            5 
 3906000    0.6370942   -8.7592598     551.0304  0.011756068  0.010594042            4 
 3907000   0.62117201   -8.7325139    550.17211  0.011734752  0.010590109            5 
 3908000   0.61894994   -8.7814675    549.75303  0.011722813  0.010586173            3 
 3909000   0.61222665   -8.7598145    550.41239   0.01173387  0.010582234            5 
 3910000   0.61003404   -8.8054459    549.51579   0.01171176    0.0105783           12 
 3911000   0.62234069   -8.7587005    549.78614  0.011714526   0.01057436            6 
 3912000   0.61943221   -8.7733081     549.5634  0.011706787  0.010570437            5 
 3913000   0.61272566   -8.7772098    549.74078  0.011707573  0.010566513            5 
 3914000   0.63305492    -8.754367    549.41434  0.011697631  0.010562592            5 
 3915000   0.62291398    -8.778812    550.74225  0.011722909   0.01055867            9 
 3916000   0.62753975   -8.7814924    549.53882  0.011694306  0.010554749           14 
 3917000   0.62993309   -8.7587479     549.8703  0.011698372  0.010550829            6 
 3918000   0.61513298   -8.7598045    549.62578  0.011690186  0.010546909            8 
 3919000   0.62186869   -8.7580189    549.81142   0.01169115  0.010542995            5 
 3920000   0.61536735   -8.7744157    550.99249  0.011713276  0.010539079           10 
 3921000   0.64252515   -8.7919185     549.2393  0.011673028  0.010535161           13 
 3922000   0.62722876   -8.7791664    549.30314  0.011671408  0.010531249           12 
 3923000   0.60735801   -8.7650566    549.90972  0.011681318  0.010527335            4 
 3924000   0.62132705   -8.7808715    549.79947     0.011676  0.010523425            5 
 3925000   0.60346158   -8.7648666    550.43632  0.011686546  0.010519516            5 
 3926000    0.6230242   -8.7693225    550.20219    0.0116786   0.01051561           10 
 3927000   0.62516305   -8.7666747    549.73258   0.01166566  0.010511702            5 
 3928000    0.6231882   -8.7830254    549.60613  0.011660008  0.010507798            3 
 3929000   0.60332407   -8.7758438    550.13829  0.011668327  0.010503895           11 
 3930000   0.61599335   -8.7691627    549.84577  0.011659155  0.010499989            8 
 3931000   0.63222238    -8.764707    549.15141   0.01164147  0.010496085            7 
 3932000   0.62331285     -8.77168    549.37843   0.01164332  0.010492178            6 
 3933000   0.62345135   -8.7985641    549.51248    0.0116432  0.010488276            5 
 3934000   0.61886792     -8.80068    549.32272  0.011636221  0.010484376            4 
 3935000   0.62483894    -8.798209    548.66286   0.01161929  0.010480475            7 
 3936000   0.62131388   -8.7888534    549.55511  0.011635228  0.010476579            4 
 3937000   0.63761155   -8.7978082    548.21722  0.011603954  0.010472686            6 
 3938000   0.62431095   -8.7838456    549.44087  0.011626902  0.010468798            6 
 3939000   0.61769313   -8.7754872     550.4803   0.01164594  0.010464913            9 
 3940000   0.62404798   -8.7741754    549.75453  0.011627634  0.010461026            5 
 3941000   0.62215702    -8.771069    551.30446  0.011657457   0.01045714            5 
 3942000   0.62180637   -8.7789233    549.67725  0.011620101  0.010453259            4 
 3943000   0.60942495   -8.7899506    548.89378  0.011600596  0.010449383            6 
 3944000   0.61437443   -8.7782413    550.02081  0.011621467  0.010445504            5 
 3945000   0.61393039   -8.7890599    550.40301  0.011626595  0.010441626            4 
 3946000   0.61818576   -8.7855558    549.37359  0.011601909  0.010437752            4 
 3947000    0.6212828   -8.7554043    549.95244  0.011611191  0.010433881            4 
 3948000   0.61530868   -8.7778795     549.9135  0.011607428  0.010430009            4 
 3949000   0.62474802   -8.7829356    549.20086   0.01158945  0.010426144            4 
 3950000   0.61143437   -8.7673065    549.46883  0.011592169  0.010422281            3 
 3951000   0.62682058   -8.7863176    549.99534  0.011600341  0.010418415            5 
 3952000   0.62486417   -8.8071716    549.59744  0.011589015  0.010414549            2 
 3953000   0.61479096   -8.7963225    549.70442  0.011588338  0.010410681            2 
 3954000   0.62625987   -8.7897414    549.75815   0.01158654  0.010406817            8 
 3955000   0.61480012   -8.7918453    550.27938  0.011594593  0.010402951            4 
 3956000   0.62137854    -8.762288    549.09031  0.011566614  0.010399085            2 
 3957000   0.62284639   -8.7923056    549.31604  0.011568445  0.010395225            3 
 3958000   0.62111519   -8.8312383    549.79673  0.011575643  0.010391369            2 
 3959000   0.60988885   -8.7897747    548.69269   0.01154948   0.01038751            6 
 3960000   0.62606634   -8.7810026    549.89433   0.01157185  0.010383656            3 
 3961000   0.61679095   -8.7780991    549.70823  0.011565014  0.010379805            5 
 3962000   0.60740015   -8.7786386    549.82932  0.011564642  0.010375959            7 
 3963000   0.62714115   -8.7909249    549.14099  0.011547249  0.010372111            4 
 3964000   0.62031885   -8.7817828    550.36485  0.011570065  0.010368268            5 
 3965000   0.61789508   -8.8161179    549.14138  0.011541433  0.010364429            6 
 3966000   0.62660056   -8.7868221    549.22284  0.011540234  0.010360589            6 
 3967000   0.61475975   -8.7806272    549.19674  0.011536777  0.010356751            3 
 3968000   0.61088434   -8.7802618    549.70371  0.011544517  0.010352915            5 
 3969000   0.61000084   -8.7814569    549.94638  0.011546703  0.010349084            6 
 3970000   0.62186988   -8.8042745    549.39536  0.011532228  0.010345253            5 
 3971000   0.61616162   -8.7743605    549.20375  0.011525303  0.010341422           13 
 3972000   0.62819291   -8.7919687    549.56082  0.011529893  0.010337592            8 
 3973000   0.62788445   -8.8005829    549.52105  0.011526157  0.010333772            5 
 3974000   0.60678245   -8.8003283    549.72946  0.011527627  0.010329941           15 
 3975000   0.59619721    -8.792504    549.96055  0.011529571  0.010326116            8 
 3976000    0.6156315   -8.7766091    549.45895  0.011516158   0.01032229            3 
 3977000   0.62032817   -8.7842999    549.63924   0.01151704   0.01031847            6 
 3978000   0.61760846   -8.7962011     548.7637  0.011495804  0.010314648            2 
 3979000   0.61503571   -8.7942469    549.26679  0.011503451  0.010310826            5 
 3980000   0.60785024   -8.7757992    548.57887  0.011486157  0.010307006            4 
 3981000   0.61042466   -8.8018972     549.4293  0.011501074  0.010303188            4 
 3982000   0.60184058   -8.7607522    549.72747  0.011504426  0.010299369            3 
 3983000   0.61467125   -8.7882159    550.76891  0.011523327  0.010295558            3 
 3984000   0.59412949   -8.8002003     549.9861   0.01150406  0.010291737            7 
 3985000   0.61550135   -8.7948888    550.10571  0.011503674  0.010287923           10 
 3986000   0.60628806   -8.7956294      549.537  0.011488899  0.010284112            3 
 3987000   0.61388185    -8.811956    549.03092  0.011475439  0.010280302            4 
 3988000   0.61091692   -8.8050213    549.39675  0.011480206  0.010276491            3 
 3989000   0.61085417    -8.801885    549.18219  0.011472846  0.010272682            7 
 3990000   0.61760329   -8.7904774    549.30519  0.011472539  0.010268879            5 
 3991000   0.61498149   -8.7868635    549.60266  0.011475876  0.010265079            4 
 3992000   0.59834139   -8.7890154    548.96736   0.01145974  0.010261279            6 
 3993000   0.62111433   -8.8048641    549.12607  0.011460182  0.010257481            3 
 3994000    0.6096748    -8.790086    549.17608  0.011458356   0.01025368            4 
 3995000    0.6098992   -8.8129371    548.94103  0.011450585  0.010249886            8 
 3996000   0.62261584   -8.8050427    548.61459  0.011440911  0.010246087            4 
 3997000   0.61600046   -8.8210902    548.95987  0.011445248  0.010242289            7 
 3998000   0.61284972   -8.8083881    549.11257  0.011445568  0.010238495           10 
 3999000   0.61411011   -8.7998343      549.004  0.011440443  0.010234701            7 
 4000000   0.60019773   -8.7934142    549.66774  0.011451411  0.010230906            4 
 4001000   0.61330049   -8.8071266    549.46623  0.011444352  0.010227123            6 
 4002000   0.61137606   -8.7842333    550.03572  0.011453351  0.010223332            6 
 4003000   0.61981326   -8.8150565    547.90855  0.011406207  0.010219545            6 
 4004000   0.61154912   -8.8322257    549.07317  0.011427597  0.010215756           10 
 4005000   0.62619256   -8.8197431    548.64591  0.011415853  0.010211974            6 
 4006000   0.61107647   -8.8231765    549.57452  0.011432321    0.0102082            5 
 4007000   0.60756005   -8.8010105    549.24369  0.011422587   0.01020442            9 
 4008000   0.62231627   -8.8035822    550.04782  0.011436457  0.010200643            5 
 4009000   0.60424348   -8.8088108    549.44386   0.01142105  0.010196867            4 
 4010000   0.61021861   -8.7751156    549.03261  0.011409655  0.010193097           11 
 4011000   0.61179045   -8.7750274     549.8383   0.01142355  0.010189334            6 
 4012000   0.61339921   -8.7939992    550.16361  0.011427459  0.010185571            3 
 4013000   0.60050138   -8.8156877    549.01137  0.011400685  0.010181805            6 
 4014000   0.62130364   -8.8155321    549.77903  0.011413782  0.010178041            7 
 4015000   0.62458377   -8.7999639    549.91748  0.011413812  0.010174276            4 
 4016000   0.60788854   -8.8007318    549.79173  0.011408361  0.010170513            5 
 4017000     0.607406   -8.8125797     549.1253  0.011391696  0.010166753           10 
 4018000   0.60876003   -8.7972577    548.75778  0.011381238  0.010162993            7 
 4019000   0.60951629   -8.8266336    549.93194  0.011402752   0.01015923            6 
 4020000   0.60189224   -8.7946558    549.29918  0.011386799  0.010155467            5 
 4021000   0.60743894    -8.797503    548.54084  0.011368251  0.010151704            4 
 4022000    0.6126403   -8.7811209    549.70836  0.011389615  0.010147951            5 
 4023000   0.60629944   -8.8034319     549.8645  0.011390018  0.010144201            9 
 4024000   0.60913759   -8.8090757    549.21421   0.01137372  0.010140452            4 
 4025000   0.61511143   -8.8019827     550.5204  0.011397938  0.010136708            5 
 4026000   0.60876048   -8.8009506    548.87354  0.011361019  0.010132961            4 
 4027000   0.61007767   -8.7996985    549.99065  0.011381315  0.010129216           10 
 4028000   0.61466231   -8.8075971    549.35312    0.0113653   0.01012547            6 
 4029000    0.6035854   -8.8097063    549.37393  0.011362909  0.010121725            3 
 4030000   0.60593965   -8.7864309    548.95827  0.011351494   0.01011798            5 
 4031000   0.60874094   -8.8067866    548.74451  0.011344259  0.010114239            2 
 4032000   0.61508806   -8.7905729      549.202  0.011350901  0.010110504            7 
 4033000   0.61469651   -8.8118451    548.67277  0.011337151  0.010106773            5 
 4034000   0.61769877   -8.7989948     549.1388  0.011343968  0.010103037            7 
 4035000   0.58916871   -8.8100333    548.74891  0.011333104  0.010099302            4 
 4036000   0.60938855   -8.8036749    549.46013  0.011344981  0.010095569           10 
 4037000   0.60411961   -8.8119191    549.35817  0.011340066   0.01009184           10 
 4038000   0.59730391   -8.8175551    550.01892  0.011350894  0.010088113           10 
 4039000   0.59713388   -8.8060226    549.44891  0.011336323  0.010084385            3 
 4040000   0.60859043   -8.8122069    549.03964  0.011325075   0.01008066            8 
 4041000   0.60157111   -8.7968136    548.92336  0.011319875  0.010076936            5 
 4042000   0.61152888   -8.8002311     548.4031  0.011306348  0.010073216            6 
 4043000   0.59411171   -8.8142074     548.6392  0.011308418  0.010069493           15 
 4044000   0.60118127    -8.813551    548.22651  0.011297117  0.010065771            6 
 4045000   0.61307235   -8.8162768    549.86319  0.011328043  0.010062051            9 
 4046000   0.60150115   -8.8051184     549.3407  0.011314481  0.010058334            9 
 4047000   0.61379485   -8.8208887    548.79481  0.011300445  0.010054622            7 
 4048000    0.6095204   -8.8098563    549.31133  0.011308287  0.010050911            7 
 4049000   0.60663572   -8.8070377    549.09651  0.011301072  0.010047211            4 
 4050000   0.60622092   -8.8221598    548.58866  0.011287832    0.0100435            8 
 4051000   0.60179423   -8.8055884     548.6705   0.01128673  0.010039795            2 
 4052000   0.59689583   -8.8299017    548.72263  0.011285016  0.010036091            9 
 4053000   0.59862163   -8.8145467    549.49986  0.011298212  0.010032388            6 
 4054000   0.59972717     -8.80843    549.95003  0.011304679  0.010028685            7 
 4055000   0.60839026   -8.8179582    548.46769  0.011271428  0.010024983           10 
 4056000   0.59596983   -8.8018779    549.30464  0.011285845  0.010021286           11 
 4057000   0.59535701   -8.8199113    548.44311  0.011265367  0.010017589            5 
 4058000   0.61011913   -8.8194985    547.95406  0.011252548  0.010013892            4 
 4059000   0.60239571   -8.7988728    549.00377  0.011271327  0.010010198            5 
 4060000   0.59620209   -8.8219846    548.90405  0.011266504  0.010006508            5 
 4061000   0.59405468   -8.8224006    548.45261  0.011254465  0.010002817            3 
 4062000   0.60362031    -8.807738    548.22095  0.011246942 0.0099991277            9 
 4063000   0.59727768   -8.8209092    549.02476   0.01126066 0.0099954377           11 
 4064000    0.6116615      -8.8326    549.05076  0.011258423 0.0099917518           10 
 4065000   0.59216455   -8.8028353    549.02975  0.011255222 0.0099880662            4 
 4066000   0.60833029   -8.8207564    548.74973  0.011246715 0.0099843792            5 
 4067000   0.60975644   -8.8132412    548.69508   0.01124283 0.0099806953            5 
 4068000   0.59305808   -8.8212076    548.48085  0.011235678 0.0099770118            5 
 4069000   0.60082016   -8.8228269    548.59544  0.011235263 0.0099733321            5 
 4070000   0.59823265   -8.8177993    548.34466  0.011227368 0.0099696547            9 
 4071000   0.60775206   -8.8313573    548.06758  0.011218938 0.0099659729            6 
 4072000   0.61231412    -8.826381    547.82521  0.011211223 0.0099623008            5 
 4073000   0.59858683   -8.8103396    548.57954  0.011223904 0.0099586204            7 
 4074000    0.5963111   -8.8380466    548.06905  0.011210707 0.0099549455            4 
 4075000    0.6080482   -8.8193803    548.30625  0.011212807 0.0099512742            5 
 4076000   0.61209227   -8.7989819    548.14079  0.011206673 0.0099476085            4 
 4077000   0.58886745    -8.840506    548.42161  0.011209664 0.0099439377            4 
 4078000   0.60839844   -8.8239947    549.02893  0.011219326 0.0099402684            6 
 4079000   0.60667936   -8.8229041    549.16564  0.011219368 0.0099366029            7 
 4080000   0.61366729   -8.8237706    548.96542  0.011212529  0.009932941            2 
 4081000   0.58375471   -8.8349581    548.70224  0.011204407 0.0099292773            6 
 4082000    0.6024086   -8.8335367    547.87993  0.011184875 0.0099256181            9 
 4083000   0.60833444   -8.8346391     548.6241  0.011197324 0.0099219588            4 
 4084000   0.61411055   -8.8386703    549.09997  0.011204293 0.0099182999            6 
 4085000   0.59706993   -8.8574935     549.4205  0.011208089 0.0099146392            6 
 4086000   0.58766354   -8.8289068    548.66249  0.011189886 0.0099109796            4 
 4087000   0.59550993   -8.8235133    548.39683  0.011181731 0.0099073236            7 
 4088000   0.60415737   -8.8388227    547.88197  0.011168501 0.0099036692           10 
 4089000   0.60491805   -8.8391721    548.09262  0.011170062 0.0099000109            3 
 4090000   0.60110067   -8.8422275    547.80005   0.01116137 0.0098963532            7 
 4091000   0.58208282   -8.8544502      548.667  0.011176302 0.0098927027            5 
 4092000     0.586701   -8.8281865    548.42865  0.011168716  0.009889055            6 
 4093000    0.6104579   -8.8203076    548.85892  0.011174748 0.0098854041            5 
 4094000   0.59889768   -8.8234548    548.20309  0.011158669 0.0098817595           11 
 4095000   0.59807749   -8.8280632    548.84705  0.011169049  0.009878116            5 
 4096000   0.58853705   -8.8384877    548.82004  0.011165772 0.0098744745           11 
 4097000   0.59011393   -8.8312054    549.53843  0.011177659 0.0098708339            5 
 4098000    0.5973519   -8.8431319    548.27596  0.011149259 0.0098671948            4 
 4099000   0.58583117   -8.8431134    548.26783  0.011146374 0.0098635584            6 
 4100000   0.59735735   -8.8545394    547.97804  0.011137765  0.009859916            7 
 4101000   0.59465114   -8.8566029    547.88397  0.011133138 0.0098562794            6 
 4102000   0.60781639   -8.8400542    548.30796  0.011139037 0.0098526409            9 
 4103000     0.580042   -8.8338653    549.10767  0.011152565 0.0098490054            3 
 4104000   0.59847233   -8.8321608    548.39969  0.011135471 0.0098453731            5 
 4105000   0.59062714   -8.8383389    548.83949  0.011141687 0.0098417418            9 
 4106000   0.60005693     -8.84792     548.3474  0.011128986 0.0098381091            9 
 4107000   0.60879414   -8.8632043    548.01767  0.011119586 0.0098344774            6 
 4108000   0.58949677    -8.845958    548.60685  0.011128831  0.009830849            7 
 4109000   0.58300003   -8.8454182     548.9712  0.011133512 0.0098272207            5 
 4110000   0.58486199   -8.8259374    548.22299  0.011115632 0.0098235927            6 
 4111000   0.60094746   -8.8513537    548.28986  0.011114284 0.0098199695            5 
 4112000     0.599842   -8.8327358    547.68334  0.011099289 0.0098163456            3 
 4113000   0.58823408   -8.8333038    548.99821  0.011123231 0.0098127297            5 
 4114000   0.60407633   -8.8382976    548.17983   0.01110395 0.0098091098            8 
 4115000   0.60392674   -8.8620036    548.36972  0.011105098 0.0098054932            7 
 4116000   0.59807605   -8.8561803    548.26267  0.011100232 0.0098018748            4 
 4117000   0.60476925   -8.8727075    549.16873  0.011115876 0.0097982609            5 
 4118000   0.59967255   -8.8528078     548.1394  0.011092347 0.0097946517            6 
 4119000   0.60171151   -8.8407667    548.57519   0.01109847 0.0097910477            5 
 4120000   0.59033405   -8.8395821    548.09303  0.011086024 0.0097874375            6 
 4121000   0.59237465   -8.8432993    547.53005   0.01107195 0.0097838283            8 
 4122000   0.59681737   -8.8565792    547.93461  0.011077442 0.0097802214            5 
 4123000   0.58658199   -8.8424666    548.19044  0.011079926 0.0097766152            4 
 4124000   0.58624867   -8.8433543    548.34801  0.011080424 0.0097730104            3 
 4125000   0.59105812   -8.8738043    548.23463  0.011075447 0.0097694074            5 
 4126000   0.59341427    -8.863882    548.55908  0.011079316 0.0097658039            8 
 4127000   0.57804166   -8.8475056     547.8176  0.011061659 0.0097622006            4 
 4128000   0.58391039   -8.8335882    548.83419  0.011079502 0.0097585989            8 
 4129000   0.58862772   -8.8443561    548.21033  0.011064227  0.009755002           10 
 4130000   0.59260649   -8.8662988    548.22427  0.011061829 0.0097514083            6 
 4131000   0.59932948   -8.8484904    547.99155  0.011054457 0.0097478146            5 
 4132000   0.59066779   -8.8682562     547.2879  0.011037591 0.0097442206            7 
 4133000   0.59930577   -8.8419478    547.80048  0.011045255 0.0097406287            6 
 4134000   0.59517439   -8.8533366      547.948  0.011045557  0.009737038            6 
 4135000   0.58797184   -8.8413793    548.49311  0.011053872 0.0097334455            5 
 4136000   0.59388169   -8.8346411    547.74263  0.011036078 0.0097298583            4 
 4137000   0.58960224   -8.8476872    547.89358  0.011036451 0.0097262721            6 
 4138000   0.59275724   -8.8638104    548.08948  0.011037729 0.0097226886            4 
 4139000   0.57972024   -8.8362152    547.98544  0.011032968 0.0097191071            4 
 4140000    0.5863544   -8.8538964    547.28799  0.011016264 0.0097155289            8 
 4141000   0.59821954   -8.8492876    548.11783  0.011030303 0.0097119536            5 
 4142000   0.59312913   -8.8446444    547.89853  0.011023228 0.0097083821            9 
 4143000   0.59403474    -8.854071    548.56169  0.011033906 0.0097048085            4 
 4144000   0.59789297   -8.8543881    548.62679  0.011032553 0.0097012356            4 
 4145000   0.58214203    -8.850182    548.11811  0.011019664 0.0096976625            5 
 4146000   0.58750306   -8.8385567    547.29067  0.011000375 0.0096940904            8 
 4147000   0.59012479     -8.84277     547.9192  0.011010353 0.0096905216            5 
 4148000   0.59362095   -8.8318065    547.79071  0.011005117 0.0096869563            5 
 4149000   0.58161423   -8.8443577    547.31239  0.010992858  0.009683393            4 
 4150000   0.59853517   -8.8464017    548.00762  0.011004169 0.0096798299            4 
 4151000   0.59550475   -8.8766804    548.31966  0.011007783 0.0096762697            5 
 4152000   0.59028541   -8.8472621    547.81808  0.010995064 0.0096727041            5 
 4153000    0.5829036   -8.8585811     546.6592  0.010969163 0.0096691421            3 
 4154000    0.5777168   -8.8649793    548.48095  0.011003068 0.0096655815            3 
 4155000    0.5898288     -8.87446    547.85793  0.010987925 0.0096620252            6 
 4156000   0.58580152   -8.8634524    548.12761  0.010990688 0.0096584705            7 
 4157000   0.58386418   -8.8498985    546.77263  0.010960882 0.0096549164            9 
 4158000   0.57737887   -8.8677194    546.43182  0.010951415 0.0096513617            8 
 4159000   0.57637972   -8.8633478    547.74147  0.010975023 0.0096478081            5 
 4160000   0.59453021   -8.8491895    547.50382  0.010967625 0.0096442564           10 
 4161000   0.58580288   -8.8499809    547.62689  0.010967453 0.0096407067            3 
 4162000   0.58983096   -8.8485479    547.39376  0.010960151 0.0096371551            4 
 4163000    0.5808227   -8.8615797    547.16511  0.010952941 0.0096336114            4 
 4164000   0.58409226   -8.8407823    547.96021  0.010966223 0.0096300653            9 
 4165000   0.60050627   -8.8399546    547.23804   0.01094914 0.0096265219            4 
 4166000    0.5802627    -8.854798    547.14745    0.0109447 0.0096229814            4 
 4167000   0.57580414   -8.8526617    547.71815  0.010953487 0.0096194427            5 
 4168000     0.592434   -8.8510995    546.94705  0.010935442 0.0096159014            5 
 4169000   0.58708048   -8.8701925    548.67095  0.010967277 0.0096123681            5 
 4170000    0.5896801   -8.8471537    548.92012  0.010969627 0.0096088396            7 
 4171000   0.58304485   -8.8404049     547.8587   0.01094579 0.0096053096            5 
 4172000   0.57999316   -8.8650895    547.17498   0.01092951 0.0096017802            8 
 4173000   0.58998966    -8.858499    548.51705  0.010953691 0.0095982532            5 
 4174000   0.57854473   -8.8604813    547.38756  0.010928517 0.0095947276            4 
 4175000    0.5863374   -8.8419169    547.55783  0.010929298 0.0095912037            6 
 4176000   0.59279054   -8.8627843    547.97184  0.010934943 0.0095876836            6 
 4177000   0.56994222   -8.8523118    547.48902  0.010922692  0.009584162            9 
 4178000   0.58509569   -8.8658763    547.27584  0.010915826 0.0095806413            3 
 4179000    0.5980997   -8.8540094    547.61134  0.010919904  0.009577121            6 
 4180000   0.58257228   -8.8556928    547.12651  0.010907626 0.0095736023            5 
 4181000   0.58527578   -8.8496186    548.28703  0.010928148 0.0095700854            5 
 4182000   0.57310055   -8.8563842    548.73534  0.010934468 0.0095665693            5 
 4183000   0.58259901   -8.8914875    547.91842  0.010915579 0.0095630554            3 
 4184000   0.59372198   -8.8663533     547.1718    0.0108981 0.0095595426            4 
 4185000   0.58633328   -8.8630122    548.21631  0.010916294 0.0095560332            6 
 4186000    0.5802732   -8.8507845    548.26564  0.010914669  0.009552523           11 
 4187000   0.58629516   -8.8662917    547.62949  0.010899401 0.0095490151            4 
 4188000   0.58803386   -8.8541119    547.78615  0.010899915 0.0095455084            6 
 4189000   0.58579744   -8.8678488    547.97951   0.01090116 0.0095420081            5 
 4190000   0.57674035   -8.8699954    547.56116  0.010890238 0.0095385076            8 
 4191000   0.57774907   -8.8846126    547.89397  0.010894257 0.0095350112            2 
 4192000   0.57857398   -8.8562475    546.72482  0.010868417 0.0095315151            4 
 4193000   0.58136536   -8.8626101    546.72439  0.010865816 0.0095280182            5 
 4194000   0.58196555   -8.8567347    548.12353  0.010891025 0.0095245247           10 
 4195000   0.57626011   -8.8767635    547.34613  0.010872986 0.0095210296           10 
 4196000   0.58228303   -8.8793527    548.39534  0.010891232 0.0095175381            5 
 4197000   0.58037123   -8.8824444     547.3264  0.010867413 0.0095140509            8 
 4198000   0.57067243   -8.8559036    547.76525  0.010873536 0.0095105621            5 
 4199000   0.57803447   -8.8548744    547.94253  0.010874465 0.0095070835            7 
 4200000   0.56801193   -8.8658176    548.31203  0.010879207 0.0095035996            6 
 4201000   0.59168033   -8.8872782    547.20494  0.010854656 0.0095001199            5 
 4202000   0.56908715   -8.8524027    548.36828  0.010875144   0.00949664            7 
 4203000   0.57818319   -8.8427372    547.26348  0.010850652 0.0094931643            6 
 4204000    0.5898435   -8.8685376    547.70987  0.010856919 0.0094896848            3 
 4205000   0.57262227   -8.8839986    547.24701  0.010845165 0.0094862063            9 
 4206000   0.58033011   -8.8772861    547.41553  0.010845925  0.009482731            6 
 4207000   0.57506471   -8.8662718    547.39129  0.010842867 0.0094792553            8 
 4208000   0.58027496   -8.8806266    547.23809  0.010837256 0.0094757839           10 
 4209000   0.58706814   -8.8542056    548.36564  0.010857006  0.009472313            5 
 4210000   0.58303931   -8.8728343    547.45538  0.010836409 0.0094688457           12 
 4211000   0.59240675   -8.8732647    547.32032  0.010831163 0.0094653783            5 
 4212000   0.57350487   -8.8830139    547.64276  0.010834971 0.0094619124            3 
 4213000   0.56978382   -8.8660906    546.81856  0.010816096 0.0094584479           12 
 4214000   0.57022679    -8.891742    547.05867  0.010818278 0.0094549831            4 
 4215000    0.5703705   -8.8563129    548.35132  0.010841268 0.0094515212            7 
 4216000   0.57991419   -8.8810597    547.33449  0.010818598  0.009448062            5 
 4217000   0.58083074   -8.8595841    547.26107  0.010814581 0.0094446028           10 
 4218000   0.58089459   -8.8500362    547.22295  0.010811264 0.0094411492           11 
 4219000   0.57768012   -8.8821184    546.36238  0.010791704 0.0094376908           10 
 4220000   0.57203412   -8.8589871    548.07985  0.010823062 0.0094342382           11 
 4221000   0.56702119   -8.8700314    547.45868  0.010808234 0.0094307869            4 
 4222000   0.57975698    -8.864915    547.15303  0.010799641 0.0094273371            4 
 4223000   0.57443413   -8.8739491    547.53286  0.010804579 0.0094238855            3 
 4224000   0.57648008   -8.8687232    547.27468  0.010796928 0.0094204358            5 
 4225000   0.57327786   -8.8682681    546.80864   0.01078518 0.0094169858            8 
 4226000   0.57093038    -8.889623    546.42412  0.010775046 0.0094135364            6 
 4227000   0.58042373   -8.8922737    547.52555  0.010794211 0.0094100928           10 
 4228000   0.57714549   -8.8734623    547.49368   0.01079103  0.009406646            4 
 4229000   0.58195074   -8.8772058    547.63838  0.010791329 0.0094032048            7 
 4230000   0.56732371   -8.8683369    547.05079  0.010777202 0.0093997628            4 
 4231000   0.56984257   -8.8736544    547.90825  0.010791544 0.0093963284            6 
 4232000   0.56136403   -8.8759244    547.97254   0.01079026 0.0093928888            5 
 4233000   0.57316839   -8.8830229    547.40994  0.010776635 0.0093894536            6 
 4234000   0.57966814    -8.900514    546.45029  0.010755202 0.0093860221            5 
 4235000    0.5752531   -8.8748917    547.36008  0.010770564 0.0093825871            6 
 4236000   0.56838995   -8.8518728    548.78296  0.010796014 0.0093791572            5 
 4237000   0.57972554   -8.8867735    546.87917  0.010756022 0.0093757294            3 
 4238000   0.57626217   -8.8680786    547.04079  0.010756662 0.0093722999            5 
 4239000   0.56684641   -8.8935118      547.218  0.010757608   0.00936887            4 
 4240000   0.56964539   -8.8683813    546.19086  0.010734883 0.0093654445            4 
 4241000   0.57881526    -8.896428    547.31697  0.010754479 0.0093620217           10 
 4242000   0.56694119   -8.8705797    547.01018  0.010745917 0.0093585993            6 
 4243000   0.55542817    -8.894624    547.38396  0.010750726 0.0093551824            3 
 4244000   0.57021065   -8.8817996    546.29976  0.010726904 0.0093517615            5 
 4245000   0.57733602   -8.8813951     547.4305  0.010746574 0.0093483429            4 
 4246000   0.58163976   -8.8823007    546.79129  0.010731498 0.0093449262            4 
 4247000   0.57471232   -8.8973514    547.30056  0.010738964  0.009341513            6 
 4248000   0.56461227   -8.8805986    546.62007  0.010723087 0.0093380994            3 
 4249000   0.58086006   -8.8925396    546.63173  0.010720792 0.0093346852            8 
 4250000   0.58125252   -8.9080281     547.2317  0.010730033 0.0093312761            6 
 4251000   0.57641278   -8.8706358    546.42708  0.010711736 0.0093278663            4 
 4252000   0.57744825   -8.8813979    545.99597  0.010700768 0.0093244577            3 
 4253000   0.56469935   -8.8915576    546.93888  0.010716727 0.0093210519            6 
 4254000   0.56372656   -8.8698832    547.69081  0.010728938 0.0093176486            6 
 4255000   0.57569604   -8.8773354    546.97496  0.010712396 0.0093142482            4 
 4256000   0.56922115   -8.8685081    547.15134  0.010713333 0.0093108507            8 
 4257000   0.57430775   -8.8759931    547.75086  0.010722552 0.0093074526            5 
 4258000   0.56773341   -8.8688328    547.42154  0.010713589 0.0093040574            8 
 4259000   0.57858614   -8.9018874    546.89046  0.010700682 0.0093006641            3 
 4260000   0.57737659   -8.8959869    547.11658  0.010702593 0.0092972698            7 
 4261000   0.57212753   -8.8780801    547.74477  0.010712367 0.0092938765            4 
 4262000     0.556991   -8.8932269     546.2965  0.010681536 0.0092904854           10 
 4263000   0.57778632   -8.8563193    547.18833  0.010696464 0.0092870977            3 
 4264000    0.5838881   -8.8772182    547.32217  0.010696571 0.0092837106            7 
 4265000   0.57043676   -8.8769652    546.32864  0.010674651 0.0092803253            5 
 4266000   0.56096536    -8.894975    546.04285  0.010666566 0.0092769367            4 
 4267000   0.56080029   -8.9022231    546.28132  0.010668723 0.0092735518            3 
 4268000   0.56806842   -8.8823784    546.91276  0.010678553 0.0092701687            6 
 4269000   0.57466517    -8.874007    546.79582  0.010673769  0.009266786            2 
 4270000   0.58952757   -8.8947762    546.44978  0.010664516 0.0092634047            5 
 4271000   0.57427239   -8.8854989     545.7949  0.010649241 0.0092600257            2 
 4272000   0.57451018   -8.8801407    546.79405  0.010666239 0.0092566526            5 
 4273000    0.5721315   -8.8865327    546.82386  0.010664324 0.0092532807            8 
 4274000   0.55824206    -8.876716    547.64475  0.010677834 0.0092499091            4 
 4275000   0.56521269   -8.8904881    547.44478  0.010671438 0.0092465405            9 
 4276000   0.55713959   -8.8845714    547.27168  0.010665569 0.0092431709            4 
 4277000   0.57505023   -8.8705218    546.93365  0.010656489 0.0092398017            3 
 4278000   0.57357335   -8.8898037    547.47918  0.010664625 0.0092364368            6 
 4279000   0.58000289   -8.8704763     547.2086  0.010656863  0.009233073            7 
 4280000   0.56519648   -8.8660383    547.76356  0.010665178 0.0092297104           11 
 4281000   0.56772267   -8.8828163    547.25213  0.010652732 0.0092263523            3 
 4282000   0.57192909   -8.8643328    546.69045  0.010639313 0.0092229943            6 
 4283000   0.56217126    -8.888841      546.373  0.010630652 0.0092196354            6 
 4284000   0.56498085   -8.9119011    547.21472  0.010644544 0.0092162783            5 
 4285000   0.57249977    -8.879956    546.87312  0.010635417 0.0092129212            8 
 4286000   0.56302368   -8.8927296    546.74184  0.010630383 0.0092095653            3 
 4287000   0.57000756   -8.8612808    546.88042  0.010630597 0.0092062118           10 
 4288000   0.55606758   -8.8868114    546.60782   0.01062282 0.0092028609            9 
 4289000   0.56600398    -8.887605    546.94405  0.010626876 0.0091995144            4 
 4290000   0.55623732   -8.9214486    547.16158  0.010628624 0.0091961674            6 
 4291000   0.56267377    -8.893685    547.26206  0.010628099 0.0091928204            3 
 4292000   0.56618287   -8.8796251    547.18059  0.010624041 0.0091894736            7 
 4293000   0.56279218   -8.8867954    546.84328  0.010615018  0.009186133            5 
 4294000   0.55872271    -8.888996    547.12482   0.01061801 0.0091827941            5 
 4295000   0.56008008   -8.9080389    547.16371  0.010616292 0.0091794528            4 
 4296000   0.56527232   -8.8962207     546.0472  0.010592163  0.009176113           15 
 4297000   0.57754376   -8.8791494    547.24115  0.010612853 0.0091727743            5 
 4298000   0.56162747   -8.8849736    546.46024  0.010595243 0.0091694413            5 
 4299000   0.56163573   -8.8888594    546.87795  0.010600875 0.0091661029            5 
 4300000   0.54988733   -8.8798951    546.10994  0.010583526 0.0091627714            5 
 4301000   0.57323215   -8.8830669    546.41585  0.010586992  0.009159442            9 
 4302000   0.56745673   -8.8849291    546.98685  0.010595592 0.0091561127            3 
 4303000   0.56292126   -8.9025678     546.2929  0.010579691 0.0091527827            6 
 4304000   0.57002804   -8.8957977    547.17641  0.010594339  0.009149456            5 
 4305000   0.56702175   -8.9082729    546.44087   0.01057764 0.0091461295            6 
 4306000   0.57942187   -8.9018887    546.71799  0.010580546 0.0091428021            6 
 4307000   0.55834758   -8.8939464    546.00725  0.010564338 0.0091394808            3 
 4308000   0.55663195   -8.8541378    546.90355  0.010579224 0.0091361573            5 
 4309000   0.56202618   -8.8990468    546.63661  0.010571606 0.0091328354            4 
 4310000   0.57574158   -8.9209435    546.66705  0.010569742 0.0091295146            6 
 4311000   0.57416404   -8.8959029    546.56216  0.010565262 0.0091261934           10 
 4312000   0.55067612   -8.9074165    546.19249  0.010555668 0.0091228766            8 
 4313000   0.55595087   -8.8966079    547.41064  0.010576757 0.0091195602            3 
 4314000   0.56680219   -8.9061831    546.77134  0.010561956 0.0091162447            5 
 4315000   0.56881104   -8.9041764    546.80381  0.010560135 0.0091129272            8 
 4316000    0.5742442   -8.8860351    546.35023  0.010548931 0.0091096172            5 
 4317000   0.57011088   -8.9018009    546.94789  0.010558024 0.0091063085            6 
 4318000   0.56071576     -8.91944    546.33295  0.010543711 0.0091030015            5 
 4319000   0.57009025   -8.8974511    546.11193  0.010537006 0.0090996938            3 
 4320000   0.56668453   -8.9032162    547.24692  0.010556461 0.0090963883            5 
 4321000   0.56404573   -8.9195098     545.7002  0.010524188 0.0090930818            9 
 4322000   0.56150515   -8.9236379    545.93862   0.01052635 0.0090897784            6 
 4323000   0.56408937   -8.8945926    546.93472  0.010543117 0.0090864771            4 
 4324000   0.55019248   -8.9203391    546.42544  0.010530863 0.0090831772            8 
 4325000   0.56388101   -8.9129005    546.15903  0.010523295 0.0090798752            6 
 4326000   0.57046928   -8.8998753    546.20471  0.010521743 0.0090765772            3 
 4327000   0.56119208    -8.889357     546.4899  0.010524803 0.0090732797            6 
 4328000   0.56305759   -8.9202034    546.22585  0.010517288 0.0090699862            4 
 4329000    0.5569178   -8.9052644    546.46504  0.010519463 0.0090666889            3 
 4330000   0.57731813   -8.8990381    546.80481  0.010523572 0.0090633948            8 
 4331000   0.54746945   -8.9034709    546.27393  0.010510928  0.009060104            8 
 4332000   0.57061921   -8.9006855    547.00484  0.010522562 0.0090568121            5 
 4333000   0.55330516   -8.9092399    546.90813  0.010518273 0.0090535221            6 
 4334000   0.55968377   -8.9090322    547.01326  0.010517868 0.0090502359            9 
 4335000    0.5530999   -8.9192643    546.80306  0.010511401 0.0090469504            9 
 4336000   0.55595124   -8.9201814     546.7533   0.01050802 0.0090436675            4 
 4337000   0.54485887   -8.9082496    545.80699  0.010487414 0.0090403874            2 
 4338000   0.55693866   -8.9141181     546.8496  0.010505025 0.0090371078            3 
 4339000   0.56147336   -8.8906472    546.93307  0.010504207 0.0090338299            6 
 4340000    0.5554659   -8.8960388    545.56785  0.010475573 0.0090305525            5 
 4341000   0.55836602   -8.8942278    546.24206  0.010486103 0.0090272779            3 
 4342000   0.55024989   -8.9087264    546.20092  0.010482898 0.0090240019            2 
 4343000   0.56821546    -8.905985    547.10289  0.010497791   0.00902073            7 
 4344000   0.55408637   -8.8963396    547.04886  0.010494338 0.0090174597            5 
 4345000   0.55608706   -8.8969682      546.606  0.010483429 0.0090141925            7 
 4346000   0.55546565   -8.9183354    546.03808  0.010470127 0.0090109239            2 
 4347000   0.56208241   -8.9016641    546.20977   0.01047101 0.0090076589            5 
 4348000    0.5548556   -8.9123656    545.81373  0.010461011 0.0090043924            4 
 4349000   0.56984376   -8.9162965    546.28622   0.01046766 0.0090011278            5 
 4350000   0.55080444   -8.9394865     545.5056  0.010450299 0.0089978615            5 
 4351000   0.55451351   -8.9114821    546.98791  0.010476287 0.0089945987            4 
 4352000   0.55888319   -8.9242552    546.33571  0.010461391 0.0089913363            4 
 4353000   0.55128659   -8.9065364    546.09111  0.010454306 0.0089880764            9 
 4354000   0.54534613   -8.9119417    546.12854  0.010452621 0.0089848195            3 
 4355000   0.56762343   -8.9071648    546.77314  0.010462555 0.0089815642            6 
 4356000   0.55540418   -8.9185393    546.12449  0.010447744 0.0089783115            5 
 4357000   0.55362533   -8.9185359     545.8853  0.010440772 0.0089750576            7 
 4358000   0.55097462    -8.929058     545.7747  0.010436261  0.008971806            8 
 4359000   0.55753837   -8.9052141    546.18508  0.010441712 0.0089685562            6 
 4360000   0.56066386   -8.9179995    546.90738  0.010453123 0.0089653113            7 
 4361000   0.54703208   -8.9185076    545.23078  0.010418688 0.0089620656            6 
 4362000   0.55268048   -8.8984311    546.84857  0.010447206  0.008958818            6 
 4363000   0.55784337   -8.8947388    547.06699  0.010448984 0.0089555735            6 
 4364000   0.54820987   -8.9318381    546.40274  0.010433905 0.0089523328            7 
 4365000   0.55663787   -8.9024823    546.77707  0.010438661 0.0089490897            7 
 4366000   0.56209599   -8.9144785    545.42448  0.010410453 0.0089458504            7 
 4367000   0.54818298   -8.9241028    547.20999  0.010442142   0.00894261            4 
 4368000   0.54632193   -8.9257029    545.69181  0.010410787 0.0089393735            5 
 4369000   0.55443371   -8.9127085    545.88597  0.010412107 0.0089361382            4 
 4370000   0.55462606   -8.8990698    546.89476  0.010428962 0.0089329036            4 
 4371000   0.56481335   -8.9057021    546.53135  0.010419647  0.008929669            9 
 4372000   0.54218093   -8.9113074    546.64477  0.010419426 0.0089264409            5 
 4373000   0.55400823   -8.9225764    545.64228   0.01039794 0.0089232084            5 
 4374000   0.56018064   -8.9200317     545.6408  0.010395534 0.0089199783            4 
 4375000   0.54207658   -8.9170416    546.37929  0.010407225 0.0089167521            5 
 4376000    0.5573794   -8.9089218    546.00662  0.010397749 0.0089135259            2 
 4377000   0.55399009   -8.9301689    545.86252   0.01039263 0.0089103007            4 
 4378000   0.53926883   -8.9279474    546.54231  0.010403196 0.0089070794            3 
 4379000   0.54068303   -8.9231916    547.19844  0.010413307 0.0089038578            3 
 4380000   0.54360719   -8.9275976    545.30779  0.010374958 0.0089006371            5 
 4381000   0.56122593   -8.9277171    545.58513  0.010377865 0.0088974204            2 
 4382000   0.56208543   -8.9214563    545.38594  0.010371709 0.0088942045            7 
 4383000   0.55540358   -8.9271569    545.80928  0.010377391 0.0088909887            5 
 4384000   0.56265961   -8.9106714    546.43669   0.01038695 0.0088877763            3 
 4385000    0.5518923   -8.9254295    545.34063  0.010363752 0.0088845612            5 
 4386000   0.55782156   -8.9099161    545.94865  0.010372941 0.0088813485            4 
 4387000   0.55002744   -8.9240795    545.52576  0.010362544  0.008878138            3 
 4388000   0.55156686   -8.9263809    546.64143   0.01038137 0.0088749314            8 
 4389000   0.54851662   -8.9221869    546.26399  0.010371839 0.0088717259            5 
 4390000   0.54465066   -8.9211498    545.94867   0.01036349  0.008868524            3 
 4391000   0.55009349   -8.9127923    546.46462  0.010370922 0.0088653174            2 
 4392000   0.55195924   -8.9073527    546.20055   0.01036355 0.0088621154            5 
 4393000   0.55079469   -8.9230178    546.86613  0.010373817 0.0088589161            7 
 4394000   0.55117792   -8.9185083    545.66119  0.010348604 0.0088557166            4 
 4395000    0.5480702   -8.9165088    544.92574  0.010332305 0.0088525203            3 
 4396000   0.53832003   -8.9011441    546.23038  0.010354686 0.0088493248            5 
 4397000   0.54086054   -8.9270844    546.23149  0.010352352 0.0088461272            9 
 4398000   0.53321725   -8.9230107    545.14491  0.010329409 0.0088429308            6 
 4399000   0.54664563   -8.9044502    545.58506  0.010335399 0.0088397372            9 
 4400000   0.53521553   -8.9025577     546.0848  0.010342515  0.008836549            3 
 4401000   0.53488534   -8.9138013    545.64817  0.010331897 0.0088333597            8 
 4402000   0.55131812   -8.9263793     545.5372   0.01032745 0.0088301714            4 
 4403000    0.5429048   -8.9194065    546.47415  0.010342837 0.0088269858            5 
 4404000   0.55560148   -8.9321166    546.39389   0.01033897 0.0088238034            5 
 4405000   0.54618492   -8.9054731     546.4817  0.010338284 0.0088206182            4 
 4406000   0.54119501   -8.9114018     546.0128  0.010327069 0.0088174378           12 
 4407000   0.56021599   -8.9299911    545.22752  0.010309877 0.0088142589            5 
 4408000   0.54310665   -8.9276476     545.5931  0.010314449 0.0088110814           11 
 4409000   0.55442405   -8.9249478    546.04855  0.010320718 0.0088079046            7 
 4410000   0.55723789   -8.9218377    546.40741  0.010325159 0.0088047308            6 
 4411000   0.55338795   -8.9304385     545.6772  0.010309023 0.0088015571            8 
 4412000   0.54301227   -8.9256474    545.01732  0.010294223 0.0087983831            5 
 4413000   0.55094135   -8.9273155    546.33051  0.010316688 0.0087952119            4 
 4414000   0.54763452   -8.9505555    547.29697  0.010332597 0.0087920415            8 
 4415000   0.54895217   -8.9258478    545.55849  0.010297442 0.0087888695            5 
 4416000   0.54407231   -8.9209782    544.69166  0.010278753  0.008785704            4 
 4417000   0.53598757   -8.9176823    545.98706  0.010300865 0.0087825409            4 
 4418000   0.54469812   -8.9208416    545.66691  0.010292495 0.0087793784            5 
 4419000    0.5392554   -8.9319541     546.1046   0.01029842 0.0087762121           11 
 4420000   0.53946686   -8.9270051    546.25996  0.010299019 0.0087730518            6 
 4421000   0.52862049   -8.9363288    546.12112  0.010294072 0.0087698919            4 
 4422000   0.53773481   -8.9248171    546.47476  0.010298409 0.0087667321            5 
 4423000   0.54734055   -8.9141056    546.13485  0.010289676 0.0087635735            5 
 4424000   0.54249432   -8.9241282    546.10748  0.010286835 0.0087604169           12 
 4425000    0.5428708   -8.9204287    546.05281   0.01028348 0.0087572598            6 
 4426000   0.54707425   -8.9455656    545.17348  0.010264601 0.0087541062            4 
 4427000   0.56302825   -8.9275622    546.68129  0.010290665 0.0087509524            3 
 4428000   0.54930918   -8.9312609    546.62268  0.010287238 0.0087478046            4 
 4429000   0.54895174   -8.9256765    545.69239  0.010267412 0.0087446552            3 
 4430000   0.54858995   -8.9226319    546.09823  0.010272728  0.008741506            6 
 4431000   0.54498433   -8.9432035    545.41311  0.010257525  0.008738362            7 
 4432000   0.53946273   -8.9457474    545.84906  0.010263407 0.0087352201            7 
 4433000   0.55624714   -8.9110319    545.31587  0.010251069 0.0087320756            6 
 4434000   0.54670728   -8.9209257    546.11949  0.010263861 0.0087289368            6 
 4435000   0.54345716   -8.9472353    546.94621   0.01027708 0.0087257997            5 
 4436000   0.53125894   -8.9272244    546.16174  0.010260027 0.0087226631            8 
 4437000   0.54925912   -8.9481293    545.52501  0.010245756 0.0087195238            5 
 4438000    0.5360243    -8.928698     546.6575  0.010264712 0.0087163882            4 
 4439000   0.54951863   -8.9395638    544.87556  0.010228947 0.0087132584            7 
 4440000   0.53706031   -8.9100705    546.10727  0.010249761  0.008710128            7 
 4441000   0.54330286   -8.9374529    544.98131  0.010226325 0.0087069937            2 
 4442000   0.53174605   -8.9310172    545.14407  0.010227076 0.0087038638            7 
 4443000   0.54082345   -8.9212667    545.30068  0.010227712 0.0087007363            5 
 4444000   0.54537125   -8.9482308    546.12267  0.010240824 0.0086976067            4 
 4445000   0.54036889   -8.9431496    545.61023  0.010228913 0.0086944809            6 
 4446000   0.53520365   -8.9529609    546.16801  0.010237067  0.008691356            6 
 4447000    0.5488738   -8.9444928    546.00867  0.010231779 0.0086882326            5 
 4448000   0.54650073   -8.9297071    545.52266  0.010220374 0.0086851097            4 
 4449000   0.53303563   -8.9254053    546.86528  0.010243225 0.0086819905            3 
 4450000   0.54128783   -8.9404897    546.94116  0.010242344 0.0086788741            5 
 4451000   0.54729766   -8.9331865    546.23908  0.010226898 0.0086757592            5 
 4452000   0.55099372   -8.9224977    545.73182  0.010215106 0.0086726463            6 
 4453000   0.53772054    -8.935935    545.92356    0.0102164 0.0086695303            7 
 4454000   0.54633147   -8.9411116    545.83368  0.010212425 0.0086664186            6 
 4455000   0.54270367    -8.916801    545.45122  0.010202978 0.0086633089            5 
 4456000    0.5473321   -8.9393956    545.82326  0.010207646 0.0086602018            5 
 4457000   0.53886184   -8.9478664     545.2015  0.010193731  0.008657094            8 
 4458000   0.53791928   -8.9272112    545.89671   0.01020444 0.0086539874            9 
 4459000   0.53671463   -8.9560276    545.78657  0.010200093 0.0086508811            6 
 4460000   0.54378659   -8.9252779    545.31642  0.010189021 0.0086477747            8 
 4461000   0.54278354   -8.9506004    546.16075   0.01020251 0.0086446728            4 
 4462000   0.53487526   -8.9435626    545.97054  0.010196671 0.0086415696            3 
 4463000   0.53312498   -8.9444038    545.35393  0.010182873 0.0086384706            6 
 4464000   0.53639121   -8.9499492    546.01218   0.01019288 0.0086353723            3 
 4465000   0.53647048   -8.9404432    545.04728  0.010172588 0.0086322764            5 
 4466000    0.5340382    -8.948156     545.5863  0.010180368 0.0086291812            6 
 4467000    0.5431139   -8.9364933    545.23725  0.010171578 0.0086260845            5 
 4468000   0.53882879   -8.9476367    545.13859  0.010167461 0.0086229903            6 
 4469000   0.53173662   -8.9263294    546.44432  0.010189534 0.0086198948            5 
 4470000   0.52837894    -8.935953    545.92804  0.010177629 0.0086168021            4 
 4471000   0.53408428   -8.9405482    545.08961  0.010159726  0.008613711            4 
 4472000   0.52639991   -8.9632628    545.56864   0.01016638 0.0086106223            3 
 4473000   0.54389058   -8.9466736    545.23372  0.010157868  0.008607535            4 
 4474000   0.52390339   -8.9346042    545.33892  0.010157557 0.0086044472           11 
 4475000   0.54282417   -8.9302248    544.56562  0.010140887 0.0086013596            5 
 4476000   0.54114005   -8.9471919    545.07742   0.01014815 0.0085982799            6 
 4477000   0.54350707   -8.9479122    544.97823  0.010144037 0.0085951973            6 
 4478000   0.53467251   -8.9459581    545.37989  0.010149246  0.008592118            4 
 4479000   0.53938711   -8.9404831    545.75044  0.010153874 0.0085890406            9 
 4480000   0.53280188    -8.933449     545.6232  0.010149241 0.0085859617            5 
 4481000   0.54657854   -8.9451869    545.44358  0.010143636 0.0085828856           10 
 4482000   0.53429298   -8.9358215    546.96369  0.010169636 0.0085798108           11 
 4483000   0.54224772   -8.9285568    545.21246  0.010134814 0.0085767366            6 
 4484000   0.53477764    -8.949498    545.65318  0.010140744 0.0085736639            4 
 4485000   0.53561189   -8.9358421    545.54681  0.010136507 0.0085705931            6 
 4486000   0.53369814   -8.9295151    544.59079  0.010116488 0.0085675254            4 
 4487000   0.53117709   -8.9650396    545.94142  0.010139318 0.0085644577            7 
 4488000   0.52766154   -8.9581468    545.99568  0.010138066 0.0085613922            8 
 4489000   0.53466891   -8.9467749    545.98134  0.010135541 0.0085583312            6 
 4490000   0.53770835   -8.9363062    545.34827  0.010121534  0.008555266            7 
 4491000   0.52422018   -8.9587668     545.6134    0.0101242 0.0085522082            3 
 4492000   0.52972869   -8.9245885    545.84427  0.010126229 0.0085491481            6 
 4493000   0.53241438   -8.9501165     545.7699  0.010122596 0.0085460883            6 
 4494000   0.52969325   -8.9482282    545.44546  0.010114328 0.0085430302            7 
 4495000    0.5334587    -8.937743    544.70119  0.010098279 0.0085399742            5 
 4496000    0.5391601   -8.9542493    545.72518  0.010115013 0.0085369209            4 
 4497000   0.54420258   -8.9448957     546.6497  0.010129896 0.0085338668            5 
 4498000   0.54667134   -8.9310894    545.42787  0.010105007  0.008530817            6 
 4499000   0.54615349   -8.9571298    545.15059  0.010097625 0.0085277684            6 
 4500000   0.52360329    -8.958278    546.11018  0.010113152 0.0085247209            6 
 4501000   0.51747006   -8.9451234    546.31559  0.010114708 0.0085216723            5 
 4502000   0.52832825   -8.9487606    545.53633  0.010098037 0.0085186226            5 
 4503000    0.5265481   -8.9617072    545.32339  0.010091853 0.0085155784            4 
 4504000   0.53660656   -8.9446466      544.736  0.010078745 0.0085125321            4 
 4505000     0.538514   -8.9493891    544.22802  0.010067111 0.0085094867            5 
 4506000   0.52731664   -8.9256863    545.24302  0.010083648 0.0085064444            7 
 4507000    0.5234049   -8.9588673     545.2123  0.010080843 0.0085034039            5 
 4508000   0.51653576   -8.9499444    545.57762   0.01008536 0.0085003631            5 
 4509000   0.52027981   -8.9583809    545.50826  0.010081841 0.0084973254            5 
 4510000   0.53222001   -8.9484697    544.55983  0.010062081  0.008494288            4 
 4511000   0.53552717   -8.9481843    544.79909  0.010064271 0.0084912539            5 
 4512000   0.52869564   -8.9379866    546.06964  0.010085506 0.0084882207            5 
 4513000   0.52131147   -8.9554179    545.27473  0.010068593 0.0084851903            9 
 4514000   0.51488534   -8.9520263    545.62643  0.010072855 0.0084821601            8 
 4515000   0.52106308   -8.9630372    545.70229  0.010072024 0.0084791314            4 
 4516000   0.53122802   -8.9561838    546.26851  0.010080243 0.0084761033            5 
 4517000   0.52214576    -8.954472    545.47094  0.010063297 0.0084730791            3 
 4518000   0.53503566   -8.9612549     545.4215  0.010060158 0.0084700514            6 
 4519000   0.53656255   -8.9500992    545.21546  0.010054132 0.0084670256            7 
 4520000   0.53769956   -8.9337112    545.10472  0.010049866 0.0084640018            3 
 4521000   0.52745443     -8.94427    545.30277  0.010051293 0.0084609824            5 
 4522000   0.53316342   -8.9452839    544.73937  0.010038688 0.0084579608            2 
 4523000   0.52144767   -8.9500591    546.03403  0.010060322 0.0084549404            4 
 4524000   0.53446468   -8.9547704    544.77726  0.010034948 0.0084519239            5 
 4525000   0.54367068   -8.9601314    544.67978  0.010030935 0.0084489056            4 
 4526000   0.52848512   -8.9327032    545.62566  0.010046135 0.0084458925            4 
 4527000    0.5307303   -8.9662095    544.68785  0.010026652 0.0084428777            6 
 4528000   0.52810503   -8.9465293    546.13873   0.01005114 0.0084398661            4 
 4529000   0.52499618   -8.9515143    544.69245  0.010022309 0.0084368556            6 
 4530000   0.53336071   -8.9505471    545.64649  0.010037647 0.0084338454            4 
 4531000   0.52974208   -8.9506821    544.69139  0.010017866 0.0084308378            4 
 4532000   0.52093107   -8.9627211    545.02337   0.01002176 0.0084278295            4 
 4533000   0.54516535   -8.9574058    545.01117  0.010019324 0.0084248261            4 
 4534000   0.53111889   -8.9745763    545.65225  0.010028897 0.0084218196            3 
 4535000   0.51545113   -8.9452443    545.62752  0.010026232 0.0084188185            4 
 4536000   0.51867337   -8.9553886    546.15104  0.010033639 0.0084158181            3 
 4537000   0.52382582   -8.9709107    545.08703  0.010011884  0.008412818            5 
 4538000   0.51896586   -8.9539501    545.35924  0.010014677 0.0084098197            5 
 4539000   0.53072061    -8.948905    545.11781  0.010008038 0.0084068215            8 
 4540000   0.52110365    -8.966552    545.80751  0.010018493 0.0084038236            8 
 4541000   0.52185102   -8.9442478    545.72037  0.010014688 0.0084008304            4 
 4542000   0.51663187    -8.960134    545.76551  0.010013311 0.0083978349            5 
 4543000   0.53325301   -8.9696503    544.63205 0.0099903158 0.0083948428            6 
 4544000   0.52453017   -8.9605232     545.3654  0.010001566 0.0083918517            6 
 4545000   0.52338865    -8.939658    545.09801  0.009994463  0.008388863            5 
 4546000   0.52751452   -8.9532114    545.58972  0.010001278 0.0083858767            5 
 4547000   0.52500162   -8.9618299    544.90799 0.0099865843 0.0083828895            5 
 4548000   0.52258213   -8.9614572    545.04113 0.0099868282 0.0083799035            4 
 4549000   0.52774708   -8.9583449    545.43445  0.009991838 0.0083769203            3 
 4550000   0.51187784   -8.9527105    545.22338 0.0099857762 0.0083739359            7 
 4551000   0.52724429   -8.9751584    545.61522  0.009990757 0.0083709541            2 
 4552000   0.53310615   -8.9440354    544.30981 0.0099646641 0.0083679758            4 
 4553000   0.52949714   -8.9599786     545.5103  0.009984448 0.0083649985            6 
 4554000   0.52775066   -8.9401185     545.0183 0.0099732525 0.0083620223            5 
 4555000   0.52367337    -8.960994    545.22365 0.0099748197 0.0083590457            4 
 4556000   0.52575166   -8.9621253    544.04455 0.0099510636 0.0083560724            4 
 4557000   0.51428156   -8.9598837    544.58715 0.0099588024 0.0083530996            4 
 4558000   0.52997771   -8.9648722    543.84015 0.0099429602 0.0083501281            4 
 4559000   0.52113115    -8.952343    545.34008 0.0099681962  0.008347158            8 
 4560000   0.51735224   -8.9702633    545.74915 0.0099734859 0.0083441892            4 
 4561000   0.51527095    -8.950531    544.34122 0.0099455751 0.0083412203            8 
 4562000   0.50956641   -8.9590214    545.87119 0.0099713429 0.0083382523            5 
 4563000   0.52891112   -8.9588342    544.54255 0.0099448927 0.0083352867            5 
 4564000   0.52718406   -8.9486575    545.37504 0.0099579141 0.0083323217            2 
 4565000    0.5206853   -8.9589325     545.0788  0.009950325 0.0083293569            7 
 4566000   0.52169502   -8.9870218    545.19513 0.0099502688  0.008326396            7 
 4567000    0.5182883   -8.9643099    545.22005 0.0099485449 0.0083234332            7 
 4568000   0.52394265   -8.9519688    545.80838 0.0099570998 0.0083204711            5 
 4569000   0.52849979   -8.9514951    544.92755 0.0099388552 0.0083175146            7 
 4570000    0.5209819   -8.9696106    545.18904 0.0099414485 0.0083145585            7 
 4571000   0.50764881   -8.9624111      544.431 0.0099254539 0.0083116023            6 
 4572000   0.51504352   -8.9652167    544.20744 0.0099192083  0.008308648            4 
 4573000   0.52003329   -8.9611554    545.16944 0.0099345695 0.0083056961            3 
 4574000   0.51323604   -8.9572088    544.97972 0.0099289411 0.0083027456            4 
 4575000   0.52149837   -8.9651248    545.65437 0.0099390595 0.0082997951            4 
 4576000    0.5194418   -8.9650282    544.90712 0.0099232795 0.0082968482            6 
 4577000   0.52070876   -8.9534871    544.14777 0.0099072858    0.0082939            6 
 4578000   0.51889963   -8.9720197     544.6683 0.0099145971 0.0082909537            5 
 4579000   0.50997525   -8.9601333    544.60349 0.0099112523 0.0082880106            5 
 4580000   0.52066761   -8.9551911     544.8526 0.0099136208 0.0082850691            3 
 4581000   0.51203096   -8.9607249    545.02562 0.0099146042 0.0082821258            3 
 4582000   0.51403351   -8.9782439    544.78506 0.0099080653 0.0082791825            8 
 4583000   0.51206003   -8.9721033    545.15554 0.0099126398 0.0082762436            5 
 4584000   0.51564751   -8.9621611    544.68696  0.009901959 0.0082733072            5 
 4585000   0.51684266   -8.9845789    545.07664 0.0099068819 0.0082703677            4 
 4586000   0.52561262    -8.968131    545.07455 0.0099046837 0.0082674319            4 
 4587000   0.51183872   -8.9724999    544.49986 0.0098920838 0.0082644976            6 
 4588000   0.53392055   -8.9767417    545.52504 0.0099085484 0.0082615635            8 
 4589000   0.52435866   -8.9711867    544.91785  0.009895363 0.0082586321            5 
 4590000   0.52460224   -8.9817042    544.80279 0.0098911182 0.0082557008            6 
 4591000   0.51278128   -8.9588424    545.20396 0.0098962456 0.0082527708            5 
 4592000   0.51270626   -8.9956961     545.2667  0.009895229 0.0082498438            4 
 4593000   0.51127352   -8.9733745    545.26409 0.0098930273 0.0082469191            4 
 4594000   0.51973148   -8.9637191    544.84157 0.0098832095 0.0082439937           13 
 4595000   0.52549084   -8.9637794    543.93382 0.0098645959 0.0082410694            8 
 4596000   0.51988587   -8.9591555     544.5573 0.0098737543 0.0082381458            9 
 4597000   0.51829195   -8.9861213    544.71815 0.0098745224 0.0082352213            5 
 4598000   0.50880734   -8.9787328    545.24636 0.0098819479  0.008232304            7 
 4599000   0.52275511   -8.9799295    543.91438 0.0098556638 0.0082293867            5 
 4600000   0.51515124   -8.9691865     544.9783 0.0098727953 0.0082264678            4 
 4601000   0.50773895   -8.9867868      544.562 0.0098631095 0.0082235502            5 
 4602000   0.51777043   -8.9830299     545.1988 0.0098724975 0.0082206345            6 
 4603000   0.52385161   -8.9703114    544.70335 0.0098613829 0.0082177197            4 
 4604000   0.51494789   -8.9562132    544.17574 0.0098496913 0.0082148082            6 
 4605000   0.51913278   -8.9643222     544.5654 0.0098546036 0.0082118964            5 
 4606000   0.51862167   -8.9648265    545.27074 0.0098652255 0.0082089903            4 
 4607000   0.51332059   -8.9856782    544.22644 0.0098441943 0.0082060813            5 
 4608000    0.5116882   -8.9899351    544.85386 0.0098534047 0.0082031726            3 
 4609000     0.508146   -8.9723133    545.05645 0.0098549297 0.0082002697            4 
 4610000   0.51209199   -8.9664918     544.9887 0.0098515672 0.0081973651            7 
 4611000    0.5156595   -8.9619667     544.7068 0.0098443359 0.0081944648            4 
 4612000   0.50993863   -8.9787721    544.64497 0.0098410843 0.0081915634            5 
 4613000   0.51932417   -8.9766554    544.87315 0.0098430731 0.0081886617            4 
 4614000   0.51965142   -8.9902372     543.8959 0.0098232896 0.0081857619            4 
 4615000   0.50755323   -8.9788169    544.48298 0.0098317621 0.0081828643            4 
 4616000   0.53638612   -8.9838795    543.88931 0.0098189145 0.0081799679            7 
 4617000   0.50554237   -8.9755906    544.68372 0.0098311263 0.0081770746            4 
 4618000   0.50969296   -8.9762994    543.80458  0.009813133 0.0081741802            4 
 4619000   0.50869942   -8.9760083     545.0988  0.009834358 0.0081712904            4 
 4620000   0.51597916   -8.9766116    543.99406 0.0098123026 0.0081684001            5 
 4621000   0.50397127   -9.0054747     544.6362 0.0098217594 0.0081655098            6 
 4622000   0.51035526   -8.9800426    544.41791 0.0098156987 0.0081626181            4 
 4623000   0.52344941   -8.9909458    543.67818 0.0098002412 0.0081597314            5 
 4624000   0.51622119   -8.9864133    544.01945  0.009804272 0.0081568429            3 
 4625000   0.50607327   -8.9743319    544.33177 0.0098077796 0.0081539576            5 
 4626000   0.50377276   -8.9629497    544.89932 0.0098158834 0.0081510716            6 
 4627000   0.50761571   -8.9896818    544.31501 0.0098032384 0.0081481915            3 
 4628000   0.50705112   -8.9843259    544.49524 0.0098043655 0.0081453118            9 
 4629000   0.51151945   -8.9861634    545.14714 0.0098139832 0.0081424356            4 
 4630000   0.52098809   -8.9939782    545.14598 0.0098118426 0.0081395558            5 
 4631000    0.5160949   -8.9867692    544.74504 0.0098025092 0.0081366782            3 
 4632000   0.51359235   -8.9902296    544.50484 0.0097960716 0.0081337987            3 
 4633000   0.50705811   -8.9833186    543.72877  0.009779998 0.0081309215            3 
 4634000   0.51019073   -8.9802858    544.04204  0.009783521 0.0081280449            5 
 4635000   0.50209463     -8.99188    543.59946 0.0097734531 0.0081251734            6 
 4636000   0.50801045   -9.0030316    544.48471 0.0097872576  0.008122299            5 
 4637000   0.50955185   -8.9846554    543.73728 0.0097717144 0.0081194285            5 
 4638000   0.50967623   -8.9922683    544.59413 0.0097850031 0.0081165593            5 
 4639000   0.50489043   -8.9800712    543.69275 0.0097667016 0.0081136923            6 
 4640000   0.50950026   -8.9794082    544.93156 0.0097868455 0.0081108258            3 
 4641000   0.50962556   -8.9757272    544.11268  0.009770033 0.0081079625            3 
 4642000   0.51027108   -8.9893611    543.93333 0.0097647086 0.0081050987            6 
 4643000   0.48692647   -8.9930962    543.29203 0.0097510954 0.0081022349            7 
 4644000   0.51145584   -8.9999287    544.92204  0.009778245  0.008099373            6 
 4645000   0.51118473   -8.9853989    544.55382 0.0097695338 0.0080965129            6 
 4646000   0.50540679   -8.9913381     543.4059 0.0097468414 0.0080936526            5 
 4647000   0.51687168     -8.97277     543.9263 0.0097540761 0.0080907939            3 
 4648000   0.50100535   -9.0021735    543.37932 0.0097421708 0.0080879387            4 
 4649000   0.51675219   -9.0055986    543.70666 0.0097459429 0.0080850804            4 
 4650000   0.50253096   -9.0111942    544.13736 0.0097515656 0.0080822258            5 
 4651000   0.51512397   -8.9886218    544.07528 0.0097483566 0.0080793703            5 
 4652000   0.50304547    -8.981765    544.38936 0.0097518874  0.008076518            5 
 4653000   0.51410662   -8.9937783    544.38458 0.0097497059 0.0080736685            6 
 4654000   0.50438001   -8.9947074    544.77296 0.0097545652 0.0080708177            5 
 4655000    0.5067355   -8.9800757     545.2128 0.0097603437 0.0080679694            4 
 4656000   0.50762461   -8.9973528    544.19751 0.0097400757 0.0080651227            5 
 4657000   0.50245393   -8.9925993    544.39022 0.0097414327 0.0080622763            3 
 4658000   0.50826122   -8.9987342    543.66323 0.0097263352 0.0080594319            7 
 4659000   0.50957362   -8.9853733    544.37388 0.0097369585 0.0080565872            8 
 4660000   0.51030543   -8.9832976    544.99797 0.0097460294 0.0080537478            5 
 4661000   0.51013652   -8.9789921     544.1182 0.0097282092 0.0080509071            6 
 4662000    0.5057377    -8.998494    544.23524 0.0097282146 0.0080480691            4 
 4663000    0.5090729   -8.9961105    544.08848 0.0097235057 0.0080452336            8 
 4664000   0.50171967   -8.9971077    544.50147 0.0097287999 0.0080423966            6 
 4665000   0.50589938   -8.9970915    544.07152  0.009719034 0.0080395633            7 
 4666000    0.5076403   -8.9996419    544.83592 0.0097306029 0.0080367283            4 
 4667000    0.5047691   -8.9878816    544.68586 0.0097258386 0.0080338958            9 
 4668000   0.51040353   -8.9918677    544.13492 0.0097139196 0.0080310645            9 
 4669000   0.50508198   -8.9679102    544.67712 0.0097215163 0.0080282363            5 
 4670000   0.50106365   -8.9913674    544.79488 0.0097215361 0.0080254077            5 
 4671000   0.50762608   -9.0043668    544.48645 0.0097139522 0.0080225839            9 
 4672000   0.50242671   -9.0017932    544.32599  0.009709011 0.0080197565            4 
 4673000   0.49962892   -8.9875974    544.42984 0.0097087852 0.0080169289            4 
 4674000   0.49883457   -8.9908067    543.99481 0.0096989519 0.0080141072            7 
 4675000   0.49988568    -8.994755    544.28313 0.0097020166 0.0080112852            5 
 4676000   0.49788475   -9.0021934    544.02788 0.0096953928 0.0080084671            6 
 4677000   0.50832493    -8.983881    544.03722 0.0096934862 0.0080056483            2 
 4678000   0.49628629   -9.0013497    544.14423 0.0096933204 0.0080028301            4 
 4679000   0.50837113   -9.0021008    543.68419 0.0096830554 0.0080000146            8 
 4680000    0.5085439   -9.0007176    543.56642 0.0096788892 0.0079971989            6 
 4681000   0.49415607   -8.9801101    543.11927 0.0096688613 0.0079943848            3 
 4682000   0.51199214   -9.0033409    544.52574 0.0096918294 0.0079915732            7 
 4683000   0.49323538   -8.9790997    544.53774 0.0096899732 0.0079887619            3 
 4684000   0.50458398   -9.0148707    543.36571 0.0096670529 0.0079859502            5 
 4685000   0.49343102   -9.0074905    544.22212 0.0096802227 0.0079831404            5 
 4686000   0.51216281   -8.9944248    544.37996 0.0096809638 0.0079803336            7 
 4687000   0.49520015   -8.9854775    544.81937  0.009686711 0.0079775275            5 
 4688000   0.50491216   -9.0057093    544.88443 0.0096858011  0.007974723            2 
 4689000   0.51297236   -8.9933845    544.32789 0.0096738446 0.0079719159            6 
 4690000   0.49844917   -8.9999615    543.93731  0.009664842 0.0079691109            5 
 4691000   0.49718505   -8.9866906    543.46352  0.009654365 0.0079663101            6 
 4692000   0.50143119   -9.0073571    543.37055 0.0096506563 0.0079635081            4 
 4693000   0.50200786   -8.9952219    544.14691 0.0096623857 0.0079607102            7 
 4694000   0.50712536   -8.9894832    544.18592 0.0096610198 0.0079579119            5 
 4695000   0.50180478   -9.0027774    543.90347 0.0096539488 0.0079551166            8 
 4696000   0.49857135   -9.0093278    543.82365 0.0096504765 0.0079523212            7 
 4697000   0.49364059    -8.989813    543.79242 0.0096478679 0.0079495254            3 
 4698000   0.49122276   -8.9980973    544.33414 0.0096554233 0.0079467323            3 
 4699000   0.51180146   -8.9783661    543.92165 0.0096460532 0.0079439418            5 
 4700000   0.49755468   -9.0145673    543.83517 0.0096424676 0.0079411549            4 
 4701000   0.49646882   -8.9839339    543.19419  0.009629054  0.007938364            5 
 4702000   0.49292527   -9.0126375    543.96593 0.0096406836 0.0079355759            4 
 4703000   0.49869835   -9.0080526    543.80132  0.009635717 0.0079327867            5 
 4704000   0.49488361   -9.0053767    544.28509 0.0096422387 0.0079300006            6 
 4705000   0.50111634   -8.9903015    544.26474 0.0096398288 0.0079272155            3 
 4706000   0.50861698   -9.0004904    544.00721 0.0096332202 0.0079244312            4 
 4707000   0.49706947   -8.9996255     544.0876 0.0096325968  0.007921649            4 
 4708000   0.50481168   -8.9853655    543.91648  0.009627522 0.0079188694            5 
 4709000   0.50389565    -9.001859    543.93907 0.0096258772  0.007916089            7 
 4710000   0.49578164   -8.9960248    543.51221 0.0096162811 0.0079133086            5 
 4711000     0.498618   -8.9870322    543.71614 0.0096178473 0.0079105314            6 
 4712000   0.50695913   -8.9825785    544.60225 0.0096314772 0.0079077568            5 
 4713000   0.50047766   -9.0000209    543.52219 0.0096103365 0.0079049827            7 
 4714000   0.51040027   -9.0001654    544.31558 0.0096223232 0.0079022099            5 
 4715000   0.51198465   -9.0173725    544.45035 0.0096226643 0.0078994394            5 
 4716000   0.49815605   -8.9852096    544.66459 0.0096244097 0.0078966702            4 
 4717000   0.49503556   -8.9976156    543.80265 0.0096071418 0.0078939021            3 
 4718000   0.50394183   -8.9931315    544.42074 0.0096160227 0.0078911342            4 
 4719000   0.49451147   -9.0079843    543.22206 0.0095928174  0.007888367            6 
 4720000   0.49544057   -9.0153677    543.80433 0.0096010651 0.0078855999            4 
 4721000   0.50544955   -9.0213092     543.9375 0.0096013821 0.0078828365            5 
 4722000   0.49395463   -8.9924286    542.70154 0.0095775367 0.0078800733            4 
 4723000    0.4919374   -9.0171346    543.82961 0.0095954126 0.0078773106            4 
 4724000   0.50407567   -9.0056112    544.44757 0.0096042826 0.0078745505            6 
 4725000   0.48327658   -9.0218728    543.16062 0.0095795523 0.0078717911            5 
 4726000   0.51237421    -8.998197    543.55619 0.0095845005 0.0078690332            4 
 4727000   0.50058963   -9.0084383    544.16136 0.0095931415  0.007866276            5 
 4728000   0.49021558   -8.9879337    543.55753 0.0095804697 0.0078635209           11 
 4729000   0.48326312   -9.0082369    543.81981 0.0095830657  0.007860767            5 
 4730000   0.49864243   -8.9962445    544.02281 0.0095846162 0.0078580129            5 
 4731000   0.49173783   -9.0099816    543.25127     0.009569 0.0078552593            5 
 4732000   0.50337557   -9.0110385    543.21371 0.0095663164 0.0078525091            3 
 4733000   0.48752388   -8.9917113    543.90683 0.0095764989 0.0078497598            3 
 4734000     0.486709     -8.98817    543.62132 0.0095694501 0.0078470106            4 
 4735000   0.49819395   -9.0082683    543.10365 0.0095583183 0.0078442644            6 
 4736000   0.50472237   -8.9929899    544.21119 0.0095757881 0.0078415165            6 
 4737000   0.49422996   -8.9955075    544.39573  0.009577013 0.0078387719            6 
 4738000    0.4948479   -9.0092306    543.40276  0.009557527 0.0078360277            3 
 4739000   0.49813267   -9.0089384    543.77405 0.0095620392 0.0078332877            3 
 4740000   0.48623719    -9.017405    543.14349 0.0095489361 0.0078305467            3 
 4741000   0.49187156   -8.9967977     544.3534 0.0095681889 0.0078278076            5 
 4742000   0.49609828   -9.0084344    543.59498 0.0095528431 0.0078250689            8 
 4743000   0.48886744    -9.011487    544.01601 0.0095582264 0.0078223317            5 
 4744000   0.49098968   -9.0112766    543.68794 0.0095504487 0.0078195943            3 
 4745000   0.49323029   -9.0037771    542.21934 0.0095226438  0.007816858            6 
 4746000   0.48402132   -9.0022983    543.67815 0.0095462522 0.0078141226            2 
 4747000   0.49594794   -9.0157532    543.69555 0.0095445465 0.0078113886            4 
 4748000   0.48947396   -9.0012785    543.65146 0.0095417625 0.0078086588            4 
 4749000   0.48407736   -9.0089746    543.31215 0.0095337993 0.0078059297            7 
 4750000   0.49708194   -9.0281674     543.7267 0.0095390648 0.0078032018            5 
 4751000   0.48958293    -9.009647    543.92729 0.0095405755 0.0078004748            5 
 4752000   0.48343849   -9.0210507    543.04907  0.009523167 0.0077977495            3 
 4753000   0.49487606   -9.0149424    542.59515 0.0095132047  0.007795024            6 
 4754000   0.49158241   -9.0141871     543.1229 0.0095204547    0.0077923            5 
 4755000   0.49229391   -9.0164734    542.58664 0.0095090544 0.0077895781            5 
 4756000   0.50039862   -9.0095466    543.82704 0.0095287889 0.0077868567            1 
 4757000   0.49708638   -9.0194106    543.89439 0.0095279657  0.007784137            5 
 4758000   0.48036795   -9.0261301    543.31982 0.0095158999 0.0077814169            8 
 4759000   0.48976708   -9.0174615    543.20452 0.0095118813 0.0077786999            3 
 4760000   0.48314712   -9.0117692    544.01914 0.0095241446 0.0077759813            6 
 4761000   0.48964844   -9.0107283    544.89794 0.0095375261 0.0077732678            8 
 4762000   0.48935939    -8.999904    543.74523 0.0095153512 0.0077705548            2 
 4763000   0.49750182    -9.025311    543.09273 0.0095019374 0.0077678421            7 
 4764000   0.48583944   -9.0027108    543.10797 0.0095002094 0.0077651314            9 
 4765000    0.4899801   -8.9968727    543.72893 0.0095090753 0.0077624213            4 
 4766000    0.4910652   -9.0216999    542.96205 0.0094936714 0.0077597107            7 
 4767000   0.49090279   -9.0233669    543.38754 0.0094991179 0.0077570044            3 
 4768000   0.49704695   -9.0181878    543.92794 0.0095065705 0.0077542982            3 
 4769000    0.4943431   -9.0067755    543.00349 0.0094884233 0.0077515924            3 
 4770000   0.49698206   -9.0221958    543.23353 0.0094904531 0.0077488882            5 
 4771000   0.48663581   -9.0188667    543.76142 0.0094976843  0.007746187            9 
 4772000   0.49754639   -9.0056463    543.29159 0.0094874893 0.0077434856            6 
 4773000   0.48133984   -9.0182213    543.28797 0.0094854384 0.0077407842            3 
 4774000   0.48884906   -9.0180613    542.69748 0.0094731441 0.0077380845            4 
 4775000   0.47345565   -9.0216487    542.88124 0.0094743671 0.0077353859            3 
 4776000   0.49033534   -9.0041257    543.98431 0.0094916302 0.0077326897            4 
 4777000   0.48426533   -9.0107155    543.16443 0.0094753407 0.0077299935            6 
 4778000   0.49085843   -9.0307334    543.66309 0.0094820547 0.0077272979            7 
 4779000   0.48453293   -9.0215687    542.78615 0.0094647791  0.007724602            4 
 4780000   0.48187124   -8.9992535    543.24942 0.0094708756  0.007721912            8 
 4781000   0.48020907   -9.0369363    543.47385 0.0094728065 0.0077192191            5 
 4782000     0.480061   -9.0305166    543.17612 0.0094656371 0.0077165285            5 
 4783000   0.48743891      -9.0266    543.32388 0.0094662324 0.0077138386            3 
 4784000    0.4766745    -9.001613    542.83119 0.0094556715 0.0077111503           11 
 4785000   0.47940265   -9.0266784    543.81975 0.0094709118 0.0077084613            3 
 4786000   0.48987648   -9.0145083    543.62185 0.0094654871 0.0077057772            8 
 4787000   0.48420708   -9.0214349    542.65738 0.0094467199 0.0077030916            4 
 4788000   0.49127739   -9.0175925    543.43629 0.0094583035 0.0077004085            5 
 4789000   0.49205921   -9.0237041    544.07053 0.0094673649 0.0076977274            4 
 4790000   0.48191344   -9.0142872    543.02854 0.0094472605 0.0076950459            7 
 4791000   0.47645935   -9.0180158    543.58166 0.0094549096 0.0076923665            6 
 4792000    0.4818874   -9.0284684    543.63862  0.009453927  0.007689689            3 
 4793000    0.4897574   -9.0258066    543.92684 0.0094569657 0.0076870149            4 
 4794000   0.48585188   -9.0330721     543.8562  0.009453765 0.0076843382            3 
 4795000   0.47925505   -9.0147226    543.92486 0.0094529867 0.0076816655           10 
 4796000   0.48921625   -9.0160432    543.60849 0.0094455186 0.0076789921            6 
 4797000   0.47314385   -9.0268696    542.20714 0.0094192053 0.0076763183           12 
 4798000   0.48424174   -9.0178165    543.52601 0.0094401488 0.0076736469            8 
 4799000    0.4835376   -9.0358855    543.56642 0.0094388835 0.0076709767            6 
 4800000   0.47680383   -9.0364095      543.265 0.0094316841 0.0076683085            6 
 4801000   0.48990422    -9.011651      543.334 0.0094309172 0.0076656427            6 
 4802000   0.47991537   -8.9955173    543.07052 0.0094243808 0.0076629771            8 
 4803000   0.47533775   -9.0324317    542.99245 0.0094210641 0.0076603116            3 
 4804000   0.48528538   -9.0163162    542.90766 0.0094176321 0.0076576456            3 
 4805000    0.4803866    -9.029852    542.51441  0.009408852 0.0076549842            2 
 4806000   0.48717205   -9.0351879    543.38426  0.009421977 0.0076523247            6 
 4807000   0.48271477    -9.033116    543.40119 0.0094203106 0.0076496639            8 
 4808000   0.49480055   -9.0144044    543.68143 0.0094232084 0.0076470032            6 
 4809000   0.49141379   -9.0268541    543.33089 0.0094151744  0.007644345            6 
 4810000   0.49115279   -9.0281428    543.68298 0.0094193171 0.0076416875            7 
 4811000   0.48178913   -9.0463939    543.06961 0.0094067347 0.0076390301           10 
 4812000    0.4858966   -9.0323809    543.58714 0.0094137424  0.007636375            6 
 4813000   0.48645023   -9.0226026    543.02607  0.009402072 0.0076337227            3 
 4814000   0.46839965   -9.0289086    543.60237  0.009410095 0.0076310694            3 
 4815000   0.47550911   -9.0258289    542.97411 0.0093972674 0.0076284178            5 
 4816000   0.47606686    -9.031585    543.61782 0.0094064545 0.0076257688            5 
 4817000   0.48164771   -9.0207871    543.39625 0.0094006687 0.0076231206            9 
 4818000   0.47501075   -9.0171283      544.124 0.0094113048 0.0076204723            4 
 4819000   0.48952569   -9.0325917    542.99811 0.0093898823  0.007617827            8 
 4820000   0.48672931   -9.0245115    543.23455 0.0093920219  0.007615181           12 
 4821000    0.4829243   -9.0156917    543.54378  0.009395419 0.0076125389            7 
 4822000   0.48121615   -9.0271777    543.16098  0.009386855 0.0076098974            6 
 4823000   0.47120564   -9.0382567     542.5461 0.0093742847 0.0076072567            5 
 4824000   0.47846655   -9.0214711     543.1019 0.0093819427 0.0076046153            3 
 4825000   0.47387491   -9.0299855    542.26634 0.0093655672 0.0076019745            5 
 4826000   0.47536881   -9.0275449    543.39964 0.0093831959 0.0075993357            6 
 4827000   0.48869334   -9.0246892    543.01429 0.0093745993 0.0075966986            5 
 4828000   0.47462133   -9.0025774    542.52488 0.0093642101 0.0075940632            8 
 4829000   0.48159812   -9.0142984    542.37871 0.0093597486 0.0075914275            3 
 4830000   0.48099002   -9.0346084    543.28732 0.0093734873  0.007588794            5 
 4831000   0.47812812   -9.0187454    543.27687 0.0093713667 0.0075861603            5 
 4832000   0.47491369   -9.0248197     543.2149 0.0093683585 0.0075835306           11 
 4833000   0.48489377   -9.0331511     543.2312 0.0093667011 0.0075809003            4 
 4834000   0.48186845   -9.0320352    543.31443 0.0093661984 0.0075782736           10 
 4835000    0.4761053   -9.0443616    543.44966 0.0093665919 0.0075756469           12 
 4836000   0.47216743   -9.0171638    543.08225 0.0093583238   0.00757302            5 
 4837000   0.48038653   -9.0359207    543.77959  0.009368403 0.0075703952            6 
 4838000   0.47235034   -9.0341322    543.17508 0.0093560541 0.0075677692            3 
 4839000   0.47235195   -9.0259773    542.92651 0.0093498399 0.0075651473            6 
 4840000   0.48167458   -9.0419651    543.04864 0.0093500109 0.0075625256            3 
 4841000   0.48163112   -9.0231696    542.41535 0.0093371781 0.0075599054            5 
 4842000   0.46928111   -9.0297248    542.62747 0.0093389005 0.0075572854            3 
 4843000   0.47540418   -9.0228038    543.59443 0.0093536106 0.0075546658            8 
 4844000   0.47298149   -9.0357358    543.23694 0.0093455296 0.0075520498            3 
 4845000   0.47516556   -9.0211755    542.52486  0.009331353 0.0075494355            7 
 4846000   0.47356418    -9.045341     543.0456 0.0093383821 0.0075468215            6 
 4847000   0.47369489   -9.0254804     542.3208 0.0093239942 0.0075442064            5 
 4848000    0.4728414   -9.0412459    542.62252 0.0093272573 0.0075415926            4 
 4849000   0.47970192   -9.0347097    542.14611 0.0093171463 0.0075389823            4 
 4850000   0.47957848    -9.039061    542.51604 0.0093215815 0.0075363706            4 
 4851000   0.47352421   -9.0340515    543.06396 0.0093290723 0.0075337625            3 
 4852000   0.46101189   -9.0326399    542.94583 0.0093251207 0.0075311526            6 
 4853000   0.47891907   -9.0312703    543.22184 0.0093279388 0.0075285449            5 
 4854000   0.48113399   -9.0269963    542.78912 0.0093185881 0.0075259394            4 
 4855000   0.47908858   -9.0226211    542.26646 0.0093076976 0.0075233367            7 
 4856000   0.47075102   -9.0456228    543.14206 0.0093208069 0.0075207325            5 
 4857000   0.47636093    -9.028915     542.2714 0.0093039496 0.0075181286            4 
 4858000   0.47411243   -9.0495314     542.9714 0.0093140421 0.0075155278            2 
 4859000   0.47789457   -9.0218133    542.48616 0.0093038032 0.0075129281            5 
 4860000   0.47576784   -9.0414201    542.95491 0.0093099265 0.0075103309            4 
 4861000   0.47454191   -9.0428114    543.38134 0.0093153217 0.0075077326            5 
 4862000   0.47685423   -9.0309371    542.73238 0.0093022826  0.007505137            3 
 4863000   0.47600875   -9.0263488     543.1004 0.0093066763 0.0075025426            5 
 4864000   0.47494346    -9.047775    542.35393 0.0092919739 0.0074999483            5 
 4865000   0.46777723   -9.0222145    542.17355 0.0092869741 0.0074973538            5 
 4866000   0.47258418   -9.0411787    542.06479 0.0092832031 0.0074947624            8 
 4867000   0.46354527   -9.0448498    542.54537 0.0092895243 0.0074921699            4 
 4868000   0.46918997   -9.0369976     543.2279 0.0092992998 0.0074895783            6 
 4869000     0.465325   -9.0532944    543.36203 0.0092996856  0.007486991            7 
 4870000   0.46715226   -9.0582594    542.59769  0.009284697 0.0074844039            6 
 4871000   0.46994097   -9.0482265    543.11901 0.0092917096 0.0074818174            6 
 4872000   0.47116507   -9.0452399    543.33686 0.0092935286 0.0074792343            5 
 4873000   0.48171658   -9.0467434    542.83057 0.0092829634 0.0074766518            3 
 4874000   0.46023982   -9.0509394    542.80233  0.009280576 0.0074740683            8 
 4875000   0.46254025   -9.0361719    542.91387 0.0092805789 0.0074714884            5 
 4876000   0.46643255    -9.033219    543.09261 0.0092817304 0.0074689119            4 
 4877000    0.4689521   -9.0375683     542.0764 0.0092624633 0.0074663324            5 
 4878000    0.4640239   -9.0316154    542.37597 0.0092656821 0.0074637544            6 
 4879000   0.48564576   -9.0533332    542.93801 0.0092733828 0.0074611793            6 
 4880000   0.47025459   -9.0505236    543.20682 0.0092760728 0.0074586034            3 
 4881000   0.47858272   -9.0420406    543.13336 0.0092729181 0.0074560306            5 
 4882000   0.47032644   -9.0356846    542.74342 0.0092643626 0.0074534566            5 
 4883000   0.46819411   -9.0418571     541.9683 0.0092492372 0.0074508849            4 
 4884000   0.48390399   -9.0191454    543.14244 0.0092673772 0.0074483167            5 
 4885000   0.46697264   -9.0412346    543.12457 0.0092651752 0.0074457488            5 
 4886000   0.46945028   -9.0533098    542.43879 0.0092515826 0.0074431813            4 
 4887000   0.47278061   -9.0564317    542.25482 0.0092465525 0.0074406137            6 
 4888000   0.45802947   -9.0501453    542.70643   0.00925236 0.0074380487            5 
 4889000   0.46007449   -9.0434495    543.75509  0.009268342 0.0074354827            4 
 4890000   0.46771607   -9.0387662    542.47394 0.0092446139 0.0074329195            2 
 4891000   0.47096102   -9.0482077    542.55163 0.0092440474 0.0074303576            6 
 4892000   0.45953663   -9.0474946    543.10381 0.0092515639 0.0074277961            4 
 4893000   0.46351371   -9.0399896     542.0959 0.0092325074 0.0074252347            6 
 4894000   0.47570217   -9.0482679    542.06471 0.0092300897 0.0074226746            5 
 4895000   0.46242196   -9.0501442     543.2627 0.0092485989 0.0074201179           11 
 4896000   0.47110643   -9.0418203    542.19358 0.0092285127  0.007417559            4 
 4897000   0.46343404   -9.0487611    542.08568 0.0092247921 0.0074150044            4 
 4898000   0.47192325   -9.0705977    542.56711 0.0092310996 0.0074124489            6 
 4899000   0.47981562   -9.0399517    542.36663 0.0092258051 0.0074098949            6 
 4900000   0.47191955   -9.0610685    542.48851 0.0092259951 0.0074073423            5 
 4901000   0.48016103   -9.0480737    541.81601 0.0092126778  0.007404792            4 
 4902000   0.46253998   -9.0664992    542.16449 0.0092167226 0.0074022405            5 
 4903000   0.47215892   -9.0673027    542.32611 0.0092175897 0.0073996903            2 
 4904000   0.47071283   -9.0423711    542.66054 0.0092213931 0.0073971421            4 
 4905000   0.45813203   -9.0611331    542.64398 0.0092192317 0.0073945956            4 
 4906000   0.46940609   -9.0453031    542.16121 0.0092091523 0.0073920507            3 
 4907000   0.47350206   -9.0288231     542.3502  0.009210485 0.0073895073            5 
 4908000   0.47709569   -9.0523023    542.54248 0.0092118732 0.0073869652            3 
 4909000   0.46893299   -9.0419928     542.1247 0.0092029045 0.0073844232            4 
 4910000   0.48055478   -9.0390029     542.6909 0.0092106398 0.0073818844            5 
 4911000   0.47102521   -9.0577756    542.35634 0.0092030872 0.0073793469            5 
 4912000   0.45649429   -9.0568724     541.8898 0.0091932988 0.0073768092            7 
 4913000   0.46454077   -9.0477567    542.95558 0.0092095051 0.0073742724            5 
 4914000    0.4678294   -9.0476862    542.10266 0.0091931668 0.0073717357            4 
 4915000   0.46534457   -9.0452006    543.55297 0.0092158862 0.0073692022            4 
 4916000   0.45454514   -9.0392016    542.26395 0.0091921608 0.0073666683            7 
 4917000   0.47635031   -9.0632983    542.82526 0.0091998044 0.0073641382            5 
 4918000   0.46880235   -9.0717189    542.70699 0.0091959297 0.0073616076            9 
 4919000   0.46617877   -9.0436991    541.49954 0.0091736047 0.0073590761            2 
 4920000   0.46839138   -9.0479053    542.49763 0.0091886455 0.0073565467            3 
 4921000   0.46542843   -9.0586435    542.60846  0.009188655 0.0073540196            3 
 4922000   0.46367518   -9.0414238    542.05895 0.0091774846 0.0073514934            3 
 4923000   0.46782949   -9.0592486    542.99678 0.0091914954 0.0073489656            4 
 4924000   0.46961895   -9.0601796    542.48789 0.0091810162 0.0073464404            4 
 4925000   0.47774213   -9.0427726     542.3008 0.0091759864 0.0073439175            6 
 4926000   0.46445976    -9.062426    542.79454 0.0091824764  0.007341395            4 
 4927000   0.46467341   -9.0524808    542.36433 0.0091733363 0.0073388725            5 
 4928000   0.45678081   -9.0648734    542.19993 0.0091686948 0.0073363512            4 
 4929000   0.45442227   -9.0658015    542.82139 0.0091773413 0.0073338331            4 
 4930000    0.4531617   -9.0510292    541.68332 0.0091562427 0.0073313155            4 
 4931000   0.46492475   -9.0641427    541.56928 0.0091524586 0.0073287994            4 
 4932000    0.4629057   -9.0539036    542.34392 0.0091636915 0.0073262836            6 
 4933000    0.4528735   -9.0619003     541.9508 0.0091551929 0.0073237686            5 
 4934000   0.46295473   -9.0691738    541.65157 0.0091482836 0.0073212564            3 
 4935000   0.46492127   -9.0616728    542.95043 0.0091683626 0.0073187426            9 
 4936000    0.4638406   -9.0618812    541.72541 0.0091458234 0.0073162292            5 
 4937000   0.46882357   -9.0507686    542.63323 0.0091592943 0.0073137187            4 
 4938000    0.4538545   -9.0608751    542.69817 0.0091585354 0.0073112101           10 
 4939000    0.4643711   -9.0680903     542.6629 0.0091560859 0.0073087005            6 
 4940000   0.46133479   -9.0623126    542.48524 0.0091512355 0.0073061932            4 
 4941000   0.45995948   -9.0616277    542.24483 0.0091453287 0.0073036875            7 
 4942000   0.46947945   -9.0441184    541.82811 0.0091364513 0.0073011818            4 
 4943000   0.45936798   -9.0575164    542.44938 0.0091450769 0.0072986782            6 
 4944000   0.46655546   -9.0667846     542.4398 0.0091430656 0.0072961749            9 
 4945000   0.46454901   -9.0464591     542.0463 0.0091345855 0.0072936745            4 
 4946000   0.45020613   -9.0732041    542.33841 0.0091376602 0.0072911738            7 
 4947000   0.45456879   -9.0734092    541.98485 0.0091298572 0.0072886736            4 
 4948000   0.44821884   -9.0655329    542.49298 0.0091365701 0.0072861754            6 
 4949000   0.44516128   -9.0551679    542.77525 0.0091394768 0.0072836782            8 
 4950000   0.46074328   -9.0752765    542.44317 0.0091320399 0.0072811814            4 
 4951000   0.46104989   -9.0568341    541.71055 0.0091178642 0.0072786861            3 
 4952000   0.46129172   -9.0751268    542.78385 0.0091340847 0.0072761929            5 
 4953000   0.46227421   -9.0637411    541.91308   0.00911759 0.0072737027            5 
 4954000   0.46385981   -9.0663101    543.26294  0.009138456 0.0072712118            3 
 4955000   0.46008138   -9.0664214    542.43629 0.0091227092 0.0072687223            4 
 4956000    0.4564333   -9.0547905    542.18094 0.0091165748 0.0072662332            6 
 4957000    0.4693425    -9.053336    542.84575  0.009125912 0.0072637469            4 
 4958000   0.45284983   -9.0679117    542.42436 0.0091169888 0.0072612623            3 
 4959000   0.45477267   -9.0603699    542.35314 0.0091139533 0.0072587771            5 
 4960000   0.45984999     -9.06077     542.0831  0.009107579 0.0072562958            5 
 4961000   0.45993523   -9.0255756    542.16243 0.0091070756 0.0072538144            3 
 4962000    0.4581667   -9.0710676    541.87269 0.0091003743  0.007251336            4 
 4963000   0.45412865   -9.0691496    541.85949  0.009098319 0.0072488572            2 
 4964000   0.45197944   -9.0683033    542.25922 0.0091031967 0.0072463784            4 
 4965000   0.45162761   -9.0633965    542.76282 0.0091098158 0.0072438992            7 
 4966000   0.45269468   -9.0503628    541.85317 0.0090927166 0.0072414213            5 
 4967000     0.460206   -9.0682966    542.03708 0.0090939716 0.0072389432           13 
 4968000   0.46079193   -9.0651704    542.15957 0.0090941957 0.0072364706            5 
 4969000   0.45121253   -9.0538864    541.90618  0.009088116 0.0072339964            6 
 4970000   0.46071286   -9.0726468    542.38813 0.0090943684  0.007231523            7 
 4971000    0.4528718   -9.0560201    541.91781 0.0090846545 0.0072290496            7 
 4972000   0.43799051   -9.0715289    541.99055 0.0090840466 0.0072265786            4 
 4973000   0.44285894   -9.0813446    542.44176 0.0090897807 0.0072241076            3 
 4974000   0.45819911   -9.0733707    542.54248 0.0090896409 0.0072216373            7 
 4975000   0.46100886   -9.0630058    543.36997 0.0091016746 0.0072191708            5 
 4976000   0.45275501   -9.0576046    541.82221  0.009073925 0.0072167045            6 
 4977000   0.45893023   -9.0746972    542.73583 0.0090873992 0.0072142367            4 
 4978000    0.4619421   -9.0644919    541.26774 0.0090609974 0.0072117699            7 
 4979000   0.46110036   -9.0810917    542.06599 0.0090725378 0.0072093054            7 
 4980000   0.45260022   -9.0692592    542.20425 0.0090730296  0.007206844            3 
 4981000   0.46070126   -9.0766639    542.22903 0.0090716226 0.0072043809            3 
 4982000   0.44920162   -9.0561292    541.22895 0.0090530736 0.0072019228            6 
 4983000    0.4472027   -9.0692403    542.67356 0.0090754158 0.0071994634            4 
 4984000   0.46309501   -9.0749763    542.46409 0.0090700924 0.0071970047            6 
 4985000   0.45266963   -9.0557399    542.10484 0.0090622675  0.007194549            8 
 4986000   0.46018162   -9.0580564    542.14631  0.009061143 0.0071920953            3 
 4987000   0.45645215   -9.0793718    541.83908 0.0090541922  0.007189641            7 
 4988000   0.46501935   -9.0816138     542.3498 0.0090609094  0.007187189            4 
 4989000   0.45726839   -9.0627185     541.7753 0.0090494972 0.0071847365            9 
 4990000   0.46602776   -9.0555058    541.98096 0.0090511182  0.007182282            4 
 4991000   0.45096676   -9.0635458    541.73193 0.0090451467   0.00717983            5 
 4992000   0.45127025   -9.0761899    541.58386 0.0090408631 0.0071773795            5 
 4993000   0.45289751   -9.0782961    542.14629 0.0090484394 0.0071749315            9 
 4994000    0.4472833    -9.058351    542.29168 0.0090490536 0.0071724842            4 
 4995000   0.45291838   -9.0492192    542.09386 0.0090439416 0.0071700378            6 
 4996000   0.44956087    -9.068079    541.86709 0.0090383489 0.0071675908            5 
 4997000   0.46088915   -9.0671529    541.60218 0.0090321223 0.0071651463            5 
 4998000   0.44024828   -9.0739251    542.70685 0.0090487337 0.0071627022            4 
 4999000   0.44861082   -9.0545484    542.45008 0.0090426431 0.0071602613            4 
 5000000   0.45160971    -9.079297     542.6137 0.0090435617 0.0071578198            6 
 5001000   0.45423201   -9.0720418    542.37719 0.0090378123 0.0071553814            5 
 5002000   0.45744977   -9.0708324    541.56618  0.009022494 0.0071529415            3 
 5003000   0.45398843   -9.0734128    542.68818 0.0090393794 0.0071505038            8 
 5004000   0.45630675   -9.0861623    541.04451 0.0090102003 0.0071480659            4 
 5005000   0.45305278   -9.0726417    542.22827 0.0090281098 0.0071456294            5 
 5006000   0.44868874   -9.0644173    542.59482  0.009032408 0.0071431955            4 
 5007000   0.46378881   -9.0771744      541.396 0.0090106517 0.0071407624            7 
 5008000   0.44275924   -9.0731055    542.17629 0.0090218366 0.0071383297            4 
 5009000   0.45545604   -9.0745333    542.04724 0.0090178884 0.0071358979            6 
 5010000   0.45688915   -9.0708377    542.09817 0.0090169356 0.0071334661            6 
 5011000   0.45284477   -9.0754763    541.06409 0.0089979394 0.0071310371            5 
 5012000   0.45355579   -9.0810658    541.86108 0.0090093955 0.0071286092            8 
Loop time of 12509.4 on 48 procs for 5000000 steps with 4000 atoms

Performance: 69068.125 tau/day, 399.700 timesteps/s
99.4% CPU use with 48 MPI tasks x no OpenMP threads

MPI task timing breakdown:
Section |  min time  |  avg time  |  max time  |%varavg| %total
---------------------------------------------------------------
Pair    | 841.84     | 912.4      | 974.35     |  95.2 |  7.29
Neigh   | 82.166     | 85.902     | 88.785     |  16.0 |  0.69
Comm    | 782.31     | 853.85     | 928.59     | 113.2 |  6.83
Output  | 13.975     | 13.979     | 14.05      |   0.3 |  0.11
Modify  | 10505      | 10528      | 10556      |  14.0 | 84.16
Other   |            | 114.9      |            |       |  0.92

Nlocal:        83.3333 ave          90 max          77 min
Histogram: 2 3 4 9 9 4 10 2 3 2
Nghost:        2218.06 ave        2237 max        2201 min
Histogram: 5 3 4 8 6 8 1 7 3 3
Neighs:        14834.6 ave       16652 max       13482 min
Histogram: 3 4 9 8 6 7 4 4 1 2
FullNghs:      29668.7 ave       32241 max       27220 min
Histogram: 2 3 4 9 6 9 7 3 4 1

Total # of neighbors = 1424098
Ave neighs/atom = 356.02450
Neighbor list builds = 266772
Dangerous builds = 0

#clear
#
#next RN
#
#jump SELF
Total wall time: 3:28:32
