
units lj                  # Use reduced LJ style units
atom_style atomic         # Uncharged point particles
atom_modify map hash      # Needed for indexing of clusters etc
                          # Used to be able to find where atoms are in relation to each other.

lattice fcc 1.0 spacing 1 1 1
Lattice spacing in x,y,z = 1.5874011 1.5874011 1.5874011
region box block 0 10 0 10 0 10 units lattice
create_box 2 box
Created orthogonal box = (0.0000000 0.0000000 0.0000000) to (15.874011 15.874011 15.874011)
  3 by 4 by 4 MPI processor grid
create_atoms 1 box
Created 4000 atoms
  using lattice units in orthogonal box = (0.0000000 0.0000000 0.0000000) to (15.874011 15.874011 15.874011)
  create_atoms CPU = 0.015 seconds
set type 1 type/fraction 2 0.66 78393
Setting atom values ...
  2654 settings made for type/fraction
mass 1 1.0
mass 2 1.0
pair_style lj/cut  3.5
pair_modify tail  yes
pair_coeff 1  1  1.0  1.0   # Intearaction between 1 and 1 set with epsilon = 1 and sigma = 1
pair_coeff 1  2  1.5  0.8
pair_coeff 2  2  0.5  0.88

write_data data.0
System init for write_data ...
Neighbor list info ...
  update every 1 steps, delay 10 steps, check yes
  max neighbors/atom: 2000, page size: 100000
  master list distance cutoff = 3.8
  ghost atom cutoff = 3.8
  binsize = 1.9, bins = 9 9 9
  1 neighbor lists, perpetual/occasional/extra = 1 0 0
  (1) pair lj/cut, perpetual
      attributes: half, newton on
      pair build: half/bin/atomonly/newton
      stencil: half/bin/3d
      bin: standard
WARNING: Not all mixed pair coeffs generated from mixing. Use write_data with 'pair ij' option to store all pair coeffs. (../write_data.cpp:312)


#############################
#   M E L T   S Y S T E M   #
#############################

velocity all create 2.4 5300450 mom yes dist gaussian # Assign velocities
                                                    # Temperature 2.4, random number seed, zero linear momentum
                                                                                # Gaussian distribution

timestep 0.002   # simulation timestep
thermo 1000       # output thermodynamic data every 1000 steps bf 100

# Define a fix  in this case with index 1 applied to all
# particles in the simulation. This fix is for simulations
# in the anisotropic NPT ensemble. Note that we use the MTK
# correction.
fix 1 all npt temp 2.4 2.4 0.1 iso 5.68 5.68 0.5 mtk yes tchain 5 pchain 5 # Use NPT ensemble
                                                                         # Set temperature and pressure and damping
                                                                         # Numbers of thermostats in chain and in barostat
run 10000          # run for 10000 steps
Per MPI rank memory allocation (min/avg/max) = 3.642 | 3.644 | 3.648 Mbytes
Step Temp E_pair E_mol TotEng Press Volume 
       0          2.4   -4.3965799            0  -0.79747995   -3.9040118         4000 
    1000     2.421701   -4.0887033            0  -0.45705986    5.7580251    3627.3599 
    2000    2.3925134   -4.0430328            0  -0.45515984    5.7022885    3652.7816 
    3000    2.4348161   -4.0528901            0  -0.40157901    5.6827976    3653.9878 
    4000    2.3466479     -4.03192            0  -0.51282814    5.9944041    3625.3744 
    5000    2.3500165   -4.1072626            0  -0.58311905    5.8728028    3598.3282 
    6000     2.405422   -4.0677137            0  -0.46048279    5.5252568     3666.258 
    7000    2.4022507   -4.0826802            0  -0.48020499    5.3717638    3656.2239 
    8000    2.3493954    -4.102873            0  -0.57966103    5.5333313    3627.3921 
    9000    2.4277505   -4.1378507            0  -0.49713534    5.7805413    3590.3043 
   10000     2.336878   -4.1340675            0  -0.62962689    5.8679193    3579.1338 
Loop time of 2.67713 on 48 procs for 10000 steps with 4000 atoms

Performance: 645468.364 tau/day, 3735.349 timesteps/s
99.6% CPU use with 48 MPI tasks x no OpenMP threads

MPI task timing breakdown:
Section |  min time  |  avg time  |  max time  |%varavg| %total
---------------------------------------------------------------
Pair    | 1.2228     | 1.2671     | 1.4108     |   3.2 | 47.33
Neigh   | 0.2167     | 0.22227    | 0.23911    |   1.0 |  8.30
Comm    | 0.7548     | 0.90151    | 0.96949    |   4.0 | 33.67
Output  | 0.00024777 | 0.000258   | 0.00053868 |   0.0 |  0.01
Modify  | 0.24401    | 0.26972    | 0.31394    |   4.2 | 10.08
Other   |            | 0.01627    |            |       |  0.61

Nlocal:        83.3333 ave          92 max          73 min
Histogram: 1 2 3 7 8 8 8 4 4 3
Nghost:        1771.98 ave        1803 max        1753 min
Histogram: 4 7 7 9 7 3 6 3 1 1
Neighs:        10670.2 ave       11990 max        9153 min
Histogram: 1 1 5 6 11 6 5 4 6 3

Total # of neighbors = 512172
Ave neighs/atom = 128.04300
Neighbor list builds = 897
Dangerous builds = 170

# Equilibrate just above the melting temperature to avoid step fn in T

fix 1 all npt temp 1.25 1.25 0.1 iso 5.68 5.68 0.5 mtk yes tchain 5 pchain 5
run 2000
Per MPI rank memory allocation (min/avg/max) = 3.644 | 3.646 | 3.650 Mbytes
Step Temp E_pair E_mol TotEng Press Volume 
   10000     2.336878   -4.1340675            0  -0.62962689    5.8679193    3579.1338 
   11000    1.2477486   -6.0225956            0   -4.1514406    5.6019114    2772.1673 
   12000     1.264715   -6.1034252            0    -4.206827    5.8445917    2745.5184 
Loop time of 0.676657 on 48 procs for 2000 steps with 4000 atoms

Performance: 510746.269 tau/day, 2955.708 timesteps/s
99.6% CPU use with 48 MPI tasks x no OpenMP threads

MPI task timing breakdown:
Section |  min time  |  avg time  |  max time  |%varavg| %total
---------------------------------------------------------------
Pair    | 0.29663    | 0.32578    | 0.39085    |   3.0 | 48.15
Neigh   | 0.040755   | 0.043871   | 0.050899   |   0.9 |  6.48
Comm    | 0.18634    | 0.25726    | 0.2916     |   3.9 | 38.02
Output  | 5.1901e-05 | 5.3271e-05 | 6.8401e-05 |   0.0 |  0.01
Modify  | 0.04033    | 0.044789   | 0.048747   |   1.2 |  6.62
Other   |            | 0.004905   |            |       |  0.72

Nlocal:        83.3333 ave          92 max          77 min
Histogram: 4 4 11 2 8 5 8 2 3 1
Nghost:        2121.27 ave        2138 max        2098 min
Histogram: 1 1 3 5 8 6 5 9 6 4
Neighs:        13912.4 ave       15787 max       12511 min
Histogram: 3 6 5 8 8 8 3 2 3 2

Total # of neighbors = 667794
Ave neighs/atom = 166.94850
Neighbor list builds = 143
Dangerous builds = 14

#############################
# L I N E A R  Q U E N C H  #
#############################

# Define solid atoms. This closely follows ten Wolde  Ruiz-Montero and Frenkel  Faraday Discuss  1996  104  93-110
# Compute components of the per-atom q6 vector
compute q6 all orientorder/atom degrees 1 6 components 6 nnn NULL cutoff 1.3 # compute the Q6 parameter.
                                                                             # Use all neighbours within 1.3 unit cell.

# get number of connections
compute coord_number all coord/atom orientorder q6 0.5

# An atom is solid if it has 8 or more connections (of a possible 14)
variable is_solid atom c_coord_number>=8
group solid dynamic all var is_solid    # Must be dynamic to update
dynamic group solid defined

# do clustering
compute cluster solid cluster/atom 1.3 # Create a cluster where all atoms within are solid and max 1.3 units from another member

# define chunks one chunk per cluster
compute clus_chunks solid chunk/atom c_cluster nchunk every compress yes  # Says which atoms are in which chunk

# count the size of each chunk
compute size_chunks solid property/chunk clus_chunks count


# Find the maximum entry in the vector of chunk sizes
variable max_n equal max(c_size_chunks)


# Thermo style which includes this variable
# thermo_style custom step temp pe vol v_max_n

thermo ${N}  # Print the thermo information every 100 steps
thermo 1000  

# Reset the npt fix at a lower temperature (below freezing)
fix 1  all npt temp  ${temp} ${temp}  0.1  iso  5.68  5.68  0.5  mtk yes tchain  5  pchain  5
fix 1  all npt temp  0.45 ${temp}  0.1  iso  5.68  5.68  0.5  mtk yes tchain  5  pchain  5
fix 1  all npt temp  0.45 0.45  0.1  iso  5.68  5.68  0.5  mtk yes tchain  5  pchain  5

dump dmp2 all dcd ${N} traj.dcd
dump dmp2 all dcd 1000 traj.dcd


compute msd all msd com yes
variable twopoint equal c_msd[4]/6/(step*dt+1.0e-6)
fix 9 all vector 10 c_msd[4]
variable fit equal slope(f_9)/6/(10*dt)
thermo_style custom step temp pe c_msd[4] v_twopoint v_fit v_max_n

fix 1 all npt temp 1.25 ${temp} 0.1 iso 5.68 5.68 0.5 mtk yes tchain 5 pchain 5
fix 1 all npt temp 1.25 0.45 0.1 iso 5.68 5.68 0.5 mtk yes tchain 5 pchain 5
run 2000000 # 5000000  # Run for this many steps
Neighbor list info ...
  update every 1 steps, delay 10 steps, check yes
  max neighbors/atom: 2000, page size: 100000
  master list distance cutoff = 3.8
  ghost atom cutoff = 3.8
  binsize = 1.9, bins = 8 8 8
  4 neighbor lists, perpetual/occasional/extra = 1 3 0
  (1) pair lj/cut, perpetual
      attributes: half, newton on
      pair build: half/bin/atomonly/newton
      stencil: half/bin/3d
      bin: standard
  (2) compute orientorder/atom, occasional
      attributes: full, newton on
      pair build: full/bin/atomonly
      stencil: full/bin/3d
      bin: standard
  (3) compute coord/atom, occasional
      attributes: full, newton on
      pair build: full/bin/atomonly
      stencil: full/bin/3d
      bin: standard
  (4) compute cluster/atom, occasional
      attributes: full, newton on
      pair build: full/bin/atomonly
      stencil: full/bin/3d
      bin: standard
Per MPI rank memory allocation (min/avg/max) = 9.849 | 9.853 | 9.856 Mbytes
Step Temp PotEng c_msd[4] v_twopoint v_fit v_max_n 
   12000     1.264715   -6.1034252 1.686979e-30 1.1715132e-32 8.3333333e+20            3 
   13000    1.2691777   -6.0723299   0.56132899 0.0035982626  0.046290836            8 
   14000    1.2457423   -6.1017758    1.0960217 0.0065239384  0.044696391            2 
   15000    1.2850289   -6.0892057    1.6155246 0.0089751362  0.044254222            1 
   16000    1.2296161   -6.0838105    2.1874848   0.01139315  0.044531105            3 
   17000    1.2522399   -6.0972333    2.7052557  0.013261057  0.044719636            1 
   18000    1.2482846   -6.0724143    3.1908099  0.014772268  0.044468193            3 
   19000    1.2691563   -6.0942018    3.7009344  0.016232168  0.043866106            3 
   20000    1.2649043   -6.1064168    4.2319914  0.017633297  0.043733314            4 
   21000    1.2520536   -6.1132842    4.7256453   0.01875256  0.043625365            3 
   22000    1.2387501   -6.1120045    5.2401967  0.019849229  0.043478781            2 
   23000    1.2716179   -6.1240643    5.7434705  0.020809675  0.043309919            4 
   24000    1.2449181   -6.1171089    6.1963015  0.021514935  0.043087167            2 
   25000    1.2504834   -6.1283202    6.6249012  0.022083004  0.042741307            1 
   26000    1.2435749   -6.0735923    7.1842716  0.023026511  0.042513799            2 
   27000    1.2393606   -6.0983569    7.7599528  0.023950471  0.042474323            2 
   28000    1.2470133   -6.0574887    8.4073608  0.025021907  0.042618156            2 
   29000    1.2279699   -6.0959313    8.9340051  0.025672428  0.042800499            1 
   30000      1.25292   -6.1653092    9.4280352  0.026188986  0.042998177            3 
   31000    1.2689969   -6.1427498     9.988584  0.026851032  0.043143266            2 
   32000    1.2263694   -6.1094687    10.574077  0.027536657  0.043324965            1 
   33000    1.2300382   -6.1138296    11.070022    0.0279546  0.043444337            4 
   34000    1.2593346   -6.1444509    11.473347  0.028120948  0.043462929            2 
   35000    1.2342225   -6.0710802    12.047626  0.028684824  0.043461962            2 
   36000    1.2735946   -6.1483803    12.531298  0.029007634  0.043445634            1 
   37000    1.2347963   -6.1253225    13.004096  0.029288504   0.04343186            4 
   38000    1.2472271    -6.137644    13.565143  0.029748119  0.043424237            3 
   39000    1.2532758   -6.1130027    13.986724  0.029886161  0.043397056            4 
   40000    1.2102351   -6.1165159    14.518211  0.030246272  0.043328137            2 
   41000    1.2484285   -6.1284213    15.001232  0.030490308  0.043260763            3 
   42000    1.2442206   -6.1269453     15.58416  0.030920953  0.043226922            2 
   43000     1.210873     -6.05366    16.199909  0.031395172  0.043234637            2 
   44000    1.2371132   -6.1173368    16.556513  0.031357032  0.043203557            2 
   45000    1.2203555   -6.1729801    17.124199  0.031711479  0.043177467            5 
   46000    1.2477638   -6.0940055     17.58957  0.031865162  0.043123369            5 
   47000    1.2573973   -6.1307367    17.996113  0.031908002  0.043091122            2 
   48000    1.2559468   -6.1394074    18.544019  0.032194477  0.043040368            2 
   49000    1.2473347   -6.1187805    19.100347  0.032483582  0.043008011            4 
   50000    1.2303132   -6.1049732     19.62873  0.032714549  0.042992477            4 
   51000    1.2291141   -6.1294295    20.290756   0.03315483  0.042981871            2 
   52000    1.2183779   -6.1257959    20.795917   0.03332679  0.043000399            2 
   53000    1.2301448   -6.1280028    21.361836  0.033587792  0.043014659            3 
   54000    1.2482905   -6.1348566     21.65429  0.033417114  0.043011418            6 
   55000    1.2621346   -6.0911226    22.295092  0.033780442  0.042996477            2 
   56000    1.2243372   -6.1622678    22.760546  0.033869859  0.042999872            3 
   57000    1.2153795   -6.1151554    23.269328  0.034019486  0.043002168            2 
   58000    1.2353817   -6.1495088    23.633273  0.033955852  0.042984729            3 
   59000    1.2224225   -6.1311127    24.185751  0.034160665  0.042944869            2 
   60000     1.200246   -6.1402916    24.695219  0.034298914  0.042908094            2 
   61000    1.2229876   -6.1812546    25.059983  0.034234949  0.042876056            5 
   62000    1.2237547   -6.1740634    25.628886  0.034447427  0.042848722            5 
   63000    1.2323379   -6.1583216    26.155844  0.034597677  0.042822645            3 
   64000    1.1840192   -6.1354951    26.655321  0.034707449  0.042788216            4 
   65000    1.2293191    -6.090219    27.275012  0.034967963  0.042769771            2 
   66000    1.2627203   -6.1406306    27.586019  0.034830832  0.042732711            2 
   67000    1.2426185   -6.1520012    28.185233  0.035056259  0.042707574            2 
   68000    1.1923976    -6.146191    28.667972  0.035132318  0.042677692            1 
   69000    1.2493576   -6.1288366    29.164105  0.035222349  0.042649328            3 
   70000    1.2389242   -6.1421897    29.609622  0.035249549  0.042623157            2 
   71000     1.213423   -6.1503219    30.169048   0.03540968  0.042591642            2 
   72000    1.2304406   -6.1503679    30.445175  0.035237471  0.042558103            1 
   73000    1.2133347   -6.1580592    30.872341  0.035242399  0.042502597            4 
   74000    1.2298354   -6.1948614    31.397889  0.035357983   0.04243905            3 
   75000    1.2274894   -6.1225798    31.927913  0.035475459  0.042385514            1 
   76000    1.2316728    -6.133479    32.102741  0.035200373  0.042324643            1 
   77000    1.2149163   -6.1902587    32.415858  0.035082097   0.04224446            3 
   78000    1.2414768   -6.1795644     32.68922  0.034924381   0.04215294            4 
   79000    1.2612243   -6.1657957    33.284474  0.035110204  0.042058881            1 
   80000    1.2131357   -6.1368188    33.964032    0.0353792  0.041972909            2 
   81000    1.2235273   -6.1448542    34.438478  0.035430533  0.041902689            2 
   82000    1.2303451   -6.1978581    34.722183  0.035286771  0.041831426            2 
   83000    1.2154236   -6.1366426    35.232799  0.035374296  0.041756628            1 
   84000    1.2062029    -6.154842    35.655387  0.035372407   0.04168951            2 
   85000    1.2005832   -6.1833018    36.254619  0.035543744  0.041618646            1 
   86000    1.2228724   -6.1257961    36.831083  0.035689033  0.041557293            2 
   87000    1.1920811   -6.1721147    37.233995  0.035664746  0.041506623            4 
   88000    1.2482265    -6.158635    37.816279   0.03581087  0.041459329            5 
   89000    1.2174463   -6.1561615    38.415271  0.035969354   0.04141907            2 
   90000    1.2085828   -6.1744951    38.822083  0.035946373  0.041384914            2 
   91000    1.2528656   -6.1927821    39.143926  0.035846085  0.041347636            4 
   92000    1.1943209   -6.1285743    39.933471  0.036171622  0.041311755            1 
   93000     1.201644   -6.1658583    40.287272  0.036099706  0.041284521            3 
   94000    1.1923982   -6.1665504    40.860757  0.036224076  0.041252088            5 
   95000    1.2298885   -6.1601548    41.144822  0.036091949  0.041224658            3 
   96000    1.2251834   -6.1841152    41.689621  0.036188907  0.041195244            3 
   97000    1.2227858   -6.1782875    42.053072  0.036128069  0.041157524            2 
   98000    1.2320986   -6.1620184    42.550869  0.036182712  0.041119249            3 
   99000    1.2053963   -6.1673518    43.086914  0.036268446  0.041088284            2 
  100000    1.2427295   -6.1505283    43.641053  0.036367544  0.041062081            2 
  101000    1.1920031   -6.1539364    43.715322  0.036068748  0.041022942            5 
  102000    1.2152814   -6.1629341    44.296735  0.036190143  0.040984696            4 
  103000    1.2009222   -6.1842914    44.770991  0.036222485  0.040945386            2 
  104000    1.2098347   -6.1784808     45.14832  0.036176538  0.040910397            1 
  105000    1.2111598   -6.1822814    45.659555  0.036237742  0.040875125            2 
  106000    1.2435443   -6.2136026     45.88965  0.036076769  0.040834949            2 
  107000    1.1928194   -6.1352865    46.508947  0.036221921  0.040795839            2 
  108000     1.214523   -6.1859565    47.097798  0.036340894  0.040759493            1 
  109000    1.2104011   -6.1607311    47.443705  0.036271946  0.040723189            3 
  110000    1.2293595   -6.1652478    47.665109  0.036109931  0.040683551            3 
  111000    1.2366133   -6.1755419    48.185974  0.036175656  0.040637387            2 
  112000     1.246648   -6.1826248    48.821156  0.036325264  0.040598983            4 
  113000    1.1955651   -6.1827082    49.174931  0.036264698  0.040566901            2 
  114000    1.2211081   -6.1667365    49.763488  0.036376819  0.040529247            1 
  115000    1.2198195   -6.1742977    50.102216  0.036305954  0.040495604            3 
  116000    1.2209565   -6.1683687    50.580614  0.036336648  0.040459547            3 
  117000    1.2247645   -6.2059804    50.958377   0.03629514  0.040424332            2 
  118000    1.2070661   -6.1892764    51.264464  0.036203717  0.040381804            2 
  119000    1.1969731   -6.2345478    51.606316  0.036138877  0.040340518            2 
  120000    1.2105555   -6.1986932    52.045101  0.036142431  0.040297419            2 
  121000    1.2126992   -6.1962884    52.812327  0.036372126   0.04026199            4 
  122000    1.1873849   -6.1694561    53.395199  0.036472131   0.04023335            1 
  123000     1.218738    -6.165659    53.722477  0.036397342  0.040204938            3 
  124000    1.2064499    -6.209029    53.840103  0.036182865  0.040164772           10 
  125000    1.1599651   -6.1903781    54.102445  0.036068296  0.040119421            2 
  126000    1.2015147   -6.1804462    54.872676  0.036291452  0.040073172            4 
  127000    1.1943702   -6.1797963    55.192505  0.036215554  0.040027557            5 
  128000    1.2067577   -6.2174177    55.417699  0.036079231   0.03997994            2 
  129000    1.1909469   -6.2250214     55.83169  0.036066983   0.03992986            4 
  130000    1.1981143    -6.208443    56.306612  0.036093982  0.039883848            1 
  131000     1.219049   -6.1730258    56.959762  0.036233945  0.039839888            2 
  132000    1.1907796   -6.1847496    57.081085  0.036036039  0.039797363            2 
  133000    1.1981889   -6.2176082    57.648056  0.036120336  0.039751142            2 
  134000    1.1830213   -6.2031494     58.39854    0.0363175  0.039714787            1 
  135000    1.2062641   -6.1666449    59.056583  0.036454681  0.039687542            1 
  136000    1.1936915    -6.202137    59.340628  0.036360679  0.039657885            1 
  137000    1.1866161   -6.1840785    60.033045   0.03651645  0.039634433            2 
  138000     1.195446   -6.1912434    60.278373  0.036399983   0.03960982            4 
  139000    1.2101978   -6.1896679    60.770174  0.036432958  0.039581465            1 
  140000     1.206341    -6.190065    60.797509  0.036188993  0.039550515            2 
  141000    1.1980789   -6.2484657    61.166755  0.036150564  0.039517524            2 
  142000    1.1844072   -6.1696702    62.161118  0.036479529  0.039487865            3 
  143000    1.2327127   -6.2055478    62.687177  0.036530989  0.039465835            2 
  144000    1.2042751   -6.2019032    63.047492  0.036485817  0.039443931            2 
  145000    1.1990747   -6.2417472    63.163564  0.036300899  0.039425824            4 
  146000    1.2006871   -6.2136028    63.811639  0.036422168  0.039400757            2 
  147000    1.1561283   -6.1844504    64.072117  0.036322062  0.039371544            4 
  148000    1.2100443   -6.2541443    64.272928  0.036189712  0.039341865            3 
  149000     1.199158   -6.1937559    65.044908  0.036378584  0.039310597            4 
  150000    1.1810926   -6.2537731    65.219582  0.036233101  0.039277718            2 
  151000    1.1811382   -6.2221993    65.506809  0.036151661  0.039246652            6 
  152000    1.1995105   -6.2351844    65.989073   0.03617822  0.039217411            2 
  153000    1.1763196   -6.2221944    66.872425   0.03642289  0.039191392            2 
  154000    1.1749431   -6.1877488    67.065539  0.036290876  0.039161843            7 
  155000    1.2091517    -6.245281    67.656617  0.036374525  0.039136155            4 
  156000    1.1937004   -6.1903506    68.278112  0.036473351  0.039115407            2 
  157000    1.2020598    -6.219025    68.577076  0.036399722  0.039094991            3 
  158000    1.1902067   -6.2168848    69.100767  0.036445552    0.0390739            2 
  159000    1.1936113   -6.2599112    69.627299  0.036492295  0.039055848            2 
  160000    1.1834789   -6.2553258     70.05083  0.036484807  0.039037378            5 
  161000    1.1892056   -6.2143002    70.586945  0.036535686  0.039019066            5 
  162000    1.1882135   -6.2231805    71.031407  0.036538789  0.039004816            3 
  163000    1.2014457   -6.2352279     71.78391   0.03669934  0.038989889            4 
  164000    1.1699381    -6.233035     72.27347  0.036724324  0.038978958            5 
  165000    1.1742802   -6.2089648    72.864188  0.036800095  0.038971075            4 
  166000    1.2119853   -6.2165202    73.209748  0.036751881  0.038963478            3 
  167000    1.1865229   -6.2319624    73.752129  0.036802459  0.038955632            4 
  168000    1.1679784   -6.2871913    74.111746  0.036761778  0.038950379            2 
  169000     1.182242   -6.2375095    74.623271  0.036796484  0.038943394            2 
  170000     1.157711   -6.2068653    75.083847  0.036805807  0.038932848            7 
  171000    1.1939246   -6.2014856    75.607897  0.036845954  0.038922857            2 
  172000    1.1481189   -6.2486909    75.665468  0.036659626  0.038913118            2 
  173000    1.1983499   -6.2222326    76.255944   0.03673215  0.038902324            2 
  174000    1.1933915   -6.2049615    76.604891  0.036688166  0.038893562            1 
  175000     1.179219    -6.235666    77.385743  0.036850354  0.038886297            1 
  176000    1.1437345   -6.2272401    77.630988  0.036757096  0.038873847            5 
  177000    1.1923698    -6.258388    78.127633  0.036783254  0.038865515            2 
  178000    1.1797983   -6.2538308    78.239445  0.036628953  0.038853487            3 
  179000     1.172432   -6.2283225    78.700863  0.036639135  0.038842003            2 
  180000    1.1824877   -6.2629608    78.993653  0.036571136  0.038828376            5 
  181000    1.1756102   -6.1950133    79.770773  0.036726875   0.03881424            2 
  182000    1.1705749   -6.2827177    80.013398  0.036636171  0.038799846            5 
  183000    1.1849889   -6.2155809    80.904968  0.036841971  0.038785741            2 
  184000    1.1656203    -6.211764    81.405503  0.036868434  0.038777022            2 
  185000    1.1590063   -6.2363933    81.808234  0.036850556  0.038767332            4 
  186000    1.2189018   -6.2104704    82.392319  0.036914121  0.038760103            3 
  187000    1.1661445   -6.2265393    82.686693  0.036847902  0.038753272            3 
  188000    1.1773174   -6.2809563    82.706441  0.036660656   0.03874432            4 
  189000    1.1855312   -6.2501275    83.660001  0.036887125  0.038733976            2 
  190000    1.1842511   -6.2555389    84.135861  0.036901693   0.03872538            2 
  191000    1.1716907   -6.2479419    83.841827  0.036580204  0.038715167            2 
  192000    1.1733003   -6.2801291    84.272483  0.036576598   0.03870152            3 
  193000    1.1743388   -6.2155219    85.307298  0.036833894  0.038690326            2 
  194000    1.1748536    -6.226675    86.085637  0.036978366  0.038681229            6 
  195000    1.1974434   -6.2440738    86.377665  0.036913532  0.038675704            7 
  196000    1.1882054   -6.2555393    86.727377  0.036873884  0.038671017            1 
  197000    1.1517316   -6.2853125    86.955274  0.036783111  0.038663189            2 
  198000    1.1509125    -6.257745    87.468129  0.036813185  0.038653469            2 
  199000    1.1592013   -6.2379428    87.915474  0.036815525  0.038645339            4 
  200000    1.1705727   -6.2722683    88.146648   0.03672777  0.038638035            5 
  201000    1.1810012   -6.2393754    88.803001  0.036817165  0.038629487            4 
  202000    1.1793242   -6.2773935    89.018615  0.036723851  0.038620766            2 
  203000    1.1948329   -6.2264185    89.566925  0.036768031  0.038613936            2 
  204000    1.1902119   -6.2490017    90.332639  0.036900588  0.038608365            6 
  205000    1.1839673   -6.2988127    90.322366  0.036716409  0.038599108            2 
  206000    1.1845158   -6.2375143    91.006479  0.036814919   0.03859017            3 
  207000    1.1570492   -6.2424542    91.660152  0.036900222  0.038579107            2 
  208000    1.1692018    -6.269599     91.58813  0.036693962  0.038567466            2 
  209000    1.1985358   -6.2770899    92.619833  0.036929758  0.038556697            2 
  210000    1.1749646   -6.2714309     92.42248  0.036675587  0.038546358            2 
  211000    1.1720957   -6.2506998    93.237544  0.036823674  0.038537217            1 
  212000    1.1468916   -6.2371843    93.478536  0.036744708  0.038526286            3 
  213000    1.1575626   -6.3157177    93.609556  0.036623457  0.038512745            3 
  214000    1.1338655   -6.2870031    94.013941   0.03660979   0.03849913            3 
  215000    1.1727992   -6.2509965    95.087354  0.036855564  0.038487057            2 
  216000    1.1919392   -6.2488961    94.745749  0.036553144   0.03847521            3 
  217000    1.1642183   -6.2673728    95.033303  0.036495124  0.038457965            4 
  218000    1.1517333   -6.2883439    95.661666  0.036567915  0.038441858            3 
  219000    1.1816163   -6.2914855    95.900791   0.03649193  0.038422669            3 
  220000    1.1809907   -6.2991274     96.23313  0.036451943  0.038405209            3 
  221000    1.1697926   -6.2724073     96.54757  0.036405569  0.038386653            2 
  222000    1.1666106   -6.3247174    97.083508  0.036442758  0.038368962            4 
  223000    1.1668445   -6.2262647    97.975795  0.036612778   0.03835291            6 
  224000    1.1898414   -6.2832176    98.053108  0.036478091  0.038337031            2 
  225000    1.1520604   -6.2996004    98.622494   0.03652685  0.038320066            4 
  226000    1.1519073   -6.2604787    98.840499  0.036445612  0.038303478            4 
  227000    1.1797089   -6.2915462    99.615479  0.036569559  0.038286199            3 
  228000    1.1631064   -6.2739477    99.605688  0.036405587  0.038267451            5 
  229000    1.1624831    -6.320757    99.881355  0.036346927  0.038249441            3 
  230000    1.1689921   -6.3022818    100.59515   0.03644752  0.038231225            2 
  231000    1.1541376   -6.2990477    100.73281  0.036339396  0.038213874            3 
  232000     1.173928   -6.3228038    101.00508  0.036280562  0.038194284            6 
  233000    1.1779133   -6.2770002    101.39268  0.036263476  0.038175555            3 
  234000    1.1636184   -6.2836729    102.07526   0.03635159  0.038154333            2 
  235000    1.1630324    -6.259912    102.01739   0.03617638  0.038135692            1 
  236000    1.1492141   -6.3059756    102.79183  0.036296552  0.038115283            3 
  237000    1.1699558    -6.306839    102.97623  0.036208238  0.038094021            3 
  238000    1.1762927   -6.2831281    103.38088  0.036197788  0.038071958            3 
  239000    1.1524236   -6.3163044    104.10393  0.036298442  0.038050359            2 
  240000    1.1487047   -6.2721584    104.52507  0.036293425  0.038031885            3 
  241000    1.1418865   -6.3390547    105.28785  0.036406587  0.038016128            2 
  242000    1.1736913   -6.2961829    105.85415  0.036451153  0.038001677            5 
  243000    1.1568924   -6.2940135    106.45801  0.036508235  0.037991261            3 
  244000    1.1425523   -6.3139997    106.88232  0.036503525  0.037979471            9 
  245000    1.1651242   -6.3181938    107.21665   0.03646825  0.037968358            3 
  246000     1.181548   -6.3399089    107.86944  0.036541138  0.037957564            2 
  247000    1.1429482   -6.2985691    108.70105  0.036673768  0.037948818            2 
  248000    1.1470771   -6.3522506    108.66713  0.036514491  0.037940963            4 
  249000    1.1450857   -6.3774684    109.15432  0.036530896  0.037932576            3 
  250000    1.1944677   -6.3226196    109.99132  0.036663773  0.037925076            3 
  251000    1.1407005   -6.3401907    110.34073  0.036633707  0.037917403            6 
  252000    1.1592726   -6.3136862    109.93528   0.03635426  0.037909167            4 
  253000     1.168518   -6.3058339    110.57271  0.036420524  0.037898211            3 
  254000    1.1685143    -6.320203    111.51497  0.036586275  0.037887131            2 
  255000    1.1601487   -6.3139396    111.45949   0.03642467   0.03787772            2 
  256000    1.1502004   -6.3633189    111.64142  0.036341609  0.037866619            3 
  257000    1.1324437   -6.3118349    112.76683  0.036565119  0.037855293            3 
  258000     1.144472   -6.3321662    112.60184  0.036370104  0.037844161            6 
  259000    1.1481319   -6.3586575    112.81553  0.036298434  0.037830635            4 
  260000    1.1370076   -6.3350227    113.46059  0.036365575  0.037816328            2 
  261000    1.1462121   -6.3443055    113.23425  0.036153975  0.037802049            2 
  262000    1.1149111   -6.3087734    113.57612   0.03612472  0.037785971            3 
  263000    1.1460908   -6.3637882     114.1062  0.036155323  0.037768765            3 
  264000    1.1648767   -6.3340116    114.38578  0.036106624  0.037750005            4 
  265000    1.1814758   -6.3502894    114.57412  0.036029598  0.037730453            2 
  266000    1.1470065   -6.3263776    115.44907  0.036168256  0.037712132            2 
  267000    1.1498632   -6.3201534    115.62958  0.036089134    0.0376953            6 
  268000    1.1543533   -6.3206488    116.41421   0.03619845  0.037678586            3 
  269000    1.1437978   -6.3025855    116.70209  0.036153063  0.037664297            3 
  270000    1.1066366   -6.3207013    117.22692  0.036181147  0.037648966            3 
  271000    1.1401004   -6.3247053    117.71828  0.036198732  0.037634813            4 
  272000    1.1538091   -6.3603139     118.0444  0.036165563  0.037618553            5 
  273000    1.1538043   -6.3235732     118.3631  0.036130373  0.037602367            4 
  274000    1.1362096   -6.3716607    118.82739  0.036139717  0.037586513            3 
  275000    1.1527231   -6.2981774    119.00202  0.036061219  0.037568782            3 
  276000    1.1191585   -6.3493268    119.31372  0.036024673  0.037549847            6 
  277000    1.1563493   -6.3463836     119.3796   0.03591444   0.03752983            2 
  278000    1.1598965   -6.3579978    119.58235  0.035846029  0.037508794            2 
  279000    1.1440097   -6.3614697    119.99308  0.035840227  0.037487727            3 
  280000    1.1470667   -6.3473642    120.31503  0.035808045  0.037466898            4 
  281000    1.1652716   -6.3733621    121.04532  0.035897189  0.037447938            4 
  282000    1.1541744   -6.3445038    121.39035  0.035871852  0.037428201            2 
  283000    1.1293266   -6.2943905    121.98033  0.035918825  0.037410416            3 
  284000    1.1371775   -6.3589163    122.01064  0.035801243   0.03739235            2 
  285000    1.1551706   -6.3655466    122.25204   0.03574621  0.037374122            1 
  286000     1.132774   -6.3589251    122.89731  0.035809239  0.037355523            2 
  287000    1.1246319   -6.3474773    123.26489    0.0357912   0.03733676            3 
  288000    1.1473723   -6.3434598    123.33673  0.035687711  0.037316645            7 
  289000    1.1334315   -6.3246355    123.58247  0.035635084   0.03729469            3 
  290000    1.1296719   -6.3611855    123.36089  0.035448533  0.037272152            5 
  291000    1.1366052   -6.3603388    123.99108  0.035507183  0.037250616            3 
  292000    1.1661947   -6.3511944    124.70338  0.035588863  0.037228335            6 
  293000    1.1475127   -6.3209353    125.21521  0.035612971  0.037206005            2 
  294000    1.1474726   -6.3732547    124.79956  0.035374026  0.037182434            5 
  295000    1.1563235   -6.3003594    125.97827  0.035587081  0.037160107            2 
  296000    1.1469466   -6.3343701    126.02904  0.035481148  0.037138651            2 
  297000    1.1246412   -6.3756115    126.60165  0.035522349  0.037116271            2 
  298000     1.136667   -6.3285697    127.32052  0.035604171  0.037094264            2 
  299000    1.1398705   -6.3319916    127.77466  0.035611666  0.037072738            5 
  300000    1.1356278   -6.3411672    128.15086  0.035597461  0.037052275            3 
  301000     1.126158   -6.3236685    128.49587  0.035574714  0.037031748            3 
  302000     1.132076   -6.3227514    128.82327  0.035547259  0.037009896            2 
  303000    1.1218854   -6.3260948    129.21083  0.035536531  0.036989725            3 
  304000     1.155985   -6.3990498    129.33272  0.035453049  0.036967571            3 
  305000    1.1487576   -6.3718116    129.55266  0.035396902  0.036944374            2 
  306000    1.1512351   -6.3698017     129.4428  0.035251306  0.036921651            2 
  307000    1.1327521   -6.3852293    129.89714  0.035259809  0.036898223            4 
  308000    1.1428556   -6.3614251    130.36865  0.035272903  0.036874623            4 
  309000    1.1295262   -6.3660699    130.98553  0.035325115  0.036851917            5 
  310000    1.1444109   -6.3621125    131.55356   0.03536386  0.036831715            3 
  311000    1.1059249   -6.3514545    132.14398  0.035408356  0.036811242            5 
  312000    1.1362931   -6.3446264    132.52506  0.035396652  0.036789925            5 
  313000    1.1337999   -6.3794866     132.3829  0.035245713  0.036768221            3 
  314000    1.1257905   -6.3732346    133.22513  0.035356988  0.036746661            2 
  315000    1.1440769   -6.4158866    133.34751   0.03527712  0.036725391            5 
  316000    1.1196818   -6.3918417    133.77365   0.03527786   0.03670475            8 
  317000    1.1244477   -6.3708199    134.03883  0.035236286   0.03668375            1 
  318000    1.1295181   -6.3486172    134.99284  0.035375482  0.036662767            3 
  319000    1.1457816   -6.3601708    134.87629   0.03523414   0.03664151            3 
  320000    1.1474795   -6.3753017     135.6257  0.035319192  0.036621285            4 
  321000    1.1008212   -6.3533793    135.70532  0.035229833   0.03660037            3 
  322000    1.1414139   -6.4100976    135.58499  0.035089283  0.036579912            3 
  323000     1.130765    -6.388017    136.51301  0.035220074  0.036558343            4 
  324000    1.1291617   -6.3944254    136.90998  0.035213471  0.036538108            2 
  325000    1.1190962   -6.3821506     137.4377  0.035240435  0.036519361            3 
  326000     1.136027   -6.3833773    137.51376  0.035151778  0.036500088            2 
  327000    1.1394431   -6.3675222    138.77516  0.035365739  0.036481545            3 
  328000    1.1215396   -6.3942099    138.35173  0.035150337  0.036462226            3 
  329000    1.1119156   -6.3640709     138.7541  0.035145415  0.036443071            5 
  330000     1.139608   -6.3606839    139.14349  0.035137246  0.036423838            7 
  331000    1.1243751   -6.3922281    139.37403  0.035089132   0.03640334            1 
  332000    1.1290353   -6.3924324    139.71472  0.035068955  0.036381154            2 
  333000    1.1369804   -6.4151141    139.36972  0.034877308  0.036358845            2 
  334000    1.1431872   -6.3852491    139.77484  0.034873962  0.036335736            5 
  335000    1.1155611    -6.399343    140.25977  0.034890491  0.036311853            2 
  336000    1.1025471   -6.3845083    141.00559  0.034971625  0.036288767            5 
  337000    1.1238009   -6.4728136    141.05419  0.034879869  0.036266858            5 
  338000    1.1155573   -6.4053436    141.47329  0.034880001  0.036245543            3 
  339000    1.1078736   -6.3990334    141.93803  0.034891355  0.036223926            5 
  340000    1.1318095   -6.4336419    141.83367  0.034763155  0.036199976            2 
  341000    1.1160891   -6.4253023    141.10662  0.034483534  0.036174881            3 
  342000    1.1262191    -6.394739      142.321  0.034678607  0.036149727            4 
  343000    1.1252006   -6.4103787    142.12257  0.034529292  0.036124977            3 
  344000    1.1191933   -6.3901616    142.60789  0.034546486  0.036100115            3 
  345000    1.1123798   -6.3771703    143.12942  0.034572324  0.036073931            3 
  346000    1.0827361   -6.3725596    143.65461  0.034598895  0.036049557            4 
  347000    1.1221035   -6.3681668    144.50362  0.034703079   0.03602377            6 
  348000    1.0972598   -6.3816544    143.80503  0.034436069  0.035997082            3 
  349000    1.1125881   -6.4091797    144.44008  0.034489034  0.035971107            4 
  350000    1.1332911   -6.4229219    144.91672  0.034503981  0.035946013            4 
  351000    1.1112989   -6.4291734      144.784   0.03437417  0.035921381            4 
  352000    1.1241983   -6.4140305    145.83493  0.034525315  0.035896956            2 
  353000    1.1005546   -6.4014804    146.49497  0.034583327  0.035873509            3 
  354000    1.1074907   -6.3886454    146.26995  0.034432661  0.035848789            2 
  355000    1.0981613   -6.4039414    147.01144  0.034509727  0.035824168            4 
  356000    1.0747535    -6.444772    146.63812  0.034325404  0.035798717            2 
  357000    1.1387661   -6.4650711     146.9342  0.034298366   0.03577312            4 
  358000    1.1286562   -6.3829001    147.35306  0.034300062  0.035747579            3 
  359000    1.1194839   -6.4316377    147.47151  0.034232013  0.035721293            8 
  360000    1.1095657   -6.4231727    148.18616  0.034302352  0.035695127            2 
  361000    1.0948196   -6.4684462    148.31772    0.0342377  0.035669747           10 
  362000    1.1259904   -6.4605888    148.27893  0.034134193  0.035644018            4 
  363000    1.1198692   -6.4814408    148.70179  0.034137233  0.035617826            6 
  364000    1.1006987   -6.4147685     149.6279  0.034255471  0.035591957            2 
  365000    1.1217228   -6.4461774    149.58959  0.034152874  0.035566242            5 
  366000    1.0958736   -6.4093453    150.44487  0.034254295  0.035541363            2 
  367000    1.1190336   -6.4127962    150.64619  0.034206674  0.035516064            7 
  368000    1.1056345   -6.4277446    150.72687   0.03413199  0.035490948            3 
  369000    1.1096158   -6.4545213     150.7581  0.034046546  0.035466097            4 
  370000    1.0963695   -6.4122584    151.22917  0.034060623  0.035440674            7 
  371000    1.0904464   -6.4501525    151.31679  0.033988497  0.035415208            5 
  372000     1.122555   -6.4016271      152.359  0.034130601  0.035390229            1 
  373000    1.0963222   -6.4481158     152.5473  0.034081167  0.035365555            4 
  374000    1.0887155   -6.4684956    152.46186  0.033971003  0.035340244            4 
  375000    1.1210674   -6.4707103    153.07544  0.034016765  0.035316298            3 
  376000    1.0929692   -6.4493363    153.78714   0.03408403  0.035293098            5 
  377000    1.1079122   -6.4568674    154.40205  0.034129543  0.035270362            2 
  378000    1.0955562    -6.441358    154.40813  0.034040594  0.035246893            6 
  379000    1.0968005   -6.4280077     154.7425  0.034024297  0.035223867            5 
  380000    1.1013754   -6.4465864    155.10537  0.034014336  0.035201692            7 
  381000    1.0951244   -6.4788297    155.11938  0.033928124   0.03517864            4 
  382000    1.1165764   -6.5010368    154.98707  0.033810443  0.035154766            3 
  383000    1.1143193   -6.4669351    155.70868  0.033879173  0.035131566            4 
  384000    1.1030149   -6.4506089    156.47432  0.033957101  0.035109285            3 
  385000    1.1166414   -6.4532143    156.37786  0.033848022  0.035085779            8 
  386000    1.0978828   -6.4671392    156.70343  0.033830619  0.035062787            5 
  387000      1.07003   -6.4563363    157.06829  0.033821767  0.035039666            4 
  388000     1.104125   -6.4372652      157.715  0.033873497  0.035015966            3 
  389000    1.0978279   -6.4375589    157.77131  0.033798481   0.03499245            4 
  390000    1.0955803   -6.4719325    157.77008  0.033711555  0.034969237            5 
  391000    1.1135065   -6.5038448    157.84191  0.033640646  0.034944947            1 
  392000    1.0767981   -6.4743181    158.46613  0.033687527  0.034920246            5 
  393000    1.0774656   -6.4632124    158.24837  0.033555634  0.034896345            5 
  394000    1.1009621    -6.469896    159.13794  0.033658616  0.034872136            4 
  395000    1.1083922   -6.4965881    159.19997  0.033586492   0.03484717            2 
  396000    1.0818092   -6.5000409    159.92713    0.0336547  0.034823736            4 
  397000    1.0977801   -6.4389844    159.79527  0.033542247  0.034799614            6 
  398000    1.0953155   -6.4474343    160.28562  0.033560641  0.034775217            1 
  399000    1.1079968   -6.4644379    160.25191  0.033469488   0.03475028            4 
  400000    1.1129296   -6.4585808    160.75805   0.03349126   0.03472584            5 
  401000    1.1026724   -6.4775189    161.31062  0.033522572  0.034701654            2 
  402000    1.1162321   -6.4853768    160.86076  0.033345928  0.034677503            2 
  403000     1.111679   -6.4974175    161.73157  0.033443252  0.034652542            3 
  404000    1.0992165   -6.4466042    162.33933  0.033485835  0.034628387            5 
  405000    1.0866839   -6.4332778    162.19653  0.033373772  0.034604217            1 
  406000    1.0938132   -6.4895119    162.69413  0.033393704  0.034580355            3 
  407000    1.0697245   -6.4698928    162.83709  0.033340927  0.034556275            4 
  408000    1.0766061   -6.4523661    163.68554  0.033432504  0.034532365            2 
  409000    1.1022459   -6.4890494    163.22723  0.033257383  0.034508427            5 
  410000    1.1181334   -6.4480624    164.22612  0.033379293  0.034484111            3 
  411000    1.0672122   -6.4926609    164.10537  0.033273596   0.03446008            3 
  412000    1.0882513   -6.4639462    163.96813  0.033165074  0.034434941            6 
  413000    1.0778889   -6.5115614    164.33057  0.033157903  0.034410245            3 
  414000    1.1212968   -6.5011858    165.59216  0.033331756  0.034386008            6 
  415000    1.0902437   -6.4636321    165.27335   0.03318742  0.034361246            2 
  416000    1.0884401   -6.4970999    164.69582  0.032991951  0.034335688            3 
  417000    1.0847288   -6.4691307    165.83775  0.033141036    0.0343095            2 
  418000    1.0688027   -6.4447711    165.22065  0.032938725  0.034283689            3 
  419000    1.0812395   -6.4787154    165.89518  0.032994268  0.034258131            4 
  420000    1.0901315   -6.4758524     166.4132  0.033018492  0.034233058            2 
  421000    1.0762336   -6.4597969    167.29337  0.033114286  0.034208333            2 
  422000    1.0926156   -6.4835333    167.50575  0.033077755  0.034184268            3 
  423000    1.0791927   -6.4734841    167.81331  0.033060148  0.034160527            3 
  424000    1.0848374   -6.4863457    168.22928  0.033063931  0.034136797            3 
  425000    1.0785884   -6.4926545    168.36547  0.033012838  0.034113578            4 
  426000    1.0772795   -6.4859049    168.45581  0.032953014   0.03408961            6 
  427000     1.065626   -6.4454379    169.00801  0.032983609  0.034065953            3 
  428000    1.0912392   -6.4618941     169.8754  0.033075429   0.03404266            4 
  429000    1.1048396    -6.518775    170.07741   0.03303757  0.034019518            3 
  430000    1.0611059   -6.4743807    170.41196  0.033025574  0.033996661            2 
  431000    1.0739017   -6.5028849    170.84672  0.033033009  0.033974146            2 
  432000    1.0634878   -6.4813239    171.53169  0.033088674   0.03395184            2 
  433000    1.0759484   -6.4742171    171.64782  0.033034607  0.033930303            3 
  434000    1.0859002   -6.4823903    171.28364  0.032888564  0.033908126            6 
  435000    1.0753342   -6.5047368     171.5615  0.032866188  0.033885631            2 
  436000    1.0978274   -6.5056195    171.65733  0.032809122  0.033862977            2 
  437000    1.0731019   -6.5089096    172.42093  0.032879659    0.0338399            5 
  438000    1.0826571   -6.5010897    172.25114  0.032772287  0.033816655            3 
  439000    1.0832626   -6.5224034    172.95377  0.032831012  0.033793553            5 
  440000    1.0993239   -6.5026054    173.63117   0.03288469  0.033770896            8 
  441000    1.0736853   -6.5138078    173.08047   0.03270606  0.033748381            3 
  442000    1.0713445   -6.4989758    173.50744  0.032712564  0.033725741            3 
  443000    1.0734359   -6.5467228     173.8858  0.032709894  0.033702085            4 
  444000    1.1026851   -6.5007179    173.40441  0.032545874  0.033678243            4 
  445000    1.0556663   -6.5077117    174.65838  0.032707561  0.033655364            3 
  446000    1.0842606   -6.5009506    174.91145  0.032681512  0.033633223            4 
  447000    1.0422818   -6.5275075    174.47758  0.032527512  0.033610495            3 
  448000    1.0907079   -6.5036117    175.48596  0.032642477  0.033586474            7 
  449000    1.0913099   -6.5283318    175.42099  0.032557719  0.033562656            2 
  450000    1.0755622   -6.5271276    175.31741  0.032466187  0.033538143            4 
  451000    1.0762154   -6.4832077     175.5925  0.032445029  0.033513435            3 
  452000    1.0818386   -6.4916271    175.77888  0.032407611  0.033488513            3 
  453000    1.0834112   -6.5308547    175.82848  0.032345196   0.03346311            2 
  454000    1.0884884   -6.5171965    176.63747  0.032422443  0.033438155            2 
  455000    1.0836307   -6.5241653    175.98967   0.03223254  0.033413307            4 
  456000     1.082682   -6.5480639    177.00162  0.032346788  0.033388801            3 
  457000    1.0709288   -6.5160888    178.22511  0.032499109  0.033365175            7 
  458000    1.0777971   -6.5101769    178.14096  0.032412839  0.033342434            2 
  459000    1.0794243   -6.5609396    177.61624  0.032246957  0.033318808            5 
  460000      1.06312   -6.4411803    179.03581  0.032434023  0.033296192            2 
  461000    1.0606932   -6.5137214    179.05962  0.032367971  0.033273061            7 
  462000    1.0766938   -6.5013614    178.15649  0.032135009  0.033248984            1 
  463000    1.0677641   -6.4995018    179.04456  0.032225443  0.033225326            4 
  464000    1.0824813   -6.5565552    179.03417  0.032154125   0.03320128            5 
  465000     1.063377   -6.5154012    180.06556  0.032269814  0.033177243            3 
  466000    1.0621147    -6.529189    180.08994  0.032204924  0.033153356            3 
  467000    1.0777805   -6.5395704    179.73164  0.032072026  0.033129218           10 
  468000    1.0435752   -6.5464423    180.78246  0.032190609  0.033105358            3 
  469000    1.0913759   -6.5418999    180.97084  0.032155445  0.033082094            5 
  470000    1.0461494   -6.5396332      181.486   0.03217837  0.033058628            1 
  471000    1.0819745    -6.563276    181.07302  0.032036982  0.033035063            5 
  472000    1.0559014   -6.5495607    181.55742  0.032054629  0.033011956            7 
  473000     1.067927   -6.5405832    182.88744  0.032221184  0.032989245            4 
  474000    1.0534609   -6.5159705    182.31491  0.032052551   0.03296651            4 
  475000    1.0652591   -6.5193548    182.66323  0.032046181   0.03294354            3 
  476000    1.0551052   -6.5270871    183.12234  0.032059233  0.032920754            5 
  477000    1.0954014   -6.5178676    183.46382  0.032051681  0.032898261            3 
  478000    1.0262617   -6.5655873    183.69751  0.032025367  0.032875662            2 
  479000    1.0742459   -6.5490287    184.17636  0.032041817  0.032853852            5 
  480000    1.0567907   -6.5563581    184.18653  0.031976828  0.032831003            4 
  481000    1.0683881   -6.5942935    184.13207  0.031900912  0.032808726            2 
  482000    1.0628844   -6.5451441    184.30103  0.031863941  0.032785374            9 
  483000    1.0678101   -6.5303273    184.64487  0.031857292  0.032761888            2 
  484000    1.0357667   -6.5518069    184.83585  0.031824354    0.0327386            4 
  485000    1.0688912   -6.5630266    185.35113  0.031847273  0.032714542            3 
  486000    1.0453992     -6.52632    186.04849  0.031901319  0.032691121            3 
  487000    1.0411311   -6.5350827    186.07675  0.031840649  0.032668721            4 
  488000    1.0679565   -6.5446292    185.82036  0.031731618  0.032646103            5 
  489000    1.0572737   -6.5215995    187.35997  0.031929102  0.032623617            2 
  490000    1.0729182   -6.5881963    186.45304  0.031709701  0.032600501            2 
  491000    1.0656396   -6.5344646    187.56118  0.031833194  0.032577412            3 
  492000    1.0718176   -6.5623148    186.82807   0.03164432  0.032555172            2 
  493000    1.0765103   -6.5561919    186.86667  0.031586659  0.032532307            4 
  494000    1.0622881   -6.5428769    188.18142  0.031744503  0.032509108            7 
  495000    1.0702175   -6.5292049    188.01246  0.031651928  0.032486026            2 
  496000    1.0356242   -6.5649908    187.65517  0.031528087  0.032463292            2 
  497000    1.0387648   -6.6054166    187.88983  0.031503995  0.032439928            5 
  498000    1.0618073   -6.6076838    188.12637  0.031480317  0.032416736            4 
  499000    1.0600319   -6.5230412    188.95444  0.031555517   0.03239306            2 
  500000    1.0669632   -6.5798828    189.23718  0.031539529  0.032368858            3 
  501000    1.0286504   -6.5256125    189.48173  0.031517253  0.032345536            8 
  502000     1.048114   -6.5308037    189.69032  0.031489098  0.032322461            4 
  503000    1.0680296   -6.5585798    189.47556  0.031390914  0.032299016            3 
  504000    1.0530776   -6.5946145    190.13669  0.031437945  0.032275716            3 
  505000    1.0689391    -6.587594    190.07285  0.031365156  0.032253089            2 
  506000    1.0812224    -6.572689    190.72238  0.031410142  0.032229873            5 
  507000    1.0673579   -6.5532967    191.82086  0.031528741  0.032207073            2 
  508000    1.0450326   -6.5777601    191.80753  0.031464489  0.032184559            2 
  509000    1.0433105   -6.5389928    191.91609  0.031420447  0.032161719            5 
  510000    1.0719819   -6.5964447     191.3261  0.031262435  0.032139073            5 
  511000    1.0290147   -6.5756136    192.25817  0.031353256  0.032115871            3 
  512000     1.066355    -6.588593    192.51892   0.03133446  0.032093087            3 
  513000    1.0384049   -6.5655676    192.48459  0.031267802  0.032070015            2 
  514000    1.0578826   -6.5663288    193.43223  0.031360608  0.032047826            3 
  515000     1.051364   -6.5699634     193.6454  0.031334208  0.032025527            2 
  516000     1.049269   -6.5809212    194.41121   0.03139716  0.032004048            3 
  517000    1.0444632    -6.557126    194.12603  0.031290463   0.03198241            2 
  518000    1.0217025   -6.6355413    194.56795  0.031301151   0.03196069            4 
  519000    1.0504959    -6.607295    194.55083  0.031238091  0.031939258            3 
  520000    1.0331763   -6.6150943    195.31786  0.031300939  0.031917998            2 
  521000     1.053793   -6.5613102    195.88915  0.031332238  0.031896963            2 
  522000    1.0572739   -6.5632979    197.06216  0.031459476  0.031876622            3 
  523000    1.0396078   -6.5568861    196.30932  0.031279368  0.031855547            3 
  524000    1.0298443   -6.5971226    196.60697  0.031267012  0.031834964            5 
  525000    1.0828897   -6.6183418    196.51962   0.03119359  0.031813975            3 
  526000    1.0487983   -6.5986874    196.57533  0.031143113  0.031792672            2 
  527000    1.0692454   -6.5612567    196.64805  0.031095517  0.031771488            3 
  528000    1.0290222   -6.6086726    196.63885  0.031035171  0.031749659            5 
  529000    1.0267497    -6.620431    197.00333   0.03103392   0.03172823            4 
  530000    1.0407146    -6.597341    197.96385  0.031126391  0.031707125            5 
  531000    1.0316538   -6.5828103    198.69859  0.031183081   0.03168632            2 
  532000    1.0477468   -6.5834113    199.37376  0.031230225  0.031665727            6 
  533000    1.0605824   -6.6002224    199.17323   0.03114028  0.031645142            5 
  534000    1.0384602   -6.6117465    198.74762  0.031015546  0.031623799            5 
  535000    1.0284774   -6.6065838    198.94016  0.030987564  0.031602437            4 
  536000    1.0273479    -6.579959    199.25071  0.030978033  0.031581517            4 
  537000    1.0354765   -6.5803071    199.35203   0.03093607  0.031560675            2 
  538000    1.0484061   -6.5703169    200.10918  0.030995846  0.031540071            4 
  539000    1.0336499   -6.5719815    200.35865   0.03097691  0.031520174            3 
  540000    1.0158574   -6.6219855    200.47627  0.030937695  0.031499495            2 
  541000    1.0273855   -6.6204243    200.82194  0.030933755  0.031479103            4 
  542000    1.0628939   -6.5969389    200.89764  0.030888321  0.031458485            3 
  543000    1.0373965   -6.5882576    201.61822  0.030942023  0.031437964            5 
  544000     1.017183   -6.5815564     202.5655  0.031030255  0.031418163            3 
  545000    1.0076229   -6.6184297    202.03115  0.030891613  0.031398621            4 
  546000    1.0329583   -6.6268426    202.69633  0.030936558  0.031379372            4 
  547000    1.0361769   -6.6292491    202.60205  0.030865638  0.031360746            3 
  548000    1.0358772   -6.5745458    203.65225  0.030969017  0.031341382            9 
  549000    1.0538919   -6.6334151    202.60463  0.030753587  0.031321257            4 
  550000    1.0445034   -6.6362848    202.70505  0.030712887   0.03130114            3 
  551000    1.0371416   -6.6223735    204.24205  0.030889602  0.031280704            6 
  552000    1.0222709   -6.6198524    204.20463  0.030827994   0.03126108            5 
  553000    1.0259378   -6.6201495    204.44406  0.030808327  0.031240869            4 
  554000    1.0463374   -6.6554446    203.76644  0.030650789  0.031220816            7 
  555000    1.0394351   -6.6135503    204.12112  0.030648817  0.031200418            4 
  556000    1.0365265     -6.62518    205.14508  0.030747164   0.03118043            8 
  557000    1.0500609   -6.6793639    205.12839  0.030689466  0.031160264            3 
  558000    1.0310935   -6.6727767    205.36974  0.030670511  0.031140177            7 
  559000    1.0059202   -6.6195025    205.28905  0.030603615    0.0311201            2 
  560000    1.0329911   -6.5996289    206.16354  0.030679098  0.031100198            3 
  561000    1.0364286   -6.6519429    206.36262  0.030653984  0.031080451            4 
  562000    1.0399515   -6.6491149    205.77449  0.030512232  0.031060611            4 
  563000     1.038037   -6.6613462    206.90134  0.030624828  0.031040786            3 
  564000     1.012313   -6.5844218    207.61764  0.030676365  0.031021492            2 
  565000    1.0286809    -6.605858    208.54044  0.030758178  0.031002636            7 
  566000    1.0350472   -6.6702096    207.08859  0.030490076  0.030983018            5 
  567000    1.0390328   -6.6197281    207.67277  0.030522158   0.03096386            4 
  568000    1.0209733    -6.640979    207.88954  0.030500225  0.030944178            2 
  569000    1.0119896   -6.6140248    207.43599  0.030380198  0.030924308            5 
  570000    1.0292974   -6.6760436     208.2874  0.030451375   0.03090424            7 
  571000    1.0216811   -6.5961039    209.08964  0.030515125   0.03088489            8 
  572000     1.017121   -6.6310199    208.78423  0.030417283  0.030865403            3 
  573000    1.0043357   -6.6629547    208.74138  0.030357966  0.030845245            4 
  574000    1.0130187   -6.6399429    209.16957  0.030367243  0.030825622            4 
  575000    1.0306381   -6.6489207    209.50217  0.030362633   0.03080587           13 
  576000    1.0227165   -6.6653476    209.67481  0.030334897  0.030786151            8 
  577000    1.0104076   -6.6797703     209.9142  0.030316898  0.030765996            4 
  578000    1.0232477   -6.6366758    210.21618  0.030307984   0.03074683            2 
  579000    1.0022119    -6.617929      211.048   0.03037536  0.030727717            5 
  580000    1.0229345   -6.6148407    210.79638  0.030286837  0.030708218            9 
  581000    1.0397744   -6.6666382    210.93168  0.030254113  0.030688809            8 
  582000   0.99713484    -6.655665    210.98912  0.030210355  0.030668985            3 
  583000    1.0243371   -6.6522685    211.76813  0.030269888  0.030649145            4 
  584000    1.0297957   -6.6550373    211.56201  0.030188643  0.030629159            6 
  585000    1.0187087   -6.6710315    211.57635  0.030139082  0.030608759            6 
  586000    1.0324026   -6.6714633    212.63783  0.030238599  0.030588853            4 
  587000    1.0166052   -6.6439051    212.41041    0.0301548  0.030569071            4 
  588000    1.0268792     -6.65642    211.62566  0.029992299  0.030549052            4 
  589000    1.0422809   -6.6794266    212.66359  0.030088227  0.030529061            5 
  590000    1.0218609   -6.6235902    213.14671  0.030105468  0.030509337            5 
  591000    1.0304252   -6.7038288    212.98862  0.030032237  0.030489752            5 
  592000    1.0281014   -6.6664371    213.95359  0.030117341  0.030469972            6 
  593000    1.0256145    -6.701889    213.27199  0.029970769  0.030450338            4 
  594000    1.0020828    -6.680658    213.55423  0.029959908  0.030430325            3 
  595000   0.99441379   -6.6441441    214.23843  0.030005382  0.030410678            6 
  596000    1.0102062   -6.6538811    214.49589  0.029991036   0.03039089           10 
  597000    1.0315698   -6.6847185    214.82504  0.029986745  0.030371189            3 
  598000    1.0222438   -6.6233907      215.412  0.030018394  0.030351669            4 
  599000    1.0407361    -6.628258    215.04745  0.029917564  0.030332376            3 
  600000    1.0304501   -6.6850623    215.48799  0.029928888  0.030313042            4 
  601000   0.99840519   -6.6524207    215.53498  0.029885605  0.030293557            7 
  602000    1.0264977   -6.6588282    216.67321  0.029993523  0.030274208            3 
  603000     1.023668   -6.6858843     216.3089  0.029893436   0.03025471            7 
  604000   0.98812487   -6.6475029    217.02015  0.029942073  0.030235374            5 
  605000    1.0024906   -6.6689279     216.7504  0.029855427   0.03021614            2 
  606000    1.0259319   -6.6840309    216.97082  0.029836472  0.030196413            3 
  607000    1.0121925   -6.6685622    217.16485  0.029813955  0.030176907           12 
  608000    1.0265915   -6.6700252    216.88022  0.029725907  0.030157381            4 
  609000   0.98381677   -6.6596494    217.36942  0.029744036  0.030137803            3 
  610000    1.0300438   -6.6756508    217.52599  0.029716665  0.030118057            5 
  611000   0.99611759   -6.6853091     217.5353  0.029669299  0.030098075            2 
  612000    1.0037608   -6.7143757     217.0548  0.029555393  0.030077903            3 
  613000    1.0219205   -6.6978827    217.65055  0.029588166  0.030057767            2 
  614000    1.0155599   -6.6855916     217.8732  0.029570196  0.030037429            8 
  615000    1.0128037   -6.7066842     217.8181  0.029514648  0.030016538            3 
  616000    1.0139427   -6.6834935     218.3003  0.029531967  0.029996085            4 
  617000    1.0053865   -6.6996083    218.35504  0.029491496  0.029975651            2 
  618000    1.0033489   -6.6793911    218.76151  0.029498585  0.029955424            4 
  619000   0.99540337   -6.6953341    219.32062  0.029526201  0.029935745            3 
  620000    1.0218049   -6.6558199    219.76784  0.029538688  0.029915914            3 
  621000     1.030578   -6.7361203    219.33096  0.029432496   0.02989632            6 
  622000   0.99008965   -6.7018451    220.13062  0.029492312  0.029875992            5 
  623000   0.99525256    -6.682472    220.54798  0.029500799  0.029856584            3 
  624000    1.0163493   -6.6959065    221.16144  0.029535448  0.029837484            6 
  625000    1.0185732   -6.7089672    221.10025  0.029480033  0.029818173            3 
  626000    1.0012753   -6.7152198    220.97721  0.029416562   0.02979869            4 
  627000    1.0106495   -6.7053835    221.89841   0.02949208  0.029779475            4 
  628000    1.0049076   -6.7402488    221.11222  0.029340794  0.029759879            3 
  629000     1.012606   -6.6716822     222.0725   0.02942137  0.029740271            3 
  630000   0.99980984   -6.6931092    221.85003  0.029345242  0.029720854            2 
  631000    1.0068244   -6.6772591    222.59154  0.029396664  0.029701697            6 
  632000    1.0135256   -6.6760608    223.02258  0.029406986  0.029682629            3 
  633000    1.0250884   -6.6935711    222.30525  0.029266094  0.029663252            2 
  634000    1.0107876   -6.7637954     222.6457  0.029264682  0.029643375            4 
  635000   0.99964406   -6.7143922    222.88077  0.029249444  0.029623171            2 
  636000    1.0018844   -6.7013217    223.07295  0.029228636   0.02960312            3 
  637000   0.98575683   -6.7211203    223.43556  0.029230188  0.029583599            5 
  638000    1.0069967   -6.7233257    223.47085  0.029188983  0.029564124            8 
  639000   0.98234282   -6.6929917    224.13749  0.029230242  0.029544447            7 
  640000   0.99905446   -6.6993066    224.71429  0.029259673  0.029524968            4 
  641000   0.98831434   -6.6955457    223.92653  0.029111613  0.029505339            5 
  642000   0.98355546   -6.7049788    224.38761  0.029126118  0.029486126            6 
  643000    1.0069171   -6.7215196    224.33454  0.029073943  0.029466559            4 
  644000    1.0037461   -6.7633232    223.97505  0.028982278  0.029446457            3 
  645000   0.98909377   -6.7040485    224.91294  0.029058519   0.02942644            6 
  646000   0.98317422   -6.7222901    224.70794  0.028987092  0.029405947            4 
  647000    1.0136963   -6.7217503    225.02698  0.028983382  0.029385478            5 
  648000    1.0110189   -6.7784493    224.10865  0.028820557  0.029364879           21 
  649000    1.0076597    -6.764647    224.47535  0.028823234  0.029344129            6 
  650000    0.9894802   -6.7370821    226.34032   0.02901799  0.029323827            4 
  651000   0.99007861   -6.7234818    225.21654  0.028829562  0.029303516            2 
  652000    1.0016301   -6.7289045    225.81828  0.028862255  0.029283383            3 
  653000    1.0051939    -6.729023     226.4647  0.028900549  0.029263444            4 
  654000    1.0008989   -6.7253172    226.25312  0.028829399  0.029243385            4 
  655000    1.0039895   -6.7144435    227.22068  0.028908483  0.029223428            3 
  656000   0.99870501   -6.7395033    226.78865  0.028809534  0.029203385            5 
  657000     1.006356   -6.7181238    227.17737  0.028814989  0.029183693            2 
  658000    1.0009128   -6.7748311    227.38855  0.028797942   0.02916397            5 
  659000   0.99825274   -6.7643831    227.76942  0.028802405  0.029144355            5 
  660000   0.99136956   -6.7261388     227.7481  0.028756073   0.02912478            5 
  661000    1.0144849   -6.7614614    228.24472  0.028775179  0.029104798            3 
  662000   0.98024446    -6.727167    228.60684  0.028777297  0.029085079            6 
  663000   0.99824752   -6.7314508    228.44582  0.028713653  0.029065206            7 
  664000   0.96797449   -6.7399114    228.30112  0.028652249  0.029044992            5 
  665000    1.0033381   -6.7627313    228.92985  0.028687951  0.029024928            5 
  666000    0.9776989   -6.7007097    229.00108  0.028653788  0.029004871            3 
  667000   0.98515067   -6.7477195    228.92714  0.028601592   0.02898485            4 
  668000   0.97621665    -6.734857    228.79444   0.02854222   0.02896462            3 
  669000   0.99099308   -6.7299793    228.94232  0.028517977  0.028944825            2 
  670000     1.016445   -6.7689776    229.94525  0.028600156  0.028924905            3 
  671000   0.97034077   -6.7396151    229.89154  0.028550862  0.028904839            2 
  672000     0.982693   -6.7307153     230.1905  0.028545448  0.028885008           12 
  673000   0.99972175   -6.7732903    230.20886  0.028505306  0.028865255            5 
  674000   0.96971142   -6.7611639    230.31767  0.028476467  0.028845304            3 
  675000    1.0080345   -6.7249115     230.8989  0.028506037  0.028825418           12 
  676000    0.9907807   -6.7461374    231.10909  0.028489779  0.028805786            4 
  677000   0.98274008   -6.7200669    231.66713  0.028516387  0.028786079            4 
  678000   0.98033416   -6.7511825    230.80274  0.028368085  0.028766146            5 
  679000   0.97967658   -6.7192752    231.51565  0.028413801  0.028746582            3 
  680000    0.9922463   -6.7805498    231.29064  0.028344441   0.02872684            5 
  681000   0.98837172   -6.7778815    231.70556  0.028353593  0.028707189            4 
  682000   0.97901478   -6.7815146    231.88369  0.028333784  0.028687192            2 
  683000   0.95986767   -6.7784227    231.74717  0.028275643    0.0286672            9 
  684000   0.99704738   -6.7830379    232.27101  0.028298125  0.028647149            4 
  685000   0.98491119   -6.7498176    232.26346  0.028255896  0.028627254            4 
  686000    1.0008567   -6.7832957    233.22092  0.028331016  0.028607626            4 
  687000   0.97151969   -6.7606093    233.49329  0.028322815  0.028587991            5 
  688000   0.97931892   -6.7789588    233.29943  0.028258167  0.028568564            4 
  689000   0.97441655   -6.7195544    234.57206  0.028371076  0.028549118            2 
  690000   0.98614698   -6.7297969    234.07429  0.028269841  0.028529965            5 
  691000   0.98494446   -6.7660959    233.92752   0.02821123   0.02851059            2 
  692000   0.98053208   -6.7715019    233.76913  0.028151389  0.028491033            2 
  693000   0.98918073   -6.7924136    233.90369  0.028126947  0.028471318           12 
  694000   0.96726979   -6.8138972    233.99771  0.028097707  0.028451619            4 
  695000   0.99388181   -6.7571966    235.28342  0.028211441  0.028432069            2 
  696000   0.96668584   -6.7164083    235.12707  0.028152188  0.028412806            9 
  697000   0.99870804   -6.7543906    234.83749  0.028077175  0.028393539            4 
  698000   0.98460663   -6.7813647    235.98543  0.028174001  0.028374512            5 
  699000   0.98975576   -6.7556664    235.96799  0.028131616  0.028355337            5 
  700000   0.95382395   -6.7352367     236.4909  0.028153678  0.028336648            5 
  701000   0.98510044   -6.7343131    236.87962  0.028159727   0.02831808            4 
  702000    0.9823598   -6.7618176    236.51443  0.028076262  0.028299303            7 
  703000   0.99603902   -6.7751923    236.88169  0.028079859  0.028280491            5 
  704000   0.95986589   -6.7805359     236.6394  0.028011293  0.028261484            5 
  705000   0.95799717   -6.7535785     237.0213  0.028016702  0.028242578            4 
  706000   0.96654387   -6.7552618    236.23466  0.027884166  0.028223683            4 
  707000   0.97442494   -6.7703264    237.53318  0.027997781  0.028204891            6 
  708000   0.96304553   -6.7850877    237.60174  0.027966306  0.028185966            6 
  709000   0.96442407    -6.766949    237.52389  0.027917711  0.028166862            3 
  710000   0.98078642    -6.807514    237.37571  0.027860998  0.028147831            7 
  711000    0.9804794   -6.8038807     238.1382  0.027911181  0.028128685            3 
  712000   0.97333423   -6.7728103    238.12381  0.027870296  0.028109901            6 
  713000   0.95430054   -6.7979336     237.8155  0.027795173   0.02809093            5 
  714000   0.97753647   -6.7912699    238.48013  0.027833815   0.02807187            3 
  715000   0.97382998   -6.8043973    239.04315  0.027860506  0.028052954            3 
  716000   0.96197512   -6.7533322    240.18459  0.027954445  0.028033967            5 
  717000   0.95555985   -6.8329054    239.39318  0.027823475  0.028015217            4 
  718000    0.9546696   -6.7931128    239.83921  0.027836491  0.027996015            5 
  719000   0.96193494   -6.8105369    239.47754  0.027755857  0.027977033            7 
  720000   0.96954106   -6.7726438    240.64712  0.027852676  0.027958291            9 
  721000   0.99155509   -6.7988777    239.58883  0.027691728  0.027939201            4 
  722000   0.96388865   -6.8229979    239.85017  0.027683537  0.027920229            6 
  723000   0.96950415   -6.8157668    239.75182  0.027633912  0.027900796            9 
  724000   0.96462304   -6.8197187    239.88607  0.027611196  0.027881377           10 
  725000   0.96230437   -6.8431667    239.66557  0.027547767  0.027861926            6 
  726000    0.9555419   -6.8020141    240.18584  0.027569541  0.027842423           11 
  727000   0.96944472   -6.7972603    240.57997  0.027576796  0.027822656           13 
  728000   0.95323047   -6.8205546    240.34295  0.027511785  0.027802972            4 
  729000   0.98520185   -6.8398025    241.04351  0.027554127  0.027783464            5 
  730000   0.96997877   -6.8295326    240.38081  0.027440732    0.0277639           11 
  731000   0.95019231   -6.8428363    240.44403    0.0274104  0.027744398            3 
  732000   0.95723902   -6.8014567    241.73111   0.02751948  0.027725003            3 
  733000   0.96809213   -6.8181133    241.24354  0.027426506   0.02770559            7 
  734000   0.96522674   -6.8116784    241.90951  0.027464749  0.027686213            3 
  735000   0.96556817   -6.8256783    241.85875  0.027421627  0.027667193            3 
  736000   0.93836337   -6.7856529    242.73721  0.027483833  0.027648483            6 
  737000   0.96044616   -6.8127304    242.57279   0.02742795  0.027629876            6 
  738000    0.9530413   -6.7911909    242.92194   0.02743021  0.027611278            3 
  739000   0.96949208   -6.8076273    242.51818  0.027347562  0.027592518            4 
  740000    0.9704271   -6.7936947    243.18796  0.027386032  0.027573485            4 
  741000   0.94512717   -6.8113029    243.32173  0.027364118  0.027554558            5 
  742000   0.96774589   -6.8283584     243.2983  0.027324607  0.027535763            4 
  743000   0.95721236   -6.8300027    243.13062  0.027269024   0.02751686            6 
  744000   0.93075971   -6.7972753    244.05144  0.027335511  0.027498135            2 
  745000   0.93126735   -6.8183519    243.33038  0.027218163  0.027479284            8 
  746000    0.9582027   -6.8297149    243.23323  0.027170825  0.027460151            3 
  747000   0.92790202    -6.845814    243.72027  0.027188785  0.027441165           10 
  748000   0.95237794   -6.8108985    244.11391  0.027196291  0.027421993            4 
  749000   0.93859194   -6.8542136    244.29543  0.027180177  0.027402864            4 
  750000   0.93609461   -6.8537996    243.60187  0.027066874  0.027383605            2 
  751000   0.97083255   -6.8205634    245.27234  0.027216194  0.027364513           12 
  752000   0.94971623   -6.8470932    245.17392  0.027169096  0.027345638            7 
  753000   0.93307085   -6.8016792    245.04634  0.027118895  0.027326775            5 
  754000   0.94500134   -6.8594974    244.56216  0.027029416  0.027307811            5 
  755000   0.94933396   -6.8583404    245.79685  0.027129895  0.027288549            5 
  756000   0.96693156   -6.8115169    246.51567  0.027173244  0.027269324            6 
  757000   0.94186124   -6.8196899    246.11572   0.02709332  0.027250781            3 
  758000    0.9384602   -6.8369222    245.74445   0.02701676  0.027231808            5 
  759000   0.95356661   -6.8572808    245.49264  0.026953518    0.0272128           10 
  760000   0.93690201   -6.8616272     244.9904  0.026862982  0.027193221            6 
  761000   0.97742289   -6.8455165    245.39038  0.026871482  0.027173915            4 
  762000   0.95011778   -6.8357432    246.75454  0.026985405  0.027154586            4 
  763000   0.96104176   -6.8777916    246.19202  0.026888599  0.027135113            8 
  764000   0.95458601   -6.8827057    246.40974  0.026877153   0.02711578           10 
  765000   0.96566222   -6.8349807    246.91901  0.026897496  0.027096523            4 
  766000   0.93293572    -6.856906    246.79437  0.026848821  0.027077455           14 
  767000   0.93291129   -6.8609762    246.88481  0.026823643  0.027058479            4 
  768000   0.94334961   -6.8670839    247.58679  0.026864886  0.027039251            8 
  769000   0.93981137   -6.8831319     247.0904   0.02677616  0.027020102            4 
  770000    0.9539223   -6.8506197    247.74646  0.026812388  0.027000828            4 
  771000     0.944483   -6.8480928    247.27522  0.026726677  0.026981709            8 
  772000   0.95902689   -6.8554326    248.35259  0.026808354  0.026962622            7 
  773000   0.95063525     -6.83561    248.38961  0.026777664  0.026943562            3 
  774000   0.93830928   -6.8310712    248.11394  0.026713387  0.026924588            4 
  775000   0.93763942   -6.8818236    248.54892   0.02672569  0.026905276            6 
  776000   0.95774792   -6.8692982    248.51901  0.026688039  0.026885992            5 
  777000   0.94623638   -6.8477527    248.51702  0.026653477  0.026866839           13 
  778000   0.94100504   -6.8532906    249.06147  0.026677535  0.026847511           10 
  779000   0.93002713   -6.8525076    248.01527  0.026531373  0.026827941            2 
  780000   0.95583815   -6.8550905      247.859  0.026480662  0.026808435            6 
  781000   0.96724722   -6.8657468     248.3476   0.02649889  0.026789093            4 
  782000   0.93769504   -6.8618154    248.37165  0.026467567  0.026769354            4 
  783000   0.96492057   -6.8838459    248.25865  0.026421738  0.026749531            5 
  784000   0.93217615   -6.8819797    248.00848  0.026361446  0.026729488            4 
  785000   0.94019597   -6.9041136    248.60287  0.026390963  0.026709504            6 
  786000   0.94215961   -6.8775175    248.72835   0.02637069    0.0266896            8 
  787000   0.94582791   -6.8645558    250.07128  0.026479382  0.026669925            5 
  788000   0.95469236   -6.8728474    249.56566  0.026392307  0.026650366            4 
  789000   0.92812898   -6.8536961    250.16705  0.026422375  0.026630604            4 
  790000   0.91985701   -6.8909673    249.62616  0.026331874  0.026610895            7 
  791000   0.94419255   -6.9290205    249.78031  0.026314824  0.026591056            3 
  792000   0.92327007   -6.8725315    250.46957  0.026354121  0.026571329            4 
  793000   0.92656658   -6.9135455    249.62272  0.026231896  0.026551424            6 
  794000   0.92972178   -6.9082053    249.94659   0.02623285  0.026531667            5 
  795000   0.93034067   -6.9079291    250.09619  0.026215534  0.026512015            4 
  796000   0.95229075   -6.8926868    250.52061  0.026227032  0.026492233           11 
  797000   0.94875139   -6.8990027    250.76657  0.026219843  0.026472768            3 
  798000   0.93640631   -6.8618871    251.45969  0.026259366  0.026453318            6 
  799000   0.94467395   -6.8835922    251.65359  0.026246724  0.026434103           14 
  800000   0.91620277   -6.8770084    251.43985  0.026191651  0.026414669            2 
  801000   0.92555591   -6.8782515    251.64135  0.026179915  0.026395466            5 
  802000   0.94706998   -6.8670065    252.10819  0.026195781  0.026376324            6 
  803000   0.92242463   -6.8878521    252.28059  0.026181049  0.026357158            9 
  804000   0.92315482   -6.8870371    252.22996  0.026143238  0.026337898            4 
  805000   0.92600587   -6.8825447    252.47838  0.026136478  0.026318425            6 
  806000   0.92828818   -6.8979614    251.88773  0.026042982  0.026298883            4 
  807000   0.93511161   -6.8868749    252.22732  0.026045779  0.026279292            4 
  808000   0.93484838   -6.8768382    252.65901  0.026058066  0.026259754            4 
  809000   0.95031882   -6.9391361    251.60252  0.025917029  0.026240331            4 
  810000   0.93372053    -6.910469    251.87761  0.025913334  0.026220531            5 
  811000   0.92414916   -6.9064656    252.26584  0.025921274  0.026200903            6 
  812000   0.92066287   -6.9634253    252.28221  0.025891031  0.026181174            3 
  813000   0.93721748   -6.8973871    251.83952  0.025813809  0.026161142            3 
  814000   0.95078776   -6.9082905    253.05077  0.025906099  0.026141421            9 
  815000   0.93770437   -6.9119008    252.21513  0.025788868  0.026121739            6 
  816000   0.94574677    -6.973341    252.56449  0.025792942   0.02610192            6 
  817000   0.93270148   -6.8919475     253.7502  0.025882313  0.026082145           12 
  818000   0.91730033   -6.9168867     253.0607  0.025780429  0.026062627           13 
  819000   0.91900243   -6.9246452     253.0496  0.025747823  0.026042964            5 
  820000   0.93011102   -6.8958636    253.39612  0.025751639  0.026023232           11 
  821000    0.9211588   -6.8929179    253.60766  0.025741744  0.026003514            4 
  822000   0.90318667   -6.9233486    253.42681  0.025692093  0.025983454            6 
  823000   0.92845867    -6.921649    253.80307  0.025698974  0.025963325            7 
  824000   0.91814489   -6.9183234    253.98565  0.025686251  0.025943371            2 
  825000    0.9125815   -6.8881334    254.32894  0.025689792  0.025923708            4 
  826000   0.91010042   -6.9122743    254.72345  0.025698492   0.02590405            3 
  827000   0.91771521   -6.9213399     253.5703   0.02555122  0.025884227            6 
  828000   0.92773441   -6.9061333    254.39185  0.025603044  0.025864366            3 
  829000   0.92561282   -6.8962778    255.08506  0.025641844  0.025844819            4 
  830000   0.91554941   -6.9481422    254.28038  0.025530159  0.025824928            4 
  831000    0.9162548   -6.9092149    254.36116  0.025507537  0.025804933            6 
  832000   0.91725887   -6.9302797     254.2802   0.02546877  0.025785142            6 
  833000   0.92601333   -6.9291496    254.59657  0.025469845  0.025765163            4 
  834000   0.92393845   -6.9422179    255.36746  0.025516333  0.025745325           10 
  835000   0.92183392    -6.918633    255.70756  0.025519717  0.025725844            9 
  836000    0.9123554   -6.8905793    255.68109  0.025486552  0.025706319            6 
  837000   0.93295938   -6.9557389    254.84939  0.025373296  0.025686656            6 
  838000    0.9237848   -6.9273784    255.67483  0.025425102   0.02566707            5 
  839000    0.9070979   -6.9518657    256.07641  0.025434685  0.025647513            8 
  840000   0.91916021   -6.9313084     256.1067  0.025407411  0.025627836            4 
  841000   0.89464408   -6.9440222    256.22817  0.025389236  0.025608252            4 
  842000   0.91183969   -6.9519839    255.48936  0.025285962   0.02558868            5 
  843000   0.91818119   -6.9155148    256.60913   0.02536666  0.025569203            8 
  844000    0.9232878     -6.94373    255.82119  0.025258806  0.025549544            4 
  845000   0.91681015   -6.9380591    256.81144  0.025326572  0.025529807           14 
  846000    0.9171569    -6.897599    257.40743  0.025355342  0.025510266            7 
  847000   0.89512233    -6.951887    256.31801  0.025218222  0.025490668            6 
  848000    0.9192441   -6.9734096    256.82475  0.025238281  0.025471221            5 
  849000   0.92146167    -6.957692    257.53994  0.025278754  0.025451843            6 
  850000   0.92186096   -6.9442817    257.40423  0.025235708   0.02543243            6 
  851000   0.92054362   -6.9347999    257.62345  0.025227522  0.025412858            6 
  852000   0.90726882   -6.9448168    257.90135  0.025225092  0.025393308            3 
  853000    0.9137444   -6.9811234    257.43534  0.025149994  0.025373905           10 
  854000   0.92382692   -6.9361713    258.81356  0.025255031  0.025354713           11 
  855000   0.90548814   -6.9235558    258.53817  0.025198652  0.025335788            4 
  856000   0.89550033   -6.9557086    258.34495  0.025150404  0.025316676            5 
  857000   0.89971241   -6.9394531    259.01618  0.025186327  0.025297582            6 
  858000   0.90972457   -6.9525687    258.18774   0.02507651  0.025278319           11 
  859000   0.91282791   -6.9558395    258.71242  0.025098217  0.025259084            6 
  860000    0.9088496    -6.936565    258.75914   0.02507356  0.025239986            9 
  861000   0.90467257   -6.9244667    259.54707    0.0251207   0.02522075            5 
  862000   0.92043282    -6.957553    258.64044   0.02500391  0.025201506            7 
  863000    0.9235423   -6.9486205    259.55895   0.02506363  0.025182197            4 
  864000   0.91707827   -6.9456036    259.88318  0.025065893  0.025162864            4 
  865000   0.89592868   -6.9578924    259.56884  0.025006632  0.025143574            7 
  866000   0.91353241   -6.9917402    258.80422  0.024904178  0.025124293            3 
  867000   0.88891994   -6.9830026    258.68508  0.024864002  0.025104662           10 
  868000   0.92284508   -6.9662367    259.83941   0.02494618  0.025085103           10 
  869000   0.90649738   -6.9643266    258.63501  0.024801976  0.025065625            8 
  870000   0.91308488   -6.9601661    259.95492  0.024899897  0.025046109           10 
  871000   0.90828349   -6.9681773    259.90187  0.024866233  0.025026612            9 
  872000   0.92001018    -6.951752    259.95067   0.02484238  0.025007186            4 
  873000   0.90433074   -6.9888276     259.7874  0.024798339  0.024987817           12 
  874000   0.89855187   -6.9749889    260.17824  0.024807231  0.024968536            5 
  875000   0.91394498   -6.9683024    260.92637   0.02485013  0.024949225           12 
  876000    0.9114615   -6.9749659    260.25258  0.024757665  0.024929992            8 
  877000    0.9009702   -6.9459597    261.06575  0.024806704  0.024910863            7 
  878000   0.89629232   -6.9861414    260.09844   0.02468664  0.024891864            7 
  879000   0.90357248   -6.9508187    260.71813  0.024717305  0.024872641            3 
  880000   0.89414751   -6.9284813     261.7537  0.024787283  0.024853521            5 
  881000   0.90918109   -6.9721532    260.88538  0.024677013  0.024834336           13 
  882000   0.91101303   -7.0004637    260.84726  0.024645432  0.024815039            3 
  883000   0.89089992   -6.9501764    260.87303  0.024619954  0.024795904            5 
  884000   0.89633591   -6.9651826    261.14812  0.024618035  0.024776899            4 
  885000   0.89577213   -6.9561669    261.57409  0.024630328  0.024757438            3 
  886000   0.90601459   -6.9796413    261.27761  0.024574643  0.024738034           10 
  887000   0.89790908   -6.9910509    261.62674  0.024579739  0.024718624            8 
  888000   0.91260862   -6.9798142    262.16105  0.024602201  0.024699251            7 
  889000    0.8792438   -6.9855101    261.68694  0.024530084  0.024679901            3 
  890000   0.89217853   -7.0017854    261.61701  0.024495975  0.024660789            5 
  891000   0.89691145   -6.9754385    262.37428  0.024539308  0.024641566            8 
  892000   0.90641862   -7.0045391     262.4004  0.024514238  0.024622362            7 
  893000   0.91877346   -6.9728371    263.18761  0.024560247  0.024603113            5 
  894000   0.89452371   -6.9879256    262.03984  0.024425787  0.024584141            5 
  895000   0.90189957   -7.0331317     261.1914  0.024319498  0.024564877           10 
  896000   0.91175949   -6.9976616    262.79763  0.024441744  0.024545651           13 
  897000   0.90508476    -7.025732    262.19372   0.02435839   0.02452638            5 
  898000   0.88631737   -7.0228494    262.03299   0.02431635  0.024506995            7 
  899000   0.90480538   -7.0119134    262.84655  0.024364716  0.024487667            5 
  900000   0.89117611   -6.9992682    262.84397  0.024337404  0.024468432            6 
  901000   0.90642997   -7.0007653    262.64414  0.024291911  0.024449186            5 
  902000   0.86975229   -6.9913604    262.64701  0.024265245  0.024430057            3 
  903000   0.87738752   -6.9918306    262.99722  0.024270692  0.024410699            8 
  904000   0.89174032   -6.9962201    262.91123  0.024235917  0.024391385            6 
  905000    0.8913262   -6.9750347    263.60088  0.024272641   0.02437215            9 
  906000   0.89672715   -7.0064425    263.42081  0.024229287  0.024352809           13 
  907000    0.8981415   -7.0207278    262.98752  0.024162764  0.024333285            4 
  908000   0.88951086   -7.0183826    263.07261  0.024143962  0.024313876            7 
  909000   0.90298374   -7.0466759    262.46624  0.024061812  0.024294601            8 
  910000   0.89166739   -6.9843178    263.16346  0.024099218  0.024275072            9 
  911000    0.9059816   -7.0612262    262.41018  0.024003858   0.02425557            9 
  912000    0.8844707   -7.0215921     263.5279  0.024079669  0.024235785            6 
  913000    0.8723446   -7.0349039    262.79125  0.023986058  0.024216094            7 
  914000   0.90916605   -7.0327931    262.75539  0.023956545  0.024196499            5 
  915000   0.89556227   -7.0236184     263.5054   0.02399867  0.024177038            4 
  916000   0.92104231   -6.9986539    263.98156   0.02401579  0.024157691            7 
  917000   0.90447134   -7.0326462    264.13307  0.024003369  0.024138555            4 
  918000   0.89490644   -7.0047681     264.3553  0.023997394  0.024119137            7 
  919000   0.87125082   -7.0509297     263.6431  0.023906701  0.024099665            4 
  920000   0.88544644   -7.0189457    264.29794   0.02394003   0.02408009            5 
  921000   0.86994583   -6.9980082    264.50765  0.023933013  0.024060841            5 
  922000   0.88077697   -7.0123827    265.66909  0.024012029  0.024041563            9 
  923000   0.88987202   -7.0630319    263.74529  0.023812323  0.024022114           16 
  924000   0.90205698   -7.0281192    263.73788  0.023785883   0.02400264            6 
  925000   0.89300312   -7.0232335    264.65751  0.023843019  0.023983268           11 
  926000   0.89206639   -7.0279067    264.21712  0.023777639  0.023963876            3 
  927000   0.86637991   -7.0717601     264.3173  0.023760995  0.023944396           10 
  928000   0.90149887   -7.0127224    265.09877  0.023805565  0.023925081            5 
  929000     0.897742    -7.019691    265.04176  0.023774826  0.023905946            4 
  930000   0.90816533   -7.0503012    264.86708  0.023733609  0.023886733            6 
  931000   0.88956674   -7.0608514    264.48797  0.023674183  0.023867298            6 
  932000   0.88141838   -7.0064638     264.9518  0.023690254  0.023847788           20 
  933000   0.87912509   -7.0174083     265.0842  0.023676688  0.023828404           12 
  934000   0.87803529   -7.0446159    265.13793  0.023656132  0.023809071            8 
  935000   0.88025294   -7.0655259    265.43733  0.023657516  0.023789695            5 
  936000   0.87371954   -7.0243009    265.62816  0.023649231  0.023770225            4 
  937000   0.89491601   -7.0176672    266.38942  0.023691695  0.023751051            8 
  938000   0.88213815   -7.0343568    265.54504  0.023591421   0.02373175            4 
  939000   0.86607779   -7.0561576    264.96593  0.023514903  0.023712352            5 
  940000   0.88572191   -7.0333178    265.77938  0.023562002  0.023693055            3 
  941000   0.87607465   -7.0233502    265.38465  0.023502006  0.023673915            3 
  942000    0.8862583     -7.01558    266.58579  0.023583314  0.023654791            5 
  943000   0.88536241   -7.0616601     265.2992   0.02344461    0.0236356            4 
  944000   0.87225759   -7.0689259    265.36507  0.023425589   0.02361625            6 
  945000   0.87929665   -7.0808731    265.51193   0.02341375  0.023596941            8 
  946000   0.86242499   -7.0618206    266.19706  0.023449354  0.023577571            5 
  947000   0.87007486   -7.1069175    266.21107  0.023425825  0.023558425           12 
  948000    0.8683546   -7.0774043    266.96366   0.02346727  0.023539379            9 
  949000   0.87047902   -7.0747959    266.43039  0.023395714  0.023520304           12 
  950000   0.87822936   -7.0654235    266.54573  0.023381204  0.023501158            5 
  951000    0.8711829   -7.0683041    266.10384  0.023317897  0.023481885            5 
  952000   0.86412794   -7.0920721    266.25926  0.023307008  0.023462673           10 
  953000   0.86903995   -7.0616205     266.5051  0.023304049    0.0234434            9 
  954000   0.86976817   -7.0672498    266.71049  0.023297562  0.023424135            6 
  955000   0.87531335   -7.0726671     266.7181  0.023273831   0.02340484            7 
  956000   0.86817477   -7.0958757    267.01126   0.02327504   0.02338552            8 
  957000   0.86650714    -7.081053    266.37691  0.023195481  0.023366237            8 
  958000    0.8606573   -7.0861583    266.43844  0.023176621  0.023346878            7 
  959000   0.88252666   -7.0877666     267.1065  0.023210506  0.023327636            9 
  960000   0.87710031   -7.0914892    266.68118  0.023149408  0.023308348            4 
  961000   0.87674078   -7.0827341    267.22344  0.023172341  0.023289019            6 
  962000   0.87313001    -7.098673    267.29272  0.023154255  0.023269981            5 
  963000   0.88207246   -7.1063017    267.28835  0.023129833  0.023250803            4 
  964000   0.87190326   -7.0640475    267.85407  0.023154743    0.0232318            7 
  965000   0.86382169   -7.0976234     266.9191  0.023050008   0.02321267           15 
  966000   0.86863219   -7.0882384    267.97455  0.023117197  0.023193556            4 
  967000   0.86759463    -7.112354       267.78  0.023076525  0.023174279            6 
  968000   0.86406772   -7.0568943    268.24835  0.023093006  0.023155133           11 
  969000   0.87410662   -7.0802125    268.46949  0.023088192  0.023136093            9 
  970000   0.85364092   -7.0654475    268.68611  0.023082999  0.023117192            5 
  971000   0.86075248   -7.0494706    267.98576  0.022999121  0.023098463            4 
  972000   0.86156375      -7.0372    269.28771  0.023087081  0.023079656            4 
  973000   0.86131287   -7.0348135     269.8189  0.023108847  0.023061128            3 
  974000   0.85216842   -7.0700776    268.42307  0.022965697  0.023042558           14 
  975000   0.86688414   -7.0478044    269.32273  0.023019037  0.023023779            9 
  976000   0.86598075   -7.0914213    269.48045  0.023008918   0.02300513           13 
  977000   0.85037133   -7.0846948    269.08382  0.022951537  0.022986422           13 
  978000    0.8616453   -7.0536326    269.00657  0.022921487   0.02296779            7 
  979000   0.85757534   -7.1128644    268.78577  0.022879279  0.022948954            7 
  980000   0.87257506   -7.1210217    269.30859   0.02290039  0.022930073            9 
  981000   0.85971167   -7.0749551    269.68634  0.022909136  0.022911255            6 
  982000   0.84878774   -7.0836649    268.82487  0.022812701  0.022892712            4 
  983000   0.83985389   -7.0858214    270.35506  0.022919215  0.022874053            5 
  984000   0.86774507   -7.0892787    270.25285  0.022887267  0.022855568           11 
  985000   0.85436159   -7.0720703    270.31157  0.022868999  0.022836865            9 
  986000   0.87196617   -7.1119161    269.38144  0.022767194  0.022818178            8 
  987000    0.8747377   -7.1116371    269.90936  0.022788699  0.022799532           10 
  988000   0.85585036   -7.1338068    269.44964  0.022726859  0.022780772           13 
  989000   0.83821472   -7.1186914    269.28704  0.022690179  0.022761986            6 
  990000   0.86551357    -7.133426    269.34509  0.022672145  0.022743202            5 
  991000   0.87501825   -7.0875719    270.59758   0.02275459  0.022724517            8 
  992000   0.85250807   -7.0948051      270.259  0.022703209  0.022705914            4 
  993000   0.85675898   -7.1679692    268.65048  0.022545357  0.022687196            6 
  994000   0.83916674   -7.0868783     270.0437  0.022639479  0.022668297            7 
  995000   0.87323037     -7.09935    269.81065  0.022597207  0.022649429            6 
  996000   0.84297093   -7.1275454    269.93718  0.022585105  0.022630564            9 
  997000    0.8603839   -7.1645129    269.85631  0.022555693  0.022611693           10 
  998000   0.86485265   -7.1302019    269.71428  0.022521233  0.022592813           13 
  999000   0.85687637   -7.0732523    270.19363  0.022538674  0.022574097            7 
 1000000   0.85314428   -7.1241335     270.7007  0.022558392  0.022555452           10 
 1001000   0.87848369   -7.1291574    269.36507  0.022424665  0.022536599            5 
 1002000   0.86874944   -7.1521473    269.59109  0.022421082   0.02251773           12 
 1003000    0.8470992   -7.1225204    270.46521  0.022471354  0.022498931            4 
 1004000   0.87404392   -7.0957138    270.22168  0.022428759  0.022480298            4 
 1005000   0.85502223   -7.1520107    270.42132  0.022422995  0.022461581            8 
 1006000   0.86243831   -7.1271508    270.59766  0.022415313  0.022442792            4 
 1007000   0.85120857   -7.1398955    270.81972   0.02241143  0.022424028            7 
 1008000   0.86049288   -7.1404249    271.08814  0.022411388  0.022405289           14 
 1009000   0.84491261   -7.1296109    271.05136  0.022386138  0.022386529           10 
 1010000   0.84784661   -7.1015999    270.79506  0.022342827  0.022367809           13 
 1011000    0.8327275   -7.1342066    270.33738  0.022283002   0.02234914            9 
 1012000    0.8618405   -7.1433387    270.94115  0.022310701  0.022330508            4 
 1013000   0.85920107   -7.1514827    271.36137  0.022323245  0.022312002           20 
 1014000   0.83796356    -7.126135    271.85329  0.022341658  0.022293551            6 
 1015000   0.85237915   -7.1283006    271.70701  0.022307636  0.022275302            6 
 1016000   0.85008835    -7.139157    271.41563  0.022261781  0.022256848            8 
 1017000   0.85437159    -7.158209    271.49296  0.022246227  0.022238267            6 
 1018000   0.84863864    -7.133932    271.54124  0.022228326  0.022219779            9 
 1019000   0.84482265     -7.12228      271.502  0.022203304   0.02220144            9 
 1020000   0.83573601   -7.1141078    272.19831  0.022238424  0.022183046            7 
 1021000   0.82508146   -7.1285999    271.53782  0.022162734  0.022164674           10 
 1022000   0.84415292   -7.1521746    272.31853  0.022204707  0.022146333            3 
 1023000   0.83516653   -7.1495032    272.22373  0.022175279  0.022127868           11 
 1024000   0.83817372   -7.1377768    271.91296  0.022128333  0.022109291            7 
 1025000   0.84969428   -7.1554371    271.49883  0.022073075  0.022090694           11 
 1026000   0.84646239   -7.1365247    271.04723  0.022014882  0.022072087           13 
 1027000   0.85423807   -7.1305579    271.45052   0.02202617  0.022053689            6 
 1028000   0.84010204   -7.1901501    270.99327  0.021967677  0.022035315            7 
 1029000   0.83855204   -7.1956801    271.61609  0.021996768  0.022016698           12 
 1030000   0.84844787   -7.1507096    272.04985  0.022010505  0.021998014            9 
 1031000   0.83380258   -7.1715214    271.96876  0.021982603  0.021979495           11 
 1032000   0.83503803    -7.171573    272.77556  0.022026451  0.021960925           13 
 1033000   0.83471192   -7.1696724     271.8324  0.021929041  0.021942477            7 
 1034000   0.83780319   -7.1650235    272.09052  0.021928636  0.021923896           19 
 1035000   0.84580331   -7.1786384    272.63381  0.021951193  0.021905485           11 
 1036000    0.8302238   -7.1526421    272.59052  0.021926522  0.021887083            8 
 1037000     0.841961   -7.1944315    272.48048  0.021896535   0.02186873           12 
 1038000   0.84528163   -7.1827038     272.3225  0.021862757  0.021850407           11 
 1039000   0.82854197   -7.1596426    273.20236  0.021912284  0.021832025            6 
 1040000   0.82793867   -7.1165344     273.6396   0.02192625  0.021813822            7 
 1041000   0.86022822    -7.175566    272.09636  0.021781649  0.021795561           12 
 1042000   0.80257158   -7.1654442    272.52236  0.021794814   0.02177716            9 
 1043000   0.83866963   -7.1898375    273.54528  0.021855647  0.021758713            9 
 1044000   0.82671398   -7.1728893    272.89141   0.02178252  0.021740169           14 
 1045000   0.84673278   -7.1796572    272.24598  0.021710206  0.021721638            9 
 1046000   0.82939609   -7.2151719    272.07229  0.021675613  0.021703139            7 
 1047000    0.8231497   -7.1493009    273.11883  0.021738207  0.021684699           10 
 1048000   0.82505164   -7.1422546    273.78152  0.021770159  0.021666515            8 
 1049000   0.85601668   -7.1567799    273.20727  0.021703787  0.021648192           10 
 1050000   0.83153275   -7.1792805    272.84117  0.021654061  0.021629886            7 
 1051000   0.83577722   -7.1650055    273.89988  0.021717402  0.021611667            8 
 1052000   0.83466925    -7.175408    273.28164  0.021647785  0.021593462            6 
 1053000   0.82935083   -7.1734643    273.61039  0.021653244  0.021575166           11 
 1054000   0.82847443   -7.1760615     273.8731  0.021653471  0.021556866            6 
 1055000   0.82534047    -7.188799    273.99521  0.021642592  0.021538735            5 
 1056000   0.82908987    -7.195399    273.72056  0.021600423  0.021520469           16 
 1057000   0.84520504   -7.2320884    273.00547   0.02152361  0.021502027            6 
 1058000   0.83702014   -7.2211252     273.5773  0.021548306  0.021483527            9 
 1059000   0.83318974   -7.2018377    273.58777  0.021528783  0.021465022           14 
 1060000   0.85181691   -7.2067513    273.74431  0.021520779  0.021446805           14 
 1061000   0.82614712    -7.209219    273.93979  0.021515849  0.021428539           10 
 1062000   0.82932496   -7.1653719    273.77646  0.021482773  0.021410354            5 
 1063000   0.82337429    -7.184926    273.83599   0.02146723  0.021392293            6 
 1064000   0.83724683   -7.1844112    274.15299  0.021471882  0.021374138           12 
 1065000   0.82484136   -7.2138149    274.01053  0.021440574  0.021356027            8 
 1066000    0.8196771   -7.2015375    273.80886  0.021404695  0.021337985            5 
 1067000   0.83328887   -7.1948181    274.33329  0.021425593  0.021319912           12 
 1068000   0.82461951   -7.2090229    273.65676  0.021352744  0.021301741            6 
 1069000   0.83463381   -7.2078121     273.1677  0.021294644  0.021283479            7 
 1070000   0.82109458   -7.2345624    274.28587  0.021361828  0.021265242            6 
 1071000   0.82331121   -7.2343877    273.84067  0.021307241  0.021246925            7 
 1072000    0.8421254   -7.2041311    274.51153  0.021339516  0.021228732           10 
 1073000   0.80703591   -7.1744552    274.00161  0.021280025  0.021210712           14 
 1074000   0.84250766   -7.2247506     274.5231  0.021300675  0.021192659            8 
 1075000   0.85094356   -7.2314066    273.88013  0.021231017   0.02117479           25 
 1076000   0.82573993   -7.2229678    274.16201  0.021233117  0.021156858           26 
 1077000   0.82450948   -7.2415085    274.63367  0.021249897  0.021138825            5 
 1078000   0.82254448   -7.2292007    275.28659  0.021280658  0.021120877           13 
 1079000   0.82363652   -7.2270637    273.84654  0.021149717   0.02110288           12 
 1080000   0.81960451   -7.2074826    275.36359  0.021247191  0.021084916            9 
 1081000   0.84593517   -7.2142019    274.20157  0.021137956  0.021066887            9 
 1082000   0.83270011   -7.2222685    274.60633  0.021149594  0.021049027           14 
 1083000   0.82400493   -7.2448442    275.01917  0.021161832  0.021031104           10 
 1084000   0.82036743   -7.2293128    274.98803  0.021139916  0.021013247            8 
 1085000   0.82670762   -7.2095847    275.74622  0.021178665  0.020995427           16 
 1086000   0.82652091   -7.2279688    275.45662  0.021136941  0.020977643           10 
 1087000   0.80405105   -7.1900096    275.16117  0.021094846  0.020959915            7 
 1088000   0.82960963   -7.2322143    275.71149  0.021117608  0.020942185           13 
 1089000    0.8211191   -7.2163843     275.6076  0.021090266  0.020924398           13 
 1090000   0.83481018   -7.2286608    275.98629  0.021099869  0.020906649            5 
 1091000   0.80861634   -7.2324462    275.21402  0.021021541   0.02088891           10 
 1092000   0.80978212   -7.2199504    275.54625  0.021027644  0.020871225            3 
 1093000   0.81577514   -7.2133652    275.70698   0.02102066  0.020853559           11 
 1094000   0.81689745   -7.2685166    274.83404  0.020934951  0.020835816           14 
 1095000   0.81544609   -7.2250675    275.65488  0.020978302  0.020818111           12 
 1096000   0.82080261   -7.2609383      275.784  0.020968978  0.020800476           17 
 1097000   0.82216244   -7.2332762    276.26633  0.020986504  0.020782817            4 
 1098000    0.8263059   -7.2120832    276.39926  0.020977479  0.020765183            8 
 1099000   0.80649038   -7.2284312    275.63143  0.020900169  0.020747519           13 
 1100000   0.83409605   -7.2607987    275.65376   0.02088286  0.020729713            6 
 1101000   0.83632825   -7.2605426    275.46855  0.020849875  0.020711928           10 
 1102000   0.80301476   -7.2501013    276.06309  0.020875914  0.020694131           13 
 1103000   0.82673224   -7.2473735    275.19054  0.020791065  0.020676392            8 
 1104000   0.82124795    -7.244208    276.57758  0.020876931   0.02065877            7 
 1105000   0.83301462   -7.2593392    276.51187  0.020853082  0.020641249            7 
 1106000   0.81642237   -7.2424562    276.18718  0.020809763  0.020623726           11 
 1107000    0.8227027    -7.286496    276.66164  0.020826681  0.020606245           10 
 1108000   0.81725803   -7.2405445    277.37077  0.020861219  0.020588794           11 
 1109000    0.8090361   -7.2240041    277.15981  0.020826556  0.020571426           11 
 1110000   0.80139247   -7.2372251    277.26116  0.020815402  0.020554118            6 
 1111000   0.82377618   -7.2200733    277.17719  0.020790369  0.020536822           15 
 1112000   0.79223562   -7.2576874    276.49789  0.020720765  0.020519517            6 
 1113000   0.81622959   -7.2272167    278.13206  0.020824503   0.02050228           14 
 1114000   0.81100909   -7.2259981     277.4113  0.020751892  0.020485066            8 
 1115000   0.82723595   -7.2515131    277.19948   0.02071745   0.02046783           10 
 1116000   0.80039426   -7.2219284    277.51665  0.020722569  0.020450652            6 
 1117000   0.80822515   -7.2595485    277.42109  0.020696888  0.020433466           19 
 1118000   0.79760543   -7.2659389    277.70191  0.020699307  0.020416273            9 
 1119000    0.7948713   -7.2552583    278.18275  0.020716618  0.020399211           11 
 1120000   0.82363353   -7.2365804    278.32615  0.020708791  0.020382295            8 
 1121000   0.81377712   -7.2877451    277.36856  0.020619132  0.020365183            4 
 1122000   0.78728552   -7.2701424    277.32893  0.020597811  0.020348077           13 
 1123000   0.79641862      -7.3139    277.62245   0.02060125  0.020330826            7 
 1124000   0.79888614   -7.2820759    278.14502  0.020621665  0.020313771           16 
 1125000   0.80985895   -7.2499272    277.68653  0.020569372  0.020296728           11 
 1126000   0.79264168     -7.26055    277.48702   0.02053634  0.020279626            8 
 1127000   0.80274758   -7.2854337    277.52867  0.020521197  0.020262409           17 
 1128000   0.79454898   -7.2545023    278.32705  0.020561987  0.020245242           15 
 1129000   0.81251183   -7.3143952    277.08121  0.020451816  0.020228072           10 
 1130000   0.82217519   -7.2919629    278.04824  0.020505032  0.020211078            6 
 1131000   0.79477586   -7.3018598    277.92728   0.02047799  0.020194058           13 
 1132000   0.81222295   -7.2846042    277.27196  0.020411658   0.02017712           15 
 1133000   0.79367899    -7.268488    277.91466  0.020440914  0.020160129            7 
 1134000    0.8019547   -7.2721627    278.53686  0.020468611  0.020143002            5 
 1135000    0.8025004   -7.2972297    278.35871  0.020437497  0.020125856           16 
 1136000   0.80570923   -7.2876728    277.72974  0.020373367  0.020108721            4 
 1137000   0.81632035   -7.2892557    277.37028  0.020329103  0.020091527           22 
 1138000   0.78818366    -7.314918    277.59105  0.020327405  0.020074385           19 
 1139000   0.79225619   -7.2983888    278.47699  0.020374377  0.020057325           18 
 1140000    0.7911807   -7.3115347    278.23682  0.020338949   0.02004031           17 
 1141000     0.795224   -7.2944029    278.25707  0.020322602  0.020023287           14 
 1142000   0.79494381   -7.3217191    278.29501  0.020307575  0.020006222           35 
 1143000   0.77574836   -7.2893034    278.51982  0.020306199  0.019989196           47 
 1144000   0.80185082   -7.3274014    277.94553  0.020246615  0.019972093           29 
 1145000   0.81376927   -7.2937589    278.75045  0.020287515  0.019955097           14 
 1146000   0.79019757   -7.2900619    278.40763  0.020244883  0.019938139           15 
 1147000   0.79145952   -7.3101299    277.88767  0.020189456  0.019921085           21 
 1148000   0.80379964   -7.3229503    278.33691   0.02020448   0.01990412           21 
 1149000   0.78931708   -7.3144536     277.5084  0.020126806  0.019887053            8 
 1150000   0.80073734   -7.2836026    278.73793  0.020198401  0.019870068            5 
 1151000   0.79579671    -7.304893    277.72928  0.020107825  0.019853046            8 
 1152000   0.80299655   -7.3162905    277.91151  0.020103553  0.019836038            8 
 1153000   0.79026909   -7.3449038    277.85027  0.020081691  0.019818933            8 
 1154000    0.7858042   -7.3134681    278.24328  0.020092669   0.01980192            7 
 1155000    0.8098809   -7.3390267    278.56263  0.020098314  0.019784838           10 
 1156000   0.80064711   -7.3446848    278.25745  0.020058928  0.019767765           20 
 1157000    0.7737365   -7.3251262    278.66169  0.020070706  0.019750762           12 
 1158000   0.81127305   -7.3407886    278.06207  0.020010224  0.019733781           11 
 1159000   0.79727944   -7.3451594    278.20376  0.020003146  0.019716813           10 
 1160000   0.78682671   -7.3271859    278.49744     0.020007  0.019699802           23 
 1161000   0.78226217     -7.35122    278.73063  0.020006505  0.019682833           16 
 1162000   0.77581796   -7.3322593     279.0172   0.02000984  0.019665855           21 
 1163000   0.79825332   -7.3189748    278.11706  0.019928136  0.019648977           22 
 1164000   0.77617131   -7.3423997    278.03637  0.019905238   0.01963212           17 
 1165000   0.78595792   -7.3235082     278.6641  0.019933054  0.019615338           20 
 1166000   0.79708897   -7.3216818    278.16953  0.019880612  0.019598539           20 
 1167000   0.80693498   -7.3406527    278.64296  0.019897383  0.019581696           12 
 1168000   0.77375886    -7.336204    278.82538  0.019893364  0.019564802           12 
 1169000   0.78188986    -7.344278    278.50879  0.019853777   0.01954796           14 
 1170000   0.77730827   -7.3693133     278.7158  0.019851553  0.019531067            7 
 1171000   0.78677515   -7.3289552    278.86646  0.019845322   0.01951417           19 
 1172000   0.78489356   -7.3482633    278.58014   0.01980803  0.019497302            9 
 1173000   0.77646833     -7.34657    278.63331  0.019794921   0.01948038            6 
 1174000   0.79515735   -7.3729978    278.32607  0.019756252  0.019463396           12 
 1175000   0.80273158   -7.3968894     277.7974  0.019701943  0.019446363           22 
 1176000   0.78607709   -7.3966117    277.77692  0.019683739  0.019429347           18 
 1177000   0.78430997   -7.3672319     278.5968  0.019725063  0.019412399           15 
 1178000   0.77797248   -7.3676438    278.58343  0.019707373  0.019395506           14 
 1179000    0.7821649   -7.3712178    278.48519  0.019683714  0.019378754           12 
 1180000   0.78562101   -7.3607329    279.56439  0.019743248  0.019362054           12 
 1181000   0.79368515   -7.3574841    279.46855  0.019719768  0.019345312           11 
 1182000   0.78970082   -7.3755336    279.38834   0.01969743  0.019328625           18 
 1183000   0.77974046   -7.3464748    279.26723  0.019672248  0.019312012            7 
 1184000   0.78534686   -7.3395796    279.77076  0.019691073  0.019295387            8 
 1185000   0.76375767   -7.3394505    279.23004  0.019636431   0.01927872           15 
 1186000   0.78439705   -7.3408963    279.88197  0.019665681  0.019262068           15 
 1187000   0.75832774   -7.3603733    279.85341  0.019647109  0.019245388            8 
 1188000   0.77639349    -7.363806    278.96852  0.019568499  0.019228715           11 
 1189000   0.78302315   -7.3335102     280.1095  0.019632009  0.019212072           22 
 1190000   0.76914953   -7.3562867    279.11542  0.019545898  0.019195465           22 
 1191000   0.78962846    -7.365132    278.97967  0.019519988  0.019178731           19 
 1192000   0.79096032   -7.3663355    279.24218  0.019521964  0.019162014           14 
 1193000    0.7690343   -7.3829758    278.70575   0.01946813  0.019145333           27 
 1194000   0.77911488   -7.3807394    279.35255  0.019496967  0.019128652           16 
 1195000   0.78570379   -7.3497354    278.49619  0.019420934  0.019111847           41 
 1196000   0.76654555   -7.3858595    278.35801  0.019395068  0.019095059           15 
 1197000   0.77529886   -7.3814437    278.42091  0.019383243  0.019078313           35 
 1198000   0.75631047    -7.390694    278.83321  0.019395743  0.019061499            8 
 1199000   0.76163061   -7.4043658    278.79174  0.019376685   0.01904476            7 
 1200000   0.75864908   -7.3898583     278.1587  0.019316576  0.019028064           11 
 1201000   0.77336594   -7.3882458    279.17883  0.019371276  0.019011312           14 
 1202000   0.78367388   -7.3836388    278.36692  0.019298871  0.018994498           18 
 1203000   0.79690211   -7.3810729    278.83848  0.019315495  0.018977778           17 
 1204000   0.77912675   -7.4050057    277.81907  0.019228895  0.018961137           29 
 1205000   0.77013266   -7.3981641    278.67562  0.019272173  0.018944434           44 
 1206000    0.7675182   -7.3823876    278.45079  0.019240657  0.018927726           16 
 1207000   0.77817896   -7.3968279     278.3717  0.019219256   0.01891105           46 
 1208000   0.75449161   -7.3839744    278.13225  0.019186827  0.018894311           59 
 1209000    0.7611718   -7.3529051    279.60155  0.019272233  0.018877664           63 
 1210000   0.78247368   -7.3804754     279.5997  0.019256178  0.018861114           62 
 1211000   0.76242509   -7.4352882    278.04187  0.019133077  0.018844441           96 
 1212000   0.78127734    -7.415943    278.40499  0.019142257  0.018827701          118 
 1213000   0.76715755   -7.3942979    279.37565  0.019193161  0.018811064           84 
 1214000   0.76214242    -7.397005    279.80769  0.019207008  0.018794427           47 
 1215000   0.78352578   -7.3866074    278.77625  0.019120456    0.0187778           42 
 1216000   0.77372403   -7.3942271    278.74257  0.019102424  0.018761198           82 
 1217000    0.7782122   -7.4054148    278.07724   0.01904117  0.018744503           71 
 1218000   0.76235597   -7.4163241    278.98639  0.019087739  0.018727843           49 
 1219000   0.77461674   -7.3934196    278.55431  0.019042542  0.018711153           36 
 1220000   0.76813252   -7.4152709    278.79596   0.01904344  0.018694491           57 
 1221000   0.75860949   -7.3862371    279.32239  0.019063772  0.018677934           22 
 1222000   0.77393449   -7.4084487    278.83051  0.019014628  0.018661359           41 
 1223000    0.7577728    -7.422115    278.82121  0.018998447  0.018644745           42 
 1224000   0.76404612   -7.4214987    278.87772  0.018986773  0.018628161           54 
 1225000   0.77293213   -7.4173814    279.39949  0.019006768  0.018611616           46 
 1226000   0.77095949   -7.3857895    278.89961  0.018957287  0.018595128           60 
 1227000    0.7443737   -7.4481025    278.65678  0.018925345  0.018578616           26 
 1228000   0.76477544   -7.4327395    279.35045  0.018957007  0.018562075           36 
 1229000    0.7581587    -7.428955    278.59627  0.018890444  0.018545577           36 
 1230000    0.7692149   -7.4292424    279.59387  0.018942674  0.018529106           73 
 1231000   0.75246853   -7.4468736    279.31648  0.018908508  0.018512601           25 
 1232000   0.77144195   -7.4572632    279.43086  0.018900897  0.018496221           28 
 1233000   0.75673584    -7.438322     279.0785  0.018861753  0.018479802           53 
 1234000   0.76078923   -7.4332388    279.08813  0.018847118  0.018463365           30 
 1235000   0.75615923   -7.4355883    279.37174  0.018850995  0.018447012           17 
 1236000   0.75522905   -7.4069584     280.1449  0.018887871  0.018430757           28 
 1237000   0.75881448   -7.4370869    280.17088  0.018874352  0.018414503           19 
 1238000   0.74949893   -7.4182052    279.55737  0.018817809  0.018398258           35 
 1239000   0.76731481   -7.4041684    279.72215  0.018813704  0.018382051           27 
 1240000   0.75185877   -7.4419859     279.7092  0.018797661   0.01836583           17 
 1241000   0.75199903   -7.4464145    279.83408    0.0187909  0.018349574           18 
 1242000   0.75811786   -7.4529838    279.20817  0.018733774   0.01833333           21 
 1243000   0.76204185   -7.4552777    279.07007  0.018709444  0.018317128           31 
 1244000   0.75852055   -7.4365246    279.62107  0.018731315  0.018300954           37 
 1245000   0.74584599   -7.4422909    279.93644  0.018737379  0.018284775           15 
 1246000   0.75273094   -7.4504595    279.34504  0.018682788  0.018268591           53 
 1247000    0.7669415   -7.4624879    278.95225  0.018641556  0.018252377          125 
 1248000   0.75850562   -7.4518341    279.31046  0.018650538  0.018236132           26 
 1249000   0.74975148   -7.4397664    279.98158  0.018680383  0.018219973           48 
 1250000   0.74470756   -7.4533266    279.05117  0.018603411  0.018203816           41 
 1251000   0.74304148   -7.4397981     279.4571  0.018615581  0.018187727           39 
 1252000   0.75931737   -7.4515521    279.60999  0.018610888  0.018171602           42 
 1253000   0.75330411   -7.4099846    280.12543  0.018630316  0.018155422           19 
 1254000   0.74686769   -7.4222345    279.47239  0.018572062  0.018139333           45 
 1255000   0.75294805   -7.4131846    280.49899  0.018625431  0.018123204           36 
 1256000   0.74842903   -7.4313422    279.61295  0.018551815  0.018107123           27 
 1257000   0.74780055   -7.4403832    279.95766  0.018559909  0.018090987           27 
 1258000   0.75333984    -7.434794    279.45507  0.018511862  0.018074868           15 
 1259000   0.76347384   -7.4573514    279.24263  0.018483097  0.018058782           13 
 1260000   0.74285095   -7.4540752    279.57519  0.018490423  0.018042698           21 
 1261000   0.74546616   -7.4548846     279.9944  0.018503463  0.018026559           19 
 1262000   0.76180086   -7.4350324    279.52808  0.018458008  0.018010513           15 
 1263000   0.73292809   -7.4557337     279.5854  0.018447176  0.017994439           14 
 1264000   0.74727384   -7.4518599    279.42024  0.018421693  0.017978385           14 
 1265000   0.73272705   -7.4234508    280.35139  0.018468471  0.017962343           16 
 1266000   0.73698231   -7.4521443    279.45421  0.018394827  0.017946348           14 
 1267000   0.74170075   -7.4436366    280.21543  0.018430376  0.017930344           16 
 1268000   0.74177258   -7.4530767    279.95469  0.018398704  0.017914371           27 
 1269000   0.73544763   -7.4456624    279.61218  0.018361714  0.017898425           15 
 1270000   0.74993448   -7.4448476    280.69557  0.018418344  0.017882549           26 
 1271000   0.74536309   -7.4464531    279.59354  0.018331598  0.017866655           39 
 1272000   0.76365687   -7.4882583    279.91403  0.018338183  0.017850741           60 
 1273000   0.73957433   -7.4562805    280.00368  0.018329647  0.017834855           34 
 1274000   0.74344187    -7.479246    279.65534  0.018292474  0.017818894           51 
 1275000   0.73786673   -7.4580924    279.67983  0.018279728   0.01780288           12 
 1276000   0.72696233   -7.4466387    280.02735  0.018288098   0.01778696           35 
 1277000   0.74109851   -7.4534349    279.57955  0.018244554  0.017771006           35 
 1278000   0.75987495   -7.4594612    278.96303  0.018190077  0.017755018           17 
 1279000   0.74540122   -7.4699954    280.26697  0.018260814  0.017739108           15 
 1280000   0.74124384   -7.4868914    279.98841  0.018228412  0.017723265           47 
 1281000    0.7280818   -7.5094922    280.08292   0.01822033  0.017707385           18 
 1282000   0.74085525   -7.4577386    279.72282  0.018182711  0.017691492           23 
 1283000   0.74669689   -7.4830337    279.56091  0.018158022  0.017675621           25 
 1284000   0.74161251   -7.4705581    279.59281  0.018145951  0.017659769           29 
 1285000    0.7564438    -7.475679     279.9709  0.018156349  0.017643945           19 
 1286000   0.76983991   -7.4663487     280.5799  0.018181694   0.01762823           23 
 1287000   0.75397567   -7.4483145     280.3119  0.018150214  0.017612545           33 
 1288000   0.73354569    -7.469734    280.49631  0.018148053  0.017596901           21 
 1289000   0.74683169   -7.5037576    280.40385  0.018127997   0.01758125           27 
 1290000   0.75302116   -7.4964762    280.14099  0.018096963  0.017565519           20 
 1291000   0.74675609   -7.4738308    279.97706  0.018072364  0.017549784           19 
 1292000   0.73272005   -7.4613068     280.7413  0.018107669  0.017534117           14 
 1293000   0.73411591   -7.4891518     280.1711  0.018056916  0.017518464           16 
 1294000   0.74494632   -7.4480236    280.47019  0.018062223  0.017502823           13 
 1295000   0.73349024    -7.465751    280.36078  0.018041234  0.017487251            5 
 1296000   0.73977263   -7.4698982    280.95319  0.018065406  0.017471729           10 
 1297000    0.7152354   -7.5028207    280.35149  0.018012817  0.017456207           28 
 1298000   0.73767311   -7.4476212    280.78084  0.018026505  0.017440712           25 
 1299000   0.74061737   -7.4793619    280.70335  0.018007657  0.017425262           22 
 1300000   0.73243805   -7.4499318    281.01919   0.01801405   0.01740982           13 
 1301000   0.73356663   -7.4532336    280.36053  0.017958015  0.017394444            9 
 1302000   0.71685065   -7.4700568    280.38315   0.01794567  0.017379062           22 
 1303000   0.72431756   -7.4961712    280.21899  0.017921399  0.017363643           14 
 1304000   0.73697647   -7.4691089    280.35627  0.017916428  0.017348182           12 
 1305000    0.7332437   -7.4575822    280.35416  0.017902564  0.017332763           24 
 1306000   0.74182787   -7.4768475    280.63464  0.017906754  0.017317344           22 
 1307000    0.7226377   -7.4874295    280.82587  0.017905246  0.017301947           16 
 1308000   0.72866627   -7.5006169    280.31576  0.017859057  0.017286562           24 
 1309000   0.71735285   -7.4984518    280.34933  0.017847551  0.017271153           21 
 1310000   0.74410224   -7.4860776    280.07493  0.017816471   0.01725575           13 
 1311000   0.71974536    -7.488376    280.40348  0.017823766  0.017240363           25 
 1312000   0.72475781   -7.4824247    281.22764  0.017862528  0.017225059           18 
 1313000    0.7355918   -7.4787864    281.02349  0.017835967  0.017209795           12 
 1314000   0.74261158   -7.4985693    280.92782  0.017816326  0.017194498           10 
 1315000    0.7266765    -7.505874    281.27894  0.017825028    0.0171792           20 
 1316000   0.71079971   -7.5061049    280.96048  0.017791317  0.017163919           23 
 1317000   0.71220993   -7.5329149    280.95469  0.017777442  0.017148624           39 
 1318000   0.73720519    -7.534051    280.47979  0.017733927  0.017133275           25 
 1319000   0.72760913   -7.4983969     280.8055   0.01774106  0.017117969           40 
 1320000   0.73044343   -7.5419618    279.74472  0.017660652   0.01710263           32 
 1321000   0.73606125   -7.5188246    280.11633  0.017670725  0.017087309           46 
 1322000   0.71447313   -7.5330013    280.08591   0.01765544  0.017072015           45 
 1323000   0.72157941   -7.5345383    279.91996  0.017631643  0.017056703           69 
 1324000    0.7229126   -7.5099648    281.00634  0.017686703  0.017041475           40 
 1325000   0.72583648   -7.5220046    280.26407  0.017626671  0.017026252           79 
 1326000    0.7385167   -7.5316889    281.04738  0.017662606  0.017011025           40 
 1327000   0.73626952   -7.5243808    280.68381  0.017626464  0.016995839           33 
 1328000    0.7246312   -7.5255449    280.41564  0.017596363   0.01698068           21 
 1329000   0.73725011   -7.5298841    280.50782  0.017588902   0.01696557           41 
 1330000   0.71798259   -7.5226203    280.79918  0.017593933  0.016950456           16 
 1331000   0.72148858    -7.549507    279.58612  0.017504766  0.016935314           18 
 1332000   0.73068294    -7.523424    281.40213  0.017605238  0.016920178           19 
 1333000   0.73094656   -7.4947837    280.63342  0.017543975  0.016905079           17 
 1334000   0.72091229   -7.5043211    280.91365  0.017548329  0.016890016           39 
 1335000   0.72295281   -7.5472437    279.83703   0.01746798  0.016874973           62 
 1336000   0.72082346   -7.5287043    280.54464  0.017499042  0.016859877           98 
 1337000   0.72777233   -7.5428476     280.4916  0.017482648  0.016844777           31 
 1338000   0.72503415   -7.5353088    280.75348  0.017485892  0.016829693           16 
 1339000   0.71497143   -7.4970016    281.01923  0.017489372  0.016814645           25 
 1340000   0.72225721   -7.4887132     281.3224  0.017495174  0.016799655           72 
 1341000   0.71914137   -7.5170491    280.70113   0.01744352  0.016784635           13 
 1342000    0.7025515   -7.5385071    280.53726  0.017420346  0.016769585           22 
 1343000   0.72169314   -7.5068136    281.20759   0.01744897  0.016754563           25 
 1344000   0.70182263   -7.5185793    280.84226  0.017413335  0.016739596           16 
 1345000   0.72987748   -7.5467633    280.60634  0.017385771  0.016724599           17 
 1346000    0.7386188   -7.5330813    280.73759   0.01738098  0.016709617           16 
 1347000   0.71414844   -7.5533244    280.43079  0.017349096  0.016694661           26 
 1348000   0.74176029   -7.5516589    280.51949  0.017341709  0.016679666           37 
 1349000   0.71935418   -7.5644958    280.29377   0.01731491   0.01666472           17 
 1350000   0.70928904   -7.5461896    280.99293  0.017345243  0.016649771           19 
 1351000   0.71495958   -7.5174714    280.14098  0.017279853  0.016634852           49 
 1352000   0.71180736   -7.5340468    280.99941  0.017319984   0.01661996           29 
 1353000   0.72553405   -7.5252145    280.50239   0.01727657  0.016605122           34 
 1354000   0.72405453   -7.5454388    280.83977  0.017284574  0.016590219           57 
 1355000   0.70778318   -7.5689909    279.79468  0.017207545  0.016575346           41 
 1356000   0.70078328   -7.5532873    280.64636  0.017247195  0.016560454           20 
 1357000   0.72099888   -7.5292162    280.59116  0.017231096  0.016545607           26 
 1358000    0.6993528    -7.542622     280.6492  0.017221968  0.016530789           14 
 1359000   0.71027322   -7.5396641    280.22627  0.017183362  0.016515951           34 
 1360000   0.72201205   -7.5441465    280.54722  0.017190393  0.016501157           17 
 1361000   0.72287828   -7.5570618    280.41511  0.017169674  0.016486375           29 
 1362000   0.71104362   -7.5908143     280.5585  0.017165841  0.016471551           49 
 1363000   0.72224205   -7.5918274    279.79911  0.017106818  0.016456663           23 
 1364000   0.71316667    -7.592005    279.91189  0.017101166  0.016441815           23 
 1365000   0.69907733   -7.5708213    281.06149  0.017158821  0.016426974           35 
 1366000   0.70539439   -7.5582105    280.41549   0.01710685  0.016412123           43 
 1367000    0.7103184   -7.5563916    280.65436  0.017108898  0.016397308           26 
 1368000     0.695698   -7.5807845     280.3689  0.017079002  0.016382489           21 
 1369000   0.69721917    -7.590936    280.89737  0.017098696  0.016367654           48 
 1370000   0.70460095   -7.5986396    279.94896  0.017028526  0.016352801           29 
 1371000   0.71521129   -7.6107412    279.82212  0.017008395   0.01633792           23 
 1372000   0.71140014   -7.5976257    279.84629  0.016997467  0.016323048           34 
 1373000   0.70894088   -7.5961011    280.14156  0.017003008  0.016308192           31 
 1374000   0.69239597   -7.6049446    280.28001   0.01699903  0.016293338           30 
 1375000   0.70747484   -7.6073378    280.02687  0.016971326   0.01627846           45 
 1376000   0.69382224   -7.6295279    279.10569  0.016903203  0.016263571           28 
 1377000   0.72755967   -7.6015498    280.32821  0.016964912   0.01624874           32 
 1378000   0.70212981   -7.5815511    279.95414  0.016929979  0.016233873           25 
 1379000   0.69598011   -7.6011798    279.62625  0.016897888  0.016218989           19 
 1380000   0.70022512   -7.6157442    279.97176  0.016906507  0.016204141           26 
 1381000   0.69182337   -7.5886695    280.06235  0.016899731  0.016189321           27 
 1382000   0.69971269   -7.6012007    280.18154   0.01689469  0.016174512           31 
 1383000   0.69911655   -7.6143345    279.89158  0.016865002  0.016159725           34 
 1384000   0.68685987   -7.5807537    280.06912  0.016863507  0.016144935           22 
 1385000   0.70564709   -7.6206326     279.4473  0.016813917  0.016130201           23 
 1386000   0.70520148   -7.5938401    279.71595  0.016817939  0.016115479           21 
 1387000    0.6969287   -7.6181775    279.91363   0.01681769  0.016100761           37 
 1388000   0.71016481   -7.6398113    279.59478   0.01678643  0.016086048           35 
 1389000   0.69492933   -7.6204595    279.88172   0.01679156  0.016071342           34 
 1390000   0.68969515   -7.5726002      279.906  0.016780935  0.016056736           34 
 1391000   0.69558728   -7.6123547    279.37111  0.016736826  0.016042143           27 
 1392000   0.69581832   -7.6276861    279.93603  0.016758622  0.016027551           31 
 1393000   0.70117545   -7.6100605    279.79918  0.016738405  0.016012934           21 
 1394000    0.7009532   -7.6307451    279.79455  0.016726121    0.0159984           13 
 1395000   0.70535311   -7.6130261    280.34263  0.016746871  0.015983808           46 
 1396000   0.70208691   -7.6085504    280.11454   0.01672126  0.015969284           37 
 1397000   0.69123862   -7.6118107    280.38154  0.016725217  0.015954787           62 
 1398000   0.68721616   -7.6210885    280.41915  0.016715496  0.015940297           57 
 1399000   0.69820009   -7.6177666    279.93323  0.016674603  0.015925797           47 
 1400000     0.694398   -7.6509468    279.45353  0.016634139  0.015911261           23 
 1401000   0.68485188     -7.64399    279.85928    0.0166464  0.015896727           31 
 1402000   0.69415825    -7.639844     279.3349  0.016603358  0.015882177           26 
 1403000   0.69595352   -7.6132397    280.06751  0.016635038   0.01586759           26 
 1404000   0.68486188   -7.6317306    279.48987  0.016588905  0.015853026           46 
 1405000   0.68232116   -7.6409624    279.12593  0.016555512  0.015838488           49 
 1406000   0.69215356   -7.6414908    279.25105  0.016551153  0.015823915           30 
 1407000   0.70225614   -7.6505714    279.07441  0.016528928   0.01580942           37 
 1408000     0.694403   -7.6547207    279.76274  0.016557927  0.015794879           33 
 1409000   0.68043907   -7.6545407    278.81133  0.016489906  0.015780357           54 
 1410000   0.67043166   -7.6732519    279.39712  0.016512832  0.015765865           68 
 1411000   0.70110273   -7.6544872    279.77822  0.016523637  0.015751326           66 
 1412000   0.68793245    -7.625398    279.36479  0.016487535  0.015736833           98 
 1413000    0.6804537   -7.6785979    278.79813  0.016442447  0.015722344           49 
 1414000   0.69365021   -7.6575159    279.17516  0.016453039  0.015707852           49 
 1415000   0.69675382   -7.6760077    278.71127  0.016414091  0.015693398           36 
 1416000   0.67914319    -7.632061    279.38575  0.016442194  0.015678896           31 
 1417000   0.69806047   -7.6760553     279.1034  0.016413985  0.015664398           46 
 1418000   0.69426978   -7.6630046    279.41002  0.016420429  0.015649882           56 
 1419000   0.69196097   -7.6766925    278.66189  0.016364922  0.015635414           85 
 1420000   0.68882523    -7.695683    278.79189  0.016361027  0.015620981          114 
 1421000   0.69732574   -7.6558092     279.1889  0.016372795   0.01560659           63 
 1422000   0.67515556   -7.6468318    279.46357  0.016377378  0.015592231           66 
 1423000   0.68888142   -7.6547028     279.2297  0.016352173  0.015577871           75 
 1424000   0.68161685   -7.6631492     279.4356  0.016352739   0.01556354          108 
 1425000   0.69295366   -7.6775944    279.10961    0.0163222  0.015549195           91 
 1426000   0.70958992    -7.655483     279.3181  0.016322937  0.015534861          103 
 1427000    0.6661665   -7.6987589    279.13695  0.016300919   0.01552056           70 
 1428000   0.68788517   -7.6543215    278.81588  0.016270768  0.015506253           91 
 1429000   0.68266189   -7.6532296    279.42282  0.016294776  0.015491982           81 
 1430000   0.68522258   -7.6663173    279.56154  0.016291465  0.015477745          118 
 1431000   0.68051381   -7.6743586    279.29041  0.016264291  0.015463516           92 
 1432000   0.68303626   -7.6671031    279.09249  0.016241416  0.015449307          123 
 1433000   0.68320689   -7.6678446    279.07163  0.016228869  0.015435132          140 
 1434000   0.67364829   -7.6474094    279.82143  0.016261125  0.015420978           72 
 1435000   0.67705281   -7.6507169    279.49665  0.016230932  0.015406841           98 
 1436000   0.67076594   -7.6730175     279.6498  0.016228517  0.015392705           71 
 1437000   0.68548674   -7.6649279    279.18306  0.016190156  0.015378562          114 
 1438000   0.67626071   -7.6683444    279.08706  0.016173335  0.015364387          100 
 1439000   0.67271202   -7.6749904    279.25734  0.016171956  0.015350187          110 
 1440000   0.68280972   -7.6898329    279.25602  0.016160649  0.015336024          141 
 1441000    0.6854803   -7.6603826    279.61767  0.016170349  0.015321895          151 
 1442000   0.68162458   -7.6551628    279.19889  0.016134933  0.015307777          111 
 1443000   0.68396382   -7.6858553    279.15238  0.016121066  0.015293676          148 
 1444000    0.6764964    -7.694568    279.43087  0.016125974  0.015279623          176 
 1445000   0.67831119   -7.6812983    279.10538  0.016096042  0.015265599          111 
 1446000   0.66960456   -7.6850661    279.14751  0.016087339  0.015251568          154 
 1447000   0.66980981   -7.6728937    279.59044   0.01610173  0.015237577          124 
 1448000    0.6738289   -7.6811084    279.44441  0.016082206  0.015223601          127 
 1449000   0.67325136   -7.7006818    279.23099  0.016058833  0.015209633          150 
 1450000   0.66814886   -7.6746694    279.19411  0.016045639  0.015195651          203 
 1451000   0.67953137   -7.6778758      280.249  0.016095164   0.01518168          113 
 1452000   0.67321516   -7.7139268    278.80881  0.016001424  0.015167744          141 
 1453000   0.67501001   -7.6966497    279.34728  0.016021294  0.015153829          157 
 1454000    0.6803064   -7.7033212    278.94137  0.015987011  0.015139917          150 
 1455000   0.66592726    -7.721685    279.29468  0.015996259  0.015126018           73 
 1456000   0.67719858   -7.7154345     278.7908  0.015956433   0.01511213           73 
 1457000   0.68241266   -7.6984034    279.54591   0.01598867   0.01509827           94 
 1458000   0.67595931   -7.7094351    279.24472  0.015960489  0.015084381           53 
 1459000   0.66072124    -7.705737    278.77907  0.015922953  0.015070541          107 
 1460000   0.67288602   -7.7041045    278.92155   0.01592018  0.015056651           87 
 1461000   0.67238688   -7.7083942    279.30976  0.015931426  0.015042768          100 
 1462000   0.66314428   -7.6918004    279.01262  0.015903592  0.015028883           92 
 1463000   0.66684662   -7.7172468    278.79329  0.015880228  0.015015007           84 
 1464000   0.66689144    -7.702041    279.05328  0.015884181  0.015001123          119 
 1465000   0.66955475   -7.7317682     278.4148  0.015837019   0.01498727          136 
 1466000   0.66658482   -7.6896925    279.93653  0.015912718  0.014973433          105 
 1467000   0.67416319   -7.7209354    278.64386   0.01582844  0.014959596          156 
 1468000   0.69149209   -7.7212202    278.95355  0.015835238  0.014945794          114 
 1469000   0.66151211   -7.7106376    279.36923  0.015848039   0.01493198           82 
 1470000   0.65759924   -7.7037088    278.56602  0.015791725    0.0149182          108 
 1471000   0.67247555   -7.7280018     279.1427  0.015813659  0.014904422          110 
 1472000   0.64327067   -7.7236302    278.71356  0.015778621  0.014890662           74 
 1473000   0.64377904   -7.7157775    279.16675  0.015793548  0.014876864           66 
 1474000   0.66629912   -7.7448712    278.89725  0.015767597  0.014863128           95 
 1475000   0.65741341   -7.7339801    278.79632  0.015751204  0.014849403          151 
 1476000   0.65789939   -7.7141441    278.87487  0.015744968  0.014835707          128 
 1477000   0.66149003   -7.6987131    278.79917  0.015730037  0.014821978           73 
 1478000   0.65710081   -7.7238407      278.983  0.015729758  0.014808303           77 
 1479000   0.66385446   -7.7360128    278.73272  0.015705021  0.014794626           64 
 1480000    0.6582159   -7.7018638    279.04255  0.015711856  0.014780981           87 
 1481000   0.66346234   -7.7057184    278.95157  0.015696127  0.014767352          109 
 1482000   0.64040692   -7.7086765      278.633  0.015667623  0.014753742          161 
 1483000   0.65219757   -7.7122427    278.50699  0.015649977  0.014740111           82 
 1484000    0.6616718   -7.7234511    278.18866  0.015621556   0.01472652           75 
 1485000   0.64804055   -7.7272558    278.68013  0.015638615   0.01471293          177 
 1486000   0.65719726   -7.7480666    278.62267  0.015624869  0.014699345          113 
 1487000   0.65678661   -7.7194157    278.69458  0.015618392  0.014685782           84 
 1488000   0.66196365   -7.7475695    279.10386  0.015630817  0.014672224          182 
 1489000   0.66791317   -7.7459677    278.62442  0.015593487   0.01465867           88 
 1490000   0.65882484   -7.7416383    278.69601  0.015587025   0.01464518          120 
 1491000   0.64909443    -7.729473    278.58345   0.01557028  0.014631675          171 
 1492000    0.6394085   -7.7329101    278.85117  0.015574797  0.014618191          114 
 1493000   0.65888915    -7.727789    278.57747  0.015549088  0.014604751          266 
 1494000   0.65313975   -7.7335865    278.50429  0.015534599  0.014591321          157 
 1495000   0.66721709   -7.7347785    279.33957  0.015570767  0.014577877           85 
 1496000   0.66488667   -7.7579451      278.532  0.015515374  0.014564443          217 
 1497000   0.64852753   -7.7677656    278.43311  0.015499505  0.014551025          181 
 1498000   0.67497786   -7.7328892    278.60016  0.015498451  0.014537658          140 
 1499000   0.66012677   -7.7458663    278.54721  0.015485168  0.014524304          115 
 1500000   0.67373917   -7.7381929    279.02577  0.015501432  0.014510952           97 
 1501000   0.67188596   -7.7408884    279.01111   0.01549029    0.0144976          150 
 1502000   0.63964714   -7.7605963     278.3168  0.015441456  0.014484267           78 
 1503000   0.65585228   -7.7719567     278.5339  0.015443219  0.014470898          128 
 1504000    0.6524841   -7.7719828     278.3538  0.015422972  0.014457579          115 
 1505000   0.65069354   -7.7449801    278.64202  0.015428683  0.014444267          111 
 1506000   0.65340058   -7.7521302    278.86825  0.015430957  0.014430961           98 
 1507000    0.6475963   -7.7510389     278.9324  0.015424264   0.01441762          139 
 1508000   0.65939965   -7.7604928    278.31528  0.015379933  0.014404329          215 
 1509000   0.63618065    -7.772396    278.25988  0.015366682  0.014391071           71 
 1510000   0.66018097    -7.753887    278.56467  0.015373326  0.014377812          113 
 1511000   0.64978667   -7.7521162    279.10297   0.01539284  0.014364573          132 
 1512000   0.65021782   -7.7604196    277.94903   0.01531906  0.014351314          161 
 1513000   0.65236898   -7.7614332    278.86934  0.015359624  0.014338099          115 
 1514000    0.6491933    -7.766398    278.11288  0.015307842  0.014324873          120 
 1515000   0.65800977   -7.7679474    278.25991  0.015305826  0.014311623          126 
 1516000   0.64742473   -7.7861609    278.64835  0.015317082  0.014298421           98 
 1517000   0.64639964   -7.7464626    278.82911  0.015316914  0.014285224          147 
 1518000   0.65034417   -7.8054262    278.21103  0.015272894  0.014272073          156 
 1519000   0.64326622   -7.7448303    278.53157  0.015280424  0.014258902          114 
 1520000   0.67294981   -7.7479555    278.89923  0.015290528  0.014245759          128 
 1521000   0.66428576   -7.7601744    278.38132    0.0152521  0.014232632           91 
 1522000   0.63260155   -7.7473866    278.82162  0.015266186  0.014219524          116 
 1523000   0.63649412    -7.761487    278.65311  0.015246942  0.014206432           49 
 1524000   0.65565003   -7.7509075    278.61354  0.015234774  0.014193346          141 
 1525000   0.61891068   -7.7706241    278.74077  0.015231736  0.014180305           96 
 1526000   0.64375309   -7.7438885    278.24322  0.015194584  0.014167271          104 
 1527000   0.65349102   -7.7631212    278.23346  0.015184101  0.014154263          166 
 1528000   0.64436923   -7.7701569    279.47236   0.01524173  0.014141288          172 
 1529000   0.64127682   -7.7699231     278.5508  0.015181535  0.014128353          157 
 1530000   0.64114598    -7.756605    278.99869  0.015196007  0.014115394          122 
 1531000    0.6337138    -7.767134    278.46023  0.015156773  0.014102425          131 
 1532000   0.63707344   -7.7931176    278.51532  0.015149876  0.014089463          260 
 1533000   0.64487041   -7.7506176    278.89069  0.015160398  0.014076496          170 
 1534000   0.62794326   -7.7822735    278.32535  0.015119804  0.014063558          127 
 1535000   0.63970505   -7.7645078    278.64407  0.015127257  0.014050627          140 
 1536000   0.63565453   -7.7720713    278.59607  0.015114804  0.014037731          165 
 1537000   0.62836322   -7.7909515    278.00541  0.015072946  0.014024843          212 
 1538000   0.64424314    -7.774244     278.4985  0.015089863  0.014011932          207 
 1539000   0.65478837   -7.7628613    278.16447  0.015061971  0.013999073          108 
 1540000   0.62424523   -7.7855985    278.01395  0.015044045  0.013986177          225 
 1541000   0.63570795   -7.7919705    278.36773  0.015053414   0.01397332          198 
 1542000   0.65143982   -7.7793941    278.47019  0.015049189  0.013960451          229 
 1543000   0.63016396   -7.7448365    278.75574  0.015054857   0.01394763          144 
 1544000   0.62377669   -7.7709367    278.90872  0.015053364  0.013934836          229 
 1545000   0.62484747   -7.8050133    278.02606  0.014996012  0.013922022          172 
 1546000   0.65128641   -7.8002937    278.29466   0.01500079  0.013909188          130 
 1547000   0.62811332   -7.7842108    277.89511  0.014969571  0.013896395          158 
 1548000   0.62224156    -7.820484    278.21616  0.014977183  0.013883602          166 
 1549000   0.64107104   -7.7879171    278.44173   0.01497965  0.013870821          205 
 1550000   0.62673238   -7.7983007    278.15163  0.014954389  0.013858032          213 
 1551000   0.62925039   -7.8042052    278.56665  0.014967045  0.013845286          161 
 1552000   0.64807921   -7.8032996    278.22604  0.014939113  0.013832511           76 
 1553000   0.62499403   -7.7927112     278.2986  0.014933387   0.01381973          192 
 1554000   0.62443163   -7.8030037    277.73089  0.014893334  0.013806971          275 
 1555000   0.63758421   -7.8026966    277.34871  0.014863275  0.013794225          205 
 1556000    0.6292864   -7.7810908    278.06435   0.01489205  0.013781538          195 
 1557000   0.61719935   -7.7991361    277.82609  0.014869733  0.013768835          156 
 1558000   0.63162484    -7.804451    277.82603  0.014860186  0.013756138          319 
 1559000   0.63337479   -7.8081135    278.00251  0.014860087  0.013743472          266 
 1560000   0.63884446   -7.8083439    278.07123  0.014854233  0.013730803          183 
 1561000    0.6183563   -7.8125185    277.74217   0.01482715  0.013718155          146 
 1562000   0.63138229   -7.8089644    277.55059  0.014807437    0.0137055          270 
 1563000   0.62556151   -7.8042813    277.92598  0.014817977  0.013692847          182 
 1564000   0.63174952   -7.7878506    277.83735   0.01480378  0.013680234          157 
 1565000   0.63054274   -7.8213313    277.53492  0.014778217  0.013667608          299 
 1566000   0.62271611   -7.8115399    277.32159  0.014757428     0.013655          241 
 1567000   0.63080514   -7.8196063     278.0402  0.014786226  0.013642389          290 
 1568000   0.63512819   -7.7997533    277.52856  0.014749604  0.013629808          252 
 1569000   0.63397572   -7.8193149    277.27583  0.014726781  0.013617222          311 
 1570000   0.63027524   -7.8307596    278.18488  0.014765652  0.013604627          292 
 1571000   0.62812934   -7.7990399    277.59687  0.014725062  0.013592068          163 
 1572000   0.61798784   -7.8226695    277.50813  0.014710991  0.013579547          208 
 1573000   0.60772143   -7.8092739    277.59431  0.014706204  0.013567028          238 
 1574000   0.62743167   -7.8297315    277.71184  0.014703084  0.013554524          255 
 1575000   0.64107635   -7.8117851     278.4294  0.014731714  0.013542056          225 
 1576000   0.62284959   -7.8279777    277.64181  0.014680722  0.013529591          281 
 1577000   0.61753768   -7.8119767    277.52504  0.014665242  0.013517123          393 
 1578000   0.61170691    -7.813602    277.75545  0.014668117  0.013504685          214 
 1579000   0.63198601   -7.8282052    277.59578    0.0146504  0.013492236          176 
 1580000   0.62208006   -7.8358481    277.55882  0.014639178  0.013479806          166 
 1581000   0.61865712   -7.8042004    277.58421  0.014631257  0.013467377          210 
 1582000   0.61857406   -7.8409253    277.90642  0.014638981   0.01345497          273 
 1583000   0.62292829   -7.8110966    277.58059  0.014612581  0.013442576          325 
 1584000    0.6247139   -7.8133714    277.93247  0.014621868  0.013430214          157 
 1585000   0.62153671   -7.8241761    278.00382  0.014616395   0.01341785          253 
 1586000   0.60899944   -7.8359228    277.52976   0.01458227  0.013405495          132 
 1587000   0.63441432   -7.8181537    277.21629  0.014556621  0.013393169          284 
 1588000   0.60834623   -7.8220316    277.74875  0.014575396  0.013380822          280 
 1589000    0.6128973   -7.8182737    277.59176  0.014557991  0.013368494          250 
 1590000    0.6167432   -7.8093563    278.03275  0.014571947  0.013356182          172 
 1591000   0.60875133   -7.8406049    277.72109  0.014546464  0.013343884          118 
 1592000   0.62083619   -7.8359863    277.60623  0.014531314  0.013331568          122 
 1593000   0.61492541   -7.8432448    277.04008  0.014492576  0.013319273          303 
 1594000   0.62320555   -7.8553942     277.2066  0.014492189  0.013306992          430 
 1595000   0.60835744   -7.8651001    277.26322  0.014486062  0.013294715          227 
 1596000   0.61829433   -7.8380757    277.68538  0.014499028   0.01328246          277 
 1597000    0.6194021   -7.8563509    277.47331  0.014478883  0.013270208          287 
 1598000   0.62456104   -7.8454231    277.12822  0.014451826   0.01325797          290 
 1599000   0.61501354   -7.8460538    277.64605  0.014469776   0.01324574          368 
 1600000   0.61947598   -7.8466923    276.87822   0.01442074   0.01323349          123 
 1601000   0.62087719    -7.857826    277.61037  0.014449842  0.013221268          325 
 1602000   0.61003689   -7.8577465    277.09335  0.014413928  0.013209036          212 
 1603000   0.62066307   -7.8580841    277.14733  0.014407742  0.013196828          276 
 1604000    0.6248253   -7.8536113     277.7951  0.014432414  0.013184631          262 
 1605000   0.60888467   -7.8576925    277.03148  0.014383773  0.013172463          309 
 1606000   0.60998711   -7.8710059    276.96052  0.014371135  0.013160282          420 
 1607000   0.61029143   -7.8764801    277.06906  0.014367821  0.013148136          340 
 1608000   0.61525629   -7.8584996    276.82154  0.014346058  0.013136007          355 
 1609000   0.61131734    -7.873582    277.26237  0.014359973  0.013123881          294 
 1610000     0.609753   -7.8612124    276.98956  0.014336934  0.013111771          365 
 1611000   0.60714801   -7.8597377    276.91347  0.014324098  0.013099664          411 
 1612000    0.6034186   -7.8494219    276.81441  0.014310092  0.013087545          231 
 1613000   0.60898921   -7.8573388    276.95781  0.014308628  0.013075459          255 
 1614000   0.60771898   -7.8710408    277.08142  0.014306145  0.013063404          253 
 1615000   0.59832857   -7.8467408    276.89785  0.014287815  0.013051365          296 
 1616000   0.59264712   -7.8855134    277.10173  0.014289487  0.013039321          244 
 1617000   0.59794474   -7.8703121    277.43825  0.014297993   0.01302731           99 
 1618000   0.59934627   -7.8612896    276.96142  0.014264597  0.013015309          207 
 1619000   0.61441189   -7.8632294      277.232  0.014269714  0.013003353          298 
 1620000    0.5882844   -7.8770845    277.39611  0.014269347  0.012991376          319 
 1621000   0.60336018   -7.8808446    276.77195  0.014228457  0.012979409          360 
 1622000   0.59863578     -7.88464    276.94183  0.014228413  0.012967433          109 
 1623000   0.60820477   -7.8657169    276.46222   0.01419502  0.012955481          303 
 1624000   0.61420918   -7.8884463    277.11607  0.014219831  0.012943534          284 
 1625000   0.59904245   -7.8960743    277.10296  0.014210408  0.012931607          266 
 1626000   0.59101343   -7.8737799    276.67177   0.01417957  0.012919697          367 
 1627000   0.59281747   -7.8756435    276.89672  0.014182377  0.012907801          307 
 1628000   0.59934873   -7.8651571    277.59949  0.014209638  0.012895926          288 
 1629000   0.61274858   -7.8667707    277.05895  0.014173263  0.012884056          259 
 1630000   0.60287741   -7.8748596     277.0404   0.01416362    0.0128722          322 
 1631000   0.59374275   -7.8787627    276.80501  0.014142909  0.012860353          217 
 1632000   0.58494818   -7.8602296    277.02655  0.014145555  0.012848505          214 
 1633000   0.59436078   -7.8694703    276.40807  0.014105331  0.012836682          398 
 1634000   0.60950962   -7.8774126    277.09087  0.014131521  0.012824864          252 
 1635000   0.60156899   -7.8828072    276.84009  0.014110096  0.012813048          196 
 1636000   0.60601647   -7.8956895    276.95737  0.014107445  0.012801254          102 
 1637000   0.60682356   -7.8604425    277.36976  0.014119821  0.012789497          254 
 1638000   0.60867516   -7.8718353    276.41829  0.014062795   0.01277775          155 
 1639000   0.59530012   -7.8927772    276.86603  0.014076979  0.012765998           91 
 1640000   0.59497674   -7.8878123    276.16622  0.014032837  0.012754254          297 
 1641000   0.60069571    -7.872633    277.04431  0.014068876  0.012742517          153 
 1642000   0.60396963   -7.8935944    276.56111  0.014035785  0.012730794          101 
 1643000   0.58887693   -7.8985527    276.36546  0.014017319   0.01271908          171 
 1644000   0.60515844   -7.8728537    276.74558  0.014028061  0.012707379          293 
 1645000   0.60077393   -7.9004801    276.76023  0.014020275  0.012695694          295 
 1646000   0.60639428   -7.8958078     276.6468  0.014006014  0.012684009          182 
 1647000   0.58939349   -7.9046397    276.68034  0.013999208  0.012672325          268 
 1648000   0.59982332     -7.90768    276.45823  0.013979482   0.01266067          143 
 1649000   0.61348043   -7.8758578    276.51582  0.013973915  0.012649022           73 
 1650000   0.59343167   -7.9149878    276.52043  0.013965678  0.012637401          275 
 1651000   0.59037569   -7.9024968    276.38682  0.013950475  0.012625772          174 
 1652000    0.6025316    -7.894742    276.50536  0.013948011  0.012614161          107 
 1653000   0.59017836   -7.8914717    276.95312  0.013962146  0.012602548          146 
 1654000   0.58598617   -7.9101944     276.5527   0.01393353  0.012590958          277 
 1655000   0.59617916   -7.9064433    276.20265  0.013907485  0.012579379          224 
 1656000   0.60199913   -7.9148913    276.24668  0.013901302  0.012567814          147 
 1657000   0.59650622   -7.9130259    276.47397  0.013904344   0.01255628          223 
 1658000   0.59607959   -7.8867738    276.24322   0.01388436  0.012544765          268 
 1659000   0.59469595   -7.9088178    276.73579  0.013900733  0.012533266          138 
 1660000   0.58609406   -7.9041608    276.65164  0.013888134  0.012521775          303 
 1661000   0.59505649   -7.8873415    276.17023   0.01385562  0.012510293          157 
 1662000   0.59430745   -7.9141384    276.43931  0.013860776  0.012498805          389 
 1663000   0.58837903   -7.9097882     276.5184  0.013856404  0.012487313          236 
 1664000   0.60218928   -7.9151468    276.17352  0.013830805  0.012475854          231 
 1665000   0.58328141   -7.9197848    276.16255  0.013821949  0.012464383          275 
 1666000   0.59250324   -7.9077503    276.50704  0.013830884  0.012452947          246 
 1667000    0.5704458    -7.893491    276.56739  0.013825605  0.012441526          135 
 1668000   0.57141864   -7.9297692    276.18791  0.013798357  0.012430119          327 
 1669000   0.59999098    -7.913327    276.41418  0.013801387  0.012418724          275 
 1670000   0.60195144    -7.932144    275.92829  0.013768877  0.012407336          302 
 1671000   0.57754786   -7.9021332    276.05101  0.013766757   0.01239596          153 
 1672000   0.58703408   -7.9190477    276.72327  0.013792029  0.012384604          232 
 1673000   0.57294626   -7.9236393    276.25242  0.013760332  0.012373263          201 
 1674000   0.57974106   -7.9030067    276.40838  0.013759876  0.012361912          105 
 1675000   0.58286952   -7.9306794     275.9721  0.013729955  0.012350586          271 
 1676000   0.58338041   -7.9090206    276.29331  0.013737734  0.012339267          261 
 1677000   0.58344988   -7.9040812    276.32635  0.013731184  0.012327968          321 
 1678000   0.57489181   -7.9329169    276.01617  0.013707597  0.012316694          198 
 1679000   0.58004536    -7.929205    275.85805  0.013691585  0.012305416          110 
 1680000   0.58208748   -7.9095439    276.65003   0.01372272   0.01229414          269 
 1681000   0.59757793   -7.9264243    275.89861  0.013677306  0.012282898          179 
 1682000   0.57012117   -7.9300212    276.07329  0.013677829  0.012271651          380 
 1683000   0.59329467   -7.8912266    276.64379   0.01369795  0.012260422          391 
 1684000   0.59426441   -7.9141811    276.33568  0.013674569  0.012249204          204 
 1685000   0.57561808   -7.9311048    275.74486  0.013637233  0.012237986          353 
 1686000   0.58771172   -7.9278547    275.93762  0.013638672  0.012226787          239 
 1687000   0.58509039     -7.92654    276.33772  0.013650352  0.012215598          244 
 1688000   0.58397278   -7.9202094    276.36401  0.013643563  0.012204421          213 
 1689000   0.57749374   -7.9309285    276.41076  0.013637792   0.01219326          151 
 1690000   0.58606585   -7.9521115    276.40368  0.013629373  0.012182105          245 
 1691000    0.5775082   -7.9366622    276.27052   0.01361475  0.012170958           87 
 1692000    0.5762282   -7.9198833    275.83805  0.013585404  0.012159815          215 
 1693000   0.57502636    -7.940419    275.86846  0.013578877  0.012148696          128 
 1694000   0.56755477   -7.9252521    276.13551  0.013583998  0.012137568          188 
 1695000    0.5759969   -7.9202901    276.26837  0.013582516  0.012126461          191 
 1696000   0.57330686   -7.9124226    275.96074  0.013559392  0.012115373          246 
 1697000   0.56385424    -7.930157     276.2132  0.013563799   0.01210428          243 
 1698000    0.5855703   -7.9326792    276.09584  0.013550051  0.012093209          225 
 1699000   0.57109004   -7.9223282    276.35696  0.013554883  0.012082154          268 
 1700000   0.57758951    -7.926072    276.28388  0.013543327  0.012071128          286 
 1701000   0.58064353   -7.9178008    275.93409  0.013518229  0.012060107          335 
 1702000   0.56472348   -7.9130219    275.93404  0.013510284  0.012049111          339 
 1703000   0.57903918   -7.9358365    276.08894  0.013509931  0.012038101          303 
 1704000   0.57851904    -7.928405    275.63206  0.013479659  0.012027113          359 
 1705000   0.57120044   -7.9298167    276.04021  0.013491701  0.012016134          320 
 1706000   0.57200229   -7.9315754    276.22242  0.013492694  0.012005164          378 
 1707000   0.56553196   -7.9417547    275.64479   0.01345659  0.011994195          179 
 1708000   0.58425468   -7.9418263    275.94366  0.013463293  0.011983241          288 
 1709000   0.56842441    -7.930523    276.23531  0.013469636  0.011972307          293 
 1710000   0.56035387   -7.9498729    275.12961  0.013407876  0.011961371          382 
 1711000   0.57101709   -7.9516362    275.66547  0.013426138  0.011950461          250 
 1712000   0.57191143    -7.936169    275.66726  0.013418383  0.011939552          300 
 1713000    0.5793895   -7.9436712    276.15115   0.01343409  0.011928665          214 
 1714000   0.56268743    -7.918953    275.92413  0.013415214  0.011917804          367 
 1715000   0.56091028   -7.9293171    276.82469  0.013451151  0.011906952          277 
 1716000   0.57923776    -7.949078    275.96652  0.013401638  0.011896101          350 
 1717000   0.58042462   -7.9399166    275.50555  0.013371459  0.011885256          266 
 1718000   0.56049097   -7.9294098    275.93144  0.013384334  0.011874434          194 
 1719000   0.55678085    -7.928703    275.48208  0.013354765  0.011863621          274 
 1720000    0.5625856   -7.9386901    275.71096  0.013358089  0.011852815          182 
 1721000   0.56416956   -7.9394058    275.52004  0.013341082  0.011842023          154 
 1722000   0.56085733   -7.9366252    275.79368  0.013346578  0.011831251          340 
 1723000   0.57117864   -7.9386198    275.93893  0.013345857  0.011820481          439 
 1724000   0.56120201   -7.9486187     275.4101  0.013312553  0.011809721          364 
 1725000   0.55184558   -7.9599121    274.97534  0.013283833  0.011798957          463 
 1726000   0.54804748   -7.9676066    275.56354  0.013304536  0.011788206          193 
 1727000   0.56659525   -7.9432183    275.67467  0.013302194  0.011777467          308 
 1728000   0.57101708   -7.9469314    275.68521  0.013295004  0.011766762          295 
 1729000   0.54994178    -7.944245    276.04426   0.01330462  0.011756051          393 
 1730000   0.57219343    -7.944306    276.02036  0.013295778  0.011745344          422 
 1731000   0.55526013   -7.9618466    275.26941  0.013251945  0.011734666          286 
 1732000   0.56306103   -7.9580434    275.28353  0.013244973  0.011724003          331 
 1733000   0.55869786   -7.9389323    275.74351   0.01325945  0.011713347          304 
 1734000   0.56077321   -7.9655669    275.33718  0.013232275  0.011702699          331 
 1735000   0.56826391   -7.9662099    275.49832  0.013232388  0.011692054          248 
 1736000   0.54969824   -7.9601605    275.73552  0.013236152  0.011681441          398 
 1737000   0.56823083   -7.9631446    275.64444  0.013224162   0.01167084          471 
 1738000   0.55632355   -7.9775914    275.76101  0.013222143  0.011660252          255 
 1739000   0.57768018   -7.9512538    275.79772  0.013216299  0.011649666          298 
 1740000   0.56261368   -7.9562385     275.3632  0.013187893  0.011639092          292 
 1741000   0.55206509   -7.9633827    275.43599  0.013183802  0.011628515          176 
 1742000   0.54989772    -7.976905    275.29791  0.013169628  0.011617948          471 
 1743000   0.56317042   -7.9859593    275.32279  0.013163262  0.011607391          122 
 1744000    0.5602789   -7.9774121    275.06448  0.013143372  0.011596844          219 
 1745000   0.55862449   -7.9623899    275.47584  0.013155484  0.011586312          425 
 1746000   0.55041126   -7.9664768    275.41773  0.013145176  0.011575798          236 
 1747000    0.5518734   -7.9786873    275.51753  0.013142412  0.011565297          393 
 1748000   0.56114351   -7.9648226    275.37354  0.013128029  0.011554802          139 
 1749000   0.55702425    -7.990002     275.2835  0.013116233  0.011544328          239 
 1750000   0.55021419   -7.9615463    275.43104  0.013115764  0.011533867          281 
 1751000    0.5542109   -7.9743271    275.80125  0.013125892  0.011523418          365 
 1752000   0.54554229   -7.9693151    275.06505  0.013083383  0.011512958          168 
 1753000   0.56338565   -7.9819415    276.06716  0.013123558  0.011502532          426 
 1754000   0.54837026   -7.9898798    275.50159  0.013089205  0.011492117          176 
 1755000   0.54867289    -7.963498    275.25363  0.013069973  0.011481715          159 
 1756000   0.55629292   -7.9778758    274.76209  0.013039203  0.011471327          283 
 1757000   0.55219042   -7.9949887    275.47247  0.013065475  0.011460945          409 
 1758000    0.5457253   -7.9767143    275.05661   0.01303833  0.011450569          256 
 1759000   0.55425091   -7.9831522    275.07613  0.013031842  0.011440193          194 
 1760000   0.54622145    -7.974938    275.11936  0.013026485  0.011429819          350 
 1761000   0.56032473   -7.9745425    275.71933  0.013047479  0.011419481          371 
 1762000   0.54857711   -7.9794888    275.23428  0.013017134  0.011409156          339 
 1763000   0.54448123   -8.0033399    275.38945  0.013017085  0.011398835          297 
 1764000    0.5532608   -7.9698278    274.93717  0.012988339  0.011388522          377 
 1765000     0.554789    -7.979813    275.21238  0.012993974  0.011378227          365 
 1766000   0.55208206   -7.9872911    275.17286  0.012984752  0.011367924          365 
 1767000   0.54429571   -7.9744849     275.1812  0.012977797  0.011357648          404 
 1768000   0.54560231   -7.9835215    275.42396  0.012981899  0.011347362          360 
 1769000   0.53643982   -7.9909341    275.01574   0.01295533  0.011337111          378 
 1770000   0.55446377   -7.9949249    275.18827  0.012956133  0.011326864          287 
 1771000   0.54466117   -7.9700215    274.96918  0.012938508  0.011316639          267 
 1772000   0.53497314   -7.9917304    275.46804  0.012954667   0.01130642          438 
 1773000   0.55713553   -7.9977165     275.2664  0.012937883  0.011296216          441 
 1774000   0.54412837   -7.9746799    275.20311  0.012927617  0.011286011          452 
 1775000   0.53373773    -8.012603    275.32033  0.012925837  0.011275835          390 
 1776000   0.54777509   -7.9907318    275.11994  0.012909156  0.011265653          450 
 1777000   0.53749225   -7.9830584    275.04494  0.012898375  0.011255491          386 
 1778000   0.55238521   -7.9928664    274.34777  0.012858445  0.011245342          416 
 1779000   0.53860089    -7.996881    275.08141  0.012885582  0.011235214          262 
 1780000   0.54406976   -7.9973799    275.63462  0.012904242  0.011225084          373 
 1781000   0.54254359   -8.0043177    275.11006  0.012872453  0.011214965          438 
 1782000    0.5485188   -7.9962908    274.72018  0.012846997   0.01120486          434 
 1783000   0.52003814   -7.9933523    274.83011  0.012844929  0.011194756          501 
 1784000   0.54715635   -8.0039003    275.62296  0.012874765  0.011184663          285 
 1785000   0.53894311   -7.9986716      274.722   0.01282549  0.011174589          261 
 1786000   0.53798197   -8.0078027    274.73465  0.012818899  0.011164523          478 
 1787000   0.54469376    -7.987266    275.07085  0.012827404  0.011154474          360 
 1788000   0.53661617   -8.0045406    274.57909   0.01279731  0.011144432          426 
 1789000   0.53938313   -8.0127223    274.84921   0.01280274  0.011134394          403 
 1790000    0.5375487   -7.9970377    274.71597  0.012789384  0.011124385          366 
 1791000   0.54072647   -8.0242874    274.35266  0.012765339  0.011114382          168 
 1792000   0.54559344   -7.9978426    274.87757  0.012782625  0.011104379          354 
 1793000   0.54004762   -7.9947338    274.76878   0.01277044  0.011094395          364 
 1794000   0.54366289   -7.9935427    274.48268  0.012750031  0.011084411          117 
 1795000    0.5397512   -7.9986773    274.89623  0.012762128  0.011074433          350 
 1796000   0.52869163   -8.0107845    274.80401  0.012750743  0.011064472          355 
 1797000   0.53105016   -8.0172302    274.45861   0.01272763  0.011054513          516 
 1798000   0.54869241   -8.0070364    274.09174  0.012703547  0.011044557          340 
 1799000   0.53259874   -8.0112361    274.67719  0.012723605  0.011034636          264 
 1800000   0.53020377   -8.0177633    274.81769  0.012723041  0.011024722          415 
 1801000   0.52862948   -8.0248331    274.24521  0.012689488   0.01101481          479 
 1802000   0.53201775   -8.0169076    274.70277  0.012703606  0.011004925          459 
 1803000   0.53278756   -8.0334742    274.67376  0.012695219  0.010995041          406 
 1804000   0.54281552   -8.0234281    275.17576  0.012711371  0.010985174          422 
 1805000   0.52924308   -8.0244617    274.80584   0.01268725  0.010975309          366 
 1806000    0.5443051   -8.0180321    274.57985  0.012669797  0.010965464          418 
 1807000   0.52808536   -8.0109321    274.71025    0.0126688  0.010955631          301 
 1808000   0.53311932    -8.013092    274.87945  0.012669591  0.010945811          385 
 1809000   0.53522699   -8.0153499     274.4746  0.012643938  0.010935996          394 
 1810000   0.52327509   -8.0169804    274.76523  0.012650333  0.010926199          472 
 1811000   0.53594282   -8.0296128     274.9172   0.01265034  0.010916408          524 
 1812000   0.53143511   -8.0117638    274.61181  0.012629314  0.010906627          414 
 1813000   0.52687809   -8.0173614    274.82292  0.012632052   0.01089686          501 
 1814000   0.53271257   -8.0083842    274.31121  0.012601581  0.010887096          509 
 1815000   0.52317806   -8.0244787    274.46424  0.012601664  0.010877333          531 
 1816000   0.53666353    -7.993168    274.60855  0.012601347  0.010867586          498 
 1817000   0.53330714    -8.029607    274.08504  0.012570402  0.010857848          498 
 1818000     0.534808   -8.0204375     274.6805  0.012590782  0.010848138          412 
 1819000   0.52580734   -8.0148264    274.70481  0.012584974  0.010838425          416 
 1820000    0.5294372   -8.0287675    274.81782  0.012583233  0.010828724          338 
 1821000   0.53168479   -8.0075556    274.62149  0.012567339  0.010819045          383 
 1822000   0.52627012   -8.0175023    274.47106  0.012553561  0.010809368          360 
 1823000   0.52449907   -8.0211393    274.79594  0.012561526  0.010799704          463 
 1824000   0.53220538   -8.0373645    274.67179  0.012548967  0.010790041          370 
 1825000   0.52802364   -8.0320392    274.85217  0.012550328  0.010780395          357 
 1826000   0.52546065   -8.0189881    274.65235  0.012534335  0.010770759          377 
 1827000   0.52044661   -8.0220208    274.35152  0.012513753  0.010761126          470 
 1828000   0.52929407   -8.0248188    274.48569  0.012513024  0.010751513          326 
 1829000    0.5226875    -8.034353    274.68728  0.012515367  0.010741921          559 
 1830000   0.53011519   -8.0432516     274.1836  0.012485592   0.01073233          484 
 1831000   0.52368858   -8.0380269    274.42552  0.012489783  0.010722746          300 
 1832000   0.52061996   -8.0408717    274.84834  0.012502199  0.010713177          537 
 1833000   0.51921512   -8.0378341    274.33846  0.012472198  0.010703616          430 
 1834000   0.52177313   -8.0409308    274.35951  0.012466354  0.010694073          364 
 1835000   0.51797867   -8.0304613    274.58063  0.012469602  0.010684536          459 
 1836000   0.51980638   -8.0312367    274.27724   0.01244904  0.010675012          281 
 1837000    0.5156616   -8.0372813    273.95942  0.012427845  0.010665494          422 
 1838000   0.51826104   -8.0278343    274.61837   0.01245096  0.010655984          415 
 1839000   0.51558115   -8.0268623    274.69595  0.012447705  0.010646509          492 
 1840000    0.5136866   -8.0305864    274.47679  0.012431014  0.010637028          502 
 1841000   0.51926128   -8.0254208      274.388  0.012420243  0.010627553          174 
 1842000   0.51731278   -8.0379959    274.93968  0.012438458  0.010618099          340 
 1843000   0.51461641   -8.0376614    274.21712  0.012399038  0.010608647          328 
 1844000   0.51152664   -8.0309059    274.46037  0.012403307    0.0105992          333 
 1845000   0.51315934   -8.0328115    274.12198    0.0123813  0.010589779          408 
 1846000   0.52666594   -8.0328946    274.30988  0.012383075  0.010580354          481 
 1847000   0.53042095   -8.0503361    274.83443  0.012400037  0.010570947          494 
 1848000   0.51905026   -8.0439842    274.28945  0.012368752  0.010561553          372 
 1849000   0.51276768   -8.0550702    273.73519  0.012337082  0.010552172          543 
 1850000   0.52180215   -8.0437206    274.31736  0.012356638  0.010542799          353 
 1851000   0.50737727   -8.0344475    275.22418  0.012390788  0.010533436          519 
 1852000   0.51425607   -8.0430475    274.46545  0.012349957  0.010524086          383 
 1853000   0.51643906   -8.0498482    274.83853  0.012360071  0.010514735          360 
 1854000   0.51320643   -8.0442586    274.32735  0.012330427  0.010505398          439 
 1855000   0.50431677   -8.0382406    274.12679   0.01231477  0.010496077          416 
 1856000   0.52096333   -8.0354569    274.21513  0.012312102  0.010486768          448 
 1857000   0.50463788   -8.0433929    274.70586  0.012327493  0.010477475          491 
 1858000   0.50609759   -8.0404616    274.79615  0.012324908  0.010468186          417 
 1859000   0.50387244   -8.0547937    274.02512  0.012283715  0.010458903          353 
 1860000   0.51405353   -8.0431765    274.06427  0.012278865  0.010449624          397 
 1861000   0.50020025   -8.0594361    274.47264  0.012290553   0.01044036          390 
 1862000   0.51609668   -8.0377187    274.06357  0.012265645  0.010431104          482 
 1863000   0.50384153   -8.0516303     274.2062  0.012265441   0.01042187          346 
 1864000   0.50741509   -8.0452573    274.07652  0.012253063   0.01041264          263 
 1865000   0.52195759   -8.0606655    274.60184  0.012269966  0.010403417          377 
 1866000   0.51393891    -8.053197    274.15856  0.012243594  0.010394207          427 
 1867000   0.50056281    -8.051956     273.8167  0.012221777  0.010385007          501 
 1868000   0.50723582   -8.0574646    274.58816   0.01224965  0.010375833          418 
 1869000   0.50008883   -8.0486159    274.17032  0.012224466  0.010366666          443 
 1870000   0.52087412   -8.0618536    274.29051  0.012223285  0.010357504          386 
 1871000   0.50086088   -8.0536774     273.9434  0.012201292  0.010348346          442 
 1872000   0.50808286   -8.0418872    274.67355  0.012227277  0.010339196          426 
 1873000   0.51478818   -8.0527197    274.00493  0.012191001  0.010330059          625 
 1874000   0.49506791   -8.0668783    273.98621  0.012183663  0.010320924          379 
 1875000   0.51232657   -8.0548574    273.98703  0.012177201  0.010311801          400 
 1876000    0.4996729   -8.0577058    273.93181  0.012168258  0.010302684          370 
 1877000   0.50352708   -8.0646994    273.69131  0.012151097  0.010293592          508 
 1878000   0.50409486   -8.0535061    274.12989  0.012164088  0.010284509          392 
 1879000   0.51438243   -8.0654275     274.4554  0.012172051  0.010275422          414 
 1880000   0.50559549   -8.0561089    273.96806  0.012143974  0.010266364          501 
 1881000   0.49921963   -8.0416767    274.41725  0.012157418  0.010257314          247 
 1882000   0.49349881   -8.0558327    273.82663  0.012124806  0.010248267          319 
 1883000   0.49634522   -8.0483493    273.74468  0.012114741  0.010239238          408 
 1884000   0.50729037   -8.0680855    274.12517   0.01212514  0.010230208          379 
 1885000   0.50259952    -8.070396    273.74619  0.012101954  0.010221195          451 
 1886000   0.49664739   -8.0456394     273.4242   0.01208131   0.01021218          469 
 1887000   0.50549075   -8.0854316    273.65938  0.012085293  0.010203161          476 
 1888000   0.50075388   -8.0840216    273.91849  0.012090329  0.010194167          354 
 1889000   0.51095574   -8.0851867    273.98234  0.012086745  0.010185193          389 
 1890000   0.50226958   -8.0794248    274.10626  0.012085814  0.010176216          483 
 1891000   0.48684073   -8.0643235    273.74463  0.012063486  0.010167248          405 
 1892000    0.4972335   -8.0733688    273.64671  0.012052797  0.010158299          471 
 1893000   0.49398976   -8.0622314    274.07118  0.012065116  0.010149349          441 
 1894000    0.4887893   -8.0655045    274.11992   0.01206089  0.010140416          524 
 1895000   0.49254568   -8.0695718    274.13799  0.012055321  0.010131492          451 
 1896000   0.50476755   -8.0690625    273.53065  0.012022268  0.010122577          503 
 1897000   0.49767158   -8.0728776    273.65571  0.012021425   0.01011367          437 
 1898000   0.48380562   -8.0653226    273.56198  0.012010975  0.010104779          458 
 1899000   0.49006306   -8.0727287    273.54157  0.012003755  0.010095901          438 
 1900000   0.49257444   -8.0586274    273.87027  0.012011854  0.010087035          565 
 1901000   0.49242037   -8.0819162    273.74175  0.011999901  0.010078172          498 
 1902000   0.49598702   -8.0816315    273.91787  0.012001309  0.010069322          425 
 1903000   0.48340317   -8.0684719    273.74864  0.011987592  0.010060471          553 
 1904000   0.49156811   -8.0757981    273.71079  0.011979639  0.010051635          383 
 1905000   0.50894876   -8.0764453    274.01954  0.011986857  0.010042803          513 
 1906000   0.50048762   -8.0729887    273.37857  0.011952543   0.01003399          345 
 1907000   0.49154195     -8.07709    273.53739  0.011953216  0.010025184          376 
 1908000   0.49191998   -8.0725719    273.39042  0.011940532  0.010016389          417 
 1909000   0.49370172   -8.0690353    273.96424  0.011959326  0.010007604          398 
 1910000   0.47599879   -8.0767761    273.40877  0.011928829 0.0099988265          442 
 1911000   0.48927533   -8.0730926    273.39315  0.011921906 0.0099900525          377 
 1912000   0.49260411   -8.0775452    273.82669  0.011934566  0.009981289          512 
 1913000   0.49259265   -8.0981519    273.52917  0.011915367 0.0099725374          429 
 1914000   0.48568362   -8.0805585    273.66503  0.011915057 0.0099637922          518 
 1915000   0.48166594   -8.0988828    273.80062  0.011914735 0.0099550564          321 
 1916000   0.48199043   -8.0812672     273.5453  0.011897412 0.0099463377          457 
 1917000   0.48710641   -8.0810113    272.87141  0.011861911 0.0099376182          385 
 1918000   0.49194649   -8.0834849    273.70999  0.011892162 0.0099289219          512 
 1919000   0.47992786    -8.094868     273.4769  0.011875842 0.0099202242          459 
 1920000   0.49070403   -8.0795281    273.25398  0.011859982 0.0099115485          471 
 1921000   0.49424974   -8.0720306    273.33844  0.011857472 0.0099028749          314 
 1922000   0.47393088   -8.0808027    273.43202   0.01185536 0.0098942117          312 
 1923000   0.48201659   -8.0979324    273.56293  0.011854868 0.0098855506          400 
 1924000   0.48789299   -8.0959259    273.37758  0.011840678 0.0098769055          327 
 1925000   0.49875554   -8.0862442     273.1726  0.011825654 0.0098682695          204 
 1926000   0.48308917   -8.0958984    273.33167  0.011826396  0.009859648          262 
 1927000   0.48779592   -8.0998484    273.38811    0.0118227 0.0098510384          525 
 1928000   0.49268687   -8.1045342    273.20294  0.011808564 0.0098424338          452 
 1929000   0.48201998   -8.0943954     273.9675  0.011835472 0.0098338323          421 
 1930000   0.48470024   -8.0824455    273.51847  0.011809951 0.0098252372          486 
 1931000   0.50252059   -8.0936775    273.75527  0.011814054 0.0098166602          358 
 1932000   0.48015512   -8.0966776    273.29232  0.011787971 0.0098080931          456 
 1933000   0.47728395   -8.0984519    273.62214  0.011796091 0.0097995328          470 
 1934000   0.48690728   -8.0928689    273.60899  0.011789426 0.0097909854          407 
 1935000   0.48447837   -8.1074619    273.65809  0.011785447  0.009782452          519 
 1936000   0.48156392   -8.0945883    273.87444  0.011788672 0.0097739268          374 
 1937000   0.48502245   -8.1109389    273.16404  0.011752024 0.0097654118          288 
 1938000   0.48150047   -8.1086189    273.16956  0.011746197 0.0097569051          267 
 1939000   0.46849879   -8.0922397    273.40395  0.011750213 0.0097484045          487 
 1940000   0.48178649   -8.0914021    273.39491  0.011743767 0.0097399147          472 
 1941000   0.47395247   -8.1053659    273.63662  0.011748095 0.0097314354          377 
 1942000   0.48186539   -8.0970369    273.55028   0.01173834 0.0097229633          515 
 1943000   0.48282705   -8.0981628     272.7828  0.011699383  0.009714494          546 
 1944000   0.48268736   -8.1039748    273.19313  0.011710954 0.0097060469          386 
 1945000   0.47717064   -8.1048239    273.17647  0.011704219 0.0096975998          522 
 1946000   0.46535784   -8.1096934    273.13416  0.011696392 0.0096891691          430 
 1947000   0.46296968   -8.1083266    273.19622  0.011693041 0.0096807408          459 
 1948000   0.47109467   -8.0933249    273.10666  0.011683208 0.0096723197          296 
 1949000   0.47152442   -8.1127725    273.00275   0.01167277 0.0096639122          443 
 1950000   0.47261093   -8.1090478    273.43483  0.011685249 0.0096555061          424 
 1951000   0.47540698    -8.117992    272.98195  0.011659916 0.0096471228          584 
 1952000   0.47365625   -8.1013624     273.3083  0.011667875 0.0096387389          489 
 1953000   0.47339211   -8.1049467    273.57192  0.011673149   0.00963037          332 
 1954000   0.47643634    -8.116185    273.17845  0.011650394 0.0096220046          512 
 1955000   0.47137508   -8.1255875    273.35478  0.011651951 0.0096136532          458 
 1956000    0.4807667   -8.1277503    272.82467  0.011623409 0.0096053084          335 
 1957000   0.46152285   -8.1063283    273.49297  0.011645928  0.009596979          502 
 1958000   0.47605148   -8.0960213    273.54985  0.011642401 0.0095886554          554 
 1959000   0.47757492   -8.1116284    273.74127  0.011644601 0.0095803498          380 
 1960000   0.46451082   -8.1094069    273.26487  0.011618404 0.0095720497          405 
 1961000    0.4719493   -8.1158894    273.25627  0.011612114 0.0095637495          426 
 1962000   0.47574947   -8.1181806    273.59712  0.011620673 0.0095554642          543 
 1963000   0.47275937   -8.1123067    272.83421  0.011582366 0.0095471923          538 
 1964000   0.46318962   -8.1168602    272.67149  0.011569564 0.0095389265          533 
 1965000   0.47139181   -8.1170101    273.31011  0.011590759 0.0095306639          351 
 1966000   0.46726372     -8.12331    273.40243  0.011588777  0.009522411          491 
 1967000   0.46031203   -8.1141943    273.28857  0.011578062 0.0095141678          288 
 1968000   0.45792636   -8.1182169    273.32841  0.011573866 0.0095059384          431 
 1969000   0.47335403   -8.1247671    273.08345   0.01155762 0.0094977183          509 
 1970000   0.46894971   -8.1047522    273.01164  0.011548716 0.0094895007          303 
 1971000   0.45700766   -8.1154768     272.9844  0.011541705 0.0094812953          447 
 1972000    0.4797424   -8.1164115    273.16139  0.011543331 0.0094730995          406 
 1973000   0.45596008    -8.130667    272.80988  0.011522634 0.0094649189          307 
 1974000   0.47644036    -8.128176    272.86779  0.011519241 0.0094567411          436 
 1975000   0.47084165   -8.1205969    273.12051  0.011524072 0.0094485713          414 
 1976000   0.46321615   -8.1225313    272.95071  0.011511079 0.0094404099          497 
 1977000   0.46052672   -8.1297525    273.47039  0.011527162  0.009432258          556 
 1978000   0.46527716   -8.1153416    272.96505  0.011500044 0.0094241123          470 
 1979000   0.46723748   -8.1329466    272.89711  0.011491372 0.0094159747          452 
 1980000   0.47463112   -8.1232284    273.12913  0.011495334 0.0094078541          457 
 1981000   0.46907158   -8.1226379    272.98372  0.011483414 0.0093997339          495 
 1982000   0.45523897   -8.1267248    272.79497  0.011469684 0.0093916249          503 
 1983000   0.45759131   -8.1413735    273.01211  0.011473025 0.0093835324          494 
 1984000   0.46188988   -8.1245157    272.92841  0.011463727 0.0093754406          424 
 1985000   0.46058426   -8.1348328    273.26624  0.011472134 0.0093673602          368 
 1986000    0.4593669   -8.1220898    272.66866  0.011441283 0.0093592842          497 
 1987000   0.44926661   -8.1133439    272.81025  0.011441463 0.0093512093          430 
 1988000   0.46482221   -8.1234747    272.76965  0.011434006 0.0093431539          516 
 1989000    0.4575719   -8.1299609    273.03146  0.011439227 0.0093351097          414 
 1990000    0.4680264   -8.1322327    272.69629  0.011419443 0.0093270742          485 
 1991000   0.45294919   -8.1282085    273.10587   0.01143085 0.0093190396          385 
 1992000   0.45934542   -8.1370203    273.12623  0.011425963 0.0093110185          455 
 1993000   0.45509638   -8.1245441    272.69137  0.011402048 0.0093030058          406 
 1994000   0.45179904   -8.1352212    273.03991  0.011410896 0.0092949992          565 
 1995000   0.45261176   -8.1336417    272.89179  0.011398989 0.0092870154          476 
 1996000   0.46399733   -8.1316608     272.7238  0.011386264 0.0092790368          516 
 1997000   0.45574103   -8.1385822    273.15885  0.011398717 0.0092710677          536 
 1998000    0.4449866   -8.1428438    272.79808  0.011377964 0.0092631053          478 
 1999000     0.450458   -8.1248081    273.29367  0.011392933 0.0092551486          335 
 2000000   0.45876251   -8.1472672    272.85906  0.011369127  0.009247207          546 
 2001000   0.46091205   -8.1384687    272.73305  0.011358198 0.0092392617          475 
 2002000   0.44931411   -8.1361831    273.06571  0.011366372 0.0092313244          363 
 2003000   0.44830249   -8.1293783    273.22626  0.011367376 0.0092233976          495 
 2004000   0.45907278   -8.1432635    272.95164  0.011350285 0.0092154874          463 
 2005000   0.45590522   -8.1464644    272.40434  0.011321876 0.0092075829          473 
 2006000   0.44340704   -8.1409614    272.75338  0.011330732 0.0091996889          436 
 2007000   0.45029704   -8.1522261    272.92316  0.011332136  0.009191806          576 
 2008000   0.44496698   -8.1304809    272.98075  0.011328882 0.0091839313          539 
 2009000    0.4516604   -8.1455943    272.67744  0.011310662 0.0091760613          509 
 2010000   0.44890069   -8.1554502    272.68519  0.011305356 0.0091681994          390 
 2011000   0.45345056   -8.1501386    272.87519  0.011307608 0.0091603426          450 
 2012000    0.4438506   -8.1571518    272.31418  0.011278752 0.0091524962          531 
Loop time of 5199.31 on 48 procs for 2000000 steps with 4000 atoms

Performance: 66470.389 tau/day, 384.667 timesteps/s
99.4% CPU use with 48 MPI tasks x no OpenMP threads

MPI task timing breakdown:
Section |  min time  |  avg time  |  max time  |%varavg| %total
---------------------------------------------------------------
Pair    | 363.94     | 401.33     | 435.05     |  72.3 |  7.72
Neigh   | 36.61      | 38.185     | 39.796     |  12.6 |  0.73
Comm    | 326.25     | 360.2      | 396.01     |  79.4 |  6.93
Output  | 4.9208     | 4.9228     | 4.9675     |   0.3 |  0.09
Modify  | 4330.5     | 4346.4     | 4362.9     |   9.8 | 83.60
Other   |            | 48.29      |            |       |  0.93

Nlocal:        83.3333 ave          88 max          79 min
Histogram: 2 6 3 5 9 5 11 3 3 1
Nghost:        2426.98 ave        2450 max        2410 min
Histogram: 1 7 5 14 4 7 4 2 1 3
Neighs:        16891.8 ave       19258 max       14685 min
Histogram: 5 4 6 5 6 6 3 7 3 3
FullNghs:      33783.4 ave       35765 max       31996 min
Histogram: 3 5 5 4 8 6 10 3 2 2

Total # of neighbors = 1621603
Ave neighs/atom = 405.40075
Neighbor list builds = 106717
Dangerous builds = 0

#clear
#
#next RN
#
#jump SELF
Total wall time: 1:26:43
