
units lj                  # Use reduced LJ style units
atom_style atomic         # Uncharged point particles
atom_modify map hash      # Needed for indexing of clusters etc
                          # Used to be able to find where atoms are in relation to each other.

lattice fcc 1.0 spacing 1 1 1
Lattice spacing in x,y,z = 1.5874011 1.5874011 1.5874011
region box block 0 10 0 10 0 10 units lattice
create_box 2 box
Created orthogonal box = (0.0000000 0.0000000 0.0000000) to (15.874011 15.874011 15.874011)
  3 by 4 by 4 MPI processor grid
create_atoms 1 box
Created 4000 atoms
  using lattice units in orthogonal box = (0.0000000 0.0000000 0.0000000) to (15.874011 15.874011 15.874011)
  create_atoms CPU = 0.015 seconds
set type 1 type/fraction 2 0.15 78393
Setting atom values ...
  634 settings made for type/fraction
mass 1 1.0
mass 2 1.0
pair_style lj/cut  3.5
pair_modify tail  yes
pair_coeff 1  1  1.0  1.0   # Intearaction between 1 and 1 set with epsilon = 1 and sigma = 1
pair_coeff 1  2  1.5  0.8
pair_coeff 2  2  0.5  0.88

write_data data.0
System init for write_data ...
Neighbor list info ...
  update every 1 steps, delay 10 steps, check yes
  max neighbors/atom: 2000, page size: 100000
  master list distance cutoff = 3.8
  ghost atom cutoff = 3.8
  binsize = 1.9, bins = 9 9 9
  1 neighbor lists, perpetual/occasional/extra = 1 0 0
  (1) pair lj/cut, perpetual
      attributes: half, newton on
      pair build: half/bin/atomonly/newton
      stencil: half/bin/3d
      bin: standard
WARNING: Not all mixed pair coeffs generated from mixing. Use write_data with 'pair ij' option to store all pair coeffs. (../write_data.cpp:312)


#############################
#   M E L T   S Y S T E M   #
#############################

velocity all create 2.4 8172548 mom yes dist gaussian # Assign velocities
                                                    # Temperature 2.4, random number seed, zero linear momentum
                                                                                # Gaussian distribution

timestep 0.002   # simulation timestep
thermo 1000       # output thermodynamic data every 1000 steps bf 100

# Define a fix  in this case with index 1 applied to all
# particles in the simulation. This fix is for simulations
# in the anisotropic NPT ensemble. Note that we use the MTK
# correction.
fix 1 all npt temp 2.4 2.4 0.1 iso 5.68 5.68 0.5 mtk yes tchain 5 pchain 5 # Use NPT ensemble
                                                                         # Set temperature and pressure and damping
                                                                         # Numbers of thermostats in chain and in barostat
run 10000          # run for 10000 steps
Per MPI rank memory allocation (min/avg/max) = 3.642 | 3.644 | 3.648 Mbytes
Step Temp E_pair E_mol TotEng Press Volume 
       0          2.4   -7.3553801            0   -3.7562801   -3.3553213         4000 
    1000    2.3752585    -4.755411            0    -1.193414     5.719777    4625.0843 
    2000    2.3984098   -4.7109505            0   -1.1142352    5.7745306    4649.2198 
    3000    2.4620947   -4.7768718            0    -1.084653    5.5172762    4650.0123 
    4000    2.4323423   -4.7336468            0   -1.0860455    5.5567995    4664.7085 
    5000    2.3856063   -4.6929736            0   -1.1154587    5.7975464    4655.4587 
    6000    2.4058425   -4.7459735            0    -1.138112    6.0052013    4612.1112 
    7000    2.3754264   -4.7080919            0   -1.1458431    5.4702708    4676.8944 
    8000    2.4821423   -4.7557903            0   -1.0335076    6.0439076    4605.3822 
    9000    2.3906105   -4.7042004            0   -1.1191811    5.7340079    4656.3914 
   10000    2.4081678   -4.7790621            0   -1.1677134    5.2746326    4679.3675 
Loop time of 2.29377 on 48 procs for 10000 steps with 4000 atoms

Performance: 753345.059 tau/day, 4359.636 timesteps/s
99.5% CPU use with 48 MPI tasks x no OpenMP threads

MPI task timing breakdown:
Section |  min time  |  avg time  |  max time  |%varavg| %total
---------------------------------------------------------------
Pair    | 0.86691    | 0.99833    | 1.0892     |   3.2 | 43.52
Neigh   | 0.18546    | 0.20037    | 0.22123    |   1.1 |  8.74
Comm    | 0.67083    | 0.78019    | 0.92389    |   4.7 | 34.01
Output  | 0.00024291 | 0.00024781 | 0.00031464 |   0.0 |  0.01
Modify  | 0.25472    | 0.29991    | 0.33601    |   3.8 | 13.08
Other   |            | 0.01471    |            |       |  0.64

Nlocal:        83.3333 ave          94 max          75 min
Histogram: 1 3 10 8 9 8 3 3 1 2
Nghost:        1481.88 ave        1513 max        1445 min
Histogram: 2 0 5 3 6 12 10 6 3 1
Neighs:        8141.02 ave        9727 max        7202 min
Histogram: 3 8 8 11 7 5 3 1 1 1

Total # of neighbors = 390769
Ave neighs/atom = 97.692250
Neighbor list builds = 903
Dangerous builds = 188

# Equilibrate just above the melting temperature to avoid step fn in T

fix 1 all npt temp 1.25 1.25 0.1 iso 5.68 5.68 0.5 mtk yes tchain 5 pchain 5
run 2000
Per MPI rank memory allocation (min/avg/max) = 3.642 | 3.644 | 3.648 Mbytes
Step Temp E_pair E_mol TotEng Press Volume 
   10000    2.4081678   -4.7790621            0   -1.1677134    5.2746326    4679.3675 
   11000    1.2512609   -6.4077481            0   -4.5313259    5.7894858    3793.6396 
   12000     1.240769   -6.3762718            0   -4.5155836    5.6341325    3815.7669 
Loop time of 0.486391 on 48 procs for 2000 steps with 4000 atoms

Performance: 710539.999 tau/day, 4111.921 timesteps/s
99.7% CPU use with 48 MPI tasks x no OpenMP threads

MPI task timing breakdown:
Section |  min time  |  avg time  |  max time  |%varavg| %total
---------------------------------------------------------------
Pair    | 0.21092    | 0.23437    | 0.25606    |   1.9 | 48.19
Neigh   | 0.032021   | 0.033846   | 0.03674    |   0.6 |  6.96
Comm    | 0.13844    | 0.16546    | 0.18392    |   2.4 | 34.02
Output  | 0.00019924 | 0.00020181 | 0.00021388 |   0.0 |  0.04
Modify  | 0.039048   | 0.048062   | 0.056635   |   2.2 |  9.88
Other   |            | 0.004441   |            |       |  0.91

Nlocal:        83.3333 ave          92 max          71 min
Histogram: 1 1 2 4 6 9 10 9 3 3
Nghost:        1697.98 ave        1723 max        1680 min
Histogram: 6 6 3 6 7 6 9 4 0 1
Neighs:        10004.9 ave       11593 max        8352 min
Histogram: 1 1 6 5 8 11 11 3 0 2

Total # of neighbors = 480236
Ave neighs/atom = 120.05900
Neighbor list builds = 143
Dangerous builds = 15

#############################
# L I N E A R  Q U E N C H  #
#############################

# Define solid atoms. This closely follows ten Wolde  Ruiz-Montero and Frenkel  Faraday Discuss  1996  104  93-110
# Compute components of the per-atom q6 vector
compute q6 all orientorder/atom degrees 1 6 components 6 nnn NULL cutoff 1.3 # compute the Q6 parameter.
                                                                             # Use all neighbours within 1.3 unit cell.

# get number of connections
compute coord_number all coord/atom orientorder q6 0.5

# An atom is solid if it has 8 or more connections (of a possible 14)
variable is_solid atom c_coord_number>=8
group solid dynamic all var is_solid    # Must be dynamic to update
dynamic group solid defined

# do clustering
compute cluster solid cluster/atom 1.3 # Create a cluster where all atoms within are solid and max 1.3 units from another member

# define chunks one chunk per cluster
compute clus_chunks solid chunk/atom c_cluster nchunk every compress yes  # Says which atoms are in which chunk

# count the size of each chunk
compute size_chunks solid property/chunk clus_chunks count


# Find the maximum entry in the vector of chunk sizes
variable max_n equal max(c_size_chunks)


# Thermo style which includes this variable
# thermo_style custom step temp pe vol v_max_n

thermo ${N}  # Print the thermo information every 100 steps
thermo 1000  

# Reset the npt fix at a lower temperature (below freezing)
fix 1  all npt temp  ${temp} ${temp}  0.1  iso  5.68  5.68  0.5  mtk yes tchain  5  pchain  5
fix 1  all npt temp  0.45 ${temp}  0.1  iso  5.68  5.68  0.5  mtk yes tchain  5  pchain  5
fix 1  all npt temp  0.45 0.45  0.1  iso  5.68  5.68  0.5  mtk yes tchain  5  pchain  5

dump dmp2 all dcd ${N} traj.dcd
dump dmp2 all dcd 1000 traj.dcd


compute msd all msd com yes
variable twopoint equal c_msd[4]/6/(step*dt+1.0e-6)
fix 9 all vector 10 c_msd[4]
variable fit equal slope(f_9)/6/(10*dt)
thermo_style custom step temp pe c_msd[4] v_twopoint v_fit v_max_n

fix 1 all npt temp 1.25 ${temp} 0.1 iso 5.68 5.68 0.5 mtk yes tchain 5 pchain 5
fix 1 all npt temp 1.25 0.45 0.1 iso 5.68 5.68 0.5 mtk yes tchain 5 pchain 5
run 500000 # 5000000  # Run for this many steps
Neighbor list info ...
  update every 1 steps, delay 10 steps, check yes
  max neighbors/atom: 2000, page size: 100000
  master list distance cutoff = 3.8
  ghost atom cutoff = 3.8
  binsize = 1.9, bins = 9 9 9
  4 neighbor lists, perpetual/occasional/extra = 1 3 0
  (1) pair lj/cut, perpetual
      attributes: half, newton on
      pair build: half/bin/atomonly/newton
      stencil: half/bin/3d
      bin: standard
  (2) compute orientorder/atom, occasional
      attributes: full, newton on
      pair build: full/bin/atomonly
      stencil: full/bin/3d
      bin: standard
  (3) compute coord/atom, occasional
      attributes: full, newton on
      pair build: full/bin/atomonly
      stencil: full/bin/3d
      bin: standard
  (4) compute cluster/atom, occasional
      attributes: full, newton on
      pair build: full/bin/atomonly
      stencil: full/bin/3d
      bin: standard
Per MPI rank memory allocation (min/avg/max) = 9.763 | 9.768 | 9.772 Mbytes
Step Temp PotEng c_msd[4] v_twopoint v_fit v_max_n 
   12000     1.240769   -6.3762718 2.7332058e-30 1.8980595e-32 8.3333333e+20            2 
   13000    1.2561685   -6.3882886   0.56563513 0.0036258661  0.046283142            3 
   14000    1.2472626   -6.3945287    1.1388061 0.0067786076  0.046719717            2 
   15000    1.2415353   -6.4126312    1.6462164 0.0091456466   0.04576642            3 
   16000    1.2211335   -6.3812297    2.2069435  0.011494497  0.045470323            2 
   17000    1.2713196   -6.3815691    2.7297995   0.01338137   0.04520546            2 
   18000     1.238669   -6.4190586     3.238591  0.014993476  0.044949155            5 
   19000    1.2819475     -6.39506     3.749027    0.0164431  0.044633056            1 
   20000    1.2368422   -6.4182015    4.2351779  0.017646574  0.044128911            1 
   21000    1.2302076   -6.4251908    4.7955324   0.01902989   0.04395829            2 
   22000    1.2200015   -6.3867401    5.3254277  0.020172074  0.044063366            2 
   23000    1.2661582   -6.4214622    5.7959245  0.020999726  0.043839644            3 
   24000    1.1947162   -6.4026362     6.265377  0.021754781  0.043516922            2 
   25000    1.2159116   -6.4329954    6.7525144  0.022508381  0.043253713            3 
   26000     1.257661   -6.4409219    7.2964993  0.023386215  0.043088361            2 
   27000    1.2434604   -6.4304727    7.7682485  0.023976075    0.0429761            4 
   28000    1.2334809   -6.4201918    8.3026294  0.024710206  0.042814008            3 
   29000    1.2359627   -6.4107433    8.7788276  0.025226516  0.042685257            2 
   30000    1.2230626    -6.425942    9.2585236  0.025718121  0.042580098            1 
   31000    1.1937452   -6.4127209    9.8387596  0.026448278  0.042529287            3 
   32000    1.2317703   -6.4608609    10.402222  0.027089118  0.042563836            2 
   33000    1.2226611   -6.4496273     10.89508  0.027512827  0.042606974            1 
   34000    1.2217853   -6.5206653    11.336749   0.02778615  0.042607673            1 
   35000    1.2084918   -6.4527297    11.935068  0.028416829  0.042609679            3 
   36000    1.2224394   -6.4533705    12.393891  0.028689563  0.042634253            5 
   37000    1.2206283   -6.4888385    12.947348  0.029160692  0.042639113            3 
   38000    1.2243535     -6.43727    13.361742  0.029302065  0.042630206            2 
   39000     1.186266   -6.4207691    13.856356  0.029607597  0.042589174            3 
   40000    1.1845578   -6.4900586    14.299998  0.029791662  0.042509166            2 
   41000    1.2251419    -6.477132    14.835425  0.030153303  0.042439323            1 
   42000    1.2111092   -6.4721735    15.227205  0.030212707  0.042363144            3 
   43000    1.1797357   -6.4996683     15.80262  0.030625232  0.042282229            2 
   44000    1.1741474    -6.463435    16.161813  0.030609495  0.042207654            1 
   45000    1.1969243   -6.4559852    16.522955  0.030598064  0.042061561            1 
   46000    1.1959629   -6.4758459    16.922452  0.030656616  0.041894615            1 
   47000    1.1974547   -6.4836891    17.463587  0.030963807  0.041735522            2 
   48000    1.2105045   -6.5114325    18.008968   0.03126557  0.041642569            3 
   49000    1.1647747   -6.4656827    18.491433  0.031448016  0.041551962            3 
   50000    1.1830517   -6.4969852    19.003046  0.031671743  0.041482082            2 
   51000    1.1911754   -6.5367225    19.439708  0.031764229  0.041420977            3 
   52000    1.1719347   -6.4728824    19.906889  0.031902066  0.041330826            3 
   53000    1.1684288   -6.4971362    20.260176  0.031855623  0.041244056            2 
   54000    1.1807055   -6.5223308    20.690961  0.031930495  0.041130112            2 
   55000    1.1641808   -6.5148928    21.046989  0.031889376  0.041000618            1 
   56000    1.1599809    -6.546202    21.478918  0.031962675  0.040884583            3 
   57000    1.1740346   -6.4947562    21.927475  0.032057712  0.040763262            3 
   58000    1.1529379    -6.545102    22.400767  0.032185009  0.040642117            3 
   59000    1.1730335   -6.5460866    22.829819  0.032245507  0.040546199            1 
   60000    1.1781664   -6.5234343    23.408872  0.032512322   0.04046337            3 
   61000    1.1693556    -6.544248    23.873795  0.032614474  0.040390107            2 
   62000    1.1914395    -6.528225     24.45221  0.032865874  0.040336297            5 
   63000    1.1649132     -6.57115    24.994416  0.033061396  0.040309705            2 
   64000    1.1456794   -6.5230439    25.519542   0.03322857  0.040272855            3 
   65000     1.174844   -6.5497545    25.988783  0.033318953  0.040242456            3 
   66000    1.1670323   -6.5260809    26.539543  0.033509524  0.040223314            4 
   67000    1.1465888   -6.5471568     26.77935  0.033307649  0.040188959            3 
   68000    1.1868848   -6.5688379    27.191346  0.033322728  0.040142844            2 
   69000    1.1410602   -6.5290854    27.853324   0.03363928  0.040099776            1 
   70000    1.1574551   -6.5835318     28.29836  0.033688523  0.040078128            2 
   71000    1.1575413   -6.5412451    28.859827  0.033873037  0.040069626            1 
   72000    1.1616521   -6.5510156    29.166694  0.033757748   0.04005481            3 
   73000     1.134446   -6.5428588    29.766718  0.033980271  0.040042837            2 
   74000    1.1379063   -6.5781511    30.193661   0.03400187   0.04003339            3 
   75000    1.1571773   -6.5815075    30.557572  0.033952858  0.040015691            1 
   76000    1.1505479   -6.5630688    30.858014  0.033835541  0.039978862            1 
   77000    1.1295856   -6.5864285    31.353669  0.033932542  0.039933568            2 
   78000     1.136046   -6.5870778    31.848618  0.034026301   0.03989506            2 
   79000    1.1400309   -6.6074772    32.103123  0.033864054  0.039843547            6 
   80000    1.1338665   -6.6051534    32.390815  0.033740432  0.039785095            2 
   81000    1.1240088   -6.5850341    32.959282  0.033908727  0.039723945            2 
   82000     1.144564   -6.5762143    33.375465  0.033918155  0.039666653            1 
   83000    1.1304901   -6.6245206    33.709881  0.033845262  0.039606853            1 
   84000    1.1225045   -6.5676139     34.21555  0.033943998  0.039541166            3 
   85000    1.1321967   -6.5880978    34.564677  0.033886938  0.039474056            2 
   86000    1.1746538   -6.6202589    35.000403  0.033915119  0.039406422            2 
   87000    1.1447754   -6.6377294    35.367287  0.033876712  0.039344607            1 
   88000    1.0996809   -6.6334098    35.649738  0.033759221  0.039279068            2 
   89000    1.1406221    -6.601549    36.196228  0.033891599  0.039214091            6 
   90000    1.1236139   -6.6271424    36.454287  0.033753969  0.039139302            2 
   91000    1.1519396   -6.6001847    36.843444  0.033739417  0.039055445            4 
   92000    1.1134019   -6.6289696    37.201469  0.033696983  0.038973064            2 
   93000    1.1381719   -6.6105252    37.742646  0.033819575  0.038891899            4 
   94000    1.1188346   -6.6258489    38.030975  0.033715403   0.03880727            2 
   95000    1.1171335    -6.646955    38.170301   0.03348272  0.038715299            2 
   96000    1.1146797   -6.6538347    38.652255  0.033552305  0.038626025            2 
   97000     1.128336   -6.6736531    38.896515   0.03341625  0.038528456            6 
   98000     1.127794   -6.6716034    39.293707  0.033413016   0.03842882            3 
   99000    1.0901458   -6.6698006    39.714454  0.033429675  0.038339644            3 
  100000    1.1160931   -6.6567928    40.194426  0.033495355  0.038256161            2 
  101000    1.0993046   -6.6247958    40.532677  0.033442802   0.03816933            2 
  102000    1.1125945   -6.6625868    41.002771  0.033498995  0.038090655            3 
  103000    1.0943068   -6.6815468    41.431714  0.033520804  0.038014613            1 
  104000    1.1221798   -6.6547887     41.75133  0.033454591  0.037939968            2 
  105000    1.1119684   -6.6847725     42.16018   0.03346046  0.037862839            4 
  106000    1.0926134   -6.6643215     42.57538  0.033471211  0.037786748            2 
  107000    1.1032875   -6.6620573    42.861811  0.033381472  0.037710316            2 
  108000    1.0951628   -6.7051511    43.181566  0.033319109  0.037627782            4 
  109000    1.1032722    -6.673579    43.528331  0.033278541  0.037545248            4 
  110000    1.0875837   -6.6705102      43.8923  0.033251742  0.037464756            6 
  111000    1.0566004   -6.7029084    44.405083  0.033337149  0.037390839            3 
  112000    1.1036935   -6.7046277    44.520428  0.033125318  0.037311802            3 
  113000    1.1110279   -6.6972843    44.891461  0.033105797   0.03722361            1 
  114000    1.0840941    -6.681003    45.161736  0.033012965  0.037133555            3 
  115000    1.0781885   -6.6815798    45.598197  0.033042172  0.037045338            2 
  116000    1.0967769   -6.6800364    45.786084  0.032892302  0.036956051            4 
  117000    1.0905271    -6.705572    46.230639  0.032927806  0.036868339            7 
  118000    1.0684224   -6.7329659    46.511763   0.03284729  0.036778536            4 
  119000    1.0952245   -6.7109148      46.5984  0.032631933  0.036687923            2 
  120000     1.063169   -6.7220485      46.8528  0.032536666  0.036591198            6 
  121000    1.0525847   -6.7314077    46.988667  0.032361341   0.03648777            5 
  122000    1.0948965   -6.7643312    47.273342  0.032290534  0.036379979            3 
  123000    1.0680048   -6.7247572    47.523448  0.032197458  0.036274035            2 
  124000    1.0590622   -6.7312115     47.73186  0.032077863  0.036165288            2 
  125000    1.0809478    -6.708276    48.193929  0.032129286   0.03605919            2 
  126000    1.0577321   -6.7079737    48.564018   0.03211906  0.035955115            2 
  127000      1.06285   -6.7206996    48.788378  0.032013371  0.035851103            5 
  128000    1.0451729    -6.758534    48.846025  0.031800797  0.035740205            5 
  129000    1.0761316   -6.7292044    49.251548  0.031816245   0.03563077            2 
  130000    1.0328777    -6.742394    49.888908  0.031980069   0.03552755            2 
  131000    1.0617598   -6.7491776     50.17098  0.031915382  0.035424874            2 
  132000    1.0708589   -6.7576638    50.268262  0.031735014  0.035326533            4 
  133000    1.0652352    -6.732659    50.761148  0.031805231  0.035230933            3 
  134000    1.0372488   -6.7608809    51.173576  0.031824363  0.035136319            3 
  135000    1.0686956   -6.7571693    51.464706  0.031768337   0.03504742            3 
  136000    1.0653983   -6.7608383    51.835565  0.031761988  0.034959458            3 
  137000    1.0613729   -6.7866438    52.056461  0.031664514   0.03487046            2 
  138000    1.0316876   -6.7767579    52.432787  0.031662311  0.034783467            7 
  139000    1.0466139   -6.8099215    52.770986  0.031637281  0.034699949            1 
  140000    1.0374712   -6.7937767    52.971736  0.031530795  0.034617266            1 
  141000    1.0387162   -6.7991821    53.674199  0.031722339  0.034534398            5 
  142000     1.021789   -6.8245191    53.729522  0.031531409  0.034451596           10 
  143000    1.0456715    -6.765878    53.861381  0.031387751  0.034371373            3 
  144000    1.0703529   -6.7687399    54.422018  0.031494223  0.034289517            3 
  145000    1.0393454   -6.7846412    54.665282  0.031416828  0.034206139            2 
  146000    1.0177075   -6.7892786    54.698339  0.031220513   0.03411895            6 
  147000    1.0482935   -6.8159875    54.925052  0.031136651  0.034029775            4 
  148000     1.037287   -6.7937327    55.101916  0.031025853  0.033941126            2 
  149000    1.0302207   -6.8345728    55.468709  0.031022768  0.033851972            3 
  150000    1.0193363   -6.8044094    56.108492  0.031171384   0.03376778            4 
  151000    1.0346477   -6.8106616    56.251954  0.031044125  0.033688227            3 
  152000    1.0326358   -6.8435634    56.671807   0.03107007  0.033608927            4 
  153000     1.008093   -6.8261448     57.04722  0.031071471  0.033534824            4 
  154000     1.046631   -6.8251192    57.589421  0.031163106  0.033463822            2 
  155000    1.0250164   -6.8355113    57.762654   0.03105519  0.033394077            3 
  156000     1.025051   -6.8159148     57.99516   0.03098032  0.033321859            3 
  157000    1.0126191   -6.8374829    58.334683  0.030963207  0.033252233            3 
  158000    1.0163765   -6.8420453    58.512179  0.030860854  0.033181972            3 
  159000    1.0361131   -6.8507627    58.939051  0.030890488   0.03311457            2 
  160000    1.0305463   -6.8604677    59.189205  0.030827711  0.033047491            2 
  161000    1.0197814   -6.8283483    59.333129  0.030710729  0.032978861            6 
  162000   0.99238839   -6.8317851    59.823693  0.030773505  0.032909754            2 
  163000    1.0160553    -6.826717    60.007932  0.030678902  0.032839867            5 
  164000   0.99612999   -6.8695386    60.351498  0.030666411  0.032771156            3 
  165000   0.99975843   -6.8473688    60.706363  0.030659779  0.032703225            2 
  166000    0.9987606   -6.8825367    60.704789  0.030474291  0.032633505            3 
  167000    1.0037317   -6.8895806    60.835817  0.030357194    0.0325619            3 
  168000    1.0043197   -6.8580944    61.177459  0.030345962  0.032488485            3 
  169000   0.99756654   -6.9138597    61.396893  0.030274602  0.032414211            4 
  170000   0.97647529    -6.883188    61.764837  0.030276881  0.032340879            2 
  171000   0.96947803   -6.8588791    62.066347  0.030246758  0.032268277            2 
  172000    0.9977147   -6.9028552    62.156873  0.030114764  0.032197015            3 
  173000   0.97616299   -6.8962294    62.350563   0.03003399  0.032122404            2 
  174000   0.96809578   -6.9075028    62.570162  0.029966552  0.032048413            3 
  175000    1.0054607   -6.8975748    62.813098  0.029910999  0.031975288            3 
  176000   0.97103013   -6.9476394    63.060435   0.02985816  0.031901709            3 
  177000   0.98584125   -6.9029185    63.225591  0.029767227  0.031828153            5 
  178000   0.99850167   -6.9010355    63.696123  0.029820282   0.03175495            5 
  179000   0.98165961   -6.9158383    63.887241  0.029742663  0.031682495            2 
  180000   0.97276047   -6.8810402    64.127404  0.029688613  0.031609691            5 
  181000   0.98269461   -6.8940351    64.032323  0.029480812  0.031535326            3 
  182000   0.96203438   -6.9316328    64.297339  0.029440173  0.031457428            2 
  183000   0.95065072   -6.9256409    64.360317  0.029307977  0.031379507            3 
  184000   0.96734523   -6.9028734    64.893401  0.029390127  0.031303887            3 
  185000   0.97734962   -6.9168619    65.020948  0.029288715   0.03122967            2 
  186000    0.9571432   -6.9540062    65.279977  0.029247301  0.031155303            2 
  187000   0.94964419   -6.9103885    65.699444  0.029277827  0.031080883            4 
  188000    0.9790445   -6.9379214    65.852186  0.029189799   0.03100908            4 
  189000   0.93805472    -6.927461    66.063092  0.029128347  0.030937826            6 
  190000   0.95727407   -6.9575342    66.617483  0.029218194   0.03086859            3 
  191000   0.94637542   -6.9470189    66.666975  0.029086813  0.030800619            5 
  192000    0.9592897   -6.9486343    66.915251  0.029043077  0.030731178            6 
  193000   0.95625103   -6.9714516    67.252963  0.029038412  0.030661546            2 
  194000   0.94833538   -6.9294989    67.365324  0.028936995  0.030593131            2 
  195000   0.96484939   -6.9659333    67.553478  0.028869008  0.030523128            2 
  196000   0.96679988   -6.9420871    67.699241  0.028783691  0.030452505            4 
  197000   0.95144278   -6.9561752    67.921794  0.028731723  0.030381739            3 
  198000    0.9472605   -6.9561274    67.879542  0.028568831  0.030310211            4 
  199000   0.96243992   -6.9732903    68.073768  0.028506603  0.030237953            4 
  200000   0.95221387   -6.9777868    68.266008   0.02844417  0.030164095            3 
  201000   0.95635154   -6.9711549    68.402657  0.028359311  0.030091288            3 
  202000   0.94756083   -6.9799957    68.811249  0.028387479  0.030018864            3 
  203000   0.96414126   -6.9549837    69.257218  0.028430713  0.029947571            4 
  204000   0.97381743   -7.0255987    69.177722  0.028258873  0.029876704            6 
  205000   0.92520928   -6.9915973    69.472292  0.028240769  0.029806342            5 
  206000   0.95035666    -6.987425    69.658803  0.028179128  0.029735806            9 
  207000   0.96371771   -7.0425303    69.622236  0.028028275  0.029663574           10 
  208000   0.94306298   -6.9707552    69.852309  0.027985701  0.029590007            5 
  209000   0.93332286   -7.0079481    70.224725  0.028000289  0.029518627            2 
  210000   0.93142915    -6.981011    70.306726  0.027899494  0.029447204            8 
  211000   0.93535876   -7.0096862    70.530321  0.027855577  0.029376195            4 
  212000   0.92255273   -6.9927098    70.766015   0.02781683  0.029304731            5 
  213000   0.91283954   -7.0422915    71.024897  0.027787518   0.02923386            2 
  214000   0.92358689   -7.0265196    71.195413   0.02772407  0.029162556            5 
  215000   0.94710648   -7.0086104    71.372648  0.027663817  0.029092374            4 
  216000   0.92927793   -7.0434587     71.60413   0.02762505  0.029021686            2 
  217000   0.90073835   -7.0166901    71.540742  0.027473403  0.028950796            4 
  218000   0.91467997   -7.0567638    71.791233  0.027443132  0.028877825            3 
  219000   0.91816534   -7.0420692    72.024023  0.027406401  0.028807006            8 
  220000   0.92571183   -7.0301689    71.980826  0.027265464  0.028736276            5 
  221000   0.89383229   -7.0299764    72.424108  0.027309241   0.02866611            6 
  222000   0.92433817   -7.0267789    72.462674  0.027200703  0.028594191            3 
  223000   0.91342031   -7.0570297    72.647281  0.027147713  0.028521844            4 
  224000   0.91165449   -7.0400697    72.923631  0.027129327  0.028449795            2 
  225000   0.91531126   -7.0621723    72.905434  0.027002012  0.028378211            2 
  226000   0.90157678   -7.0525166    73.072389  0.026944096  0.028307616            6 
  227000   0.90753164   -7.0805625    73.290564  0.026905493  0.028236536            4 
  228000   0.90883948   -7.0411653    73.416482  0.026833509  0.028166362            4 
  229000   0.92008403   -7.0646039    73.773253  0.026846162  0.028096994            4 
  230000   0.90572647   -7.0621099    73.812821  0.026743776  0.028026275            5 
  231000   0.87870185   -7.0496433    74.143024  0.026747123   0.02795506            2 
  232000   0.90546417   -7.1061213    73.994164  0.026578363  0.027883465            4 
  233000   0.88605396    -7.065429    74.380229  0.026602371  0.027813134            4 
  234000   0.88244236   -7.0803399    74.267377  0.026448496  0.027741997            4 
  235000   0.88892335   -7.1047292    74.425226  0.026391924  0.027669961            3 
  236000   0.88737409   -7.0868476    74.716691  0.026383012  0.027597581            4 
  237000   0.89003952   -7.0944245    74.688422  0.026261752  0.027524267            5 
  238000   0.89147648    -7.122332    74.681973   0.02614915  0.027449919            3 
  239000   0.90833785    -7.083701    74.869996  0.026105298  0.027374937            5 
  240000   0.87959971   -7.1073691    74.891583  0.026004022   0.02730061            4 
  241000   0.88120481    -7.109188    74.572347  0.025785735  0.027224453            8 
  242000   0.90092571   -7.1191682    74.838629  0.025770878  0.027147829            6 
  243000   0.89171276   -7.1069521    74.820272   0.02565853  0.027070874            2 
  244000   0.88806741   -7.0971083    75.018619  0.025621113  0.026993921           17 
  245000   0.87050564   -7.1520953    74.935942  0.025488416  0.026917611            7 
  246000   0.87352888   -7.1240521    75.233988  0.025485768  0.026840727            4 
  247000   0.87884578   -7.1388928    75.142619  0.025351761  0.026762707            6 
  248000   0.88239617   -7.0981638    75.576637  0.025395375  0.026684151            6 
  249000   0.85954143    -7.140163    75.420359  0.025241084  0.026606596            5 
  250000   0.88190638   -7.1303023    75.511386  0.025170462  0.026528853            4 
  251000   0.86524394   -7.1245396    75.799492  0.025165834  0.026452434            6 
  252000   0.89547995   -7.1241002    75.739921   0.02504627  0.026375622            3 
  253000   0.86091041    -7.151928    75.452161   0.02485249  0.026297971            6 
  254000   0.86662185   -7.1324226    76.017276  0.024940051  0.026220569            6 
  255000   0.85238636   -7.1736938    76.033302  0.024847484  0.026143907            5 
  256000   0.85313255   -7.1531727    76.338785  0.024849865  0.026067681            8 
  257000   0.85126451   -7.1484193    76.308718  0.024743423  0.025991706           11 
  258000   0.86405668   -7.1270933    76.354374  0.024662265  0.025915651            1 
  259000   0.83666734   -7.1470382      76.5323  0.024624292  0.025839632            4 
  260000   0.86485491   -7.1662395    76.586445  0.024546937  0.025763454            9 
  261000    0.8345959   -7.1669343    76.819435  0.024527278  0.025687828            5 
  262000   0.85810208   -7.1869865    76.994294  0.024489279  0.025612591            4 
  263000   0.84670299   -7.1803511    77.227521  0.024470064  0.025538557            3 
  264000   0.84675778   -7.1970229    77.270862  0.024391055  0.025464628            7 
  265000   0.86132927   -7.1663819    77.384343  0.024334699  0.025391251            6 
  266000   0.85096393   -7.1993362    77.509494  0.024282423  0.025318058            5 
  267000   0.84361992   -7.1908466    77.852466  0.024298522  0.025244858            4 
  268000   0.87044007   -7.1760756    77.626155  0.024137486  0.025172222            7 
  269000   0.82781329   -7.1918705    77.820246  0.024107883  0.025099363            7 
  270000   0.84941742   -7.2075186    78.023272  0.024081257  0.025026743            7 
  271000   0.85345019   -7.2061196    78.216312  0.024051757  0.024955026            5 
  272000   0.81309807   -7.2316785    77.845777  0.023849809   0.02488234            5 
  273000   0.83407831   -7.2240624    78.189437  0.023867349  0.024809336            6 
  274000   0.82283344    -7.224634    78.138428  0.023764729  0.024736502            6 
  275000   0.81624746    -7.201585    78.357894  0.023744816   0.02466459            3 
  276000   0.82150882   -7.2184216     78.62168   0.02373843  0.024593322            3 
  277000   0.82092175   -7.2519248    78.511812  0.023619679  0.024521902            4 
  278000   0.83074997   -7.2163638     78.71533  0.023595722  0.024450737            3 
  279000   0.83635709   -7.2550932    78.954375  0.023582549    0.0243797            6 
  280000   0.80598774   -7.2223529    78.995139  0.023510458  0.024309564            2 
  281000   0.81406409   -7.2209172    79.100729  0.023458105  0.024239642            7 
  282000   0.82635493   -7.2240308    79.107299  0.023376861  0.024169795            7 
  283000   0.81957935   -7.2515947    79.079179  0.023285977  0.024100124            3 
  284000   0.81271703   -7.1985936    79.200766  0.023239661  0.024030642            8 
  285000   0.83056373   -7.2323964    79.344254  0.023200074   0.02396109            5 
  286000   0.80734147   -7.2526162    79.398877  0.023134871  0.023892123            4 
  287000   0.81570979   -7.2635444    79.491029  0.023081019   0.02382271            3 
  288000   0.80532451   -7.2093682    79.503094  0.023004367  0.023754055            8 
  289000   0.80964468   -7.2693825    79.937758  0.023050103  0.023685721            4 
  290000   0.80493795   -7.2826334    79.933599  0.022969425  0.023617756           10 
  291000   0.80427065   -7.3027951    79.962008  0.022898628  0.023549863            5 
  292000   0.81245515   -7.2939077    80.204997  0.022889554  0.023482672            5 
  293000   0.79283322   -7.2853754    80.233838  0.022819635  0.023415856            3 
  294000   0.79831337   -7.2850025    80.345816  0.022773757  0.023348727            6 
  295000   0.79715454   -7.2841165    80.514802  0.022744294  0.023282009            4 
  296000   0.79089081   -7.3066452    80.428371  0.022643123  0.023215545           11 
  297000   0.81085927   -7.3088862    80.387058  0.022555291  0.023148784            7 
  298000   0.80368641   -7.3067522     80.57237  0.022531423  0.023082328            5 
  299000   0.78600888   -7.3139122    80.462426  0.022425425   0.02301564            5 
  300000   0.77956101   -7.3251859    80.806484  0.022446245  0.022948887            5 
  301000   0.81261951   -7.2955346    80.750667   0.02235622   0.02288299            5 
  302000   0.79120313    -7.282374    81.149825  0.022392336  0.022817884            4 
  303000   0.78818002   -7.3242917      81.1096  0.022307371  0.022753167            4 
  304000   0.77264965   -7.3321612    80.988933  0.022200914  0.022688262            7 
  305000   0.76825386   -7.3400094    81.287707  0.022209756  0.022623618            9 
  306000   0.78812404   -7.3167349    81.206643  0.022115099  0.022559156            9 
  307000   0.77524561   -7.3278468    81.215213  0.022045389  0.022494857            6 
  308000   0.77052297   -7.3410894    81.400165  0.022023854  0.022430331            3 
  309000   0.76003823   -7.3432332    81.403928  0.021953594  0.022365953            5 
  310000   0.77867651   -7.3163446    81.592262  0.021933404   0.02230181            4 
  311000   0.77250257   -7.3746967    81.475386  0.021831561  0.022237755            7 
  312000   0.79664004   -7.4159072     81.45404  0.021755887    0.0221736            3 
  313000   0.75717693   -7.3808765    81.627673  0.021732607   0.02210905            5 
  314000   0.76753364   -7.3550738    81.607699  0.021658094  0.022045182            9 
  315000   0.77764649   -7.3665434    81.777757  0.021634327  0.021981575            5 
  316000   0.76403557   -7.3282624    81.575209   0.02151245  0.021917909            6 
  317000   0.76096903   -7.3433332    81.694345  0.021475906  0.021854089            3 
  318000   0.75673912   -7.3954136    81.629858  0.021391472  0.021790331            5 
  319000     0.759513   -7.3752937    82.102642  0.021447921  0.021727488            5 
  320000   0.74124595   -7.3563793    81.987224   0.02135084  0.021664572            7 
  321000   0.76303744   -7.3367125    82.263066  0.021355936  0.021602383            3 
  322000   0.75538167   -7.4050719    82.032849  0.021230033  0.021540102            5 
  323000   0.76807558   -7.3722168    82.379743  0.021253804  0.021478329            3 
  324000   0.75813542   -7.3831401    82.388684  0.021190505  0.021416803            6 
  325000   0.75073614   -7.4095234    82.334809   0.02111149  0.021355245            9 
  326000   0.74076757   -7.3736197     82.47349   0.02108218  0.021293792            8 
  327000   0.74729562   -7.3915291    82.500229  0.021024523  0.021232224            7 
  328000   0.75711552   -7.4094095    82.567828  0.020977599   0.02117093            5 
  329000   0.75636331   -7.4184057    82.586609  0.020918594  0.021109854            6 
  330000   0.74002173   -7.4463417    82.721368  0.020889234  0.021049145            6 
  331000   0.74296277   -7.4070826    82.724393  0.020826887  0.020988233            7 
  332000   0.74355591   -7.4238962    82.699539  0.020757916  0.020927762            5 
  333000   0.73693312   -7.4649727    82.877507  0.020740117  0.020867465           16 
  334000   0.73726132   -7.4267692    82.965708  0.020700027  0.020807613            3 
  335000   0.73001016   -7.4472026    83.029769  0.020654171  0.020747903            5 
  336000   0.72819796   -7.4272297    82.903794  0.020561457  0.020688479            4 
  337000   0.72492512   -7.4615615     82.79411  0.020473321  0.020628637            3 
  338000   0.73019801   -7.4461563    83.010563  0.020466115  0.020569188            6 
  339000   0.70710538   -7.4320834    83.398628  0.020501138  0.020510405            5 
  340000   0.73220694   -7.4557104    83.391979  0.020439211  0.020451834            9 
  341000   0.72692101   -7.4406121    83.515001  0.020409335  0.020393706            8 
  342000   0.71808535   -7.4807591    83.387365  0.020318559  0.020335464            5 
  343000   0.70958038   -7.4622153    83.406886  0.020264064  0.020277324            7 
  344000   0.72670705   -7.4730133    83.545683   0.02023878  0.020219298            5 
  345000   0.73377466   -7.4611718    83.473078  0.020162579    0.0201612            7 
  346000   0.70869341   -7.4666318     83.52945  0.020117883   0.02010276           13 
  347000   0.71410485   -7.5058953     83.27697  0.019999272  0.020044425           11 
  348000   0.71714005   -7.4640863    83.359563  0.019961581  0.019986131            5 
  349000   0.70270258   -7.4696534    83.431222  0.019921495  0.019927766            6 
  350000   0.70086684   -7.4949155       83.306  0.019834762  0.019869515            8 
  351000    0.7051245   -7.4919515     83.39961  0.019800477  0.019811133            3 
  352000   0.72288868   -7.5113815    83.522588   0.01977334  0.019752747            5 
  353000    0.7073961   -7.5237608    83.517923  0.019716223  0.019694251           10 
  354000   0.68672701   -7.5100119    83.428044   0.01963937  0.019636039            7 
  355000   0.69950036   -7.5133354    83.418726  0.019581861   0.01957774           18 
  356000   0.69188216   -7.5074467    83.385553   0.01951909  0.019519461           22 
  357000    0.7010181    -7.489359    83.445542  0.019478418  0.019460936            9 
  358000   0.69552155   -7.5195475     83.53011  0.019443694    0.0194024            9 
  359000   0.67814358    -7.514371    83.470938  0.019375798  0.019343786           10 
  360000   0.68087947    -7.523939     83.25044  0.019270935  0.019285373           16 
  361000   0.67935953   -7.5005686    83.447975  0.019263152  0.019227033            6 
  362000   0.68391183   -7.5392021    83.417337  0.019202886  0.019168877           11 
  363000   0.67383466   -7.5392999    83.251327  0.019111875  0.019110519           11 
  364000   0.69297279   -7.5245528    83.452661  0.019105463  0.019052329            4 
  365000   0.69582941    -7.528052    83.445141  0.019051402  0.018994477           14 
  366000    0.6825393   -7.5321724    83.659675  0.019048196  0.018936776            9 
  367000      0.68672   -7.5590365     83.61537  0.018986233  0.018879466           10 
  368000    0.6944885   -7.5350368    83.659521  0.018944638  0.018822396            8 
  369000   0.65617169   -7.5505113    83.602016  0.018880311  0.018765518            8 
  370000   0.67885401   -7.5521679    83.616888  0.018832632  0.018708815            7 
  371000   0.67316092    -7.535995    83.685927  0.018797378  0.018652057            4 
  372000   0.67056256   -7.5355013    83.552842  0.018717034  0.018595512            6 
  373000   0.67596333   -7.5826831    83.560914  0.018668658  0.018538707            6 
  374000   0.67605284   -7.5766579    83.660331  0.018640894  0.018482128            7 
  375000   0.67013928   -7.5985132    83.636696  0.018585932  0.018425925           15 
  376000     0.678416   -7.5801795    83.618864   0.01853255  0.018369645           14 
  377000   0.67133952   -7.5564254    83.719937  0.018505733   0.01831378            9 
  378000    0.6547825   -7.5892059    83.688756  0.018449902  0.018258083           11 
  379000   0.64782971   -7.5811346    83.844538  0.018435474  0.018202485            9 
  380000   0.66099006    -7.561346    83.927811  0.018405222  0.018147063            6 
  381000   0.67097769    -7.585077    83.672288  0.018301025  0.018091754           16 
  382000   0.64746139   -7.5995471    83.652604  0.018248823  0.018036514           10 
  383000   0.65393928    -7.607845    83.846432  0.018243349  0.017981372            5 
  384000   0.64270189    -7.615024    83.724049  0.018169281  0.017926316            9 
  385000    0.6402714   -7.6489996    83.656573  0.018107483  0.017871176            6 
  386000   0.64957691   -7.6021748    83.767415  0.018084502  0.017816257           18 
  387000   0.64509065    -7.617497    83.692315  0.018021601  0.017761457           15 
  388000   0.65784787   -7.6291543    83.756271   0.01798889  0.017706846            9 
  389000   0.63842924   -7.6241002    83.713465  0.017933476  0.017652152           14 
  390000   0.63399864   -7.6288612     83.71573  0.017887977  0.017597923           15 
  391000   0.63253263   -7.6257143    83.600561  0.017817681  0.017543463           10 
  392000   0.62698865   -7.6407633     83.69365  0.017792017  0.017489366           10 
  393000   0.64168908   -7.6579529    83.649614  0.017737408  0.017435351           10 
  394000   0.64179723   -7.6441718    83.818693   0.01772815  0.017381474            9 
  395000   0.63490631   -7.6439701    83.824502  0.017684494  0.017327778            6 
  396000   0.64703812   -7.6528854    83.841154  0.017643341   0.01727425            6 
  397000   0.63523329   -7.6366535    83.795231  0.017589259  0.017220773           11 
  398000   0.62327007   -7.6671231    83.697965    0.0175247  0.017167441            7 
  399000   0.63894107   -7.6488432     83.58873  0.017457964  0.017114221            8 
  400000   0.61693318   -7.6754346    83.822136  0.017462945  0.017061138            7 
  401000   0.63104318   -7.6825568    83.700143  0.017394045   0.01700804            9 
  402000   0.63263816   -7.6666183    83.714677  0.017353789  0.016955054            6 
  403000   0.61972584   -7.6814187    83.751073  0.017318253  0.016902306            5 
  404000   0.61421369   -7.6571188    83.631271  0.017250675  0.016849651            7 
  405000   0.63474683   -7.6524886    83.645638  0.017211037  0.016797173            7 
  406000   0.60372353   -7.6891402    83.674152  0.017174497   0.01674484            7 
  407000   0.62045765   -7.6934164    83.755615  0.017148979  0.016692484           11 
  408000   0.61438261   -7.6828752    83.780008   0.01711193  0.016640427            9 
  409000   0.60226036   -7.6832676     83.41545  0.016995813  0.016588318           19 
  410000   0.61919107   -7.6799806    83.547352  0.016981169  0.016536424            8 
  411000   0.60755244   -7.6960916    83.647728  0.016960204  0.016484563            8 
  412000   0.61049076   -7.7005472    83.687243  0.016927031  0.016433041            8 
  413000   0.61791258   -7.7048366      83.6327   0.01687504   0.01638167            9 
  414000   0.59504566   -7.7090149    83.571346  0.016821929  0.016330183            9 
  415000   0.60122616   -7.6981807    83.440811  0.016755183  0.016279096            7 
  416000   0.60244284   -7.7098797    83.699557  0.016766738  0.016228162           10 
  417000   0.59877255   -7.7076418      83.4154  0.016669744  0.016177259           10 
  418000   0.59125705   -7.7078293    83.608668  0.016668395  0.016126444           11 
  419000   0.60393899   -7.7206609    83.460217  0.016599088  0.016075995            6 
  420000   0.59351875   -7.7402821    83.612854  0.016589852  0.016025652            9 
  421000    0.5902232   -7.7128347    83.597155  0.016547339  0.015975413            9 
  422000   0.60647335   -7.7395045    83.572436  0.016503246  0.015925269           11 
  423000   0.59180777   -7.7350698    83.597452  0.016469159  0.015875268           12 
  424000    0.6029451   -7.7269276    83.571806  0.016425276  0.015825408           24 
  425000   0.58838146   -7.7540564    83.624088   0.01639688  0.015775741           10 
  426000   0.59107456    -7.747236    83.500789   0.01633427  0.015726329           13 
  427000   0.58757385   -7.7539906    83.551325  0.016305879  0.015676964            9 
  428000   0.58012663   -7.7343035     83.58473  0.016274285  0.015627756           22 
  429000   0.57644546   -7.7589058    83.576797  0.016234809  0.015578733           18 
  430000   0.59457417   -7.7514791    83.643417  0.016209964  0.015529896           15 
  431000   0.57828745   -7.7456544    83.468431  0.016138521  0.015481301           21 
  432000   0.57469978   -7.7866243    83.614407  0.016129322   0.01543284           18 
  433000   0.58126283    -7.767379    83.671784  0.016103115  0.015384505           22 
  434000   0.58677315   -7.7611885    83.574666  0.016047363  0.015336443            8 
  435000   0.57532967   -7.7780161    83.568242  0.016009242  0.015288543           16 
  436000   0.57003013   -7.7726112    83.744012  0.016006118  0.015240879           16 
  437000   0.56771802   -7.7849096    83.686098  0.015958447  0.015193229           17 
  438000   0.55874859   -7.7666335    83.582291  0.015902262  0.015145866           16 
  439000   0.57026832   -7.7774096     83.47422  0.015845524  0.015098426           19 
  440000    0.5591858      -7.8019     83.73859  0.015859581  0.015051083           18 
  441000   0.55934808   -7.8111949    83.596312  0.015796733  0.015004007           15 
  442000   0.56443281   -7.7794136     83.45942  0.015735185  0.014957061           14 
  443000   0.56741706   -7.8062083     83.37883  0.015684505  0.014910186           13 
  444000   0.55634754   -7.8017673    83.619317  0.015694316  0.014863506           17 
  445000    0.5687661     -7.82812    83.572126  0.015650211  0.014816911           15 
  446000   0.55113139   -7.7839038    83.372049  0.015577737  0.014770453           14 
  447000   0.54343491   -7.8002035    83.384199  0.015545153  0.014724127           11 
  448000   0.56163251    -7.807995    83.415958  0.015516361  0.014678001           17 
  449000   0.54806816   -7.8090773       83.514       0.0155  0.014632066           18 
  450000   0.56327139   -7.8060073    83.547761  0.015471808   0.01458634            9 
  451000   0.54880292   -7.8118513    83.343683  0.015399794  0.014540778           14 
  452000   0.54672743   -7.8131346    83.525106  0.015399171  0.014495282           12 
  453000    0.5443979   -7.8171742    83.497493  0.015360098  0.014450092           14 
  454000    0.5554888   -7.8022209    83.505197  0.015327679  0.014404956           20 
  455000    0.5383317    -7.833105    83.481268  0.015289609  0.014360008           17 
  456000   0.54744797   -7.8301146     83.43926  0.015248403  0.014315236           14 
  457000   0.53067299   -7.8465971    83.489632  0.015224222  0.014270516           17 
  458000   0.53072572   -7.8434098    83.454909  0.015184663  0.014225976           22 
  459000    0.5362815   -7.8329478     83.43283  0.015147573  0.014181645           10 
  460000   0.53044349   -7.8421546    83.306181  0.015091699  0.014137436           15 
  461000   0.53602284   -7.8432375    83.393184   0.01507469  0.014093341           16 
  462000   0.54302175   -7.8369923    83.487723  0.015059113  0.014049425           13 
  463000   0.53234679   -7.8480701    83.577048  0.015042665  0.014005726           10 
  464000   0.53161913   -7.8616965    83.340031  0.014967678   0.01396215           11 
  465000    0.5207909    -7.844583    83.329539  0.014933609  0.013918659           18 
  466000   0.51624002    -7.854123    83.291623  0.014894782  0.013875325           26 
  467000   0.52386293   -7.8527578    83.516077   0.01490294  0.013832169           12 
  468000   0.51886313   -7.8501098    83.388857  0.014848443  0.013789134           11 
  469000    0.5089942   -7.8446327    83.355995  0.014810944  0.013746216           22 
  470000   0.52285658   -7.8604188    83.468996  0.014799467  0.013703489           20 
  471000    0.5170206   -7.8898543    83.276474  0.014733983   0.01366078           17 
  472000    0.5054183   -7.8801129    83.359631  0.014717449  0.013618318           15 
  473000   0.51374294   -7.8852949    83.411482  0.014695469  0.013575994           29 
  474000   0.51034825   -7.8920474    83.317062  0.014647866  0.013533792           25 
  475000   0.50143833   -7.9005205    83.318784  0.014617331  0.013491783           14 
  476000   0.50765845   -7.8917912    83.263823     0.014577  0.013449911           21 
  477000   0.50311153   -7.9034657    83.432148  0.014575847  0.013408174           20 
  478000   0.50258928    -7.895012    83.214808  0.014507463  0.013366489           11 
  479000   0.49350766   -7.9001928    83.305646  0.014492979  0.013324954           10 
  480000   0.50733932   -7.8946306    83.191359  0.014442944  0.013283623           15 
  481000   0.49624372   -7.9063343    83.217025  0.014417364   0.01324245           23 
  482000   0.48767294   -7.8986849    83.277843  0.014397967  0.013201392           10 
  483000   0.50397477   -7.9112249    83.181125  0.014351471    0.0131605           12 
  484000   0.49710006   -7.8888206      83.3347  0.014348261  0.013119782           14 
  485000   0.48326579   -7.9162579    83.181066  0.014292279  0.013079213           14 
  486000   0.49294146   -7.9010834    83.198811  0.014265914  0.013038743           13 
  487000    0.4798457   -7.9078774    83.167104  0.014231195   0.01299845           21 
  488000   0.48558489   -7.9183733    83.148749  0.014198898  0.012958364           21 
  489000   0.48596122   -7.9208854    83.285024  0.014193085  0.012918427           11 
  490000    0.4877306   -7.9187243     83.19154  0.014148221  0.012878535           17 
  491000    0.5001818   -7.9274452     83.17073  0.014115874  0.012838834           27 
  492000   0.49016999   -7.9229177    83.062929  0.014068924  0.012799269           12 
  493000   0.48200627   -7.9362358    83.276057  0.014076413  0.012759857           18 
  494000   0.48187387   -7.9152114    83.161175  0.014028538  0.012720556           10 
  495000   0.48408633   -7.9430909    83.099804  0.013989866  0.012681438           28 
  496000   0.48518404   -7.9255651    83.265439  0.013989489   0.01264242           14 
  497000   0.47471949   -7.9471421     83.14844  0.013941724  0.012603534           13 
  498000     0.467994   -7.9281004    83.081614  0.013902546  0.012564738           22 
  499000   0.47527693   -7.9370734    83.102843   0.01387823  0.012526131           16 
  500000   0.48378857   -7.9401895     82.98932  0.013831553   0.01248763           25 
  501000   0.46501692    -7.949569    83.060737  0.013815825  0.012449295            9 
  502000   0.47094318   -7.9519808    83.020003  0.013781541  0.012411039           16 
  503000    0.4603252    -7.956323    83.162609  0.013777768  0.012372916           13 
  504000    0.4567892   -7.9623963    83.129537  0.013744963  0.012334986           13 
  505000   0.46955327   -7.9693493    82.952668  0.013688559  0.012297179           18 
  506000   0.46037643   -7.9542187    83.039011  0.013675727  0.012259489           13 
  507000   0.45904563   -7.9713541     82.96674  0.013636874  0.012221945           40 
  508000   0.45323566   -7.9633749    83.015183  0.013617976  0.012184558           16 
  509000   0.44928553   -7.9872293    82.943347  0.013579461  0.012147331           21 
  510000   0.45598561   -7.9538247    82.958668  0.013555338  0.012110224           16 
  511000   0.45311167   -7.9785567     83.01226  0.013537551  0.012073295           19 
  512000   0.43140942   -7.9772789    83.061396  0.013519107  0.012036436           27 
Loop time of 1105.52 on 48 procs for 500000 steps with 4000 atoms

Performance: 78153.280 tau/day, 452.276 timesteps/s
99.4% CPU use with 48 MPI tasks x no OpenMP threads

MPI task timing breakdown:
Section |  min time  |  avg time  |  max time  |%varavg| %total
---------------------------------------------------------------
Pair    | 70.33      | 73.639     | 76.626     |  17.8 |  6.66
Neigh   | 7.0975     | 7.3071     | 7.562      |   3.2 |  0.66
Comm    | 64.72      | 68.705     | 72.215     |  21.7 |  6.21
Output  | 0.79852    | 0.79907    | 0.80797    |   0.1 |  0.07
Modify  | 940.82     | 944.06     | 946.6      |   4.7 | 85.40
Other   |            | 11.01      |            |       |  1.00

Nlocal:        83.3333 ave          90 max          77 min
Histogram: 2 5 6 8 4 7 6 2 2 6
Nghost:        1869.67 ave        1894 max        1850 min
Histogram: 2 2 6 6 11 15 3 1 1 1
Neighs:        11631.2 ave       13288 max       10129 min
Histogram: 2 1 8 8 11 6 5 2 3 2
FullNghs:      23261.3 ave       25141 max       21174 min
Histogram: 1 4 7 5 7 6 5 4 3 6

Total # of neighbors = 1116542
Ave neighs/atom = 279.13550
Neighbor list builds = 26955
Dangerous builds = 0

#clear
#
#next RN
#
#jump SELF
Total wall time: 0:18:28
