
units lj                  # Use reduced LJ style units
atom_style atomic         # Uncharged point particles
atom_modify map hash      # Needed for indexing of clusters etc
                          # Used to be able to find where atoms are in relation to each other.

lattice fcc 1.0 spacing 1 1 1
Lattice spacing in x,y,z = 1.5874011 1.5874011 1.5874011
region box block 0 10 0 10 0 10 units lattice
create_box 2 box
Created orthogonal box = (0.0000000 0.0000000 0.0000000) to (15.874011 15.874011 15.874011)
  3 by 4 by 4 MPI processor grid
create_atoms 1 box
Created 4000 atoms
  using lattice units in orthogonal box = (0.0000000 0.0000000 0.0000000) to (15.874011 15.874011 15.874011)
  create_atoms CPU = 0.016 seconds
set type 1 type/fraction 2 0.2 78393
Setting atom values ...
  836 settings made for type/fraction
mass 1 1.0
mass 2 1.0
pair_style lj/cut  3.5
pair_modify tail  yes
pair_coeff 1  1  1.0  1.0   # Intearaction between 1 and 1 set with epsilon = 1 and sigma = 1
pair_coeff 1  2  1.5  0.8
pair_coeff 2  2  0.5  0.88

write_data data.0
System init for write_data ...
Neighbor list info ...
  update every 1 steps, delay 10 steps, check yes
  max neighbors/atom: 2000, page size: 100000
  master list distance cutoff = 3.8
  ghost atom cutoff = 3.8
  binsize = 1.9, bins = 9 9 9
  1 neighbor lists, perpetual/occasional/extra = 1 0 0
  (1) pair lj/cut, perpetual
      attributes: half, newton on
      pair build: half/bin/atomonly/newton
      stencil: half/bin/3d
      bin: standard
WARNING: Not all mixed pair coeffs generated from mixing. Use write_data with 'pair ij' option to store all pair coeffs. (../write_data.cpp:312)


#############################
#   M E L T   S Y S T E M   #
#############################

velocity all create 2.4 1741580 mom yes dist gaussian # Assign velocities
                                                    # Temperature 2.4, random number seed, zero linear momentum
                                                                                # Gaussian distribution

timestep 0.002   # simulation timestep
thermo 1000       # output thermodynamic data every 1000 steps bf 100

# Define a fix  in this case with index 1 applied to all
# particles in the simulation. This fix is for simulations
# in the anisotropic NPT ensemble. Note that we use the MTK
# correction.
fix 1 all npt temp 2.4 2.4 0.1 iso 5.68 5.68 0.5 mtk yes tchain 5 pchain 5 # Use NPT ensemble
                                                                         # Set temperature and pressure and damping
                                                                         # Numbers of thermostats in chain and in barostat
run 10000          # run for 10000 steps
Per MPI rank memory allocation (min/avg/max) = 3.642 | 3.644 | 3.648 Mbytes
Step Temp E_pair E_mol TotEng Press Volume 
       0          2.4   -7.0365901            0   -3.4374901   -3.6176696         4000 
    1000    2.3622718   -4.8946675            0   -1.3521457    5.2451511    4487.7682 
    2000    2.3478744   -4.8305676            0   -1.3096364     5.712388    4463.5006 
    3000    2.4311838   -4.7541492            0   -1.1082853    5.7802812    4502.8739 
    4000    2.4662722   -4.8160841            0   -1.1176007    6.0723767    4451.0364 
    5000     2.406573   -4.7792893            0   -1.1703322    5.8793517     4474.082 
    6000    2.3983421   -4.8888395            0   -1.2922257    5.2497997    4476.9595 
    7000    2.3266699   -4.8540507            0   -1.3649184     5.418892    4476.4814 
    8000    2.4181133   -4.8744122            0    -1.248149    5.8545095    4430.7219 
    9000    2.4047729   -4.8382804            0   -1.2320228    5.2871545    4505.7788 
   10000    2.3975759   -4.8275746            0   -1.2321099    5.7784331    4461.0265 
Loop time of 2.3264 on 48 procs for 10000 steps with 4000 atoms

Performance: 742779.206 tau/day, 4298.491 timesteps/s
99.6% CPU use with 48 MPI tasks x no OpenMP threads

MPI task timing breakdown:
Section |  min time  |  avg time  |  max time  |%varavg| %total
---------------------------------------------------------------
Pair    | 0.98887    | 1.0467     | 1.1877     |   4.0 | 44.99
Neigh   | 0.19739    | 0.20626    | 0.23255    |   1.4 |  8.87
Comm    | 0.66734    | 0.81427    | 0.90121    |   5.8 | 35.00
Output  | 0.00025049 | 0.00025385 | 0.0003198  |   0.0 |  0.01
Modify  | 0.21424    | 0.24435    | 0.30603    |   4.7 | 10.50
Other   |            | 0.01454    |            |       |  0.63

Nlocal:        83.3333 ave          95 max          73 min
Histogram: 2 4 6 7 6 8 10 1 3 1
Nghost:        1523.46 ave        1560 max        1485 min
Histogram: 2 1 5 5 7 10 9 6 2 1
Neighs:        8547.21 ave        9664 max        7478 min
Histogram: 2 7 6 4 5 7 7 3 2 5

Total # of neighbors = 410266
Ave neighs/atom = 102.56650
Neighbor list builds = 911
Dangerous builds = 234

# Equilibrate just above the melting temperature to avoid step fn in T

fix 1 all npt temp 1.25 1.25 0.1 iso 5.68 5.68 0.5 mtk yes tchain 5 pchain 5
run 2000
Per MPI rank memory allocation (min/avg/max) = 3.642 | 3.645 | 3.649 Mbytes
Step Temp E_pair E_mol TotEng Press Volume 
   10000    2.3975759   -4.8275746            0   -1.2321099    5.7784331    4461.0265 
   11000    1.2484202   -6.5547797            0   -4.6826176    5.5438363    3650.2311 
   12000    1.2342124   -6.5407694            0   -4.6899137    5.5811026    3651.9765 
Loop time of 0.509516 on 48 procs for 2000 steps with 4000 atoms

Performance: 678291.034 tau/day, 3925.295 timesteps/s
99.6% CPU use with 48 MPI tasks x no OpenMP threads

MPI task timing breakdown:
Section |  min time  |  avg time  |  max time  |%varavg| %total
---------------------------------------------------------------
Pair    | 0.22546    | 0.24976    | 0.272      |   2.3 | 49.02
Neigh   | 0.032372   | 0.035111   | 0.037733   |   0.6 |  6.89
Comm    | 0.144      | 0.17079    | 0.1916     |   3.0 | 33.52
Output  | 6.9063e-05 | 7.128e-05  | 8.8423e-05 |   0.0 |  0.01
Modify  | 0.040749   | 0.049213   | 0.055898   |   1.9 |  9.66
Other   |            | 0.004572   |            |       |  0.90

Nlocal:        83.3333 ave          91 max          75 min
Histogram: 1 1 5 6 6 14 8 1 4 2
Nghost:        1747.15 ave        1782 max        1717 min
Histogram: 2 4 7 2 11 6 9 5 1 1
Neighs:        10491.2 ave       11734 max        9115 min
Histogram: 2 3 3 3 10 11 5 5 4 2

Total # of neighbors = 503577
Ave neighs/atom = 125.89425
Neighbor list builds = 144
Dangerous builds = 7

#############################
# L I N E A R  Q U E N C H  #
#############################

# Define solid atoms. This closely follows ten Wolde  Ruiz-Montero and Frenkel  Faraday Discuss  1996  104  93-110
# Compute components of the per-atom q6 vector
compute q6 all orientorder/atom degrees 1 6 components 6 nnn NULL cutoff 1.3 # compute the Q6 parameter.
                                                                             # Use all neighbours within 1.3 unit cell.

# get number of connections
compute coord_number all coord/atom orientorder q6 0.5

# An atom is solid if it has 8 or more connections (of a possible 14)
variable is_solid atom c_coord_number>=8
group solid dynamic all var is_solid    # Must be dynamic to update
dynamic group solid defined

# do clustering
compute cluster solid cluster/atom 1.3 # Create a cluster where all atoms within are solid and max 1.3 units from another member

# define chunks one chunk per cluster
compute clus_chunks solid chunk/atom c_cluster nchunk every compress yes  # Says which atoms are in which chunk

# count the size of each chunk
compute size_chunks solid property/chunk clus_chunks count


# Find the maximum entry in the vector of chunk sizes
variable max_n equal max(c_size_chunks)


# Thermo style which includes this variable
# thermo_style custom step temp pe vol v_max_n

thermo ${N}  # Print the thermo information every 100 steps
thermo 1000  

# Reset the npt fix at a lower temperature (below freezing)
fix 1  all npt temp  ${temp} ${temp}  0.1  iso  5.68  5.68  0.5  mtk yes tchain  5  pchain  5
fix 1  all npt temp  0.45 ${temp}  0.1  iso  5.68  5.68  0.5  mtk yes tchain  5  pchain  5
fix 1  all npt temp  0.45 0.45  0.1  iso  5.68  5.68  0.5  mtk yes tchain  5  pchain  5

dump dmp2 all dcd ${N} traj.dcd
dump dmp2 all dcd 1000 traj.dcd


compute msd all msd com yes
variable twopoint equal c_msd[4]/6/(step*dt+1.0e-6)
fix 9 all vector 10 c_msd[4]
variable fit equal slope(f_9)/6/(10*dt)
thermo_style custom step temp pe c_msd[4] v_twopoint v_fit v_max_n

fix 1 all npt temp 1.25 ${temp} 0.1 iso 5.68 5.68 0.5 mtk yes tchain 5 pchain 5
fix 1 all npt temp 1.25 0.45 0.1 iso 5.68 5.68 0.5 mtk yes tchain 5 pchain 5
run 500000 # 5000000  # Run for this many steps
Neighbor list info ...
  update every 1 steps, delay 10 steps, check yes
  max neighbors/atom: 2000, page size: 100000
  master list distance cutoff = 3.8
  ghost atom cutoff = 3.8
  binsize = 1.9, bins = 9 9 9
  4 neighbor lists, perpetual/occasional/extra = 1 3 0
  (1) pair lj/cut, perpetual
      attributes: half, newton on
      pair build: half/bin/atomonly/newton
      stencil: half/bin/3d
      bin: standard
  (2) compute orientorder/atom, occasional
      attributes: full, newton on
      pair build: full/bin/atomonly
      stencil: full/bin/3d
      bin: standard
  (3) compute coord/atom, occasional
      attributes: full, newton on
      pair build: full/bin/atomonly
      stencil: full/bin/3d
      bin: standard
  (4) compute cluster/atom, occasional
      attributes: full, newton on
      pair build: full/bin/atomonly
      stencil: full/bin/3d
      bin: standard
Per MPI rank memory allocation (min/avg/max) = 9.771 | 9.779 | 9.785 Mbytes
Step Temp PotEng c_msd[4] v_twopoint v_fit v_max_n 
   12000    1.2342124   -6.5407694 1.1128855e-30 7.7283714e-33 8.3333333e+20            2 
   13000      1.23941   -6.5888698   0.52066252 0.0033375801  0.042770069            3 
   14000    1.2709156   -6.5147658    1.0302557 0.0061324743  0.042712348            4 
   15000    1.2512344      -6.5868    1.5304811 0.0085026723  0.042465911            2 
   16000    1.2415941   -6.5701831    2.0353533  0.010600798  0.042106807            4 
   17000    1.2226743   -6.5728158    2.5408993  0.012455389  0.041989667            2 
   18000    1.2196206   -6.5986575    3.1136258  0.014414934  0.042324573            3 
   19000    1.2321796   -6.5904002    3.6362315  0.015948384     0.042885            1 
   20000    1.2362223   -6.5632622    4.1294023  0.017205843  0.042887968            3 
   21000    1.2261583   -6.5791535    4.6143444   0.01831089  0.042832515            2 
   22000    1.2645592   -6.6187616    5.1078124  0.019347774   0.04274602            1 
   23000    1.2519534   -6.5898295    5.7097003   0.02068732  0.042809173            2 
   24000    1.2050188   -6.6032669    6.2190165  0.021593807  0.042899055            1 
   25000    1.2099598   -6.5646581    6.7189064  0.022396354  0.042908279            1 
   26000    1.2182741   -6.6074993    7.2467197  0.023226665  0.042973452            2 
   27000    1.2185512   -6.5870094    7.8626134  0.024267325  0.043095808            2 
   28000    1.2196312   -6.6246241    8.3459672  0.024839188  0.043352818            4 
   29000    1.2433251   -6.6088121    8.7238648  0.025068576  0.043364191            2 
   30000    1.2193342   -6.6316126    9.2155958  0.025598877  0.043188815            2 
   31000    1.2168477    -6.603849    9.6928762  0.026056118  0.043006249            2 
   32000    1.1925367    -6.621649    10.213887  0.026598663  0.042845967            2 
   33000    1.2250541   -6.6152959    10.639352  0.026867051  0.042695267            1 
   34000    1.2032264   -6.6653173     11.02859  0.027030857  0.042504564            3 
   35000    1.2018984   -6.6360632    11.418657  0.027187277   0.04225412            3 
   36000    1.2154165    -6.615205    11.970604   0.02770973  0.041984772            2 
   37000    1.2414674    -6.598999    12.534184  0.028230144  0.041854914            1 
   38000    1.2067046   -6.6050171    13.080483   0.02868527  0.041778578            2 
   39000    1.2086522    -6.664097    13.554072  0.028961692  0.041737153            1 
   40000     1.198553   -6.6309312    13.965722  0.029095254  0.041703402            3 
   41000    1.2165378   -6.6711766    14.520331  0.029512868   0.04164456            1 
   42000    1.1896421   -6.6460443    15.000558  0.029763012  0.041581283            2 
   43000    1.1872587   -6.6959762    15.441787  0.029925944  0.041518891            3 
   44000    1.2089346   -6.6758163    15.829186  0.029979519  0.041438599            2 
   45000    1.2188909   -6.6595788    16.357903  0.030292412  0.041340588            1 
   46000     1.174054   -6.6884941    16.716376  0.030283289  0.041251448            2 
   47000    1.1983055   -6.6705087    17.114211  0.030344345  0.041133076            2 
   48000     1.189589   -6.6667868    17.568714  0.030501239   0.04100292            2 
   49000    1.2219771   -6.6640383    17.928908   0.03049134   0.04083599            1 
   50000    1.2003767    -6.695496    18.225377  0.030375628  0.040652829            2 
   51000    1.1961311   -6.6717044    18.632841  0.030445818  0.040457462            4 
   52000     1.175705   -6.6997445    19.140124  0.030673275  0.040267945            2 
   53000    1.1682711   -6.6909346     19.76257  0.031073223  0.040140883            2 
   54000    1.1849556   -6.6893504    20.260905  0.031266829  0.040058453            3 
   55000    1.1761149   -6.6752647    20.569177  0.031165419  0.039958233            2 
   56000    1.1702528   -6.7218432    21.082304  0.031372476  0.039864443            1 
   57000    1.1840877   -6.6816399    21.480304  0.031403954   0.03977012            2 
   58000    1.1876445   -6.7010702    21.893203  0.031455752  0.039663531            1 
   59000    1.1799127   -6.7359296    22.196617  0.031351154  0.039558134            1 
   60000    1.1758412   -6.7581923    22.588827  0.031373371  0.039437231            3 
   61000    1.1762227   -6.7006285    22.988664  0.031405278  0.039317912            2 
   62000    1.1623068   -6.7064658    23.314667  0.031336917   0.03918254            4 
   63000    1.1504761   -6.7124286    23.853032   0.03155163  0.039058206            1 
   64000    1.1564717   -6.7167537    24.224123  0.031541826  0.038938048            1 
   65000    1.1421413   -6.7525776    24.572561  0.031503283  0.038822748            1 
   66000    1.1387488    -6.748644    25.065922  0.031648892  0.038718864            2 
   67000    1.1615831   -6.7563826    25.361896  0.031544647  0.038613274            2 
   68000    1.1678002    -6.703144    26.059778  0.031936002  0.038516746            3 
   69000    1.1401807   -6.7324062    26.384975  0.031865912  0.038437289            3 
   70000    1.1355204   -6.7835777    26.851992  0.031966657  0.038369218            5 
   71000    1.1329049   -6.7470166    27.430024  0.032194863  0.038309943            2 
   72000    1.1498846   -6.7193306    27.792925  0.032167737  0.038252066            3 
   73000    1.1481961   -6.7580385    28.142656   0.03212632  0.038190164            1 
   74000    1.1591158   -6.7656953    28.529044  0.032127301  0.038116672            1 
   75000    1.1314159   -6.7889142     28.98808  0.032208977   0.03804935            4 
   76000    1.1392312   -6.7496453    29.456331  0.032298608  0.037990087            5 
   77000    1.1568929   -6.7966086    29.760655  0.032208501  0.037924264            4 
   78000    1.1469094   -6.7849946    30.023491  0.032076379  0.037847119            5 
   79000    1.1432271   -6.8304991    30.543289  0.032218659  0.037766918            1 
   80000    1.1399943    -6.784856    30.781152    0.0320637  0.037678136            3 
   81000    1.1465175   -6.7852011    31.132311  0.032029126   0.03758764            3 
   82000    1.1430025   -6.8017328    31.469496  0.031981195  0.037489811            2 
   83000    1.1393498   -6.8126383    31.708762  0.031836106  0.037388864            2 
   84000     1.129573   -6.7968718    32.238062  0.031982204   0.03729442            2 
   85000     1.149703    -6.779213    32.642462  0.032002414  0.037198888            1 
   86000    1.1540025   -6.7487121    33.142113  0.032114451  0.037119848            2 
   87000    1.1096769   -6.7977779    33.510713  0.032098384  0.037041671            1 
   88000    1.1481474   -6.7892718    33.915268  0.032116731    0.0369701            1 
   89000    1.1282243   -6.7795629     34.50175   0.03230501  0.036904146            1 
   90000    1.1203502   -6.8218202    34.814537  0.032235682  0.036838944            1 
   91000    1.0897821    -6.791721     35.09948  0.032142381  0.036771844            2 
   92000    1.1457497   -6.8315146    35.550961  0.032201958   0.03670262            3 
   93000    1.0940507   -6.8377651    35.974912  0.032235584  0.036640871            2 
   94000    1.1039626   -6.8516458    36.369984  0.032242894  0.036578971            5 
   95000    1.1010191   -6.8653406    36.796516  0.032277646  0.036517014            1 
   96000    1.1181373   -6.8725178    37.091748  0.032197698  0.036455836            1 
   97000    1.1245397   -6.8261007    37.371828  0.032106381  0.036397757            1 
   98000    1.1310054    -6.856336    37.646042   0.03201194  0.036330503            4 
   99000    1.0813444   -6.8279858    38.107537  0.032077052  0.036262652            1 
  100000    1.1055702     -6.80632    38.473832  0.032061526  0.036189547            2 
  101000    1.1079709   -6.8316025     38.60805  0.031854826   0.03610894            2 
  102000    1.0938863   -6.8283343    38.801245  0.031700364  0.036020089            2 
  103000    1.0652277   -6.8284401    39.029979  0.031577653  0.035925824            3 
  104000    1.0992565   -6.8504958     39.42045  0.031586899  0.035828932            2 
  105000    1.1021283   -6.8474675    40.079743  0.031809319    0.0357459            1 
  106000     1.105177   -6.8660292    40.309304  0.031689705  0.035662066            2 
  107000    1.0958248   -6.8503164    40.690129  0.031690131  0.035584877            3 
  108000    1.1012141   -6.8454403    41.045781  0.031671127  0.035501987       -1e+20 
  109000    1.0762968   -6.8976069    41.312723   0.03158465   0.03542598            2 
  110000    1.0863526   -6.8577841     41.66324   0.03156306  0.035349423            3 
  111000    1.1190042   -6.8424825    42.197512  0.031679814  0.035278619            3 
  112000    1.0781927   -6.9151958    42.357797  0.031516218  0.035203839            2 
  113000    1.1168616     -6.83566    42.861106  0.031608485  0.035128491            3 
  114000    1.0765527   -6.8506204    43.087157   0.03149646  0.035053567            1 
  115000    1.1178446    -6.903909     43.17127  0.031283529  0.034972647            2 
  116000    1.0634065   -6.9011963    43.520415  0.031264666  0.034886064            2 
  117000    1.0747125   -6.9199686    43.722585  0.031141442  0.034797394            4 
  118000    1.0739367   -6.8842576    44.075907  0.031127053   0.03470773            3 
  119000    1.0684761   -6.8858192    44.265934  0.030998553  0.034612744            4 
  120000    1.0674289   -6.9175506    44.435646  0.030858087  0.034517534            4 
  121000    1.0777444    -6.896377    44.841617  0.030882656   0.03442735            2 
  122000    1.0511214   -6.9042023    45.197571  0.030872658  0.034335459            2 
  123000    1.0693095   -6.9072425    45.749133  0.030995348  0.034248269            2 
  124000    1.0774311   -6.9521683    45.885932   0.03083732  0.034163164            3 
  125000    1.0852275   -6.9301736    46.444909  0.030963272  0.034082983            3 
  126000    1.0596444   -6.9468035    46.704049  0.030888921  0.034004926            1 
  127000    1.0515928   -6.9357378     47.04825  0.030871555  0.033928881            2 
  128000     1.060795   -6.9281229    47.075355  0.030648018  0.033849306            2 
  129000    1.0646381   -6.9239799    47.557935   0.03072218  0.033766263            3 
  130000    1.0581936   -6.9424099    47.596189  0.030510377  0.033683349            1 
  131000     1.087915    -6.949736    47.857181  0.030443499  0.033598239            2 
  132000    1.0714733   -6.9632431    48.417269  0.030566457  0.033515341            2 
  133000    1.0829557   -6.9525326    48.745818  0.030542492  0.033436426            2 
  134000    1.0638389   -6.9601242     48.94149   0.03043625  0.033356701            1 
  135000    1.0399855   -6.9630004    49.328445  0.030449657  0.033277458            4 
  136000    1.0296937   -6.9438054    49.761577  0.030491162  0.033202585            2 
  137000    1.0511614   -6.9662243    50.011112  0.030420384  0.033131416            3 
  138000    1.0549734   -6.9863711    50.227522  0.030330629  0.033060757            1 
  139000    1.0337878   -6.9785555    50.582666  0.030325339  0.032987224            1 
  140000    1.0534448   -6.9710803    51.022957  0.030370808  0.032914544            2 
  141000    1.0226848   -6.9509315    51.371539  0.030361429  0.032842743            2 
  142000    1.0561504   -6.9573892    51.470918  0.030205938  0.032772027            1 
  143000    1.0301515   -6.9811971     51.60802  0.030074603  0.032696466            1 
  144000    1.0256491   -6.9879307    51.924316  0.030048794  0.032618756            4 
  145000    1.0282301   -6.9669453    52.147088   0.02996959  0.032542587            2 
  146000     1.038505   -6.9704255    52.463105  0.029944694  0.032466551            2 
  147000    1.0300892   -6.9860971    52.631257  0.029836313  0.032390525            3 
  148000    1.0203966   -6.9735001    52.997481  0.029840924  0.032313899            4 
  149000    1.0464331   -7.0124302    53.114527  0.029706111  0.032237089            2 
  150000    1.0460595   -7.0009471    53.214292  0.029563495  0.032155678            5 
  151000    1.0378914   -6.9842167    53.712289  0.029642544  0.032073124            1 
  152000    1.0196207   -6.9610006    53.689072  0.029434798  0.031991805            5 
  153000    1.0369917   -6.9908119    53.832756  0.029320673   0.03190733            5 
  154000    1.0069599   -7.0038798    53.918423  0.029176636  0.031821628            3 
  155000     1.032546   -7.0172502    54.317548  0.029202982  0.031734569            3 
  156000    1.0023538    -7.004599    54.486739  0.029106164  0.031646916            2 
  157000    1.0274427   -7.0560149    54.487542    0.0289212  0.031556937            4 
  158000     1.040368   -7.0349698    54.846575  0.028927519  0.031467278            3 
  159000     1.026325   -7.0289302     55.07564  0.028865639  0.031377312            4 
  160000    1.0047602   -7.0395305    55.543807  0.028929066  0.031289419            2 
  161000     1.012905   -7.0428262    55.631376  0.028794708  0.031204083            3 
  162000    1.0065157   -7.0341498    56.063651  0.028839327  0.031122503            4 
  163000    1.0052896   -7.0370528    56.242461  0.028753814  0.031040171            1 
  164000    1.0034523   -7.0395776     56.18905  0.028551346  0.030955536            2 
  165000   0.98998348   -7.0584187    56.427286  0.028498629  0.030867812            5 
  166000    1.0256887   -7.0459378    56.849795  0.028539054  0.030781539            6 
  167000    0.9870806   -7.0348529    57.083051  0.028484556  0.030698228            3 
  168000    1.0026342   -7.0995496    57.223832  0.028384837  0.030615983            1 
  169000    1.0072727   -7.0649307    57.621574  0.028413005  0.030533165            1 
  170000    1.0059711   -7.0550486     57.81197  0.028339201  0.030451573            3 
  171000    1.0063217   -7.0723356    57.903072  0.028217871   0.03037102            2 
  172000   0.99420346   -7.0915167    58.051889  0.028125915   0.03028859            2 
  173000   0.98896168   -7.0746614     58.51799  0.028187856  0.030207304            1 
  174000    0.9956649   -7.0820285    58.661812  0.028094738  0.030126735            2 
  175000   0.99228115   -7.1283819    58.856996  0.028027141  0.030044993            2 
  176000   0.99699966   -7.1088297    58.915518  0.027895605  0.029962552            4 
  177000   0.98785967   -7.0770706    59.281313  0.027910223   0.02987999            1 
  178000   0.99645665   -7.0857468    59.499059  0.027855365  0.029797998            3 
  179000   0.97369368   -7.1242699    59.660137  0.027774738  0.029717248            1 
  180000   0.97322039   -7.0508945    60.172797  0.027857776  0.029639117            3 
  181000   0.97541023   -7.1001042     59.93879  0.027596128  0.029559316            3 
  182000   0.99104305   -7.0952964     60.31667  0.027617523  0.029479757            2 
  183000   0.97953722   -7.0864334    60.471248  0.027536998  0.029400331            2 
  184000   0.95698967   -7.1350841    60.497774  0.027399354  0.029316319            4 
  185000   0.97344865   -7.0945597    60.784104  0.027380227  0.029233505            3 
  186000   0.98773852   -7.1213987    61.108674  0.027378438  0.029152317            3 
  187000   0.97577673   -7.1372685    61.472608   0.02739421  0.029072864            1 
  188000   0.95449587   -7.1185792    61.609582  0.027309212  0.028994954            4 
  189000   0.94787475   -7.1340952    61.846943  0.027269375  0.028920049            1 
  190000   0.94386993   -7.1323956    62.299963  0.027324545  0.028845085            1 
  191000     0.968253   -7.1472921    62.422569  0.027234978   0.02877288            6 
  192000   0.98159709   -7.1583122    62.598833  0.027169632  0.028700702            2 
  193000    0.9763733   -7.1438553    62.912852  0.027164444  0.028628304            4 
  194000   0.96211124   -7.1314471    63.221582  0.027157037  0.028558865            6 
  195000   0.93927785   -7.1606736    63.453387  0.027116832  0.028489392            2 
  196000   0.96073198   -7.1510644    63.518166  0.027006023  0.028420055            2 
  197000   0.95088758   -7.1399324    63.459199  0.026843993  0.028349802            1 
  198000   0.97486321   -7.1486027    63.833498   0.02686595  0.028279255            3 
  199000   0.94652925   -7.1692896    63.989505  0.026796275  0.028209231            1 
  200000   0.93457128    -7.179352    64.113193  0.026713831  0.028137154            4 
  201000   0.93911326   -7.1650499    64.182641  0.026609719  0.028063795            2 
  202000   0.95145767   -7.1720291    64.447994  0.026587456  0.027989445            3 
  203000   0.90706323   -7.1551743    64.539182  0.026493917  0.027914718            3 
  204000   0.94341397   -7.1657364    64.679133  0.026421215  0.027841639            3 
  205000   0.95892427   -7.1929478     64.88112  0.026374439  0.027769507            6 
  206000    0.9779194   -7.1901652    65.067048  0.026321621   0.02769853            1 
  207000   0.94233318   -7.1662442    65.468079  0.026355909  0.027627851            2 
  208000   0.95684727    -7.209078    65.590753  0.026278346  0.027557179            8 
  209000   0.92114836   -7.2268179    65.755234  0.026218195  0.027486302            5 
  210000   0.92066732   -7.2130857    65.931797  0.026163411  0.027416604            5 
  211000   0.93354568   -7.2092506    65.860383   0.02601121  0.027345915            2 
  212000   0.94731633   -7.2252691     66.20307  0.026023219  0.027273605            2 
  213000    0.9325999   -7.2388169    66.334218  0.025952354  0.027203501            1 
  214000   0.90756748   -7.2149859    66.522725  0.025904488  0.027132824            4 
  215000   0.92348368   -7.2071902    66.595346  0.025812149  0.027060165            4 
  216000   0.93317197   -7.2103119    66.500567  0.025656083  0.026987362            4 
  217000   0.91949213    -7.235844    66.664082  0.025600646  0.026913621            4 
  218000   0.93055878   -7.2258432    66.920533  0.025581243  0.026839992            4 
  219000   0.91801632    -7.257787    67.135609  0.025546274  0.026767943            2 
  220000   0.91732117   -7.2090271    67.158373  0.025438778  0.026695549            2 
  221000   0.91948946   -7.2310141    67.196698  0.025338121  0.026620709            4 
  222000   0.90494621   -7.2336166    67.623461  0.025384182  0.026547371            2 
  223000   0.89387583   -7.2438431    67.668648  0.025287237  0.026474712            4 
  224000   0.92331757   -7.2627502    67.649296  0.025167149  0.026401637            4 
  225000   0.92052706   -7.2780255    68.124097  0.025231147  0.026329534            3 
  226000   0.91230672   -7.2702417    68.218086  0.025154162   0.02625855            5 
  227000   0.91061473   -7.2646547    68.542453  0.025162428   0.02618837            2 
  228000   0.92169879   -7.2943629    68.608816  0.025076322  0.026117901            6 
  229000   0.88695251   -7.2430518    68.905375  0.025074736   0.02604948            3 
  230000   0.92942202    -7.245721    68.942649   0.02497922  0.025980883            3 
  231000    0.8850377   -7.2584248    69.210297   0.02496764  0.025913269            3 
  232000    0.8975541   -7.2704263    69.382446  0.024921855  0.025845995            3 
  233000   0.89002201   -7.2375545    69.631176  0.024903854  0.025778945            3 
  234000   0.90665366   -7.2677908    69.401658   0.02471569  0.025711178            6 
  235000   0.90377357   -7.2584044    69.832823  0.024763412  0.025643186            4 
  236000   0.88928822   -7.3095499     69.84225  0.024661811   0.02557579            3 
  237000   0.88503081   -7.3098122    69.676746  0.024499559  0.025507105            3 
  238000   0.88469892   -7.3053392    69.762922  0.024426794  0.025436996            4 
  239000   0.89269721   -7.3142909    69.746197  0.024318758  0.025366671            2 
  240000   0.88299037   -7.2880459    70.259736  0.024395742  0.025296736            5 
  241000   0.87734878   -7.2759372    70.288331  0.024304402  0.025227967            3 
  242000   0.87158459   -7.3102702    70.297897  0.024207265  0.025158817            3 
  243000   0.87318386   -7.2953374    70.450835  0.024160094  0.025089168            4 
  244000   0.89508106   -7.3357937    70.553635  0.024096187  0.025019524            2 
  245000   0.87799827   -7.3266811    70.787944  0.024077532  0.024951517            3 
  246000   0.88373996   -7.3388462    70.778822  0.023976566  0.024883357            4 
  247000   0.89282442   -7.3385514    71.007617  0.023956686  0.024815723            6 
  248000   0.88260357   -7.3306805    71.133865  0.023902508  0.024747709            5 
  249000   0.85835373   -7.3198127    71.351886   0.02387948  0.024680504            4 
  250000   0.85038688   -7.3820561     71.29459  0.023764863  0.024613174            6 
  251000   0.86002426   -7.3349426    71.589507  0.023768097  0.024545882            4 
  252000   0.86503275   -7.3210355    71.834514    0.0237548  0.024479419            3 
  253000   0.86095884    -7.329745     71.92881  0.023691966  0.024414233            1 
  254000     0.863241   -7.3633917    72.029658  0.023631777  0.024349135            3 
  255000   0.86045019   -7.3816725    72.148068    0.0235778  0.024284977            7 
  256000    0.8518863   -7.3505013    72.469456  0.023590318  0.024220779            3 
  257000   0.87091129   -7.3608272    72.599859   0.02354081  0.024156265            3 
  258000   0.85766618   -7.3849984    72.820239  0.023520749  0.024092394            3 
  259000   0.85047859   -7.3767061    72.581675  0.023353177  0.024028589            3 
  260000    0.8438811     -7.39111    72.648706  0.023284842  0.023963565            6 
  261000    0.8578563   -7.3661254    72.714026  0.023216483  0.023898651            5 
  262000   0.83617293   -7.3947421     72.86867  0.023177058   0.02383314            2 
  263000   0.84014939   -7.4024865    73.250143  0.023209805  0.023768612            3 
  264000   0.85985384   -7.3962947    73.119402  0.023080619  0.023704565            5 
  265000   0.85137323   -7.3977855    73.260564  0.023037913   0.02364109            3 
  266000   0.83432846   -7.4334257    73.431019  0.023004705  0.023576776            7 
  267000   0.84497606   -7.3779258    73.666505  0.022992043   0.02351333            3 
  268000   0.83787702   -7.4201251    73.557464  0.022872346  0.023450512            3 
  269000   0.83259656   -7.4081321     73.73839  0.022843367  0.023386847            3 
  270000   0.85268517   -7.4126836    73.935903  0.022819723  0.023324017            6 
  271000   0.83880291   -7.4226959    73.864654  0.022713608  0.023260791            5 
  272000   0.84262644   -7.4157702    73.964719  0.022660759  0.023197548            3 
  273000   0.83779597    -7.418549    73.894595  0.022556348   0.02313345            3 
  274000   0.83982055   -7.4314697    73.769837  0.022436082  0.023067863            3 
  275000   0.82626763   -7.4230558    73.803835  0.022364798   0.02300206            2 
  276000     0.829407   -7.4186489    74.039469  0.022354912  0.022936751            5 
  277000   0.83328494   -7.4439201    74.146903  0.022306529  0.022872388            7 
  278000   0.84552371     -7.42376    74.131867  0.022221783  0.022807404            4 
  279000   0.81993999   -7.4545649    74.230786   0.02217168   0.02274248            4 
  280000   0.81342943   -7.4562486    74.534715  0.022182951  0.022677625            3 
  281000   0.81887607   -7.4341851     74.60834  0.022125842  0.022614052            2 
  282000   0.81671472   -7.4557573    74.476315  0.022008367  0.022549943            5 
  283000   0.81635639   -7.4752416    74.490402  0.021934747  0.022485795            3 
  284000    0.8075338   -7.4286488    74.803475  0.021949376  0.022422084            3 
  285000    0.7937058    -7.454089    74.725926  0.021849686   0.02235869            3 
  286000   0.81252195   -7.4578273    75.092119  0.021879988  0.022295442            3 
  287000    0.8168058   -7.4994167    74.845479  0.021732137  0.022232245            3 
  288000   0.80682961   -7.4756167    75.127864  0.021738386  0.022169151            4 
  289000   0.81512653   -7.4843827    75.312198   0.02171632  0.022106425            4 
  290000   0.79573354   -7.4712508     75.34206  0.021650017  0.022043526            1 
  291000   0.79925894   -7.5132053    75.197679  0.021534272  0.021980686           10 
  292000   0.80275293   -7.4953906    75.352973  0.021504844  0.021918197            4 
  293000   0.79925259   -7.5200106    75.503594  0.021474287  0.021856689            2 
  294000   0.79427608   -7.5193387    75.703756  0.021457981  0.021795198            3 
  295000   0.81345212   -7.5067531    75.719935  0.021389812  0.021733961            3 
  296000   0.77955377   -7.5149075     75.73345  0.021321354  0.021672602            5 
  297000     0.791956   -7.5311533    75.714351  0.021244206  0.021611015            2 
  298000   0.76423148   -7.5146004    75.743477  0.021181062  0.021548598            4 
  299000   0.79477333   -7.5338725    75.925432  0.021160934  0.021486492            3 
  300000   0.79206099   -7.4939153    76.027924  0.021118868  0.021424904            4 
  301000   0.79428949    -7.540031    75.825331  0.020992616   0.02136263            4 
  302000   0.77379714    -7.549016    75.827808  0.020923788  0.021299859            5 
  303000   0.80317605   -7.5382328    76.118957  0.020934807  0.021237863           10 
  304000   0.77655775   -7.5212063    76.305346  0.020917036  0.021176285            3 
  305000   0.77173163   -7.5322928    76.115497  0.020796584  0.021115447            4 
  306000   0.78659392   -7.5385012    76.152884  0.020738803  0.021054186            3 
  307000    0.7625856   -7.5373025    75.939214   0.02061325  0.020992951            5 
  308000   0.78925684   -7.5752341    76.127163  0.020597176  0.020931602            5 
  309000   0.75902362   -7.5603107    76.551043  0.020644834  0.020870634            9 
  310000   0.78039246   -7.5487008    76.551075  0.020578246  0.020810265            4 
  311000   0.77352528   -7.5736347    76.622425  0.020531196  0.020750085            5 
  312000   0.75390436   -7.5675811    76.722749  0.020492187   0.02069008            2 
  313000   0.76138854   -7.5669016    76.571072  0.020386334  0.020629875            3 
  314000   0.78390408   -7.5860778    76.443745  0.020287618  0.020569175            4 
  315000   0.75822429   -7.5775641    76.596342  0.020263582  0.020508527            4 
  316000   0.75698349   -7.5879655    76.731675  0.020235146  0.020447988            8 
  317000   0.75829219   -7.5805337    76.947453  0.020228037  0.020388098            6 
  318000   0.75586803   -7.6153339    76.961973  0.020168232  0.020328561            4 
  319000   0.75293821   -7.6317601    76.873902  0.020082002  0.020268558            5 
  320000   0.76475494   -7.5816594    77.081017  0.020073181  0.020209206            8 
  321000   0.74551583    -7.606347    76.955062   0.01997795  0.020149569            7 
  322000   0.74199608   -7.6049793    76.963317  0.019918043  0.020089693            5 
  323000   0.76270051   -7.6328119    76.920633  0.019845365   0.02003016            8 
  324000   0.75284066   -7.6296415    77.034426  0.019813381  0.019970737            5 
  325000    0.7325227   -7.6231453    76.972502  0.019736539  0.019911417            7 
  326000   0.73412931   -7.6296222    77.168317  0.019726052  0.019852223            7 
  327000   0.75215697   -7.6214334     77.19427  0.019672342  0.019793386            4 
  328000   0.74732024   -7.6213034     77.13036  0.019596128   0.01973452            4 
  329000   0.74437097   -7.6521619    77.195873  0.019553159  0.019675656            3 
  330000   0.74115627   -7.6343333    77.378726  0.019540082   0.01961751            6 
  331000   0.75817366   -7.5755409    77.346724  0.019472992  0.019559798            5 
  332000   0.73242615   -7.6489294    77.568401   0.01946998  0.019502257            4 
  333000   0.72787855   -7.6255078    77.574267   0.01941298  0.019444573            9 
  334000   0.73403951   -7.6156645    77.616332  0.019365352  0.019387289            5 
  335000   0.71929235   -7.6524561    77.434137  0.019262223   0.01933007            2 
  336000   0.72089044   -7.6487503    77.451002  0.019209078  0.019272242            6 
  337000   0.71797102    -7.649276    77.416443  0.019143532  0.019214401            8 
  338000   0.73166196   -7.6893918    77.730742  0.019164384    0.0191567            5 
  339000   0.72609059    -7.669445    77.568232  0.019067904  0.019099055            5 
  340000   0.73438549   -7.6835924    77.636439  0.019028539  0.019041766           10 
  341000   0.75264807   -7.6841173    77.745258   0.01899933  0.018984525            3 
  342000   0.71282379   -7.6777075    77.757757  0.018946822  0.018927658            4 
  343000   0.72193404   -7.6793935    77.871531  0.018919225  0.018871183            5 
  344000   0.71275478   -7.6773956    77.817413  0.018851117  0.018814655            5 
  345000    0.7170187   -7.7144285    77.903682  0.018817314  0.018758178            7 
  346000   0.71450118   -7.7125813    77.883091   0.01875797  0.018701932            7 
  347000   0.71777755   -7.6941364    78.153236  0.018768789  0.018645889            4 
  348000   0.71652796   -7.7165785    77.853996  0.018643198  0.018590143            5 
  349000   0.71374754    -7.717864    78.125582  0.018654628  0.018534329            6 
  350000    0.7135586   -7.7106032    77.862288   0.01853864  0.018478794            8 
  351000   0.71582998   -7.7068823    78.072183  0.018535656   0.01842299            3 
  352000   0.68971935   -7.7254413    77.927537  0.018448754  0.018367133            4 
  353000   0.71670624   -7.7274077    77.966095  0.018405594  0.018311385            6 
  354000   0.69911038   -7.7404103    77.835946  0.018322963  0.018255099            4 
  355000   0.70443542   -7.7409613    77.983691  0.018306031  0.018199431            5 
  356000   0.72232461   -7.7264422    78.101267  0.018282132  0.018144223            4 
  357000   0.69503309   -7.7475561    77.908143  0.018185841  0.018088702            5 
  358000   0.70402062   -7.7504193    78.120034  0.018184365  0.018033579            4 
  359000   0.69461204   -7.7564204    78.034478  0.018113853  0.017978614            6 
  360000   0.69961887   -7.7636812    78.056645  0.018068668  0.017923417            3 
  361000   0.71119461   -7.7547503    78.212768  0.018054656  0.017868627            5 
  362000   0.69047336   -7.7698229    78.079358  0.017974069  0.017813623            3 
  363000    0.6848131   -7.7605704    78.041022  0.017915754  0.017758511            5 
  364000   0.66439436   -7.7836131    78.076458  0.017874647  0.017703781            5 
  365000   0.68617484    -7.760092    77.956428  0.017798271  0.017649233            4 
  366000   0.68166238   -7.7612443    78.179005   0.01780032  0.017594819            8 
  367000   0.69399677   -7.7787959    78.208823  0.017758588  0.017540739            3 
  368000   0.67591999   -7.7936248    78.243541  0.017718193  0.017486837            6 
  369000   0.66992081   -7.7864364    78.220146  0.017664893  0.017433244            6 
  370000   0.66761299   -7.7692293    78.371812  0.017651309  0.017379901            4 
  371000   0.68464472   -7.7841675    78.303368  0.017588358  0.017326651            4 
  372000   0.66774149   -7.7831141    78.354692  0.017552574  0.017273572            6 
  373000   0.66396851   -7.7758782    78.381635  0.017511536  0.017220791            4 
  374000   0.67806392   -7.7883133     78.45917   0.01748199  0.017167954            4 
  375000   0.67383747   -7.7888214    78.330002  0.017406667  0.017115454            5 
  376000   0.66997414   -7.7890721    78.284192   0.01735022  0.017062825            7 
  377000   0.64546594   -7.8208226    78.341689  0.017316907  0.017010215            8 
  378000   0.67354494    -7.806974    78.498958  0.017305767  0.016957842           11 
  379000   0.66299244   -7.8291864    78.267051  0.017209114  0.016905532            4 
  380000   0.66033048   -7.8012826    78.486028  0.017211848  0.016853514            2 
  381000   0.65555965   -7.7991273    78.434588  0.017155422  0.016801648            4 
  382000   0.67663817   -7.8285029    78.319772  0.017085465  0.016749571            9 
  383000   0.64850345   -7.8071716    78.208719  0.017016693  0.016697472            4 
  384000   0.64949392   -7.8298776    78.256482  0.016982744  0.016645639            4 
  385000   0.65383303   -7.8345012    78.327393  0.016953981  0.016593613            7 
  386000   0.65086647   -7.8530875     78.27356  0.016898437  0.016541884            3 
  387000   0.65022856   -7.8248936    78.354824   0.01687227  0.016490207            5 
  388000   0.65902667   -7.8201735    78.399807  0.016838446  0.016438907            6 
  389000   0.63441177    -7.855146    78.346734   0.01678379  0.016387925            4 
  390000    0.6497353   -7.8497016    78.449642  0.016762744   0.01633699            4 
  391000   0.63079366   -7.8670296    78.412845   0.01671203  0.016286232            4 
  392000   0.65744426   -7.8579227    78.160639  0.016615782  0.016235308            4 
  393000   0.63695034   -7.8642412    78.457684  0.016636489  0.016184818            5 
  394000   0.62539316   -7.8810029    78.231141   0.01654635  0.016134165            7 
  395000   0.63075488   -7.8748044    78.390075  0.016537991  0.016083614            7 
  396000   0.64713199   -7.8896374    78.529732  0.016525617  0.016033442            5 
  397000   0.63105923   -7.8762095    78.511412  0.016480145  0.015983383            3 
  398000   0.62719457   -7.8922533    78.475771  0.016431275  0.015933505            4 
  399000   0.63258779   -7.8885555    78.589775  0.016413905  0.015883754            5 
  400000   0.62037149   -7.8827853    78.338626  0.016320547  0.015834007            4 
  401000   0.62796429   -7.8950225    78.361023  0.016284502  0.015784258            8 
  402000   0.61873386   -7.8883753    78.469682  0.016266518   0.01573493           10 
  403000   0.63021729   -7.8904316    78.494691  0.016231326  0.015685621            6 
  404000   0.62507406   -7.9121071    78.433157  0.016178456  0.015636772            6 
  405000   0.61521897   -7.8813002    78.524453  0.016157295  0.015587932            7 
  406000   0.61510926   -7.9069498    78.333613  0.016078328  0.015539203           14 
  407000    0.6119633   -7.9179816    78.424169  0.016057365  0.015490604            6 
  408000   0.61391859   -7.9060768    78.316383  0.015995993  0.015442124            7 
  409000   0.60802621   -7.9073151     78.30572  0.015954711  0.015393521            5 
  410000   0.60982406   -7.9173597    78.447039   0.01594452  0.015344916            8 
  411000   0.61242263   -7.8991135    78.328325  0.015881655  0.015296705            4 
  412000   0.61174897   -7.9129387     78.43624  0.015864935  0.015248627           12 
  413000     0.610392   -7.9185251    78.347802  0.015808677  0.015200704            6 
  414000   0.60152584   -7.9110818    78.345989  0.015770127  0.015152989            8 
  415000   0.60123953   -7.9348694    78.518108  0.015766688  0.015105361            4 
  416000   0.60248167   -7.9484486    78.287213  0.015682535  0.015057955           12 
  417000   0.60057066   -7.9291512    78.245289  0.015636549  0.015010546            6 
  418000   0.59631395   -7.9460242     78.31254  0.015612548  0.014963238            7 
  419000   0.59413348    -7.944227    78.309159  0.015574614   0.01491593            5 
  420000    0.5943289   -7.9506414    78.138816  0.015503733   0.01486888            6 
  421000   0.61886804   -7.9475854      78.4419    0.0155269  0.014822065            5 
  422000     0.599017   -7.9568643     78.35777  0.015473493  0.014775479            4 
  423000   0.60392507    -7.952249    78.307221  0.015426954  0.014729095            6 
  424000   0.58941752    -7.974685    78.324817  0.015394028  0.014682796            3 
  425000   0.58752596   -7.9621448      78.3183  0.015356529  0.014636592            4 
  426000   0.59113214   -7.9769805    78.203834   0.01529809  0.014590412            8 
  427000   0.59167288   -7.9647725    78.305303  0.015282065   0.01454443            7 
  428000   0.59777162   -7.9923724    78.357902  0.015256601  0.014498497            5 
  429000   0.58380606   -7.9882499    78.376424  0.015224635  0.014452875            5 
  430000   0.57975703   -7.9801916    78.169693  0.015149165  0.014407128            7 
  431000   0.57618743   -7.9806455    78.142008  0.015108664  0.014361528            4 
  432000   0.58395228   -7.9986493    78.170849  0.015079253  0.014316122            6 
  433000   0.58218487   -7.9991158     78.19023  0.015048158  0.014270819            6 
  434000   0.56446017   -7.9982941    78.249528  0.015024871  0.014225698           11 
  435000    0.5876114   -7.9840994    78.185887  0.014978139  0.014180849            6 
  436000    0.5778631   -8.0057662    78.228042  0.014951843  0.014136242            7 
  437000   0.57662422   -8.0305046      78.2201  0.014916114  0.014091571            8 
  438000   0.55800134     -7.99931    78.156523  0.014869962   0.01404706           13 
  439000   0.57699517   -8.0185399    78.154823  0.014835767  0.014002525           14 
  440000   0.56014485   -7.9762927    78.145779  0.014800337  0.013958282           10 
  441000   0.56922353   -8.0068288    78.122822  0.014762438  0.013914205            7 
  442000   0.54892256   -8.0282032    78.154865   0.01473508  0.013870119            7 
  443000   0.56157789   -8.0356384    78.083097  0.014688318  0.013826287           10 
  444000   0.55457222   -8.0488694    78.083025  0.014655222    0.0137825            7 
  445000   0.55867369   -8.0335121    78.021572  0.014610781  0.013738995            6 
  446000   0.56521282    -8.019382     77.93714  0.014562246  0.013695529            7 
  447000   0.56644316   -8.0284529    78.156406  0.014570545  0.013652213           14 
  448000   0.55183456   -8.0380695    78.147373  0.014536342  0.013609126            7 
  449000   0.54970947   -8.0298318    78.086144  0.014492603  0.013566115            5 
  450000   0.56790016   -8.0374203    77.974019  0.014439633  0.013523273            7 
  451000   0.54472762   -8.0627169    77.993581  0.014411231  0.013480496           12 
  452000   0.55650833   -8.0485263    78.177218  0.014413204  0.013437913            8 
  453000   0.53470603   -8.0586694    77.948742  0.014339357  0.013395486            9 
  454000   0.55437464   -8.0450817    78.169337  0.014348263  0.013353236            6 
  455000   0.53432082   -8.0599944    78.099806  0.014303994  0.013311315            4 
  456000   0.53645718    -8.052605    77.960705  0.014247205   0.01326921            5 
  457000   0.52891601   -8.0632087    77.987618  0.014220937  0.013227369           12 
  458000   0.53101412   -8.0590784    78.060515   0.01420315  0.013185537            9 
  459000   0.53450901   -8.0638061    77.910546  0.014144979  0.013143839            5 
  460000   0.52667516   -8.0630427    77.818905  0.014097628  0.013102176            7 
  461000   0.54233651   -8.0704879    78.029155  0.014105053  0.013060869            3 
  462000   0.54279314   -8.0591667    78.007921  0.014070693  0.013019639            7 
  463000   0.52505664   -8.0893711    77.880983  0.014017455   0.01297845            7 
  464000   0.51692077   -8.0675866    77.869065  0.013985105  0.012937451            5 
  465000   0.53356222   -8.0783233    77.778341  0.013938771  0.012896572            7 
  466000   0.53054397   -8.0824208    77.935898  0.013937035  0.012855844           10 
  467000   0.52060744   -8.0845222    77.930943  0.013906307  0.012815291           14 
  468000   0.52277763   -8.0787723    77.916855  0.013874084  0.012774871           12 
  469000   0.52270287   -8.0890944     77.74431  0.013813843  0.012734604            8 
  470000   0.52288894   -8.1049338    77.863906  0.013805657  0.012694369            7 
  471000   0.51813271    -8.123292    77.877239  0.013778705  0.012654366            8 
  472000    0.5142039   -8.1050512    77.830452  0.013741252   0.01261439            9 
  473000   0.51918494   -8.1024543    77.829751  0.013712077  0.012574619            9 
  474000   0.51815989   -8.1181363    77.858743  0.013688246  0.012534933           13 
  475000    0.5067376   -8.1182396    77.695438  0.013630779  0.012495489            6 
  476000   0.51145716   -8.1093564    77.701179  0.013603148  0.012456107            7 
  477000   0.49470748   -8.1330303    77.859227  0.013602241   0.01241687            9 
  478000   0.50271463   -8.1262969    77.819758  0.013566903  0.012377858            7 
  479000   0.50172571   -8.1047812    77.781891  0.013531992  0.012338973            7 
  480000   0.50562288   -8.1321231    77.671915  0.013484707  0.012300236            7 
  481000   0.50599188   -8.1214893    77.680748  0.013458203  0.012261531            8 
  482000   0.50706744   -8.1414819    77.713673  0.013435974  0.012222904           11 
  483000   0.49117624   -8.1383435    77.660582  0.013398996  0.012184408           14 
  484000   0.48961961   -8.1294595    77.748948  0.013386527  0.012146106            7 
  485000   0.48453875   -8.1428052    77.559646    0.0133264  0.012107988           10 
  486000   0.49559117   -8.1473609    77.649658  0.013314413   0.01206999           13 
  487000   0.49976608   -8.1389433    77.570249  0.013273485  0.012032089           10 
  488000   0.49151359   -8.1495339    77.616833  0.013254241  0.011994396            9 
  489000   0.48134127   -8.1563259    77.748356  0.013249549  0.011956897           11 
  490000   0.47756562   -8.1501886    77.639515  0.013203999  0.011919386            9 
  491000   0.48414301   -8.1753735    77.691645  0.013185955  0.011882196            9 
  492000   0.48994773   -8.1622548    77.588555  0.013141693  0.011845019            8 
  493000   0.47620819   -8.1735288    77.618665  0.013120126  0.011807993            6 
  494000   0.48806046   -8.1552483    77.530287  0.013078658  0.011771064            9 
  495000   0.46737116   -8.1617207    77.638797  0.013070505  0.011734346            9 
  496000   0.47664482   -8.1737416    77.675417  0.013050305  0.011697723           16 
  497000   0.46996714   -8.1739098    77.714349  0.013030575  0.011661287           11 
  498000   0.47715964   -8.1673446    77.614402  0.012987684  0.011625059            6 
  499000   0.47191993   -8.1771054    77.582083   0.01295626  0.011588919           11 
  500000   0.46656349   -8.1716228    77.619416  0.012936569  0.011553003           18 
  501000   0.47053988   -8.1709145    77.497873  0.012890531  0.011517145           10 
  502000   0.46248319    -8.189231    77.674821  0.012894227  0.011481485            8 
  503000   0.46459797   -8.1748717    77.742166  0.012879749  0.011445902            6 
  504000    0.4694071   -8.1906731    77.579913  0.012827367   0.01141052            7 
  505000   0.46001427    -8.178271    77.592553  0.012804052  0.011375188            7 
  506000    0.4516459   -8.1840999     77.54379  0.012770716  0.011339933           15 
  507000   0.46086141   -8.1982753    77.418244  0.012724892  0.011304792            9 
  508000   0.45567952   -8.1987851    77.493399  0.012712172  0.011269796            7 
  509000     0.447465   -8.1884069    77.542641  0.012695259  0.011234914            8 
  510000   0.44872787   -8.1954802    77.462168  0.012657217  0.011200192           18 
  511000   0.46296553   -8.2100463    77.521463  0.012642117  0.011165597           15 
  512000   0.45062705   -8.1982946    77.364389   0.01259186  0.011131142            9 
Loop time of 1141.85 on 48 procs for 500000 steps with 4000 atoms

Performance: 75666.824 tau/day, 437.887 timesteps/s
99.4% CPU use with 48 MPI tasks x no OpenMP threads

MPI task timing breakdown:
Section |  min time  |  avg time  |  max time  |%varavg| %total
---------------------------------------------------------------
Pair    | 70.613     | 75.292     | 80.497     |  23.1 |  6.59
Neigh   | 7.3518     | 7.6448     | 7.9752     |   5.7 |  0.67
Comm    | 66.151     | 73.026     | 79.199     |  30.6 |  6.40
Output  | 0.84774    | 0.84819    | 0.8579     |   0.2 |  0.07
Modify  | 970.27     | 973.79     | 977        |   5.4 | 85.28
Other   |            | 11.25      |            |       |  0.99

Nlocal:        83.3333 ave          91 max          78 min
Histogram: 5 4 3 13 4 10 5 2 1 1
Nghost:        1931.60 ave        1958 max        1898 min
Histogram: 2 3 1 4 7 9 8 5 4 5
Neighs:        12199.1 ave       13266 max       11093 min
Histogram: 6 5 3 4 2 9 4 4 6 5
FullNghs:      24398.4 ave       26916 max       22455 min
Histogram: 4 2 10 5 8 7 6 3 2 1

Total # of neighbors = 1171125
Ave neighs/atom = 292.78125
Neighbor list builds = 26850
Dangerous builds = 0

#clear
#
#next RN
#
#jump SELF
Total wall time: 0:19:04
