
units lj                  # Use reduced LJ style units
atom_style atomic         # Uncharged point particles
atom_modify map hash      # Needed for indexing of clusters etc
                          # Used to be able to find where atoms are in relation to each other.

lattice fcc 1.0 spacing 1 1 1
Lattice spacing in x,y,z = 1.5874011 1.5874011 1.5874011
region box block 0 10 0 10 0 10 units lattice
create_box 2 box
Created orthogonal box = (0.0000000 0.0000000 0.0000000) to (15.874011 15.874011 15.874011)
  3 by 4 by 4 MPI processor grid
create_atoms 1 box
Created 4000 atoms
  using lattice units in orthogonal box = (0.0000000 0.0000000 0.0000000) to (15.874011 15.874011 15.874011)
  create_atoms CPU = 0.027 seconds
set type 1 type/fraction 2 0.52 78393
Setting atom values ...
  2077 settings made for type/fraction
mass 1 1.0
mass 2 1.0
pair_style lj/cut  3.5
pair_modify tail  yes
pair_coeff 1  1  1.0  1.0   # Intearaction between 1 and 1 set with epsilon = 1 and sigma = 1
pair_coeff 1  2  1.5  0.8
pair_coeff 2  2  0.5  0.88

write_data data.0
System init for write_data ...
Neighbor list info ...
  update every 1 steps, delay 10 steps, check yes
  max neighbors/atom: 2000, page size: 100000
  master list distance cutoff = 3.8
  ghost atom cutoff = 3.8
  binsize = 1.9, bins = 9 9 9
  1 neighbor lists, perpetual/occasional/extra = 1 0 0
  (1) pair lj/cut, perpetual
      attributes: half, newton on
      pair build: half/bin/atomonly/newton
      stencil: half/bin/3d
      bin: standard
WARNING: Not all mixed pair coeffs generated from mixing. Use write_data with 'pair ij' option to store all pair coeffs. (../write_data.cpp:312)


#############################
#   M E L T   S Y S T E M   #
#############################

velocity all create 2.4 5300450 mom yes dist gaussian # Assign velocities
                                                    # Temperature 2.4, random number seed, zero linear momentum
                                                                                # Gaussian distribution

timestep 0.002   # simulation timestep
thermo 1000       # output thermodynamic data every 1000 steps bf 100

# Define a fix  in this case with index 1 applied to all
# particles in the simulation. This fix is for simulations
# in the anisotropic NPT ensemble. Note that we use the MTK
# correction.
fix 1 all npt temp 2.4 2.4 0.1 iso 5.68 5.68 0.5 mtk yes tchain 5 pchain 5 # Use NPT ensemble
                                                                         # Set temperature and pressure and damping
                                                                         # Numbers of thermostats in chain and in barostat
run 10000          # run for 10000 steps
Per MPI rank memory allocation (min/avg/max) = 3.642 | 3.644 | 3.648 Mbytes
Step Temp E_pair E_mol TotEng Press Volume 
       0          2.4   -5.1913276            0   -1.5922276   -4.1950394         4000 
    1000     2.429861   -4.7899869            0   -1.1461066    5.7876547    3687.1526 
    2000    2.4257021   -4.7574607            0   -1.1198172    5.6421589    3713.0503 
    3000    2.3770463   -4.8304645            0   -1.2657865    5.8097245    3658.2224 
    4000    2.4030524   -4.8830511            0   -1.2793736    5.4131551    3668.7582 
    5000    2.4136013   -4.8495579            0    -1.230061    5.9106029    3659.8085 
    6000    2.4351604   -4.8026652            0   -1.1508377    5.5992072    3697.2349 
    7000    2.3791503   -4.9179828            0   -1.3501495    5.6933617    3631.0358 
    8000    2.3718961   -4.9118355            0   -1.3548808    5.4192168     3656.131 
    9000    2.3556453   -4.8469381            0   -1.3143535    5.2598367    3689.9295 
   10000     2.368486    -4.843996            0   -1.2921552    5.3965054     3691.675 
Loop time of 2.61677 on 48 procs for 10000 steps with 4000 atoms

Performance: 660355.174 tau/day, 3821.500 timesteps/s
99.6% CPU use with 48 MPI tasks x no OpenMP threads

MPI task timing breakdown:
Section |  min time  |  avg time  |  max time  |%varavg| %total
---------------------------------------------------------------
Pair    | 1.1689     | 1.2489     | 1.3342     |   2.8 | 47.73
Neigh   | 0.21412    | 0.22255    | 0.24489    |   1.1 |  8.50
Comm    | 0.77477    | 0.87718    | 0.96183    |   4.3 | 33.52
Output  | 0.00024116 | 0.0002456  | 0.00031043 |   0.0 |  0.01
Modify  | 0.22934    | 0.25257    | 0.29732    |   3.5 |  9.65
Other   |            | 0.01535    |            |       |  0.59

Nlocal:        83.3333 ave          93 max          72 min
Histogram: 1 2 7 3 9 6 6 6 3 5
Nghost:        1731.15 ave        1760 max        1706 min
Histogram: 7 3 4 8 3 8 2 7 5 1
Neighs:        10343.8 ave       11687 max        8977 min
Histogram: 2 6 3 4 10 8 3 5 4 3

Total # of neighbors = 496500
Ave neighs/atom = 124.12500
Neighbor list builds = 906
Dangerous builds = 218

# Equilibrate just above the melting temperature to avoid step fn in T

fix 1 all npt temp 1.25 1.25 0.1 iso 5.68 5.68 0.5 mtk yes tchain 5 pchain 5
run 2000
Per MPI rank memory allocation (min/avg/max) = 3.644 | 3.646 | 3.649 Mbytes
Step Temp E_pair E_mol TotEng Press Volume 
   10000     2.368486    -4.843996            0   -1.2921552    5.3965054     3691.675 
   11000    1.2472479   -6.9462698            0   -5.0758656     5.839022    2851.0708 
   12000    1.2440955   -7.0444738            0   -5.1787971    5.6254461    2828.7831 
Loop time of 0.646885 on 48 procs for 2000 steps with 4000 atoms

Performance: 534252.205 tau/day, 3091.737 timesteps/s
99.6% CPU use with 48 MPI tasks x no OpenMP threads

MPI task timing breakdown:
Section |  min time  |  avg time  |  max time  |%varavg| %total
---------------------------------------------------------------
Pair    | 0.29534    | 0.31572    | 0.36322    |   2.3 | 48.81
Neigh   | 0.040638   | 0.043146   | 0.04958    |   0.7 |  6.67
Comm    | 0.18769    | 0.23956    | 0.26703    |   3.0 | 37.03
Output  | 5.0535e-05 | 5.2159e-05 | 6.7591e-05 |   0.0 |  0.01
Modify  | 0.03839    | 0.04362    | 0.048086   |   1.5 |  6.74
Other   |            | 0.004789   |            |       |  0.74

Nlocal:        83.3333 ave          92 max          75 min
Histogram: 2 0 5 5 13 13 4 3 2 1
Nghost:        2076.81 ave        2096 max        2059 min
Histogram: 3 8 6 2 5 6 4 8 4 2
Neighs:        13502.4 ave       15714 max       12423 min
Histogram: 7 5 14 7 4 6 2 2 0 1

Total # of neighbors = 648114
Ave neighs/atom = 162.02850
Neighbor list builds = 143
Dangerous builds = 12

#############################
# L I N E A R  Q U E N C H  #
#############################

# Define solid atoms. This closely follows ten Wolde  Ruiz-Montero and Frenkel  Faraday Discuss  1996  104  93-110
# Compute components of the per-atom q6 vector
compute q6 all orientorder/atom degrees 1 6 components 6 nnn NULL cutoff 1.3 # compute the Q6 parameter.
                                                                             # Use all neighbours within 1.3 unit cell.

# get number of connections
compute coord_number all coord/atom orientorder q6 0.5

# An atom is solid if it has 8 or more connections (of a possible 14)
variable is_solid atom c_coord_number>=8
group solid dynamic all var is_solid    # Must be dynamic to update
dynamic group solid defined

# do clustering
compute cluster solid cluster/atom 1.3 # Create a cluster where all atoms within are solid and max 1.3 units from another member

# define chunks one chunk per cluster
compute clus_chunks solid chunk/atom c_cluster nchunk every compress yes  # Says which atoms are in which chunk

# count the size of each chunk
compute size_chunks solid property/chunk clus_chunks count


# Find the maximum entry in the vector of chunk sizes
variable max_n equal max(c_size_chunks)


# Thermo style which includes this variable
# thermo_style custom step temp pe vol v_max_n

thermo ${N}  # Print the thermo information every 100 steps
thermo 1000  

# Reset the npt fix at a lower temperature (below freezing)
fix 1  all npt temp  ${temp} ${temp}  0.1  iso  5.68  5.68  0.5  mtk yes tchain  5  pchain  5
fix 1  all npt temp  0.45 ${temp}  0.1  iso  5.68  5.68  0.5  mtk yes tchain  5  pchain  5
fix 1  all npt temp  0.45 0.45  0.1  iso  5.68  5.68  0.5  mtk yes tchain  5  pchain  5

dump dmp2 all dcd ${N} traj.dcd
dump dmp2 all dcd 1000 traj.dcd


compute msd all msd com yes
variable twopoint equal c_msd[4]/6/(step*dt+1.0e-6)
fix 9 all vector 10 c_msd[4]
variable fit equal slope(f_9)/6/(10*dt)
thermo_style custom step temp pe c_msd[4] v_twopoint v_fit v_max_n

fix 1 all npt temp 1.25 ${temp} 0.1 iso 5.68 5.68 0.5 mtk yes tchain 5 pchain 5
fix 1 all npt temp 1.25 0.45 0.1 iso 5.68 5.68 0.5 mtk yes tchain 5 pchain 5
run 500000 # 5000000  # Run for this many steps
Neighbor list info ...
  update every 1 steps, delay 10 steps, check yes
  max neighbors/atom: 2000, page size: 100000
  master list distance cutoff = 3.8
  ghost atom cutoff = 3.8
  binsize = 1.9, bins = 8 8 8
  4 neighbor lists, perpetual/occasional/extra = 1 3 0
  (1) pair lj/cut, perpetual
      attributes: half, newton on
      pair build: half/bin/atomonly/newton
      stencil: half/bin/3d
      bin: standard
  (2) compute orientorder/atom, occasional
      attributes: full, newton on
      pair build: full/bin/atomonly
      stencil: full/bin/3d
      bin: standard
  (3) compute coord/atom, occasional
      attributes: full, newton on
      pair build: full/bin/atomonly
      stencil: full/bin/3d
      bin: standard
  (4) compute cluster/atom, occasional
      attributes: full, newton on
      pair build: full/bin/atomonly
      stencil: full/bin/3d
      bin: standard
Per MPI rank memory allocation (min/avg/max) = 9.841 | 9.847 | 9.851 Mbytes
Step Temp PotEng c_msd[4] v_twopoint v_fit v_max_n 
   12000    1.2440955   -7.0444738 7.5493989e-31 5.2426379e-33 8.3333333e+20            3 
   13000    1.2430682   -7.0450874   0.46416068 0.0029753889  0.037818353            2 
   14000    1.2468958   -7.0551961   0.86276589  0.005135511  0.034778033            1 
   15000    1.2238183   -7.0207594    1.2416119 0.0068978436  0.033609199            3 
   16000    1.2634658   -7.0611823    1.6612402 0.0086522923  0.033357192            2 
   17000    1.2404366   -7.0985576    2.0086482 0.0098463143  0.033196789            1 
   18000    1.2420035   -7.1153394    2.3586367  0.010919614  0.032558015            2 
   19000    1.2369547   -7.0786686    2.7304583  0.011975694  0.031996015            1 
   20000    1.2612107   -7.1132252    3.0845047  0.012852103  0.031633894            2 
   21000    1.2347021    -7.126907    3.4489752  0.013686409   0.03133614            1 
   22000    1.2442218   -7.1062981    3.8403792  0.014546891   0.03114583            1 
   23000    1.2464729   -7.0721818    4.2006264  0.015219661  0.031126292            2 
   24000    1.2407668   -7.1258412    4.6646134  0.016196574  0.031234305            2 
   25000    1.2350943   -7.1020398    5.0242867  0.016747622  0.031382282            3 
   26000    1.2265451   -7.1088914    5.3732741  0.017222032  0.031422706            3 
   27000    1.2424399   -7.0760076    5.7541876  0.017759838  0.031440657            3 
   28000    1.2343168   -7.1111443    6.0454389  0.017992377  0.031353312            3 
   29000      1.22738   -7.0876186    6.4723593  0.018598733  0.031275276            2 
   30000    1.2530854   -7.1561186    6.8270544   0.01896404    0.0312358            2 
   31000    1.2152545   -7.1219965    7.1722337  0.019280198  0.031193123            2 
   32000    1.2388158   -7.1401794    7.5505462   0.01966288  0.031113497            2 
   33000    1.2242892   -7.0954342    7.9664452  0.020117286  0.031093593            4 
   34000    1.2038177   -7.1448414    8.4304947  0.020662977  0.031177229            1 
   35000    1.2121389   -7.1742468    8.9125002  0.021220238    0.0313155            5 
   36000    1.2132806      -7.1492    9.2554883  0.021424741  0.031419658            2 
   37000    1.2205118   -7.1466864    9.6150699  0.021655563  0.031515283            3 
   38000    1.2069257   -7.1542624    9.9059447  0.021723563  0.031559317            1 
   39000    1.2192162   -7.1677885    10.248374  0.021898235  0.031529114            2 
   40000    1.2166483   -7.2027363     10.58945  0.022061354  0.031491289            3 
   41000    1.2216296   -7.1973014    10.890414  0.022134988  0.031429741            2 
   42000    1.2033823    -7.221197    11.159195  0.022141259  0.031332417            2 
   43000    1.2116086   -7.2257772    11.478965  0.022246056  0.031228731            1 
   44000    1.2012842   -7.1836438    11.757115  0.022267264  0.031089027            2 
   45000    1.2070484    -7.181873    12.016305  0.022252416  0.030919066            2 
   46000    1.1912924   -7.2260443    12.307705  0.022296567  0.030733682            2 
   47000    1.2083472   -7.2221869    12.543482  0.022240217  0.030543278            2 
   48000    1.1929549   -7.2181247    12.832222  0.022278163  0.030345191            4 
   49000    1.1706583   -7.2414822    13.167687  0.022394026  0.030168255            1 
   50000    1.1914353   -7.2392259    13.566932  0.022611553  0.030021132            2 
   51000    1.1904009   -7.2148765    13.869143  0.022661998  0.029892648            2 
   52000    1.1831581   -7.2289846    14.136813  0.022655148  0.029758704            8 
   53000    1.1944336    -7.274288    14.382494  0.022613984  0.029609934            3 
   54000     1.186942   -7.2381863    14.660649  0.022624458  0.029449473            2 
   55000     1.191905   -7.2571119     15.01786  0.022754333  0.029297425            4 
   56000     1.199261   -7.2804335    15.274915  0.022730528  0.029156718            3 
   57000    1.1682402    -7.294647    15.459174  0.022601131  0.029013498            1 
   58000    1.1603846   -7.2540808     15.89377  0.022835877    0.0288748            1 
   59000     1.188393   -7.2438668    16.219351  0.022908688  0.028758098            5 
   60000    1.1701341    -7.269949    16.586156  0.023036327  0.028672549            4 
   61000    1.1696658   -7.2147681    16.964672  0.023175781  0.028588817            2 
   62000    1.1757901   -7.2477159    17.189975  0.023104805  0.028501747            2 
   63000    1.1542621   -7.2546293    17.537405  0.023197625  0.028414167            3 
   64000    1.1548606   -7.2848292    17.814148  0.023195504  0.028331858            4 
   65000    1.1438806   -7.2591235    18.164402  0.023287694  0.028258851            1 
   66000     1.157648   -7.3470127    18.424893  0.023263754  0.028185614            3 
   67000    1.1349109    -7.303903    18.829658  0.023419973  0.028118446            1 
   68000    1.1658103   -7.3340745    19.076614  0.023378203  0.028058576            3 
   69000    1.1587649   -7.2852688    19.446772  0.023486439  0.027996878            1 
   70000    1.1434187   -7.2927838    19.662078  0.023407235  0.027938788            4 
   71000     1.176889   -7.3164757    19.937086  0.023400336  0.027867147            4 
   72000    1.1476814    -7.327753    20.187491  0.023365151  0.027792229            3 
   73000    1.1613802    -7.341528    20.486324  0.023386214  0.027726835            2 
   74000    1.1411657    -7.334115    20.797212  0.023420284  0.027663448            3 
   75000     1.125462   -7.3026461    21.080314  0.023422571   0.02759143            3 
   76000    1.1434122   -7.3352221    21.389278  0.023453156  0.027531621            2 
   77000    1.1230027   -7.3628132    21.584841  0.023360217  0.027468113            3 
   78000    1.1355516   -7.3594452    21.861312  0.023356103  0.027400123            3 
   79000    1.1300015   -7.3400759    22.087723  0.023299285  0.027325448            4 
   80000    1.1455769   -7.3444494     22.45596  0.023391624  0.027257383            1 
   81000    1.1515641   -7.3428841    22.788945  0.023445417  0.027188317            1 
   82000    1.1306645   -7.3517584    23.024538   0.02339892  0.027119536            1 
   83000    1.1400317   -7.3168267    23.263264  0.023356691  0.027049372            2 
   84000    1.1253294   -7.3749332    23.440726  0.023254688  0.026975925            2 
   85000    1.1015237   -7.3731257    23.795406   0.02332883  0.026906443            1 
   86000    1.1156173   -7.3650611    24.042363  0.023296863  0.026835059            4 
   87000    1.1514261   -7.3530636    24.402609  0.023374146  0.026767189            4 
   88000     1.131919   -7.3475223     24.51697  0.023216828  0.026696904            3 
   89000    1.0985344   -7.3400918    24.872119  0.023288501  0.026619314            3 
   90000    1.1443474   -7.3440836    25.131209  0.023269638  0.026549829            3 
   91000    1.1196157   -7.3515602      25.3245  0.023190934  0.026485631            2 
   92000    1.1337333   -7.3931262    25.553672  0.023146442  0.026416366            3 
   93000    1.1458847   -7.3941686    25.762584  0.023084752  0.026345701            8 
   94000    1.1053843   -7.3996924    26.057006  0.023100182  0.026273514            3 
   95000     1.134326   -7.3855137    26.243465  0.023020584  0.026198565            1 
   96000    1.0888042   -7.4242714    26.440376  0.022951715  0.026121419            3 
   97000     1.111816   -7.4045216     26.62331  0.022872259  0.026044957            3 
   98000    1.1378449   -7.4086035    26.983786  0.022945396   0.02597104            3 
   99000    1.1553273   -7.4417282     27.14703  0.022851035  0.025900005            4 
  100000    1.1019784   -7.4054958     27.50567  0.022921391  0.025831541            3 
  101000    1.1269242   -7.4147497    27.606039  0.022777259  0.025755961            3 
  102000    1.0959166   -7.4294408    27.817165  0.022726442  0.025680151            2 
  103000    1.0988914   -7.4201414    28.153795  0.022778151   0.02560556            2 
  104000    1.0964245   -7.4187762    28.506672  0.022841885  0.025536648            1 
  105000    1.0972919   -7.4677207    28.763677  0.022828315  0.025473361            2 
  106000    1.0922737    -7.470809    28.892334  0.022714099   0.02540845            4 
  107000    1.1011491   -7.4858283    29.229149  0.022764135   0.02534427            2 
  108000    1.0982535   -7.4510101    29.421409  0.022701705  0.025281412            1 
  109000    1.1175736   -7.4295576    29.771718  0.022761252  0.025217386            1 
  110000    1.0770519   -7.4832191      29.7633  0.022547954  0.025152047            1 
  111000    1.0692723   -7.4866683      30.0324  0.022546847  0.025083164            3 
  112000    1.0930339   -7.4786175     30.24902  0.022506711  0.025014437            1 
  113000    1.0700885   -7.4800695    30.377182  0.022402051  0.024942648            2 
  114000    1.0836271   -7.4621785    30.694955  0.022437832  0.024870642            4 
  115000    1.0788235   -7.5044592    30.738891  0.022274559  0.024798546            3 
  116000    1.0695442   -7.4444154    30.904461   0.02220148  0.024723696            3 
  117000    1.0812068    -7.498089    31.169533  0.022200522  0.024648486            2 
  118000    1.0883312   -7.4848347    31.415795  0.022186296  0.024571681            2 
  119000    1.0588296   -7.4673194     31.69325  0.022194153  0.024497872            4 
  120000     1.059101   -7.5161697    31.809121  0.022089667  0.024427558            4 
  121000    1.0771868   -7.5444265    32.037112  0.022064126  0.024355045            4 
  122000    1.0697724    -7.543702    32.287707  0.022054444  0.024287079            2 
  123000    1.0890463   -7.5199742    32.507219  0.022023861  0.024219255            2 
  124000    1.0719899   -7.5555167    32.588893  0.021901137  0.024151416            3 
  125000    1.0829195   -7.5481327     32.89071   0.02192714   0.02408397            2 
  126000    1.0482037   -7.5650529    32.973224  0.021807688  0.024017222            4 
  127000    1.0290714   -7.4884696    33.392998  0.021911416  0.023948396            4 
  128000    1.0667942   -7.5583493    33.578469  0.021860982  0.023883313            6 
  129000    1.0779776   -7.5842212    33.630131  0.021724891  0.023818823            3 
  130000    1.0492058   -7.5348515    33.892502  0.021725963  0.023753034            3 
  131000    1.0342943   -7.5505871    34.024097  0.021643827   0.02368689            2 
  132000    1.0452207   -7.5504208    34.158026   0.02156441  0.023615787            3 
  133000    1.0707511   -7.5617478    34.346536  0.021520386  0.023545694            2 
  134000    1.0724642   -7.5591434    34.448203  0.021423011  0.023475609            4 
  135000    1.0830183    -7.580782    34.625862  0.021373989  0.023403277            6 
  136000    1.0526427   -7.5895858    34.877481  0.021371005  0.023331204            2 
  137000    1.0477116   -7.5788158    34.979797  0.021277249  0.023259461           10 
  138000    1.0497132   -7.5836883    35.015403  0.021144567  0.023184235            5 
  139000    1.0459884   -7.5992621    35.064105  0.021021645  0.023105778            5 
  140000    1.0625791   -7.6691385    35.254601  0.020984881  0.023026911            3 
  141000     1.056815   -7.6240818    35.402729  0.020923599  0.022948225            6 
  142000    1.0428419   -7.6360213    35.488008  0.020826296   0.02286931            6 
  143000    1.0439312   -7.6028887    35.839721  0.020885618  0.022791841            4 
  144000    1.0277207   -7.6432137    35.948595  0.020803585  0.022714804            2 
  145000    1.0500063   -7.6723023     35.98111  0.020678799  0.022634703            5 
  146000    1.0342457   -7.6059387    36.197761  0.020660823  0.022555351            5 
  147000    1.0295364   -7.5820588    36.433296  0.020653796  0.022476559            6 
  148000    1.0629484   -7.6214731    36.419099   0.02050625  0.022397636            4 
  149000      1.03915   -7.6757917    36.511512  0.020420309  0.022319771            2 
  150000    1.0226396   -7.6538161    36.821984  0.020456657   0.02224041            2 
  151000    1.0169252   -7.6342241    36.948483  0.020390995   0.02216243            7 
  152000    1.0280782   -7.6801749    36.983461   0.02027602  0.022084619            2 
  153000    1.0383172    -7.663134    37.206409  0.020264929  0.022006625            2 
  154000    1.0024078   -7.6329857    37.534463  0.020310856  0.021932897            5 
  155000    1.0528714   -7.6415189    37.752852  0.020297232   0.02185909            6 
  156000     1.008806   -7.7020912    37.835931  0.020211501  0.021785532            5 
  157000    1.0171106   -7.7054393    38.043162  0.020192761  0.021714354            8 
  158000     1.021544   -7.7257314    38.129684  0.020110593   0.02164456            4 
  159000    1.0193369   -7.6970818    38.409744  0.020130893  0.021575528            6 
  160000      1.03642   -7.6638863    38.586469  0.020097119   0.02150868            3 
  161000    1.0252476   -7.7020244    38.737801  0.020050621  0.021441657            3 
  162000   0.98988023   -7.6532453    38.694834   0.01990475  0.021373163            6 
  163000    1.0041809   -7.6602883    38.962667  0.019919564  0.021304046            3 
  164000   0.99274683    -7.709561    39.009355  0.019821827  0.021234924            4 
  165000    1.0053122   -7.7163556    39.120693  0.019757926  0.021165368            8 
  166000    1.0055074   -7.7380651    39.238575   0.01969808  0.021096847            3 
  167000    1.0197795   -7.7195357    39.646651  0.019783758  0.021031176            5 
  168000    1.0261655    -7.765655    39.616743  0.019651162  0.020964959            3 
  169000    1.0107741   -7.7282257    39.752779  0.019601962  0.020897788            5 
  170000   0.99062357   -7.7738348     39.87002  0.019544127  0.020831518            5 
  171000    1.0050165   -7.7216709    40.199211  0.019590259  0.020764915            3 
  172000   0.97984897   -7.7436977    40.205461   0.01947939  0.020699386            4 
  173000    1.0036618   -7.7126514    40.391524  0.019456418  0.020632823            2 
  174000   0.98093781   -7.7463943    40.487748  0.019390684  0.020567685            4 
  175000     1.000978    -7.771442    40.557823  0.019313249   0.02050241            9 
  176000   0.96890646   -7.7605337    40.818072  0.019326738  0.020438005            2 
  177000   0.99252277   -7.7399558    40.969414  0.019288801  0.020373449            3 
  178000   0.98072703   -7.8050344    40.870191  0.019133984  0.020308833            4 
  179000   0.98692634   -7.8120169     40.97952  0.019077989  0.020243817            5 
  180000    0.9683646   -7.8210747    41.261902  0.019102732  0.020178721            2 
  181000   0.97530056   -7.8231131    41.334384  0.019030563  0.020114652            4 
  182000   0.97136408   -7.8241237    41.247767   0.01888634  0.020049697           12 
  183000    1.0123722    -7.827157    41.447626  0.018874147  0.019984168            7 
  184000   0.98459554   -7.7874387    41.687624  0.018880264  0.019920938            3 
  185000   0.95643785   -7.8039281    41.770491  0.018815536  0.019857305            5 
  186000    0.9717705   -7.7722623    41.960187  0.018799367  0.019794027            5 
  187000   0.95059754   -7.8094018    42.073983  0.018749547  0.019730708            5 
  188000   0.97676763   -7.8234304    42.063528  0.018645181  0.019668476            4 
  189000   0.95770562   -7.8404983    42.226706  0.018618477  0.019604796            6 
  190000   0.96269023   -7.8200291    42.353959  0.018576298  0.019541046            4 
  191000   0.97036504   -7.8637326    42.448497  0.018520287   0.01947721            3 
  192000   0.93552864   -7.8293774    42.815751  0.018583225  0.019414505            3 
  193000   0.94590877   -7.8302614    42.807787    0.0184835  0.019352126            5 
  194000   0.92521714   -7.8013865      42.7024  0.018342955  0.019289689            6 
  195000   0.95585146   -7.8844593    42.896182  0.018331702  0.019227743            6 
  196000   0.94827356   -7.8464601    43.001178  0.018282814  0.019164745            3 
  197000   0.94887919   -7.8639437    43.229027   0.01828639  0.019103226            7 
  198000   0.95314486   -7.8540572    43.299048  0.018223505  0.019043543            4 
  199000    0.9323677   -7.9063623    43.414538  0.018180292  0.018983357            5 
  200000    0.9392222   -7.8933765    43.524935  0.018135389  0.018923604            4 
  201000   0.97049866   -7.8840593    43.616337  0.018083058  0.018864006            7 
  202000   0.96286605   -7.8651077    43.869778  0.018098093  0.018805217            2 
  203000   0.94078462   -7.8640557    43.809777  0.017984309  0.018746432            4 
  204000     0.931848    -7.898516    43.934764  0.017947208  0.018688055            2 
  205000   0.94246678   -7.9193957    44.015715  0.017892567  0.018628905            4 
  206000   0.94462977   -7.8631779    44.304182  0.017922404  0.018570796            2 
  207000   0.91511773   -7.8903347    44.442277  0.017891416  0.018514003            4 
  208000   0.94263608    -7.880752    44.637724  0.017883703  0.018457652            6 
  209000   0.92732346   -7.8774164    44.501743  0.017743917  0.018401169            4 
  210000   0.92857169   -7.8763494    44.728019  0.017749214   0.01834514            4 
  211000   0.95966999   -7.9063781    44.742114  0.017670661   0.01828849            3 
  212000   0.94316947   -7.9078012    44.862529  0.017634642  0.018231754           11 
  213000   0.92182927     -7.92937    44.955325  0.017588155  0.018175383           16 
  214000   0.94498631   -7.9291897     45.17727  0.017592395  0.018120182           11 
  215000    0.9231168   -7.9187053    45.029919  0.017453457  0.018064781            6 
  216000   0.93717937   -7.9068732    45.253326  0.017458845  0.018008654            4 
  217000   0.92108306   -7.9633384    45.260838  0.017381274  0.017952802            4 
  218000   0.91946139   -7.9551305    45.244906  0.017295453  0.017896735            7 
  219000   0.92419086   -7.9609873    45.369168  0.017263763  0.017840015           11 
  220000   0.91738262   -7.9649637    45.491408  0.017231594  0.017783183            4 
  221000    0.9310973   -7.9412497    45.434611  0.017132206  0.017725569            7 
  222000   0.91353567   -7.9702494    45.586651  0.017112106  0.017668012            7 
  223000   0.92794371   -7.9506336    45.748732  0.017095939  0.017611258            4 
  224000   0.92021066   -7.9659057    45.780189   0.01703132  0.017554839            5 
  225000    0.9102729   -7.9740684    45.752672  0.016945434  0.017498163            5 
  226000   0.90524499   -8.0428102    45.725184  0.016860319  0.017440798            4 
  227000   0.90661483   -8.0007368    46.028402  0.016897358  0.017383931            8 
  228000    0.9013234   -8.0196534    46.006425  0.016815214   0.01732825            5 
  229000   0.89931499   -7.9913207    46.177217  0.016803936  0.017272048            4 
  230000   0.89132319   -8.0209393    46.102698  0.016703876  0.017215427           12 
  231000   0.89882941    -8.031193    46.237764   0.01668029  0.017158693            5 
  232000   0.89411704   -8.0305904    46.114473  0.016564107  0.017101627            4 
  233000   0.88430866   -8.0438903    46.119486  0.016494809  0.017044492            4 
  234000   0.89806783   -8.0579361    46.306105  0.016490778  0.016987126            4 
  235000   0.88256521   -8.0234199     46.31872  0.016425078  0.016931087            6 
  236000   0.87075806   -8.0335128    46.415468  0.016389643  0.016873953            6 
  237000   0.90264987   -8.0376338    46.571511  0.016375355  0.016817098            6 
  238000    0.8693327   -8.0412827    46.642451   0.01633139  0.016761441            2 
  239000   0.90304266   -8.0658299    46.660073  0.016269203  0.016705893            4 
  240000   0.88280246   -8.0231954    46.934807  0.016296808  0.016651167            5 
  241000   0.89259663    -8.061492    46.895764  0.016215686  0.016597182            3 
  242000   0.88001846   -8.0184911    46.893896  0.016148036  0.016542491            4 
  243000   0.87926824   -8.0716455    46.966304  0.016106414  0.016487419            6 
  244000   0.88242311    -8.065799    47.190658  0.016117028  0.016432546            8 
  245000   0.86423093   -8.0731885    47.184577  0.016049176  0.016378348            6 
  246000   0.87206928   -8.1000749    47.088363  0.015951342  0.016323726            8 
  247000   0.87501752   -8.0946657    47.316364  0.015963685  0.016269508            3 
  248000   0.86986415   -8.0905426    47.140989  0.015840386  0.016214979           14 
  249000   0.86359894   -8.0555193    47.317958  0.015835997  0.016160433           13 
  250000   0.87847007   -8.0837925    47.218413  0.015739471  0.016106405            9 
  251000   0.86718811    -8.083776    47.436868  0.015749292   0.01605222            8 
  252000   0.85415811   -8.1007584    47.366472  0.015663516  0.015997631           12 
  253000   0.87243472     -8.12933    47.225491  0.015555168  0.015942073            5 
  254000   0.85297937   -8.1544011     47.48441  0.015578875  0.015886519            9 
  255000   0.86018753   -8.1360512    47.437212  0.015502357  0.015831931           16 
  256000   0.85355289   -8.1252156    47.544691  0.015476787   0.01577777           10 
  257000   0.85679273   -8.1168852    47.508503  0.015404832  0.015723103            8 
  258000   0.84064183   -8.1108527     47.51037  0.015345727  0.015668775           13 
  259000   0.87272286   -8.1131282    47.696246  0.015346283  0.015614003            7 
  260000   0.84573977    -8.097125    47.742201  0.015301988   0.01555958           10 
  261000   0.83358603   -8.1416029      47.6986  0.015229438  0.015505117            9 
  262000   0.84127028   -8.1660796    47.538331  0.015120334  0.015449276            9 
  263000    0.8438553   -8.1720476    47.539172  0.015063109   0.01539387           19 
  264000   0.84394198   -8.1454794    47.622848  0.015032465  0.015338346            9 
  265000   0.85681503   -8.1791108    47.518784  0.014943014  0.015283004            5 
  266000   0.82643201    -8.175422    47.667185  0.014933329  0.015227824            8 
  267000   0.83841007   -8.1861926    47.538748  0.014837312  0.015172337           11 
  268000   0.84092401   -8.1944871    47.720158  0.014838358  0.015117168            9 
  269000   0.84076297   -8.2074745    47.692172  0.014774526  0.015062349            4 
  270000   0.83305636   -8.1853278    47.769555   0.01474369  0.015007072            7 
  271000   0.83365179   -8.2259961    47.581634  0.014631499  0.014951818            3 
  272000    0.8362258   -8.2341725    47.512595  0.014556555  0.014895866           11 
  273000    0.8507493   -8.2468388    47.680808  0.014554581  0.014840469           14 
  274000   0.84489166   -8.2478635    47.519097   0.01445228  0.014785376            6 
  275000   0.83770453   -8.2422166    47.719019  0.014460309  0.014730273           18 
  276000   0.82628509   -8.2559742    47.714489  0.014406548  0.014675491           19 
  277000   0.82424119   -8.2635549    47.692167  0.014347824  0.014620519           25 
  278000   0.82447268   -8.2585672    47.728324  0.014307051  0.014565686           24 
  279000   0.82028838   -8.2670961    47.812248  0.014280839  0.014511341           14 
  280000   0.82951283   -8.2542249    47.893853  0.014254123  0.014456997           23 
  281000   0.82884547    -8.292516    47.938105   0.01421652  0.014403277            7 
  282000   0.79742129   -8.2467511    47.890382  0.014152004  0.014349466           17 
  283000     0.794912    -8.251978    47.994233  0.014132577  0.014295694           12 
  284000   0.80667301   -8.2425606     47.93122  0.014064325   0.01424177            9 
  285000   0.81249182   -8.3037236    47.948623  0.014020065  0.014188333           20 
  286000   0.82044355   -8.2905648    47.923746  0.013963795  0.014134567           11 
  287000   0.78714558   -8.3186517    47.903961  0.013909396  0.014080913           10 
  288000   0.81250163   -8.2751637    47.892577  0.013857806  0.014027172           10 
  289000   0.82555403    -8.317185    47.897395  0.013811244  0.013973923           26 
  290000   0.80197347   -8.2975106    48.070438  0.013813344  0.013920636            5 
  291000   0.79804381    -8.294854    48.005062  0.013747154   0.01386792            6 
  292000   0.81101003    -8.302335    47.985623  0.013694527  0.013815195            9 
  293000   0.79470358   -8.3344918    48.015898  0.013656399  0.013762815           13 
  294000   0.79439597   -8.2934928    48.050595  0.013619783  0.013710612           12 
  295000   0.79502015   -8.3064482     48.13188  0.013596576  0.013658805           14 
  296000   0.79516547   -8.3268883    48.189713  0.013566924  0.013607487           13 
  297000   0.80887072   -8.3451698    48.157717  0.013512266  0.013556582           18 
  298000   0.79443008   -8.3286078    48.244308  0.013491138  0.013505907           22 
  299000   0.78009933   -8.2958594    48.390991  0.013486898  0.013455484           21 
  300000   0.80007987   -8.3397054    48.268651  0.013407959  0.013404622           21 
  301000   0.77184433   -8.3435351    48.191128  0.013341951  0.013354166           26 
  302000   0.78058565    -8.355368    48.265518    0.0133183  0.013303834           36 
  303000   0.79080189   -8.3280823    48.366214  0.013302039   0.01325372           22 
  304000   0.78817713   -8.3582106    48.355232  0.013255272  0.013203767           18 
  305000   0.80511808   -8.3717061    48.320515  0.013202326  0.013154296           17 
  306000   0.77875624   -8.3680923    48.317464  0.013158351  0.013104803           29 
  307000   0.77556935   -8.3853425    48.313673  0.013114461  0.013055423           15 
  308000   0.78638799   -8.3634885    48.442665  0.013106782   0.01300633           23 
  309000   0.78604951   -8.3914625    48.221386  0.013004689  0.012957291           26 
  310000   0.77978301   -8.3746156    48.303962  0.012984936  0.012908106           37 
  311000   0.75971148    -8.397436    48.352681  0.012956238  0.012859162           23 
  312000   0.76377377   -8.3852256     48.42244  0.012933344  0.012810735           35 
  313000   0.78039692   -8.3805141    48.429909  0.012894012  0.012762362           30 
  314000   0.77443916   -8.4008687    48.494661  0.012870133  0.012714402           37 
  315000   0.75627248   -8.4291785    48.455256  0.012818851  0.012666485           28 
  316000   0.77393951   -8.4423934     48.45739  0.012778848  0.012618843           38 
  317000   0.77266572   -8.3971954    48.546167  0.012761874  0.012571485           38 
  318000   0.76636653   -8.4278343    48.460148    0.0126992  0.012524231           17 
  319000   0.76480719   -8.3865989    48.519997  0.012675025  0.012477061           53 
  320000   0.76465665    -8.432417    48.439319  0.012614406  0.012430132           50 
  321000   0.74739955   -8.4351419    48.503513  0.012591774  0.012383194           62 
  322000   0.74658052   -8.4668247    48.507742  0.012553763  0.012336464           55 
  323000   0.76637103   -8.4305103    48.513154  0.012516294  0.012289887           42 
  324000    0.7514639   -8.4344323    48.506394  0.012475924  0.012243573           52 
  325000   0.73406249   -8.4230783    48.542819  0.012446877  0.012197229           43 
  326000   0.74912591   -8.4572107    48.437822  0.012381856  0.012151075           41 
  327000   0.73972162   -8.4822527    48.500332  0.012359922  0.012105099           69 
  328000   0.73937119   -8.4720912    48.634649  0.012356364  0.012059423           83 
  329000   0.74691454   -8.4986871    48.533724  0.012293243  0.012013827           65 
  330000   0.73737761   -8.4906842    48.561175  0.012262923  0.011968513           76 
  331000    0.7401398   -8.4982841    48.677414   0.01225514  0.011923437           66 
  332000   0.74194224   -8.5186539    48.450187  0.012161192   0.01187819           97 
  333000   0.74302754   -8.4900616    48.614516  0.012165795  0.011833312          106 
  334000   0.73154993   -8.5304896    48.582328  0.012121339  0.011788648           92 
  335000   0.74097738   -8.5293474    48.577104  0.012083857  0.011744199           80 
  336000   0.74511931   -8.5192963    48.529667  0.012036128  0.011699842           80 
  337000   0.73990137   -8.5383312    48.590238   0.01201539  0.011655885          124 
  338000   0.73655388   -8.5417211     48.49781  0.011957054  0.011611871          140 
  339000   0.72667983   -8.5514251     48.44415  0.011908591  0.011567963          175 
  340000   0.73849249   -8.5444387    48.578845   0.01190658  0.011524107          121 
  341000   0.71972687   -8.5206314     48.62048  0.011881838  0.011480549          125 
  342000   0.71339838   -8.5651706    48.517342  0.011821965  0.011437019          132 
  343000   0.72518703   -8.5901027    48.616124  0.011811498  0.011393718          164 
  344000   0.72249517   -8.5394514    48.605559  0.011774602  0.011350826          114 
  345000   0.71908518   -8.5627249    48.625827  0.011745369   0.01130793          114 
  346000   0.70605115   -8.5726431    48.514471  0.011684603  0.011264988          146 
  347000   0.71266762     -8.57389    48.533436  0.011655484  0.011222206          115 
  348000   0.71296232   -8.5783501    48.489101  0.011611375  0.011179403          155 
  349000   0.69714122   -8.5764553    48.532637    0.0115885  0.011136831          167 
  350000   0.70643683   -8.6203342    48.510916  0.011550218  0.011094387          108 
  351000   0.69603547   -8.6099699    48.467359   0.01150697  0.011052157          130 
  352000   0.70658958   -8.6285826    48.454688   0.01147128  0.011010215          141 
  353000    0.7003323   -8.6041229    48.434955  0.011434125  0.010968227          131 
  354000   0.68898728   -8.6067198    48.517392  0.011421232   0.01092645          157 
  355000   0.71145539   -8.6091139    48.510845  0.011387522  0.010884998          132 
  356000   0.68955436   -8.6157828    48.497646  0.011352445   0.01084356          143 
  357000   0.69954824   -8.6226441    48.548145  0.011332433  0.010802305          156 
  358000   0.70772267   -8.6097307     48.53954  0.011298776  0.010761188          155 
  359000   0.68482526   -8.6348451    48.451146  0.011246784  0.010720241          141 
  360000    0.6959686   -8.6295551    48.528877  0.011233536  0.010679394          165 
  361000   0.67626749   -8.6412537    48.577418  0.011213624  0.010638806          134 
  362000   0.68408031   -8.6135634    48.505045  0.011165986  0.010598347          154 
  363000    0.6996422   -8.6376332    48.490008  0.011131774  0.010558178          136 
  364000    0.6917157   -8.6259154    48.585505  0.011123055  0.010518287          131 
  365000    0.6972058   -8.6402773    48.611633  0.011098546  0.010478556          146 
  366000   0.70098242   -8.6448597    48.609555  0.011067749  0.010439018          184 
  367000   0.68192608   -8.6596274    48.479977  0.011008169  0.010399579          151 
  368000   0.67735716   -8.6727451    48.438933  0.010968961  0.010360176          145 
  369000   0.68253183   -8.6884204    48.587471   0.01097278  0.010321017          139 
  370000   0.67743429   -8.6691915    48.511254  0.010925958  0.010281978          171 
  371000   0.66918999    -8.684774    48.469454  0.010887119  0.010242901          188 
  372000    0.6790512    -8.706374    48.465057  0.010856867  0.010204033          185 
  373000   0.66476276    -8.692941    48.557674  0.010848453   0.01016525          179 
  374000   0.68074419   -8.6744838    48.392557  0.010782655  0.010126678          213 
  375000    0.6697311   -8.6667785    48.364643  0.010747698  0.010088303          177 
  376000   0.67687305    -8.688879    48.490515  0.010747011  0.010050048          188 
  377000   0.65729705   -8.7039093    48.387621  0.010695761  0.010011937          187 
  378000    0.6719304   -8.7100907    48.335875  0.010656057 0.0099739772          198 
  379000   0.66028674   -8.6776566    48.459656  0.010655157  0.009936211          211 
  380000    0.6604644   -8.6916776    48.404681  0.010615062 0.0098986682          202 
  381000    0.6689546   -8.7271186    48.500252  0.010608104 0.0098613016          198 
  382000   0.65835073   -8.7164728      48.4538  0.010570201   0.00982412          218 
  383000   0.65162695   -8.7508769     48.26542  0.010501614 0.0097871309          216 
  384000    0.6585175    -8.709429    48.477801  0.010520356 0.0097501505          206 
  385000   0.65225683   -8.7265278    48.385722    0.0104731 0.0097134602          227 
  386000   0.65501934   -8.7651941    48.377567  0.010444207 0.0096767937          229 
  387000   0.65477873   -8.7227169    48.389234  0.010419732 0.0096402682          215 
  388000   0.65553813   -8.7125119    48.376864   0.01039022 0.0096039677          189 
  389000   0.63749814   -8.7278095    48.406936  0.010369952 0.0095678963          211 
  390000   0.64955544   -8.7304401    48.383843  0.010338428  0.009531904          257 
  391000   0.64166774   -8.7391998    48.322215  0.010298852 0.0094960428          224 
  392000    0.6393639   -8.7636733    48.287027  0.010265099 0.0094602885          239 
  393000   0.62554047   -8.7453719    48.450591  0.010273662 0.0094248162          234 
  394000   0.63111277   -8.7424671    48.376466  0.010231909 0.0093894965          170 
  395000   0.64207854   -8.7452402    48.487997  0.010229535 0.0093544603          237 
  396000   0.64587298      -8.7542    48.438418   0.01019327 0.0093194972          237 
  397000   0.63244787   -8.7755112     48.41786  0.010163279 0.0092846813          268 
  398000   0.64642891    -8.766732    48.371838  0.010128107 0.0092500243          248 
  399000   0.61770818   -8.7805426    48.361085  0.010100477 0.0092154897          247 
  400000   0.62091112    -8.758925    48.295167  0.010061493 0.0091811133          237 
  401000   0.63110442   -8.7740925    48.343487  0.010046444 0.0091467585          234 
  402000   0.62256465   -8.7749227    48.414017  0.010036073 0.0091125963          243 
  403000   0.62389636   -8.7744699    48.404173  0.010009134 0.0090786483          210 
  404000   0.62468496   -8.7620782    48.473088 0.0099985742 0.0090448733          203 
  405000   0.61457651   -8.7718856    48.365798 0.0099518102  0.009011258          237 
  406000   0.62485193   -8.7714864    48.350899 0.0099242403 0.0089777534          236 
  407000   0.59589181    -8.771045    48.400567  0.009910026 0.0089444359          231 
  408000   0.60527356   -8.7726198    48.384554 0.0098824661 0.0089112028          236 
  409000   0.61797162   -8.7803792    48.342164 0.0098496666 0.0088782193          250 
  410000   0.61124716   -8.7917426    48.435217 0.0098445562 0.0088453614          245 
  411000   0.61501097   -8.7944617    48.327801 0.0097988242 0.0088125594          300 
  412000   0.60994927   -8.8145157    48.352508  0.009780038  0.008780023          264 
  413000   0.61252099   -8.8049026    48.349275 0.0097557051 0.0087475973          220 
  414000   0.62369549   -8.8080503    48.313659 0.0097249715 0.0087152788          184 
  415000   0.60284076   -8.8126625    48.224168 0.0096835679 0.0086830711          272 
  416000   0.59431078   -8.8015504    48.321397  0.009679767  0.008651047          350 
  417000   0.59399005   -8.8215378    48.165832  0.009625466 0.0086192067          330 
  418000   0.59758131   -8.8033876    48.183676 0.0096059959  0.008587322          242 
  419000   0.59675627   -8.8242913    48.224935 0.0095912757 0.0085556489          285 
  420000   0.59705813   -8.8098237    48.207461 0.0095649724 0.0085240593          296 
  421000   0.60437644   -8.8378504    48.241001 0.0095488917 0.0084926953          191 
  422000   0.58031277   -8.8449448    48.276602 0.0095332943 0.0084614204          275 
  423000   0.59845593   -8.8233264    48.329059 0.0095210911 0.0084303715          216 
  424000   0.59284449   -8.8394236    48.238103 0.0094807592 0.0083994511          237 
  425000       0.5819   -8.8358967    48.127487 0.0094367622 0.0083686452          184 
  426000   0.58919088   -8.8490334    48.320106   0.00945229 0.0083379429          286 
  427000   0.57402114   -8.8414342    48.203631  0.009407422 0.0083073804          210 
  428000   0.57486094   -8.8424685    48.210645 0.0093868078 0.0082770056          312 
  429000   0.58573102   -8.8318939    48.233166 0.0093693019 0.0082467582          292 
  430000   0.58278136   -8.8572979    48.243029 0.0093494242  0.008216607          318 
  431000   0.58520096   -8.8559684    48.197519 0.0093189326 0.0081865543          218 
  432000   0.56198843   -8.8666222    48.304619 0.0093180206 0.0081567292          266 
  433000   0.57692826   -8.8546215    48.205516 0.0092774281 0.0081269554          304 
  434000   0.56675076    -8.857486    48.180054 0.0092511624 0.0080973331          306 
  435000   0.57233115   -8.8556663     48.18709 0.0092312432 0.0080678394          231 
  436000    0.5806175   -8.8751505    48.086764 0.0091908952 0.0080384033          276 
  437000   0.56805745    -8.864525    48.152329 0.0091823662 0.0080091339          244 
  438000   0.56862029   -8.8745981    48.180876 0.0091668333 0.0079799581          220 
  439000   0.56878519   -8.8878183    48.110125 0.0091325219 0.0079509202          270 
  440000   0.57099003   -8.8965646    48.088607 0.0091076906 0.0079220163          267 
  441000    0.5749834   -8.8999306    48.074764 0.0090844226  0.007893248          330 
  442000   0.55356956   -8.8945995    48.148544 0.0090777797  0.007864554          239 
  443000   0.54572912   -8.8820847    48.108552 0.0090497652 0.0078360111          294 
  444000   0.56236177   -8.8804067    48.168483 0.0090406313 0.0078075972          213 
  445000   0.56346693   -8.8872514    48.078125 0.0090033942 0.0077793772          293 
  446000   0.55285202   -8.9149143    48.055925 0.0089790591 0.0077512087          300 
  447000   0.53242342   -8.9177692    48.080163 0.0089634906 0.0077231444          340 
  448000   0.54772933   -8.8971496    48.141232 0.0089548422 0.0076952556          287 
  449000   0.53748612   -8.9163864    48.070764 0.0089218195 0.0076674425          233 
  450000   0.55772742   -8.8889372     48.01965 0.0088925277 0.0076398955          279 
  451000   0.55379893   -8.9102477    48.097007  0.008887104 0.0076123969          265 
  452000   0.52367245   -8.9236718    47.985149 0.0088468196 0.0075849647          266 
  453000   0.54659583   -8.9326606    48.071586  0.008843191 0.0075577389          278 
  454000   0.54418061   -8.9073654    48.071644 0.0088237231 0.0075305206          314 
  455000   0.53819995   -8.9244538    48.032966 0.0087972464 0.0075035309          319 
  456000   0.52962833   -8.9169839    48.128745 0.0087954577 0.0074766591          307 
  457000   0.54158642   -8.9274477    48.045061  0.008760952 0.0074499044          228 
  458000   0.52910507   -8.9435259    48.016588 0.0087366426 0.0074232682          293 
  459000   0.53183715   -8.9448349    48.118083 0.0087360355 0.0073967866          304 
  460000   0.53099137   -8.9417328    47.977667 0.0086916064 0.0073703732          282 
  461000   0.53571932   -8.9383572    47.978093 0.0086728296 0.0073440567          229 
  462000   0.52775557   -8.9410654    47.988017 0.0086558473 0.0073178925          275 
  463000   0.53267436   -8.9425105    47.939386 0.0086283993 0.0072917426          281 
  464000   0.51819238   -8.9619008    47.904146 0.0086034745  0.007265764          280 
  465000   0.51652314   -8.9433806    48.014748 0.0086047935 0.0072398736          268 
  466000   0.53163652   -8.9394995    47.979585 0.0085800401 0.0072141471          321 
  467000   0.52035056   -8.9490502    47.919402 0.0085509283 0.0071885247          276 
  468000     0.526592   -8.9623278    47.910032 0.0085309885 0.0071629894          394 
  469000   0.51523398   -8.9552825      47.9697 0.0085234009 0.0071375757          233 
  470000    0.5340453   -8.9501839    47.954033 0.0085024881  0.007112305          280 
  471000   0.51287097   -8.9535101     47.93279 0.0084806777 0.0070871404          257 
  472000   0.52061165   -8.9723106    47.960537  0.008467609 0.0070620634          263 
  473000   0.50476565   -8.9648952    48.046662 0.0084648805 0.0070371236          216 
  474000   0.50094433   -8.9829406    47.912094 0.0084233639 0.0070123196          258 
  475000   0.50579071   -8.9720174    47.890729 0.0084018822 0.0069875528          271 
  476000   0.50740053   -8.9832811     47.88667 0.0083835206 0.0069628982          222 
  477000   0.50449468   -8.9739232    47.828331 0.0083557532 0.0069383341          302 
  478000   0.50380033   -8.9830866    47.851447 0.0083423024  0.006913922          318 
  479000   0.50531165   -8.9819193    47.875246 0.0083290268 0.0068895751          283 
  480000   0.49488558   -8.9861394    47.946268 0.0083240048 0.0068653738          275 
  481000   0.49911712   -8.9945153    47.859701 0.0082917016  0.006841277          287 
  482000   0.50020555    -8.993748    47.871391 0.0082765199 0.0068172522          293 
  483000   0.49983213   -8.9865117    47.929478 0.0082694061 0.0067934123          283 
  484000    0.4957151    -9.014806    47.843875 0.0082375818 0.0067696518          276 
  485000    0.4895354   -8.9961145    47.840615  0.008220037  0.006745966          219 
  486000   0.48769992   -9.0064539    47.881842 0.0082101924 0.0067224147          217 
  487000   0.48254281   -9.0050811    47.840756 0.0081863032 0.0066989603          225 
  488000    0.4882524   -9.0155777    47.842373 0.0081698042 0.0066757097          271 
  489000   0.49331241   -9.0087328    47.831075 0.0081511716 0.0066525558          224 
  490000   0.49041295   -9.0253954    47.830836  0.008134496 0.0066294894          276 
  491000   0.47482045   -9.0257911    47.816546 0.0081155034 0.0066064803          289 
  492000   0.47942468   -9.0170621    47.814414 0.0080986474 0.0065836499          274 
  493000   0.48583456   -9.0231554    47.824971 0.0080840045 0.0065609157          293 
  494000    0.4637716   -9.0313643    47.889651 0.0080785511 0.0065382719          308 
  495000    0.4799567   -9.0282614    47.828808 0.0080519879 0.0065157165          232 
  496000   0.48096674   -9.0282685    47.769036 0.0080257116 0.0064932363          272 
  497000   0.46778579   -9.0170978    47.830573 0.0080198814 0.0064708909          302 
  498000   0.47544856   -9.0322542     47.87371 0.0080109956 0.0064486009          280 
  499000   0.47274027   -9.0468161    47.893583 0.0079982603 0.0064264673          300 
  500000   0.47054611     -9.03337     47.85054 0.0079750899 0.0064043903          276 
  501000   0.46428244   -9.0457512    47.786009 0.0079484379 0.0063824326          282 
  502000   0.47054047   -9.0500698    47.842375 0.0079419614 0.0063605709          216 
  503000    0.4579253   -9.0447177    47.757091 0.0079120428 0.0063387845          280 
  504000   0.46834197   -9.0498606    47.860776 0.0079134881 0.0063170945          275 
  505000   0.45506964   -9.0374923    47.800754 0.0078879132 0.0062955058          329 
  506000   0.46352125   -9.0503764    47.705423 0.0078566243 0.0062739958          287 
  507000   0.45339673   -9.0664124    47.732412 0.0078455642 0.0062526022          284 
  508000   0.45729528   -9.0533472    47.798581 0.0078409745 0.0062312543          278 
  509000   0.45391308   -9.0739622    47.766653 0.0078203427 0.0062100323          292 
  510000   0.46067607   -9.0692689    47.722414 0.0077977801 0.0061889002          259 
  511000   0.45368329   -9.0695008    47.707226 0.0077800434 0.0061678206          325 
  512000   0.44900163   -9.0767595    47.710134 0.0077653213 0.0061468677          219 
Loop time of 1294.34 on 48 procs for 500000 steps with 4000 atoms

Performance: 66752.044 tau/day, 386.297 timesteps/s
99.4% CPU use with 48 MPI tasks x no OpenMP threads

MPI task timing breakdown:
Section |  min time  |  avg time  |  max time  |%varavg| %total
---------------------------------------------------------------
Pair    | 90.178     | 96.234     | 102.34     |  32.8 |  7.43
Neigh   | 8.6338     | 9.0284     | 9.5947     |   7.2 |  0.70
Comm    | 81.369     | 88.593     | 95.166     |  32.7 |  6.84
Output  | 1.0086     | 1.0095     | 1.0324     |   0.3 |  0.08
Modify  | 1082.5     | 1086.7     | 1091       |   5.8 | 83.96
Other   |            | 12.8       |            |       |  0.99

Nlocal:        83.3333 ave          90 max          77 min
Histogram: 2 2 3 14 7 4 9 3 3 1
Nghost:        2337.65 ave        2358 max        2319 min
Histogram: 2 5 3 6 9 8 9 4 1 1
Neighs:        15967.6 ave       17941 max       14423 min
Histogram: 2 0 9 12 7 8 6 2 1 1
FullNghs:      31935.4 ave       34741 max       29205 min
Histogram: 2 1 5 7 11 7 4 7 3 1

Total # of neighbors = 1532898
Ave neighs/atom = 383.22450
Neighbor list builds = 26642
Dangerous builds = 0

#clear
#
#next RN
#
#jump SELF
Total wall time: 0:21:37
