
units lj                  # Use reduced LJ style units
atom_style atomic         # Uncharged point particles
atom_modify map hash      # Needed for indexing of clusters etc
                          # Used to be able to find where atoms are in relation to each other.

lattice fcc 1.0 spacing 1 1 1
Lattice spacing in x,y,z = 1.5874011 1.5874011 1.5874011
region box block 0 10 0 10 0 10 units lattice
create_box 2 box
Created orthogonal box = (0.0000000 0.0000000 0.0000000) to (15.874011 15.874011 15.874011)
  3 by 4 by 4 MPI processor grid
create_atoms 1 box
Created 4000 atoms
  using lattice units in orthogonal box = (0.0000000 0.0000000 0.0000000) to (15.874011 15.874011 15.874011)
  create_atoms CPU = 0.002 seconds
set type 1 type/fraction 2 0.01 78393
Setting atom values ...
  36 settings made for type/fraction
mass 1 1.0
mass 2 1.0
pair_style lj/cut  3.5
pair_modify tail  yes
pair_coeff 1  1  1.0  1.0   # Intearaction between 1 and 1 set with epsilon = 1 and sigma = 1
pair_coeff 1  2  1.5  0.8
pair_coeff 2  2  0.5  0.88

write_data data.0
System init for write_data ...
Neighbor list info ...
  update every 1 steps, delay 10 steps, check yes
  max neighbors/atom: 2000, page size: 100000
  master list distance cutoff = 3.8
  ghost atom cutoff = 3.8
  binsize = 1.9, bins = 9 9 9
  1 neighbor lists, perpetual/occasional/extra = 1 0 0
  (1) pair lj/cut, perpetual
      attributes: half, newton on
      pair build: half/bin/atomonly/newton
      stencil: half/bin/3d
      bin: standard
WARNING: Not all mixed pair coeffs generated from mixing. Use write_data with 'pair ij' option to store all pair coeffs. (../write_data.cpp:312)


#############################
#   M E L T   S Y S T E M   #
#############################

velocity all create 2.4 9622624 mom yes dist gaussian # Assign velocities
                                                    # Temperature 2.4, random number seed, zero linear momentum
                                                                                # Gaussian distribution

timestep 0.002   # simulation timestep
thermo 1000       # output thermodynamic data every 1000 steps bf 100

# Define a fix  in this case with index 1 applied to all
# particles in the simulation. This fix is for simulations
# in the anisotropic NPT ensemble. Note that we use the MTK
# correction.
fix 1 all npt temp 2.4 2.4 0.1 iso 5.68 5.68 0.5 mtk yes tchain 5 pchain 5 # Use NPT ensemble
                                                                         # Set temperature and pressure and damping
                                                                         # Numbers of thermostats in chain and in barostat
run 10000          # run for 10000 steps
Per MPI rank memory allocation (min/avg/max) = 3.642 | 3.644 | 3.648 Mbytes
Step Temp E_pair E_mol TotEng Press Volume 
       0          2.4   -8.3261558            0   -4.7270558   -2.3168672         4000 
    1000    2.3580603   -4.4499885            0  -0.91378235    5.7720223    5124.5612 
    2000    2.4334287   -4.3276892            0  -0.67845873    5.6668589    5243.7728 
    3000    2.4407572   -4.3734318            0  -0.71321118    5.8242079    5184.6861 
    4000    2.3367246   -4.3487214            0  -0.84451079    5.5019552     5238.236 
    5000    2.4238644    -4.394484            0   -0.7595964    5.5116576     5219.097 
    6000    2.3565632   -4.3880046            0  -0.85404351    5.4304647    5225.1976 
    7000    2.3924693   -4.4070054            0  -0.81919857    5.4554464    5219.5485 
    8000    2.3739946    -4.390993            0  -0.83089146     5.549669    5209.6574 
    9000    2.3694098   -4.3423441            0  -0.78911796    5.8171417    5196.6044 
   10000    2.3538732    -4.340779            0  -0.81085197    5.6425082    5218.1789 
Loop time of 2.04797 on 48 procs for 10000 steps with 4000 atoms

Performance: 843763.854 tau/day, 4882.893 timesteps/s
99.6% CPU use with 48 MPI tasks x no OpenMP threads

MPI task timing breakdown:
Section |  min time  |  avg time  |  max time  |%varavg| %total
---------------------------------------------------------------
Pair    | 0.83821    | 0.90443    | 0.96901    |   2.9 | 44.16
Neigh   | 0.16572    | 0.17242    | 0.18259    |   0.7 |  8.42
Comm    | 0.6511     | 0.71304    | 0.7621     |   3.2 | 34.82
Output  | 0.00024299 | 0.00026418 | 0.00037526 |   0.0 |  0.01
Modify  | 0.19216    | 0.24394    | 0.28148    |   5.9 | 11.91
Other   |            | 0.01389    |            |       |  0.68

Nlocal:        83.3333 ave          89 max          76 min
Histogram: 1 4 1 8 5 5 10 5 5 4
Nghost:        1375.85 ave        1400 max        1352 min
Histogram: 2 4 6 4 8 9 4 5 2 4
Neighs:        7295.62 ave        7984 max        6460 min
Histogram: 4 0 2 6 7 8 8 6 3 4

Total # of neighbors = 350190
Ave neighs/atom = 87.547500
Neighbor list builds = 908
Dangerous builds = 202

# Equilibrate just above the melting temperature to avoid step fn in T

fix 1 all npt temp 1.25 1.25 0.1 iso 5.68 5.68 0.5 mtk yes tchain 5 pchain 5
run 2000
Per MPI rank memory allocation (min/avg/max) = 3.642 | 3.645 | 3.648 Mbytes
Step Temp E_pair E_mol TotEng Press Volume 
   10000    2.3538732    -4.340779            0  -0.81085197    5.6425082    5218.1789 
   11000     1.230572   -5.8824684            0   -4.0370719     5.572662    4317.4843 
   12000    1.2440226   -5.8796475            0   -4.0140801    5.6536776    4308.7669 
Loop time of 0.444249 on 48 procs for 2000 steps with 4000 atoms

Performance: 777941.337 tau/day, 4501.975 timesteps/s
99.6% CPU use with 48 MPI tasks x no OpenMP threads

MPI task timing breakdown:
Section |  min time  |  avg time  |  max time  |%varavg| %total
---------------------------------------------------------------
Pair    | 0.19558    | 0.20715    | 0.22271    |   1.2 | 46.63
Neigh   | 0.030649   | 0.031797   | 0.033405   |   0.3 |  7.16
Comm    | 0.13184    | 0.15291    | 0.16391    |   1.6 | 34.42
Output  | 5.1049e-05 | 5.2113e-05 | 6.4935e-05 |   0.0 |  0.01
Modify  | 0.040942   | 0.047973   | 0.054337   |   1.8 | 10.80
Other   |            | 0.004364   |            |       |  0.98

Nlocal:        83.3333 ave          90 max          77 min
Histogram: 3 5 2 12 1 5 10 2 4 4
Nghost:        1565.58 ave        1580 max        1538 min
Histogram: 1 0 0 2 7 9 8 7 7 7
Neighs:        8836.06 ave        9653 max        7998 min
Histogram: 1 6 4 6 4 8 9 5 4 1

Total # of neighbors = 424131
Ave neighs/atom = 106.03275
Neighbor list builds = 143
Dangerous builds = 7

#############################
# L I N E A R  Q U E N C H  #
#############################

# Define solid atoms. This closely follows ten Wolde  Ruiz-Montero and Frenkel  Faraday Discuss  1996  104  93-110
# Compute components of the per-atom q6 vector
compute q6 all orientorder/atom degrees 1 6 components 6 nnn NULL cutoff 1.3 # compute the Q6 parameter.
                                                                             # Use all neighbours within 1.3 unit cell.

# get number of connections
compute coord_number all coord/atom orientorder q6 0.5

# An atom is solid if it has 8 or more connections (of a possible 14)
variable is_solid atom c_coord_number>=8
group solid dynamic all var is_solid    # Must be dynamic to update
dynamic group solid defined

# do clustering
compute cluster solid cluster/atom 1.3 # Create a cluster where all atoms within are solid and max 1.3 units from another member

# define chunks one chunk per cluster
compute clus_chunks solid chunk/atom c_cluster nchunk every compress yes  # Says which atoms are in which chunk

# count the size of each chunk
compute size_chunks solid property/chunk clus_chunks count


# Find the maximum entry in the vector of chunk sizes
variable max_n equal max(c_size_chunks)


# Thermo style which includes this variable
# thermo_style custom step temp pe vol v_max_n

thermo ${N}  # Print the thermo information every 100 steps
thermo 1000  

# Reset the npt fix at a lower temperature (below freezing)
fix 1  all npt temp  ${temp} ${temp}  0.1  iso  5.68  5.68  0.5  mtk yes tchain  5  pchain  5
fix 1  all npt temp  0.45 ${temp}  0.1  iso  5.68  5.68  0.5  mtk yes tchain  5  pchain  5
fix 1  all npt temp  0.45 0.45  0.1  iso  5.68  5.68  0.5  mtk yes tchain  5  pchain  5

dump dmp2 all dcd ${N} traj.dcd
dump dmp2 all dcd 1000 traj.dcd


compute msd all msd com yes
variable twopoint equal c_msd[4]/6/(step*dt+1.0e-6)
fix 9 all vector 10 c_msd[4]
variable fit equal slope(f_9)/6/(10*dt)
thermo_style custom step temp pe c_msd[4] v_twopoint v_fit v_max_n

fix 1 all npt temp 1.25 ${temp} 0.1 iso 5.68 5.68 0.5 mtk yes tchain 5 pchain 5
fix 1 all npt temp 1.25 0.45 0.1 iso 5.68 5.68 0.5 mtk yes tchain 5 pchain 5
run 5000000 # 5000000  # Run for this many steps
Neighbor list info ...
  update every 1 steps, delay 10 steps, check yes
  max neighbors/atom: 2000, page size: 100000
  master list distance cutoff = 3.8
  ghost atom cutoff = 3.8
  binsize = 1.9, bins = 9 9 9
  4 neighbor lists, perpetual/occasional/extra = 1 3 0
  (1) pair lj/cut, perpetual
      attributes: half, newton on
      pair build: half/bin/atomonly/newton
      stencil: half/bin/3d
      bin: standard
  (2) compute orientorder/atom, occasional
      attributes: full, newton on
      pair build: full/bin/atomonly
      stencil: full/bin/3d
      bin: standard
  (3) compute coord/atom, occasional
      attributes: full, newton on
      pair build: full/bin/atomonly
      stencil: full/bin/3d
      bin: standard
  (4) compute cluster/atom, occasional
      attributes: full, newton on
      pair build: full/bin/atomonly
      stencil: full/bin/3d
      bin: standard
Per MPI rank memory allocation (min/avg/max) = 9.729 | 9.734 | 9.738 Mbytes
Step Temp PotEng c_msd[4] v_twopoint v_fit v_max_n 
   12000    1.2440226   -5.8796475 1.7518629e-30 1.2165714e-32 8.3333333e+20            2 
   13000    1.2659285   -5.8570349   0.55561518 0.0035616356  0.045964206            3 
   14000    1.2396383   -5.8970203    1.1096185 0.0066048716  0.045982496            3 
   15000    1.2207817   -5.9203065    1.6846095 0.0093589414  0.046860569            3 
   16000    1.2531068   -5.8252297    2.2505484  0.011721606  0.046975214            2 
   17000    1.2379105    -5.847313    2.8378465  0.013911012  0.047128309            2 
   18000    1.2667246   -5.7867974    3.3350573  0.015440079  0.047050697            2 
   19000    1.2386448   -5.8587514    3.8801468  0.017018187  0.046582428            4 
   20000    1.2964862     -5.86071    4.3987791  0.018328246  0.046023487            3 
   21000    1.2254507    -5.903691    4.9739696  0.019737974  0.045671686            3 
   22000    1.2678416   -5.8828676    5.5832165  0.021148547  0.045859559            4 
   23000    1.2427636   -5.8808088    6.1396872  0.022245243  0.046153625            2 
   24000    1.2609715   -5.8487143    6.7040404  0.023277918  0.046181132            2 
   25000    1.2700687   -5.8819062    7.1800566  0.023933521   0.04611461            3 
   26000    1.2406525   -5.8761387    7.8086597  0.025027755  0.046139947            3 
   27000    1.2498555      -5.8885    8.3509976  0.025774684   0.04620631            4 
   28000    1.2510308   -5.9085367    8.9713033  0.026700307  0.046283061            6 
   29000    1.2284345   -5.8495303    9.5645195  0.027484251   0.04641432            3 
   30000    1.2708268   -5.8922911    10.079919  0.027999775  0.046493941            4 
   31000    1.2517366   -5.9119845    10.579767  0.028440235  0.046509685            2 
   32000    1.2396128    -5.862367    11.185801  0.029129691  0.046495057            2 
   33000    1.2322386   -5.8698062    11.780224  0.029748039  0.046545181            2 
   34000     1.245168   -5.8614394    12.357518  0.030288034  0.046615863            2 
   35000    1.2504042   -5.8731385    12.897976  0.030709466  0.046654293            4 
   36000    1.2580617    -5.877344    13.525607  0.031309275  0.046716492            2 
   37000    1.2309634    -5.860426    14.024625  0.031586994  0.046782632            2 
   38000    1.2303934    -5.836633    14.477305  0.031748475  0.046764811            2 
   39000    1.2645172    -5.885734    14.941249  0.031925746  0.046681647            2 
   40000    1.2404728    -5.871568    15.370695   0.03202228  0.046542306            2 
   41000    1.2691886   -5.9049379    15.927768  0.032373512   0.04637468            5 
   42000    1.2346429   -5.8471801    16.450163  0.032639212  0.046233176            3 
   43000    1.2312765   -5.8229147    16.927137   0.03280453  0.046096964            3 
   44000    1.2455277   -5.8716206      17.4705  0.033088068  0.045948096            3 
   45000     1.222544   -5.8900579    18.051399  0.033428517  0.045833775            2 
   46000    1.2290641   -5.8907047    18.404177    0.0333409   0.04569692            2 
   47000    1.2334155   -5.8776186    19.018428  0.033720617  0.045577476            3 
   48000    1.2250137   -5.8948158    19.631288  0.034082097  0.045495478            3 
   49000    1.2365417   -5.8829904    20.325285  0.034566811  0.045476327            5 
   50000    1.2474344   -5.8920369    21.038261  0.035063767  0.045515881            4 
   51000    1.2299998   -5.9135395    21.559958   0.03522869  0.045563054            2 
   52000    1.2332234   -5.8854889    22.271882  0.035692118  0.045628592            2 
   53000    1.2369281   -5.8922017    22.915324  0.036030384  0.045696265            5 
   54000     1.261104   -5.8694138    23.393969  0.036101803  0.045778883            3 
   55000    1.2340563   -5.8841963    23.926828  0.036252769  0.045834463            2 
   56000    1.2619011   -5.8913704    24.397597  0.036305947  0.045878689            2 
   57000    1.2513297   -5.8827006    25.196545  0.036837054  0.045939393            2 
   58000    1.2332229   -5.9225491    25.564874   0.03673114  0.045997564            3 
   59000    1.2283579   -5.8814692    26.119557   0.03689203  0.046025708            2 
   60000    1.2516152   -5.8743782    26.478306  0.036775425    0.0460212            3 
   61000    1.2281452   -5.8831021    27.015297  0.036906143  0.045998163            3 
   62000    1.2474229   -5.8568501    27.446967  0.036891084  0.045972708            4 
   63000    1.2459207   -5.8515254    28.126408  0.037204243  0.045945952            6 
   64000    1.2239706   -5.9113202    28.713807   0.03738777  0.045942658            2 
   65000     1.247355   -5.8936544    29.332704  0.037606031  0.045944788            2 
   66000    1.2520424   -5.9008534    29.855213  0.037695976  0.045961933            3 
   67000    1.2191414   -5.8567708     30.34052  0.037736965  0.045966088            3 
   68000      1.23547   -5.8452382     31.13854  0.038159975  0.045973092            2 
   69000    1.2183624    -5.883251    31.701194  0.038286465  0.045997162            4 
   70000       1.2645   -5.8682871    32.420283  0.038595575  0.046036984            4 
   71000     1.206306    -5.880812    33.037828  0.038776793  0.046075526            2 
   72000    1.2166662   -5.8515621    33.460197   0.03872708  0.046109462           11 
   73000    1.2018593   -5.8781284    33.959885  0.038766992  0.046142042            4 
   74000    1.2659934    -5.882417    34.405195  0.038744589  0.046162274            2 
   75000     1.227734   -5.9100653    34.948412  0.038831568  0.046165081            3 
   76000    1.2760424   -5.9094183    35.145826   0.03853709  0.046144621            3 
   77000    1.2470507   -5.8368363     35.94839  0.038905184  0.046128851            2 
   78000    1.2240435   -5.8548184     36.58275  0.039084134  0.046131452            2 
   79000    1.2343296   -5.8609088     37.24558  0.039288587  0.046129738            3 
   80000    1.2331977   -5.9204702    37.540145  0.039104317  0.046129289            3 
   81000     1.226825   -5.9353647    38.011044  0.039106012  0.046120341            3 
   82000       1.2243   -5.9056308    38.767728  0.039398097  0.046103325            5 
   83000    1.2357382   -5.8877193      39.0301  0.039186847  0.046084465            4 
   84000    1.2161669   -5.8604774     39.57955  0.039265427   0.04606635            2 
   85000    1.2401007   -5.9193857    39.908399  0.039125881  0.046035423            3 
   86000    1.2435649   -5.8781944    40.538767   0.03928175  0.046003223            3 
   87000     1.213943   -5.9028436     41.16395   0.03942907  0.045982613            3 
   88000    1.2083753   -5.8602734    41.970034   0.03974435   0.04596901            2 
   89000    1.2377844   -5.9225699    42.269615  0.039578291  0.045961586            2 
   90000    1.2421717   -5.9155004    42.954747  0.039772914  0.045950466            2 
   91000    1.2546584   -5.8539136    43.502015   0.03983701  0.045941303            2 
   92000    1.2619973    -5.919924    44.027463  0.039879949  0.045924737            3 
   93000    1.2278379   -5.8774831    44.743815  0.040093024  0.045921623            5 
   94000    1.2468627   -5.8769282     44.94471  0.039844601  0.045926194            2 
   95000    1.2405617   -5.8556332    45.573544  0.039976793   0.04591312            9 
   96000    1.2434598   -5.8741321     46.30187  0.040192596  0.045901326            4 
   97000    1.2371786   -5.9522522    46.747259  0.040160876  0.045901966            4 
   98000    1.2516992   -5.9256671    47.558284  0.040440717  0.045902915            3 
   99000    1.2583954   -5.8466236    48.162756   0.04054104  0.045914483            2 
  100000    1.2305148   -5.8730407    48.473746  0.040394788  0.045925104            3 
  101000    1.2214129   -5.8958923    49.141342  0.040545662  0.045925329            4 
  102000    1.2569201   -5.9146773    49.727936  0.040627399   0.04592568            3 
  103000    1.2589411   -5.9298662     50.14892  0.040573559  0.045919432            4 
  104000    1.2340364   -5.9105953    50.749607  0.040664749  0.045914244            2 
  105000    1.2426124   -5.9167641    51.371636   0.04077114  0.045910359            3 
  106000    1.2254058   -5.9221936    51.729673  0.040667982  0.045904208            3 
  107000    1.2202819   -5.8693025    52.348722  0.040770033  0.045898752            4 
  108000    1.2218337   -5.8770742    53.181576  0.041035166  0.045905246            2 
  109000    1.2437588   -5.8801729    53.502163  0.040903794  0.045910251            2 
  110000    1.2334472   -5.8951781    54.207406  0.041066216  0.045910377            3 
  111000    1.2322146   -5.8838479    54.857369  0.041184211  0.045916885            5 
  112000    1.2347679   -5.8863367    55.508494  0.041300963  0.045923037            5 
  113000     1.213623   -5.8963908    55.759157  0.041120322  0.045928932            3 
  114000    1.2361763   -5.8889772    56.252431  0.041120198  0.045933283            3 
  115000    1.2374469   -5.9238027    56.957063  0.041273234  0.045938776           13 
  116000    1.2292494   -5.8869169    57.559145   0.04134996  0.045945639            3 
  117000    1.2421146   -5.9139443    58.018321   0.04132359  0.045954297            3 
  118000    1.2644822   -5.9619353    58.413925  0.041252772  0.045955767            5 
  119000    1.2537817   -5.8658632    59.212222  0.041465141  0.045965798            3 
  120000    1.2179612   -5.9053707    60.192988  0.041800686   0.04598218            2 
  121000    1.2227323   -5.8860453    60.395217  0.041594502  0.045997814            2 
  122000      1.20127    -5.919981    60.884688  0.041587901  0.046006074            4 
  123000    1.2450939   -5.9115393    61.445458  0.041629714  0.046012397            2 
  124000    1.2254471   -5.8800884    62.118913  0.041746581  0.046021821            5 
  125000    1.2165962   -5.9027886    62.613523  0.041742349  0.046034287            6 
  126000    1.2088619   -5.9066252    63.220459  0.041812473  0.046045171            2 
  127000    1.2486225   -5.9090893     64.07791  0.042045872  0.046063156            3 
  128000    1.2321871   -5.8919746     65.18292  0.042436797  0.046089865            5 
  129000    1.2235718   -5.8794797    65.495181  0.042309548   0.04612119            6 
  130000    1.2407508   -5.8970734    66.093129   0.04236739  0.046149493            3 
  131000    1.2453847   -5.9179834    66.684539   0.04242019   0.04617955            3 
  132000    1.2114925   -5.9150413    67.174707  0.042408275  0.046209299            2 
  133000    1.2261955   -5.9120853    67.994927  0.042603337  0.046237139            4 
  134000    1.2330721   -5.8406678    68.521259  0.042612723  0.046262152            4 
  135000    1.2283448   -5.9002683    68.729224  0.042425447  0.046281044            3 
  136000    1.2476933   -5.8963964    69.189992  0.042395829  0.046294765            2 
  137000    1.2100447   -5.9256151     69.34468  0.042180462  0.046307462            3 
  138000      1.25796   -5.9039496    69.940531   0.04223462  0.046315076            3 
  139000    1.2239393   -5.8885584    70.742154  0.042411363  0.046320866            8 
  140000    1.2057904   -5.8704269    71.110154  0.042327472  0.046326004            5 
  141000    1.2483768   -5.9253489    71.623802  0.042330852  0.046329204            7 
  142000    1.2313403   -5.9287957    71.884934  0.042185994   0.04632916            3 
  143000    1.2141519   -5.9369614     72.55925  0.042283945  0.046327645            8 
  144000    1.2029263   -5.8752293    73.439364  0.042499632  0.046326946            2 
  145000    1.2313284   -5.9142129    73.704606  0.042358969   0.04632551            4 
  146000    1.2396367   -5.9193557    74.586734  0.042572336  0.046326038            2 
  147000    1.2366791    -5.909775    74.649762  0.042318459  0.046323287            3 
  148000    1.2009109   -5.8767779    75.297734  0.042397373  0.046315658            2 
  149000    1.2380936   -5.9381751    75.908175  0.042454237  0.046313785            3 
  150000    1.2405255   -5.8945977    76.608857  0.042560476  0.046310778            3 
  151000    1.2073729   -5.8881475    77.034865  0.042513722   0.04630982            2 
  152000    1.2302102   -5.8661911    77.605319  0.042546776   0.04630792            2 
  153000    1.2447813   -5.9198747    78.118787  0.042548359  0.046306395            3 
  154000    1.2465848   -5.9103882    78.562376  0.042512108  0.046299497            3 
  155000    1.2149828    -5.936802    79.073738  0.042512762  0.046293002            4 
  156000    1.2347015   -5.8915723    79.897427  0.042680249  0.046284681            2 
  157000     1.237125   -5.8957518     80.14923  0.042542054  0.046274584            7 
  158000    1.2498869   -5.9320051    80.535334  0.042476442  0.046265995            3 
  159000    1.2168754   -5.8952275    81.170364  0.042542119  0.046256932            4 
  160000    1.2274813   -5.9151746    81.469122  0.042431834  0.046246302            3 
  161000    1.2159136   -5.8925057    82.077524   0.04248319  0.046234451            3 
  162000    1.2080535   -5.9021193    82.426759  0.042400596  0.046222597            4 
  163000    1.2084567   -5.8909235    82.810135   0.04233647  0.046207481            3 
  164000    1.2316687   -5.9181421    83.643555  0.042501806  0.046193723            2 
  165000    1.2253543   -5.9238073    84.161775  0.042505947  0.046182761            4 
  166000    1.2240266   -5.9218231    84.598613  0.042469183  0.046173347            3 
  167000    1.1903187   -5.8841831    85.552102   0.04269067  0.046161012            3 
  168000    1.2122646   -5.9522799    85.648957  0.042484602  0.046148882            3 
  169000    1.2215849   -5.9096903    86.362782  0.042585198  0.046137169            2 
  170000    1.2605667   -5.9107327    87.123373  0.042707536  0.046126699            4 
  171000    1.2209941   -5.9186981    87.441276  0.042612707  0.046118256            4 
  172000    1.1975017   -5.9251688    88.112028  0.042689936  0.046112692            2 
  173000    1.2362973   -5.8949538    88.714515  0.042733389  0.046105148            3 
  174000     1.216675   -5.9036261    88.944978  0.042598169  0.046093986            4 
  175000    1.1801531   -5.9170826    89.430501  0.042585953  0.046080982            3 
  176000    1.2544322   -5.9051022    90.009437  0.042618104  0.046068788            2 
  177000    1.2193763   -5.9006127    90.887838  0.042790884  0.046059594            2 
  178000     1.231668   -5.9675813    90.934752   0.04257245  0.046050137            8 
  179000    1.2147306   -5.9448532     91.34344  0.042524879   0.04603524            4 
  180000    1.2325791   -5.9183093     92.07116  0.042625537  0.046019715            5 
  181000    1.2388273   -5.9356685    92.219078  0.042458139  0.046003069            3 
  182000    1.2229845   -5.8728973     92.77183  0.042477944  0.045985219            5 
  183000    1.1999657   -5.8887703    93.543307  0.042597134  0.045967705            2 
  184000    1.2314313   -5.9146775    93.852926  0.042505854  0.045949444            7 
  185000    1.2330729   -5.9525014    94.387411  0.042516852  0.045930583            9 
  186000    1.2233556   -5.9261093    94.876711  0.042507487  0.045911037            3 
  187000    1.2376914    -5.950301    95.352556  0.042492226  0.045890822            2 
  188000    1.2541348   -5.9020075    95.800716  0.042464856  0.045871713            3 
  189000    1.2318769   -5.9305197    96.603177  0.042593993  0.045855965            2 
  190000    1.2128666   -5.9217548    97.428824   0.04273194  0.045842512            4 
  191000    1.2086953   -5.8790091    97.732893  0.042640878  0.045832079            2 
  192000    1.2387305   -5.9045195    98.476094   0.04274136  0.045818811            2 
  193000    1.2446846   -5.9178761    98.852429  0.042682396  0.045805973            5 
  194000     1.224888   -5.9145891    99.936547   0.04292807  0.045793288            3 
  195000    1.2612867   -5.8988417    100.06337  0.042762122  0.045783108            4 
  196000    1.2331756   -5.9114413      100.477  0.042719813  0.045772334            4 
  197000    1.2415181    -5.926953    100.93651  0.042697341  0.045760498            6 
  198000    1.2352283   -5.8762732    101.92533  0.042897866  0.045751004            4 
  199000    1.1964669   -5.9389003    102.48259  0.042915658  0.045745898            4 
  200000    1.2077462   -5.9026791    102.90012  0.042875052  0.045737047            4 
  201000    1.2210354   -5.9370421     103.5984  0.042951246  0.045728604            2 
  202000    1.1915954   -5.8633094    104.25164  0.043008102   0.04572156            5 
  203000    1.2017786    -5.903363    104.92991  0.043074676  0.045715998            4 
  204000    1.2170147   -5.9364921    105.24881  0.042993795  0.045710891            6 
  205000    1.2212391   -5.9353962    105.33197  0.042817873  0.045705474            2 
  206000    1.2079812    -5.897937    106.05946  0.042904313  0.045700357            4 
  207000    1.2589888   -5.9078734    106.92921  0.043047188  0.045695309            3 
  208000    1.2166232   -5.9277136    107.28402   0.04298238  0.045691998            4 
  209000    1.2094083   -5.9137897    108.12923  0.043113728  0.045686375            2 
  210000    1.2366534   -5.9198051    107.89352  0.042814887  0.045678632            2 
  211000    1.2113023    -5.925441    108.54204  0.042868106  0.045667116            4 
  212000    1.2322297   -5.9476403    108.71077   0.04273222  0.045652668            4 
  213000    1.1906314   -5.9715104    109.20147  0.042723581  0.045635013            2 
  214000    1.2297671   -5.8781383    109.80197  0.042757777  0.045617731            8 
  215000    1.2203237   -5.8897867    110.09251  0.042671514  0.045599125            3 
  216000    1.1985469   -5.9295998    110.34734  0.042572274  0.045579351            7 
  217000    1.2284983   -5.9353213    110.64689  0.042491126  0.045557956            2 
  218000    1.2157132   -5.8909736     111.4466  0.042601912  0.045536354            3 
  219000      1.22529   -5.9562328    111.35446  0.042372322  0.045513287            3 
  220000    1.2192991   -5.9167697    112.02387  0.042433284  0.045489591            5 
  221000     1.201514    -5.950171    112.54235  0.042436785   0.04546614            3 
  222000    1.2179116   -5.9545768    112.60019  0.042267337  0.045442817            7 
  223000    1.2155678    -5.936011    113.52366  0.042422891  0.045419114            4 
  224000    1.2112636    -5.926869    113.84537  0.042353188   0.04539542            6 
  225000     1.191865   -5.9030151    114.27292  0.042323302  0.045371727            4 
  226000     1.193428   -5.9533048     114.7963  0.042329019  0.045349148            4 
  227000    1.2253918   -5.8998698    115.65488   0.04245774  0.045328485            2 
  228000    1.2021753   -5.9380348    116.22637  0.042480398  0.045308266            3 
  229000    1.2186371   -5.9468387    116.94335  0.042555804  0.045290104            3 
  230000    1.2133565   -5.9297999    116.76878  0.042307528  0.045270863            4 
  231000    1.2016873   -5.9258574     117.4897   0.04238445  0.045247939            4 
  232000    1.2096063   -5.9352138     118.2874  0.042488291  0.045225131            4 
  233000    1.2112894   -5.9296471    118.78791  0.042484948  0.045203252            2 
  234000    1.2229977   -5.9329061     118.8415   0.04232247  0.045181469            5 
  235000    1.2181379   -5.9303767    119.61426  0.042416404  0.045159647            2 
  236000    1.2180518    -5.941632    120.39583  0.042512653  0.045139176            4 
  237000    1.1970353   -5.9037342    121.09422  0.042578839  0.045120137            2 
  238000    1.1847107   -5.9361777    121.12982    0.0424124  0.045101504            3 
  239000    1.2154727   -5.8966984    121.68875  0.042429829  0.045082905            3 
  240000    1.2378197   -5.9547754    122.32742  0.042474799   0.04506496            4 
  241000      1.21511    -5.906667    123.38604  0.042664607  0.045048513            3 
  242000    1.2427772   -5.9401014    123.89448  0.042663388  0.045034296            5 
  243000    1.2332118   -5.9286809    124.26406  0.042614561  0.045020136            2 
  244000    1.2254159   -5.9269844    125.38594  0.042823066  0.045008649            2 
  245000    1.2292663   -5.9219933    124.86389  0.042470711  0.044993341            3 
  246000     1.232435     -5.93301    126.05616   0.04270195  0.044979834            3 
  247000    1.1977318   -5.9397268    126.34433  0.042626291  0.044968124            3 
  248000    1.2378122    -5.934409     126.7859   0.04260279  0.044955406            3 
  249000    1.2248389   -5.9151552    127.25914  0.042590075  0.044941573            2 
  250000    1.2205468    -5.945736    127.63291  0.042544304  0.044929929            2 
  251000    1.2121969    -5.916958    128.23281  0.042573975  0.044917923            3 
  252000    1.1854893   -5.9586176     128.7975  0.042591767  0.044904948            3 
  253000    1.2394384   -5.9461495    128.87647  0.042449432  0.044892064            9 
  254000    1.2109364    -5.933518    129.38309   0.04244852  0.044877334            3 
  255000    1.2356946   -5.9330406    129.79912  0.042418012  0.044859949            2 
  256000     1.182782   -5.9404099    130.45302  0.042465176  0.044842616            4 
  257000    1.2236481   -5.9299543     131.0585  0.042496271  0.044827215            3 
  258000    1.2224144   -5.9478627    131.11088  0.042348476  0.044809963            4 
  259000    1.2255455   -5.9083826    132.07278  0.042494459  0.044793519            3 
  260000    1.1808191   -5.9129117    132.30301  0.042404811  0.044777648            3 
  261000    1.1936013   -5.9396412    132.43535  0.042284594   0.04475926            3 
  262000    1.2279415   -5.9422197    132.46032  0.042131145  0.044739098            4 
  263000    1.2228626   -5.9183569    133.45387  0.042285763  0.044718105            5 
  264000    1.2258227   -5.9522693    133.81322  0.042239021  0.044696013            3 
  265000     1.195872   -5.9117228    134.24494  0.042215389  0.044675495            2 
  266000     1.212434   -5.9223713    134.32732  0.042082495  0.044653464            3 
  267000    1.2168657   -5.9640684    135.23063  0.042206812  0.044632332            3 
  268000    1.1943972   -5.9290278    135.78598   0.04222201  0.044611062            5 
  269000    1.2040758   -5.9451985    136.42223  0.042262154  0.044591165            6 
  270000    1.2006069   -5.9336275    136.44255  0.042111897  0.044570342            5 
  271000    1.2017756   -5.9183522    137.61318  0.042316474  0.044550226            4 
  272000    1.2083273   -5.9961244    137.18434  0.042029517   0.04453001           12 
  273000    1.2281253   -5.9425099    138.08112  0.042149305  0.044510016            3 
  274000     1.219449   -5.9654472    138.38808  0.042088832  0.044489225            5 
  275000    1.2013968   -5.9465561    138.69439  0.042028602  0.044466682            2 
  276000    1.2080269   -5.9359531    138.89558   0.04193707  0.044443403            7 
  277000    1.1981699   -5.9156705    139.28373  0.041902444  0.044420092            3 
  278000    1.2155283   -5.9358377    140.15674  0.042013412  0.044397773            4 
  279000    1.2064274   -5.9701958    140.29674  0.041904642  0.044376399            6 
  280000      1.19211   -5.9487611    141.18902  0.042020541  0.044355142            3 
  281000    1.2264659   -5.9503592    141.44324  0.041946393  0.044334056            6 
  282000    1.2311681   -5.9443627    141.90469  0.041934009  0.044312116            3 
  283000    1.2057084   -5.9278686    142.47653  0.041954218  0.044290265            8 
  284000     1.190187   -5.9370145    143.39303   0.04207542  0.044268825            3 
  285000    1.2125767   -5.9503374    143.82232  0.042053311  0.044248355            2 
  286000     1.189095   -5.9276107    144.38739  0.042070919  0.044228239            4 
  287000    1.1986399   -5.9434163    144.82831  0.042052355  0.044207607            4 
  288000    1.2064071   -5.9283394    145.78518  0.042183213  0.044188484            4 
  289000    1.2093358   -5.9552509    146.11179  0.042131428  0.044169249            4 
  290000    1.2318287   -5.9228496    145.84471    0.0419094  0.044150806            4 
  291000    1.1945684   -5.9211555    146.64804   0.04199543  0.044130902            3 
  292000    1.2015803   -5.9556574    146.50924  0.041811997  0.044110515            3 
  293000    1.2066329   -5.9253948    147.46589   0.04194138  0.044090768            4 
  294000    1.2099882   -5.9240235    147.97046  0.041941739  0.044070061            2 
  295000    1.1806957   -5.9491709    148.10101  0.041836443  0.044048885            6 
  296000    1.2215128   -5.9250937    148.88806  0.041916682  0.044029673            6 
  297000     1.184414   -5.9520617    149.09848   0.04183459  0.044009912            2 
  298000    1.1781023   -5.9809398     149.5727  0.041826819  0.043991164            8 
  299000    1.2057187   -5.9472184     150.5565   0.04196112   0.04397367            3 
  300000     1.185044    -5.917209    150.33554  0.041759874  0.043956046            4 
  301000    1.2026492   -5.9144938    151.64165  0.041982739   0.04393765            4 
  302000    1.1996886   -5.9561093    152.11819  0.041975217  0.043918349            3 
  303000     1.189552   -5.9348111    151.91517   0.04178085  0.043899376            4 
  304000    1.2262611   -5.9551422     152.8398  0.041896876  0.043880756            3 
  305000    1.2002918   -5.9660887    153.67478  0.041987644  0.043863578            3 
  306000    1.1983995   -5.9234845    154.22898  0.042001355  0.043846635            3 
  307000    1.2249556   -5.9196972      154.236   0.04186645   0.04383019            2 
  308000    1.2048881   -5.9086711    154.90264  0.041910888  0.043813627            3 
  309000    1.1922543   -5.9531356    154.68654  0.041716974  0.043795763            6 
  310000    1.1926713   -5.9810853    155.22813  0.041727993  0.043775881            5 
  311000    1.2241761   -5.9708525    155.60711  0.041695368  0.043755933            3 
  312000    1.1889946   -5.9750191    155.90869  0.041642278  0.043735829            3 
  313000    1.2041874   -5.9277209    157.23792  0.041863132  0.043717595            3 
  314000    1.2103626     -5.94042    157.50858   0.04180164  0.043699334            2 
  315000    1.2201938   -5.9215966    157.93033   0.04178051  0.043681259            1 
  316000     1.201902   -5.9522155    158.67003  0.041843361  0.043663582            3 
  317000    1.1886565   -5.9458963     158.5627   0.04168315  0.043644598            2 
  318000    1.2165055     -5.96721    158.92456  0.041646898  0.043626202            4 
  319000    1.1983626   -5.9371161    159.47818  0.041660966  0.043608637            6 
  320000    1.2021784   -5.9305216    160.03321  0.041675314   0.04358996            5 
  321000     1.170035   -5.9539849    160.47245  0.041659513  0.043572586            5 
  322000    1.2230368   -5.9676963    160.41809  0.041516069  0.043553188            6 
  323000    1.1944984   -5.9118077    160.93985   0.04152215  0.043532945            4 
  324000     1.184946   -5.9489736    161.46954   0.04153023  0.043513796            3 
  325000    1.2099171   -5.9637295    161.78696  0.041483837  0.043493841            3 
  326000    1.2007618   -5.9325323      162.397  0.041512526  0.043472397            2 
  327000    1.2140491   -5.9677896    163.26065  0.041605671  0.043452529            9 
  328000    1.2231068   -5.9166616    163.39968  0.041514146  0.043432499            3 
  329000     1.159583   -5.9613371    163.59886  0.041438414  0.043412364            4 
  330000    1.1904669   -5.9869082     164.0369  0.041423459  0.043391873            3 
  331000    1.1964479   -5.9102097    164.84968   0.04150294  0.043372443            3 
  332000    1.2159404   -5.9606667    165.33652   0.04150013  0.043354529            5 
  333000     1.199724   -5.9746241    165.58822  0.041438494  0.043336708            3 
  334000    1.1955778   -5.9189359    166.80488  0.041617984  0.043319199            4 
  335000    1.1544445   -5.9780447    167.40044  0.041641901   0.04330231            6 
  336000    1.1865765   -5.9956032    167.15141  0.041456203   0.04328631            3 
  337000    1.1834063   -5.9614332    168.14695  0.041579364  0.043270942            7 
  338000    1.1916327   -5.9155177    169.53116  0.041797623  0.043256552            4 
  339000     1.192014   -5.9699062    169.57555  0.041685238    0.0432417            3 
  340000     1.185156   -5.9360758     169.5206  0.041549166  0.043226335            4 
  341000    1.1931829    -5.978982    170.01485  0.041548106  0.043212431            5 
  342000    1.1822347   -5.9367722    170.85007  0.041630134  0.043199361            6 
  343000    1.1728019      -5.9292     171.3691  0.041634864   0.04318516            2 
  344000    1.2043165   -5.9615199    171.82904  0.041625253  0.043169873            2 
  345000     1.188306   -5.9780877    172.64324  0.041701265  0.043156406            3 
  346000    1.1721298   -5.9696866    173.51373  0.041790397  0.043142137            3 
  347000    1.1670115   -5.9358819     172.8998  0.041522525  0.043128108            5 
  348000    1.1662267   -5.9597919    173.76814  0.041611146  0.043113073            7 
  349000     1.215588    -5.975304    174.19196  0.041593113  0.043098364            3 
  350000    1.1954954   -5.9661885    174.46124  0.041538391  0.043085397            4 
  351000    1.2351953   -5.9848544    175.43517  0.041651275  0.043071954            3 
  352000    1.1941915   -5.9497434    175.90084  0.041643191  0.043058966            3 
  353000     1.192076   -5.9480947    176.72299  0.041719308  0.043047185            2 
  354000    1.1688181   -5.9341119     177.0295  0.041673611  0.043035838            3 
  355000    1.2024262   -5.9437448     177.4283  0.041649835  0.043025191            3 
  356000    1.1863129   -5.9775456    178.63338   0.04181493  0.043015641            5 
  357000    1.2119266   -5.9408558    179.33694  0.041862031  0.043007265            4 
  358000    1.1932913   -5.9554989    180.68748   0.04205947   0.04300053            3 
  359000    1.2185658   -5.9859059    180.25681  0.041842342  0.042992522            6 
  360000    1.1865684   -5.9710775    180.93867  0.041883951  0.042983808            2 
  361000    1.1930701    -5.975387    181.64087  0.041930026  0.042976314            4 
  362000    1.2151231   -5.9711794    181.71073  0.041830278  0.042968451            5 
  363000    1.1940526   -5.9897814    182.36356  0.041864912  0.042960638            5 
  364000    1.1776056   -5.9636996    182.62759  0.041810345  0.042952588            2 
  365000    1.1858522   -5.9670963    183.35346  0.041861521  0.042945981            6 
  366000    1.1974422   -6.0080539    183.89819  0.041871172  0.042939489            2 
  367000    1.1907773   -5.9570022    185.17041   0.04204596  0.042933452            2 
  368000    1.2091188   -5.9742114    184.72228  0.041830225  0.042926767            4 
  369000    1.1922088   -5.9379865    185.06834  0.041795019  0.042919424            3 
  370000    1.1835581   -5.9727371    185.60213  0.041802281  0.042912241            2 
  371000    1.1792848   -5.9733859    186.55771  0.041904247  0.042905608            2 
  372000    1.2128087   -5.9287924    187.07536  0.041907562  0.042899219            3 
  373000    1.1769121   -5.9832616    187.85862  0.041970201  0.042893079            4 
  374000    1.1875668   -5.9390674    187.82474  0.041850431  0.042886305            5 
  375000    1.2035948   -6.0101204    187.45329  0.041656286  0.042878252            9 
  376000    1.2051248   -5.9830425    188.01876  0.041670824  0.042868633            4 
  377000    1.2089997   -5.9865104    188.37601   0.04163926  0.042859197            1 
  378000    1.1982885   -5.9753836    189.45072  0.041766031  0.042849661            4 
  379000    1.2302336   -5.9998686    189.54223  0.041675953  0.042840362            3 
  380000    1.2156343    -5.934136    190.13101  0.041695397  0.042830399            1 
  381000    1.1824794   -6.0014841    189.64002  0.041478569  0.042819532            2 
  382000    1.1955953   -5.9728796    189.93941  0.041435299   0.04280846            2 
  383000    1.2091945   -5.9582077    190.77917  0.041509828  0.042796836            6 
  384000    1.1700375   -6.0024258    191.05907  0.041462473  0.042786294            2 
  385000    1.1793969    -5.982768    191.47275  0.041444319  0.042773896            5 
  386000     1.186919   -5.9655091    191.86993  0.041422697  0.042761762            6 
  387000    1.1842423   -5.9985219    192.00493   0.04134473  0.042749708            3 
  388000    1.1585758   -5.9979265    193.13895  0.041481734  0.042738821            2 
  389000     1.182692   -5.9928383    192.89572  0.041322989   0.04272635            7 
  390000    1.1907874    -6.012048    194.00749  0.041454592  0.042713973            3 
  391000    1.2005093   -5.9717227    194.29998  0.041410907  0.042702376            3 
  392000    1.1904734   -5.9731461    195.07693  0.041470436  0.042690761            9 
  393000    1.1865984   -6.0029642    195.38053  0.041429289  0.042679799            4 
  394000    1.1963054   -5.9395001    196.46728  0.041553994  0.042670283            1 
  395000    1.1953986   -5.9643017    196.48493  0.041452517  0.042661023            2 
  396000    1.1744276   -5.9619539    197.46297  0.041553655  0.042651088            5 
  397000    1.1827659   -6.0042047    197.39574  0.041434874  0.042639955            3 
  398000    1.1820407   -5.9879914    197.32868  0.041316725    0.0426279            3 
  399000     1.207312   -5.9790209    198.05977  0.041365866  0.042614596            4 
  400000    1.1818578   -5.9521316    198.46108  0.041346058  0.042601459            6 
  401000    1.2013267   -5.9572304     198.9284  0.041340067   0.04258785            3 
  402000    1.1691866   -5.9792521    199.35298  0.041325246  0.042574154            5 
  403000      1.17535   -5.9922735     199.0335  0.041156637  0.042560719            7 
  404000    1.1606044   -5.9882697    199.93854  0.041241448  0.042546571            2 
  405000    1.2034044   -5.9750103    200.92856  0.041343324  0.042532642            4 
  406000    1.1703298   -5.9724265    200.60007  0.041174071  0.042519537            6 
  407000    1.1788724   -5.9400683    201.91695  0.041342536  0.042507212            4 
  408000    1.1838324   -5.9783531    201.80009  0.041217338  0.042494926            5 
  409000    1.1996077   -5.9979404    202.22887  0.041203926  0.042482049            4 
  410000    1.1549583   -5.9799383    202.74887   0.04120912   0.04246858            4 
  411000    1.1719644    -5.996329    203.15807  0.041191822  0.042455295            8 
  412000    1.2086406   -5.9517122    204.05916  0.041274102  0.042441707            4 
  413000    1.1863731   -5.9622648    203.88082  0.041138179  0.042428212            3 
  414000     1.150212   -5.9679691    203.76093  0.041014681    0.0424148            5 
  415000    1.1938766   -6.0229989    204.90564  0.041145711  0.042401875            4 
  416000    1.1839554   -5.9841208    205.58027  0.041181945  0.042388003            3 
  417000    1.1825704   -5.9733762    205.95219  0.041157513   0.04237488            1 
  418000    1.1760532   -5.9570444    206.75308  0.041218716  0.042362333            3 
  419000    1.1926217   -5.9807495    206.72082  0.041113925  0.042350749            3 
  420000    1.1617499   -6.0082163    207.24662  0.041120361   0.04233912            4 
  421000    1.1954386    -5.993853    207.41496  0.041056009  0.042326738            2 
  422000    1.1830902   -6.0218922    208.13595  0.041101095  0.042314856            1 
  423000    1.1669749   -5.9547497    208.80127  0.041135001  0.042302206            4 
  424000    1.2041275   -5.9705542    208.92015  0.041061349  0.042290244            5 
  425000    1.1929502   -5.9379647    209.49194   0.04107685  0.042277804            4 
  426000    1.1838297   -5.9573204    210.13586  0.041106389  0.042265939            7 
  427000    1.1713373   -5.9785402     210.0517  0.040993696  0.042253048            2 
  428000     1.189678   -5.9884733    211.19592    0.0411207  0.042240287            3 
  429000    1.1738211   -5.9882979    211.21469  0.041028495  0.042227851           12 
  430000    1.1777526   -6.0076379    212.25006  0.041133732  0.042216032            5 
  431000     1.171577   -5.9817742    212.48225  0.041083188  0.042204622            3 
  432000    1.1763348   -6.0305117    212.77539  0.041044636  0.042193369            4 
  433000    1.1839783   -5.9745923    213.08746  0.041009903  0.042182241            4 
  434000    1.2125752   -5.9698456    214.30388  0.041148979  0.042170737            2 
  435000    1.1702689    -6.012428    214.18684  0.041031961  0.042159788            2 
  436000     1.214574   -5.9818357    214.59288  0.041015459  0.042147889            3 
  437000    1.1717689   -5.9826256    215.06159  0.041010982  0.042135604            3 
  438000    1.2121202    -6.002869    215.45683  0.040992547  0.042123305           10 
  439000      1.16927   -5.9601183    215.96384  0.040995414  0.042111002            7 
  440000    1.1840468    -6.030393    215.94772  0.040899189  0.042097849            7 
  441000    1.1714442    -5.992626    216.60379  0.040930421  0.042084629            2 
  442000    1.1972199   -5.9834367    216.47536  0.040813605  0.042071124            4 
  443000    1.1616303    -5.988537    217.07885  0.040834998  0.042057037            3 
  444000    1.1727812   -5.9666714     217.5451  0.040830538  0.042043391            3 
  445000    1.1811943   -6.0055286    216.99971  0.040636651  0.042029153            3 
  446000    1.1839186   -5.9942215    217.38162  0.040616894  0.042014237            3 
  447000    1.2151687   -5.9776038    218.01935  0.040644919  0.041998573            3 
  448000    1.1931222   -5.9996252    218.35261  0.040616184  0.041982675            4 
  449000    1.1784764   -5.9966422     218.0984  0.040478545  0.041966427            2 
  450000     1.164314   -5.9980455    219.48861  0.040646038  0.041950292            8 
  451000    1.1756069   -6.0123831     219.1541  0.040494105  0.041934659            5 
  452000    1.2196307   -5.9901706    219.61231  0.040488996  0.041918429            6 
  453000    1.1618302   -5.9891207    219.89371  0.040451381  0.041902862            2 
  454000    1.1915325   -5.9392528    221.18925  0.040600083  0.041887322            4 
  455000    1.1874943   -5.9804421    221.96004  0.040652023  0.041871675            3 
  456000    1.1668715   -5.9904554    222.09383  0.040587324   0.04185587            1 
  457000    1.1871853   -6.0090746    222.97235  0.040658706  0.041840567            8 
  458000    1.1984912   -5.9684832    222.60848  0.040503726  0.041825197            3 
  459000    1.1911265   -6.0000896    223.31751  0.040544209  0.041809884            6 
  460000    1.1961526   -5.9790579     223.4236  0.040475289  0.041794506            2 
  461000    1.1583401   -5.9974771    224.50988  0.040583855  0.041779445            3 
  462000    1.1741676   -6.0006985    224.34615  0.040466478  0.041763713            3 
  463000    1.1601387   -6.0306776    223.90273  0.040299268  0.041747906            4 
  464000      1.18028   -5.9813767    225.66556  0.040529017  0.041732087            7 
  465000    1.1804632   -5.9900927    226.33679  0.040562148  0.041717552            3 
  466000    1.1834423    -5.985751    227.22849  0.040634565  0.041704037            6 
  467000    1.1904341   -5.9528649    227.63537  0.040620159  0.041691208            4 
  468000    1.1521515   -5.9951538    227.21913  0.040459246  0.041677348            3 
  469000    1.1686876   -5.9839418    227.75331  0.040467895  0.041663502            7 
  470000    1.1596255   -5.9758338    228.69873   0.04054942  0.041650008            7 
  471000    1.1508336   -5.9843538    228.89169  0.040497468  0.041636688            2 
  472000    1.1776739   -6.0025184    229.55642  0.040529028  0.041623747            3 
  473000     1.196568   -6.0278835    230.37573  0.040587691  0.041610669            2 
  474000    1.1811312   -5.9940949    231.32352  0.040668692  0.041598247            4 
  475000    1.1666386   -5.9664588    232.11578  0.040722067  0.041586089            4 
  476000     1.184619   -5.9818745    232.83796  0.040762947  0.041574565            2 
  477000    1.1724412    -6.019533    232.62361  0.040640044  0.041562702            5 
  478000    1.1950763    -5.998438    232.36111   0.04050926  0.041551156            3 
  479000    1.1588528   -5.9726595    233.56229  0.040633661  0.041539207            6 
  480000    1.1614568    -5.991991    234.41158  0.040696455  0.041528435            2 
  481000    1.1691373   -5.9749534     235.1282  0.040736002  0.041517475            4 
  482000    1.1897983   -6.0085989    234.76935  0.040589445  0.041506434            2 
  483000    1.1923756   -5.9691462    236.34458  0.040777187  0.041495631            2 
  484000    1.1746037   -5.9994499    236.48107  0.040716437  0.041485573            5 
  485000    1.1921244   -6.0204321    236.18086  0.040580903  0.041475076            5 
  486000     1.168696    -6.022508    236.71364  0.040588759  0.041464459            4 
  487000    1.1704896   -6.0042142    236.91252  0.040539445  0.041453614            2 
  488000    1.1514576   -6.0099164     237.5708  0.040568785  0.041442606            6 
  489000    1.1701355    -6.018749    237.44687  0.040464701  0.041431237            3 
  490000    1.1661322   -5.9918266    238.95523  0.040638645  0.041420364            4 
  491000    1.1613107   -6.0081477    238.12155  0.040414383  0.041408794            7 
  492000    1.1668128   -5.9899223    239.33401  0.040537603  0.041397132            2 
  493000    1.1888301   -6.0072408    239.67378  0.040512809  0.041386217            6 
  494000    1.1513126    -5.962809    241.50014   0.04073889   0.04137592            4 
  495000    1.1593751   -5.9733737    241.92582  0.040728252  0.041366702            4 
  496000     1.180164   -5.9869218    240.84505  0.040464558  0.041356807            5 
  497000    1.1659785   -5.9795842    242.99929  0.040744348  0.041346639            5 
  498000    1.1571164   -6.0040864     242.2375  0.040535057  0.041337518            4 
  499000    1.1474872   -6.0028807    243.77614  0.040710778  0.041328397            3 
  500000    1.1769716   -5.9749671    243.55318  0.040592196    0.0413192            3 
  501000    1.1566122   -5.9788061    244.59321  0.040684167  0.041310712            5 
  502000    1.1484207   -6.0272005    244.86284  0.040647881  0.041302043            5 
  503000    1.1524609   -6.0297834    245.75222  0.040714417  0.041293639            3 
  504000    1.1706938   -6.0187199     244.8156   0.04047877  0.041285551            3 
  505000    1.1803798   -6.0061413     245.9503  0.040585858  0.041277112            2 
  506000    1.1747108   -6.0281491     246.3777  0.040576038   0.04126912            2 
  507000    1.1782461   -6.0076075    246.97005  0.040593367  0.041260432            4 
  508000    1.1768714   -6.0123407    248.11934  0.040701991  0.041252435            3 
  509000    1.1665721   -6.0093216    248.58732  0.040698645  0.041244735            4 
  510000    1.1698783   -6.0283986    247.85482  0.040499153  0.041237071            4 
  511000    1.1647219   -6.0216817    249.57891  0.040701062  0.041229162            2 
  512000    1.1723437    -5.996582    248.82494   0.04049885  0.041220999            1 
  513000    1.1651894   -6.0408489     249.4357   0.04051912  0.041212557            2 
  514000    1.1711312    -6.016536    250.13516  0.040553689  0.041204245            3 
  515000    1.1652429   -6.0412302    250.97066  0.040610139  0.041196132            4 
  516000    1.1777145   -6.0107703    250.19408  0.040406021  0.041187843            4 
  517000    1.1645333   -5.9910169    251.58045   0.04055133  0.041180046            4 
  518000    1.1621986   -6.0357231     251.4356  0.040449742  0.041171303            4 
  519000     1.157582   -6.0461658    251.67213  0.040409783  0.041161775            4 
  520000    1.1599291   -6.0380346    252.40381  0.040449329  0.041152001            2 
  521000    1.1496143   -6.0258093    252.76404  0.040429309  0.041142609            4 
  522000    1.1568401   -6.0395614    252.52832  0.040314227  0.041133179            4 
  523000     1.195509   -6.0113402    253.96298  0.040465739  0.041123053            4 
  524000    1.1806717   -6.0343356    253.68607  0.040344477  0.041113609            3 
  525000    1.1508304   -6.0261113    253.94404  0.040308578  0.041103222            5 
  526000    1.1681351   -6.0245788    254.42816  0.040308644  0.041092785            4 
  527000    1.1819525   -5.9663747    254.70677  0.040276212  0.041082051            4 
  528000    1.1519355    -6.044248    254.81504   0.04021702  0.041071192            2 
  529000    1.1862222   -5.9875584     254.8204   0.04014184  0.041059941            5 
  530000    1.1574152   -5.9635085    255.15258  0.040118331  0.041048197            7 
  531000    1.1531863   -5.9842473     256.6335  0.040275188  0.041037433            5 
  532000     1.175353   -6.0127021    256.61582  0.040196713  0.041026605            4 
  533000    1.1856422   -5.9973078    257.25533  0.040221284   0.04101563            2 
  534000    1.1775651   -5.9990876    257.62022  0.040202906  0.041004293            2 
  535000    1.1781783   -6.0231973    258.66971  0.040291233  0.040993018            3 
  536000    1.1775459   -6.0046122    258.31898  0.040161533  0.040981916            3 
  537000    1.1440466   -6.0203339    259.39267  0.040253363  0.040972065            5 
  538000    1.1702377   -6.0388999    259.30178  0.040164464  0.040961944            2 
  539000    1.1708138   -6.0112106    259.83596  0.040172536  0.040951216            2 
  540000    1.1605875   -6.0036332    260.52827   0.04020498  0.040940983           11 
  541000    1.1499823   -6.0177917     261.0908  0.040217313  0.040930024            4 
  542000    1.1625058   -6.0106877    261.18497   0.04015759  0.040920241            2 
  543000    1.1874324   -5.9914439    262.72188  0.040319502   0.04091122            2 
  544000    1.1673767   -6.0490072    261.95268  0.040127556  0.040901545            4 
  545000    1.1411311   -5.9892813    263.58952  0.040304208  0.040892093            7 
  546000    1.1860545   -6.0301529    262.93764  0.040130898  0.040882773            4 
  547000    1.1797005   -6.0370226    263.55201  0.040151128  0.040873658            5 
  548000    1.1540783   -6.0478669    264.46957  0.040217392   0.04086451            3 
  549000    1.1478657   -6.0249587     264.0856  0.040085852  0.040854728            4 
  550000    1.1743327   -6.0006118    264.59863  0.040090701  0.040844529            2 
  551000    1.1579024   -6.0076277     265.6327  0.040174335  0.040834673            3 
  552000    1.1866112   -6.0381034    265.91675  0.040144436  0.040825044            5 
  553000    1.1657601   -6.0468129    266.44516   0.04015147  0.040814706            2 
  554000     1.161975   -6.0289002    265.77966   0.03997889  0.040803781            2 
  555000    1.1716766   -6.0528434    265.77291  0.039905843   0.04079288            6 
  556000    1.1764183   -6.0151329    266.00061  0.039868197  0.040780623            3 
  557000    1.1583288   -6.0045996    266.54933  0.039878715  0.040768356            4 
  558000    1.1559641   -6.0144282    265.92445  0.039713926  0.040756269            7 
  559000    1.1896235   -6.0370959    266.60046  0.039743658  0.040743906            3 
  560000    1.1906507   -5.9959335    268.12148   0.03989903  0.040731516            1 
  561000    1.1693975   -6.0286213    268.97816  0.039955163  0.040719948            6 
  562000    1.1959902   -6.0098686     268.5302  0.039817645  0.040708103            4 
  563000    1.1693859   -5.9853909    269.62291   0.03990866  0.040696928            2 
  564000    1.1668137   -6.0461974    270.01911   0.03989644   0.04068564            3 
  565000    1.1668659   -6.0358746     270.8457  0.039947744  0.040674423            2 
  566000    1.1621126   -6.0321448    271.16192  0.039923722  0.040663592            5 
  567000    1.1724696   -6.0492996    271.34475  0.039880181  0.040652514            3 
  568000    1.1710731   -6.0444002    271.17491  0.039785052  0.040642196            5 
  569000    1.1653871   -6.0214445    272.59554  0.039923189  0.040632094            5 
  570000    1.1678282   -6.0146161    273.25296  0.039949263  0.040621184            5 
  571000    1.1921277   -6.0263521     273.1536  0.039864798  0.040610821            4 
  572000    1.1293899   -6.0424253    274.54369  0.039997624    0.0406006            4 
  573000    1.1561619   -6.0257452    272.99052  0.039701937  0.040589325            6 
  574000    1.1725453   -6.0249188    273.70306  0.039736216  0.040578167            2 
  575000     1.138004   -6.0290479    274.32506  0.039757255  0.040567235            4 
  576000    1.1672063   -6.0404207    273.99985  0.039641182  0.040555951            6 
  577000    1.1527811   -6.0455464    275.63948  0.039809284  0.040544763            6 
  578000    1.1712795   -6.0326812    276.25262  0.039828809  0.040533939            7 
  579000    1.1923657   -6.0312867    276.46703  0.039790879  0.040522961            3 
  580000     1.166648   -6.0250699    276.93828  0.039789983  0.040511878            3 
  581000    1.1491975   -6.0173282    277.46065  0.039796422  0.040500328            3 
  582000    1.1532944   -6.0182091    278.11763  0.039822112  0.040489289            2 
  583000    1.1520537   -6.0066779    278.32266  0.039783114  0.040478724            3 
  584000    1.1633674   -6.0171471    278.73468  0.039773784  0.040467679            3 
  585000    1.1644305   -6.0471834    278.79293  0.039714093  0.040456912            2 
  586000      1.18158   -5.9862424    279.48593  0.039744871  0.040446251            6 
  587000    1.1579378   -6.0322717    279.02754  0.039612088  0.040435374            1 
  588000    1.1549716   -6.0548957    279.33324  0.039588045   0.04042379            2 
  589000    1.1587407   -6.0507516    279.73239  0.039577305   0.04041221            4 
  590000     1.131449    -6.034438    280.35019  0.039597485  0.040400313            4 
  591000    1.1602054   -6.0212295    281.54277  0.039698642  0.040389145            3 
  592000    1.1670633    -6.037845    280.94512  0.039547455  0.040378259            6 
  593000    1.1645394   -6.0053215     282.1253  0.039646613  0.040367672            2 
  594000    1.1423153   -6.0210059    283.10404  0.039717177  0.040357457            3 
  595000    1.1490071   -6.0104191     283.2977   0.03967755  0.040347496            3 
  596000    1.1890276   -6.0639069    283.50105  0.039639409  0.040336762            2 
  597000    1.1521424   -6.0438879    285.17754  0.039807027  0.040326412            6 
  598000    1.1441955   -6.0104285    284.46236  0.039640797  0.040315918            6 
  599000    1.1515625   -6.0387401    285.42925  0.039709134  0.040306398            5 
  600000    1.1668267    -6.028683    286.05218  0.039729469  0.040296424            3 
  601000     1.183543   -6.0071907    286.23949  0.039689336  0.040286778            4 
  602000    1.1293611   -5.9987916    286.76969  0.039696801  0.040276606            2 
  603000    1.1694248    -6.007475     287.2536  0.039697844  0.040266822            3 
  604000    1.1384425   -6.0815395    286.53928  0.039533565  0.040256207            7 
  605000    1.1402407    -6.100692    287.62562  0.039617854  0.040245639            4 
  606000    1.1468936   -6.0405309    287.87988  0.039587442  0.040235151            6 
  607000    1.1589589   -6.0421274     289.0664  0.039685117  0.040225911            2 
  608000    1.1387095   -5.9916731     289.5837  0.039690749  0.040216375            4 
  609000    1.1477479   -6.0257942    290.05823  0.039690508   0.04020693            3 
  610000    1.1397526   -6.0305837    290.37544  0.039668776  0.040198169            4 
  611000    1.1410639   -6.0551674    291.20749  0.039717333  0.040188919            4 
  612000    1.1641718   -6.0436051    290.30664  0.039529771  0.040179473            2 
  613000    1.1436795   -6.0871669    290.00712  0.039424568  0.040169332            6 
  614000    1.1597012   -5.9822158    291.96689  0.039626343  0.040160019            3 
  615000    1.1625462   -6.0578405    291.55022  0.039505449  0.040150262            4 
  616000    1.1493123    -6.008053     292.1913  0.039528043  0.040140702            2 
  617000    1.1333893   -6.0710074    292.09184  0.039450545  0.040130927            4 
  618000    1.1767434   -6.0420693     293.1886  0.039534601  0.040121002            5 
  619000    1.1703836    -6.014793    294.45006  0.039640558  0.040111473            3 
  620000    1.1740224   -6.0219606    294.29869  0.039556275  0.040101913            3 
  621000    1.1513161   -6.0527947    293.85745  0.039433367  0.040091982            6 
  622000    1.1482184    -6.035681    294.77099  0.039492362  0.040082353            2 
  623000    1.1558755    -6.054997    295.72245   0.03955624   0.04007263            5 
  624000    1.1646025   -6.0256951    296.95992  0.039658109  0.040063305            5 
  625000    1.1658035   -6.0213634    296.98604  0.039598139  0.040054153            2 
  626000    1.1374973    -6.013936    297.35431  0.039583907  0.040045075            3 
  627000    1.1651608   -6.0511909    296.99341  0.039472808   0.04003625            3 
  628000    1.1468331   -5.9936273    298.59477  0.039622448  0.040027086            2 
  629000    1.1525827   -6.0500631    297.50537  0.039415126  0.040017934            2 
  630000    1.1344581   -6.0268335    298.07551  0.039427977  0.040008442            5 
  631000     1.137266   -6.0229449    299.19111  0.039512825  0.039999523            3 
  632000    1.1603897   -6.0848688    300.03922  0.039562134  0.039990758            7 
  633000    1.1498816   -6.0434015    299.88571  0.039479425   0.03998127            4 
  634000    1.1551112   -5.9921615    300.64963  0.039517565  0.039972364            2 
  635000    1.1505609   -6.0769796    300.52377  0.039438815  0.039963529            4 
  636000    1.1742258   -6.0293363    302.11936   0.03958587  0.039955261            7 
  637000    1.1400904   -6.0410384    301.96428  0.039503438  0.039946787            3 
  638000    1.1522923   -6.0667498    302.19299  0.039471394  0.039938473            6 
  639000    1.1476242   -6.0083059    303.20852   0.03954206  0.039930361            8 
  640000    1.1465166   -6.0551268    302.88753  0.039438481  0.039921484            5 
  641000    1.1339786   -6.0410271    304.02591  0.039524949  0.039912559            5 
  642000    1.1532031   -6.0666007    304.43664  0.039516697  0.039903793            3 
  643000    1.1180543   -6.0299776    305.13282  0.039545466   0.03989614            2 
  644000     1.153052   -6.0164099    306.68697  0.039685166   0.03988853            3 
  645000    1.1534378   -6.0456682    305.75001  0.039502585  0.039881186            2 
  646000    1.1313073   -6.0305311    307.26182  0.039636458  0.039874082            2 
  647000    1.1165161   -6.0422755    307.96108   0.03966526  0.039867637            7 
  648000    1.1644396   -6.0336644    308.99953  0.039737594  0.039861078            5 
  649000    1.1490826   -6.0437233    308.29302  0.039585648  0.039854717            8 
  650000    1.1372114   -6.0474686    309.07916  0.039625533  0.039848177            3 
  651000    1.1413552   -6.0374708    309.50343  0.039618975    0.0398411            5 
  652000    1.1525498   -6.0479371    309.41017  0.039546289  0.039834253            2 
  653000    1.1441791   -6.0477189    310.00982  0.039562253   0.03982705            4 
  654000    1.1640496   -6.0696491    310.65562   0.03958405  0.039819987            5 
  655000    1.1759986   -6.0124432    311.10028  0.039580188  0.039813155            3 
  656000    1.1590603   -6.0555667    309.78986  0.039353386  0.039806173            3 
  657000    1.1681729   -6.0339277    311.44551  0.039503489  0.039798851            4 
  658000    1.1345153    -6.043428    311.51171  0.039451837  0.039790982            6 
  659000    1.1495528   -6.0123003    312.64711  0.039535548  0.039783384            2 
  660000     1.150114   -6.0503541    313.19911  0.039545342  0.039776462            3 
  661000      1.14576   -6.1003772    312.98253  0.039458211   0.03976958            5 
  662000     1.146381   -6.0619478    314.22676  0.039555232  0.039762627            2 
  663000    1.1390852   -6.0397316    315.96135  0.039713593  0.039756206            2 
  664000    1.1462209   -6.0272806    315.07805  0.039542928  0.039749905            4 
  665000     1.141939   -6.0669254    315.25034  0.039505055  0.039743333            6 
  666000    1.1366492   -6.0943769    315.35822  0.039459236  0.039736833            2 
  667000    1.1282202   -6.0538821    316.01104  0.039481639  0.039730151            4 
  668000    1.1297721   -6.0619411    316.93652  0.039537989  0.039722917            6 
  669000     1.167316   -6.0443952    316.44236  0.039417335   0.03971519            2 
  670000    1.1282045    -6.039181    316.29111   0.03933969  0.039707836            2 
  671000    1.1274581   -6.0793488    317.30322  0.039406759  0.039699979            4 
  672000    1.1544451   -6.0732133    317.76838  0.039405801  0.039691706            4 
  673000    1.1628224   -6.0669109    317.77145  0.039347628  0.039683823            4 
  674000    1.1536165   -6.0624458      317.949  0.039311202  0.039675979           13 
  675000    1.1554423   -6.0629965    317.89852  0.039246731   0.03966816            2 
  676000    1.1669109    -6.034567     318.7625   0.03929518  0.039660222            3 
  677000    1.1529613   -6.0552989    321.11561  0.039526786  0.039652939            9 
  678000    1.1524365   -6.0365523    320.22185  0.039358634  0.039645757            4 
  679000    1.1277599   -6.0838984    320.49972  0.039334771  0.039638345            5 
  680000    1.1186213   -6.0362879    321.54258  0.039404728  0.039630699            2 
  681000    1.1476576   -6.0460419    320.96475  0.039276156  0.039623203            5 
  682000    1.1396856   -6.0266076    321.27964  0.039257042  0.039615568            3 
  683000    1.1103427   -6.0382679    322.19357  0.039311075  0.039608232            4 
  684000    1.1472232   -6.0590563    322.88768  0.039338168  0.039600887            8 
  685000    1.1497733   -6.0511064    323.20217  0.039318999  0.039593442            2 
  686000    1.1590472   -6.0843624    323.65287  0.039316432  0.039585644            3 
  687000    1.1602534   -6.0708879     324.0956  0.039312906  0.039578279            6 
  688000    1.1064068    -6.035038    324.14791  0.039262101   0.03957102            2 
  689000    1.1590356    -6.056349    325.01693  0.039310224  0.039563929            2 
  690000    1.1365839   -6.0527706    325.09407  0.039262569  0.039556499            4 
  691000    1.1482616   -5.9938836    325.05885  0.039201501  0.039549318            7 
  692000    1.1477331   -6.0626555    325.86433   0.03924185  0.039541719            4 
  693000    1.1629981   -6.0578563    326.52799  0.039265031  0.039534005            7 
  694000    1.1150492   -6.0444928    326.78411  0.039239207  0.039526011            5 
  695000    1.1408902   -6.0451165    326.89537  0.039196088  0.039518608            4 
  696000    1.1242667   -6.0521602    326.74098  0.039121286  0.039511242            3 
  697000    1.1281539   -6.0796723    327.10294  0.039108434  0.039503249            4 
  698000    1.1440847   -6.0447361    329.75109  0.039368564  0.039495898            4 
  699000     1.150881   -6.0544621     328.4712  0.039159656  0.039488876            6 
  700000     1.145042    -6.060224    328.40677  0.039096045  0.039481871            2 
  701000    1.1497683   -6.0653405    331.01248  0.039350033  0.039474321            3 
  702000    1.1500582   -6.0759153    330.09383  0.039184927  0.039467306            4 
  703000    1.1236294   -6.0652667    331.02403  0.039239454  0.039460462            5 
  704000    1.1132537   -6.0966475    331.00915  0.039181954  0.039453647            5 
  705000    1.1362183   -5.9985333    332.35299  0.039285224  0.039446817            5 
  706000    1.1459601   -6.0389153    332.11268  0.039201213  0.039439982            4 
  707000    1.1284116   -6.0398304    333.00557   0.03925101  0.039432836            7 
  708000    1.1598499   -6.0577216    333.14233  0.039211668  0.039425807            4 
  709000    1.1291794   -6.0537614    333.37525  0.039183739  0.039418383            6 
  710000    1.1384301   -6.0625295      333.692  0.039165728  0.039410722            5 
  711000    1.1342854    -6.044627    333.20638  0.039053725  0.039402959            6 
  712000    1.1451246   -6.0499401    335.19358  0.039231458   0.03939547            4 
  713000    1.1442342   -6.0726271    334.73327  0.039122635  0.039388729            5 
  714000    1.1353194   -6.0612342    334.65786  0.039059041  0.039381767            5 
  715000    1.1319151   -6.0674283    335.79684  0.039137161  0.039374207            4 
  716000    1.1516766   -6.0919642    335.68484  0.039069464  0.039366938            7 
  717000    1.1366419   -6.0672424    336.15254  0.039069333  0.039359438            4 
  718000    1.1719615   -6.0411386    337.25064  0.039142367   0.03935212            3 
  719000    1.1160573   -6.0772543    336.34309  0.038982741  0.039344795            3 
  720000    1.1326596    -6.023205    337.13501  0.039020256   0.03933737            5 
  721000    1.1315757   -6.0598329    338.14371  0.039082722  0.039329992            5 
  722000      1.14593   -6.0835559    338.17362  0.039032043  0.039322777            2 
  723000    1.1563754   -6.0549317    339.82342  0.039168213  0.039315258            3 
  724000    1.1465339   -6.0804276    339.57911  0.039085994  0.039307963            3 
  725000    1.1209791   -6.0819239    339.20055  0.038988569  0.039300858            4 
  726000    1.1429476   -6.0582604     340.7685  0.039114842  0.039293376           10 
  727000    1.1348933   -6.0550127    340.62383  0.039044455  0.039286259            3 
  728000     1.173033   -6.0890806     339.7371   0.03888932  0.039278481            4 
  729000    1.1576248   -6.0716023    341.20601  0.039003888  0.039271196            5 
  730000    1.1110993   -6.0743484    340.94411  0.038920561  0.039263513            6 
  731000    1.1181329   -6.0734898    341.39943  0.038919224  0.039255463            4 
  732000    1.1499413   -6.0985421      342.627  0.039005806  0.039247497            4 
  733000    1.1256274   -6.0574104    342.47976  0.038935853  0.039239767            3 
  734000    1.1652247   -6.0761411    343.21498  0.038966278  0.039232081            2 
  735000    1.1467131    -6.075246     343.9971  0.039001939  0.039224155            5 
  736000    1.1298032   -6.0845592    343.94291  0.038942811  0.039216233            4 
  737000    1.1071061   -6.0610448    344.27623   0.03892766  0.039208452            5 
  738000    1.1402042     -6.03257      344.851  0.038939815  0.039200979            4 
  739000    1.1343692   -6.0500107    345.14858  0.038920679  0.039193479            5 
  740000    1.1187117   -6.0453073    346.07675  0.038972607  0.039186113            5 
  741000    1.1234959   -6.0535554    346.41004  0.038957494  0.039178431            6 
  742000    1.1276449   -6.0451474    346.62797  0.038929466  0.039170983            3 
  743000     1.122617   -6.0801444    345.74968  0.038778564  0.039163107            5 
  744000    1.1340776   -6.0612456    346.90282  0.038855602  0.039155161            3 
  745000    1.1486308   -6.0283709    346.92349  0.038805759  0.039146659            4 
  746000      1.13963   -6.0752758    346.75836  0.038735295   0.03913865            2 
  747000     1.132084    -6.090153    347.18194  0.038730693  0.039130453            4 
  748000     1.164489   -6.0187994    348.11011  0.038782321  0.039122624            5 
  749000    1.1070625   -6.0427104    349.60321  0.038896664  0.039114468            5 
  750000    1.1360121   -6.0834743    348.96154  0.038773504  0.039106421            8 
  751000    1.1547533   -6.0610136    349.57016   0.03878941  0.039098838            7 
  752000    1.1198678   -6.0906718    349.61824  0.038743156  0.039090666            2 
  753000    1.1368519   -6.0312764    350.25996  0.038762722   0.03908286            1 
  754000    1.1252082   -6.0993359    349.46073  0.038622981  0.039074902            5 
  755000    1.1288007   -6.0843347    350.36747  0.038671906  0.039066799            1 
  756000    1.1429425   -6.0743351    350.44405  0.038629194  0.039058508            5 
  757000    1.1068981   -6.0720702    351.65909  0.038711921  0.039050602            4 
  758000     1.140365   -6.0515858    352.79311  0.038785522   0.03904276            5 
  759000    1.1380409   -6.0435631    353.89531  0.038855436  0.039035024            2 
  760000    1.1263653   -6.0745168    352.79157  0.038683286  0.039027048            5 
  761000    1.1334775   -6.0516923     353.8758  0.038751183  0.039019294            6 
  762000    1.1432754   -6.0714856    354.16273  0.038731707  0.039011539            6 
  763000     1.118766   -6.0386071    353.85204  0.038647011   0.03900333           10 
  764000    1.1280199   -6.0720953    354.07253  0.038620477  0.038994998            3 
  765000    1.1244319    -6.063359    355.53005  0.038728764   0.03898686            6 
  766000     1.117184   -6.0775169    355.44792  0.038669269  0.038978954            2 
  767000    1.1279918   -6.0941948    355.43923  0.038617908  0.038970836            2 
  768000    1.0933582   -6.0486326    355.68933  0.038594762  0.038962798            8 
  769000    1.1208606   -6.1031136    356.09973  0.038589047   0.03895445            4 
  770000    1.1303467   -6.0940545    355.61989  0.038487001  0.038945674            6 
  771000    1.1302117   -6.1309939    355.90894  0.038468325  0.038936895            6 
  772000    1.1146878   -6.1112596    356.58837  0.038491836  0.038928319            3 
  773000    1.1239057   -6.0930754     356.6854  0.038452502  0.038919665            3 
  774000    1.1567829   -6.0615948     358.0819  0.038553176  0.038910936            2 
  775000    1.1318125   -6.0789889    357.31822  0.038421314  0.038902103            4 
  776000    1.1486288    -6.052738    358.70079  0.038520273  0.038893331            4 
  777000    1.1267885   -6.0650682     358.8217  0.038483666   0.03888451            5 
  778000     1.144313   -6.0945588     358.6714  0.038418102  0.038875556            3 
  779000    1.1369545   -6.0691438    359.80987  0.038490573  0.038866157            3 
  780000    1.1390994   -6.0602057    359.97665  0.038459044  0.038857153            4 
  781000    1.1445538   -6.0612064    359.64826  0.038374761  0.038848333            3 
  782000    1.1173094   -6.0906379    359.83025  0.038345082  0.038839217            3 
  783000     1.146612   -6.0662293    360.93239  0.038413409  0.038830085            2 
  784000    1.0979167   -6.0708857    361.35975  0.038409837  0.038821102            4 
  785000    1.1371021   -6.1034281    362.14841  0.038444629  0.038812498            2 
  786000    1.1345322   -6.1140793    362.01454  0.038381525  0.038803736            7 
  787000    1.1291028   -6.0912087    362.83693  0.038419836  0.038795128            3 
  788000    1.1228361   -6.0532253    365.11308  0.038611789  0.038787378            4 
  789000    1.1298821   -6.0478834     364.1339  0.038459432  0.038779323            1 
  790000    1.1150426   -6.0957363    363.57576  0.038351874  0.038771353           10 
  791000    1.1125949   -6.1002937    365.10604  0.038464606    0.0387633           13 
  792000    1.1282242   -6.1103369    366.43947  0.038556342   0.03875515            4 
  793000    1.1118447   -6.0734342    366.44583  0.038508389  0.038747106            8 
  794000    1.1397328   -6.1053123     365.4787  0.038358386  0.038739165            6 
  795000    1.1317128    -6.082104     366.9206  0.038461279  0.038731304            6 
  796000    1.1262664   -6.0610735    368.68911  0.038598107  0.038723109            5 
  797000    1.1506011   -6.0554762    367.98863  0.038476435  0.038715146            4 
  798000    1.1043445   -6.0834214    367.48053   0.03837516  0.038707151            3 
  799000    1.1592944   -6.0879594    368.97757  0.038483267  0.038699034            1 
  800000    1.1351202   -6.0720603    368.48505   0.03838386  0.038690824            4 
  801000    1.1290276   -6.0721392     369.6021  0.038452153  0.038682787            3 
  802000    1.0953095   -6.0921834    368.82052  0.038322996  0.038674583            5 
  803000    1.1077568   -6.1179242    368.78752  0.038271847  0.038666293            4 
  804000    1.1149543   -6.1003745    367.85967  0.038128076  0.038657923            5 
  805000    1.1571432   -6.0728376    369.08862  0.038207932  0.038649542            3 
  806000     1.119075   -6.0984272    370.52425  0.038308959  0.038641005            3 
  807000    1.1193807   -6.1113334    370.89291  0.038299557  0.038632435            5 
  808000    1.1140383   -6.0343831    371.43921  0.038308499  0.038624179            4 
  809000    1.1256475   -6.1424401    371.28813  0.038245584  0.038615769            5 
  810000    1.1289627   -6.1146731     371.1933  0.038188611   0.03860709            3 
  811000    1.1384453   -6.0769879    373.31687  0.038359728  0.038598536           11 
  812000    1.1369772   -6.0906212    372.07194  0.038184723  0.038589977            4 
  813000    1.1321229   -6.0899604    372.00973  0.038131379  0.038581435            6 
  814000    1.1113393   -6.0924677     372.7696  0.038162326  0.038573028            4 
  815000     1.160442   -6.0813557    373.08465  0.038147715  0.038564723            5 
  816000    1.1394909   -6.1027677    374.05378  0.038199937  0.038555937            2 
  817000    1.1166355    -6.102139    373.68715  0.038115785  0.038547535            3 
  818000    1.1344711   -6.0982724    374.00654  0.038101726  0.038539155            3 
  819000    1.1456108   -6.0871696    374.39944  0.038095182  0.038530615            5 
  820000    1.1254659    -6.078565    376.87458  0.038300262  0.038522665            5 
  821000    1.1118778   -6.0948905    376.61744  0.038227511  0.038514563            4 
  822000     1.097607   -6.1253435    376.17856  0.038136513  0.038506249            3 
  823000    1.1357868   -6.0696322    376.81304  0.038154419  0.038497827            5 
  824000    1.1197348   -6.0859796    378.63801  0.038292679   0.03848957            3 
  825000    1.1231562   -6.1369569    377.82681  0.038164324  0.038481084            3 
  826000    1.1310661   -6.0827569    378.34523  0.038170423  0.038472476            5 
  827000    1.1319174   -6.0809668    378.06834  0.038096367  0.038464439            4 
  828000    1.1013411   -6.0718041    379.53901  0.038198371   0.03845665            6 
  829000    1.1291081   -6.0632158    379.14946  0.038113134  0.038448418            6 
  830000     1.123902   -6.0671895    380.14338  0.038167006  0.038440204            2 
  831000    1.1326086   -6.1127971    379.96691  0.038103381  0.038431993            4 
  832000    1.1311858   -6.0762598    380.89619   0.03815066  0.038423566            5 
  833000    1.1138158   -6.1275646    380.32311   0.03804753  0.038415536            3 
  834000    1.1122754   -6.0618674    382.31569  0.038201009  0.038407408            2 
  835000    1.1214655   -6.1283656    380.94967  0.038018929  0.038399292            8 
  836000    1.1047464   -6.0950388    383.50762  0.038228431  0.038391388            7 
  837000    1.1082414   -6.1123175    383.58399  0.038190362  0.038383387            3 
  838000    1.1239971   -6.0755921     382.6031  0.038047246  0.038375331            2 
  839000    1.1251313   -6.0837906    383.63048  0.038103941  0.038367297            4 
  840000    1.1195728   -6.0627507    382.92608  0.037988698   0.03835891            5 
  841000    1.1457472   -6.0964434    383.74661  0.038024833  0.038350388            6 
  842000    1.1183302   -6.0605263    384.17699  0.038022267  0.038341629            5 
  843000    1.1033943   -6.1037845     384.1217  0.037971698  0.038333183            3 
  844000    1.1025764   -6.0786081    384.83827  0.037997459  0.038324813            5 
  845000    1.1361422   -6.0803342    385.26541  0.037994616  0.038316537            2 
  846000    1.0986639   -6.1100237    385.76019  0.037998442  0.038307912            5 
  847000    1.1235634    -6.079878     385.2355  0.037901958  0.038299859            6 
  848000    1.1375798   -6.0974167    386.34031  0.037965833  0.038291664            3 
  849000    1.1040198    -6.061661    387.48951  0.038033913  0.038283559            3 
  850000    1.1117161   -6.0933991    387.74662  0.038014375  0.038275259            6 
  851000    1.0972694   -6.1217697    387.39423  0.037935197  0.038267293            3 
  852000    1.1027169   -6.0873056    388.59473  0.038008091  0.038259335            5 
  853000    1.1213153   -6.1016178    389.76081  0.038077453  0.038251606            3 
  854000    1.1128753    -6.137768    388.33901  0.037894126  0.038243755            4 
  855000    1.1064102   -6.1264343    389.36408  0.037949715  0.038235852            4 
  856000    1.1091816   -6.1146305    389.62734  0.037931011  0.038227662            5 
  857000    1.1244268   -6.1282304    389.71391  0.037895168  0.038219406            2 
  858000    1.1159229   -6.1108385    390.79504  0.037956006  0.038211261            3 
  859000    1.1189401   -6.1343583    390.30598  0.037864375  0.038203201            6 
  860000    1.1121393   -6.1156631    392.30869  0.038014408  0.038195526            8 
  861000    1.1307368   -6.1290369    390.71838  0.037816335  0.038187179            4 
  862000    1.1125943   -6.1043585      391.324  0.037831013  0.038179103            5 
  863000    1.0996735   -6.1376749    392.23146  0.037874803   0.03817085            7 
  864000    1.1262043   -6.0788317    392.33022  0.037840492  0.038162371            7 
  865000    1.1314158   -6.0906595    393.48599  0.037908092  0.038153891            3 
  866000    1.1008686   -6.1008203    393.07825  0.037825082  0.038145729           10 
  867000    1.0820552   -6.0944291    393.89393  0.037859855  0.038137442            4 
  868000    1.1128515   -6.1064515     393.5902  0.037787078  0.038129281            6 
  869000    1.1296747   -6.1250336    394.04568  0.037787272  0.038120733            3 
  870000    1.1041745   -6.0657999    396.25346  0.037955312  0.038112594            4 
  871000    1.1073124   -6.1102672    394.79124  0.037771837  0.038104179            3 
  872000    1.0973939   -6.1021441    396.35919  0.037878363  0.038095777            4 
  873000    1.1243158   -6.1068509    396.61584  0.037859474  0.038087686            4 
  874000    1.1250344   -6.1014237    394.93069  0.037655481  0.038079404            3 
  875000    1.1019213   -6.0880159    396.44825  0.037756976  0.038071002            6 
  876000    1.0973658   -6.1150927    396.25447   0.03769544  0.038062661            2 
  877000    1.1005176   -6.1201592    397.19827  0.037742139  0.038054281            2 
  878000    1.1045797   -6.1100079    397.00127  0.037680455  0.038045358            5 
  879000    1.0966026   -6.0936492    397.73715  0.037707352  0.038036712            4 
  880000    1.1220525   -6.0840319    397.66198  0.037657384  0.038028061            3 
  881000    1.1099114   -6.1053582    397.45683  0.037595235  0.038018994            4 
  882000    1.1092649   -6.0846991    398.55783  0.037656635  0.038009813            4 
  883000    1.1271917   -6.1235027    398.36825  0.037596098  0.038000917            3 
  884000    1.1097054   -6.1174381    401.04064   0.03780549  0.037992197            6 
  885000    1.1026379   -6.1119166    398.67278   0.03753981  0.037983723            5 
  886000    1.1017721   -6.1215342    399.51318  0.037576484  0.037975074            4 
  887000    1.0936482   -6.1233999    401.72417  0.037741843   0.03796653            6 
  888000    1.1131894   -6.1020313    401.74197  0.037701011  0.037958397            5 
  889000    1.1276031   -6.0891438    402.85005  0.037762472  0.037949906            4 
  890000    1.1042606   -6.1273787    401.91531   0.03763252  0.037941827            3 
  891000    1.1203129   -6.0918156    404.41004   0.03782361  0.037933714            5 
  892000    1.0971386    -6.106847    403.70363  0.037715212  0.037926055            3 
  893000    1.1040048   -6.1049949    404.31189  0.037729739  0.037918207            4 
  894000    1.0937772   -6.1309261    403.85711  0.037645144  0.037910157            4 
  895000    1.0962189   -6.1077643    404.53094  0.037665823  0.037901952            3 
  896000    1.1073362   -6.1168486    404.92622  0.037660549  0.037894095            3 
  897000    1.0910744   -6.1042414    405.06267  0.037631241   0.03788626            3 
  898000    1.0998103   -6.1397155    405.54561  0.037634151  0.037878409            4 
  899000    1.1073066   -6.1438042     405.0774  0.037548888  0.037870421            4 
  900000    1.0863941   -6.1382942    405.23001  0.037521297   0.03786199            7 
  901000    1.1022099   -6.0997944    406.04678  0.037555196  0.037853636            6 
  902000    1.1356223   -6.0651367    407.43632  0.037641937  0.037845524            6 
  903000    1.1331192   -6.1204992    406.85305  0.037546424  0.037837302            4 
  904000    1.0908246   -6.1270457    406.99667   0.03751813  0.037828976            3 
  905000     1.098025    -6.130801    406.46569   0.03742778  0.037820299            2 
  906000    1.0965419   -6.1151198    407.26074  0.037459597  0.037811546            5 
  907000    1.0894839   -6.1146884     407.2872  0.037420728  0.037802633            2 
  908000    1.1043754   -6.0914928     407.8441  0.037430626  0.037794101            5 
  909000    1.1053261   -6.0929989    408.92885  0.037488893  0.037785672            8 
  910000    1.1185146   -6.1623088    407.24986  0.037293943  0.037776799            3 
  911000    1.0953724   -6.1151666      409.675  0.037474844  0.037767752            9 
  912000    1.1093275   -6.1120299    410.08181  0.037470926  0.037759037            6 
  913000    1.1031344     -6.12536    408.82995  0.037315622  0.037749811           10 
  914000    1.0809204   -6.0949959    408.76427  0.037268807  0.037740761            4 
  915000    1.0802038   -6.1333722    407.96569  0.037155345  0.037731344            3 
  916000    1.1039981   -6.1358714    409.71456  0.037273887  0.037721651            5 
  917000    1.0893532   -6.1332317    409.51263  0.037214888  0.037712124            7 
  918000     1.115735   -6.1126614    409.97326  0.037216164    0.0377026            5 
  919000    1.1273804    -6.125726    411.45407  0.037309944  0.037693011            3 
  920000    1.1207134   -6.1093764    411.15991  0.037242745  0.037683531            2 
  921000    1.1006696   -6.1036745    411.10445   0.03719729  0.037673944            4 
  922000    1.0835357   -6.1281547    411.52413  0.037194878   0.03766448            6 
  923000    1.0826157   -6.1277447    411.50511  0.037152863  0.037654557            4 
  924000    1.0857739   -6.0961773    411.18551   0.03708383  0.037644713            4 
  925000    1.1103359   -6.1532728    412.45801  0.037158379  0.037634712            7 
  926000     1.091139   -6.1096439    412.01763   0.03707862   0.03762507            5 
  927000    1.1170227   -6.1216171    412.90028  0.037117968  0.037615747            4 
  928000    1.1031773   -6.1315941    414.32157  0.037205601  0.037606457            5 
  929000    1.0988507   -6.0994297    413.93814  0.037131157  0.037597184            3 
  930000    1.1049954   -6.0847154    414.91227  0.037178519  0.037588109            5 
  931000    1.1245445   -6.1146805    416.40271  0.037271993  0.037579191            8 
  932000    1.1143893   -6.1622513    415.57583  0.037158068  0.037570493            3 
  933000    1.1045215   -6.1191182    417.15727  0.037259491   0.03756154           12 
  934000    1.0954859   -6.1017003    416.97787  0.037203593  0.037552769            8 
  935000     1.106829   -6.1207487    417.35885  0.037197759  0.037543784            6 
  936000    1.0923313   -6.1029134    416.83148  0.037111065  0.037534902            3 
  937000    1.1197624   -6.1235133    417.64476  0.037143789  0.037525771            3 
  938000    1.1009888   -6.1531037    415.71686  0.036932912  0.037516446            7 
  939000    1.1129585   -6.1572802    418.06392  0.037101874    0.0375071            5 
  940000    1.1202905   -6.1344969    417.92567  0.037050148  0.037497516            4 
  941000    1.1114949    -6.142407    419.28541  0.037131191  0.037488301            5 
  942000    1.1056074   -6.1201008    421.05343   0.03724818  0.037479266            4 
  943000    1.1121151   -6.1530298    420.40858  0.037151695  0.037470338            3 
  944000    1.0774401   -6.1376951    420.47549  0.037118246  0.037461646            6 
  945000    1.1377694   -6.1065599    421.88548  0.037203305  0.037452831            6 
  946000    1.0824553   -6.0958936    421.99839  0.037173924  0.037443905            4 
  947000    1.1295712   -6.1439978     421.9099  0.037126883  0.037435342            3 
  948000    1.0761078   -6.1324262    422.69454  0.037156693  0.037426761            1 
  949000    1.1181218   -6.1419077      421.558  0.037017738  0.037418108            8 
  950000     1.101512   -6.1487709    422.57236  0.037067751  0.037409304            5 
  951000    1.0848696   -6.1062442    423.21633  0.037085203   0.03740061            6 
  952000    1.1068042   -6.1153149    424.35521   0.03714594   0.03739203            6 
  953000    1.1203708   -6.1330852    424.07382  0.037082355  0.037383554            5 
  954000     1.105219   -6.1476622    423.67603  0.037008738  0.037374706            4 
  955000    1.1010024   -6.1191404    423.38315  0.036944428  0.037365857            7 
  956000    1.1167394   -6.1207138    425.52459  0.037092451  0.037357136            3 
  957000    1.1308342   -6.1376435    424.35416  0.036951773  0.037348382            2 
  958000    1.0882819   -6.1341459    425.19833  0.036986633  0.037339655            3 
  959000    1.0983873   -6.0925217    425.29018  0.036956046  0.037330919            5 
  960000    1.0947244   -6.1498342    426.18157  0.036994928  0.037322125            6 
  961000     1.108481   -6.1381722     427.4913  0.037070005  0.037313244            6 
  962000    1.1181649   -6.1430423      427.545  0.037036122  0.037304328            4 
  963000    1.0948819   -6.1279771     426.0497  0.036868267  0.037295292            2 
  964000    1.0787762   -6.1637855    426.38384  0.036858907  0.037286241            3 
  965000    1.0984554   -6.1250672    428.03914  0.036963656  0.037277344            7 
  966000    1.0937981   -6.1472212    428.53103  0.036967825  0.037268472            5 
  967000    1.0992657   -6.1341268    427.08291  0.036804801  0.037259347            6 
  968000    1.0988712   -6.1122176    427.82244  0.036830444  0.037250311            5 
  969000    1.1214105   -6.1374762     427.6559  0.036778113  0.037241167            5 
  970000    1.0632879   -6.1280895    428.99947  0.036855624  0.037231968            4 
  971000    1.0864125   -6.1323226    428.95497  0.036813849  0.037223098            4 
  972000    1.0911394   -6.1225275    430.11231  0.036875198  0.037214105            3 
  973000    1.1024489   -6.1384562    429.90885  0.036819874  0.037205015            3 
  974000    1.1128084   -6.1474142    430.02135  0.036791697  0.037196008            4 
  975000    1.0921473   -6.1151928    429.79521  0.036734634  0.037187122            5 
  976000    1.0910469   -6.1632361    430.33812   0.03674335  0.037178018            3 
  977000    1.1111109   -6.1216102    431.93286  0.036841766  0.037168868            5 
  978000    1.0958281   -6.0986181    433.37539   0.03692701  0.037159982            4 
  979000     1.090023   -6.1216341    432.77359  0.036838065  0.037151011            5 
  980000    1.1141567   -6.1529177     433.1224  0.036830136  0.037142259            4 
  981000    1.0942979    -6.147303    433.27238  0.036805333  0.037133421            5 
  982000    1.0817575   -6.1255688    433.08242  0.036751733   0.03712439            7 
  983000    1.1058823   -6.1369945    433.69789  0.036766522  0.037115521            5 
  984000    1.0836734   -6.1402905     434.6879  0.036812999  0.037106575            3 
  985000    1.0995317   -6.1394335    433.98605  0.036716248  0.037097742            8 
  986000    1.0841607   -6.1483117    435.08174  0.036771615  0.037089076            4 
  987000    1.0749558   -6.1187968    435.62158  0.036779938  0.037080355            4 
  988000      1.07388   -6.1369618    435.90297  0.036766445   0.03707161            4 
  989000    1.0676759   -6.1157282    436.10532  0.036746319  0.037063067            3 
  990000    1.1057809   -6.1518873    436.66466  0.036756284  0.037054795            5 
  991000    1.0908745    -6.126852    437.92613  0.036825272  0.037046322            4 
  992000    1.1092465   -6.1360804    437.69738  0.036768933  0.037038119            4 
  993000    1.0905034   -6.1674122    438.49226  0.036798612  0.037029532            4 
  994000    1.1144759   -6.1863553    439.07327  0.036810301  0.037021156            4 
  995000    1.1069821   -6.1364683    438.80806  0.036751094  0.037012691            7 
  996000    1.0836825   -6.1459726    438.97483  0.036728148  0.037004378            6 
  997000    1.0954816   -6.1378186    439.50569  0.036735681  0.036995963            3 
  998000    1.1221003   -6.1330873    439.75243  0.036719475   0.03698763            5 
  999000    1.1184375   -6.1083911    442.09282  0.036877946  0.036979534            2 
 1000000    1.1003045   -6.1549956    441.04145  0.036753454  0.036970941            3 
 1001000    1.1044417   -6.1525775     440.0631   0.03663529  0.036962432            6 
 1002000    1.1131767   -6.1457871    440.49321  0.036634498   0.03695376            4 
 1003000    1.0848016   -6.1574183    441.19085  0.036655936  0.036945163            4 
 1004000     1.096193   -6.1256802    442.44748  0.036723728  0.036936553            2 
 1005000    1.0796379   -6.1566277    443.50464  0.036774846   0.03692803            8 
 1006000    1.0796776   -6.1235919    442.85467  0.036684449  0.036919551            5 
 1007000    1.0860402   -6.1322876    441.75737  0.036557214  0.036911015            2 
 1008000    1.0939776   -6.1345653    443.49891  0.036664923  0.036902657            6 
 1009000    1.1091578   -6.1684994    443.77189   0.03665113  0.036894401            9 
 1010000     1.106817   -6.1517924    445.84559   0.03678594  0.036886239            5 
 1011000     1.090623   -6.1468643    444.31943  0.036623758  0.036878375            4 
 1012000    1.1013541    -6.143312    446.53142  0.036769715   0.03687079            2 
 1013000    1.0569715   -6.1102225    446.48836  0.036729875  0.036863458            2 
 1014000    1.0702969   -6.1511785     447.5485  0.036780777  0.036856031            3 
 1015000    1.0846072   -6.1481874    447.00822  0.036700182  0.036848581            7 
 1016000    1.1176923   -6.1395898    447.42375  0.036698142  0.036841009            4 
 1017000    1.0959175   -6.1699112    448.11804  0.036718948  0.036833682            6 
 1018000    1.0554389   -6.1239999    449.30781  0.036780272  0.036826099            5 
 1019000    1.1045388   -6.1245955     449.4337  0.036754473  0.036818431            5 
 1020000    1.0770803   -6.1229931      449.053  0.036687336  0.036810676            3 
 1021000    1.0591974    -6.118347    449.42582  0.036681833  0.036803035            8 
 1022000    1.1042158   -6.1507348    448.20532  0.036546422  0.036795168            3 
 1023000    1.0861946   -6.1625226    450.19599  0.036672856  0.036787462            4 
 1024000    1.0952225   -6.1348933    451.51593   0.03674446  0.036779725            3 
 1025000    1.0989414   -6.1560661    449.37911  0.036534887  0.036772242            7 
 1026000    1.1014525   -6.1548142    450.12227  0.036559638  0.036764536            4 
 1027000    1.0827051   -6.1498329    452.08727  0.036683485  0.036756832            5 
 1028000    1.0894282    -6.165874    451.29969  0.036583956  0.036749189            5 
 1029000    1.0570408   -6.1525625     451.6202   0.03657436  0.036741809            5 
 1030000    1.0951568   -6.1323422    453.85242  0.036719451  0.036734399            3 
 1031000    1.0645128   -6.1249676    453.61132  0.036664349  0.036726693            4 
 1032000     1.085248   -6.1649608    454.60038  0.036708687  0.036718952            5 
 1033000    1.0786246   -6.1476166    454.45055  0.036661064  0.036711403            6 
 1034000    1.0888682   -6.1651916    453.90969  0.036582019  0.036703684            7 
 1035000    1.0789524   -6.1768242    453.84815  0.036541719   0.03669599           11 
 1036000    1.0650485   -6.1421782     455.9916  0.036678861   0.03668859            3 
 1037000    1.0752001   -6.1652404    456.29639  0.036667983  0.036681017            4 
 1038000     1.067063   -6.1563879    457.16627  0.036702494  0.036673348            3 
 1039000    1.0791486   -6.1435041    455.24085   0.03651274  0.036665699            6 
 1040000    1.0645478   -6.1495322    456.94822  0.036614441  0.036658209            9 
 1041000    1.0829414   -6.1630515    456.39675  0.036535122  0.036650488            3 
 1042000     1.082609   -6.1445024    458.93572  0.036703112  0.036642991            3 
 1043000    1.1047093   -6.2231715    457.41909  0.036546747  0.036635455            2 
 1044000    1.0951431   -6.1306869    458.43531  0.036592857  0.036627667            7 
 1045000    1.0853218   -6.1500982    457.43524   0.03647809  0.036620126            3 
 1046000    1.0892676   -6.1345764    458.69699  0.036543737  0.036612537            9 
 1047000     1.106125   -6.1629657     456.6656  0.036347151  0.036604815            4 
 1048000    1.1019511   -6.1707844    459.25676  0.036518508  0.036597125            9 
 1049000    1.0903044    -6.170645    459.56422  0.036508121  0.036589612            4 
 1050000     1.090492   -6.1395901    459.15503  0.036440875  0.036582236           17 
 1051000    1.0853891   -6.1758482    460.23789  0.036492062  0.036574819            6 
 1052000     1.099686   -6.1706761    460.86951  0.036507408   0.03656708            2 
 1053000    1.0765488   -6.1478015    462.15636  0.036574578  0.036559706            5 
 1054000    1.0616189   -6.1498294    461.45015  0.036484041  0.036552105            7 
 1055000    1.0795803   -6.1380177    460.65646  0.036386766  0.036544656            3 
 1056000    1.1043168   -6.1364842    461.72889  0.036436939   0.03653711            4 
 1057000    1.0661773   -6.1777043    460.86198   0.03633412  0.036529283            4 
 1058000    1.0918372   -6.1308508    463.11847   0.03647751  0.036521543            6 
 1059000    1.0958856    -6.168226    462.08178  0.036361487  0.036513828            4 
 1060000    1.0769574   -6.1628915    463.17883   0.03641343  0.036505732            7 
 1061000    1.0806843    -6.165447    463.86857  0.036433284  0.036497876            6 
 1062000    1.0776906    -6.131283    463.86588  0.036398767  0.036490072            5 
 1063000    1.0708722   -6.1632866    464.84211  0.036441056  0.036482355            3 
 1064000    1.0990348   -6.1718402    464.31245  0.036365323  0.036474906            4 
 1065000    1.0732508    -6.150137    465.11363  0.036393868  0.036467315            3 
 1066000    1.0777848   -6.1725153    465.51929  0.036391439  0.036459611            6 
 1067000    1.0779344    -6.180995    465.81624  0.036380525  0.036452008            3 
 1068000    1.0598159   -6.1533345    466.41764  0.036393386  0.036444488            3 
 1069000    1.1030119   -6.1683679    466.76331  0.036386289  0.036437172            5 
 1070000    1.0728729   -6.1103167    467.26924  0.036391685  0.036429762            4 
 1071000    1.0913454   -6.1375552    467.52245  0.036377409  0.036422444            4 
 1072000    1.0881511   -6.1532379    467.94442  0.036376277  0.036415073            7 
 1073000    1.0673661   -6.1764986    467.65283  0.036319729  0.036407723            6 
 1074000    1.0930265   -6.1676146    469.56643  0.036434391  0.036400486            4 
 1075000     1.073478   -6.1739453    467.25155   0.03622105  0.036393197           11 
 1076000    1.0753653    -6.172623    469.60436  0.036369607  0.036385817            4 
 1077000    1.0974731   -6.1342845    470.90712  0.036436638  0.036378658            6 
 1078000    1.0748188   -6.1150198    469.98738   0.03633174  0.036371566            4 
 1079000    1.0713133   -6.1959944    468.99657  0.036221545  0.036364453           10 
 1080000    1.0609793   -6.1758381    471.51964  0.036382688  0.036357146            8 
 1081000    1.0338158   -6.1660535    470.12011  0.036241143  0.036349636            6 
 1082000    1.0698368   -6.1636318    470.81694  0.036261317  0.036342032            4 
 1083000    1.0772066   -6.1992733    471.31802  0.036266391  0.036334424            2 
 1084000    1.0851954   -6.1607911    470.79059  0.036192389  0.036326678            4 
 1085000    1.0839598   -6.1885352    472.04375  0.036255281  0.036319078            5 
 1086000    1.0694088   -6.1719867    472.92983  0.036289889  0.036311357            9 
 1087000    1.0951522   -6.1254538    473.21678  0.036278502  0.036303806            3 
 1088000    1.0650388   -6.1638073    472.95159  0.036224846  0.036296246            5 
 1089000     1.078902   -6.1522779      472.829  0.036182201  0.036288836            6 
 1090000    1.0691809   -6.1675426    473.14832  0.036173419  0.036281423            6 
 1091000    1.0836534   -6.1554544    474.24886  0.036224324  0.036273766           15 
 1092000    1.1030945   -6.1546779    474.54334  0.036213625  0.036266146            4 
 1093000    1.0758709   -6.1701319    474.20691  0.036154842  0.036258528            7 
 1094000    1.0830819    -6.175972    474.08981  0.036112874  0.036250786            3 
 1095000      1.04104   -6.2079891    474.05832  0.036077497  0.036242935           11 
 1096000    1.0735846   -6.1886732    475.30267  0.036139193  0.036235319            6 
 1097000    1.0790234   -6.1804839    476.14357  0.036170129  0.036227693            2 
 1098000    1.0752605   -6.1525407    474.85845  0.036039652  0.036219977            7 
 1099000    1.0873202   -6.1805718     475.6243   0.03606493  0.036212267            3 
 1100000     1.068261   -6.1753724    476.01516  0.036061754  0.036204346            3 
 1101000    1.0727481   -6.1839714    476.74209  0.036084021  0.036196552            4 
 1102000    1.0758927   -6.1618415    475.88841  0.035986722  0.036188835            8 
 1103000    1.0663713    -6.134522    479.01479  0.036190299   0.03618115            4 
 1104000    1.0521272   -6.1760103    478.29576  0.036103242  0.036173255            3 
 1105000    1.0897782   -6.1782699     477.6154  0.036019261  0.036165356            5 
 1106000    1.0950407   -6.1404264    479.46536  0.036126082  0.036157643           12 
 1107000    1.0700467   -6.2300084    477.38019  0.035936479  0.036149676            6 
 1108000    1.0789469   -6.1805451    477.97466  0.035948756  0.036141571            3 
 1109000    1.0737716   -6.1536813     477.9738  0.035916276  0.036133615            4 
 1110000    1.0768719   -6.1664645    479.75222  0.036017434  0.036125537            5 
 1111000    1.0774019   -6.1556542    479.47969  0.035964573  0.036117666            4 
 1112000    1.0796741    -6.131809    480.21866  0.035987609  0.036109685            5 
 1113000    1.1062614   -6.1783204    479.74346  0.035919696  0.036101536            4 
 1114000    1.1072294   -6.1726943    479.59624  0.035876439  0.036093319            6 
 1115000     1.078869   -6.1607227    480.14679   0.03588541  0.036085202            5 
 1116000    1.0768236   -6.1639682    480.61792  0.035888435  0.036077065            7 
 1117000    1.0771683   -6.1997835     480.5517  0.035851365  0.036068537            8 
 1118000    1.0925158   -6.1960235    480.72356  0.035832108  0.036060011            5 
 1119000    1.0678519   -6.1643639    482.18662  0.035909042  0.036051774            6 
 1120000    1.0755484   -6.1787946    481.42043  0.035819972  0.036043326            2 
 1121000    1.0738334   -6.1618545    481.13675  0.035766931  0.036035116            4 
 1122000    1.0598866   -6.1725614    481.06425  0.035729668  0.036026967            4 
 1123000    1.0987515     -6.18049    482.20858  0.035782768  0.036018712            3 
 1124000    1.0754429   -6.1537039    483.98123  0.035882357  0.036010723            7 
 1125000    1.0764159   -6.1962442    483.77677  0.035835316  0.036002732            4 
 1126000    1.0967344   -6.1974771    483.08184   0.03575206  0.035994587            4 
 1127000    1.0567482   -6.2216413     484.4226  0.035819477  0.035986452           10 
 1128000    1.0573833   -6.1552015    485.86198  0.035894059  0.035978288            3 
 1129000    1.0943488   -6.1745478    485.18037  0.035811955  0.035970303            7 
 1130000    1.0774063   -6.1605903      484.992  0.035766371   0.03596226            3 
 1131000    1.0768911   -6.1815697    484.65261  0.035709742  0.035954351            6 
 1132000    1.0712199   -6.1605361    486.61264  0.035822485  0.035946191            9 
 1133000    1.0487545   -6.1548736     486.6139  0.035790961  0.035937949            3 
 1134000    1.0817658   -6.1671505    485.93967  0.035709852  0.035929835            6 
 1135000     1.087911   -6.1957488    486.51638  0.035720733  0.035921727            8 
 1136000    1.0750051    -6.198449    487.42023  0.035755592   0.03591367            6 
 1137000    1.0664804   -6.1689706    488.59902  0.035810541  0.035905627            3 
 1138000    1.0554245    -6.195507    487.65068  0.035709628  0.035897462            5 
 1139000    1.0651495   -6.1833396    487.82741  0.035691207  0.035889389            3 
 1140000    1.0534047   -6.2043715    488.07486  0.035677987   0.03588128           16 
 1141000    1.0554044   -6.1750877    488.36584   0.03566797  0.035873092            4 
 1142000    1.0636467   -6.1756761    487.77829  0.035593862   0.03586478            5 
 1143000    1.0502525   -6.1848222    489.42745  0.035682958   0.03585661            5 
 1144000    1.0792426   -6.1460749    488.65428  0.035595446  0.035848146            4 
 1145000    1.0517129   -6.1772114    488.98156  0.035588178  0.035839789            5 
 1146000    1.0700332   -6.1580684    491.34517  0.035728997   0.03583154            5 
 1147000    1.0757225   -6.1894818    488.46067  0.035488279  0.035823077            6 
 1148000    1.0710213   -6.1626977    491.27596  0.035661727  0.035814618            6 
 1149000     1.091037   -6.1998452     490.3331  0.035562308  0.035806274            4 
 1150000    1.0818294   -6.1650991    491.39931  0.035608645  0.035798051            6 
 1151000    1.0599441   -6.1572719    492.68739  0.035670967  0.035790063            3 
 1152000    1.0664357   -6.1851035    490.25301  0.035463904  0.035782043           13 
 1153000    1.0381237    -6.175958    491.83845  0.035547734  0.035773807            8 
 1154000    1.0592669   -6.1974452    491.77426  0.035512295  0.035765573            3 
 1155000    1.0556516   -6.1814327    492.96343  0.035567347  0.035757311            4 
 1156000    1.0745477   -6.1996578     493.7571  0.035593793  0.035749109            3 
 1157000    1.0772195   -6.1734405      494.473  0.035614592  0.035740906            4 
 1158000    1.0284555   -6.1413843    494.35604   0.03557542  0.035732574            2 
 1159000    1.0573613   -6.1665231    493.39876  0.035475896  0.035724328            6 
 1160000     1.056977   -6.1354935    495.16012  0.035571848  0.035716206            4 
 1161000    1.0446977    -6.164118     495.3568  0.035555326  0.035708105            5 
 1162000    1.0551486   -6.1889823    495.48451  0.035533886  0.035699981            6 
 1163000    1.0708745   -6.1968343    495.82962  0.035528061   0.03569212            6 
 1164000     1.057188   -6.1911796    496.42884  0.035540438  0.035684115            4 
 1165000    1.0776994   -6.2015742    495.76294  0.035462299  0.035675951            7 
 1166000    1.0739641   -6.1772735     497.2228  0.035536221  0.035668065            3 
 1167000    1.0627714   -6.1873978    499.06738  0.035637488  0.035660362            3 
 1168000    1.0648542   -6.2065568    497.21968  0.035475148  0.035652682            5 
 1169000    1.0609751   -6.1980287    497.00307  0.035429361   0.03564493            7 
 1170000    1.0974148   -6.2007397    497.96391  0.035467515  0.035637164            3 
 1171000    1.0835883   -6.1544052    499.29967  0.035532285  0.035629383            4 
 1172000    1.0698708   -6.2110476    501.07465  0.035628175  0.035621616            5 
 1173000    1.0721429   -6.2054287    500.04246  0.035524471  0.035613976            3 
 1174000    1.0665517   -6.2064459    500.06744  0.035495985  0.035606422           10 
 1175000    1.0786277   -6.1853584    500.02184  0.035462542  0.035598694           10 
 1176000    1.0764293   -6.1976587    501.25234  0.035519582  0.035590811            6 
 1177000    1.0633448   -6.2120562     500.8717  0.035462454   0.03558312            5 
 1178000     1.059945   -6.1968644    502.00989  0.035512867  0.035575505            2 
 1179000    1.0550505   -6.2039619    501.34672  0.035435872  0.035567554            2 
 1180000    1.0598858   -6.2071209    502.19447  0.035465711  0.035559738            6 
 1181000    1.0512421   -6.1838117    501.40948  0.035380291  0.035551825            4 
 1182000    1.0701251   -6.1483883    503.31285  0.035484549  0.035543845            5 
 1183000    1.0333328   -6.1853997    501.51653  0.035328017  0.035536179            3 
 1184000    1.0717745   -6.1835416    503.01847   0.03540389  0.035528165            3 
 1185000    1.0604036   -6.2225435    503.16827  0.035384548  0.035520342            3 
 1186000    1.0661864   -6.2095384    503.04429  0.035346001  0.035512509            3 
 1187000    1.0601659    -6.202697     504.7514  0.035436071  0.035504645            5 
 1188000    1.0644413   -6.2051798    503.15408  0.035294197  0.035496744            5 
 1189000    1.0881982   -6.1919059    504.99025  0.035393205  0.035488886            6 
 1190000    1.0403745   -6.1979734    505.27247  0.035383226  0.035480956            6 
 1191000    1.0558822   -6.2111438    506.29071  0.035424763  0.035472998            7 
 1192000     1.045579   -6.1835382    505.48096  0.035338434  0.035464989            5 
 1193000    1.0736767   -6.1855283    506.19089  0.035358402  0.035457029            7 
 1194000    1.0590178   -6.1765916    505.64154  0.035290448  0.035448851            5 
 1195000    1.0496529   -6.1969782    507.07377  0.035360793  0.035440533            4 
 1196000    1.0654163   -6.1690867    505.04285  0.035189719  0.035432381            3 
 1197000    1.0494829   -6.2069517    506.62648  0.035270571  0.035424071            2 
 1198000    1.0506809   -6.1943296    503.45322  0.035020397   0.03541578            8 
 1199000    1.0393713   -6.1951284     506.4777  0.035201397  0.035407183            6 
 1200000    1.0662999   -6.2154219    505.62277  0.035112692  0.035398511            2 
 1201000    1.0810853   -6.1823501    506.55176  0.035147915   0.03538998            4 
 1202000    1.0552218   -6.2204415    507.66423    0.0351958  0.035381375            6 
 1203000    1.0441836   -6.2321174     506.9472  0.035116874  0.035372735            6 
 1204000    1.0636951   -6.1971142    507.71149  0.035140607  0.035364141            5 
 1205000    1.0405066   -6.2378645    507.08244  0.035067942  0.035355429            3 
 1206000    1.0787319   -6.2215706    507.63006  0.035076704  0.035346834            6 
 1207000     1.056287    -6.192765    508.68454  0.035120446  0.035338357            2 
 1208000    1.0366863   -6.1759926    509.34208  0.035136733  0.035330013            3 
 1209000    1.0515342   -6.1974605    508.21244  0.035029807  0.035321867            5 
 1210000    1.0693253   -6.2254587    510.25005  0.035141188  0.035313588            7 
 1211000    1.0569453   -6.2083801    511.05101  0.035167287  0.035305325            6 
 1212000      1.04785   -6.2174568    509.80113  0.035052333  0.035297032            4 
 1213000    1.0578785   -6.2097878    511.13794  0.035115275  0.035288713            3 
 1214000    1.0607189   -6.1979698    510.84871  0.035066496   0.03528023            5 
 1215000    1.0537736   -6.1780332    510.66204  0.035024832  0.035271799            5 
 1216000    1.0419404   -6.2284228    510.33353  0.034973515   0.03526325            5 
 1217000    1.0145758   -6.2150385    511.73228  0.035040556  0.035254638            6 
 1218000    1.0447479    -6.212685    511.75659   0.03501345  0.035245915            4 
 1219000    1.0451296   -6.1893618    510.87546  0.034924491  0.035237468            3 
 1220000     1.081816      -6.1915    512.40022  0.035000015   0.03522878            5 
 1221000    1.0448502   -6.1941877    513.26429  0.035030323   0.03522036            6 
 1222000    1.0646495   -6.2161288    511.43557  0.034876948  0.035211612            8 
 1223000    1.0558985   -6.2206735    512.08956  0.034892992  0.035202846            6 
 1224000     1.044411    -6.175425    514.08223  0.035000152  0.035194418            4 
 1225000    1.0551017   -6.1829885    514.42994  0.034995234  0.035185796            5 
 1226000    1.0551753   -6.1655562    514.08886  0.034943506  0.035177194            2 
 1227000    1.0472969   -6.2024614    514.45184  0.034939679  0.035168627            3 
 1228000    1.0546828   -6.1791032    514.92164  0.034943108  0.035159962            5 
 1229000    1.0489022   -6.2152664    515.19066  0.034932917  0.035151354            4 
 1230000    1.0415088   -6.2072769    514.10616  0.034831041  0.035142636            4 
 1231000    1.0390409   -6.2520708    514.80623  0.034850138  0.035133968            5 
 1232000    1.0653246   -6.1868137    512.74051  0.034682123  0.035125163            3 
 1233000    1.0568108   -6.1972243    515.36893  0.034831639  0.035116197            2 
 1234000    1.0598543   -6.2094772    515.61866  0.034820277  0.035107419            5 
 1235000     1.045878   -6.1835661    515.77435  0.034802588  0.035098622            2 
 1236000    1.0270568   -6.2289062    515.85511  0.034779875  0.035089681            4 
 1237000    1.0438116   -6.2328901    515.19181  0.034707074  0.035080664            5 
 1238000    1.0571806   -6.1924505    516.50886  0.034767694  0.035071579            5 
 1239000     1.035281    -6.198032     517.1131  0.034780273  0.035062479            7 
 1240000     1.053409   -6.1733789    517.06778  0.034749179  0.035053843            8 
 1241000    1.0692245   -6.2219692    516.86532  0.034707583  0.035045013            5 
 1242000    1.0573756   -6.1905518    517.35888  0.034712754  0.035036024            4 
 1243000     1.061485   -6.2376232    517.74723  0.034710863  0.035027178            7 
 1244000    1.0502694   -6.2182917    518.20879  0.034713879  0.035018233            4 
 1245000    1.0578163   -6.2421689    518.50359  0.034705729  0.035009459            6 
 1246000    1.0634212   -6.2315007    519.63194   0.03475334  0.035000824            7 
 1247000    1.0502806   -6.2173816    518.58406  0.034655443  0.034992353            7 
 1248000    1.0734865   -6.2237759    519.48508  0.034687839  0.034983695            3 
 1249000     1.045158   -6.2059264    520.14858  0.034704335  0.034975056           13 
 1250000    1.0413876   -6.2169882     520.4091   0.03469394  0.034966578            4 
 1251000    1.0416045   -6.2241592     521.9509  0.034768911  0.034958137           10 
 1252000    1.0734978   -6.2401296    521.55973  0.034715105  0.034949944            4 
 1253000    1.0510229   -6.1808593    523.23294  0.034798679  0.034941685            3 
 1254000    1.0679434   -6.1935304    523.11629  0.034763177  0.034933552            3 
 1255000    1.0485702   -6.2184278    524.15431  0.034804403  0.034925536            6 
 1256000    1.0805661   -6.1925801    525.05237  0.034836277  0.034917659            4 
 1257000     1.047276   -6.2115969    525.32435  0.034826594  0.034909722            5 
 1258000     1.056501   -6.2402809    524.41874   0.03473892  0.034901758            8 
 1259000    1.0431046    -6.213274    526.58883  0.034854966  0.034893894            3 
 1260000    1.0540164   -6.1817819    527.69161  0.034900239  0.034886238            6 
 1261000    1.0345202   -6.2046027     526.8263  0.034815378  0.034878491            7 
 1262000    1.0501888   -6.2113162    526.40604  0.034760039  0.034870595            9 
 1263000    1.0620108   -6.1908683    527.77248  0.034822676  0.034862684            5 
 1264000    1.0458983   -6.2036645    527.97539  0.034808504  0.034854866            6 
 1265000    1.0413207   -6.1929837     528.3458  0.034805389  0.034847151            3 
 1266000    1.0603043   -6.2039305    527.65851  0.034732656  0.034839348           10 
 1267000    1.0563471   -6.1916632    528.99195  0.034792946  0.034831449            9 
 1268000     1.043066   -6.2064903    527.23152  0.034649811  0.034823461            6 
 1269000    1.0465559   -6.2184947    528.23125  0.034688157  0.034815468            7 
 1270000    1.0691399    -6.202055    529.41368   0.03473843  0.034807501            2 
 1271000     1.051525   -6.2185005    527.70787  0.034599257  0.034799407           21 
 1272000    1.0626205    -6.189491    529.32643  0.034678094  0.034791329            6 
 1273000    1.0481444   -6.1946125    529.52165  0.034663632  0.034783152            5 
 1274000    1.0236375   -6.1955009    528.64558  0.034579119  0.034774992            5 
 1275000    1.0265166   -6.2066017    529.45152  0.034604675  0.034766774           10 
 1276000    1.0400064   -6.2365981    527.96408  0.034480413  0.034758496            2 
 1277000    1.0556087   -6.2121946    530.22044  0.034600655   0.03475015            5 
 1278000     1.061327   -6.2082164    529.87872  0.034551299   0.03474198            7 
 1279000    1.0685124   -6.2287435    529.60473  0.034506433  0.034733774            7 
 1280000    1.0589802   -6.2270239    530.89833  0.034563693  0.034725528            8 
 1281000    1.0171784   -6.2408176    532.02369   0.03460992  0.034717272            8 
 1282000    1.0361156   -6.2721679    532.49579  0.034613611  0.034708999            4 
 1283000    1.0255873   -6.2072049     530.5028  0.034457183  0.034700656            7 
 1284000    1.0320322    -6.257259    530.92029  0.034457444  0.034692339            8 
 1285000    1.0680136   -6.2303768    531.75225  0.034484582  0.034683814            5 
 1286000      1.04935   -6.2290145    531.64573  0.034450864  0.034675434            4 
 1287000    1.0436837   -6.1909395    531.83616  0.034436426  0.034667011            9 
 1288000    1.0447495   -6.2239333    533.07603  0.034489909  0.034658545            6 
 1289000    1.0357863   -6.2007477    535.36063   0.03461085  0.034650256           10 
 1290000    1.0446298    -6.222925    534.37984  0.034520662  0.034641815            4 
 1291000    1.0353097   -6.2288714      536.271  0.034615995  0.034633425            3 
 1292000    1.0324479   -6.2628856    533.14114  0.034387329  0.034625184            6 
 1293000    1.0390974   -6.2409997      533.165  0.034362271  0.034616675           15 
 1294000    1.0467192   -6.2169454    533.84801  0.034379702  0.034608196            3 
 1295000    1.0272505   -6.2388564    534.17603  0.034374262  0.034599676            9 
 1296000    1.0397714   -6.2138372    535.04166  0.034403399  0.034591074            9 
 1297000    1.0537936   -6.2330603       534.63  0.034350424  0.034582391            7 
 1298000    1.0352207   -6.2034371    535.47991  0.034378525  0.034573974            7 
 1299000    1.0562879   -6.2377892     535.8337  0.034374756  0.034565351            4 
 1300000    1.0527268   -6.2067921    536.82054  0.034411573  0.034556983            6 
 1301000    1.0393363   -6.2210383    535.73275  0.034315447  0.034548432            6 
 1302000     1.026902   -6.2450776    534.85694  0.034233035  0.034539945            5 
 1303000    1.0357271   -6.2562404    535.92141   0.03427484  0.034531312            6 
 1304000    1.0359056   -6.1750273     537.1095  0.034324482  0.034522839            8 
 1305000    1.0511955   -6.2279605    538.46787  0.034384921  0.034514442            7 
 1306000    1.0473026    -6.251953    537.04845  0.034268023  0.034505816            3 
 1307000    1.0437894   -6.2186828    537.23779  0.034253876  0.034497135            8 
 1308000    1.0500092   -6.2313119    538.55835  0.034311821  0.034488418           10 
 1309000    1.0442777    -6.232081    538.64481  0.034291113  0.034479792            9 
 1310000    1.0313862   -6.1861379     538.9961  0.034287284   0.03447116            5 
 1311000    1.0470728   -6.2186367    538.46007  0.034227057  0.034462595            9 
 1312000    1.0627953   -6.2462752     538.2515  0.034187723  0.034453894            8 
 1313000     1.030817   -6.2286314    539.25036   0.03422508  0.034445357            3 
 1314000    1.0374005   -6.2171599    537.58709   0.03409355  0.034436767            3 
 1315000    1.0395982    -6.248981    539.73905  0.034203996  0.034428082            5 
 1316000    1.0539023   -6.2247335    539.56205  0.034166797  0.034419479            5 
 1317000    1.0565969    -6.233343    541.46817  0.034261463  0.034410973            6 
 1318000    1.0552152   -6.2388801    540.14322  0.034151696  0.034402343            6 
 1319000    1.0406598   -6.2255447    540.45824  0.034145706  0.034393551            4 
 1320000    1.0425169    -6.255612    540.41537  0.034117132  0.034384816            6 
 1321000    1.0496759   -6.2066494    542.12023  0.034198854  0.034376189            5 
 1322000    1.0604519   -6.2235034    540.48665  0.034070011  0.034367554            6 
 1323000    1.0623203   -6.2532609    540.55496  0.034048561  0.034358777            4 
 1324000    1.0427358    -6.246955    540.40314  0.034013289  0.034349966            5 
 1325000    1.0432951   -6.2234083    542.81092  0.034139052  0.034341175            5 
 1326000    1.0536892   -6.2750254    542.62737   0.03410177  0.034332582            5 
 1327000    1.0445825   -6.2367402    542.16859  0.034047261  0.034323866            6 
 1328000    1.0299554   -6.2441702    541.77412   0.03399687  0.034315115            7 
 1329000    1.0551108   -6.2264886    543.36948  0.034071324   0.03430618            5 
 1330000    1.0223098   -6.2522965    542.88729  0.034015495  0.034297373            9 
 1331000     1.034307   -6.2139378    544.21012   0.03407276  0.034288493            7 
 1332000    1.0300016   -6.2548671    543.34945  0.033993334  0.034279754            6 
 1333000    1.0300008   -6.2159998    542.64128  0.033923561  0.034270953           16 
 1334000    1.0487171   -6.2266597    543.29476  0.033938953   0.03426196            5 
 1335000    1.0490106    -6.239761    543.37858  0.033918763  0.034252902            4 
 1336000    1.0281802   -6.2579885    543.89052  0.033925307  0.034243827            6 
 1337000    1.0301945   -6.2457887    543.84376  0.033897018  0.034234785            4 
 1338000    1.0322436   -6.2640051    544.32951  0.033901937  0.034225654            4 
 1339000    1.0446969   -6.2486822    544.06479  0.033860144  0.034216476           11 
 1340000    1.0297271   -6.2177914    543.90678  0.033825048  0.034207399            7 
 1341000    1.0350545   -6.2611595    544.62928  0.033844723  0.034198279           16 
 1342000    1.0427172   -6.2439486    542.87433  0.033710527  0.034189116           10 
 1343000    1.0505808    -6.272012    545.96181  0.033877005  0.034180066            3 
 1344000    1.0213037   -6.1999912    548.24652   0.03399346  0.034171126            5 
 1345000     1.025788      -6.2592    546.96273  0.033888645  0.034162146            9 
 1346000    1.0201786   -6.2541799    546.90498  0.033859892  0.034153319            4 
 1347000    1.0536779   -6.2328779    547.19205  0.033852515  0.034144359            5 
 1348000    1.0396011   -6.2065091    547.10675  0.033822128  0.034135443            5 
 1349000    1.0294548   -6.2315478     549.1065  0.033920589  0.034126434            5 
 1350000    1.0264515    -6.244288    546.24109  0.033718586  0.034117487            5 
 1351000    1.0052413   -6.2604556    548.24156  0.033817022  0.034108458           15 
 1352000    1.0303017   -6.2173846    549.87872  0.033892919  0.034099559            8 
 1353000    1.0126072   -6.2545228    547.31712  0.033710096  0.034090594            7 
 1354000    1.0312615   -6.2626562    548.18456  0.033738587  0.034081455            7 
 1355000    1.0475503   -6.2183714    548.96439  0.033761648  0.034072444            3 
 1356000    1.0325223   -6.2441679     549.2258  0.033752815  0.034063382            4 
 1357000    1.0437729   -6.2490677    548.87003  0.033706094  0.034054217            6 
 1358000    1.0582116   -6.2216843    548.33684  0.033648554  0.034044924           11 
 1359000     1.033757   -6.2749383      549.955  0.033723019  0.034035745           10 
 1360000    1.0525673   -6.2258339    549.42073  0.033665486  0.034026539            8 
 1361000    1.0353991   -6.1772058    549.85496  0.033667338  0.034017387            4 
 1362000    1.0394878   -6.2720268    549.73693  0.033635397  0.034008278           14 
 1363000    1.0454468   -6.2575138    549.54998  0.033599289  0.033998984            3 
 1364000    1.0378942   -6.2379776    550.52849  0.033634438  0.033989903            6 
 1365000    1.0126503   -6.2181101     551.0929  0.033644255  0.033980699            6 
 1366000      1.03871   -6.2228625    550.66854  0.033593737  0.033971625            6 
 1367000    1.0204421   -6.2393073    551.41028  0.033614379  0.033962491           18 
 1368000    1.0359561   -6.2483118    551.00703  0.033565243  0.033953257            5 
 1369000    1.0633522   -6.2534588    550.97866  0.033538998  0.033944056            6 
 1370000    1.0119682   -6.2365481    553.59543  0.033673688  0.033934839            8 
 1371000    1.0133832   -6.2482848    552.09071  0.033557665  0.033925496            4 
 1372000    1.0214834   -6.1984361    553.45037   0.03361579  0.033916268            4 
 1373000    1.0428799   -6.2057525    552.92396  0.033559356  0.033907071            5 
 1374000    1.0209882    -6.229266    553.00807  0.033540033  0.033897876            7 
 1375000    1.0367331   -6.2383407    554.15274  0.033585015  0.033888769           13 
 1376000    1.0467659   -6.2294387    556.01582  0.033673439  0.033879913            9 
 1377000    1.0324896   -6.2162359     554.9089  0.033581996  0.033871003            5 
 1378000    1.0449581   -6.2168015    556.19713  0.033635531  0.033862058            3 
 1379000     1.007411   -6.2615234    555.44144  0.033565472   0.03385314            8 
 1380000    1.0158895   -6.2512296    554.53665  0.033486512  0.033844063            6 
 1381000    1.0336547   -6.2320372     557.1546  0.033620239  0.033834934            4 
 1382000    1.0506978   -6.2549088    555.36774  0.033488166  0.033825989            5 
 1383000    1.0229723   -6.2320301    556.41211  0.033526881  0.033816964            4 
 1384000    1.0329906   -6.2468908    557.45409  0.033565395  0.033808087            5 
 1385000    1.0406601   -6.2628339     556.7998  0.033501793  0.033799198            7 
 1386000    1.0264823   -6.2599419    556.41813  0.033454674  0.033790284            3 
 1387000    1.0125944   -6.2315468     557.6703  0.033505786  0.033781303            6 
 1388000    1.0176721   -6.2496802    558.01683  0.033502451  0.033772356           11 
 1389000    1.0412304   -6.2431541    558.77194  0.033523634   0.03376329            3 
 1390000    1.0321549   -6.2484758    558.29995   0.03347122   0.03375415            4 
 1391000    1.0218552   -6.2424355     558.6549  0.033468422  0.033745147            3 
 1392000    1.0244953   -6.2210805    559.13446  0.033473088  0.033736144            7 
 1393000   0.99726278   -6.2347604    558.06857  0.033385294   0.03372721            4 
 1394000    1.0282036   -6.2420467    558.87603  0.033409615   0.03371834            4 
 1395000    1.0443375   -6.2472096    559.98126  0.033451688  0.033709391            6 
 1396000    1.0322041   -6.2319006     560.8218  0.033477901   0.03370064            3 
 1397000    1.0349694   -6.2449802    561.28687  0.033481679  0.033691948            3 
 1398000    1.0421557   -6.2376112    560.80255   0.03342886  0.033683179           20 
 1399000    1.0119366   -6.2553517    562.17789  0.033486889  0.033674413           13 
 1400000    1.0171975   -6.2704286    562.23599  0.033466428  0.033665783            6 
 1401000    1.0188852   -6.2674316    562.19046  0.033439832  0.033657319            5 
 1402000    1.0310593   -6.2840217     562.5693  0.033438498  0.033648781            3 
 1403000    1.0429952   -6.2620082    561.95607  0.033378241  0.033640279            4 
 1404000    1.0360337   -6.2254776    565.22387  0.033548425  0.033631971            6 
 1405000    1.0232387    -6.264479    564.27096  0.033468029  0.033623608            5 
 1406000    1.0171053   -6.2438602    564.50628  0.033458172  0.033615206            6 
 1407000    1.0398842   -6.2698102    565.13551   0.03347166  0.033606839            4 
 1408000    1.0322422   -6.2844706    564.93459  0.033435996  0.033598565            3 
 1409000   0.99048362   -6.2622479    566.08356   0.03348022  0.033590089            3 
 1410000     1.027383   -6.2406301    564.79509  0.033380325  0.033581615            6 
 1411000    1.0166851   -6.2825732    564.46258  0.033337029  0.033573149           14 
 1412000    1.0264563   -6.2523813    565.41695  0.033369744  0.033564631            8 
 1413000    1.0228579   -6.2880602    567.34287  0.033459712  0.033556277            4 
 1414000    1.0287849   -6.2548814    566.43718  0.033382672  0.033547937           14 
 1415000    1.0285105   -6.2775243    565.53977  0.033306229  0.033539438           14 
 1416000    1.0059895   -6.2406069    567.60191  0.033404067  0.033530889            4 
 1417000    1.0204579   -6.2553164    567.38308  0.033367624   0.03352234            7 
 1418000    1.0359317   -6.2497825    567.76285  0.033366411  0.033513901            4 
 1419000      1.03588   -6.2822657    566.11267  0.033245987  0.033505311            4 
 1420000    1.0081292    -6.207116    568.40126  0.033356881  0.033496856            5 
 1421000     1.018483    -6.282593    566.48164  0.033220833  0.033488367           10 
 1422000    1.0268574   -6.2888144    568.80853  0.033333833  0.033479659            9 
 1423000    1.0422366    -6.247645    569.84572  0.033371148  0.033471087            5 
 1424000    1.0023886   -6.2623071    570.22686  0.033370018  0.033462734            4 
 1425000    1.0166485    -6.246504    569.42202  0.033299533  0.033454345            8 
 1426000    1.0003083   -6.2457543    570.93015  0.033364315  0.033445961            5 
 1427000    1.0337229   -6.2696096    568.82656  0.033218089  0.033437642            3 
 1428000    1.0332189   -6.2461482    570.67593   0.03330275  0.033429229            3 
 1429000    1.0201435   -6.2632448    569.57846  0.033215446  0.033420866            8 
 1430000    1.0375315   -6.2669492    570.50184  0.033246028  0.033412413            6 
 1431000     1.020175   -6.2561718    568.99034  0.033134774  0.033403781            9 
 1432000    1.0074371   -6.2992522     569.8823  0.033163541  0.033395291           15 
 1433000    1.0535254   -6.2409532    571.65273  0.033243355  0.033386762            9 
 1434000    1.0174551   -6.2484994    569.34428  0.033086023    0.0333782            3 
 1435000    1.0239684   -6.2578119    571.24356  0.033173262  0.033369435            4 
 1436000    1.0277987   -6.2626882    571.98804  0.033193363  0.033360781           11 
 1437000    1.0215961   -6.2758307    571.51134   0.03314262  0.033352115           10 
 1438000    1.0306902   -6.2415174    571.24747  0.033104281  0.033343448            3 
 1439000    1.0277656   -6.2860006     571.5167  0.033096867   0.03333465            5 
 1440000    1.0134437   -6.2367365     574.2054  0.033229479  0.033326071            6 
 1441000    1.0124465   -6.2662263    572.89429  0.033130597  0.033317442            8 
 1442000    1.0215231   -6.2352358    573.50555  0.033142947   0.03330897            6 
 1443000    1.0311968   -6.2712055    573.04228  0.033093225  0.033300294            3 
 1444000    1.0192337   -6.2593682     573.9722  0.033123973    0.0332917            9 
 1445000   0.99855992    -6.224399    575.52723  0.033190728  0.033283212            6 
 1446000     1.009065   -6.2743533     572.5652  0.032997072  0.033274739           17 
 1447000    1.0182586   -6.2893897    573.68986  0.033039038  0.033266019            4 
 1448000    1.0034509   -6.2393065    573.26833  0.032991962  0.033257248            7 
 1449000    1.0158024   -6.2780117    574.97365  0.033067268  0.033248661            4 
 1450000     1.028968   -6.2245839    576.22204  0.033116209  0.033240009           14 
 1451000    1.0244776   -6.2593652    576.04065  0.033082968  0.033231403            5 
 1452000    1.0094349   -6.2746049    574.71862   0.03298431  0.033222733            6 
 1453000    1.0285895   -6.2646524    574.82092  0.032967477  0.033214083            6 
 1454000    1.0306681   -6.2484505    575.66066  0.032992931  0.033205504            4 
 1455000   0.99570585   -6.2667482    575.96079  0.032987445  0.033196856            7 
 1456000    1.0072075   -6.2715639    577.00471  0.033024537  0.033188171            8 
 1457000    1.0033046   -6.2454429    575.77342  0.032931447  0.033179521            7 
 1458000    1.0204644   -6.2551219    577.74417    0.0330215  0.033170782            9 
 1459000    1.0214874   -6.2654814    577.06688  0.032960183  0.033162101            4 
 1460000     1.001712   -6.2718855    575.95013  0.032873866  0.033153216            5 
 1461000    1.0038565   -6.2613148     577.3407  0.032930681  0.033144557            6 
 1462000    1.0053346   -6.2596549    576.93076   0.03288479  0.033135927            5 
 1463000    1.0462888    -6.291062    576.93929  0.032862798   0.03312726            6 
 1464000    1.0195631   -6.2709609    579.17576  0.032967655  0.033118648            5 
 1465000    1.0276098   -6.2636564    578.90982  0.032930024  0.033110165            6 
 1466000    1.0121763   -6.2672351    579.25543  0.032927207  0.033101631            7 
 1467000    1.0130154   -6.2998405    580.25231   0.03296139   0.03309312            6 
 1468000   0.99852804   -6.2717237    581.21904  0.032993815  0.033084697            4 
 1469000    1.0238539   -6.2535964    581.93879  0.033012185  0.033076274            7 
 1470000    1.0155921   -6.2525179    579.48788  0.032850787  0.033067766            6 
 1471000    1.0152345   -6.2829151    580.67591  0.032895757  0.033059396            7 
 1472000    1.0137185   -6.2724225    578.92394  0.032774227  0.033050871            5 
 1473000    1.0030809   -6.2869864    579.13935  0.032764163  0.033042345            8 
 1474000    1.0220852   -6.2704226     582.4936   0.03293157  0.033033817            6 
 1475000   0.98911797   -6.2699852    581.72907  0.032866049  0.033025354            4 
 1476000    1.0141804   -6.2627974    581.83186  0.032849585   0.03301691            4 
 1477000    1.0173377   -6.2986211     582.6353  0.032872675  0.033008529            7 
 1478000   0.98707088   -6.2667691     580.7139  0.032742101  0.032999969            6 
 1479000    1.0044738   -6.2557674    584.85163    0.0329531  0.032991516            3 
 1480000    1.0109498   -6.2748979    584.42628  0.032906885  0.032983169           14 
 1481000    1.0047876    -6.265957    583.44642  0.032829531  0.032974723            2 
 1482000    1.0275926   -6.3425793     583.5535    0.0328134  0.032966286           11 
 1483000    1.0093407   -6.2745143     583.2637  0.032774989  0.032958013           14 
 1484000    0.9926323   -6.2912307    585.10725  0.032856427  0.032949667            4 
 1485000    1.0240335   -6.2644437    584.70674  0.032811826  0.032941269            7 
 1486000    1.0017363   -6.2731289     586.1515  0.032870766  0.032933054            5 
 1487000    1.0421399   -6.2808074    586.47047  0.032866536  0.032924836            5 
 1488000    1.0183062   -6.2782724    584.63086  0.032741423   0.03291652            8 
 1489000    1.0020967    -6.267749    586.20575  0.032807575  0.032908054            8 
 1490000   0.97799249   -6.2571322    586.32845  0.032792419  0.032899777            7 
 1491000    1.0105907    -6.286073    587.36336  0.032828267  0.032891429            3 
 1492000   0.99597684   -6.2648162    586.71482  0.032770041  0.032883041            6 
 1493000    1.0019812    -6.264918    586.50752  0.032736521  0.032874825            4 
 1494000   0.99539539   -6.3030925    588.12684  0.032804933  0.032866587           12 
 1495000    1.0151257   -6.2868958     588.4566  0.032801371  0.032858387            6 
 1496000    1.0215667    -6.268433    589.35452  0.032829463  0.032850265            8 
 1497000    1.0215193   -6.2990517    589.27009  0.032802833  0.032842119            3 
 1498000   0.98991447   -6.2828162    588.03223  0.032712073  0.032833865            4 
 1499000     1.021396   -6.2669781    589.81845  0.032789552  0.032825703            8 
 1500000    1.0362196   -6.2829713    589.09196  0.032727331  0.032817638            5 
 1501000    1.0029508   -6.2747016    589.59012  0.032733185   0.03280961            6 
 1502000     1.011985   -6.2744553    589.24284  0.032692124  0.032801401            4 
 1503000    1.0183523   -6.2702527    590.70614  0.032751505  0.032793218            9 
 1504000    1.0023997   -6.2748264    589.35868  0.032655069  0.032784944           20 
 1505000    1.0088427   -6.2712904     590.2387  0.032682099  0.032776581           12 
 1506000    1.0258887   -6.3159553    589.76387  0.032634123  0.032768222            5 
 1507000    1.0122579   -6.2843867    590.60204  0.032658817  0.032759981            6 
 1508000    1.0144075   -6.3183759    592.17338  0.032723993   0.03275169           13 
 1509000    1.0228672   -6.2648497    591.61716  0.032671591  0.032743487            4 
 1510000    1.0202823    -6.308429    592.04029  0.032673305  0.032735246            7 
 1511000    1.0027312   -6.3028082    591.28723  0.032610149  0.032727137            8 
 1512000    1.0009076   -6.2611283    592.63482  0.032662854  0.032719016            8 
 1513000     1.024976   -6.3098737    592.73332  0.032646691  0.032710854            5 
 1514000   0.99813919   -6.2718816    591.95355  0.032582208  0.032702641            6 
 1515000   0.98657077   -6.2603607    592.87391  0.032611326  0.032694612            6 
 1516000    1.0183779   -6.3218669    593.14349  0.032604633  0.032686547            5 
 1517000    1.0196063   -6.2801683    591.94058  0.032517061  0.032678418           11 
 1518000    1.0165963   -6.3002112    594.12904  0.032615779  0.032670335            6 
 1519000    1.0170694   -6.2852281    593.75277  0.032573665  0.032662186            9 
 1520000    1.0024625   -6.2817524    594.31511  0.032583065   0.03265405            5 
 1521000    1.0367711   -6.2813884    596.09802  0.032659326  0.032645856            4 
 1522000    1.0243923   -6.2506712    596.49019   0.03265934  0.032637814            5 
 1523000    1.0221893   -6.3215203    596.09107  0.032616058  0.032629853           14 
 1524000    1.0186389   -6.2763814    594.71408  0.032519361  0.032621939            5 
 1525000    1.0184966   -6.3009825    595.24233  0.032526903  0.032613998            9 
 1526000    1.0027556   -6.3338426    595.96208  0.032544893  0.032606035            8 
 1527000    1.0135113   -6.2673931    596.75287  0.032566736  0.032597893           11 
 1528000    1.0255049   -6.3172255    595.83027  0.032495106  0.032589844            9 
 1529000    1.0164433   -6.2805609    595.81009  0.032472754  0.032581575            4 
 1530000    1.0095479   -6.2841502    595.26292  0.032421728  0.032573339            7 
 1531000    1.0129847   -6.3022503    596.42262  0.032463674  0.032565058            7 
 1532000    1.0175533   -6.3167808    595.60888   0.03239822  0.032556726            3 
 1533000   0.99662557   -6.3058811    597.92544  0.032503014  0.032548528            5 
 1534000     1.005417   -6.2836901    597.56215   0.03246209  0.032540379            6 
 1535000   0.97829288   -6.3067014    597.15788  0.032418995  0.032532182            7 
 1536000   0.99509043   -6.2995348    596.74314  0.032375387  0.032523906           12 
 1537000   0.99482469    -6.278817     597.8279  0.032413137  0.032515652            4 
 1538000    1.0189225   -6.3058964    597.79768  0.032390425  0.032507512            4 
 1539000    1.0177901   -6.2817842    597.52061  0.032354376  0.032499312            6 
 1540000    1.0175353   -6.3138043    598.23953  0.032372269  0.032491182            5 
 1541000     1.004641   -6.2685299    599.38764  0.032413348  0.032482985            4 
 1542000    1.0097049    -6.290448    599.37049  0.032391401  0.032474824            5 
 1543000    1.0070776   -6.2884987    600.18051  0.032414156  0.032466676            4 
 1544000    1.0055005   -6.2581873    602.40833  0.032513403  0.032458559            3 
 1545000    1.0097518   -6.3079357    601.54618  0.032445857  0.032450429            4 
 1546000   0.99589912   -6.2878695    599.99127  0.032341056  0.032442377            5 
 1547000    1.0017863   -6.2819451    602.41543  0.032450734  0.032434255            7 
 1548000    1.0184434    -6.305195    601.44611   0.03237759  0.032426213            4 
 1549000    1.0020849   -6.2703349    601.09634  0.032337871  0.032418296            6 
 1550000   0.99273451   -6.2908617    602.74653  0.032405727  0.032410148           13 
 1551000     1.005793   -6.3131245    602.02914   0.03234629  0.032402146            5 
 1552000    1.0012371   -6.2971866    602.23232  0.032336357  0.032394124           10 
 1553000    0.9871871   -6.3018484    603.38482  0.032377378   0.03238608            4 
 1554000    1.0187425   -6.2899578    602.36243  0.032301718   0.03237804            5 
 1555000    1.0176099   -6.2604508    603.23568  0.032327743  0.032370014            5 
 1556000    1.0170325   -6.3197292    602.93101   0.03229065  0.032361949            8 
 1557000   0.98683672   -6.2959664    604.71144  0.032365202  0.032353892            9 
 1558000    1.0078351   -6.3104292    603.83924  0.032297777  0.032345761            3 
 1559000    1.0018174   -6.3154391    603.16112  0.032240812  0.032337717           11 
 1560000    1.0112138   -6.3038446    604.29164  0.032280536  0.032329556            4 
 1561000    1.0121982   -6.3121727    602.72361  0.032176149  0.032321516            6 
 1562000   0.99599743   -6.3407468    602.50803  0.032144048  0.032313289            8 
 1563000   0.97900063   -6.2715123    605.31404  0.032273088  0.032305075            6 
 1564000    1.0082091   -6.2729097    605.55163  0.032265113  0.032296981            3 
 1565000   0.99605706   -6.2932079    605.10307   0.03222061  0.032288835            4 
 1566000    1.0017043    -6.305977      605.548  0.032223712  0.032280491            7 
 1567000    1.0461685   -6.3159075    605.60372  0.032206111  0.032272234            7 
 1568000    1.0080409   -6.2662613    606.38467  0.032227076  0.032264079            3 
 1569000     1.008045   -6.3205421    606.14489  0.032193801  0.032256055            5 
 1570000     1.027118   -6.2974436    605.35462  0.032131349  0.032247853            5 
 1571000    1.0058603   -6.3321899    606.15807  0.032153515  0.032239674            5 
 1572000   0.98839607    -6.323472    605.60931  0.032103971  0.032231362            6 
 1573000    1.0105621   -6.3247551    603.89513  0.031992749  0.032223138            6 
 1574000    1.0140746   -6.3109219    605.69689  0.032067815  0.032214807            7 
 1575000    1.0147042   -6.2948242    606.04605  0.032065929  0.032206531           12 
 1576000   0.97620606    -6.313677    608.73473   0.03218775  0.032198395            6 
 1577000    0.9988386   -6.2838212    608.27863  0.032143238  0.032190325            4 
 1578000    1.0212383   -6.3242075    607.51017  0.032082286  0.032182241            5 
 1579000    1.0062883   -6.3105671    608.84624   0.03213248  0.032174024            6 
 1580000    0.9964855   -6.2961633    610.55769   0.03220241  0.032165842            8 
 1581000   0.97616099   -6.3183138    608.42447  0.032069601  0.032157615            8 
 1582000   0.98770446    -6.334919    607.66038   0.03200908  0.032149242           14 
 1583000   0.99649923   -6.2786432    610.60296  0.032143765   0.03214107            7 
 1584000   0.99331589   -6.2976048    608.69487  0.032023089  0.032132886            6 
 1585000   0.95150116   -6.3152099    610.94071  0.032120963  0.032124812            5 
 1586000    1.0233214   -6.3020127    608.31628  0.031962814  0.032116822            6 
 1587000    0.9916064   -6.2783278    612.22801  0.032148078   0.03210877            3 
 1588000    0.9975179     -6.31814    610.78893  0.032052316  0.032100617            4 
 1589000   0.98599986   -6.2923082    611.79282  0.032084792  0.032092526            5 
 1590000     0.983619   -6.3493506    611.31567  0.032039605  0.032084537            5 
 1591000   0.97055145   -6.2855958    612.85755  0.032100228  0.032076623            8 
 1592000    0.9963057    -6.300082    612.31604  0.032051719  0.032068564            3 
 1593000    1.0162269   -6.3124237    610.96187  0.031960759  0.032060611           10 
 1594000   0.98274829   -6.3237154    613.22677  0.032059116  0.032052588            8 
 1595000    1.0016189   -6.3202644    613.04464  0.032029501  0.032044678            2 
 1596000    0.9889895   -6.3217899     613.3394  0.032024822  0.032036906            6 
 1597000    1.0005948   -6.3117623     611.9571  0.031932639    0.0320289            5 
 1598000   0.99329612    -6.310671    614.22022  0.032030675   0.03202095            6 
 1599000    1.0109861   -6.2757712    615.34824  0.032069431  0.032013032           10 
 1600000   0.99850834   -6.3338251    613.73578  0.031965405  0.032004959            7 
 1601000    1.0031424   -6.2959364    614.53866   0.03198723  0.031996808            5 
 1602000   0.99199481    -6.293357    614.05013   0.03194185   0.03198866            4 
 1603000    0.9821806   -6.3377708    613.32114  0.031884027  0.031980546            4 
 1604000   0.97815805   -6.3157207    613.02699  0.031848867  0.031972334            6 
 1605000   0.99455317   -6.3130988    615.19496  0.031941587  0.031964202            5 
 1606000   0.99094837   -6.3396592    614.82999   0.03190276  0.031956158            3 
 1607000   0.99949751   -6.3072823    613.91118  0.031835261  0.031948008           20 
 1608000    0.9975041   -6.3334172    615.64854    0.0319055  0.031939791            7 
 1609000    1.0101815   -6.3195492    614.53221  0.031827854  0.031931599            7 
 1610000    1.0079879   -6.3045999      615.619  0.031864338  0.031923332            5 
 1611000   0.98160957   -6.3196303    613.78538  0.031749709  0.031914973            2 
 1612000   0.99536762   -6.3052423    614.09033  0.031745778   0.03190654           12 
 1613000   0.99374204    -6.328711    614.49316  0.031746908  0.031898118            8 
 1614000   0.98679668   -6.3097587    614.02727  0.031703184  0.031889716           13 
 1615000    0.9701424   -6.2997079    614.82127  0.031724524  0.031881378            5 
 1616000   0.99354169   -6.3304362    616.78232  0.031806019  0.031873044            4 
 1617000   0.99491718    -6.307735    616.13958  0.031753225  0.031864845            8 
 1618000    0.9726407   -6.3050529    617.60917   0.03180929  0.031856678            6 
 1619000   0.97988165   -6.2984033    617.12143  0.031764537  0.031848475            4 
 1620000   0.99684012   -6.3194926     619.1363  0.031848575  0.031840294            4 
 1621000   0.96225526   -6.3263464    616.18214  0.031677059  0.031832097            9 
 1622000   0.98294968   -6.3347872    618.41572  0.031772283  0.031823933            7 
 1623000   0.99069699   -6.3116405    618.92905  0.031779064  0.031815835            6 
 1624000   0.99488657    -6.303485    618.53849  0.031739455  0.031807822            5 
 1625000    1.0169069   -6.2999519    619.63918  0.031776368  0.031799892            9 
 1626000    1.0009969   -6.3338691    619.20894  0.031734775  0.031791966            8 
 1627000   0.98071103    -6.368152    617.81913  0.031644086  0.031783971            5 
 1628000   0.99054541   -6.3062942    619.38983  0.031705049  0.031776004            5 
 1629000    1.0101276   -6.3158888    620.49516   0.03174213  0.031768019            7 
 1630000   0.99618517    -6.290673    621.02078  0.031749529  0.031760067           11 
 1631000    0.9684261    -6.319825    621.27174  0.031742885  0.031752161           13 
 1632000    0.9896728   -6.3123544    622.74768  0.031798799  0.031744277            5 
 1633000   0.97168095   -6.3224778    621.52631  0.031716999   0.03173642            9 
 1634000     1.001252   -6.3114141    621.29929   0.03168601  0.031728494            5 
 1635000    1.0132403    -6.320314     622.3534  0.031720357  0.031720656            7 
 1636000   0.97516358   -6.3172322    621.90982  0.031678373   0.03171266           18 
 1637000   0.98496788   -6.3527003    623.27366   0.03172845   0.03170464            9 
 1638000    1.0027023   -6.3100169    623.59478  0.031725416  0.031696677            5 
 1639000   0.98122402   -6.2906697    624.59702  0.031757018  0.031688892            4 
 1640000    1.0017377   -6.2866742    625.68524  0.031792949  0.031681149            7 
 1641000    1.0055102   -6.3184322    625.06981  0.031742322  0.031673425            7 
 1642000    0.9818574   -6.3039891    625.50414  0.031745034  0.031665593           10 
 1643000   0.98996631     -6.35757    623.50073  0.031624099  0.031657704            6 
 1644000   0.98529636   -6.3231357    624.67411  0.031664341  0.031649709            8 
 1645000     1.001588   -6.3214119     626.8012  0.031752847  0.031641929            8 
 1646000   0.99393879   -6.3448342    626.68079   0.03172746  0.031634212            5 
 1647000    1.0061343   -6.2967596    625.61431  0.031654235  0.031626548            6 
 1648000    1.0068722   -6.3388907    624.97397  0.031602648  0.031618657            9 
 1649000    1.0012391    -6.335759    624.88087  0.031578778  0.031610835            8 
 1650000   0.97712622   -6.3515624    625.88275   0.03161024  0.031602979            6 
 1651000   0.99454203   -6.3453013    625.20561  0.031556915  0.031595051            6 
 1652000   0.98185881    -6.357995    626.22371   0.03158917  0.031587154           12 
 1653000   0.99818742   -6.3389835    626.24171  0.031570967  0.031579326            5 
 1654000   0.99548626   -6.3290676    627.55287   0.03161794  0.031571467           14 
 1655000   0.98049132   -6.2907122    628.97877  0.031670633  0.031563583            6 
 1656000    0.9925805   -6.3415698    628.28087  0.031616388  0.031555734            7 
 1657000   0.98127602   -6.3109089     628.5099  0.031608826  0.031547817            7 
 1658000   0.98342777   -6.3195251    626.90737  0.031509216  0.031539989            7 
 1659000    1.0006271   -6.3634831    628.36768  0.031563577  0.031532076            5 
 1660000   0.99766264   -6.3433579    627.49678  0.031500842  0.031524318            5 
 1661000   0.97239039   -6.3249912    627.22021  0.031468002  0.031516531            8 
 1662000    0.9919522   -6.2787345    630.05246  0.031591078    0.0315089           11 
 1663000   0.98922136   -6.3631315    627.09184  0.031423724   0.03150127            7 
 1664000   0.99821337     -6.34882    629.90862  0.031545904  0.031493386            7 
 1665000   0.98460632   -6.3558272    628.61596   0.03146226  0.031485467            5 
 1666000    1.0098618   -6.3173208    630.21675  0.031523447  0.031477779            4 
 1667000   0.99054229   -6.3538391    630.59398  0.031523394  0.031470057            6 
 1668000   0.99032667   -6.3280069    632.13479  0.031581474   0.03146227            6 
 1669000    1.0104558     -6.32586    630.37385  0.031474628  0.031454552            6 
 1670000   0.98806471   -6.3436602    631.24364  0.031499183   0.03144684           10 
 1671000   0.98913271     -6.31964    633.56245  0.031595973  0.031439187            4 
 1672000   0.98574947   -6.3264648    631.18524  0.031458595  0.031431514           22 
 1673000   0.98268392    -6.348144    631.44314  0.031452637  0.031423803           12 
 1674000   0.97774187   -6.3450658    632.81589  0.031502185  0.031416103            6 
 1675000   0.97443497   -6.3311588    632.88612  0.031486872  0.031408417            9 
 1676000   0.99277053   -6.3389537    630.63519  0.031356165  0.031400756            9 
 1677000   0.96968968   -6.3127405    633.48279   0.03147897  0.031393023            5 
 1678000   0.99832492   -6.3238814     633.4673  0.031459441  0.031385259            9 
 1679000   0.96396421   -6.3441093    631.91139   0.03136348  0.031377468            9 
 1680000   0.99877277   -6.3121872    633.04719   0.03140115  0.031369693           18 
 1681000   0.96590842   -6.3347099     634.5665  0.031457788  0.031362088            6 
 1682000    1.0033307    -6.338497    633.75455  0.031398858  0.031354448            7 
 1683000   0.96996166   -6.3596023    633.26642  0.031356032  0.031346693            7 
 1684000   0.99109047   -6.3444186    634.04233  0.031375808  0.031338917           17 
 1685000   0.99365593   -6.3455389     634.2185    0.0313659  0.031331179            5 
 1686000   0.98131325     -6.38369     635.5199   0.03141162  0.031323512            6 
 1687000   0.97573032   -6.3452101    636.78398  0.031455443  0.031315929            6 
 1688000    0.9741494   -6.3508778    636.36086  0.031415919  0.031308419            6 
 1689000   0.98276842   -6.3212052    635.54951  0.031357288  0.031300807            3 
 1690000   0.98712909   -6.3378785    636.82278  0.031401518   0.03129317            4 
 1691000   0.97890941   -6.3604167      637.047  0.031393998   0.03128557            8 
 1692000    0.9738168   -6.3567979    637.50804   0.03139815  0.031277987           14 
 1693000   0.99097619   -6.3433431    637.97981  0.031402826  0.031270438           16 
 1694000   0.97974893   -6.3336274    638.57156  0.031413398  0.031262944            4 
 1695000    1.0011841   -6.3315693    637.38571  0.031336564  0.031255498           11 
 1696000   0.95769776   -6.3297046    638.60802  0.031378146  0.031247995            5 
 1697000    0.9528135   -6.3345015    638.07038  0.031333254  0.031240454            9 
 1698000   0.99655012   -6.3417137    639.45506  0.031382757   0.03123295           11 
 1699000   0.97334234   -6.3270744    641.61644  0.031470298  0.031225528            8 
 1700000   0.97727513   -6.3234321    641.37157  0.031439783  0.031218161            7 
 1701000   0.97853668    -6.356743    639.47966  0.031328613  0.031210771            5 
 1702000   0.96738601   -6.3246613    641.12429  0.031390731   0.03120337            4 
 1703000   0.99124494   -6.3237261    639.56453  0.031295974  0.031196019            4 
 1704000   0.97618191   -6.3335872    640.77559  0.031336834  0.031188719            9 
 1705000   0.96013128   -6.3607253    641.08805  0.031333727   0.03118136            8 
 1706000   0.98616188   -6.3687155    640.32618  0.031278145  0.031174007            3 
 1707000   0.96404593   -6.3409498    642.42591  0.031362327  0.031166649           24 
 1708000   0.96664118   -6.3664713    641.52098  0.031299814   0.03115929            3 
 1709000   0.97281293   -6.3601251    641.04209  0.031258148  0.031151958            7 
 1710000   0.99210242   -6.3542419    642.30906  0.031301611  0.031144612            4 
 1711000   0.98275396   -6.3533063    641.91977  0.031264357  0.031137226           10 
 1712000   0.99235159   -6.3587857    644.27253  0.031360617  0.031129942            7 
 1713000   0.97920662   -6.3247647    643.09081  0.031284822  0.031122829            8 
 1714000   0.98065006   -6.3340572     644.2096  0.031320965  0.031115834           11 
 1715000   0.98227771   -6.3539936    645.75577  0.031377832  0.031108696            4 
 1716000   0.99709576   -6.3626576    645.77198  0.031360333  0.031101538            6 
 1717000   0.96995359   -6.3604352    644.44427  0.031277629  0.031094425            9 
 1718000   0.97637743   -6.3657722    644.68605  0.031271151  0.031087278           11 
 1719000   0.97407379   -6.3596229    646.44794  0.031338372  0.031080138            7 
 1720000   0.95460239   -6.3070644    646.91282  0.031342676   0.03107311            4 
 1721000   0.97808377   -6.3264335    646.16073  0.031288046  0.031066011            7 
 1722000   0.99286366   -6.3316359    647.77997  0.031348237  0.031058921            3 
 1723000   0.96932051   -6.3554853    647.57705  0.031320229  0.031051759            4 
 1724000   0.96263026   -6.3499405    646.81542  0.031265247  0.031044639            5 
 1725000   0.98584457   -6.3244556    645.04869  0.031161772  0.031037359            8 
 1726000   0.98555734   -6.3531932    646.29314  0.031203802  0.031030138            9 
 1727000   0.96601261   -6.3509002    646.35603  0.031188768  0.031022846            7 
 1728000   0.96453224   -6.3385307    645.92201  0.031149788  0.031015475            8 
 1729000   0.96686096   -6.3420538    648.94738  0.031277587  0.031008203            4 
 1730000   0.96057289   -6.3374797    646.72922   0.03115266  0.031000846           14 
 1731000   0.99163882    -6.335024    647.53541  0.031173475  0.030993452            7 
 1732000   0.96696874   -6.3630023    646.32161  0.031097075  0.030986143            6 
 1733000   0.96082216   -6.3878209    646.81115  0.031102671  0.030978714           11 
 1734000   0.96594456   -6.3682128    645.97434  0.031044518  0.030971218            7 
 1735000   0.96702516   -6.3722115    647.44396  0.031097213  0.030963839            9 
 1736000   0.95984243    -6.345653    648.30086  0.031120433  0.030956461            9 
 1737000   0.97686226   -6.3681929    647.73869  0.031075546  0.030949113            3 
 1738000    0.9663094   -6.3796824    647.21163  0.031032395  0.030941672           13 
 1739000     0.971967   -6.3640957    647.15093  0.031011641  0.030934216           11 
 1740000   0.96489788   -6.3357852    648.53335  0.031060026  0.030926773            8 
 1741000   0.98215554    -6.361228    648.52893  0.031041974  0.030919247            3 
 1742000   0.97149283   -6.3661752    648.97205  0.031045353  0.030911819            8 
 1743000   0.97522836   -6.3784787     649.4633  0.031051028  0.030904328            8 
 1744000   0.97225709   -6.3586202    649.94557  0.031056267   0.03089686           11 
 1745000    0.9831651   -6.3894011    648.40593  0.030964944  0.030889346            9 
 1746000   0.97965933   -6.3864479    649.43424  0.030996289  0.030881831           13 
 1747000    0.9550005   -6.3252023    648.71083  0.030944039  0.030874372            5 
 1748000   0.98894338    -6.399285    650.13382  0.030994175  0.030866964            6 
 1749000   0.99668105   -6.3402424    649.63574  0.030952723   0.03085945            7 
 1750000   0.97041612   -6.3667922    649.30009  0.030919052  0.030851947            6 
 1751000   0.97876884    -6.386464    649.60434  0.030915874  0.030844324            9 
 1752000   0.95407285    -6.340358    651.15267  0.030971874  0.030836753           11 
 1753000   0.96256595   -6.3410717    652.44048  0.031015425  0.030829265           10 
 1754000    0.9869912   -6.3346185    652.47189  0.030999235  0.030821824            6 
 1755000   0.97302982   -6.3518499     652.1838  0.030967892  0.030814311            9 
 1756000    0.9662423   -6.3656667     651.7572  0.030930011  0.030806815            7 
 1757000   0.96561819   -6.3632466    651.63462  0.030906594  0.030799224            8 
 1758000    1.0046616   -6.3432971    651.70442  0.030892322  0.030791687            8 
 1759000   0.94487495    -6.356455    651.28029  0.030854666  0.030784252           11 
 1760000   0.97331557    -6.339881    653.03382  0.030920162  0.030776661            7 
 1761000   0.97466356   -6.3989202    650.21951  0.030769426  0.030769088            8 
 1762000   0.97325938   -6.3688455    650.74015  0.030776587  0.030761434            6 
 1763000   0.95288703   -6.3571893    652.71715  0.030852579  0.030753697            9 
 1764000   0.99094213   -6.3645151    650.90203   0.03074934  0.030746112           11 
 1765000   0.96920979   -6.3569671    651.28507  0.030750003  0.030738459           11 
 1766000   0.98445928   -6.3912102    652.78809  0.030803515  0.030730818            6 
 1767000   0.97560444   -6.3423999    653.89727  0.030838392   0.03072313            9 
 1768000   0.98615269   -6.3704144    654.40435   0.03084485  0.030715469            9 
 1769000   0.98757873   -6.3442703      651.397  0.030685745   0.03070782            8 
 1770000    0.9573395   -6.3571972    653.44997  0.030765064  0.030700174           22 
 1771000   0.96852771   -6.3869757    652.60277  0.030707829  0.030692488            8 
 1772000    0.9555394   -6.3762903    653.52376  0.030733811  0.030684879            7 
 1773000   0.94121255   -6.3546449    651.46717  0.030619814  0.030677161            6 
 1774000   0.97096032   -6.3708504    657.47515  0.030884778  0.030669564            9 
 1775000   0.98575865    -6.335599    656.36606  0.030815308  0.030662095            2 
 1776000   0.98149205   -6.3701714    656.20259  0.030790286  0.030654567            7 
 1777000   0.97322588   -6.3668782    654.11372  0.030675001  0.030646922            6 
 1778000   0.95469066   -6.3556034    653.67149  0.030637022  0.030639287            8 
 1779000   0.96319768   -6.3831961    653.80671  0.030626134  0.030631686            5 
 1780000   0.98680805    -6.389377    654.25741  0.030630029  0.030624004            7 
 1781000   0.95948453   -6.3674058    656.08406    0.0306983  0.030616321            7 
 1782000   0.95313622   -6.3899165    653.60214  0.030565008  0.030608629            6 
 1783000   0.95864825   -6.3592731    656.01777  0.030660767   0.03060086           13 
 1784000   0.96908462   -6.3779696    657.62121   0.03071848  0.030593257            7 
 1785000   0.95492224   -6.3501719     658.5579     0.030745  0.030585692            8 
 1786000   0.97300043    -6.349561    657.91748  0.030697904  0.030578256            5 
 1787000   0.96735102   -6.3532712    658.56857  0.030711088  0.030570771            7 
 1788000    0.9717159   -6.3495831    658.65897  0.030698125   0.03056325            9 
 1789000   0.96846697    -6.386333    659.10522  0.030701752  0.030555841            5 
 1790000   0.96440753   -6.3630358     658.1251  0.030638971  0.030548437            7 
 1791000    0.9563966   -6.3695976    658.48372   0.03063855  0.030540995            9 
 1792000   0.98495299   -6.3778394    658.72678  0.030632756  0.030533622            5 
 1793000   0.96662083   -6.3825855    658.88924  0.030623222   0.03052619            8 
 1794000   0.95544499   -6.3766635    659.56621  0.030637598  0.030518763           11 
 1795000   0.96827312   -6.3662604    661.28458  0.030700305  0.030511361           19 
 1796000   0.94455814    -6.401813    661.43195   0.03069005  0.030503966            4 
 1797000    0.9742492   -6.4182338     659.3658  0.030577156  0.030496492            7 
 1798000   0.97865263   -6.3612214    659.34178  0.030559037  0.030488924            7 
 1799000   0.94410686   -6.3992197     659.1685  0.030534023  0.030481375            7 
 1800000    0.9583697   -6.3870574    661.56507  0.030628013  0.030473764            8 
 1801000   0.96322239   -6.3806392    659.78195  0.030528501   0.03046623           16 
 1802000   0.97043725   -6.3776792    660.48339  0.030543997   0.03045859            6 
 1803000    0.9584476   -6.3654768    662.60812   0.03062526  0.030451026            9 
 1804000   0.95619557    -6.370285    660.68075  0.030519251  0.030443497            7 
 1805000   0.95842436    -6.343149     662.8684  0.030603343  0.030435927            5 
 1806000   0.96472282   -6.3784021    662.08982  0.030550472  0.030428402            9 
 1807000   0.97620378   -6.3586183    662.25912  0.030541373   0.03042083           14 
 1808000   0.96733164    -6.384725    662.01256  0.030513116  0.030413252           18 
 1809000   0.96508948    -6.375784    663.32175  0.030556557  0.030405706            4 
 1810000   0.95848588   -6.4020994    662.03462  0.030480415  0.030398007            6 
 1811000   0.97552153   -6.3745622    661.73856  0.030449961  0.030390365            8 
 1812000   0.95448363    -6.361575    662.14441  0.030451822   0.03038286            8 
 1813000   0.96210231   -6.3772232    662.40211   0.03044687  0.030375252            8 
 1814000   0.95380507   -6.4016214    661.92398  0.030408121  0.030367606            9 
 1815000   0.95045669   -6.4042373    662.11437  0.030400109  0.030359936           11 
 1816000   0.96600757   -6.3618692    661.87824  0.030372533  0.030352281            4 
 1817000   0.94460134   -6.3660565    664.04301    0.0304551  0.030344586            3 
 1818000   0.96931618   -6.3858573    663.27587  0.030403184  0.030336972            8 
 1819000   0.96834471   -6.3397011    663.28561  0.030386916  0.030329203           10 
 1820000   0.95102701   -6.3856082    664.33608  0.030418319  0.030321557            6 
 1821000   0.96455119   -6.3745443    663.88271  0.030380867  0.030313854           10 
 1822000   0.93559626    -6.341284    665.01411   0.03041594  0.030306202            5 
 1823000    0.9721411   -6.4143312    663.08505  0.030311074  0.030298571            7 
 1824000   0.98490363   -6.3436304    664.47615  0.030358011  0.030290932           12 
 1825000   0.96824111   -6.3549988    664.26073   0.03033154  0.030283273            7 
 1826000   0.95330064   -6.3856421    665.81332  0.030385785  0.030275615            8 
 1827000   0.97498217   -6.3775095    664.73159  0.030319813  0.030268073            8 
 1828000   0.95750949   -6.3563195    666.62976  0.030389759  0.030260489           10 
 1829000   0.96259651   -6.3682953    665.87276  0.030338653  0.030252897            6 
 1830000   0.95452296   -6.4011057     665.1401  0.030288711  0.030245211           10 
 1831000   0.96937678   -6.4083304    665.59728  0.030292976  0.030237529            7 
 1832000   0.94975654   -6.3985544    665.70908  0.030281527  0.030229897            4 
 1833000   0.97415447    -6.360177    666.62876  0.030306818  0.030222245            4 
 1834000   0.95849739   -6.3558867    667.73337  0.030340484  0.030214616           10 
 1835000   0.94497796   -6.3541893    667.52879  0.030314659     0.030207            4 
 1836000    0.9576635   -6.3635326    665.55688  0.030208646  0.030199255            7 
 1837000   0.94624849   -6.3676637    667.17381  0.030265551   0.03019166            5 
 1838000   0.95246342   -6.4168631    666.84475  0.030234165  0.030184082           11 
 1839000   0.94651227   -6.3687758     666.0386  0.030181194  0.030176419            6 
 1840000   0.95696696    -6.383844    668.32763  0.030268461  0.030168773            6 
 1841000   0.93701173   -6.3682389    668.98849  0.030281934  0.030161207            8 
 1842000    0.9516498   -6.4258829    670.34807  0.030327003  0.030153752            8 
 1843000   0.93536232   -6.3857314    670.15371  0.030301759  0.030146205            7 
 1844000   0.96229752    -6.369677    671.79209  0.030359368  0.030138678            6 
 1845000   0.94636757   -6.3546175    672.04174  0.030354189  0.030131334            7 
 1846000   0.94588564   -6.3825033    670.80657  0.030281987  0.030124041            5 
 1847000    0.9563533   -6.3712637    669.90296  0.030224822  0.030116705            7 
 1848000   0.95852516   -6.3890092    672.66485  0.030333011  0.030109293            5 
 1849000   0.96399387   -6.3371737    670.81434  0.030233205   0.03010192            3 
 1850000   0.95522614   -6.3856449    671.66405  0.030255137   0.03009451            8 
 1851000    0.9467754   -6.3864041    670.98115  0.030208047  0.030087087            7 
 1852000   0.93640138   -6.3796244     671.9097  0.030233518  0.030079682           10 
 1853000   0.94331524   -6.3974984    670.42722  0.030150532  0.030072182            8 
 1854000   0.95694534   -6.3696815    672.54392   0.03022941  0.030064743            9 
 1855000   0.96792413   -6.3526254    672.17179  0.030196397  0.030057297            6 
 1856000   0.96224417   -6.4041855    671.48582  0.030149327  0.030049802            6 
 1857000   0.96885595   -6.3913873    672.04243   0.03015807  0.030042257            6 
 1858000   0.98038581   -6.4072851    672.56367  0.030165216  0.030034714           11 
 1859000   0.95887021   -6.4199905    672.09833   0.03012813  0.030027215            6 
 1860000   0.96270543   -6.3619826     673.6199  0.030180103  0.030019772            5 
 1861000   0.95511987   -6.4114482    672.27146  0.030103504  0.030012324            8 
 1862000   0.94461652   -6.3767103    671.86658  0.030069217  0.030004813            7 
 1863000   0.95631167   -6.3862901    672.92972  0.030100631  0.029997307            5 
 1864000   0.96816869   -6.4087741    674.91194  0.030173102  0.029989868           10 
 1865000   0.98195745   -6.3810525    674.68042  0.030146578  0.029982406            7 
 1866000   0.97921194   -6.3810532    674.89695  0.030140093  0.029975039           10 
 1867000   0.94109235   -6.3853845    675.45253  0.030148747   0.02996749           13 
 1868000    0.9560442   -6.4014133    673.52988  0.030046836  0.029960019           13 
 1869000   0.95921615   -6.3959715      673.757  0.030040887  0.029952588           11 
 1870000   0.95697944   -6.3767992    674.75739  0.030069402  0.029945195            6 
 1871000   0.94776039   -6.4142425    675.27688  0.030076469  0.029937723            5 
 1872000   0.93532652   -6.3766405    675.15314  0.030054894  0.029930275            9 
 1873000   0.94476322   -6.3863313    675.60582  0.030058988  0.029922914            5 
 1874000   0.94234373   -6.4101828    675.44757  0.030035911  0.029915622           17 
 1875000   0.94629931   -6.3764346    676.62212  0.030072094  0.029908237            6 
 1876000   0.96420401    -6.405311     676.6425   0.03005697  0.029900825            7 
 1877000   0.96233557    -6.404617    677.97985  0.030100331  0.029893458            6 
 1878000   0.93482171   -6.4006455    676.55089  0.030020895  0.029886118           10 
 1879000   0.96148287   -6.3936897    675.69947  0.029967158  0.029878622            3 
 1880000   0.96817699   -6.4093529    675.30919  0.029933918  0.029871055           13 
 1881000   0.94429543   -6.3821591    676.50552  0.029971005  0.029863625            8 
 1882000   0.97573832   -6.4020294    677.69088  0.030007566  0.029856113            6 
 1883000   0.94997354   -6.3868026    676.60831   0.02994372   0.02984866            6 
 1884000   0.93473103   -6.3975073    677.23383  0.029955495  0.029841158            5 
 1885000   0.92431251   -6.4075191     677.1693  0.029936751  0.029833622            4 
 1886000   0.96349201   -6.3907089     677.4704  0.029934182  0.029826095            5 
 1887000   0.95527228    -6.394516    678.26334  0.029953336  0.029818669            7 
 1888000   0.94978601   -6.3731587    677.73701  0.029914239  0.029811213            8 
 1889000   0.94903732   -6.3845361    677.17406  0.029873569  0.029803769            8 
 1890000   0.95936486   -6.3880737    678.40836  0.029912185  0.029796312           13 
 1891000   0.91878327   -6.3968012    677.98444  0.029877686  0.029788937            6 
 1892000   0.93561392   -6.4087144    677.45771  0.029838694  0.029781454           12 
 1893000   0.94221144   -6.4157422    678.08336  0.029850474  0.029774064           11 
 1894000    0.9469589   -6.3948543    680.73395  0.029951335  0.029766733            7 
 1895000    0.9627729   -6.4130502     680.1342  0.029909156  0.029759371            5 
 1896000   0.96482221   -6.3881016    681.06517  0.029934299  0.029752114           16 
 1897000   0.93894358   -6.3883431    681.76116  0.029949093  0.029744839            7 
 1898000    0.9641004   -6.3796951    681.23558  0.029910238  0.029737453           12 
 1899000   0.94796798   -6.3956507    680.68153  0.029870174  0.029730159            7 
 1900000   0.95395392   -6.3981699    682.37966  0.029928932  0.029722897           10 
 1901000   0.95041152   -6.4028435     680.9946  0.029852473  0.029715611            9 
 1902000   0.95350611   -6.3944358    681.38135  0.029853722  0.029708261            7 
 1903000    0.9544277   -6.3879322    681.79631  0.029856206  0.029700966            4 
 1904000   0.94400019   -6.4215605    681.05542  0.029808098  0.029693702            9 
 1905000   0.93043407   -6.3930068    681.67752  0.029819664  0.029686339            6 
 1906000   0.95975078    -6.431575    681.19722   0.02978302   0.02967905            6 
 1907000   0.94897322   -6.4315027     681.0458  0.029760785  0.029671595            9 
 1908000   0.94255964   -6.3682905    683.30439  0.029843833  0.029664165            7 
 1909000   0.95975817    -6.417632    683.73903  0.029847173  0.029656817            8 
 1910000    0.9690672   -6.3830996    683.77746  0.029833222  0.029649578            9 
 1911000     0.947385   -6.3963502     684.5813  0.029852664  0.029642282            8 
 1912000   0.95206107   -6.4008656    683.55199  0.029792189     0.029635            6 
 1913000   0.93743982   -6.4084939    685.60615  0.029866098   0.02962771            5 
 1914000    0.9457999   -6.4125504    683.82563  0.029772972  0.029620341           13 
 1915000   0.93960722   -6.4469917    683.57003  0.029746302  0.029612906            8 
 1916000   0.96523251   -6.4187262    685.71631  0.029824126  0.029605608            8 
 1917000   0.93913425   -6.3781654    685.47507  0.029798082  0.029598448           10 
 1918000   0.93279463   -6.4088108    685.54617  0.029785635  0.029591192           14 
 1919000   0.97422542   -6.3988728     687.3586  0.029848819  0.029583985            5 
 1920000   0.95429335   -6.4055623    685.46805  0.029751217  0.029576796            6 
 1921000   0.95571354   -6.4326607    687.37511  0.029818459  0.029569606            5 
 1922000   0.93428842   -6.3856847    687.33337  0.029801135   0.02956246            7 
 1923000   0.95341167    -6.430712    686.48959  0.029749072  0.029555341            7 
 1924000   0.93784199   -6.4207485    687.26763  0.029767309  0.029548214           12 
 1925000   0.94759426   -6.4015113    689.41605  0.029844851  0.029541162            8 
 1926000   0.94437632   -6.4331362    687.09017   0.02972872  0.029534017            8 
 1927000   0.94899393   -6.4111601    685.94636  0.029663828  0.029526769            9 
 1928000   0.95289118   -6.3955169    686.86589  0.029688187  0.029519474            9 
 1929000   0.94246048   -6.3877647    685.05342  0.029594497  0.029512207            9 
 1930000   0.94121475   -6.4138385    688.84799  0.029743005  0.029504998            7 
 1931000    0.9360388   -6.4048197     689.3074  0.029747428  0.029497776            5 
 1932000   0.95135676   -6.3969021    688.28271  0.029687832  0.029490554            9 
 1933000   0.92618558   -6.4086149     689.4304  0.029721952  0.029483404            3 
 1934000   0.93926327   -6.4048612    689.67547  0.029717144  0.029476321            7 
 1935000   0.96344247    -6.424353    690.45565  0.029735386  0.029469195           13 
 1936000    0.9483673   -6.3923588    689.84394  0.029693696  0.029462103            6 
 1937000   0.94053051   -6.4048833     689.8722  0.029679582  0.029455042           13 
 1938000    0.9267513   -6.4063962    690.78024  0.029703313  0.029448032            6 
 1939000   0.95740721   -6.3647972    691.57867  0.029722308  0.029441061            6 
 1940000   0.93599624   -6.3883176    690.79166  0.029673181   0.02943402            6 
 1941000   0.92986108   -6.4330498     692.2075   0.02971868  0.029426969            7 
 1942000   0.94042471   -6.4101945    693.18845  0.029745471  0.029419947            8 
 1943000   0.94026794    -6.387275     692.1521  0.029685714   0.02941295           15 
 1944000   0.95597887    -6.403082      693.058  0.029709276  0.029406082            6 
 1945000   0.93036178   -6.3870176      692.082  0.029652185  0.029399067           10 
 1946000   0.95521688   -6.4301307    691.73378  0.029622036  0.029391987           15 
 1947000   0.92866316   -6.4262963    693.82546  0.029696347     0.029385            8 
 1948000   0.93455765   -6.4304185    692.46654   0.02962297  0.029377966            7 
 1949000   0.96164381   -6.4288117    693.73711  0.029662096  0.029370932            8 
 1950000    0.9506851   -6.4325315    694.92835  0.029697793  0.029363958            4 
 1951000   0.93015732   -6.4044089    695.13467  0.029691383  0.029357024            5 
 1952000   0.96291623   -6.4224426    693.11239  0.029589839  0.029350027           12 
 1953000    0.9409012   -6.3990355     693.3556  0.029585066  0.029343024            8 
 1954000   0.93613633   -6.4341522    694.16881  0.029604606  0.029335993           13 
 1955000   0.91521629   -6.4097053    695.39433  0.029641702   0.02932905            4 
 1956000   0.92250405   -6.4479124    694.91203     0.029606  0.029322083            5 
 1957000   0.95269653   -6.4268069    696.33085  0.029651288  0.029315116           18 
 1958000   0.92472273     -6.41841    694.36724  0.029552572  0.029308146            9 
 1959000   0.92177601   -6.4209505    694.23379   0.02953181  0.029301217            5 
 1960000   0.94073999   -6.3893212    694.47764  0.029527111  0.029294199            7 
 1961000   0.94431282   -6.4255738    693.52278  0.029471476  0.029287259           15 
 1962000   0.94105397   -6.4145319    696.61569  0.029587822  0.029280227            5 
 1963000   0.94248828   -6.4147218    694.41453  0.029479306  0.029273227            7 
 1964000   0.95609551   -6.3989043    696.33479  0.029545774  0.029266243            5 
 1965000    0.9378739    -6.440703     695.3252  0.029487922  0.029259177           11 
 1966000   0.93959875   -6.4008924    697.17073   0.02955115  0.029252138            7 
 1967000   0.92763277   -6.4292782    698.12696  0.029576638  0.029245143            8 
 1968000   0.94193069   -6.4063458    698.08871  0.029559989  0.029238109            5 
 1969000   0.94461065   -6.4110932     698.6734  0.029569722  0.029231144            7 
 1970000   0.94171239     -6.44183    695.44733  0.029418246   0.02922413           15 
 1971000   0.94483336   -6.4094153    698.19407  0.029519452    0.0292171            6 
 1972000     0.917344   -6.4421811      697.346  0.029468644  0.029210048            6 
 1973000   0.93525896   -6.4391518    697.60936  0.029464832  0.029203064           20 
 1974000     0.926804   -6.4226638      696.169    0.0293891  0.029195994            6 
 1975000   0.90719442   -6.4291997    696.40855  0.029384327  0.029188957            5 
 1976000   0.93182126   -6.4336195    696.33248  0.029366248  0.029181878            7 
 1977000    0.9481764   -6.4238682    696.12352  0.029342586  0.029174811           11 
 1978000   0.94988592   -6.4301322    698.61501  0.029432719  0.029167801           12 
 1979000   0.92481764   -6.4370131     699.3835  0.029450206  0.029160752           18 
 1980000   0.93276883   -6.4151222    699.36514   0.02943456  0.029153774            9 
 1981000   0.92685727   -6.4020215    700.18509  0.029454194  0.029146786            8 
 1982000   0.95206855   -6.4206718    699.51019  0.029410956  0.029139767            8 
 1983000   0.94122527   -6.4274883    701.03112   0.02946004   0.02913273           10 
 1984000   0.93686252   -6.4013904      700.854  0.029437752  0.029125787            7 
 1985000   0.90613204   -6.4006197     697.6797   0.02928966  0.029118791           11 
 1986000   0.93233754   -6.4115664    698.61184  0.029314025  0.029111789            4 
 1987000   0.95414745   -6.4200652    699.69426  0.029344668  0.029104841            7 
 1988000   0.93769778   -6.4344726    700.17596  0.029350099   0.02909788            9 
 1989000   0.92205285   -6.4437164    700.15749  0.029334569  0.029090854            9 
 1990000   0.91968457   -6.4351995    698.66955  0.029257519  0.029083852           15 
 1991000   0.91911525   -6.4337798    701.10077  0.029344583  0.029076802            7 
 1992000   0.91932028   -6.3969578    701.87754  0.029362347  0.029069802            6 
 1993000   0.94724629   -6.4375149    703.03692  0.029396091   0.02906286           10 
 1994000   0.94134926   -6.4322939    702.82281  0.029372401   0.02905588            7 
 1995000   0.93401782   -6.4412517    701.74764  0.029312767  0.029048838           12 
 1996000   0.91402963   -6.4144924    703.02737   0.02935151  0.029041857            7 
 1997000   0.93001868   -6.4261811    701.60289   0.02927737  0.029034765            6 
 1998000   0.91752926   -6.4484268    701.13258  0.029243101  0.029027681            5 
 1999000   0.96086683    -6.431774     701.7498  0.029254202  0.029020627           15 
 2000000   0.94724768   -6.4192146    703.14448  0.029297687  0.029013642            8 
 2001000   0.92649166   -6.4291814    700.86454  0.029188095  0.029006612            8 
 2002000   0.93264808   -6.4301041    704.30651  0.029316788  0.028999618            9 
 2003000   0.93053747   -6.4689402    702.72049  0.029236166  0.028992558            7 
 2004000   0.92554156   -6.4119562    702.90473  0.029229239  0.028985506            6 
 2005000   0.95172203   -6.4694827    702.74066  0.029207841  0.028978519            7 
 2006000   0.94188049   -6.4288059    701.91527  0.029158993  0.028971446            7 
 2007000   0.91744604   -6.4251721    703.14556  0.029195547  0.028964423            8 
 2008000   0.92848392   -6.4092594    706.66306  0.029326986  0.028957385            7 
 2009000   0.92183943   -6.4451875    704.19858  0.029210162  0.028950372            5 
 2010000   0.96740048    -6.423606    704.37057   0.02920276  0.028943359            6 
 2011000   0.92022334    -6.403422       704.19  0.029180756  0.028936376            5 
 2012000   0.95274972   -6.4619732    704.88227  0.029194925  0.028929452            5 
 2013000   0.94730294   -6.4423843    703.15426  0.029108886  0.028922446            8 
 2014000    0.9191766   -6.4519684    704.15357  0.029135782  0.028915501            9 
 2015000   0.95297744   -6.4489944    705.53797  0.029178576  0.028908454           12 
 2016000   0.94375771    -6.440702    706.31684  0.029196298  0.028901537           17 
 2017000   0.92054294   -6.4235162    706.77066  0.029200572  0.028894701           11 
 2018000   0.93453754   -6.4537662    707.42612   0.02921317  0.028887919            4 
 2019000   0.91695273   -6.4092653    707.09119  0.029184877  0.028881103           16 
 2020000   0.93623079   -6.4150687    708.11804   0.02921279  0.028874261            6 
 2021000    0.9331161   -6.4389348    707.30878  0.029164967  0.028867372            8 
 2022000   0.91716422   -6.4591103    707.50754  0.029158735  0.028860377            6 
 2023000   0.90785525   -6.4492397    708.56339  0.029187815  0.028853485            7 
 2024000    0.9266562   -6.4393188    707.30154   0.02912144  0.028846572            3 
 2025000   0.93734543   -6.4412856    710.42127  0.029235443  0.028839683           13 
 2026000   0.93878259   -6.4377706    708.88727  0.029157917  0.028832847            4 
 2027000    0.9376271   -6.4109955    707.98717  0.029106527  0.028825984            4 
 2028000   0.90998731   -6.4399627    708.38494   0.02910852  0.028819098            8 
 2029000   0.92497547   -6.3977468    710.07912  0.029163755    0.0288122            7 
 2030000   0.93577206   -6.4491204    706.59708  0.029006448  0.028805302            9 
 2031000   0.94467447   -6.4370063    709.35242   0.02910522  0.028798427            9 
 2032000     0.938501   -6.4323539     709.1625  0.029083108  0.028791577            5 
 2033000   0.92709424   -6.4215818     709.1185  0.029066999  0.028784674            4 
 2034000   0.91387533   -6.4138027    709.07161  0.029050787  0.028777753            5 
 2035000   0.94335655     -6.44514    708.56709  0.029015852  0.028770806            7 
 2036000   0.93617116   -6.4429176    708.63453   0.02900436  0.028763767            9 
 2037000   0.92821268   -6.4450746    708.98564  0.029004485  0.028756701            6 
 2038000   0.93488776   -6.4867671    707.71522  0.028938306  0.028749578            5 
 2039000   0.90390345   -6.4867495    708.28344  0.028947337  0.028742386           12 
 2040000   0.92285409   -6.4311947    708.53598  0.028943463  0.028735217            7 
 2041000   0.90130245   -6.4237229    708.69694  0.028935854  0.028728093            8 
 2042000   0.92728204   -6.4364852    710.07157  0.028977782   0.02872104            7 
 2043000    0.9286034   -6.4542092    708.92826  0.028916963  0.028713939           13 
 2044000   0.91785786   -6.4826097    708.62673  0.028890522  0.028706813           10 
 2045000   0.93538888   -6.4635942     710.8449  0.028966785  0.028699712           13 
 2046000   0.90677019   -6.4307123    709.16419  0.028884172  0.028692635            5 
 2047000   0.91887782   -6.4383065    709.07754  0.028866534  0.028685568            7 
 2048000   0.93423651   -6.4222147    710.53113  0.028911586    0.0286785            5 
 2049000   0.92909723   -6.4601125    710.11151  0.028880409   0.02867141           10 
 2050000    0.9229454   -6.4316737    709.55207   0.02884358  0.028664357            7 
 2051000   0.92907867   -6.4293466    711.51394  0.028909229   0.02865734            9 
 2052000   0.93756512   -6.4626983    710.09415  0.028837482  0.028650292            8 
 2053000   0.92826068   -6.4432391    709.91443   0.02881614  0.028643259           17 
 2054000   0.92264093   -6.4643004    712.77516  0.028918174  0.028636167            5 
 2055000   0.92729014   -6.4385496    713.28899  0.028924939  0.028629156            6 
 2056000   0.91934221   -6.4595164     712.8415  0.028892733  0.028622223            6 
 2057000   0.91959428   -6.4767183    710.33677  0.028777215  0.028615185            8 
 2058000   0.93213884   -6.4560545    712.14272  0.028836359  0.028608081           13 
 2059000   0.93683904   -6.4422852    712.92026  0.028853823  0.028601035           13 
 2060000   0.93016979   -6.4943165    711.27783  0.028773375  0.028593916           22 
 2061000   0.91312258   -6.4612663      711.242  0.028757965  0.028586868           14 
 2062000    0.9404595   -6.4495398    712.47111  0.028793692  0.028579794           11 
 2063000   0.92859365   -6.4365192    711.49855  0.028740449  0.028572771           10 
 2064000   0.92102938   -6.4491343    713.21699  0.028795906  0.028565743           11 
 2065000   0.92945785   -6.4443307    714.64698  0.028839668  0.028558758            6 
 2066000   0.92013941   -6.4293879    715.32151  0.028852917  0.028551738           16 
 2067000   0.91709132   -6.4672902    714.22849  0.028794891  0.028544762            9 
 2068000   0.92876699   -6.4670972    714.44771  0.028789802  0.028537747            9 
 2069000   0.93332354   -6.4367861    712.97669  0.028716638  0.028530761            5 
 2070000    0.9287691   -6.4449497    714.61099  0.028768558  0.028523693           11 
 2071000   0.93368587   -6.4680678    714.53503  0.028751611  0.028516538            9 
 2072000   0.91605831   -6.4723476     713.9805  0.028715432   0.02850944            6 
 2073000   0.90783231    -6.407952    716.05876  0.028785124  0.028502401            6 
 2074000    0.9320199   -6.4631318    716.40855    0.0287853  0.028495446           11 
 2075000   0.91366437    -6.463864    716.20957  0.028763437  0.028488506           10 
 2076000   0.93457966   -6.4298278    717.26936  0.028792123  0.028481476            8 
 2077000   0.92032193   -6.4624307    715.99037  0.028726945  0.028474535           11 
 2078000    0.9006204   -6.4839138    715.87953  0.028708675  0.028467515            9 
 2079000   0.91146222   -6.4758527    716.26676  0.028710388  0.028460419           25 
 2080000   0.90578991   -6.4501049    717.44209  0.028743674  0.028453462            6 
 2081000   0.93424827    -6.418039    716.68163  0.028699408  0.028446521            5 
 2082000   0.92725355   -6.4472015    718.94159   0.02877608  0.028439601            4 
 2083000   0.92029848   -6.4541624    717.87586   0.02871963   0.02843263            8 
 2084000   0.92719426   -6.4737126    717.27271   0.02868173  0.028425594           23 
 2085000   0.91432305    -6.482699     718.2924  0.028708729  0.028418516           11 
 2086000   0.91216479   -6.4471369    717.48486  0.028662706   0.02841147            7 
 2087000   0.90561364   -6.4633396      716.735   0.02861903  0.028404365           12 
 2088000   0.91650857   -6.4651328    715.58017  0.028559234  0.028397252            9 
 2089000   0.89364007   -6.4421208    716.50386   0.02858241  0.028390082            8 
 2090000   0.92188816   -6.4311647    719.33458  0.028681602  0.028382999            6 
 2091000   0.93399402   -6.4595892    719.79268  0.028686142  0.028375882            9 
 2092000   0.90389259   -6.4753357    716.57147  0.028544115  0.028368759           31 
 2093000   0.93028496   -6.4517745    717.01475  0.028548127  0.028361625            7 
 2094000   0.90999099   -6.4809265    717.25419  0.028544022  0.028354473           10 
 2095000    0.9037254   -6.4769643    716.77236  0.028511231  0.028347273           10 
 2096000   0.94217717    -6.471048    718.05412  0.028548589  0.028340118           10 
 2097000   0.90886525   -6.4551952    719.39439  0.028588237  0.028332981           14 
 2098000   0.92625596    -6.469655    718.95716  0.028557243  0.028325871            8 
 2099000   0.91431851     -6.43202    719.78295  0.028576423  0.028318827            9 
 2100000   0.92158521   -6.4556809    719.22902  0.028540834  0.028311862            5 
 2101000   0.91843963   -6.4440618    719.83891   0.02855144  0.028304808            5 
 2102000   0.93272925   -6.4882759    718.13952  0.028470485  0.028297757            7 
 2103000   0.91710512   -6.4643644    719.54061  0.028512467  0.028290733            6 
 2104000   0.92852544   -6.4659661    719.28242  0.028488689  0.028283601           11 
 2105000   0.88720011    -6.441981    720.68414  0.028530647   0.02827654           10 
 2106000   0.89504233    -6.472475    719.68647  0.028477622  0.028269448            6 
 2107000   0.89972664   -6.4933102    719.64508  0.028462469  0.028262294            5 
 2108000   0.90630946   -6.4610783    721.20855  0.028510775  0.028255238           12 
 2109000   0.92071244   -6.4632742      722.262  0.028538881  0.028248259            4 
 2110000   0.89372962   -6.4394107    723.18319  0.028561737  0.028241248            9 
 2111000    0.9178567    -6.446415    722.23121  0.028510627  0.028234265           12 
 2112000   0.91319137   -6.4717131    721.94943   0.02848601  0.028227215            8 
 2113000   0.90441474   -6.4309615    722.69085  0.028501769  0.028220157            6 
 2114000   0.90960005   -6.4600599    722.24397  0.028470671  0.028213198            6 
 2115000   0.90697317   -6.4775262    721.86221  0.028442167  0.028206156           21 
 2116000   0.91403659   -6.4527115    721.50735  0.028414751  0.028199158           13 
 2117000   0.92743953    -6.478312    721.67462  0.028407913  0.028192123           23 
 2118000   0.90291519   -6.4426341    721.66245  0.028394022  0.028185127           11 
 2119000   0.91716134   -6.4710109    725.00649  0.028512132  0.028178099            9 
 2120000   0.91568176   -6.4984729    723.36107  0.028434004   0.02817106            5 
 2121000   0.92185433    -6.472845    724.18355  0.028452913  0.028164034           25 
 2122000   0.90950359   -6.4634396    724.30378  0.028444226  0.028157075           12 
 2123000   0.91022385   -6.4834872    723.66378  0.028405707  0.028150173           10 
 2124000   0.89461877   -6.4675086    724.89761  0.028440741  0.028143263           11 
 2125000   0.90399815   -6.4492335    722.75298  0.028343254  0.028136365            3 
 2126000   0.89810382   -6.4888393    724.12563  0.028383726  0.028129474           13 
 2127000   0.91874623   -6.4550576    728.70158  0.028549662  0.028122625            5 
 2128000   0.90268198    -6.490333    725.88888    0.0284261  0.028115838           14 
 2129000   0.92216424   -6.4349979    728.01498  0.028495968   0.02810903            5 
 2130000   0.90461652   -6.4623543    728.11385  0.028486457  0.028102257            6 
 2131000   0.90203066    -6.438546    726.57671   0.02841298  0.028095451            7 
 2132000   0.92400496   -6.4672594    725.77884  0.028368466   0.02808868           11 
 2133000   0.89772117   -6.4810692        726.8  0.028395062  0.028081896           13 
 2134000   0.90827425   -6.5077947     727.9343   0.02842605  0.028075011           56 
 2135000   0.92168171   -6.4779831    724.92315  0.028295205  0.028068091           24 
 2136000    0.8984652   -6.4645226    726.55598  0.028345661  0.028061198           20 
 2137000   0.91354857   -6.4489894    728.01479  0.028389284  0.028054386           15 
 2138000   0.91425256   -6.4778673    726.97905  0.028335635  0.028047473           10 
 2139000    0.9144784   -6.5040679    725.99168  0.028283921  0.028040554           22 
 2140000   0.91936535   -6.4637237    727.95595  0.028347194   0.02803359            6 
 2141000   0.91147142   -6.4727116    726.99498  0.028296551  0.028026708            9 
 2142000   0.92737346    -6.436614    726.76887  0.028274543  0.028019828            9 
 2143000   0.88120997   -6.4890876    728.57448  0.028331563  0.028012979            6 
 2144000   0.89472273   -6.4678925    727.57014  0.028279312  0.028006081           12 
 2145000    0.9213292   -6.4723058    729.01164  0.028322131  0.027999199           20 
 2146000   0.92414443   -6.4885973    727.28798     0.028242  0.027992345           12 
 2147000   0.90649033   -6.4771996    727.63481  0.028242308  0.027985382           14 
 2148000   0.90238919   -6.4870714    728.73913  0.028272002  0.027978544           18 
 2149000   0.90396344   -6.4704509    729.98684   0.02830723  0.027971733            9 
 2150000   0.90959388   -6.4842213    730.25219  0.028304349  0.027964896            7 
 2151000   0.90335147   -6.4713735    729.46506  0.028260695  0.027958071           11 
 2152000   0.90478176   -6.4589808    730.02436  0.028269221    0.0279513            7 
 2153000   0.89730842   -6.4754247    731.31911  0.028306205  0.027944529            6 
 2154000   0.92514935   -6.4845908    733.07846  0.028361129  0.027937723            5 
 2155000   0.91421177   -6.4991173    731.62413   0.02829173  0.027930983           11 
 2156000   0.89173692   -6.4877169    729.73023  0.028205405   0.02792423            6 
 2157000   0.90352041   -6.4680145     731.6686  0.028267215  0.027917423            8 
 2158000   0.92035661   -6.4888098    731.31795  0.028240576  0.027910632           15 
 2159000   0.91485744   -6.4731955    733.62357  0.028316488  0.027903908            7 
 2160000    0.8828276   -6.4876717    732.60118  0.028263934  0.027897242           20 
 2161000   0.91935674   -6.4468185    732.63792  0.028252272  0.027890512            8 
 2162000   0.91600893   -6.4895271    733.48117  0.028271707  0.027883825           13 
 2163000   0.87844525   -6.4852515    732.01883  0.028202297  0.027877151           11 
 2164000    0.9331801   -6.4630004    731.63704  0.028174563  0.027870478           12 
 2165000   0.89501273   -6.4736153    732.28435  0.028186464  0.027863712           19 
 2166000   0.90528989   -6.4890567     731.1324  0.028129132  0.027856954           10 
 2167000    0.8911386   -6.4783361    732.96321  0.028186556  0.027850139            5 
 2168000    0.9163628   -6.4698696    732.19092   0.02814387  0.027843279           16 
 2169000   0.91512563   -6.4732218    732.21686  0.028131891  0.027836406           14 
 2170000   0.89236226   -6.5097077    732.17834  0.028117448  0.027829549           13 
 2171000   0.90913038   -6.4725716    731.38154  0.028073911  0.027822575           15 
 2172000     0.888498   -6.5041015    731.92221   0.02808173   0.02781561           17 
 2173000   0.89975101   -6.4498553    732.93921  0.028107808  0.027808735           19 
 2174000   0.89962167   -6.4350729    732.54477   0.02807976   0.02780185            4 
 2175000   0.91346794   -6.4566703    731.18382  0.028014706  0.027794934            9 
 2176000    0.9005573   -6.4936482    731.70285  0.028021708   0.02778799           10 
 2177000   0.90768544   -6.4783211    731.90126  0.028016432  0.027780987           12 
 2178000   0.90117677    -6.503058    731.53725  0.027989641  0.027773969            6 
 2179000   0.91561613   -6.4646414    733.24322  0.028042038  0.027766939           14 
 2180000    0.9077999   -6.5034572     731.2086  0.027951399  0.027759927            8 
 2181000   0.90029925    -6.508511    731.08725  0.027933947  0.027752781           19 
 2182000   0.90258557    -6.491195    732.38461  0.027970692  0.027745643           10 
 2183000   0.92110125   -6.4973308    730.16211  0.027873038  0.027738489            8 
 2184000   0.90119735   -6.4949278    733.37129  0.027982726  0.027731382           10 
 2185000    0.9073137   -6.4559484    733.12664  0.027960589  0.027724263            7 
 2186000   0.91321788   -6.4932969    731.44819  0.027883813  0.027717121           11 
 2187000   0.90542037   -6.4599302    733.44382  0.027947105  0.027709947           12 
 2188000   0.89439317   -6.4895567     734.5185  0.027975263  0.027702758           12 
 2189000   0.90194385   -6.5248389    731.77154  0.027857909   0.02769562           12 
 2190000   0.89390213   -6.4782198    731.25309   0.02782546  0.027688394            6 
 2191000   0.92930065    -6.478516    734.28806  0.027928193    0.0276812           18 
 2192000   0.92385179   -6.4792338    731.62163  0.027814083  0.027674009            7 
 2193000   0.87156236    -6.487958    732.41554  0.027831568  0.027666849           11 
 2194000   0.91378887   -6.4890754    734.12104  0.027883661  0.027659754           32 
 2195000   0.90739175   -6.5047831    734.96165  0.027902872  0.027652589           24 
 2196000   0.89124509   -6.4792788    735.02657  0.027892629  0.027645415           10 
 2197000   0.91785041   -6.4902736    732.65413  0.027789946  0.027638272           11 
 2198000   0.91765266   -6.4872224    734.07823  0.027831295  0.027631091           10 
 2199000   0.89448707   -6.4832932    734.13377  0.027820743   0.02762396            8 
 2200000   0.91298865   -6.5015679    734.55646  0.027824109  0.027616853            9 
 2201000   0.89023506   -6.4739515    733.37653  0.027766793  0.027609777            9 
 2202000    0.9046996   -6.4735268    736.99327  0.027891056  0.027602655           14 
 2203000   0.89840479   -6.4732636    735.44677  0.027819896  0.027595599           12 
 2204000   0.88404416   -6.5096972    734.19294  0.027759866  0.027588545           13 
 2205000   0.90760191   -6.4650945    736.56988  0.027837108  0.027581479           12 
 2206000    0.8867945   -6.4865103    736.02929  0.027804068  0.027574448            6 
 2207000   0.90799537   -6.4943619    735.83031  0.027783957  0.027567408            7 
 2208000    0.8988713   -6.4698909    739.17491  0.027897604  0.027560391           12 
 2209000    0.9038991   -6.4991452    735.94376  0.027763081  0.027553381           14 
 2210000   0.90978113   -6.5100395    736.62016  0.027776024  0.027546391            6 
 2211000   0.89803665   -6.5254138    737.35114  0.027791012  0.027539489            3 
 2212000   0.90186393   -6.4918307    737.68711  0.027791106   0.02753252           11 
 2213000   0.88985573   -6.4769189    738.36098  0.027803923  0.027525526           14 
 2214000   0.90568247   -6.5076868    738.12897  0.027782632  0.027518583           12 
 2215000   0.89290185   -6.4695967    739.48617   0.02782115  0.027511682            5 
 2216000   0.89713535   -6.5078705    738.76564    0.0277815  0.027504765           20 
 2217000   0.88247317   -6.5073705    738.10607  0.027744176  0.027497738            6 
 2218000   0.90059259   -6.4788785    738.82723  0.027758763   0.02749078           13 
 2219000   0.87458631   -6.4885889    737.86708  0.027710195   0.02748387            9 
 2220000   0.88104752   -6.4764322    739.15827  0.027746181  0.027476984           10 
 2221000   0.89374207   -6.5015285    739.77305  0.027756755  0.027470081            3 
 2222000   0.88262376   -6.4815603    740.33561  0.027765362  0.027463202           12 
 2223000    0.8935312   -6.5153834    740.09519  0.027743859  0.027456337           11 
 2224000   0.89388251   -6.5184137    740.02687  0.027728824  0.027449435            7 
 2225000   0.89860625   -6.5390241    738.52213  0.027660005  0.027442512            7 
 2226000   0.89024635   -6.5159139    740.06394  0.027705299  0.027435584            7 
 2227000   0.89285359   -6.4991276    739.77465  0.027682033  0.027428588            8 
 2228000   0.89741943   -6.5020689    739.51166  0.027659772  0.027421607            6 
 2229000   0.89140477   -6.5109356    739.85953  0.027660368  0.027414646           17 
 2230000   0.91036999   -6.5172378      741.614  0.027713528  0.027407747            9 
 2231000    0.8839337   -6.5099738    741.96706  0.027714293  0.027400893           12 
 2232000   0.89223067   -6.5114469    741.95784  0.027701532  0.027394035            7 
 2233000   0.88026351   -6.5155213    738.75344  0.027569542  0.027387149            7 
 2234000   0.88677013   -6.5099172    741.46429  0.027658322  0.027380238           12 
 2235000   0.90761233   -6.4592372    741.64995  0.027652869  0.027373413           11 
 2236000   0.90555359   -6.4853033    742.63091  0.027677061  0.027366594           13 
 2237000   0.89046226   -6.4906416    742.57404   0.02766257  0.027359724           17 
 2238000    0.8970638    -6.519194    744.39553  0.027718034  0.027352878            6 
 2239000   0.87942789   -6.5189312    742.42287  0.027632234  0.027345979           29 
 2240000   0.89996521   -6.5237328    743.03655  0.027642729  0.027339083           10 
 2241000   0.90309522   -6.4744052    742.85942  0.027623807  0.027332252            9 
 2242000   0.90655915   -6.5158088    742.88446  0.027612417   0.02732547           22 
 2243000   0.89220277   -6.5174272    743.90239  0.027637925  0.027318596           16 
 2244000   0.89262443   -6.4691547    746.04663  0.027705237  0.027311821            5 
 2245000   0.90360938   -6.4745661    745.72836  0.027681082  0.027305063            8 
 2246000   0.87113067   -6.4929844    745.48373  0.027659681   0.02729835            6 
 2247000   0.88656241    -6.511837    744.78722   0.02762154  0.027291508            8 
 2248000    0.9146303   -6.4775856    744.79034  0.027609369  0.027284685           11 
 2249000   0.89603545   -6.4812377    743.94566  0.027565794  0.027277878           14 
 2250000   0.90572573    -6.528329    745.15352  0.027598279  0.027271079           30 
 2251000   0.87977634   -6.4887997    748.08166   0.02769442  0.027264309           25 
 2252000   0.88835206   -6.5126427    745.01274  0.027568559  0.027257577           13 
 2253000   0.87969772   -6.5040247    744.54123  0.027538883  0.027250772           10 
 2254000   0.88852982   -6.5327511    745.91437  0.027577431  0.027243949           21 
 2255000   0.89861277   -6.5159326    745.29159  0.027542187  0.027237176            6 
 2256000   0.88294021   -6.5312906    747.20727  0.027600741  0.027230424            7 
 2257000   0.89654692   -6.5096057    748.12861   0.02762253  0.027223716           11 
 2258000   0.89397413   -6.4945889    745.92847  0.027529099  0.027216986           14 
 2259000   0.88077275   -6.5428109    746.76642  0.027547824  0.027210297            6 
 2260000   0.87652474   -6.5526199    747.66539  0.027568783  0.027203565            8 
 2261000   0.90332908   -6.4994771    748.51283  0.027587824  0.027196869            8 
 2262000   0.88620341   -6.5204782    747.00799  0.027520188   0.02719023            5 
 2263000   0.89851774   -6.4917789    749.40514  0.027596301  0.027183682            8 
 2264000   0.89045819   -6.4852294     751.2114  0.027650596  0.027177175           11 
 2265000   0.87591982   -6.4998393    747.78961  0.027512495  0.027170697            7 
 2266000   0.91418686   -6.5136145    750.13789  0.027586713   0.02716416            7 
 2267000   0.88119172   -6.5318472    750.01043  0.027569859  0.027157602            7 
 2268000   0.86468814   -6.5080598    749.14029  0.027525731  0.027150995           16 
 2269000   0.87404397   -6.5206241    747.61028  0.027457407  0.027144346           14 
 2270000   0.86399297   -6.4750739    750.80012  0.027562413   0.02713775            7 
 2271000   0.88447125   -6.4971744    750.67637  0.027545735  0.027131141            9 
 2272000   0.88551645    -6.536334    750.20506  0.027516324  0.027124459           11 
 2273000   0.89786955   -6.5275798    750.34534  0.027509361  0.027117802           14 
 2274000   0.88595634   -6.5394083    749.47499  0.027465369  0.027111178           14 
 2275000   0.89038271   -6.5468064    748.84882   0.02743036  0.027104528           11 
 2276000    0.8808813   -6.5217373     750.2003  0.027467791  0.027097915            8 
 2277000   0.86878981   -6.5264182    751.50935  0.027503636  0.027091385           17 
 2278000   0.91089715    -6.504973    751.82411  0.027503077  0.027084891            7 
 2279000   0.87870574   -6.5262257    750.32218  0.027436089  0.027078375           24 
 2280000   0.86747805   -6.4959441     752.1302  0.027490139  0.027071866            9 
 2281000   0.88362896   -6.5254684    752.92841  0.027507249   0.02706536            5 
 2282000   0.87706992   -6.5451719    752.26249  0.027470877  0.027058832            5 
 2283000   0.90865303   -6.5016673     751.7663  0.027440732   0.02705229           14 
 2284000   0.88426188   -6.5104673    751.74033   0.02742777  0.027045766            9 
 2285000    0.8951543    -6.516151    754.25185  0.027507361   0.02703931            7 
 2286000   0.89173507   -6.5205613     755.5664  0.027543249  0.027032829           14 
 2287000   0.89702216    -6.479603    753.49986  0.027455905  0.027026326           11 
 2288000   0.89112308   -6.5210076    752.79193  0.027418121  0.027019843           16 
 2289000   0.86486489   -6.5328775    754.58403  0.027471386  0.027013287           14 
 2290000   0.87890289   -6.5362005    753.53214  0.027421111  0.027006734            9 
 2291000   0.90360357   -6.5048189    753.78259  0.027418252  0.027000088           12 
 2292000   0.87462309   -6.4890784    753.35236  0.027390647  0.026993491            9 
 2293000   0.90182427   -6.5378131    752.17308  0.027335844   0.02698691            6 
 2294000   0.89746958   -6.5176422    752.55724  0.027337883  0.026980351            4 
 2295000   0.86960314   -6.5223284    753.78457  0.027370536  0.026973759           10 
 2296000    0.8767494   -6.5185162    752.54208  0.027313519  0.026967164           16 
 2297000   0.87867276   -6.5112377    753.74969  0.027345439  0.026960605           16 
 2298000   0.89494209   -6.5210155     756.1952  0.027422222  0.026954112            6 
 2299000   0.88348093   -6.4953312    756.52993  0.027422428  0.026947606           26 
 2300000   0.88094184   -6.5454999    756.03266  0.027392488  0.026941111            9 
 2301000   0.89802488   -6.5313154    756.47298   0.02739653  0.026934617            9 
 2302000   0.88320711   -6.5375846    754.73217  0.027321611  0.026928103           15 
 2303000   0.88682974   -6.5272512    754.22159  0.027291272  0.026921634            6 
 2304000   0.88927502    -6.522352     753.7431   0.02726212  0.026915171           11 
 2305000   0.87870947    -6.537086    755.56695  0.027316231  0.026908657           22 
 2306000   0.90396807   -6.5265883    755.44833  0.027300099  0.026902114           15 
 2307000   0.88250122   -6.5345772    755.25762  0.027281376  0.026895617           27 
 2308000   0.86997703   -6.5086902     756.1766  0.027302737   0.02688904           14 
 2309000   0.88984537   -6.5145898    756.76932  0.027312304   0.02688256           10 
 2310000   0.88874163   -6.5345481    756.26172  0.027282169  0.026876018           12 
 2311000   0.87904434   -6.5192491    756.77378  0.027288828  0.026869452           19 
 2312000   0.86969749   -6.5271383    756.24606  0.027258004  0.026862857           14 
 2313000    0.8865531   -6.5376589    757.13728  0.027278328  0.026856348            8 
 2314000   0.86905279   -6.5020752    759.93353   0.02736724  0.026849865           15 
 2315000    0.8921264   -6.5241613    758.58601  0.027306912  0.026843406           15 
 2316000   0.88189883   -6.5441646     757.7815  0.027266174  0.026836893           13 
 2317000   0.87047406   -6.5830861    755.99534  0.027190165  0.026830357           14 
 2318000   0.87104468   -6.4976198    757.37744  0.027228122  0.026823855            7 
 2319000   0.87960193   -6.5159929    757.37572  0.027216319  0.026817396           13 
 2320000     0.887971   -6.5360114    758.86493  0.027258079  0.026810913            9 
 2321000   0.88001007   -6.5368046    757.36573  0.027192508  0.026804395            7 
 2322000   0.89148907   -6.5432254    757.69318  0.027192549   0.02679791           12 
 2323000   0.87141655   -6.5114261    759.71372  0.027253326  0.026791421            6 
 2324000    0.8805969   -6.5346636    760.80239  0.027280636  0.026784914            7 
 2325000   0.88197586   -6.5452339    756.45009  0.027112906  0.026778417           11 
 2326000   0.88634148   -6.5526356    758.57465  0.027177366  0.026771912            6 
 2327000   0.87535731   -6.5561152    759.27527  0.027190777  0.026765377            8 
 2328000   0.84806822   -6.5231612    758.96216  0.027167889  0.026758915           15 
 2329000   0.88089055   -6.5294569    759.61256  0.027179496  0.026752432           10 
 2330000   0.87771456   -6.5074821    760.24459  0.027190436  0.026745982           17 
 2331000   0.87049547   -6.4886827    759.74567  0.027160935  0.026739556           13 
 2332000    0.8721394   -6.5017916    757.68798  0.027075757  0.026733107           19 
 2333000   0.86870707   -6.5391882    761.50908  0.027200639   0.02672667            8 
 2334000   0.86592729   -6.5549604    760.95407  0.027169169   0.02672026           18 
 2335000   0.90740668   -6.5009929    760.64506  0.027146505  0.026713873            8 
 2336000    0.8846049   -6.5210812    762.57869  0.027203863  0.026707526           11 
 2337000   0.87599657   -6.5246181    758.41268   0.02704367  0.026701141           10 
 2338000   0.87110077   -6.5337172    763.33708  0.027207623   0.02669476            8 
 2339000    0.8800424   -6.5081161    761.26197   0.02712206  0.026688414            8 
 2340000   0.85222945   -6.5226354    762.11731   0.02714093  0.026682029            7 
 2341000   0.87756569   -6.5184459    762.15443  0.027130658  0.026675627           17 
 2342000   0.87179211   -6.5415603    759.75602  0.027033733  0.026669209            6 
 2343000   0.85742397   -6.5364578     761.7226   0.02709214  0.026662746            7 
 2344000   0.88837472   -6.5304802    761.78761  0.027082893  0.026656293           11 
 2345000   0.86295153   -6.5074853     763.0773  0.027117175  0.026649853           13 
 2346000   0.87859063   -6.5211914    760.00308  0.026996415   0.02664351            8 
 2347000   0.85734826   -6.5372481    763.57286  0.027111662  0.026637066           11 
 2348000    0.8783671   -6.5339536    763.45658  0.027095989  0.026630655            5 
 2349000   0.88115892   -6.5287874    762.57546  0.027053195  0.026624227            9 
 2350000   0.87780799   -6.5440073    763.56583  0.027076802  0.026617827           10 
 2351000   0.85962632   -6.5406799    763.09384  0.027048555  0.026611394           13 
 2352000   0.86022636   -6.5420658    765.17155   0.02711067  0.026604911           19 
 2353000   0.87650309    -6.500965    765.05794  0.027095125  0.026598527           11 
 2354000   0.87313612   -6.5337229    764.64858  0.027069123  0.026592177           20 
 2355000   0.86997255   -6.5625583    763.85996  0.027029722  0.026585795           10 
 2356000   0.88202434   -6.5294729    766.83276    0.0271234  0.026579408            6 
 2357000   0.87492386    -6.532168    764.86073   0.02704217  0.026573021           15 
 2358000    0.8902434   -6.5437143    766.13649  0.027075788  0.026566642            8 
 2359000   0.87749451   -6.5817701    764.98583  0.027023662    0.0265602           34 
 2360000   0.87702668   -6.5499501    764.46583   0.02699385  0.026553726            9 
 2361000   0.90021888   -6.5227888    764.60519  0.026987335  0.026547297            9 
 2362000    0.8766385   -6.5569994    765.49814  0.027007414   0.02654088           16 
 2363000   0.86671416   -6.5593639    764.69243   0.02696757  0.026534516            8 
 2364000   0.87204089   -6.5570894    764.18901  0.026938417  0.026528131            4 
 2365000    0.8643133   -6.5467962    767.23756  0.027034445  0.026521706            9 
 2366000   0.88364804   -6.5362061    768.27801  0.027059665  0.026515378            9 
 2367000   0.87036147   -6.5291917    767.01973  0.027003934  0.026509038           11 
 2368000    0.8609732   -6.5482645    764.87485  0.026917049  0.026502656           26 
 2369000   0.87789852   -6.5385575    766.05462  0.026947187  0.026496278           19 
 2370000   0.87965571   -6.5432409    765.88772  0.026929948  0.026489931           10 
 2371000   0.86806183   -6.5547397    767.56181  0.026977429  0.026483616           10 
 2372000   0.87083499   -6.5622487    768.24736  0.026990141  0.026477331           12 
 2373000   0.86014768   -6.5665944    766.75947  0.026926516  0.026471021           20 
 2374000   0.86107441   -6.5727661    766.53217  0.026907195  0.026464701           16 
 2375000   0.86499527   -6.5560995    768.52825  0.026965904  0.026458378           15 
 2376000   0.88420861   -6.5472409    768.84096  0.026965522  0.026452146           18 
 2377000   0.85414041   -6.5313458    768.78581  0.026952244  0.026445907           12 
 2378000   0.86885049   -6.5473929    770.61943  0.027005166  0.026439683           12 
 2379000    0.8710091   -6.5432834    769.93095  0.026969698  0.026433445           16 
 2380000   0.87721188   -6.5368477    767.58224  0.026876129  0.026427172           11 
 2381000   0.87059191   -6.5596165    768.99758  0.026914377  0.026420915           14 
 2382000   0.87805197    -6.572131    769.50512  0.026920834  0.026414737           11 
 2383000   0.86482109   -6.5160337    769.65347  0.026914725  0.026408561           13 
 2384000     0.868419   -6.5385877    771.81816  0.026979102  0.026402418           36 
 2385000     0.867413   -6.5054215    771.30123  0.026949728  0.026396237           13 
 2386000   0.85093395   -6.5371539    771.39735  0.026941791  0.026390048            9 
 2387000   0.85792698   -6.5485905    771.59784  0.026937503  0.026383844           28 
 2388000   0.85926736    -6.542948    770.28107  0.026880272  0.026377627           23 
 2389000   0.87794849     -6.56311    772.37572  0.026942086   0.02637143           13 
 2390000    0.8707442   -6.5453682    770.83662  0.026877149  0.026365296            5 
 2391000   0.86693727    -6.551647    770.78654  0.026864162  0.026359186            4 
 2392000   0.85964474   -6.5655934    771.44381   0.02687583   0.02635298            7 
 2393000   0.85270883   -6.5626304    770.97835  0.026848389  0.026346768           10 
 2394000    0.8658067   -6.5425912    772.83856  0.026901927  0.026340607            7 
 2395000   0.83521132     -6.52559    772.82176   0.02689011  0.026334464           11 
 2396000   0.86731677    -6.554113    771.71872  0.026840523  0.026328245            7 
 2397000   0.86790377   -6.5765244    770.96933  0.026803272     0.026322            8 
 2398000   0.86069267   -6.5446573    772.67967  0.026851531   0.02631572           12 
 2399000   0.87297146   -6.5609692    772.09312  0.026819964  0.026309491            9 
 2400000   0.88170517   -6.5708555    772.09257   0.02680877  0.026303261           17 
 2401000   0.85981818   -6.5569712    772.41922  0.026808941  0.026297077           14 
 2402000   0.86103781   -6.5510018    772.15043  0.026788455  0.026290973            9 
 2403000   0.86633703   -6.5277174     773.9239  0.026838809  0.026284926           13 
 2404000   0.87461048   -6.5334615    774.39382  0.026843934  0.026278832            5 
 2405000    0.8404973   -6.5600311    773.83227  0.026813315  0.026272685            8 
 2406000   0.86253814   -6.5461721    773.73261  0.026798719  0.026266546           41 
 2407000   0.86322251   -6.5571518    774.80986  0.026824881  0.026260401           25 
 2408000   0.84969845   -6.5395804    775.23824  0.026828566  0.026254266           20 
 2409000    0.8772235    -6.567343    775.36954  0.026821971   0.02624816           10 
 2410000   0.86900929   -6.5622967    773.55941  0.026748251  0.026242019           11 
 2411000   0.86331556   -6.5689231      772.842   0.02671236  0.026235912            4 
 2412000   0.86891198   -6.5618351     773.8578   0.02673638  0.026229808           10 
 2413000   0.86151653    -6.548211    775.00305  0.026764852  0.026223707            6 
 2414000    0.8601181   -6.5387358    775.11108  0.026757494  0.026217621           23 
 2415000   0.87291592    -6.571813    776.14103  0.026781954  0.026211528            8 
 2416000   0.86437715   -6.5375015    777.74441  0.026826173  0.026205455            7 
 2417000   0.87009429   -6.5587142    775.23526  0.026728564  0.026199385            4 
 2418000   0.86384044   -6.5377197    776.31945  0.026754875   0.02619329           11 
 2419000   0.86953213   -6.5466425     776.4306  0.026747644  0.026187238            7 
 2420000   0.88333211    -6.539378    776.37748  0.026734762  0.026181155           16 
 2421000    0.8544627   -6.5538925    776.90238  0.026741787  0.026175028           19 
 2422000   0.86069955   -6.5400361    776.96037  0.026732741  0.026168885            4 
 2423000   0.88072796   -6.5516051    776.52312  0.026706669  0.026162769            5 
 2424000   0.87457645   -6.5635626    776.31979  0.026688662  0.026156625            5 
 2425000   0.86860821    -6.563018      777.341  0.026712749  0.026150555           10 
 2426000   0.87610551   -6.5570769    775.83525  0.026650015  0.026144476            9 
 2427000   0.85766281   -6.5679376    777.15675   0.02668441   0.02613836           15 
 2428000   0.87440588   -6.5526867    778.62976  0.026723976  0.026132241           11 
 2429000   0.85841653   -6.5492122    779.39956  0.026739384  0.026126106            5 
 2430000    0.8495814   -6.5408806    777.12776  0.026650472  0.026120058            7 
 2431000    0.8569056    -6.548291    781.48625  0.026788916  0.026113973            8 
 2432000   0.85303518   -6.5846608     778.4826   0.02667498  0.026107877           13 
 2433000   0.86218661   -6.5771721    778.04216   0.02664893  0.026101769           13 
 2434000    0.8699555   -6.5852086    778.10528  0.026640142  0.026095634           17 
 2435000   0.87793858    -6.551437    777.26419  0.026600417  0.026089524           30 
 2436000   0.88187906   -6.5644667    776.57408  0.026565889  0.026083412           19 
 2437000   0.86221363   -6.5818096    778.53901  0.026622179  0.026077253           34 
 2438000    0.8586829    -6.553439    778.18776  0.026599254    0.0260711           10 
 2439000   0.86475254   -6.5647196    777.67974   0.02657099   0.02606501           15 
 2440000   0.86968523   -6.5605129    778.07477  0.026573592  0.026058904           14 
 2441000   0.88103985   -6.5575816    777.10734  0.026529678  0.026052809           14 
 2442000   0.85492498   -6.5599082    779.62846  0.026604848  0.026046668           15 
 2443000   0.88092609   -6.5767198    780.08934  0.026609679  0.026040555           16 
 2444000   0.85192491   -6.5438322    779.53285  0.026579816  0.026034485           16 
 2445000   0.85814044   -6.5842371    780.13739   0.02658955  0.026028384           17 
 2446000   0.85555754   -6.5597239    780.09875  0.026577363  0.026022239           22 
 2447000   0.85290851   -6.5390736    778.11301  0.026498876  0.026016167            6 
 2448000   0.86573259    -6.568048    778.98392  0.026517699  0.026009999            7 
 2449000   0.85619896   -6.5483327     779.6779  0.026530485   0.02600388            7 
 2450000   0.85135496   -6.5791248     779.8966  0.026527095  0.025997787           16 
 2451000   0.86175753   -6.5298292    782.34112  0.026599385  0.025991691            7 
 2452000    0.8611944   -6.5857497    779.85827  0.026504155  0.025985588           15 
 2453000   0.86990497   -6.5682294    780.39486   0.02651158   0.02597943           13 
 2454000   0.84327199   -6.5884639    781.30994  0.026531851  0.025973244           12 
 2455000   0.86478804   -6.5371132    780.66585   0.02649918  0.025967119           41 
 2456000   0.85783469   -6.5951366    781.46069   0.02651536  0.025961004            9 
 2457000   0.84877511   -6.5607349    781.20691  0.026495961  0.025954895           12 
 2458000   0.86758169   -6.5647696    780.04025  0.026445628  0.025948774            7 
 2459000   0.84148303   -6.5807147    781.31643  0.026478122   0.02594259           10 
 2460000   0.87427835   -6.5673213    783.21123  0.026531546  0.025936464           12 
 2461000   0.86355014   -6.5811999    780.63697  0.026433596  0.025930334           13 
 2462000   0.84966402   -6.5938209    782.77917  0.026495369  0.025924205           18 
 2463000   0.86062845   -6.5411308    782.95225  0.026490467  0.025918077            9 
 2464000   0.86953319   -6.5852841    783.49286     0.026498  0.025911943           12 
 2465000   0.85461091   -6.5615668    782.21916  0.026444191  0.025905742           19 
 2466000   0.87102353   -6.5763675      779.505  0.026341748  0.025899566            8 
 2467000    0.8583956    -6.566339    781.98347  0.026414791  0.025893397            7 
 2468000    0.8603277   -6.5566758    782.71981  0.026428951  0.025887278            6 
 2469000   0.85077528    -6.588545    781.66172  0.026382534   0.02588115            5 
 2470000    0.8453706   -6.5797741    783.98064  0.026450089  0.025875042            9 
 2471000   0.83814944    -6.560071    782.18979  0.026378989  0.025868902           11 
 2472000   0.84596663    -6.582091    783.42068  0.026409813  0.025862781           10 
 2473000   0.85684349   -6.5538254    785.07078  0.026454737  0.025856663            6 
 2474000   0.85435079   -6.5839635    783.72269  0.026398635  0.025850521            8 
 2475000   0.83829656   -6.5802535    785.07683  0.026433563  0.025844388            5 
 2476000    0.8565423   -6.5886869    783.01337  0.026353439  0.025838296           31 
 2477000    0.8704816   -6.5852373    783.51579  0.026359702  0.025832198           25 
 2478000   0.84036458   -6.5812546    784.89997  0.026395614  0.025826095           16 
 2479000   0.85522628   -6.5848649     782.9835  0.026320543  0.025819993            9 
 2480000   0.85787233   -6.6012159    783.36369  0.026322705  0.025813885           13 
 2481000    0.8370192   -6.5929937     785.8614  0.026395989  0.025807778           15 
 2482000   0.84597608   -6.5700929    783.85375  0.026317948  0.025801668           17 
 2483000   0.85430182   -6.5992443    783.22012  0.026286083  0.025795533           11 
 2484000   0.87073061   -6.5690211    786.39152  0.026381895  0.025789369           10 
 2485000   0.86360529   -6.5787209    783.96586  0.026289935  0.025783187           28 
 2486000   0.85396157    -6.591339    785.21022  0.026321072  0.025776984           12 
 2487000   0.86476903   -6.5851008    784.98015  0.026302779  0.025770853            7 
 2488000   0.85572484   -6.5593005    786.60439   0.02634661  0.025764742           26 
 2489000   0.85687387   -6.5543557    785.40527  0.026295877  0.025758627           46 
 2490000   0.85596251   -6.5616143    783.33064  0.026215885  0.025752539           27 
 2491000    0.8501124   -6.5694493    787.13071  0.026332487  0.025746399            9 
 2492000   0.83170676   -6.5981374     784.2467  0.026225478  0.025740287            9 
 2493000   0.82879478   -6.5819838    786.65248  0.026295376  0.025734146           22 
 2494000   0.87661408    -6.591057     784.5542  0.026214722   0.02572801           12 
 2495000   0.86460779   -6.5690975    785.63131  0.026240191  0.025721902           15 
 2496000   0.86270326   -6.5566284    785.52062  0.026225982  0.025715754           14 
 2497000   0.83515426   -6.5811726    786.04745  0.026233061  0.025709587           13 
 2498000   0.87203652   -6.5970977    786.13559    0.0262255  0.025703453           10 
 2499000   0.84602142   -6.6016348    786.24905  0.026218789  0.025697342            7 
 2500000   0.85386985   -6.5809884    786.53917  0.026217972  0.025691211           13 
 2501000   0.85612132      -6.5901    785.99906  0.026189493  0.025685062           18 
 2502000   0.85140362   -6.5589592    785.63133  0.026166778  0.025678903           13 
 2503000   0.85340386   -6.5533297     788.6708  0.026257518  0.025672733           13 
 2504000   0.85056194   -6.5764929    787.41317  0.026205177  0.025666606           11 
 2505000    0.8555327    -6.571946    786.55838   0.02616628  0.025660405           18 
 2506000   0.84850875     -6.59872    783.37804  0.026050081  0.025654174           12 
 2507000   0.83260468   -6.5727114    784.92249  0.026091028  0.025647925           32 
 2508000   0.86096986   -6.5591679    788.11859  0.026186822  0.025641729            9 
 2509000   0.83908053   -6.5811704    785.76818  0.026098319  0.025635499           12 
 2510000   0.84581098   -6.5767538    785.69056  0.026085344  0.025629251           10 
 2511000   0.83666828   -6.5535179    784.79131  0.026045112  0.025622992           21 
 2512000   0.86386008   -6.5984424    784.54768  0.026026662  0.025616742           18 
 2513000   0.85420274   -6.5868745    788.01234  0.026131196  0.025610493            8 
 2514000   0.84718511   -6.5676726    786.83968   0.02608193  0.025604314           10 
 2515000   0.83877997   -6.5919618    785.66598   0.02603267  0.025598158            8 
 2516000   0.82665578   -6.6114707    785.16534  0.026005741  0.025591945           21 
 2517000   0.84323129    -6.576541    788.00231  0.026089336  0.025585709           17 
 2518000   0.85142858    -6.589452     788.1305  0.026083218   0.02557948           10 
 2519000   0.85880963   -6.5461525    789.17437  0.026107396  0.025573279           10 
 2520000   0.83174338   -6.5697667    788.09714  0.026061413   0.02556711           12 
 2521000    0.8519916   -6.5834873    789.52755  0.026098359    0.0255609            8 
 2522000   0.85089081   -6.6109409    789.19212  0.026076927  0.025554682           40 
 2523000   0.84482632   -6.5935214    789.36388  0.026072265  0.025548448           12 
 2524000   0.84711566   -6.5780595    788.16977   0.02602251  0.025542225            6 
 2525000   0.82969684   -6.5763544    789.19519  0.026046046  0.025536037            6 
 2526000   0.85055626   -6.5836229    789.24478  0.026037371   0.02552981           17 
 2527000   0.85544763    -6.570463     788.9054  0.026015875  0.025523601            9 
 2528000    0.8594994   -6.5851547    790.42073  0.026055536  0.025517409           10 
 2529000   0.84994963   -6.5928179    791.45619  0.026079353  0.025511238           10 
 2530000   0.86689441   -6.5918892    788.26415  0.025963905  0.025505034           16 
 2531000   0.85317312   -6.6009976    790.51648  0.026027805    0.0254989            8 
 2532000   0.83605118   -6.5545549    788.93387  0.025965438   0.02549274           12 
 2533000   0.86971364   -6.6117331    789.41646  0.025971064  0.025486508           33 
 2534000   0.86177042   -6.6237752    789.94516  0.025978202  0.025480259           16 
 2535000   0.84237237   -6.5917493    786.37491  0.025850589  0.025473983           14 
 2536000   0.85202069   -6.6003645    789.45426  0.025941583  0.025467701           16 
 2537000   0.83331446   -6.6044074    789.36211  0.025928331  0.025461435            9 
 2538000   0.84923831   -6.5973416    789.82743  0.025933394  0.025455116           17 
 2539000   0.86024399   -6.6010462    790.60171  0.025948592  0.025448846           13 
 2540000   0.82636827    -6.586206    792.98289  0.026016499  0.025442612           13 
 2541000   0.85627587   -6.6020789    790.06155  0.025910454  0.025436405            8 
 2542000   0.83090521    -6.597582    791.87569  0.025959733  0.025430209           12 
 2543000   0.84567825   -6.5608737    790.68245  0.025910422  0.025423991            6 
 2544000   0.84660739    -6.583647    790.26151  0.025886449  0.025417779           13 
 2545000    0.8463797   -6.6088007    790.76161  0.025892652  0.025411525           14 
 2546000   0.82338575   -6.6275639     790.6677  0.025879409  0.025405204           16 
 2547000   0.84954127   -6.6399735    788.31149  0.025792157  0.025398855            9 
 2548000   0.85590434   -6.6023476    790.52698  0.025854493  0.025392582           10 
 2549000   0.83838962   -6.5674425    793.47385  0.025940691  0.025386298           18 
 2550000   0.85348292   -6.6044068    792.65095  0.025903626    0.0253801            7 
 2551000   0.84726347   -6.5980881    791.20065  0.025846095  0.025373897           12 
 2552000   0.83724582   -6.5880245    791.27413  0.025838366  0.025367634            9 
 2553000   0.83842744   -6.5849245    790.92126  0.025816727  0.025361405           23 
 2554000   0.84482602   -6.5627309    790.82599   0.02580351  0.025355184           11 
 2555000   0.85438995   -6.5849902    794.10916  0.025900494  0.025348977           21 
 2556000   0.85761327   -6.5826069    792.12613  0.025825708  0.025342751           11 
 2557000   0.82701643   -6.5588143    793.26591  0.025852754  0.025336471            8 
 2558000   0.84140861   -6.5939145    791.93875  0.025799412  0.025330211            8 
 2559000   0.84131105   -6.6518696    792.06692  0.025793504  0.025323887           30 
 2560000    0.8436679   -6.5894644    791.33057  0.025759459    0.0253176           13 
 2561000   0.81982794   -6.6238057    791.92509  0.025768746  0.025311309           30 
 2562000   0.84666283   -6.6123309    791.55698  0.025746714  0.025304989           12 
 2563000   0.84293703   -6.6094265    792.34251  0.025762209  0.025298695           15 
 2564000   0.84829888   -6.5836988    791.79801  0.025734465  0.025292409           12 
 2565000   0.82137223   -6.5984593    793.75037  0.025787861  0.025286129           18 
 2566000    0.8285983    -6.603517    794.02171  0.025786623  0.025279812           10 
 2567000   0.85633573   -6.5950221    791.31553  0.025688726  0.025273492           20 
 2568000   0.84328733   -6.5932753    792.86054   0.02572886  0.025267161           17 
 2569000   0.83714003    -6.633562    790.78345  0.025651468  0.025260848           12 
 2570000   0.84297071   -6.6053854    794.25008  0.025753894  0.025254522           27 
 2571000   0.82055501   -6.6017682    793.94563  0.025734009  0.025248204           16 
 2572000   0.82842593   -6.6160988    793.09434  0.025696421  0.025241883           73 
 2573000   0.84460975   -6.6327237    793.77381  0.025708441  0.025235561           69 
 2574000   0.82919893   -6.5889561    794.03583  0.025706936  0.025229254           47 
 2575000   0.83913944   -6.6128221    794.12062  0.025699696  0.025222983           34 
 2576000   0.85053114   -6.6219056    794.79693  0.025711599  0.025216676           30 
 2577000   0.86542604   -6.6250466    791.87244  0.025607051  0.025210372           16 
 2578000   0.83009452   -6.5796554    791.82858    0.0255957  0.025204015            7 
 2579000    0.8357303   -6.5856548    792.90427  0.025620533  0.025197678           11 
 2580000   0.82513822   -6.6118578    792.99187  0.025613432  0.025191359           14 
 2581000   0.84200674   -6.5912172    793.65549  0.025624935  0.025185062           13 
 2582000   0.84039306   -6.5916576    791.33195  0.025540019  0.025178786           16 
 2583000   0.83657992   -6.6241708    795.22583  0.025655757  0.025172537           20 
 2584000   0.85316327   -6.6045963    795.52595  0.025655507   0.02516631           13 
 2585000   0.83755673   -6.6367373    795.45692  0.025643357  0.025160082           11 
 2586000   0.83964797   -6.6091669    797.13424  0.025687491  0.025153804            8 
 2587000   0.83642767   -6.6187507    793.59279  0.025563484   0.02514751            8 
 2588000   0.83363219    -6.612168    796.06733  0.025633286  0.025141253            3 
 2589000   0.84066248   -6.6120955    796.03239  0.025622261  0.025135017           14 
 2590000   0.86040665   -6.5956164    794.12366  0.025550954  0.025128738           16 
 2591000   0.84261195   -6.6222681    794.67433  0.025558804  0.025122444           14 
 2592000   0.85059039   -6.6102463    796.07791  0.025594069  0.025116159           19 
 2593000   0.84410139    -6.620861    795.21031  0.025556315  0.025109884           10 
 2594000   0.82830978   -6.6132243    795.44534  0.025554014  0.025103568           13 
 2595000   0.80456454   -6.5689964    796.33985  0.025572892   0.02509732           10 
 2596000   0.82131711   -6.6350888    794.97466  0.025519218  0.025091078            6 
 2597000   0.83205136   -6.5986925    796.84746  0.025569486  0.025084848            7 
 2598000   0.83076822   -6.5746174    797.51835  0.025581163  0.025078623            8 
 2599000    0.8319019   -6.5935186     795.7475  0.025514541  0.025072356           24 
 2600000   0.82693686   -6.6259231    796.83073  0.025539447  0.025066085           18 
 2601000   0.82388516   -6.6270366    794.98478  0.025470485  0.025059775           52 
 2602000   0.82733174   -6.6476546    794.64025  0.025449662   0.02505346           11 
 2603000   0.83121849   -6.6479748    796.35532  0.025494792   0.02504714            9 
 2604000   0.83029943   -6.6417565    796.28949  0.025482895  0.025040839           11 
 2605000   0.83576021   -6.6131552    796.60857   0.02548332  0.025034532           16 
 2606000   0.82832161   -6.6071539    797.67962   0.02550779  0.025028234           13 
 2607000    0.8375094   -6.5809662    795.96547  0.025443213   0.02502193           10 
 2608000   0.83636195   -6.6125721    794.78396  0.025395704  0.025015626           18 
 2609000   0.82924081   -6.6198095    796.19434  0.025431019  0.025009322           10 
 2610000   0.81872565    -6.604089    796.31698  0.025425191  0.025003015           11 
 2611000   0.82723227   -6.6065241     797.4049  0.025450175  0.024996723           13 
 2612000   0.84290219   -6.5939248    797.30905  0.025437374   0.02499043           28 
 2613000   0.86053745   -6.6187432    797.25587  0.025425943   0.02498415           18 
 2614000   0.83919115   -6.5950091      799.436  0.025485718   0.02497789           21 
 2615000   0.82139291   -6.6326864     797.0303  0.025399309  0.024971598           23 
 2616000     0.837506   -6.6357116    797.70617  0.025411129  0.024965301            7 
 2617000   0.84103632   -6.6359389    796.94138  0.025377066  0.024959027           11 
 2618000   0.83169307   -6.6070524    798.07511   0.02540346  0.024952767           17 
 2619000   0.85297667    -6.601572    799.25057  0.025431162  0.024946553           12 
 2620000   0.82204536    -6.606151    800.22584  0.025452476   0.02494035           13 
 2621000   0.82763419   -6.6275671    798.66518  0.025393144  0.024934168           11 
 2622000   0.82890135   -6.6240306    797.36974  0.025342288  0.024927923           12 
 2623000   0.83523861   -6.6032925    798.24425  0.025360409   0.02492166           17 
 2624000   0.83562222   -6.5955668    798.44224  0.025357033  0.024915452           12 
 2625000   0.83652495   -6.6007972    799.47029  0.025380009  0.024909248           14 
 2626000   0.84418462   -6.6446241    798.01852  0.025324274  0.024902999           23 
 2627000   0.82159373   -6.6250659    798.76763  0.025338397   0.02489675           17 
 2628000   0.84365944   -6.6381525    797.40798  0.025285641  0.024890493           25 
 2629000   0.83239038   -6.6333705    797.72157  0.025285963  0.024884211           50 
 2630000   0.83739134   -6.6382083    797.61888  0.025273095  0.024877927           18 
 2631000    0.8468706   -6.6450446    797.06092  0.025245817  0.024871654           21 
 2632000   0.83142575   -6.6400319    799.85037  0.025324543  0.024865377           15 
 2633000   0.82599902   -6.6355399     799.6334  0.025308058  0.024859094           13 
 2634000   0.84269669   -6.6407753    798.72691  0.025269771  0.024852773           39 
 2635000   0.82970598   -6.6071018    800.68934  0.025322244  0.024846518           12 
 2636000   0.82919801   -6.6194472    801.11611  0.025326129  0.024840236            8 
 2637000   0.83109509   -6.6249508    800.93758  0.025310883  0.024833984           21 
 2638000    0.8250625   -6.6442867    800.28913  0.025280804   0.02482773           14 
 2639000   0.82372108   -6.6450558    800.79351  0.025287151  0.024821466            7 
 2640000   0.82064049   -6.6405959    801.66023  0.025304931  0.024815228            6 
 2641000   0.82136176   -6.6041383    801.55181  0.025291929  0.024809004           11 
 2642000   0.83921918   -6.6066823    804.89983  0.025387958  0.024802798            7 
 2643000   0.83009537   -6.6267652    802.49683  0.025302586  0.024796563           23 
 2644000    0.8409434   -6.6334158    802.68179  0.025298846  0.024790286           10 
 2645000   0.83898142   -6.6228649    802.03889  0.025269026  0.024784093            8 
 2646000   0.85175668   -6.6046176     803.4053   0.02530251  0.024777937           14 
 2647000   0.83729288   -6.6112171    801.20622  0.025223719  0.024771775           18 
 2648000   0.82525074   -6.6087725    799.74941  0.025168347  0.024765547           17 
 2649000   0.83405471   -6.6261483    801.25132  0.025206094  0.024759295            7 
 2650000   0.82668829   -6.6426001    802.65911  0.025240852  0.024753032            9 
 2651000   0.83318342   -6.6336719     802.5565  0.025228106  0.024746769           12 
 2652000   0.82794008   -6.6360096    801.08511  0.025172358  0.024740502           18 
 2653000   0.82453597   -6.6247462    802.51882  0.025207904  0.024734271            7 
 2654000   0.82962768   -6.6039646    803.81813  0.025239203  0.024728094           20 
 2655000   0.83412423   -6.6206517    800.26794  0.025118265  0.024721871           20 
 2656000    0.8336594   -6.6247068    802.58888  0.025181629   0.02471563           19 
 2657000   0.84338698   -6.6228674     802.0292  0.025154598  0.024709407           22 
 2658000   0.83725573   -6.6376661    803.58053  0.025193771  0.024703142           14 
 2659000    0.8303897   -6.6480548    802.77715  0.025159118  0.024696922            5 
 2660000   0.82040868   -6.6575653    804.42076  0.025201152   0.02469068           20 
 2661000   0.81859158   -6.6499887    803.58004  0.025165352  0.024684458           16 
 2662000   0.84081348   -6.6368367    803.03512  0.025138841  0.024678253            7 
 2663000   0.81210298   -6.6538316    803.41166  0.025141184   0.02467205           16 
 2664000   0.81427512   -6.6307941    804.49153  0.025165526  0.024665859           27 
 2665000   0.82395478   -6.6130502    805.90811  0.025200379  0.024659678           12 
 2666000    0.8097023   -6.6147134    804.24581  0.025138966  0.024653515           19 
 2667000   0.82303735    -6.610659    803.96413  0.025120739  0.024647341           11 
 2668000   0.84057346   -6.6414308    804.15464  0.025117274  0.024641157           13 
 2669000   0.84326871   -6.6499021    802.99771  0.025071741   0.02463496           22 
 2670000   0.80955945    -6.611887    802.71135  0.025053413  0.024628747           21 
 2671000   0.81994063   -6.6470176    801.81473  0.025016059    0.0246225           18 
 2672000   0.82116236   -6.6407775    803.16947  0.025048948  0.024616285           28 
 2673000   0.81241982   -6.6202192    803.45227  0.025048393  0.024610061           14 
 2674000    0.8173174   -6.6116995    805.92731  0.025116159  0.024603867           33 
 2675000   0.79760784   -6.6381165    805.34159  0.025088523  0.024597681           26 
 2676000   0.83001971   -6.6651842     804.5608  0.025054833  0.024591471           13 
 2677000   0.83042075    -6.667764    805.42323  0.025072321  0.024585248           27 
 2678000   0.81725385   -6.6500217    804.91215  0.025047055   0.02457903           37 
 2679000   0.81160037   -6.6042192    805.26522  0.025048688  0.024572839           33 
 2680000   0.80848152   -6.6245614    805.76845  0.025054989  0.024566674           12 
 2681000   0.82933576   -6.6424562    804.39393   0.02500292  0.024560501           12 
 2682000   0.83947442   -6.6698869    805.42365  0.025025592  0.024554316           21 
 2683000   0.82730596   -6.6317213    805.86941   0.02503011  0.024548171           24 
 2684000   0.82322775     -6.63298    806.69129  0.025046302  0.024542033            8 
 2685000   0.83330719   -6.6386852     806.5503  0.025032598  0.024535898            9 
 2686000   0.84744626   -6.6458465    805.76943  0.024999051  0.024529745           10 
 2687000   0.81463839   -6.6753248    806.65072   0.02501708  0.024523567            9 
 2688000    0.8374897   -6.6773177    806.50909  0.025003382  0.024517394           14 
 2689000   0.82733014   -6.6681403    807.31731  0.025019131  0.024511218           10 
 2690000   0.80716522   -6.6370864    805.64234  0.024957941   0.02450508           18 
 2691000    0.8120539   -6.6566647    805.23751   0.02493613  0.024498933           15 
 2692000    0.8134412   -6.6709464    805.38773  0.024931517  0.024492739           18 
 2693000   0.81882421   -6.6334903    807.98413  0.025002603  0.024486606           15 
 2694000    0.8193922   -6.6256397    806.75298  0.024955239  0.024480521            9 
 2695000   0.81121845    -6.628015    808.20393  0.024990845  0.024474451           12 
 2696000   0.83746705   -6.6387668    808.88367  0.025002586  0.024468354            7 
 2697000   0.83490459   -6.6798269    806.86521  0.024930948  0.024462213           21 
 2698000   0.80556536   -6.6776377    806.51752  0.024910969  0.024456019           15 
 2699000    0.8114869   -6.6634098    808.40313  0.024959958  0.024449804           14 
 2700000   0.82527936    -6.641028    809.43324  0.024982507  0.024443651           27 
 2701000   0.81785143   -6.6537945    807.80864  0.024923135  0.024437508           17 
 2702000   0.81443584    -6.643477     809.7816  0.024974759  0.024431387            8 
 2703000   0.80620955    -6.645717    808.22073  0.024917398  0.024425291           21 
 2704000   0.81069571   -6.6499538    809.82971   0.02495777  0.024419167           45 
 2705000   0.83654407   -6.6110617    810.23697   0.02496109  0.024413041           16 
 2706000   0.79940153   -6.6239238    809.40623  0.024926282   0.02440694           28 
 2707000   0.82059355   -6.6148578    813.18845  0.025033507  0.024400851           20 
 2708000   0.82151765   -6.6548626    809.26866  0.024903639  0.024394785           19 
 2709000   0.81715572   -6.6553628    809.93802  0.024915037  0.024388672           33 
 2710000   0.81957278   -6.6444978    810.50609  0.024923312  0.024382553           13 
 2711000   0.81812713   -6.6612271    808.21021  0.024843545  0.024376412            8 
 2712000   0.82300157   -6.6546724    809.34928  0.024869385  0.024370275           14 
 2713000   0.81970201   -6.6437916    808.18747  0.024824532  0.024364166           18 
 2714000    0.8175482    -6.674227     809.0482  0.024841814  0.024358054           26 
 2715000   0.81136468   -6.6482685    808.83977  0.024826267  0.024351939           42 
 2716000   0.82098931   -6.6329582     809.0606  0.024823902  0.024345812           31 
 2717000   0.82804257    -6.694082    807.57788  0.024769288  0.024339683           15 
 2718000   0.81061325   -6.6801807    809.43945  0.024817251  0.024333525           23 
 2719000   0.80287931   -6.6919032    808.95297  0.024793214   0.02432736           35 
 2720000   0.80121004   -6.6634963    808.60096  0.024773314  0.024321192           19 
 2721000   0.81861568   -6.6793543     809.0177  0.024776972  0.024314987           24 
 2722000   0.80398047   -6.6524203    808.29721  0.024745812  0.024308817           14 
 2723000   0.80872869     -6.65082    810.91977  0.024816984  0.024302716           33 
 2724000   0.81963255   -6.6435337    811.95051  0.024839406  0.024296612           16 
 2725000   0.82380235   -6.6327645    812.06087  0.024833666  0.024290544           12 
 2726000   0.82455005   -6.6756145    809.51944  0.024746865  0.024284441           11 
 2727000   0.82386801   -6.6183508    809.41123  0.024734483  0.024278358           16 
 2728000   0.80376564   -6.6074673    813.39475  0.024847103  0.024272287            9 
 2729000   0.79854349    -6.646081    810.15721  0.024739135  0.024266236           17 
 2730000   0.79996821   -6.6429507    812.36116  0.024797349  0.024260167           15 
 2731000   0.80925477   -6.6433962    811.21992  0.024753446  0.024254087           14 
 2732000   0.81669495   -6.6609138    812.56034  0.024785272  0.024247992           40 
 2733000   0.80768686   -6.6743322    812.36364  0.024770205   0.02424191           39 
 2734000   0.81826558    -6.639742    812.08947  0.024752788  0.024235821           15 
 2735000   0.81139554   -6.6573647    810.82772  0.024705293  0.024229756           13 
 2736000   0.80124769   -6.6870219    812.35593   0.02474281  0.024223686            9 
 2737000   0.81882658   -6.6589635    812.30888  0.024732337  0.024217619           28 
 2738000   0.81020182   -6.6420426    811.19219  0.024689317  0.024211555           19 
 2739000   0.81108899   -6.6841569     813.4212   0.02474812  0.024205487           24 
 2740000   0.80986151   -6.6490999    814.36882  0.024767908  0.024199423           14 
 2741000   0.81743913   -6.6547813    811.54922  0.024673149    0.0241934           22 
 2742000   0.82902375   -6.6886542    812.70726  0.024699345  0.024187323           29 
 2743000   0.82051275   -6.6861454    812.97239  0.024698396  0.024181249           13 
 2744000   0.82387269   -6.6941114    812.07389  0.024662108  0.024175167           41 
 2745000   0.82590239   -6.6522228     812.2415  0.024658212    0.0241691           35 
 2746000   0.80318374   -6.6679612    812.18856  0.024647626  0.024163035           41 
 2747000   0.80209133   -6.6365041    813.76201  0.024686385  0.024157012           18 
 2748000   0.80210183   -6.6584745    814.57897  0.024702177  0.024150967           47 
 2749000   0.81427323   -6.6726575    813.77687  0.024668876  0.024144878           64 
 2750000   0.80539292   -6.6677649     814.9501  0.024695457  0.024138827           20 
 2751000   0.82611732   -6.6655946    814.14318  0.024662038  0.024132799           42 
 2752000   0.81348456   -6.6545402    813.31838    0.0246281  0.024126784           17 
 2753000   0.82512928   -6.6772102    817.92455  0.024758583  0.024120761           15 
 2754000   0.80189868   -6.6560525    814.15468   0.02463552  0.024114724           12 
 2755000   0.81107789   -6.6382071    814.76413  0.024645013  0.024108719           36 
 2756000   0.80923396   -6.7062485    814.23335  0.024620022  0.024102667           14 
 2757000   0.80982542   -6.6976439    811.15722  0.024518112    0.0240966           11 
 2758000   0.82053835   -6.6521758    815.20915  0.024631652  0.024090561           17 
 2759000   0.80745294   -6.6601107    814.11335  0.024589626   0.02408456            9 
 2760000     0.803313   -6.6302506     815.3353  0.024617612   0.02407855           17 
 2761000   0.83108363   -6.6758148    814.51928  0.024584066  0.024072539           20 
 2762000   0.80193007   -6.6379441    816.73958  0.024642155  0.024066496           14 
 2763000   0.80934631    -6.650522    816.95582  0.024639758  0.024060459           10 
 2764000   0.82306126   -6.6758005    814.08317  0.024544235  0.024054401           15 
 2765000   0.80281851    -6.657012    815.31428  0.024572462  0.024048375           12 
 2766000   0.81248538   -6.6833575    814.59136  0.024541798  0.024042306           12 
 2767000   0.78229746   -6.6464081    816.95488   0.02460411  0.024036281           23 
 2768000   0.80442075   -6.6678782    813.22338  0.024482881  0.024030237           19 
 2769000   0.81626807   -6.6604389    815.09157  0.024530263   0.02402415           10 
 2770000   0.81360397   -6.6761997    816.78328  0.024572301  0.024018083           29 
 2771000    0.7998918   -6.6421968    816.81405  0.024564358  0.024012028           52 
 2772000   0.81321676   -6.6620506      814.368  0.024481963  0.024005976           30 
 2773000   0.79930914   -6.6547662    815.63252  0.024511135  0.023999918           19 
 2774000   0.81065635   -6.6781159    816.08753  0.024515968  0.023993875           32 
 2775000   0.82135465   -6.6515448    812.92897  0.024412282  0.023987836           14 
 2776000    0.8188585   -6.6962301    815.14889  0.024470128   0.02398177           25 
 2777000   0.81120754   -6.6517677    817.95485  0.024545518  0.023975704           31 
 2778000   0.82486074   -6.6760069    816.79646  0.024501934  0.023969653           21 
 2779000   0.81501638   -6.6458578    817.52387   0.02451493  0.023963597           26 
 2780000    0.8178364   -6.6982296    817.01362  0.024490816   0.02395753           30 
 2781000   0.82164514   -6.6762405    818.30444  0.024520689  0.023951425           28 
 2782000    0.8232255   -6.7019257    816.09386  0.024445658  0.023945329           32 
 2783000   0.79951794   -6.6885034     815.6532   0.02442368  0.023939219           34 
 2784000   0.79960354   -6.6596711    816.67737  0.024445563  0.023933192            9 
 2785000   0.80757798   -6.6746286     816.8691  0.024442522  0.023927138           27 
 2786000    0.8106027    -6.690426    816.63388  0.024426713  0.023921052           34 
 2787000   0.81617732    -6.673613    817.96743  0.024457823   0.02391499           38 
 2788000   0.81823166   -6.6764682    817.34441  0.024430428  0.023908946           27 
 2789000   0.80368596   -6.6451093    815.44189  0.024364823  0.023902895           34 
 2790000   0.78981416    -6.694453    819.29909  0.024471299  0.023896861           32 
 2791000   0.82225637   -6.6921631    816.94288   0.02439218  0.023890799           35 
 2792000   0.81812497   -6.6693427    818.41561    0.0244274  0.023884733           15 
 2793000   0.80314058   -6.6891258    818.20724  0.024412437  0.023878672           38 
 2794000   0.78423119   -6.6919143    815.81398  0.024332319   0.02387257           13 
 2795000   0.80549536   -6.6680128    817.16164  0.024363794  0.023866488           10 
 2796000   0.81528505   -6.6998804    816.14157  0.024324677  0.023860406           19 
 2797000    0.8012839   -6.6642285    818.26255  0.024379173  0.023854325           30 
 2798000   0.81734197    -6.669343    818.11732  0.024366134   0.02384825           45 
 2799000   0.80760689    -6.681954    817.80899  0.024348249   0.02384218           11 
 2800000   0.80156361   -6.6671569    818.18262  0.024350673  0.023836143           11 
 2801000   0.82444557   -6.6803146    817.29571  0.024315593  0.023830074           19 
 2802000   0.81625398   -6.7135832     816.8395  0.024293347  0.023823996           26 
 2803000   0.79781785   -6.6921095    818.66072  0.024338825  0.023817908           18 
 2804000   0.79808741   -6.6986869    818.86372  0.024336178  0.023811842           27 
 2805000   0.80967862   -6.6938668    818.56611   0.02431866  0.023805761           23 
 2806000   0.81302397   -6.6648876    820.15681  0.024357235   0.02379973           11 
 2807000   0.81196659   -6.6775864    817.32499  0.024264487  0.023793685           22 
 2808000   0.80130581   -6.6795333    819.04775  0.024306973  0.023787659            7 
 2809000   0.80587625   -6.6618316    820.33441   0.02433649  0.023781636           17 
 2810000   0.81128047   -6.6563755    820.89704  0.024344515  0.023775643           11 
 2811000   0.79701522   -6.6766677    819.18733  0.024285169  0.023769676           19 
 2812000   0.79551037   -6.6593488    819.28329  0.024279377  0.023763653           33 
 2813000   0.81665727   -6.6839942    819.23231  0.024269235  0.023757633           56 
 2814000    0.8137557   -6.6648547    818.83944  0.024248976  0.023751583           44 
 2815000   0.81109587   -6.6664331    818.76322  0.024238106   0.02374553           25 
 2816000   0.80167785   -6.7118408    819.52642  0.024252084  0.023739471           29 
 2817000   0.81898476    -6.666695    821.80271  0.024310813  0.023733434           27 
 2818000    0.8080011   -6.6901907    819.62315  0.024237732  0.023727407           20 
 2819000   0.80959061   -6.6623306    819.36968  0.024221641  0.023721379           12 
 2820000   0.80673186   -6.6550089     818.9204  0.024199775  0.023715329           23 
 2821000   0.79775552   -6.6691277    819.51217  0.024208678  0.023709249           12 
 2822000   0.80554535   -6.6832577    819.31591  0.024194304  0.023703127           26 
 2823000   0.77977364   -6.6781807    820.48073  0.024220118  0.023697022           65 
 2824000   0.81344609    -6.664258    820.10095  0.024200335  0.023690939           56 
 2825000    0.8105812   -6.6999002    820.45865   0.02420232  0.023684878           38 
 2826000   0.78529321   -6.6606998    820.44388   0.02419332  0.023678789           11 
 2827000   0.78995243   -6.7080973    820.47237  0.024185602  0.023672704           17 
 2828000    0.8040803   -6.6852372    821.81581  0.024216637  0.023666608           38 
 2829000   0.79677468   -6.7005319    821.32199  0.024193531   0.02366052           36 
 2830000   0.79797233   -6.6915575    821.44569  0.024188625  0.023654411            8 
 2831000   0.81036748   -6.6720871    821.27654  0.024175101  0.023648344           44 
 2832000   0.78295907   -6.6840618     822.1274  0.024191602  0.023642316           21 
 2833000   0.80263419   -6.6651216    821.30443  0.024158855  0.023636328           12 
 2834000    0.7885814   -6.7074119     820.8753  0.024137712   0.02363029            9 
 2835000   0.79935125   -6.6916396      822.792  0.024185538  0.023624241           13 
 2836000   0.79294273   -6.6931403    822.40995  0.024165784   0.02361819           16 
 2837000   0.78463167   -6.7017794    819.84974  0.024082063  0.023612152           39 
 2838000     0.793456   -6.7016335    823.17123  0.024171107  0.023606078           10 
 2839000   0.80602145   -6.7130149    820.72696  0.024090846  0.023600025           10 
 2840000   0.79948911    -6.662933    820.90837  0.024087687  0.023593993           20 
 2841000   0.78444937   -6.6996275    819.66079  0.024042614  0.023587946           22 
 2842000   0.79076918   -6.6842146    820.39791  0.024055768  0.023581891           13 
 2843000   0.80377423   -6.6831631    821.54579  0.024080953  0.023575817            9 
 2844000   0.79466289    -6.695469     823.3853  0.024126386  0.023569752           22 
 2845000   0.81982033    -6.676811    822.55933  0.024093712  0.023563702           29 
 2846000   0.80328904   -6.6806376    820.88648  0.024036264  0.023557648           11 
 2847000   0.80091477   -6.6851146    822.41975  0.024072701  0.023551578           22 
 2848000   0.80673693   -6.7184933    821.80686  0.024046315  0.023545494           22 
 2849000   0.80180378   -6.6982591    819.92243  0.023982755  0.023539409           10 
 2850000   0.79820168   -6.6977018    822.00547  0.024035248  0.023533346            9 
 2851000   0.78408458   -6.7057439    821.38981  0.024008822  0.023527265           29 
 2852000   0.81729436   -6.6953803    821.97179  0.024017408  0.023521172            7 
 2853000   0.79105252   -6.7074487    822.29097  0.024018313  0.023515083           11 
 2854000   0.78487493   -6.6764047    825.22032  0.024095431  0.023509005           25 
 2855000   0.78308202   -6.7078691    823.24094  0.024029216  0.023502958           13 
 2856000   0.80088816   -6.7121823    822.51658  0.023999667  0.023496903           24 
 2857000   0.80575107   -6.6971244    821.96899  0.023975294  0.023490868           26 
 2858000   0.80036924   -6.7139089    821.74595  0.023960402  0.023484801           18 
 2859000   0.79729159   -6.7243097    823.90615  0.024014986  0.023478738            9 
 2860000   0.78722231   -6.7007974    823.16395  0.023984964  0.023472685           16 
 2861000    0.7820843    -6.663871    824.00951  0.024001209  0.023466677           35 
 2862000   0.80488646    -6.698465    823.58346  0.023980417  0.023460665           23 
 2863000   0.81330857   -6.6746319    822.85327  0.023950788  0.023454605           21 
 2864000   0.79314466   -6.7216346     822.1882  0.023923074  0.023448541           18 
 2865000   0.78041236   -6.7015802    823.39748  0.023949897  0.023442495           22 
 2866000   0.79458281   -6.6875226    823.88914  0.023955837  0.023436429           20 
 2867000   0.79550168   -6.7173249    821.34494   0.02387353  0.023430377           38 
 2868000   0.81215777   -6.7170257    824.05611  0.023943983  0.023424294           20 
 2869000   0.79033567   -6.6853836    823.99637  0.023933902  0.023418242           41 
 2870000   0.78713169    -6.697953    822.86337  0.023892665  0.023412199           23 
 2871000   0.77345783   -6.6947748    824.74498  0.023938958  0.023406144           20 
 2872000   0.79706966   -6.7036123    822.99184  0.023879754  0.023400092           12 
 2873000   0.80729619   -6.7035716    825.45862  0.023942993  0.023394019            6 
 2874000   0.79350057   -6.7156379    824.66771  0.023911729  0.023387989           24 
 2875000   0.79212555   -6.6934869    824.86239  0.023909055   0.02338193           16 
 2876000   0.78054671   -6.6954307    824.55293  0.023891775  0.023375878           16 
 2877000   0.78365728   -6.7112796    825.20858  0.023902462  0.023369833           17 
 2878000   0.76779663   -6.6733307     825.4555  0.023901306  0.023363771            9 
 2879000   0.77754273   -6.6948475    823.25828  0.023829405  0.023357712           14 
 2880000   0.77955525   -6.6810248    826.65773  0.023919494  0.023351673           12 
 2881000   0.78193115   -6.6760694    825.33288   0.02387287  0.023345665           22 
 2882000   0.78609133   -6.6966699    823.54553  0.023812906  0.023339644           39 
 2883000   0.78177798   -6.7167108    822.25978  0.023767481  0.023333568           19 
 2884000   0.78174282   -6.6807612    824.36684  0.023820124  0.023327505           17 
 2885000    0.7956761   -6.6896327    823.84443  0.023796777  0.023321453           35 
 2886000   0.78875947   -6.6988187    826.12749  0.023854455  0.023315405           15 
 2887000   0.79211064   -6.6713518    825.52335  0.023828754  0.023309361           26 
 2888000   0.79689878   -6.6934925    826.04199  0.023835468  0.023303319           48 
 2889000    0.7729066   -6.7329308    825.38081  0.023808146  0.023297256           10 
 2890000   0.78175553   -6.7039307    825.29089  0.023797315  0.023291183           14 
 2891000   0.81505683   -6.7082344    824.22195  0.023758271  0.023285139           17 
 2892000   0.78774286   -6.7060533    825.63516  0.023790778  0.023279073           24 
 2893000   0.77091138   -6.7142433    824.78361  0.023758026  0.023272978           20 
 2894000   0.77659559   -6.7192027    825.74299  0.023777441  0.023266882           23 
 2895000   0.78458157   -6.7441883    825.48179   0.02376171  0.023260802           17 
 2896000   0.79801917   -6.6949823    826.22117  0.023774781  0.023254739           22 
 2897000   0.77965729   -6.7219132    825.12143  0.023734939  0.023248665           20 
 2898000   0.78767895   -6.7095766    824.24527  0.023701555  0.023242585           15 
 2899000   0.77608254   -6.6954578    824.82313   0.02370999  0.023236476           34 
 2900000   0.78368392    -6.736738      823.995  0.023678017  0.023230368           37 
 2901000   0.77778512   -6.7449365    823.53802  0.023656728  0.023224225           16 
 2902000   0.79458747   -6.7129258    823.89907  0.023658944  0.023218091           13 
 2903000   0.80209971     -6.72741    825.35286  0.023692527  0.023211983           30 
 2904000   0.77690529   -6.7045364    825.32497  0.023683568  0.023205913           51 
 2905000   0.78016268   -6.7171201    825.80996  0.023689328  0.023199826           48 
 2906000   0.76923433   -6.7049608    824.18535  0.023634588  0.023193759          107 
 2907000   0.78510674   -6.6961922    826.16998   0.02368335  0.023187649           24 
 2908000   0.78747616   -6.6939673    827.57217  0.023715388  0.023181629           15 
 2909000   0.78194236   -6.6871586    827.49046  0.023704895  0.023175602           20 
 2910000   0.77401247   -6.6997217     826.4142  0.023665928  0.023169585           24 
 2911000   0.76978063    -6.694853    827.42261  0.023686666  0.023163582           13 
 2912000   0.76524538   -6.7171133     828.0034  0.023695152  0.023157532           24 
 2913000   0.78740474   -6.7026852    826.42596  0.023641892  0.023151499           24 
 2914000    0.7864324   -6.7140205    826.74701  0.023642959  0.023145454           31 
 2915000   0.79145459   -6.7349875     826.1705  0.023618368  0.023139378           36 
 2916000    0.7673198   -6.7277131     824.8858  0.023573554  0.023133316           33 
 2917000   0.80242834   -6.7244617    827.32886  0.023635266  0.023127299           29 
 2918000   0.77316123   -6.7121842    827.30673  0.023626534  0.023121287           26 
 2919000   0.77429226   -6.7168028    827.49256  0.023623746  0.023115225           25 
 2920000   0.77815557   -6.6974436      827.475  0.023615154  0.023109196           22 
 2921000   0.78183108   -6.7263907    826.31814  0.023574066  0.023103154           10 
 2922000   0.79144068   -6.7128601    827.06474   0.02358729  0.023097132           27 
 2923000   0.77855589   -6.7335329     827.1757  0.023582384  0.023091073           21 
 2924000   0.77716127   -6.7253549    827.69573   0.02358914   0.02308503           17 
 2925000   0.79434237   -6.7241894    828.95528   0.02361696  0.023078966           90 
 2926000   0.78927852   -6.7422548    827.87353   0.02357808  0.023072916           28 
 2927000   0.77623922   -6.7171193    827.28327  0.023553219  0.023066908           30 
 2928000   0.78161192   -6.7400797    828.48647  0.023579419  0.023060928           23 
 2929000   0.78485011   -6.7178882    828.37296  0.023568139  0.023054935           35 
 2930000   0.79465207   -6.6958218    828.28143  0.023557492   0.02304896           23 
 2931000   0.77897349   -6.6981264    828.03881  0.023542557   0.02304298          100 
 2932000   0.76772856   -6.7304305    827.20591  0.023510855  0.023036945           53 
 2933000    0.7690584   -6.7198404    829.75805  0.023575351  0.023030898           25 
 2934000    0.7875083   -6.7181353    830.42172  0.023586166   0.02302491           12 
 2935000   0.77818564   -6.7197218    827.12133  0.023484422  0.023018884           14 
 2936000   0.78975582   -6.7322008    826.86682  0.023469199  0.023012845           28 
 2937000   0.79784118   -6.7302673    828.41326  0.023505086  0.023006808           10 
 2938000   0.81240759   -6.7531557    828.65008  0.023503803  0.023000762           14 
 2939000   0.80103424   -6.7345283    829.03356  0.023506679  0.022994728           23 
 2940000   0.79303412    -6.724589    829.79462  0.023520256  0.022988678           44 
 2941000   0.77522642   -6.7233632    826.87076  0.023429411  0.022982677           58 
 2942000   0.78275981   -6.7074281    828.12512  0.023456977  0.022976657           17 
 2943000   0.78005285   -6.7245148    827.73503  0.023437961  0.022970629           22 
 2944000   0.77459064   -6.7272788    830.34872  0.023503983  0.022964617           12 
 2945000   0.78754651   -6.6987932    833.22944  0.023577517   0.02295865           20 
 2946000   0.78039709   -6.7048561    831.18396  0.023511653  0.022952685           22 
 2947000   0.77849266   -6.7438709    829.20568  0.023447734  0.022946684           40 
 2948000   0.78238432   -6.7194593    830.12803  0.023465853  0.022940689          131 
 2949000   0.78513513   -6.7397311    830.07357  0.023456357   0.02293467           16 
 2950000   0.77574675   -6.7389066    829.39726  0.023429301  0.022928654           15 
 2951000   0.78120555   -6.7398162    831.24093  0.023473425  0.022922658           14 
 2952000   0.78042269   -6.7206676    832.45517  0.023499751  0.022916676           49 
 2953000   0.77007199   -6.7391827    828.94948  0.023392863  0.022910667           14 
 2954000   0.76813516   -6.7182796    829.52296  0.023401122  0.022904662           34 
 2955000    0.7619666   -6.7119861    830.28412  0.023414668  0.022898675           18 
 2956000   0.78174782   -6.7139326    831.07795  0.023429126  0.022892667           12 
 2957000   0.79343389   -6.7156986    833.61022  0.023492566  0.022886718           22 
 2958000   0.76695766    -6.735789    829.99808  0.023382862  0.022880739           47 
 2959000   0.78294653   -6.7514158    830.35569  0.023385031  0.022874746           24 
 2960000   0.76374898   -6.7380273    830.51096  0.023381502  0.022868731           24 
 2961000   0.76831787   -6.7486752    831.66726  0.023406148  0.022862716           42 
 2962000    0.7652431   -6.7410692    829.75145  0.023344346  0.022856732           14 
 2963000   0.78346034   -6.7322664    832.19783  0.023405271  0.022850785           16 
 2964000   0.78283843   -6.7051413     831.0659   0.02336555  0.022844863           25 
 2965000   0.77343138   -6.6931111    832.99279  0.023411826  0.022838968           18 
 2966000   0.77374885   -6.7298358    830.41903   0.02333162  0.022833027           44 
 2967000   0.76681418   -6.7466717    833.33436  0.023405639   0.02282711           27 
 2968000   0.77086649   -6.7146513    832.68829  0.023379613  0.022821159           24 
 2969000   0.77501124    -6.749112    833.84975  0.023404338  0.022815217           33 
 2970000   0.77839652   -6.7475494    832.69514  0.023364061  0.022809274           45 
 2971000   0.79773518   -6.7304251    833.56494  0.023380594  0.022803342           23 
 2972000    0.7830296   -6.7204572    834.61757  0.023402242  0.022797459           16 
 2973000   0.80193893   -6.7538893     834.1161  0.023380315  0.022791585           35 
 2974000   0.77803589   -6.7092834    832.52828  0.023327961  0.022785687           11 
 2975000   0.77096022   -6.7453588    832.58297  0.023321652  0.022779813           16 
 2976000   0.78695499   -6.7273743    835.15631  0.023385873  0.022773888           17 
 2977000   0.78372692   -6.7381106    832.82966  0.023312889  0.022767987           26 
 2978000   0.75999771   -6.7108494    833.42256  0.023321652  0.022762101           30 
 2979000   0.77884758   -6.7128079    832.25783  0.023281242  0.022756209           59 
 2980000   0.77005235   -6.7465901     833.8328  0.023317472  0.022750275           48 
 2981000   0.77872588   -6.7499204    833.46827   0.02329946   0.02274435           29 
 2982000   0.77454219    -6.741937    832.57798  0.023266767  0.022738439           51 
 2983000   0.76841713   -6.7227793    834.38882  0.023309555  0.022732534           33 
 2984000   0.77571421   -6.7441934    833.02499  0.023263656  0.022726606           38 
 2985000   0.77078308   -6.7636451    833.39586  0.023266216  0.022720664           42 
 2986000   0.78841358   -6.7238051    834.53823  0.023290306    0.0227147           46 
 2987000   0.77917768   -6.7263726    834.73498  0.023287997  0.022708739           59 
 2988000   0.77718314    -6.730282    833.71493  0.023251755  0.022702795           76 
 2989000   0.76845406   -6.7094593    835.67715  0.023298683  0.022696867           57 
 2990000    0.7872403   -6.7460293    833.58234  0.023232507  0.022690935           77 
 2991000   0.77121213   -6.7389815    833.51006  0.023222725  0.022684968           95 
 2992000   0.77362947   -6.7769337    833.55882  0.023216322   0.02267898          176 
 2993000   0.74994192   -6.7239427    832.12025  0.023168511  0.022672987          205 
 2994000   0.77104246    -6.761769    831.79121  0.023151615  0.022667007          273 
 2995000    0.7708475    -6.751394     833.5567  0.023193008  0.022661014          261 
 2996000   0.75312609   -6.7492563    833.86735  0.023193907  0.022655013          260 
 2997000    0.7553582   -6.7780711    833.73493  0.023182486  0.022649019          347 
 2998000   0.76370155   -6.7800493    832.49441  0.023140271   0.02264301          358 
 2999000   0.77415728   -6.7579024    834.10485  0.023177305  0.022637004          374 
 3000000   0.77722137   -6.7692981    830.52504   0.02307014  0.022630983          400 
 3001000   0.77465969   -6.7667271    832.31101  0.023112046  0.022624949          435 
 3002000   0.78287013   -6.7752091    832.51104    0.0231099  0.022618878          487 
 3003000   0.76805256   -6.7919923    832.07556   0.02309012  0.022612788          483 
 3004000   0.75911086   -6.7913912    831.75833  0.023073633  0.022606718          451 
 3005000    0.7544661   -6.7834278    832.49873  0.023086487  0.022600643          442 
 3006000   0.77793655   -6.7819679    832.12005  0.023068309  0.022594541          490 
 3007000   0.76253693   -6.7968383    831.69681  0.023048908  0.022588451          512 
 3008000   0.76856538   -6.7713551    832.50998  0.023063774  0.022582335          524 
 3009000    0.7808806   -6.8120261    830.33657  0.022995917  0.022576183          626 
 3010000   0.76885134   -6.8013903    830.58351  0.022995114  0.022570021          632 
 3011000   0.77520363   -6.8216393    829.56857  0.022959387  0.022563865          669 
 3012000   0.76459992   -6.8137958    829.34637  0.022945617  0.022557677          680 
 3013000   0.76746958   -6.8464605    829.40411  0.022939598  0.022551483          724 
 3014000   0.78925856   -6.8344669    831.45969  0.022988821  0.022545313          757 
 3015000   0.78395189   -6.7883384    829.46101  0.022925954  0.022539139          793 
 3016000   0.77666992   -6.8219814    831.28467  0.022968741  0.022532952          883 
 3017000   0.75639738   -6.8149747    830.07448  0.022927701  0.022526775          980 
 3018000   0.76487946   -6.8573939     829.2075  0.022896165  0.022520532         1113 
 3019000   0.76890224   -6.8612009    828.13571  0.022858996  0.022514282         1152 
 3020000   0.75768982   -6.9035462    827.16919  0.022824757  0.022507961         1369 
 3021000   0.76519891   -6.9376527    826.72706  0.022805005   0.02250158         1517 
 3022000   0.76941675    -6.944051    825.64756  0.022767691  0.022495115         1691 
 3023000   0.75650069    -6.955101    825.98269  0.022769398  0.022488606         1770 
 3024000   0.76746767   -6.9811206    823.04946  0.022681037  0.022482048         1920 
 3025000   0.76791035    -6.959118    824.45685   0.02271231  0.022475432         2140 
 3026000   0.76128247   -7.0230839     821.2759  0.022617204  0.022468754         2353 
 3027000   0.75693409   -7.0870524    818.54982  0.022534683  0.022461991         2656 
 3028000   0.77140389   -7.0998371    818.65688  0.022530187  0.022455132         2862 
 3029000   0.75930975   -7.1191017    814.82627  0.022417362  0.022448191         3002 
 3030000   0.77733618   -7.1317007    815.43934  0.022426825  0.022441181         3128 
 3031000   0.78256905   -7.2102049    814.01072  0.022380147  0.022434094         3451 
 3032000   0.74779086   -7.2378607    812.96934  0.022344144  0.022426907         3659 
 3033000   0.75470254   -7.2137909    810.19319  0.022260501  0.022419632         3653 
 3034000    0.7725964   -7.2921438    809.10372   0.02222324  0.022412314         3779 
 3035000   0.75214119   -7.2547445    809.26088  0.022220233  0.022404974         3775 
 3036000   0.76252559   -7.2990832    809.46679  0.022218566  0.022397602         3822 
 3037000   0.74841002   -7.2842552    808.35619  0.022180776  0.022390209         3847 
 3038000   0.77760614   -7.2954198    809.96903  0.022217715  0.022382805         3819 
 3039000   0.74909971   -7.3012094    809.53081  0.022198388  0.022375383         3794 
 3040000   0.76591456   -7.3144706     808.3611  0.022159021  0.022367939         3839 
 3041000    0.7676407   -7.3374852    807.69603   0.02213351  0.022360478         3857 
 3042000   0.77991957   -7.3099604     808.3615  0.022144464  0.022353019         3846 
 3043000   0.76949369   -7.3328137    808.06667  0.022129112  0.022345543         3891 
 3044000   0.77977754   -7.3316852    808.87362  0.022143934  0.022338048         3909 
 3045000   0.77491483   -7.3323156    806.05006  0.022059389  0.022330554         3896 
 3046000   0.76092294   -7.3516802    806.66598  0.022068997  0.022323058         3889 
 3047000   0.76324044   -7.3390568    806.26805  0.022050871  0.022315556         3919 
 3048000   0.77891445   -7.3311834    806.33715  0.022045526  0.022308046         3919 
 3049000    0.7672988   -7.3433259    806.44312  0.022041192  0.022300547         3912 
 3050000   0.76908596   -7.3652367    806.56917  0.022037409  0.022293042         3912 
 3051000   0.77477126   -7.3764433    806.90875  0.022039461  0.022285533         3913 
 3052000   0.74634831   -7.3448833    806.82577  0.022029974  0.022278016         3886 
 3053000   0.76212743   -7.3339137     808.2695  0.022062166  0.022270508         3928 
 3054000   0.77742399   -7.3499085    806.57978  0.022008835     0.022263         3906 
 3055000   0.76018456   -7.3311949    806.93134  0.022011221  0.022255481         3897 
 3056000    0.7757649   -7.3777815    807.45006  0.022018163  0.022247963         3914 
 3057000   0.76762119   -7.3207495     806.4325  0.021983222  0.022240461         3923 
 3058000   0.75648482   -7.3305128     808.4304  0.022030477  0.022232945         3911 
 3059000   0.75669498   -7.3638015    807.59813  0.022000603  0.022225421         3918 
 3060000   0.75998378   -7.3771302     805.8933  0.021946985  0.022217901         3922 
 3061000   0.76258103   -7.3822646    805.64794  0.021933136  0.022210371         3915 
 3062000   0.74552547   -7.3726848     807.0781  0.021964895  0.022202835         3935 
 3063000   0.76423991   -7.3550698    806.25196  0.021935248  0.022195311         3930 
 3064000   0.77007913   -7.3826081    806.69376  0.021940104   0.02218777         3937 
 3065000   0.76261786   -7.3479221    806.46725  0.021926788  0.022180244         3919 
 3066000   0.77666293   -7.3565504    807.32225  0.021942875  0.022172712         3928 
 3067000   0.74137806   -7.3392889    805.18114  0.021877544  0.022165181         3927 
 3068000     0.782809   -7.3539985    807.24851  0.021926567  0.022157657         3927 
 3069000   0.76302493   -7.3451309    807.60568  0.021929121  0.022150134         3936 
 3070000   0.76977002   -7.3630357     805.2614  0.021858344    0.0221426         3930 
 3071000    0.7520573   -7.3674049    805.69333  0.021862947  0.022135066         3938 
 3072000   0.76122964   -7.3750336    805.66644  0.021855101  0.022127522         3943 
 3073000   0.76232835   -7.3415348     806.4901  0.021870325  0.022119985         3933 
 3074000   0.74682146   -7.3531023    806.42631  0.021861481  0.022112443         3926 
 3075000   0.76194597   -7.3765155    807.45395  0.021882221  0.022104896         3939 
 3076000   0.75790349   -7.3658917    808.32147  0.021898609  0.022097368         3932 
 3077000   0.75836811   -7.3495016    807.20109   0.02186115  0.022089829         3921 
 3078000   0.76103614   -7.3714539    806.87683  0.021845268  0.022082287         3921 
 3079000   0.75675484   -7.3754172    805.60525  0.021803758  0.022074747         3921 
 3080000   0.75443678   -7.3755333    806.03695  0.021808359  0.022067215         3908 
 3081000    0.7592782   -7.3617974    806.72953  0.021820013  0.022059684         3935 
 3082000   0.77540348   -7.3731749     806.5315  0.021807579  0.022052146         3915 
 3083000   0.76025081   -7.3517183    806.74519  0.021806281  0.022044603         3931 
 3084000   0.74734568   -7.3674333    807.95861  0.021831999  0.022037059         3924 
 3085000   0.75093085   -7.3830409    807.60968  0.021815496  0.022029507         3919 
 3086000   0.76524092   -7.3651997    807.13648  0.021795649  0.022021961         3931 
 3087000   0.73658679   -7.3511156    807.50633  0.021798573  0.022014414         3924 
 3088000    0.7704775    -7.360077    804.71933  0.021716303  0.022006876         3928 
 3089000   0.75612491   -7.3887966    805.78189  0.021737938  0.021999338         3921 
 3090000   0.76385528   -7.3636541    805.94211  0.021735224  0.021991798         3913 
 3091000   0.77629077   -7.3717764     804.7458   0.02169594  0.021984266         3915 
 3092000   0.75425731   -7.3621544    806.08802  0.021725098  0.021976732         3920 
 3093000   0.74948035   -7.3757241    807.07449  0.021744652  0.021969199         3930 
 3094000   0.76711132   -7.3530729    807.10003  0.021738311  0.021961672         3935 
 3095000   0.75334731   -7.3622598    807.64329  0.021745915  0.021954144         3922 
 3096000   0.73317465   -7.3869854    805.91021  0.021692243    0.0219466         3922 
 3097000   0.75367154   -7.3605615     804.8454  0.021656587  0.021939064         3934 
 3098000   0.75818957   -7.3709011    806.27753  0.021688119  0.021931531         3928 
 3099000    0.7560717   -7.3471708    806.42139   0.02168499  0.021923987         3910 
 3100000   0.74859763   -7.3915149    806.16882  0.021671205  0.021916438         3939 
 3101000   0.74684514   -7.3818853    806.11588  0.021662794  0.021908893         3926 
 3102000    0.7458667   -7.3674323    806.10332  0.021655473   0.02190135         3930 
 3103000   0.78031434   -7.3951498    804.69302  0.021610619  0.021893799         3924 
 3104000   0.75915738   -7.3537858    807.38225  0.021675855  0.021886255         3922 
 3105000   0.75704007   -7.3811488    805.44427  0.021616862  0.021878703         3915 
 3106000   0.76967966   -7.3957694    806.33919  0.021633913  0.021871168         3914 
 3107000   0.73780318   -7.3499141    805.73781   0.02161082  0.021863628         3928 
 3108000   0.75272709    -7.381605    805.65511  0.021601649  0.021856093         3921 
 3109000   0.75971674    -7.379939    804.98921  0.021576852  0.021848553         3907 
 3110000   0.76282621   -7.3890774    806.36603  0.021606807  0.021840998         3919 
 3111000   0.74465911   -7.3820671    807.55632  0.021631746  0.021833454         3918 
 3112000   0.75666981   -7.3823789    805.81346  0.021578124  0.021825908         3944 
 3113000   0.75466458   -7.3872963    805.31347  0.021557808  0.021818375         3940 
 3114000   0.74182317   -7.3645174    806.60507  0.021585449   0.02181083         3911 
 3115000    0.7543315   -7.3806171      805.638  0.021552649  0.021803287         3942 
 3116000   0.75336755   -7.3624078    804.75548   0.02152213  0.021795746         3939 
 3117000   0.75099932   -7.3754755    806.45697  0.021560715  0.021788211         3934 
 3118000   0.74306266   -7.3745213    804.34899  0.021497461  0.021780668         3928 
 3119000   0.76491923   -7.3672636    804.04233  0.021482375  0.021773126         3929 
 3120000   0.75214215   -7.4053873    805.92349  0.021525734  0.021765596         3940 
 3121000   0.75306847   -7.4056218    804.81331  0.021489194  0.021758046         3931 
 3122000   0.75358341   -7.3855859    805.69028   0.02150572  0.021750505         3928 
 3123000   0.77139947   -7.3768221    804.90911  0.021477989  0.021742967         3935 
 3124000    0.7434094   -7.3577395     805.9684  0.021499371  0.021735423         3929 
 3125000   0.77355443   -7.3853792    806.48111  0.021506163  0.021727896         3928 
 3126000   0.74745646   -7.3712928    806.39469  0.021496979  0.021720351         3925 
 3127000   0.75789924   -7.3992171    804.66352   0.02144397  0.021712813         3947 
 3128000   0.76291074   -7.3721556    805.26744  0.021453203   0.02170529         3932 
 3129000   0.75749213   -7.3931243    805.36775  0.021449019   0.02169774         3917 
 3130000   0.74583891   -7.3794861    803.93703  0.021404074  0.021690205         3925 
 3131000   0.76383037    -7.381023    804.38764  0.021409231  0.021682676         3946 
 3132000   0.75239552   -7.3860969    806.52527  0.021459272  0.021675131         3926 
 3133000   0.75243325   -7.3537649    804.63518  0.021402149  0.021667583         3935 
 3134000   0.75825107   -7.4050929    805.58853  0.021420669   0.02166005         3930 
 3135000   0.75154086   -7.3899053    805.11956   0.02140137  0.021652521         3936 
 3136000   0.74738929   -7.3804123    805.87638  0.021414657  0.021644983         3934 
 3137000   0.75407397   -7.3917894    804.23887  0.021364331  0.021637439         3929 
 3138000   0.76118484   -7.3720903    807.52223  0.021444716  0.021629902         3944 
 3139000   0.73236611   -7.3766135    804.53704  0.021358634  0.021622385         3935 
 3140000   0.76158724   -7.3703324    805.91136  0.021388306  0.021614851         3944 
 3141000   0.76365867   -7.3901401    804.17365  0.021335393  0.021607321         3942 
 3142000   0.75659798   -7.3688579    804.87829  0.021347292  0.021599785         3934 
 3143000   0.75003369   -7.3559475    804.85812  0.021339965  0.021592262         3934 
 3144000   0.75837503    -7.366428    805.38623  0.021347175  0.021584728         3925 
 3145000    0.7497464   -7.3746272    806.15279  0.021360699  0.021577197         3938 
 3146000   0.74770442   -7.3842653    805.75596  0.021343398  0.021569671         3924 
 3147000   0.73993374   -7.3660972    805.76799  0.021336934  0.021562154         3927 
 3148000   0.74531043   -7.3606671    805.54257  0.021324189  0.021554623         3921 
 3149000    0.7443608   -7.3881743    805.43221  0.021314497  0.021547111         3942 
 3150000    0.7506795   -7.3674814    804.26587  0.021276875  0.021539587         3939 
 3151000   0.74420906   -7.4033575    805.09777  0.021292123  0.021532065         3921 
 3152000   0.75163173   -7.3750485      805.544  0.021297166  0.021524536         3925 
 3153000    0.7330383   -7.3718406    803.04836  0.021224452  0.021517017         3935 
 3154000   0.74318732   -7.3766828    805.23124  0.021275397  0.021509496         3924 
 3155000   0.75068237   -7.3620726    805.28001  0.021269942  0.021501975         3915 
 3156000   0.75401107    -7.399437    805.56207   0.02127065  0.021494456         3947 
 3157000   0.75779785   -7.3794036    804.34885  0.021231888  0.021486942         3937 
 3158000   0.74322578   -7.4014793    805.40422  0.021253014  0.021479444         3936 
 3159000   0.74797031   -7.3576066    803.69611  0.021201227  0.021471924         3931 
 3160000   0.75117753   -7.3811477    804.84785  0.021224891  0.021464407         3916 
 3161000   0.75801144   -7.4065323    805.33832  0.021231106    0.0214569         3927 
 3162000   0.74573788   -7.3709497    806.03474  0.021242746  0.021449399         3918 
 3163000   0.73658331   -7.3921559    806.59513  0.021250794  0.021441893         3935 
 3164000   0.74550226   -7.3644884    805.59017  0.021217609  0.021434399         3939 
 3165000   0.75176679   -7.3720226    805.87988  0.021218533  0.021426892         3944 
 3166000   0.75340434   -7.3684757    804.75786  0.021182298  0.021419378         3937 
 3167000   0.75437597   -7.3983811     804.8555  0.021178178  0.021411872         3947 
 3168000   0.73525819    -7.395888     805.1712  0.021179798  0.021404367         3924 
 3169000   0.73696641   -7.3871061    805.00287  0.021168688   0.02139687         3924 
 3170000   0.76198899   -7.3936533    805.33664  0.021170784  0.021389367         3928 
 3171000   0.73389034   -7.3759404    805.35751  0.021164657  0.021381859         3917 
 3172000   0.73586979   -7.3526467    805.34581  0.021157677   0.02137436         3929 
 3173000   0.74179017   -7.3771772    805.12657  0.021145251  0.021366855         3934 
 3174000   0.74005985   -7.3866155    804.29225  0.021116684  0.021359353         3934 
 3175000   0.72994606   -7.4009741    806.52418  0.021168614  0.021351852         3937 
 3176000   0.74121886   -7.4049167    804.46109  0.021107816  0.021344347         3944 
 3177000   0.74231946   -7.3892832     804.6924   0.02110724  0.021336843         3940 
 3178000   0.71515313   -7.3766261    803.86259  0.021078839  0.021329333         3929 
 3179000   0.74250432   -7.3964668    803.53318  0.021063573  0.021321836         3929 
 3180000   0.73606956   -7.4001236     804.3122  0.021077364  0.021314341         3939 
 3181000   0.73664186   -7.3810529    807.50157   0.02115429  0.021306846         3927 
 3182000   0.73087576    -7.404333    804.04033  0.021056996  0.021299358         3930 
 3183000   0.74151798    -7.385925    805.02392  0.021076132  0.021291864         3940 
 3184000   0.74055859   -7.3929653    803.98679  0.021042368  0.021284373         3937 
 3185000   0.74560242   -7.4150745    806.89106  0.021111749  0.021276876         3931 
 3186000   0.73182022   -7.4081865     804.0689  0.021031306  0.021269374         3918 
 3187000   0.75654342   -7.4111015    804.88272  0.021045987  0.021261874         3921 
 3188000   0.74888364   -7.3856901    806.42835  0.021079787  0.021254386         3927 
 3189000   0.72934007    -7.382877    804.06283  0.021011363  0.021246901         3933 
 3190000   0.74400287   -7.3735068    803.72338  0.020995908  0.021239408         3931 
 3191000   0.73724998   -7.4048754    805.05153  0.021024014  0.021231921         3936 
 3192000   0.74890272   -7.3975956    804.02538  0.020990638  0.021224427         3939 
 3193000    0.7401539   -7.3573617    805.16355  0.021013768  0.021216944         3947 
 3194000   0.73271425     -7.38986    803.70168  0.020969048  0.021209452         3936 
 3195000   0.74314362   -7.3929624     805.5447  0.021010555  0.021201945         3920 
 3196000   0.72534305   -7.3954906    804.65131  0.020980687   0.02119445         3938 
 3197000   0.75095423   -7.3823167    805.39371  0.020993476  0.021186962         3933 
 3198000   0.76251874   -7.4162443    806.08604  0.021004952  0.021179485         3931 
 3199000   0.73023536   -7.3926048    804.18121  0.020948765  0.021172003         3933 
 3200000   0.74508966    -7.397397    806.21599  0.020995208  0.021164525         3932 
 3201000   0.72740003   -7.3925854    805.27249  0.020964087  0.021157043         3934 
 3202000   0.73985513   -7.3939593    805.49485  0.020963326  0.021149563         3940 
 3203000   0.73488678   -7.4203459    805.11884  0.020946999  0.021142078         3930 
 3204000   0.72387057   -7.3887234    804.21016  0.020916827  0.021134602         3936 
 3205000   0.73831888   -7.3921171    804.49234  0.020917638   0.02112712         3942 
 3206000   0.74283265   -7.4078069    805.47871  0.020936752  0.021119654         3932 
 3207000   0.72772095    -7.406671    804.58519  0.020907005  0.021112172         3950 
 3208000     0.742634   -7.4001018    804.15149  0.020889222  0.021104694         3940 
 3209000   0.73726857   -7.3936873    802.85764  0.020849113  0.021097221         3923 
 3210000   0.73941395   -7.3996044    803.45029  0.020858003  0.021089744         3923 
 3211000   0.73683168   -7.3698325    804.52756  0.020879465  0.021082283         3914 
 3212000   0.73382965   -7.3839456    804.59618  0.020874745  0.021074808         3937 
 3213000   0.73902799   -7.3829489    804.24763  0.020859208  0.021067337         3943 
 3214000   0.75134663   -7.4247593    803.45238  0.020832099   0.02105987         3937 
 3215000   0.74389283   -7.4100639    803.45938    0.0208258  0.021052398         3929 
 3216000   0.74368169   -7.4003442    803.78172  0.020827677  0.021044925         3942 
 3217000   0.71698548   -7.4129323    804.17942  0.020831505  0.021037464         3941 
 3218000   0.72434925   -7.4031142    805.68947  0.020864136  0.021029999         3911 
 3219000   0.75143105   -7.3919928    804.02171  0.020814479  0.021022538         3925 
 3220000   0.74037486   -7.3975187    803.06462  0.020783246  0.021015083         3920 
 3221000   0.73751069   -7.3991446    803.67969  0.020792706  0.021007637         3934 
 3222000   0.72878368   -7.4001334    804.23474  0.020800609  0.021000186         3944 
 3223000   0.74860849   -7.3917786    804.91884  0.020811843  0.020992733         3925 
 3224000   0.72542859   -7.4022948    805.40958  0.020818072   0.02098528         3929 
 3225000   0.74265988   -7.3918006    804.06556  0.020776888  0.020977825         3917 
 3226000   0.71870475   -7.3831799    803.82847  0.020764323  0.020970378         3931 
 3227000   0.71425943   -7.4021078    801.76081  0.020704494  0.020962917         3932 
 3228000   0.73283757   -7.4029522    803.81507  0.020751112  0.020955476         3933 
 3229000   0.72783275   -7.4090144    803.97496  0.020748812  0.020948033         3923 
 3230000    0.7587801   -7.4035813    802.86922   0.02071386  0.020940584         3909 
 3231000   0.74263974   -7.4004824    804.53256   0.02075035  0.020933135         3926 
 3232000   0.73820969   -7.3979592    805.81212  0.020776922  0.020925689         3931 
 3233000   0.73772908   -7.4016885    804.63232  0.020740085  0.020918242         3934 
 3234000   0.72828205   -7.4149024    803.72299   0.02071024  0.020910795         3936 
 3235000   0.73421847   -7.4183166    803.85088  0.020707132   0.02090335         3921 
 3236000   0.72710235    -7.392736    805.14729  0.020734118  0.020895904         3937 
 3237000   0.73603553   -7.3777662    803.53307  0.020686157  0.020888472         3920 
 3238000   0.72814154   -7.4009042    803.92203  0.020689778  0.020881035         3914 
 3239000   0.75084197    -7.408287    804.17574  0.020689918  0.020873603         3922 
 3240000   0.74138689   -7.4040067    804.52009  0.020692389  0.020866164         3923 
 3241000   0.74116955   -7.3839844    804.31792  0.020680806  0.020858734         3933 
 3242000   0.72195679    -7.415369    804.06464  0.020667917  0.020851302         3932 
 3243000   0.72489339    -7.405942    804.44767  0.020671386  0.020843871         3931 
 3244000   0.72946148   -7.3775827    803.69465   0.02064567  0.020836442         3936 
 3245000   0.75415803   -7.4088864    802.92971  0.020619664  0.020829009         3913 
 3246000   0.73290602   -7.4048225    804.27024  0.020647727  0.020821587         3927 
 3247000   0.74869325   -7.4151013    803.90645  0.020632031  0.020814146         3929 
 3248000    0.7268774   -7.4171694    804.60527  0.020643608  0.020806722         3938 
 3249000   0.72884046   -7.3942867    803.67885  0.020613493  0.020799301         3931 
 3250000   0.74256642   -7.4139784    803.13872  0.020593301   0.02079187         3933 
 3251000   0.73329373   -7.3954083    802.75348  0.020577091  0.020784454         3942 
 3252000   0.74854679   -7.4174465    804.16891  0.020607034  0.020777039         3939 
 3253000   0.72470914   -7.4047286    804.91685   0.02061986  0.020769621         3927 
 3254000   0.74142442   -7.4186075    803.59716  0.020579727  0.020762207         3929 
 3255000    0.7264741   -7.4220511    804.57251  0.020598374  0.020754791         3931 
 3256000   0.73196672   -7.4041026    803.67076  0.020568969  0.020747378         3932 
 3257000   0.71457925   -7.4191014    804.33242  0.020579583  0.020739967         3927 
 3258000   0.72437093    -7.391407    803.79387  0.020559491   0.02073255         3923 
 3259000   0.72753757    -7.403563    805.77373  0.020603808  0.020725143         3924 
 3260000    0.7084822   -7.3972248    805.11853  0.020580739  0.020717738         3918 
 3261000   0.72949879   -7.4375668    802.86952  0.020516956   0.02071033         3936 
 3262000   0.72407442   -7.4125748    804.92027  0.020563056  0.020702933         3934 
 3263000   0.73033424   -7.4107638    804.41767  0.020543918  0.020695535         3935 
 3264000    0.7434877   -7.4210494    805.08832  0.020554747  0.020688132         3934 
 3265000   0.72694717   -7.4190142    803.77318  0.020514885  0.020680729         3926 
 3266000   0.73356893   -7.4066238     804.1088  0.020517167   0.02067333         3928 
 3267000   0.73696547    -7.416221    803.09006  0.020484901  0.020665935         3928 
 3268000   0.72189419   -7.4383549    805.26972  0.020534213  0.020658541         3935 
 3269000   0.72558948   -7.4216704    803.42355  0.020480869  0.020651146         3914 
 3270000   0.72856608   -7.4246779    802.50542  0.020451209  0.020643752         3936 
 3271000   0.73766142    -7.424411    803.63231  0.020473665  0.020636351         3922 
 3272000   0.71822467   -7.4114874      805.613  0.020517854  0.020628974         3915 
 3273000   0.73463804   -7.4184487    803.54702  0.020458983  0.020621583         3945 
 3274000   0.73233135   -7.4255369    804.08996  0.020466554   0.02061419         3937 
 3275000    0.7195877    -7.402562    803.46155  0.020444314  0.020606798         3948 
 3276000   0.73560686   -7.4070179    802.97506  0.020425698  0.020599414         3931 
 3277000   0.72127861   -7.4181949    803.30093  0.020427752  0.020592018         3941 
 3278000   0.72911094   -7.4238189     804.9273  0.020462866  0.020584624         3930 
 3279000   0.72463549   -7.4060158     804.4423  0.020444299  0.020577249         3938 
 3280000   0.73732848   -7.4366408    804.45238  0.020438323  0.020569869         3933 
 3281000   0.73532863   -7.4471014    805.47491  0.020458064  0.020562492         3928 
 3282000   0.72266583   -7.4040648    802.26285  0.020370274  0.020555116         3932 
 3283000   0.73208803   -7.3959655     802.9856  0.020382414  0.020547752         3927 
 3284000   0.72872987   -7.4087896    803.65508  0.020393196  0.020540379         3912 
 3285000   0.73299352   -7.4349224    803.24931  0.020376695   0.02053301         3936 
 3286000   0.74061975   -7.4072299    803.08764  0.020366394  0.020525646         3942 
 3287000    0.7222477   -7.4064145    802.98243   0.02035753  0.020518283         3938 
 3288000   0.74061252   -7.4135898    804.39363  0.020387105  0.020510918         3936 
 3289000   0.73906588   -7.4099115    804.62985  0.020386892  0.020503552         3940 
 3290000   0.73058264   -7.4279243    802.05575  0.020315495  0.020496187         3946 
 3291000   0.72192011   -7.4210148    802.35707  0.020316952  0.020488827         3945 
 3292000   0.72399645   -7.4004466    802.85652  0.020323424   0.02048147         3941 
 3293000   0.74352666   -7.4403764    803.51658  0.020333955  0.020474112         3936 
 3294000   0.72023418   -7.4212227    804.00854  0.020340228  0.020466753         3929 
 3295000   0.74781231   -7.4230758    803.03551  0.020309446  0.020459396         3939 
 3296000   0.73186653   -7.4228516    803.36775  0.020311685   0.02045204         3947 
 3297000    0.7297446   -7.4019475    803.26307  0.020302878  0.020444682         3940 
 3298000   0.72296087   -7.4083545    803.61621  0.020305645  0.020437323         3956 
 3299000   0.73330716   -7.3875483    802.67656  0.020275754  0.020429973         3929 
 3300000   0.71399396   -7.4192761    802.36854  0.020261832  0.020422625         3950 
 3301000   0.73000767   -7.4083422    802.88775  0.020268801  0.020415284         3948 
 3302000   0.72762935   -7.4135061    803.16619   0.02026969  0.020407946         3934 
 3303000   0.72257777   -7.4218728    803.63236  0.020275314  0.020400612         3919 
 3304000   0.71250535   -7.4106783    804.04563  0.020279601  0.020393271         3933 
 3305000   0.71678383   -7.4170354    806.13457  0.020326137  0.020385933         3944 
 3306000   0.71557728   -7.4140496     804.6543  0.020282676  0.020378594         3935 
 3307000   0.71671833   -7.4377732    802.37747  0.020219168  0.020371262         3934 
 3308000   0.73069552   -7.4262292    802.52531   0.02021678  0.020363925         3942 
 3309000   0.72046801   -7.4188926     805.1327  0.020276335  0.020356579         3934 
 3310000   0.73670327   -7.4269996     805.0712  0.020268661  0.020349236         3945 
 3311000   0.71670236   -7.4254516    802.60822  0.020200549  0.020341902         3931 
 3312000   0.72340236   -7.4361096     802.2543  0.020185545  0.020334566         3937 
 3313000   0.69918748   -7.4156523    803.83653  0.020219251  0.020327232         3921 
 3314000   0.74808459   -7.4271692    803.88638  0.020214403  0.020319905         3943 
 3315000   0.71319113   -7.4420574    802.63953  0.020176961  0.020312573         3943 
 3316000   0.71364797   -7.4476244     803.5474  0.020193692  0.020305242         3946 
 3317000   0.71237882   -7.4341206    803.64302  0.020190007   0.02029792         3934 
 3318000   0.72926169    -7.452057    803.01642  0.020168184  0.020290597         3931 
 3319000   0.72738071   -7.4417876    803.94489   0.02018542  0.020283273         3932 
 3320000   0.73466134   -7.4387928    802.20722  0.020135724  0.020275953         3930 
 3321000   0.71842917   -7.4337131    803.42133  0.020160126  0.020268637         3929 
 3322000   0.73338502   -7.4339716    804.04624  0.020169733  0.020261318         3944 
 3323000   0.72269303   -7.4310072    803.49039  0.020149724  0.020254002         3943 
 3324000   0.71183459   -7.4154538    802.50692  0.020119006  0.020246693         3943 
 3325000   0.72279287   -7.4263637    803.73439  0.020143719   0.02023938         3943 
 3326000   0.71263434   -7.4407638    803.28203  0.020126329  0.020232072         3933 
 3327000   0.73651547    -7.435501    802.84431  0.020109315  0.020224756         3932 
 3328000    0.7245264   -7.4044564    803.47253  0.020119004  0.020217453         3939 
 3329000   0.72860727   -7.4266633     804.2203  0.020131679  0.020210153         3958 
 3330000   0.71909586   -7.4226296     803.0665  0.020096759  0.020202839         3932 
 3331000   0.71100231   -7.4447807     802.4973  0.020076486  0.020195528         3942 
 3332000   0.71573356   -7.4400224    802.71774  0.020075974  0.020188233         3938 
 3333000   0.71043595   -7.4249187    802.68993  0.020069255  0.020180939         3944 
 3334000   0.72170172   -7.4383436    804.62884  0.020111699  0.020173636         3947 
 3335000   0.72013958   -7.4199623    803.47533  0.020076845  0.020166346         3940 
 3336000   0.71346113   -7.4318191    804.86317  0.020105495   0.02015905         3929 
 3337000   0.72617238   -7.4463862    801.47865   0.02001495  0.020151757         3924 
 3338000   0.72691464   -7.4288752    802.70012  0.020039448  0.020144461         3932 
 3339000    0.7066151   -7.4206201    802.61063  0.020031213  0.020137172         3943 
 3340000   0.72246097   -7.4414734    802.92428  0.020033041  0.020129878         3934 
 3341000   0.71950731    -7.455201    801.50012  0.019991522  0.020122594         3929 
 3342000   0.71966122   -7.4308949    802.98483  0.020022562  0.020115305         3936 
 3343000   0.71770803   -7.4174019    802.43808  0.020002943  0.020108022         3918 
 3344000   0.72133974   -7.4332352    804.14143   0.02003941  0.020100737         3934 
 3345000   0.72664385   -7.4196865    803.01006  0.020005233  0.020093462         3934 
 3346000   0.70332237   -7.4306451     802.5026  0.019986616  0.020086174         3935 
 3347000   0.70772432   -7.4433179    802.73446  0.019986417  0.020078902         3948 
 3348000   0.71406377   -7.4397443    802.85154  0.019983362   0.02007163         3938 
 3349000   0.70622608   -7.4335333    802.28088  0.019963195  0.020064368         3936 
 3350000   0.72144758   -7.4184389    802.54095  0.019963705  0.020057102         3935 
 3351000   0.72818255    -7.420837    803.04478  0.019970277  0.020049834         3954 
 3352000   0.72210509   -7.4255691    802.87296  0.019960048  0.020042567         3947 
 3353000   0.71196372   -7.4269498    802.52629  0.019945479  0.020035302         3945 
 3354000   0.71605559   -7.4575411    802.92861  0.019949528  0.020028042         3940 
 3355000   0.72783473   -7.4228581    802.71572  0.019938294  0.020020791         3923 
 3356000   0.71863569   -7.4555062     801.7273  0.019907809  0.020013527         3925 
 3357000   0.70394687   -7.4295544    802.82672  0.019929171  0.020006271         3938 
 3358000   0.72071697   -7.4460346    801.23966  0.019883851  0.019999016         3935 
 3359000   0.71528158   -7.4294604    802.08771  0.019898971  0.019991773         3945 
 3360000   0.71364208   -7.4298473    802.83187  0.019911505  0.019984516         3952 
 3361000   0.72615141   -7.4344021    802.43091  0.019895639  0.019977265         3930 
 3362000   0.71460041   -7.4531931    802.39803  0.019888906  0.019970011         3949 
 3363000   0.71770154   -7.4389157    802.71586  0.019890868  0.019962764         3924 
 3364000    0.7028742   -7.4316117    801.78381  0.019861866  0.019955528         3933 
 3365000   0.71665876   -7.4439364    801.41736  0.019846889  0.019948291         3917 
 3366000   0.70915343   -7.4362954    802.13859  0.019858848  0.019941054         3923 
 3367000   0.70890281    -7.463145    802.77628  0.019868733  0.019933813         3944 
 3368000   0.70716221     -7.41818    803.19798  0.019873267  0.019926567         3939 
 3369000   0.72453309   -7.4448515    802.45246  0.019848928  0.019919343         3932 
 3370000   0.71855007   -7.4766006    802.64963  0.019847914   0.01991211         3938 
 3371000   0.70872538   -7.4555409    803.18442  0.019855246  0.019904878         3933 
 3372000   0.71528249   -7.4342129    803.17003  0.019849002  0.019897655         3924 
 3373000   0.71844194   -7.4453392    800.90972  0.019787275  0.019890434         3937 
 3374000    0.7130473   -7.4505423    801.59121  0.019798242  0.019883208         3944 
 3375000   0.71858476   -7.4128286     802.0636  0.019804039  0.019875992         3940 
 3376000   0.71440734   -7.4398044    802.29289  0.019803833  0.019868775         3941 
 3377000   0.72016869   -7.4483464     802.2695  0.019797392  0.019861553         3946 
 3378000   0.72594706   -7.4446842    801.87236  0.019781734  0.019854333         3949 
 3379000   0.69125404   -7.4323161     803.1518  0.019807433  0.019847112         3931 
 3380000   0.71121396   -7.4406503    801.15504  0.019752343  0.019839896         3936 
 3381000   0.69369432   -7.4411928    801.78916  0.019762131  0.019832688         3929 
 3382000   0.71279067   -7.4655922    802.57157  0.019775566  0.019825484         3943 
 3383000   0.69815336     -7.43249    802.57142  0.019769717  0.019818271         3934 
 3384000   0.70950448   -7.4171676    803.68322  0.019791253  0.019811067         3914 
 3385000   0.69719998   -7.4491211     803.0701  0.019770313  0.019803869         3940 
 3386000   0.72353574   -7.4499564    801.48812  0.019725539  0.019796675         3953 
 3387000   0.69966848   -7.4574174    802.55616  0.019745994  0.019789478         3939 
 3388000   0.71423262   -7.4038618    802.43669  0.019737227  0.019782284         3936 
 3389000   0.70210233   -7.4490314    802.13671  0.019724026  0.019775095         3942 
 3390000   0.70497992   -7.4512714    800.70002  0.019682891    0.0197679         3936 
 3391000   0.71849789   -7.4444719    801.80222  0.019704173  0.019760706         3942 
 3392000    0.7052626   -7.4467168    801.77683  0.019697741  0.019753505         3939 
 3393000   0.69247155   -7.4408758    802.26464  0.019703916   0.01974631         3938 
 3394000   0.70645239    -7.438022    801.56009  0.019680811  0.019739124         3945 
 3395000   0.70883016   -7.4317707    803.17738  0.019714712  0.019731941         3942 
 3396000   0.69041043   -7.4533243     802.0192  0.019680487  0.019724758         3932 
 3397000   0.71738282   -7.4323098    804.20272  0.019728258  0.019717588         3947 
 3398000   0.70040889   -7.4509515    800.66801  0.019635766  0.019710414         3937 
 3399000   0.72630808   -7.4464847    803.02838  0.019687859  0.019703237         3941 
 3400000   0.70961117   -7.4242421    801.03083  0.019633109  0.019696064         3919 
 3401000   0.69507701   -7.4706911    802.10969  0.019653771  0.019688897         3949 
 3402000    0.7183985   -7.4483432    802.33897   0.01965361  0.019681725         3937 
 3403000   0.70578708   -7.4341709    802.25718  0.019645832   0.01967455         3929 
 3404000   0.71311957   -7.4529936    801.20929  0.019614407  0.019667393         3935 
 3405000    0.7049917   -7.4577129    800.62142  0.019594259  0.019660234         3944 
 3406000   0.71729406   -7.4508551    802.82791  0.019642491  0.019653071         3941 
 3407000    0.7166907   -7.4479668    802.68551  0.019633243  0.019645918         3934 
 3408000   0.70456635   -7.4434678    802.82943  0.019631001   0.01963877         3931 
 3409000   0.69755252   -7.4329061    802.61922  0.019620104  0.019631618         3936 
 3410000   0.70569145    -7.446552    803.49848  0.019635838  0.019624464         3947 
 3411000    0.7013058   -7.4657192    803.43084  0.019628429  0.019617317         3938 
 3412000   0.68523166    -7.446409    803.43649  0.019622814  0.019610179         3913 
 3413000   0.70305964   -7.4488936    802.65715  0.019598036  0.019603028         3943 
 3414000   0.71263212   -7.4424998    802.43732  0.019586929  0.019595888         3940 
 3415000   0.71383342   -7.4669475    802.18195  0.019574962  0.019588755         3948 
 3416000   0.68918368    -7.450978    803.01276  0.019589499  0.019581622         3942 
 3417000   0.69321306   -7.4494553    802.58356  0.019573299  0.019574482         3934 
 3418000   0.69241315   -7.4523529    802.62497  0.019568582  0.019567351         3939 
 3419000   0.71431632   -7.4442184    803.59426  0.019586484  0.019560221         3926 
 3420000   0.69424102   -7.4803736    802.97093  0.019565568  0.019553093         3946 
 3421000    0.7037096   -7.4363608    802.75769  0.019554655  0.019545965         3945 
 3422000   0.70762785   -7.4563462    804.97701  0.019602986  0.019538844         3938 
 3423000   0.71502357   -7.4293755    803.30853   0.01955664  0.019531727         3934 
 3424000   0.69446153   -7.4657663    802.77856   0.01953803    0.0195246         3925 
 3425000   0.71510425   -7.4713462    803.45387  0.019548756  0.019517484         3948 
 3426000   0.70572341   -7.4049815    802.18906  0.019512285  0.019510373         3936 
 3427000   0.69503726   -7.4829595    802.29378  0.019509138  0.019503258         3945 
 3428000   0.69939028   -7.4513108    803.32964  0.019528628  0.019496141         3934 
 3429000   0.70262378   -7.4711911    800.28792  0.019449011  0.019489033         3948 
 3430000   0.70249063   -7.4627164    800.94997  0.019459426  0.019481926         3941 
 3431000   0.71467136   -7.4441707    801.64803  0.019470709  0.019474817         3942 
 3432000   0.70265665   -7.4369368    802.94195  0.019496454  0.019467712         3955 
 3433000   0.71378064   -7.4435021    803.92039  0.019514525  0.019460615         3943 
 3434000   0.70283786   -7.4514885    801.70201  0.019455009  0.019453515         3942 
 3435000   0.68761702   -7.4399447    802.41852  0.019466728  0.019446417         3951 
 3436000   0.69696472   -7.4444404     801.4888  0.019438514  0.019439318         3926 
 3437000   0.69922444    -7.468417    802.47493  0.019456768  0.019432225         3928 
 3438000   0.71592932   -7.4341374    801.88046  0.019436699  0.019425127         3940 
 3439000   0.70448784   -7.4454848    802.19561  0.019438684  0.019418042         3944 
 3440000   0.69508298   -7.4568583    801.57689  0.019418045  0.019410955         3946 
 3441000   0.70255082    -7.465268    802.67818  0.019439072  0.019403867         3944 
 3442000   0.71483867   -7.4918347     802.2852  0.019423911  0.019396766         3947 
 3443000   0.70845831   -7.4423557    801.19537  0.019391891  0.019389684         3936 
 3444000   0.69331574   -7.4491043    801.24708  0.019387512  0.019382603         3942 
 3445000   0.70270892   -7.4687762     803.1333  0.019427511  0.019375521         3939 
 3446000   0.68431222   -7.4589423    801.22289  0.019375674  0.019368443         3945 
 3447000   0.69766616    -7.458194    801.44445   0.01937541  0.019361369         3948 
 3448000   0.71810081   -7.4588864    802.46712  0.019394507    0.0193543         3945 
 3449000   0.68498926   -7.4564967    802.28485   0.01938448  0.019347229         3946 
 3450000   0.70527131   -7.4506854    801.58089  0.019361857  0.019340165         3937 
 3451000   0.68632354   -7.4536183    804.00944   0.01941489  0.019333091         3934 
 3452000   0.69512224   -7.4726236    801.32771  0.019344528  0.019326037         3938 
 3453000   0.70125171   -7.4640857    803.64942  0.019394956  0.019318971         3945 
 3454000   0.69750101   -7.4553774    801.98343  0.019349147  0.019311907         3945 
 3455000   0.70900005   -7.4795598    801.16676  0.019323849  0.019304843         3938 
 3456000    0.7015938   -7.4404607    802.77574  0.019357054  0.019297779         3938 
 3457000   0.70398571   -7.4569694    802.37693  0.019341841  0.019290716         3933 
 3458000   0.69126589   -7.4605431     800.4938  0.019290867  0.019283665         3928 
 3459000   0.68677589   -7.4677795    801.65573  0.019313282  0.019276613         3936 
 3460000   0.70551889    -7.460424    801.96245  0.019315088  0.019269559         3943 
 3461000   0.70095045   -7.4739705    802.35178  0.019318881  0.019262517         3943 
 3462000   0.71892056   -7.4549655    802.35911  0.019313478  0.019255478         3938 
 3463000    0.7026577   -7.4835253    802.23008  0.019304796  0.019248444         3936 
 3464000   0.69665303   -7.4452535    801.17959  0.019273951  0.019241404         3919 
 3465000   0.69309515     -7.45232    800.91179  0.019261948  0.019234374         3932 
 3466000      0.68864   -7.4649055    801.46243   0.01926963   0.01922734         3934 
 3467000   0.69269104   -7.4589984    801.09619  0.019255269   0.01922031         3924 
 3468000   0.68768949   -7.4616121     802.7347  0.019289088  0.019213285         3943 
 3469000   0.69241056   -7.4601088    801.04402  0.019242914  0.019206257         3934 
 3470000    0.7052136    -7.487674    801.50444  0.019248426   0.01919924         3949 
 3471000   0.68688604   -7.4656264    801.57376  0.019244544  0.019192222         3947 
 3472000   0.69888177   -7.4451049    802.25164  0.019255272  0.019185208         3938 
 3473000   0.69072454   -7.4657987    803.10322  0.019270161  0.019178187         3943 
 3474000    0.6994037   -7.4768277    802.53406  0.019250961  0.019171178         3941 
 3475000   0.70181212    -7.463742    800.39589  0.019194146  0.019164163         3947 
 3476000   0.70366662   -7.4526541    802.33195  0.019235039  0.019157145         3954 
 3477000   0.69483792   -7.4603517    801.71023  0.019214606  0.019150134         3946 
 3478000   0.69404782   -7.4737452    803.02031  0.019240471  0.019143123         3939 
 3479000   0.69746539   -7.4586714    801.02418  0.019187127  0.019136109         3955 
 3480000   0.68699535   -7.4502194    800.04806  0.019158239  0.019129103         3940 
 3481000    0.6925353   -7.4747621    802.04098  0.019200445  0.019122101         3936 
 3482000   0.69541035   -7.4503656    800.64684  0.019161565  0.019115096         3942 
 3483000   0.70161853   -7.4467269    801.68826   0.01918098  0.019108099         3927 
 3484000   0.69088674   -7.4652392    802.37026  0.019191788   0.01910111         3944 
 3485000   0.67222813   -7.4834387    800.65687   0.01914531  0.019094106         3947 
 3486000   0.68665526   -7.4437201    801.82426  0.019167725  0.019087107         3946 
 3487000   0.68919624   -7.4553343    801.49701  0.019154407   0.01908011         3932 
 3488000   0.69015303   -7.4746673    802.07813  0.019162799  0.019073129         3953 
 3489000    0.6832603   -7.4536338    803.01383  0.019179656  0.019066138         3946 
 3490000   0.69426388   -7.4647845    801.42143  0.019136137   0.01905914         3955 
 3491000   0.70386622   -7.4672239    801.49841  0.019132493  0.019052151         3935 
 3492000   0.70136101   -7.4545299    801.64107  0.019130419  0.019045169         3940 
 3493000   0.68838287    -7.479875    802.05279  0.019134764  0.019038181         3947 
 3494000   0.70170046   -7.4662056    800.93317  0.019102585  0.019031192         3943 
 3495000   0.68009715   -7.4888058    801.03259  0.019099489  0.019024212         3928 
 3496000   0.69660475   -7.4598542     801.5489  0.019106333  0.019017224         3943 
 3497000   0.69714381   -7.4641338    802.05361  0.019112897   0.01901025         3946 
 3498000    0.6947017   -7.4819495    802.30777  0.019113488  0.019003274         3944 
 3499000   0.70262017   -7.4540111    800.95815  0.019075882  0.018996303         3943 
 3500000    0.6906435   -7.4641072    800.42546  0.019057749  0.018989327         3940 
 3501000   0.69119738    -7.506257    800.71375  0.019059168   0.01898235         3937 
 3502000   0.69609866   -7.4669893    801.42452  0.019070639  0.018975381         3935 
 3503000   0.69218572   -7.5001335    801.37206  0.019063947  0.018968407         3948 
 3504000   0.67659983   -7.4860312    801.07434  0.019051425  0.018961435         3952 
 3505000   0.69952373   -7.4714353    802.04179  0.019068992  0.018954473         3940 
 3506000   0.69265047   -7.4540814    801.23271  0.019044322  0.018947509         3949 
 3507000   0.67196962   -7.4798002    801.45302  0.019044126  0.018940545         3949 
 3508000   0.70120582   -7.4815566    800.97043  0.019027234  0.018933587         3957 
 3509000   0.68100806   -7.4856303    801.74971  0.019040318  0.018926636         3957 
 3510000   0.67985779   -7.4602623    801.46934  0.019028237  0.018919689         3958 
 3511000   0.68289903   -7.4840168    800.29741  0.018995002  0.018912729         3960 
 3512000   0.69148577   -7.4826433    800.33401  0.018990462  0.018905782         3948 
 3513000   0.68604733   -7.4870868    800.08688  0.018979194   0.01889883         3947 
 3514000   0.69160964   -7.4844969    802.21425  0.019024242  0.018891879         3969 
 3515000   0.66978495   -7.4763798    802.53934  0.019026537  0.018884928         3954 
 3516000   0.69788236   -7.5021852     801.1304  0.018987732  0.018877992         3957 
 3517000   0.68865664   -7.4827206    800.83865  0.018975421  0.018871048         3957 
 3518000   0.68277135   -7.4602936     801.8342  0.018993609   0.01886411         3947 
 3519000   0.69101587   -7.4764439    800.22661  0.018950142  0.018857176         3945 
 3520000    0.6861802   -7.5051701    800.97601    0.0189625  0.018850241         3954 
 3521000   0.70252367   -7.4783667    799.91384  0.018931976  0.018843314         3947 
 3522000    0.6946404   -7.4627947    799.52075    0.0189173  0.018836388         3958 
 3523000   0.68013435   -7.4873458    801.54351  0.018959776  0.018829458         3952 
 3524000   0.70455303   -7.4793075    800.17493  0.018922033  0.018822541         3952 
 3525000   0.68584315   -7.4545807    800.77295  0.018930803  0.018815617         3942 
 3526000   0.69864323   -7.5070846    800.59395  0.018921203    0.0188087         3951 
 3527000   0.69343482   -7.4633649    800.32129  0.018909396  0.018801786         3948 
 3528000   0.67422707   -7.4906294    800.25477  0.018902465  0.018794873         3953 
 3529000   0.69098195   -7.4689468    799.90864  0.018888936  0.018787954         3933 
 3530000   0.69286608   -7.4636937    800.42337  0.018895736  0.018781045         3955 
 3531000   0.69692458    -7.464602     801.2923  0.018910892   0.01877414         3947 
 3532000   0.67912213   -7.4750992    799.55624  0.018864577  0.018767227         3958 
 3533000   0.68009247   -7.4884429    800.26308   0.01887591  0.018760323         3955 
 3534000   0.70145582    -7.493956    800.93603  0.018886437  0.018753425         3948 
 3535000    0.6962108   -7.5086136    802.14087  0.018909497  0.018746531         3957 
 3536000   0.68678801   -7.5071132    799.83067  0.018849705  0.018739631         3934 
 3537000   0.68093322   -7.4708417    802.31936   0.01890301   0.01873273         3953 
 3538000   0.68110549   -7.4848705    800.47699  0.018854272  0.018725846         3948 
 3539000   0.69129957    -7.485883    800.42029   0.01884761  0.018718955         3957 
 3540000   0.66834582   -7.4967387     802.4648  0.018890414  0.018712068         3940 
 3541000   0.69576412   -7.4736843    800.32648  0.018834757  0.018705188         3951 
 3542000   0.68451365   -7.4923877     800.8314  0.018841318  0.018698303         3953 
 3543000   0.67454986   -7.4864461    799.99778  0.018816393  0.018691424         3946 
 3544000   0.66848521   -7.4991732    801.47926  0.018845919  0.018684543         3938 
 3545000   0.68917921   -7.5055619    802.67415  0.018868692   0.01867767         3935 
 3546000   0.67649322     -7.47919    799.23314  0.018782505    0.0186708         3940 
 3547000   0.68403896   -7.4558997     801.7295  0.018835859  0.018663931         3951 
 3548000   0.68491455   -7.4896127     801.2368  0.018818978  0.018657072         3959 
 3549000   0.68575793   -7.4768435    799.51033  0.018773136  0.018650205         3943 
 3550000   0.68964241   -7.4963747    800.85899  0.018799507  0.018643339         3954 
 3551000   0.70659713   -7.5094298    800.72794  0.018791137  0.018636477         3934 
 3552000   0.68853929   -7.4954733    800.62689  0.018783476   0.01862962         3953 
 3553000   0.68768157   -7.4722674    800.98978  0.018786701  0.018622767         3951 
 3554000   0.68948525   -7.4830911    799.52931   0.01874717  0.018615907         3954 
 3555000   0.67740387   -7.4993355    800.95256  0.018775259  0.018609056         3945 
 3556000    0.6655873   -7.4867668    801.08698  0.018773129  0.018602204         3947 
 3557000    0.6831089   -7.4727157    800.23784  0.018747958  0.018595359         3946 
 3558000   0.66976335   -7.4859066    801.02456  0.018761115  0.018588513         3949 
 3559000   0.68572134   -7.5001595    800.08041  0.018733736  0.018581671         3950 
 3560000   0.67943469    -7.506707    799.79642  0.018721826  0.018574823         3951 
 3561000   0.67956473   -7.5013859    799.97626  0.018720777   0.01856798         3963 
 3562000   0.67809334   -7.4976966    801.35225  0.018747713  0.018561139         3947 
 3563000   0.67006117   -7.4911198     801.8238   0.01875348  0.018554297         3951 
 3564000   0.68381273   -7.5038611    800.34763  0.018713702  0.018547468         3955 
 3565000   0.68098053   -7.4890706    800.75626  0.018718005  0.018540637         3952 
 3566000   0.68627041    -7.492267    798.75709  0.018666038  0.018533805         3946 
 3567000   0.69288684   -7.4970027    800.71001   0.01870643  0.018526979         3939 
 3568000    0.6814618   -7.4822224    799.60518  0.018675383  0.018520156         3948 
 3569000    0.6678449   -7.4834621    801.07066  0.018704368  0.018513333         3940 
 3570000   0.68877349   -7.4939437    801.44463  0.018707858  0.018506518         3947 
 3571000   0.66461189   -7.4733395    799.48424  0.018656871  0.018499701         3942 
 3572000   0.69108458   -7.4750556    800.96151  0.018686112  0.018492892         3940 
 3573000   0.68157279   -7.4916977    800.23858  0.018664021  0.018486082         3946 
 3574000   0.67440237   -7.4898965    800.49205  0.018664709  0.018479268         3955 
 3575000   0.68289552   -7.5013524    799.27043  0.018631012  0.018472465         3954 
 3576000   0.68345142   -7.5137476    799.69812  0.018635769  0.018465665         3939 
 3577000   0.67631253   -7.4734238    799.52008  0.018626411  0.018458864         3953 
 3578000   0.68502182   -7.4893773    799.93301  0.018630823  0.018452057         3947 
 3579000   0.68184507   -7.4904909    801.94592  0.018672486  0.018445253         3949 
 3580000   0.69043499   -7.5008971    798.62026  0.018589857  0.018438455         3954 
 3581000   0.66760329   -7.4988033    798.81091  0.018589102  0.018431655         3947 
 3582000   0.70147691   -7.4757236    800.68869  0.018627598  0.018424859         3957 
 3583000   0.66981576   -7.4943812    801.04065  0.018630585  0.018418063         3945 
 3584000   0.66612304   -7.5085019    799.12186  0.018580772   0.01841127         3936 
 3585000   0.67480253   -7.4829229    800.16871  0.018599923  0.018404476         3955 
 3586000    0.6912807   -7.5059321    800.19355  0.018595314  0.018397688         3943 
 3587000    0.6686338   -7.5090805    801.25182  0.018614716  0.018390901         3954 
 3588000   0.66965237   -7.5017277    800.43436  0.018590542  0.018384124         3952 
 3589000   0.67042842   -7.4975231    800.07753  0.018577077  0.018377351         3958 
 3590000   0.65885159   -7.5038199      801.194  0.018597818  0.018370575         3943 
 3591000   0.66989158   -7.4942185    799.65356  0.018556891  0.018363804         3964 
 3592000   0.67751037   -7.5076953    800.13035  0.018562786  0.018357029         3958 
 3593000   0.65879242   -7.4859996    798.34914  0.018516308  0.018350257         3951 
 3594000   0.67282498    -7.498354    800.14203  0.018552728   0.01834349         3957 
 3595000    0.6701052    -7.472212    799.07839  0.018522911  0.018336714         3953 
 3596000   0.67493409   -7.4979267     800.0562   0.01854042  0.018329946         3956 
 3597000   0.66215741   -7.4957029    799.87886  0.018531157  0.018323182         3949 
 3598000   0.67510784   -7.4827995    798.92198  0.018503844  0.018316423         3956 
 3599000   0.68601529   -7.5221386    799.79254   0.01851886  0.018309666         3953 
 3600000   0.67048453   -7.5025716    798.87887  0.018492566  0.018302916         3956 
 3601000   0.68055652   -7.4957598    800.59199  0.018527075  0.018296169         3942 
 3602000   0.66831694    -7.498336     800.2091  0.018513074  0.018289419         3957 
 3603000   0.66894547   -7.4800704    799.77247  0.018497837  0.018282672         3949 
 3604000   0.68186035   -7.5002536    799.82341  0.018493882  0.018275935         3942 
 3605000   0.67417074   -7.4993653    799.87467  0.018489937  0.018269204         3951 
 3606000   0.68073104   -7.5088607    800.37928  0.018496471  0.018262465         3956 
 3607000    0.6764457   -7.4827027    801.28181  0.018512194  0.018255727         3949 
 3608000   0.68062564    -7.539193    799.12669  0.018457287  0.018248991         3963 
 3609000   0.66871265   -7.4978708    799.71743  0.018465813  0.018242254         3947 
 3610000   0.70424079   -7.4937023      800.404  0.018476547  0.018235535         3959 
 3611000   0.67012637   -7.5273723    799.04237  0.018440007  0.018228808         3960 
 3612000   0.67093838   -7.4955148    799.28953  0.018440604  0.018222083         3953 
 3613000   0.67372878   -7.4913574    800.18933  0.018456254   0.01821536         3958 
 3614000   0.68046276   -7.4930649     799.2518  0.018429529  0.018208637         3954 
 3615000   0.68196819   -7.5040961    799.73337  0.018435532  0.018201909         3956 
 3616000    0.6768922   -7.5254586     799.5793  0.018426883  0.018195189         3953 
 3617000   0.66667936   -7.5126193     799.1302  0.018411441  0.018188469         3959 
 3618000   0.68493189   -7.4998377     799.3826  0.018412166  0.018181757         3941 
 3619000   0.67907311   -7.5169915    801.69585  0.018460345  0.018175043         3958 
 3620000   0.68217397    -7.510577    799.79577  0.018411505  0.018168335         3956 
 3621000    0.6724594   -7.5072448    798.28923  0.018371749  0.018161627         3953 
 3622000   0.67247753   -7.5082416    799.02994  0.018383718  0.018154926         3951 
 3623000    0.6862011   -7.5088977    799.30914  0.018385066  0.018148221         3947 
 3624000   0.67351722   -7.4973627    800.76264  0.018413416  0.018141525         3949 
 3625000   0.66481247   -7.4906172    800.09879  0.018393076  0.018134822         3956 
 3626000   0.65679704    -7.509157    799.80379  0.018381223  0.018128125         3958 
 3627000   0.66692872   -7.5214308    800.95193  0.018402535  0.018121435         3960 
 3628000   0.68316429   -7.5137882    799.29852  0.018359485  0.018114743         3958 
 3629000     0.673202   -7.5204089    799.86725  0.018367485  0.018108052         3960 
 3630000   0.67038972   -7.5258586    798.81146  0.018338188  0.018101365         3965 
 3631000   0.67275598   -7.5048196    799.77891  0.018355341   0.01809468         3953 
 3632000   0.65692579   -7.4938848    800.32987  0.018362928  0.018087996         3952 
 3633000    0.6799827   -7.4894995    799.95084   0.01834918  0.018081322         3948 
 3634000   0.68168481   -7.5290723    798.86969  0.018319338  0.018074646         3957 
 3635000   0.66668112   -7.5148782    798.84567  0.018313748  0.018067977         3957 
 3636000   0.67457491   -7.5092177     799.9543   0.01833412  0.018061305         3953 
 3637000   0.66381254   -7.5211823    799.92973  0.018328515  0.018054634         3947 
 3638000   0.68336333   -7.5229207    799.45148  0.018312522  0.018047967         3957 
 3639000   0.66612086   -7.5152127    799.38319  0.018305926  0.018041297         3951 
 3640000   0.66975626   -7.5023373    800.44367  0.018325176  0.018034639         3946 
 3641000   0.66883793   -7.5137764    800.39406  0.018319007  0.018027979         3949 
 3642000   0.67250523   -7.5087058    798.81948  0.018277949  0.018021328         3945 
 3643000   0.67878481    -7.492338    797.02896  0.018231974  0.018014675         3952 
 3644000   0.67208022   -7.5131377    799.98838  0.018294648  0.018008022         3938 
 3645000   0.66066894    -7.516908    799.26501  0.018273091  0.018001373         3955 
 3646000   0.65765469   -7.5008741    798.84916  0.018258575  0.017994728         3952 
 3647000   0.67387972   -7.5352723    798.93523  0.018255535  0.017988085         3950 
 3648000   0.67499194   -7.5060687     799.0565  0.018253301  0.017981446         3951 
 3649000    0.6739626   -7.5009131    798.47009  0.018234907  0.017974807         3947 
 3650000   0.65408231   -7.5088195    799.57138  0.018255054  0.017968166         3951 
 3651000   0.65629999   -7.5282497    799.05523  0.018238273  0.017961529         3959 
 3652000   0.67612786   -7.5193042    798.84445   0.01822847  0.017954897         3953 
 3653000   0.68523352   -7.5076122    797.82898  0.018200314  0.017948261         3953 
 3654000   0.65989822   -7.5103624    798.60341  0.018212995  0.017941632         3957 
 3655000   0.67189532   -7.5074853    797.62582  0.018185723  0.017935007         3952 
 3656000   0.66603494   -7.5087815    799.34629  0.018219965  0.017928379         3954 
 3657000   0.66175778   -7.5176839    799.34429  0.018214937  0.017921753         3954 
 3658000   0.67707758   -7.5103376    798.94741  0.018200916  0.017915134         3949 
 3659000   0.66810291   -7.5107399    799.14156  0.018200364  0.017908518         3957 
 3660000   0.67904981   -7.5218258    800.32526  0.018222342  0.017901899         3960 
 3661000   0.66364333   -7.5230134    798.04154  0.018165382  0.017895292         3941 
 3662000   0.66479488    -7.542389    798.54816   0.01817195  0.017888683         3954 
 3663000   0.65521347   -7.5254701    798.14101  0.018157726  0.017882072         3954 
 3664000   0.69045897   -7.5093809    798.79817  0.018167717  0.017875471         3949 
 3665000   0.68152333   -7.5314386    799.39754  0.018176388  0.017868866         3950 
 3666000   0.66813969    -7.523255    799.76159  0.018179705  0.017862266         3954 
 3667000   0.66502406   -7.5225657    798.71897  0.018151054  0.017855669         3955 
 3668000   0.65250814   -7.5160458    800.07167  0.018176837  0.017849072         3948 
 3669000   0.67034764   -7.5195047    800.17116  0.018174143  0.017842479         3959 
 3670000   0.65846459    -7.525037    798.43656  0.018129804  0.017835888         3952 
 3671000   0.65823347   -7.5042837    799.02218  0.018138159    0.0178293         3954 
 3672000   0.65913406   -7.5100695    799.03789  0.018133576  0.017822724         3950 
 3673000   0.66607774   -7.5300725      798.116  0.018107723  0.017816147         3957 
 3674000   0.66569044   -7.5241296    800.23029   0.01815075  0.017809563         3946 
 3675000   0.66719264     -7.48861    799.66185  0.018132922  0.017802991         3945 
 3676000   0.65678624   -7.5158674      798.343  0.018098091  0.017796415         3942 
 3677000   0.66452645   -7.5128404    798.74476  0.018102274  0.017789847         3954 
 3678000   0.67029613   -7.5276916    797.32574  0.018065202  0.017783281         3947 
 3679000   0.66543298   -7.5197255    797.99224  0.018075388  0.017776713         3955 
 3680000   0.66029982   -7.5326703    798.56275  0.018083396  0.017770146         3947 
 3681000    0.6675083   -7.5278499    799.41276  0.018097726   0.01776358         3953 
 3682000   0.66660998   -7.5205468    799.89572  0.018103742  0.017757025         3965 
 3683000   0.66869096   -7.5333198    798.33785  0.018063577   0.01775047         3953 
 3684000   0.67229537   -7.4987711    800.57071  0.018109182   0.01774392         3957 
 3685000   0.65591262   -7.5235358    798.48912  0.018057194  0.017737374         3962 
 3686000   0.68118349   -7.5366045    799.68181   0.01807926  0.017730827         3962 
 3687000   0.67338154   -7.5052531    799.23849  0.018064336  0.017724282         3957 
 3688000   0.66290592   -7.5245169    798.61119  0.018045264  0.017717736         3962 
 3689000   0.66156911   -7.5023069    799.09257  0.018051246  0.017711192         3948 
 3690000   0.66296832   -7.5299638    798.78508   0.01803941  0.017704651         3950 
 3691000   0.66200031     -7.55032    797.58153   0.01800735  0.017698112         3960 
 3692000   0.65641097   -7.5317994    799.09194  0.018036564  0.017691579         3953 
 3693000   0.66250629   -7.5038691    799.54549  0.018041915  0.017685057         3948 
 3694000   0.65142603   -7.5323747    799.38337  0.018033373  0.017678527         3964 
 3695000   0.66152353   -7.5067269    799.00789  0.018020025  0.017671999         3952 
 3696000   0.66996333   -7.5206662    799.84839    0.0180341   0.01766547         3953 
 3697000   0.66578657   -7.5289969    798.74389  0.018004325  0.017658952         3957 
 3698000   0.66564612   -7.5326554    799.77183  0.018022621  0.017652434         3950 
 3699000   0.65269167   -7.5287863    799.12463  0.018003168  0.017645916         3947 
 3700000   0.65770626   -7.5086817    798.41931  0.017982417  0.017639401         3961 
 3701000   0.65493916   -7.5183497    798.25788  0.017973923  0.017632885         3958 
 3702000   0.66905469   -7.5169052    799.31985  0.017992973  0.017626377         3965 
 3703000   0.67608406    -7.510179    799.06588  0.017982399  0.017619873         3955 
 3704000   0.66394318   -7.5138572    798.83377  0.017972322  0.017613368         3963 
 3705000   0.65980556   -7.5036599    798.90861  0.017969155  0.017606863         3956 
 3706000   0.65589257   -7.5217369    798.31937  0.017951056  0.017600364         3952 
 3707000   0.63747337   -7.5356202    799.10192  0.017963805  0.017593864         3958 
 3708000   0.66116095   -7.5363608    797.43109  0.017921411  0.017587365         3951 
 3709000    0.6560596   -7.5207713    798.19812  0.017933812  0.017580876         3955 
 3710000   0.66152034   -7.5010058    798.54135  0.017936688  0.017574385         3962 
 3711000   0.64738491   -7.5339895    799.82853  0.017960759  0.017567893         3958 
 3712000    0.6509679   -7.5172078    799.53629   0.01794936  0.017561414         3962 
 3713000   0.65556431   -7.5315116     797.8625   0.01790696  0.017554931         3958 
 3714000    0.6544265    -7.541193    798.73721  0.017921765  0.017548446         3963 
 3715000   0.66091382   -7.5036137    798.54511  0.017912631   0.01754197         3961 
 3716000   0.66034565   -7.5506005    797.19186  0.017877464  0.017535493         3961 
 3717000   0.66083553   -7.5298551    798.10086  0.017893033  0.017529012         3959 
 3718000   0.65714418   -7.5441395    798.27956  0.017892226  0.017522539         3955 
 3719000   0.67115228   -7.5370698    799.74498  0.017920251   0.01751607         3958 
 3720000   0.65137196   -7.5380577    800.46595  0.017931585  0.017509604         3959 
 3721000   0.65714466   -7.5433722     799.3509  0.017901794  0.017503135         3968 
 3722000   0.66082438   -7.5337568    797.22734  0.017849439  0.017496675         3960 
 3723000   0.66372481   -7.5136547    799.63279  0.017898487  0.017490215         3949 
 3724000   0.65340544    -7.552952     798.5018  0.017868372  0.017483761         3950 
 3725000   0.65848048   -7.5212351    799.63807  0.017888995  0.017477309         3964 
 3726000   0.65236404   -7.5206203    798.19057   0.01785182  0.017470857         3958 
 3727000   0.64953575   -7.5277779    798.43572  0.017852511  0.017464405         3963 
 3728000   0.66358486   -7.5312658    799.31198   0.01786731  0.017457958         3961 
 3729000    0.6619603   -7.5386018    798.27348  0.017839311  0.017451513         3968 
 3730000   0.65648436    -7.525436    799.40093  0.017859717  0.017445076         3960 
 3731000   0.64493622    -7.524519    799.13825  0.017849063   0.01743864         3966 
 3732000   0.66222859   -7.5203904    799.02874  0.017841835  0.017432206         3954 
 3733000   0.65422576   -7.5200954    798.53005  0.017825923  0.017425776         3961 
 3734000   0.66405775   -7.5562964    798.61973   0.01782315  0.017419344         3962 
 3735000   0.65134742   -7.5179315    799.47446  0.017837449  0.017412907         3966 
 3736000   0.64402456   -7.5429533    798.04043  0.017800688  0.017406475         3958 
 3737000   0.64740571   -7.5328418    800.11554  0.017842198  0.017400042         3969 
 3738000    0.6430289   -7.5244674    799.24172  0.017817945  0.017393614         3964 
 3739000   0.65896873   -7.5628798    799.69223   0.01782322  0.017387189         3961 
 3740000   0.66199515   -7.5495336     798.3511  0.017788572  0.017380761         3955 
 3741000   0.64682599   -7.5237283     797.3225  0.017760904  0.017374336         3959 
 3742000   0.65988159   -7.5145159    797.22608   0.01775401  0.017367913         3960 
 3743000   0.64644641   -7.5379282    799.09435  0.017790862  0.017361495         3966 
 3744000   0.65428429   -7.5409926    797.78899  0.017757056  0.017355074         3963 
 3745000   0.65674958   -7.5538295    796.58193  0.017725455   0.01734866         3961 
 3746000   0.65818583   -7.5443755    798.06876  0.017753799  0.017342249         3960 
 3747000   0.65309349    -7.508625    798.90323  0.017767619  0.017335844         3945 
 3748000   0.64942625   -7.5457603    798.26174  0.017748616  0.017329442         3954 
 3749000   0.65453549   -7.5406077    798.15524  0.017741514  0.017323049         3967 
 3750000   0.64344471   -7.5209285    798.43052    0.0177429  0.017316652         3953 
 3751000   0.64647084    -7.545207    797.05335  0.017707575  0.017310252         3966 
 3752000   0.65073555   -7.5615048    796.89636  0.017699368  0.017303852         3974 
 3753000   0.64421691   -7.5282521    796.54519  0.017686855   0.01729745         3951 
 3754000   0.64542402   -7.5339183    797.68381  0.017707419   0.01729106         3950 
 3755000   0.64507925   -7.5630308    798.52432  0.017721356  0.017284663         3952 
 3756000   0.65068618   -7.5325453    797.07439  0.017684469  0.017278267         3949 
 3757000   0.66050042   -7.5566489    798.47062  0.017710732  0.017271876         3956 
 3758000   0.65080865   -7.5282235    797.53496  0.017685271  0.017265487         3965 
 3759000    0.6512721   -7.5377264    796.33767  0.017654023  0.017259099         3950 
 3760000   0.64649286   -7.5413778    798.86212  0.017705278  0.017252718         3946 
 3761000   0.64328423   -7.5275038     796.8525  0.017656042  0.017246343         3942 
 3762000   0.63054757   -7.5412702    798.54754  0.017688896  0.017239965         3950 
 3763000   0.65059118   -7.5284323    797.18992  0.017654131  0.017233588         3956 
 3764000   0.63416278    -7.527838    796.70987  0.017638812   0.01722721         3959 
 3765000   0.63914767   -7.5385844    797.40767  0.017649572  0.017220839         3965 
 3766000   0.65446983    -7.556359    800.88208  0.017721767  0.017214472         3959 
 3767000    0.6406916   -7.5234076     798.4272  0.017662755  0.017208107         3965 
 3768000   0.66372926    -7.552681    798.49228  0.017659507  0.017201746         3970 
 3769000    0.6657717   -7.5531352    798.28131  0.017650157  0.017195377         3965 
 3770000   0.64246067   -7.5413238    797.94202  0.017637976  0.017189007         3953 
 3771000   0.63949185   -7.5447946    798.52315   0.01764614  0.017182645         3958 
 3772000   0.65258414    -7.538527    798.48991  0.017640728  0.017176284         3959 
 3773000   0.64755396   -7.5767311    798.44805  0.017635128  0.017169918         3944 
 3774000   0.66472858   -7.5576393    797.77169   0.01761552  0.017163549         3956 
 3775000     0.647877   -7.5576525     797.5951  0.017606956  0.017157186         3945 
 3776000   0.66393207   -7.5488395    797.76967  0.017606146  0.017150822         3923 
 3777000   0.64620259   -7.5623912    797.48803   0.01759527  0.017144462         3944 
 3778000   0.64586253   -7.5627895    795.97005   0.01755713  0.017138108         3935 
 3779000   0.64628331   -7.5548522    795.84919  0.017549819  0.017131749         3956 
 3780000   0.64322811    -7.558193    796.48566  0.017559208  0.017125397         3938 
 3781000   0.65706943   -7.5596021    796.34258   0.01755141  0.017119045         3946 
 3782000   0.65740461   -7.5591368    797.05741   0.01756252  0.017112694         3946 
 3783000   0.65929083   -7.5480614    795.44339  0.017522323  0.017106348         3941 
 3784000   0.65524713    -7.572276    797.25807  0.017557656  0.017100002         3937 
 3785000   0.63828152   -7.5642524    795.07099  0.017504865  0.017093659         3927 
 3786000   0.63873041   -7.5655947    796.96875  0.017542013  0.017087312         3933 
 3787000    0.6446366   -7.5572161    796.59711  0.017529203   0.01708097         3944 
 3788000   0.63898739   -7.5660312    797.58303  0.017546265  0.017074633         3937 
 3789000   0.65328763   -7.5679625    797.90324  0.017548677  0.017068303         3934 
 3790000   0.64442072   -7.5705203    796.69485  0.017517477  0.017061962         3938 
 3791000   0.63058668   -7.5524615    797.77133  0.017536519  0.017055635         3942 
 3792000   0.64688359   -7.5571716     796.4669  0.017503228  0.017049304         3950 
 3793000   0.65224475   -7.5637244    796.93346  0.017508864   0.01704298         3936 
 3794000   0.64532798   -7.5748719    796.60233  0.017496976  0.017036656         3935 
 3795000   0.65402733   -7.5629195    797.06243  0.017502469  0.017030335         3935 
 3796000   0.67155678   -7.5744672    797.31374  0.017503375  0.017024013         3941 
 3797000   0.63444858   -7.5791372    795.53712  0.017459774  0.017017702         3949 
 3798000   0.65096646   -7.5772046    796.91904  0.017485498  0.017011389         3936 
 3799000    0.6482916   -7.5560896    796.22351  0.017465638   0.01700508         3929 
 3800000   0.65555881   -7.5725373     797.2128  0.017482737  0.016998774         3943 
 3801000   0.63463968   -7.5624266    796.98635  0.017473173  0.016992469         3943 
 3802000   0.65232663   -7.5621336    797.70704  0.017484373  0.016986167         3941 
 3803000   0.64252446   -7.5565045    797.76179  0.017480975  0.016979863         3946 
 3804000   0.64763276   -7.5527938    795.15758   0.01741933  0.016973568         3947 
 3805000   0.63730612   -7.5591271    796.69749  0.017448478  0.016967273         3929 
 3806000   0.63138833   -7.5473223     794.9962  0.017406643  0.016960984         3951 
 3807000   0.63554319    -7.574232    796.94845  0.017444804  0.016954695         3943 
 3808000   0.64621539   -7.5635627    796.55226  0.017431553  0.016948403         3942 
 3809000   0.64597192   -7.5838778    797.05254  0.017437922   0.01694212         3935 
 3810000   0.64268067   -7.5793458    796.43244  0.017419782  0.016935836         3944 
 3811000   0.65363002   -7.5901857    796.23085  0.017410803  0.016929554         3939 
 3812000    0.6513317   -7.5537934     796.1043  0.017403469  0.016923279         3942 
 3813000   0.62129537   -7.5730831    796.22438   0.01740153  0.016917001         3944 
 3814000     0.635655    -7.583554    796.36946  0.017400137  0.016910729         3943 
 3815000   0.63568896   -7.5858657    796.03782  0.017388332  0.016904454         3934 
 3816000   0.62790663   -7.5694159    796.89146  0.017402417  0.016898181         3933 
 3817000   0.64286065   -7.5629906    794.67423  0.017349451  0.016891914         3942 
 3818000   0.64750557   -7.5618573    797.06312  0.017397047  0.016885652         3944 
 3819000   0.66037379   -7.5631915    797.13995  0.017394168  0.016879393         3945 
 3820000   0.64363584   -7.5886899    794.95222   0.01734189  0.016873132         3939 
 3821000   0.63680241   -7.5771229    795.74733  0.017354692  0.016866872         3939 
 3822000    0.6421849   -7.5714062    796.76803  0.017372406  0.016860618         3942 
 3823000   0.63263594   -7.5781809    795.59391  0.017342269  0.016854368         3939 
 3824000   0.62367628   -7.5621039    796.95181  0.017367325   0.01684812         3943 
 3825000   0.65482432   -7.5676428    796.52562  0.017353499  0.016841875         3938 
 3826000   0.64417841   -7.5905851    795.23269  0.017320803  0.016835629         3950 
 3827000   0.63511142   -7.6062763    795.52442  0.017322629  0.016829389         3939 
 3828000   0.64477994   -7.5745243    794.64649  0.017298992  0.016823149         3958 
 3829000   0.63501735   -7.5687484    795.10314  0.017304412   0.01681692         3941 
 3830000   0.64384887    -7.585252    795.46204  0.017307703   0.01681069         3944 
 3831000   0.63292338   -7.5748465    795.71252  0.017308634  0.016804458         3945 
 3832000   0.63146283   -7.5557875    794.86789  0.017285749   0.01679823         3953 
 3833000   0.64096654   -7.5782742    795.93776    0.0173045  0.016792008         3948 
 3834000   0.63388618    -7.554514     797.6724  0.017337689  0.016785787         3940 
 3835000    0.6471273   -7.5795645    796.16272  0.017300363  0.016779564         3941 
 3836000   0.64946833     -7.58168    797.19626  0.017318306  0.016773346         3946 
 3837000   0.64983936    -7.568526    796.97173  0.017308916  0.016767129         3951 
 3838000   0.62908479   -7.5653309    797.21946  0.017309785  0.016760916         3945 
 3839000   0.63669913   -7.5702037    796.85679  0.017297404  0.016754708         3952 
 3840000   0.63859327   -7.5834839    797.80478  0.017313472  0.016748496         3944 
 3841000   0.62250862   -7.5881437    795.38488  0.017256463  0.016742289         3942 
 3842000   0.63163089   -7.6037443    796.07991  0.017267047  0.016736082         3946 
 3843000    0.6432591   -7.5948162    796.54659  0.017272673  0.016729885         3948 
 3844000   0.63998318   -7.5497187    796.56516  0.017268582  0.016723685         3940 
 3845000   0.63085875   -7.5704106    795.66572  0.017244597  0.016717497         3950 
 3846000   0.62954373   -7.5487629    796.82126  0.017265151  0.016711302         3946 
 3847000   0.64219123   -7.5732609      797.349  0.017272095  0.016705114         3947 
 3848000   0.61922193   -7.5710418    797.32139  0.017267009  0.016698931         3959 
 3849000   0.64302044   -7.5879972    796.55135  0.017245851  0.016692747         3950 
 3850000   0.62607509   -7.5734798    796.66848  0.017243906  0.016686568         3969 
 3851000   0.63506274    -7.559912    797.30547  0.017253213  0.016680386         3958 
 3852000   0.63895825   -7.5858165     795.8844  0.017217991  0.016674213         3955 
 3853000   0.62891478   -7.5701782    797.02333  0.017238155  0.016668038         3946 
 3854000   0.62767364   -7.5806922    795.71016  0.017205288  0.016661861         3963 
 3855000   0.64257473    -7.609344    796.60834  0.017220241   0.01665569         3946 
 3856000   0.63131589   -7.5868822    795.40326  0.017189732  0.016649525         3948 
 3857000   0.62409217   -7.5933076    795.67372  0.017191118  0.016643362         3945 
 3858000   0.65303399   -7.5676787    795.38503  0.017180427  0.016637198         3947 
 3859000   0.62111723   -7.5950827    796.66886  0.017203698  0.016631036         3954 
 3860000   0.63426123   -7.5427567    795.72307  0.017178823  0.016624887         3944 
 3861000   0.64275548   -7.6021941    795.18912  0.017162849  0.016618734         3958 
 3862000   0.63959392   -7.5762136     796.4441  0.017185485   0.01661258         3943 
 3863000   0.64052395   -7.5588564    794.57979  0.017140819  0.016606431         3954 
 3864000    0.6382495   -7.5763043    797.25328  0.017194041   0.01660028         3950 
 3865000   0.61969627   -7.5624209    796.04674  0.017163578  0.016594139         3941 
 3866000   0.64060549   -7.5804518    796.50385  0.017168991  0.016587996         3952 
 3867000   0.62752176   -7.5824074    795.00716  0.017132298  0.016581856         3948 
 3868000   0.61896595   -7.5975195    796.03164  0.017149941   0.01657572         3939 
 3869000   0.62644728   -7.5781461    797.03645   0.01716715  0.016569586         3947 
 3870000   0.66087256   -7.5812634    797.05737  0.017163165  0.016563462         3949 
 3871000   0.65052773   -7.5854397    796.48972  0.017146511  0.016557341         3943 
 3872000   0.63021906   -7.5827815    795.32887  0.017117099  0.016551216         3935 
 3873000   0.64352847   -7.5841023    795.84017   0.01712368  0.016545093         3932 
 3874000   0.62628831   -7.6047074    796.94948  0.017143122  0.016538971         3936 
 3875000   0.63648053   -7.5900741    797.25362  0.017145239  0.016532856         3938 
 3876000   0.61438313   -7.5786426    796.74131  0.017129801  0.016526739         3938 
 3877000   0.62809177    -7.611184    795.60835  0.017101031  0.016520624         3941 
 3878000   0.62661238   -7.5829365    795.78313  0.017100377  0.016514513         3939 
 3879000   0.62889182   -7.5793313    796.46626  0.017110644  0.016508408         3934 
 3880000   0.62954203   -7.6031015     796.5548  0.017108136  0.016502302         3946 
 3881000   0.63936497   -7.5781688    796.42963   0.01710104  0.016496199         3946 
 3882000   0.63487492   -7.5714287     795.1566  0.017069307  0.016490099         3944 
 3883000   0.63448326   -7.5811793    796.11226  0.017085421  0.016484003         3951 
 3884000   0.62551877   -7.5914355    796.15834   0.01708201  0.016477906         3931 
 3885000   0.63939269   -7.5858723    795.53944  0.017064338   0.01647181         3945 
 3886000   0.61601365   -7.5781587    797.20367  0.017095636  0.016465716         3925 
 3887000   0.62437277    -7.610275    795.43778  0.017053378  0.016459626         3944 
 3888000   0.63262816   -7.6014376    795.48108   0.01704992  0.016453538         3943 
 3889000   0.63163552   -7.5836538    796.10631  0.017058933  0.016447454         3958 
 3890000   0.63353841   -7.5507572    794.14825  0.017012602  0.016441373         3954 
 3891000   0.63726941   -7.6164966    795.54098  0.017038057  0.016435295         3954 
 3892000   0.64280848   -7.6061805    797.61077  0.017077997  0.016429218         3945 
 3893000   0.63207526   -7.5847691     796.2043  0.017043503  0.016423145         3947 
 3894000   0.61978582   -7.5941878    793.70613  0.016985664  0.016417069         3953 
 3895000   0.64486226   -7.5946778    795.64472   0.01702278     0.016411         3946 
 3896000   0.62259642    -7.593336    795.37066  0.017012548  0.016404932         3943 
 3897000   0.62264831   -7.5902494    795.83273  0.017018064  0.016398869         3953 
 3898000   0.61297922   -7.5779164    796.04503  0.017018236  0.016392806         3947 
 3899000    0.6397241   -7.5885089    794.51222  0.016981111  0.016386746         3966 
 3900000   0.62762398    -7.599481    796.18895  0.017012584  0.016380691         3959 
 3901000    0.6221854    -7.600741    796.09804  0.017006281   0.01637464         3950 
 3902000   0.62266408   -7.5858539    795.34623  0.016985867  0.016368593         3947 
 3903000   0.62808554   -7.5924376     795.3088  0.016980716  0.016362543         3945 
 3904000   0.61895031   -7.5717174    796.25916  0.016996652  0.016356503         3947 
 3905000   0.63175569   -7.5870595    795.98749  0.016986502  0.016350458         3951 
 3906000   0.62288011   -7.5902664    795.18899  0.016965118  0.016344422         3944 
 3907000   0.62575291   -7.5878034     795.6081  0.016969715  0.016338381         3945 
 3908000   0.62093394   -7.5907885    795.11213  0.016954796  0.016332348         3954 
 3909000   0.62064569   -7.6214485     797.0486  0.016991741  0.016326312         3947 
 3910000   0.61501325   -7.5924216    795.22785   0.01694859  0.016320278         3956 
 3911000   0.63261719   -7.6061849    796.09267  0.016962684  0.016314247         3956 
 3912000   0.62568583   -7.6046902    794.08445  0.016915569  0.016308222         3939 
 3913000   0.61949177   -7.6018142    795.53567  0.016942151  0.016302202         3938 
 3914000   0.62026781    -7.597819    794.91185  0.016924541  0.016296184         3952 
 3915000   0.62174116   -7.5907534    795.05581  0.016923282  0.016290169         3952 
 3916000   0.62307993   -7.6083547    794.89007  0.016915434  0.016284152         3954 
 3917000   0.63130262   -7.6023825    795.99139  0.016934546  0.016278136         3958 
 3918000   0.62388254    -7.574426    795.25778   0.01691462  0.016272122         3945 
 3919000   0.63616259   -7.6081662    795.27937  0.016910763   0.01626612         3946 
 3920000    0.6276552   -7.5929586    795.40135  0.016909042  0.016260117         3950 
 3921000    0.6295412    -7.605619    794.47812  0.016885108  0.016254112         3945 
 3922000   0.62622803   -7.5914343    796.33502  0.016920258  0.016248112         3956 
 3923000   0.61437503   -7.5961591    795.37873  0.016895631  0.016242117         3957 
 3924000   0.62056093    -7.612294    795.80794  0.016900441  0.016236121         3959 
 3925000   0.63488069   -7.5944312    795.64161  0.016892603  0.016230134         3944 
 3926000   0.63268158   -7.5860834    795.02132  0.016875134  0.016224139         3950 
 3927000   0.63573086   -7.5977003    794.80705   0.01686629  0.016218154         3945 
 3928000   0.61949982   -7.6023509    795.12533  0.016868749  0.016212169         3953 
 3929000    0.6362193   -7.5901875    794.19306  0.016844682  0.016206186         3946 
 3930000    0.6177044   -7.5924939    794.35693   0.01684387  0.016200207         3939 
 3931000   0.62443018   -7.5902998    794.67969  0.016846428  0.016194231         3949 
 3932000   0.63058065   -7.5951727    794.20047  0.016831987  0.016188256         3957 
 3933000   0.62751843   -7.6068402    795.22431    0.0168494  0.016182286         3952 
 3934000   0.62015426   -7.6044705    795.27354   0.01684616  0.016176316         3940 
 3935000   0.62400748   -7.6100703    795.53053  0.016847322  0.016170352         3940 
 3936000   0.61877685   -7.5925211    795.45809  0.016841508  0.016164387         3951 
 3937000   0.62061859   -7.5827998    793.87725  0.016803769  0.016158428         3958 
 3938000   0.60561101   -7.5953749    795.01567  0.016823592  0.016152468         3951 
 3939000   0.61142773   -7.5780748    795.76038  0.016835076  0.016146513         3956 
 3940000   0.61816003   -7.6033202    794.60566   0.01680638  0.016140558         3949 
 3941000   0.62083559   -7.6063917    794.92072  0.016808778  0.016134605         3964 
 3942000   0.63286912    -7.592401    793.79273  0.016780668  0.016128658         3951 
 3943000   0.60253891   -7.5962747    796.01488  0.016823377  0.016122715         3950 
 3944000   0.62136211    -7.593626    795.64313  0.016811256  0.016116769         3948 
 3945000   0.64465224   -7.6040898    795.30328  0.016799816  0.016110829         3954 
 3946000   0.62927824   -7.6138194    794.81686  0.016785286  0.016104889         3956 
 3947000    0.6193734    -7.589641    795.27825  0.016790775  0.016098952         3959 
 3948000   0.62613487   -7.6164358    795.20598  0.016784996  0.016093019         3955 
 3949000   0.61600494   -7.5831831    794.06738  0.016756719  0.016087088         3960 
 3950000   0.61741541    -7.617575    794.43055  0.016760138  0.016081162         3952 
 3951000   0.61499224   -7.6125422    795.38873  0.016776106   0.01607524         3954 
 3952000   0.62187244   -7.5773953    794.41332  0.016751293  0.016069323         3944 
 3953000   0.62055321   -7.5991018    793.66739   0.01673133  0.016063401         3948 
 3954000   0.62026089    -7.603845    795.40478  0.016763716  0.016057488         3951 
 3955000   0.62580796    -7.596335    794.75393  0.016745763  0.016051575         3959 
 3956000    0.6111574   -7.6211195    794.86081  0.016743782   0.01604566         3958 
 3957000   0.62353482   -7.6116377    794.68745  0.016735899   0.01603975         3953 
 3958000   0.62478937   -7.5879462    797.24202  0.016785456  0.016033844         3950 
 3959000   0.63273095   -7.6099852    795.89979  0.016752963  0.016027944         3948 
 3960000   0.61700787   -7.6028665    795.99256  0.016750685  0.016022038         3955 
 3961000   0.61046394   -7.5957678     797.3935   0.01677593  0.016016142         3951 
 3962000   0.62385471    -7.623679    795.98079  0.016741982  0.016010247         3950 
 3963000   0.61849075   -7.5921463    795.37825  0.016725087  0.016004351         3955 
 3964000   0.62654712   -7.6187477    794.96552  0.016712191  0.015998464         3955 
 3965000   0.62225317   -7.6219867    794.04809  0.016688695   0.01599257         3951 
 3966000   0.63449826   -7.6009539    794.89575  0.016702298  0.015986683         3945 
 3967000   0.62477461   -7.6099368    794.66418  0.016693223  0.015980793         3966 
 3968000   0.63455116   -7.6121221    795.25498  0.016701424  0.015974911         3949 
 3969000   0.62009138   -7.5969589    795.27452  0.016697626  0.015969039         3944 
 3970000   0.62061879   -7.5887277     794.6102  0.016679475  0.015963156         3944 
 3971000   0.61779136   -7.6071428    794.56059  0.016674234  0.015957282         3945 
 3972000   0.60531327   -7.5870657    794.82516  0.016675587  0.015951411         3953 
 3973000   0.62852203   -7.6008575    795.06111  0.016676338  0.015945538         3951 
 3974000   0.61610552   -7.6113987    795.05424  0.016671998  0.015939669         3953 
 3975000    0.6113631   -7.5984807    794.47599  0.016655681  0.015933807         3952 
 3976000   0.62937093   -7.6155064    794.60318  0.016654158  0.015927941         3946 
 3977000   0.61442713   -7.6171575    793.51802  0.016627232  0.015922084         3951 
 3978000   0.62814452   -7.6074368    794.68808  0.016647563  0.015916219         3957 
 3979000   0.62114147   -7.6004652    795.46358  0.016659621  0.015910373         3939 
 3980000   0.61418148   -7.6122486    794.81737  0.016641905  0.015904521         3954 
 3981000   0.61402505   -7.6006749    795.09406  0.016643516  0.015898671         3953 
 3982000   0.61820497   -7.6034853    794.53399  0.016627616   0.01589282         3940 
 3983000   0.62721779    -7.604513    794.89667  0.016631029  0.015886978         3949 
 3984000    0.6097915   -7.6184348    793.77487   0.01660339  0.015881132         3963 
 3985000   0.60049233    -7.617666    794.85149  0.016621737   0.01587529         3948 
 3986000   0.60928408   -7.6131192    796.25473  0.016646904  0.015869452         3953 
 3987000   0.62355495   -7.6129564     796.5308  0.016648499  0.015863617         3954 
 3988000   0.60244579   -7.6005407    796.09037  0.016635121  0.015857783         3961 
 3989000   0.62886964   -7.6166362    795.58482   0.01662039  0.015851956         3954 
 3990000   0.60878756   -7.6016566    795.52607  0.016614997  0.015846131         3953 
 3991000   0.62680992   -7.6105715    794.39062  0.016587126  0.015840306         3942 
 3992000   0.60567794    -7.611941    795.21167   0.01660011  0.015834485         3953 
 3993000   0.60802946   -7.5957677    796.68877   0.01662678  0.015828668         3956 
 3994000   0.61480697   -7.6134057    793.87032  0.016563811  0.015822853         3950 
 3995000   0.62008232    -7.626945    795.90335  0.016602072  0.015817042         3966 
 3996000   0.62050756    -7.617418    795.00577  0.016579199  0.015811233         3957 
 3997000   0.61461693   -7.6160517    795.49048  0.016585157  0.015805417         3951 
 3998000   0.60875147   -7.6290134    794.40512  0.016558386   0.01579961         3947 
 3999000   0.62268398   -7.6227709    793.86345  0.016542958  0.015793802         3960 
 4000000   0.61731135   -7.6181127    794.52486  0.016552601  0.015788004         3953 
 4001000   0.61138642   -7.6170274    794.39665  0.016545794  0.015782201         3961 
 4002000   0.60053846   -7.6337204    795.21294  0.016558657  0.015776401         3956 
 4003000   0.60469844    -7.612136    794.36526  0.016536874  0.015770609         3960 
 4004000   0.60627387   -7.6136364    794.23635  0.016530061  0.015764817         3962 
 4005000   0.61586433   -7.6185608    795.26012  0.016547235  0.015759022         3958 
 4006000   0.61666184   -7.6240909    794.98318  0.016537343  0.015753229         3952 
 4007000    0.6183152   -7.5869563     794.7078  0.016527489  0.015747445         3958 
 4008000   0.61788895   -7.6201879    795.27475  0.016535154  0.015741664         3962 
 4009000   0.60620385   -7.6020509     794.1594  0.016507845  0.015735883         3951 
 4010000    0.6104909   -7.6257615    794.64209  0.016513759  0.015730107         3958 
 4011000   0.60968937   -7.6193577    795.18322  0.016520885  0.015724332         3951 
 4012000    0.5981841   -7.6074753    794.47658  0.016502089  0.015718562         3947 
 4013000   0.59806982   -7.6009063    794.83057  0.016505328  0.015712794         3969 
 4014000   0.61241809   -7.6071228    795.34048  0.016511802  0.015707025         3955 
 4015000   0.60949716   -7.6067919    793.65163  0.016472636  0.015701254         3945 
 4016000   0.61386151    -7.596172    793.94784  0.016474681  0.015695493         3944 
 4017000   0.60231667   -7.6272609    793.97549  0.016471154  0.015689728         3954 
 4018000     0.613842   -7.6055349    795.54902  0.016499689  0.015683972         3946 
 4019000   0.60941955   -7.6183132    793.71622  0.016457581  0.015678209         3964 
 4020000   0.61352466   -7.6277325    794.64544   0.01647275  0.015672453         3958 
 4021000   0.60456336   -7.6196801    795.36108  0.016483484  0.015666704         3958 
 4022000   0.60143872    -7.594121    795.21007  0.016476257  0.015660957         3949 
 4023000   0.61484789   -7.6148069    794.48157  0.016457071  0.015655215         3951 
 4024000   0.61782057   -7.6218851    794.61832  0.016455814  0.015649465         3957 
 4025000   0.60183047   -7.5961354    794.97808  0.016459174  0.015643722         3945 
 4026000   0.60059995   -7.6180669    796.19682  0.016480312  0.015637977         3966 
 4027000   0.61245356   -7.6209348     795.6469   0.01646484  0.015632238         3962 
 4028000   0.60473595   -7.6245776    794.89444  0.016445185    0.0156265         3960 
 4029000   0.61690815   -7.6119315    794.59867  0.016434985  0.015620771         3948 
 4030000   0.60153752   -7.6258632    794.92406  0.016437636  0.015615039         3964 
 4031000   0.61924043   -7.6252831    794.61881  0.016427247   0.01560931         3961 
 4032000   0.59952415   -7.6212753    795.01631  0.016431389  0.015603581         3947 
 4033000   0.60411275   -7.6148066    793.51067  0.016396204  0.015597859         3969 
 4034000   0.60658282   -7.6235004    793.20402  0.016385804  0.015592136         3953 
 4035000   0.59517116   -7.6319717    793.32921  0.016384329  0.015586416         3958 
 4036000   0.61698677   -7.6309544    794.93769   0.01641348  0.015580696         3958 
 4037000   0.60973227    -7.632687    793.99626  0.016389981  0.015574982         3960 
 4038000   0.59478414   -7.6097816    793.97196  0.016385421  0.015569274         3963 
 4039000   0.61206672   -7.6183968    795.67877  0.016416579  0.015563564         3950 
 4040000   0.61133645   -7.6200177    794.75297  0.016393419  0.015557862         3960 
 4041000     0.602308   -7.6211317    795.15445  0.016397642  0.015552157         3966 
 4042000   0.58993668   -7.6266969    793.84839  0.016366658  0.015546455         3961 
 4043000   0.61015559   -7.6259977    794.22318  0.016370335  0.015540758         3963 
 4044000   0.61534181   -7.6163406    793.42324  0.016349803  0.015535057         3954 
 4045000   0.59634001   -7.6274966    793.49312  0.016347201  0.015529362         3962 
 4046000   0.61679562   -7.6221921    793.19237  0.016336966  0.015523671         3963 
 4047000   0.61258361   -7.6240844    792.89709  0.016326849  0.015517981         3960 
 4048000    0.5970581   -7.6124731    793.27273  0.016330549  0.015512292         3968 
 4049000   0.60582292   -7.6297198    793.69659  0.016335239  0.015506609         3952 
 4050000   0.60756058   -7.6131778    794.60009  0.016349796  0.015500925         3964 
 4051000   0.61608711   -7.6280545     794.9717  0.016353404  0.015495246         3949 
 4052000   0.60283175   -7.6264927    793.48825   0.01631886  0.015489566         3951 
 4053000   0.60461091   -7.6374513    794.35229  0.016332599  0.015483892         3960 
 4054000   0.59546363   -7.6291842    793.55984  0.016312281  0.015478222         3951 
 4055000   0.59172917   -7.6207879    795.59051   0.01634999  0.015472553         3947 
 4056000    0.5881961   -7.6357508    793.64691  0.016306026  0.015466885         3961 
 4057000    0.6038623     -7.63148    793.71722  0.016303451  0.015461217         3953 
 4058000    0.6031484   -7.6189467    794.12595  0.016307827  0.015455554         3954 
 4059000   0.61591872   -7.6017949    794.33083  0.016308016  0.015449899         3947 
 4060000   0.60702573   -7.6190877    794.45638  0.016306576  0.015444247         3962 
 4061000    0.6157809    -7.634724    794.02936  0.016293798  0.015438594         3957 
 4062000   0.59288651   -7.6084277    794.45391  0.016298496  0.015432945         3969 
 4063000    0.5937575   -7.6207269    793.86707  0.016282449  0.015427295         3958 
 4064000   0.60320031   -7.6260542    794.84109  0.016298415  0.015421648         3960 
 4065000   0.60438911   -7.6277166    794.85863  0.016294765  0.015416002         3958 
 4066000   0.60258448   -7.6206026    794.37307  0.016280806  0.015410357         3965 
 4067000   0.60836058    -7.608114    794.13089   0.01627184  0.015404714         3967 
 4068000   0.60701337   -7.6289544    794.96099  0.016284845  0.015399076         3963 
 4069000   0.58897931   -7.6089088    794.35112  0.016268353  0.015393441         3965 
 4070000   0.59391345   -7.6286699    793.33108   0.01624347  0.015387806         3964 
 4071000   0.59612514   -7.6309211    794.33303   0.01625999  0.015382179         3956 
 4072000   0.60008699   -7.6138451    793.82372  0.016245574  0.015376553         3956 
 4073000   0.59921554   -7.6070128    793.89535  0.016243051   0.01537093         3962 
 4074000   0.58599079   -7.6152624    793.92574  0.016239685  0.015365305         3961 
 4075000   0.60646907   -7.6157324    795.18121  0.016261374  0.015359686         3954 
 4076000   0.58880375   -7.6177328    795.38929  0.016261639  0.015354069         3960 
 4077000   0.59614779   -7.6303623    793.60855  0.016221252  0.015348457         3965 
 4078000    0.6063366   -7.6342185    795.07253  0.016247191  0.015342848         3959 
 4079000   0.59856363   -7.6320492      792.807  0.016196923  0.015337237         3971 
 4080000   0.60586231   -7.6232659    794.22153  0.016221845  0.015331623         3962 
 4081000   0.60613875   -7.6330302    794.71955  0.016228039  0.015326015         3963 
 4082000   0.62409318   -7.6383985    792.94531  0.016187843  0.015320412         3967 
 4083000   0.59611043   -7.6333124     793.1687  0.016188438  0.015314813         3965 
 4084000   0.60850101     -7.63123    794.00547  0.016201548  0.015309212         3968 
 4085000   0.59967449   -7.6303939    793.94186  0.016196284  0.015303617         3961 
 4086000   0.58727163   -7.6322767    793.67946  0.016186969   0.01529802         3963 
 4087000    0.5936488   -7.6269578    793.22797  0.016173803  0.015292428         3963 
 4088000   0.59853683   -7.6252874    795.35044  0.016213112  0.015286843         3956 
 4089000   0.58803977   -7.6323406     792.5512  0.016152099  0.015281251         3963 
 4090000   0.58801308   -7.6252798    793.71293   0.01617182  0.015275663         3965 
 4091000   0.60518993   -7.6125215    794.69732  0.016187919   0.01527008         3963 
 4092000    0.5909561   -7.6305134    793.28418  0.016155185  0.015264505         3960 
 4093000   0.58401312   -7.6296099    793.86756  0.016163115  0.015258924         3957 
 4094000   0.59987936     -7.63634    794.59416  0.016173957  0.015253343         3966 
 4095000   0.59061864   -7.6414402    794.24363  0.016162874  0.015247768         3956 
 4096000   0.60406644   -7.6235897    794.89215  0.016172122  0.015242198         3962 
 4097000   0.59966454   -7.6251152    793.27089  0.016135198   0.01523663         3961 
 4098000   0.59457584   -7.6411162    794.67935  0.016159902  0.015231062         3962 
 4099000   0.60662892   -7.6296811    793.09114  0.016123671  0.015225493         3958 
 4100000   0.58756985   -7.6341862    793.35965  0.016125196  0.015219932         3969 
 4101000   0.61000832   -7.6098765    793.72119  0.016128611  0.015214377         3964 
 4102000   0.60956075   -7.6379286    793.92908  0.016128902   0.01520882         3961 
 4103000   0.59877653   -7.6271458     793.5799  0.016117879   0.01520326         3964 
 4104000   0.60158458   -7.6642941    793.56834  0.016113717  0.015197703         3964 
 4105000   0.59375168   -7.6258725    794.19556  0.016122524  0.015192152         3958 
 4106000   0.59180949   -7.6354797    794.68282  0.016128487  0.015186605         3961 
 4107000   0.58263241   -7.6378898    794.02472  0.016111207  0.015181057         3967 
 4108000   0.59302621   -7.6228917    793.33565  0.016093307   0.01517551         3967 
 4109000   0.59139822   -7.6401758    793.93427  0.016101531  0.015169967         3955 
 4110000   0.58754103   -7.6439977    793.59101  0.016090653  0.015164427         3960 
 4111000    0.6020408   -7.6344899    793.12516  0.016077296  0.015158891         3955 
 4112000   0.58249542   -7.6363009    793.57849  0.016082573  0.015153359         3967 
 4113000   0.58613307   -7.6453794     794.6361  0.016100091  0.015147829         3962 
 4114000   0.57588673   -7.6402593    793.48087  0.016072777    0.0151423         3966 
 4115000   0.59395705   -7.6502126    794.76898  0.016094957  0.015136776         3958 
 4116000   0.59088635   -7.6543474    794.46534  0.016084899  0.015131252         3959 
 4117000   0.58609978   -7.6414228    793.10467  0.016053451   0.01512573         3957 
 4118000   0.60245769   -7.6334701    793.08855  0.016049226  0.015120214         3968 
 4119000   0.59378843   -7.6236926    793.36637   0.01605095  0.015114696         3959 
 4120000   0.57942916    -7.641051    792.70242  0.016033625  0.015109178         3972 
 4121000   0.58629982    -7.643204    793.40308  0.016043903  0.015103668         3960 
 4122000   0.59521653   -7.6423374    794.65936  0.016065408  0.015098159         3958 
 4123000   0.58863517   -7.6554253    793.46363  0.016037344  0.015092652         3962 
 4124000   0.58934755   -7.6418682    793.51522  0.016034498  0.015087145         3964 
 4125000   0.58936217   -7.6529561    793.37572  0.016027792  0.015081643         3950 
 4126000   0.59769103   -7.6247368    793.46997  0.016025811  0.015076141         3966 
 4127000   0.58418378   -7.6059594    793.73047  0.016027188  0.015070646         3952 
 4128000   0.59765606   -7.6464929    794.07456  0.016030252  0.015065151         3961 
 4129000   0.58879055   -7.6467472    793.97094  0.016024278  0.015059653         3949 
 4130000   0.57845651   -7.6412812    792.91966  0.015999186  0.015054164         3964 
 4131000   0.59267354   -7.6420949    794.01824  0.016017474  0.015048676         3959 
 4132000   0.59484164   -7.6437298    794.21539  0.016017574  0.015043192         3964 
 4133000   0.58907514    -7.627984      792.946  0.015988104  0.015037711         3959 
 4134000   0.58856648   -7.6543099    794.73632  0.016020326  0.015032232         3960 
 4135000   0.58875146    -7.652759    793.51947  0.015991928  0.015026755         3963 
 4136000    0.5875987   -7.6301469    793.03396  0.015978279  0.015021277         3963 
 4137000   0.59837494   -7.6473402    793.19487  0.015977658  0.015015805         3963 
 4138000   0.58977523   -7.6350055    792.02298  0.015950197  0.015010331         3965 
 4139000   0.60097381   -7.6515774    794.40432  0.015994288  0.015004869         3962 
 4140000   0.58737471   -7.6366073    793.92116    0.0159807  0.014999402         3955 
 4141000   0.58670613   -7.6302403    792.36451  0.015945515  0.014993944         3964 
 4142000   0.59391402   -7.6351921    793.34998  0.015961492  0.014988486         3959 
 4143000   0.59505908   -7.6345799     793.5014  0.015960685  0.014983024         3962 
 4144000   0.59061079   -7.6302806    793.50408  0.015956887  0.014977565         3961 
 4145000   0.58323062   -7.6622503    794.13018  0.015965625  0.014972114         3956 
 4146000   0.58778914   -7.6591884    793.38149  0.015946726   0.01496666         3951 
 4147000   0.57799269   -7.6573347    795.21365  0.015979697  0.014961212         3960 
 4148000   0.58969455   -7.6479663    792.90431   0.01592945  0.014955765         3960 
 4149000   0.58951678   -7.6497382    793.84906  0.015944586  0.014950324         3968 
 4150000   0.59558541   -7.6393267    792.07221  0.015905064  0.014944883         3954 
 4151000   0.58829813   -7.6388475    793.27521  0.015925384  0.014939441         3970 
 4152000   0.57967063   -7.6511663    793.85942  0.015933274  0.014934006         3958 
 4153000   0.58761164   -7.6437024    793.30453  0.015918303   0.01492857         3960 
 4154000   0.59836802   -7.6404009    792.88374  0.015906029  0.014923135         3960 
 4155000   0.58197735   -7.6420266    793.82775  0.015921134  0.014917706         3970 
 4156000   0.58406594   -7.6465635    793.54507  0.015911635  0.014912285         3951 
 4157000   0.58754912   -7.6501449    792.89714  0.015894819   0.01490686         3956 
 4158000    0.5835844   -7.6356202    793.38492  0.015900772   0.01490144         3955 
 4159000   0.59356307   -7.6498065    792.53935  0.015880006   0.01489602         3954 
 4160000   0.57075157   -7.6360663    792.51953  0.015875792  0.014890602         3963 
 4161000   0.58985666   -7.6316785    793.98568  0.015901339  0.014885188         3968 
 4162000   0.59533516   -7.6426071    792.70422  0.015871861  0.014879773         3962 
 4163000    0.5684912   -7.6632361    793.42099  0.015882396   0.01487436         3958 
 4164000   0.57752871   -7.6444557    793.63612  0.015882887  0.014868955         3970 
 4165000    0.5832822   -7.6502299    793.68696  0.015880091  0.014863548         3974 
 4166000    0.5787449   -7.6309366    793.82986  0.015879138   0.01485814         3965 
 4167000   0.58833969   -7.6289877    793.13258  0.015861383  0.014852738         3964 
 4168000   0.59213146   -7.6555374     792.9433  0.015853793  0.014847336         3964 
 4169000   0.57867101   -7.6708261    793.17337  0.015854589  0.014841937         3963 
 4170000   0.59069766   -7.6495247    793.73841  0.015862079  0.014836541         3960 
 4171000   0.58553398   -7.6388009    793.71975  0.015857903  0.014831152         3954 
 4172000    0.5825414     -7.62962    793.53578  0.015850427  0.014825764         3969 
 4173000   0.59018513   -7.6646992    794.49464  0.015865777  0.014820375         3966 
 4174000   0.58941992   -7.6452464    793.89729   0.01585005  0.014814988         3966 
 4175000    0.5858911   -7.6538804      793.175  0.015831836  0.014809603         3971 
 4176000    0.5898893   -7.6403915    793.05353  0.015825621  0.014804226         3963 
 4177000   0.58643267   -7.6362007    792.35175  0.015807832  0.014798845         3961 
 4178000   0.59959396   -7.6555586    792.08492  0.015798726  0.014793471         3960 
 4179000   0.58722564   -7.6545181    792.69244   0.01580706  0.014788099         3964 
 4180000   0.57949876   -7.6442186    793.63503   0.01582207  0.014782728         3957 
 4181000   0.57284117   -7.6449689    793.44818  0.015814561  0.014777359         3967 
 4182000   0.57090206   -7.6568296    793.13564  0.015804552  0.014771994         3972 
 4183000   0.58340967   -7.6589416    791.99998  0.015778149  0.014766628         3967 
 4184000   0.58274566   -7.6471415    794.56184  0.015825403  0.014761267         3958 
 4185000   0.58103669   -7.6523862    792.59972  0.015782551  0.014755914         3967 
 4186000   0.58031451   -7.6565978    793.01538  0.015787056  0.014750555         3962 
 4187000   0.58259711   -7.6689698    793.44342  0.015791804  0.014745202         3959 
 4188000   0.58339934   -7.6444472    794.38768  0.015806823  0.014739848         3958 
 4189000   0.58772886   -7.6489524    793.20466  0.015779515  0.014734502         3960 
 4190000   0.59391625   -7.6315246    792.40872  0.015759919  0.014729156         3959 
 4191000   0.58407483   -7.6532413    794.66118  0.015800946  0.014723817         3962 
 4192000    0.5916211   -7.6416172    792.95218  0.015763203  0.014718476         3963 
 4193000   0.58305143   -7.6498464    792.86035  0.015757619  0.014713135         3960 
 4194000   0.58344769   -7.6455371    793.28703   0.01576234  0.014707797         3962 
 4195000    0.5837058   -7.6574098    792.33945  0.015739759  0.014702459         3957 
 4196000   0.59494891   -7.6678579    791.69595  0.015723227  0.014697127         3959 
 4197000   0.57480481   -7.6546063    791.77224  0.015720996   0.01469179         3968 
 4198000   0.58879034   -7.6539518    791.81605  0.015718121   0.01468646         3959 
 4199000    0.5736533   -7.6383079    793.50091  0.015747815  0.014681135         3961 
 4200000   0.58929047   -7.6693498     792.7814   0.01572979  0.014675818         3967 
 4201000   0.58420748   -7.6500217     792.3177  0.015716847  0.014670494         3966 
 4202000   0.58245208   -7.6411216    792.45451   0.01571582  0.014665171         3963 
 4203000    0.5749115   -7.6457584    793.22804  0.015727418  0.014659855         3968 
 4204000   0.58213426   -7.6640367    794.52714  0.015749428  0.014654537         3969 
 4205000   0.57449584   -7.6447646    793.40453  0.015723435  0.014649225         3960 
 4206000   0.58660439   -7.6628223    792.46572  0.015701096  0.014643916         3966 
 4207000   0.57209879   -7.6536687    792.73239  0.015702646  0.014638609         3966 
 4208000   0.58955337   -7.6511287    791.16397  0.015667854  0.014633309         3972 
 4209000   0.57184698   -7.6576308    792.65963  0.015693744  0.014628007         3971 
 4210000   0.57465263   -7.6511842    792.51409  0.015687136  0.014622705         3972 
 4211000   0.57252662   -7.6802302    792.89658   0.01569098  0.014617407         3961 
 4212000   0.58354221   -7.6655609    792.64261  0.015682229  0.014612106         3978 
 4213000   0.58713436    -7.670776    792.42022  0.015674108  0.014606813         3961 
 4214000   0.58128372   -7.6650428    791.57304  0.015653635  0.014601525         3972 
 4215000   0.58272546   -7.6380004    792.38876  0.015666049   0.01459624         3960 
 4216000    0.5689727   -7.6697432     792.6773  0.015668036  0.014590953         3967 
 4217000   0.58175884    -7.642575    793.50482  0.015680674  0.014585665         3958 
 4218000    0.5695009   -7.6546479    792.53974   0.01565789  0.014580385         3959 
 4219000   0.58406328   -7.6645161    793.35719  0.015670325    0.0145751         3960 
 4220000   0.57792082   -7.6579389    793.55696  0.015670556  0.014569822         3960 
 4221000   0.58211027   -7.6547501    792.27407  0.015641516  0.014564543         3964 
 4222000   0.57662284   -7.6748752    794.66134  0.015684931  0.014559268         3952 
 4223000   0.58142184   -7.6627361    792.36473  0.015635897  0.014553995         3971 
 4224000   0.59370448   -7.6639259    792.31756  0.015631265  0.014548726         3964 
 4225000   0.56604962   -7.6599398    792.67755  0.015634666  0.014543462         3963 
 4226000   0.58830647   -7.6534482     792.6616  0.015630652  0.014538198         3970 
 4227000   0.57249187   -7.6575921    793.82033  0.015649798  0.014532935         3958 
 4228000   0.57150828   -7.6588925    793.22498  0.015634362  0.014527677         3968 
 4229000   0.57811526   -7.6476431    792.45609  0.015615514  0.014522419         3959 
 4230000   0.56629282   -7.6566658    792.88458  0.015620264  0.014517163         3964 
 4231000   0.56740978   -7.6781565    792.39753  0.015606979  0.014511907         3967 
 4232000   0.57046058   -7.6711244    792.24503  0.015600288  0.014506655         3969 
 4233000   0.58081706   -7.6632374    791.10341  0.015574128  0.014501407         3955 
 4234000   0.57057279   -7.6644379    792.20497  0.015592131  0.014496163         3963 
 4235000   0.57575534   -7.6540215    792.27686  0.015589863  0.014490917         3963 
 4236000   0.58232654   -7.6561848    792.63774  0.015593283  0.014485675         3967 
 4237000   0.57524688   -7.6645395    792.26175  0.015582207  0.014480436         3973 
 4238000   0.57680104   -7.6645442    791.53794  0.015564298  0.014475199         3962 
 4239000   0.58724953   -7.6621556    793.37694  0.015596779  0.014469965         3959 
 4240000   0.57202395   -7.6673844    793.54757  0.015596454  0.014464733         3955 
 4241000    0.5803182   -7.6577814    793.98551  0.015601382  0.014459508         3960 
 4242000   0.57268477   -7.6542568    792.90756  0.015576528  0.014454283         3964 
 4243000   0.57653792   -7.6499628    790.91497  0.015533722  0.014449061         3949 
 4244000   0.58513582   -7.6340462    792.80223  0.015567119  0.014443838         3962 
 4245000   0.56587528   -7.6588633    791.99524   0.01554761  0.014438619         3964 
 4246000   0.56372933   -7.6593192    792.72167  0.015558205  0.014433399         3961 
 4247000   0.56668001   -7.6776438     791.9446  0.015539294  0.014428185         3954 
 4248000   0.56683622   -7.6559909    793.13577  0.015559004  0.014422972         3953 
 4249000   0.57110196   -7.6833355    792.44354  0.015541765  0.014417759         3965 
 4250000   0.57141147   -7.6384231    791.87913  0.015527042  0.014412551         3968 
 4251000   0.57412529   -7.6535344    792.78585  0.015541164  0.014407345         3959 
 4252000   0.56150172   -7.6744833    792.67423  0.015535321   0.01440214         3963 
 4253000   0.56026736   -7.6575389    792.74133  0.015532983  0.014396935         3972 
 4254000   0.57085724   -7.6749596    792.73892  0.015529285  0.014391734         3962 
 4255000   0.57307546   -7.6596976    793.73001  0.015545045  0.014386538         3958 
 4256000   0.57102394   -7.6653364    792.48684  0.015517051  0.014381341         3963 
 4257000   0.57506263   -7.6603443    791.19591  0.015488135  0.014376152         3951 
 4258000   0.57106692   -7.6602881    790.99975  0.015480659  0.014370961         3970 
 4259000   0.56694446   -7.6530053    791.97484  0.015496103  0.014365773         3963 
 4260000   0.57608498   -7.6829674     791.0595   0.01547456  0.014360585         3970 
 4261000   0.56050679   -7.6671115    793.48194  0.015518304  0.014355402         3959 
 4262000   0.56990437   -7.6736041    792.93348   0.01550394  0.014350221         3969 
 4263000   0.57854215   -7.6471165    793.27204  0.015506921  0.014345042         3965 
 4264000   0.56437974   -7.6803068    792.13648  0.015481091  0.014339864         3966 
 4265000    0.5648811   -7.6541333    791.53867  0.015465781  0.014334688         3956 
 4266000    0.5649125   -7.6725983    792.16108  0.015474314  0.014329515         3961 
 4267000   0.56414316   -7.6730952    792.81485  0.015483455  0.014324344         3960 
 4268000   0.56493185   -7.6681176    792.30477  0.015469868  0.014319175         3963 
 4269000    0.5835041   -7.6917326    792.68088  0.015473586  0.014314009         3974 
 4270000   0.55744481    -7.681467    792.54416  0.015467294  0.014308847         3971 
 4271000   0.56547473   -7.6773454    792.63183  0.015465383  0.014303684         3973 
 4272000   0.56641539   -7.6773435    792.38316  0.015456912  0.014298525         3963 
 4273000   0.57791528   -7.6832103    791.53417  0.015436738   0.01429337         3959 
 4274000   0.56232678   -7.6682848    793.06318  0.015462938  0.014288217         3959 
 4275000   0.56498979   -7.6670941    793.18528  0.015461701   0.01428306         3955 
 4276000   0.56633462   -7.6769314    793.59504  0.015466071  0.014277908         3965 
 4277000   0.56361912   -7.6569802    791.20091  0.015415808  0.014272761         3961 
 4278000   0.55781071   -7.6586011    791.24127   0.01541299  0.014267614         3970 
 4279000   0.55746774   -7.6889707    791.83562  0.015420963  0.014262473         3955 
 4280000   0.56062644   -7.6911613    792.84666  0.015437045  0.014257331         3975 
 4281000   0.55828472   -7.6542051    791.01998  0.015397882  0.014252187         3969 
 4282000   0.59060137   -7.6565632    791.80964  0.015409654  0.014247047         3976 
 4283000   0.56325433    -7.667005    792.43567  0.015418236  0.014241912         3967 
 4284000   0.57274661   -7.6724621    791.67712  0.015399882  0.014236773         3967 
 4285000   0.55891915   -7.6657421    792.43904  0.015411105  0.014231641         3960 
 4286000   0.57294429   -7.6643168    792.59063  0.015410457  0.014226513         3968 
 4287000   0.54846717   -7.6658477    792.29961  0.015401205  0.014221387         3966 
 4288000   0.58386078   -7.6644116    792.02129  0.015392205  0.014216262         3959 
 4289000   0.57429792    -7.657952    791.78528  0.015384031  0.014211138         3964 
 4290000   0.56199028   -7.6741757     792.2974  0.015390392  0.014206019         3964 
 4291000   0.55800195   -7.6797825     792.0834   0.01538265  0.014200902         3968 
 4292000   0.55858299   -7.6783089    793.44492  0.015405501  0.014195784         3963 
 4293000   0.56213071   -7.6570819    793.06333  0.015394505  0.014190673         3965 
 4294000   0.57040747   -7.6617494    791.31481  0.015356987  0.014185561         3963 
 4295000   0.55668956   -7.6679158    790.96762  0.015346675  0.014180451         3967 
 4296000    0.5549536   -7.6988558    790.00235  0.015324378  0.014175345         3967 
 4297000   0.57347426   -7.6750354    792.72291  0.015373573  0.014170237         3967 
 4298000   0.57299007   -7.6888719    792.25831  0.015360988  0.014165134         3962 
 4299000   0.57252171   -7.6745589    791.74984  0.015347558   0.01416003         3959 
 4300000   0.56016283    -7.671379    791.99353  0.015348712  0.014154932         3965 
 4301000   0.56892054   -7.6914343    792.27916  0.015350677  0.014149838         3973 
 4302000   0.55877688   -7.6679085    792.49226  0.015351237  0.014144747         3963 
 4303000   0.56174396   -7.6689475    791.85501  0.015335328  0.014139658         3962 
 4304000   0.57214917   -7.6708625    792.84424  0.015350919  0.014134571         3970 
 4305000   0.56685879   -7.6792655    791.39072  0.015319216  0.014129487         3955 
 4306000     0.562673   -7.6779885    791.88926  0.015325307  0.014124404         3959 
 4307000   0.56517198     -7.67339    791.93649  0.015322662  0.014119324         3962 
 4308000    0.5698741   -7.6839034    791.37069  0.015308161  0.014114246         3965 
 4309000   0.56163895   -7.6768165    791.44925  0.015306128  0.014109173         3964 
 4310000   0.56262364   -7.6758136    792.10657  0.015315286  0.014104108         3962 
 4311000   0.55848038   -7.6667201    790.39136  0.015278577  0.014099039         3957 
 4312000    0.5666825   -7.6748973    792.47648  0.015315331  0.014093973         3962 
 4313000   0.54802299   -7.6644189    791.31724  0.015289382  0.014088908         3959 
 4314000   0.55486065   -7.6681559    790.40709  0.015268256  0.014083844         3962 
 4315000   0.55148181   -7.6998817    791.46781  0.015285203  0.014078782         3953 
 4316000    0.5540604   -7.6904553    792.05215  0.015292944   0.01407372         3964 
 4317000   0.56912846   -7.6624993    790.46222   0.01525871  0.014068662         3965 
 4318000    0.5543322   -7.6717332    792.24708  0.015289623  0.014063612         3957 
 4319000   0.57147563   -7.6722717    792.02086  0.015281718  0.014058558         3954 
 4320000   0.57461019   -7.6630784    790.67999  0.015252315   0.01405351         3969 
 4321000   0.57052677   -7.6868469     791.8259  0.015270884  0.014048465         3971 
 4322000   0.55644421   -7.6824435    791.89052  0.015268597  0.014043422         3963 
 4323000   0.56311673   -7.6799227    792.18901  0.015270819  0.014038376         3952 
 4324000   0.55475151   -7.6923939    792.96237  0.015282192  0.014033339         3960 
 4325000   0.56061738   -7.6870978    791.61077  0.015252616  0.014028301         3959 
 4326000   0.55687878   -7.6770047    791.95288   0.01525568  0.014023267         3969 
 4327000   0.56585008   -7.6818778    791.86427  0.015250448  0.014018231         3955 
 4328000   0.55336235   -7.6683293    790.79739  0.015226382  0.014013199         3969 
 4329000     0.562374   -7.6954971    792.35085  0.015252769  0.014008171         3962 
 4330000   0.56809961    -7.681546    791.77967  0.015238254  0.014003147         3958 
 4331000   0.56166183   -7.6825469    791.30272  0.015225558  0.013998123         3959 
 4332000   0.56690796   -7.6927077    792.24434  0.015240157  0.013993103         3967 
 4333000   0.55483224   -7.6537963     791.5486   0.01522326  0.013988082         3961 
 4334000   0.55607206   -7.6997976    792.30366  0.015234265  0.013983069         3967 
 4335000   0.56392571   -7.6846474    791.60978  0.015217412  0.013978053         3956 
 4336000   0.55429517   -7.6819074    792.44269   0.01522991  0.013973037         3968 
 4337000   0.56554325   -7.6864694     791.2376  0.015203243  0.013968025         3966 
 4338000   0.54052339   -7.6759071    791.93099  0.015213059  0.013963009         3966 
 4339000   0.55978925   -7.6763923    791.75949  0.015206259  0.013958005         3955 
 4340000   0.55302423   -7.6791534    790.86859  0.015185649  0.013952998         3956 
 4341000    0.5512749   -7.6823242    792.46581  0.015212812  0.013947992         3960 
 4342000   0.55234072   -7.6897796    791.86072  0.015197695  0.013942991         3968 
 4343000   0.55911192   -7.6927551    792.91965  0.015214515  0.013937986         3959 
 4344000   0.56265778   -7.6808647    790.68739   0.01516819  0.013932987         3972 
 4345000     0.552314   -7.6882212    791.99985  0.015189871  0.013927993         3966 
 4346000   0.54965672   -7.6879547    791.64252  0.015179524  0.013922996         3970 
 4347000   0.54132673   -7.6796321     790.3774  0.015151779  0.013918003         3957 
 4348000   0.56196696   -7.6878761    790.06418  0.015142291  0.013913011         3957 
 4349000   0.56003679   -7.6743708      791.981  0.015175538  0.013908025         3967 
 4350000   0.54793154   -7.6894928    791.95604  0.015171572  0.013903041         3957 
 4351000    0.5532151   -7.6825615    790.15597  0.015133609   0.01389806         3955 
 4352000   0.55871986    -7.680531    792.60162  0.015176961  0.013893078         3959 
 4353000    0.5511567   -7.6948085       791.58  0.015153917  0.013888099         3961 
 4354000   0.55517473   -7.6849728    791.61522   0.01515111  0.013883124         3964 
 4355000   0.54852454   -7.6635127     792.2878  0.015160501  0.013878153         3962 
 4356000   0.55495391   -7.6910712    792.53031   0.01516166  0.013873181         3961 
 4357000    0.5483153   -7.6686489    790.79324  0.015124957  0.013868215         3959 
 4358000   0.55413771   -7.6832069    790.54593  0.015116757  0.013863245         3966 
 4359000   0.55358042   -7.6598859    790.21325  0.015106929  0.013858273         3969 
 4360000   0.55423913   -7.7051606    791.59591  0.015129891   0.01385331         3967 
 4361000   0.54903941   -7.6723705    790.66831  0.015108697   0.01384835         3958 
 4362000   0.56036175   -7.6862568    790.25881   0.01509741  0.013843386         3962 
 4363000   0.55479659   -7.6996696    791.23308  0.015112558  0.013838428         3952 
 4364000   0.55254618   -7.6908777    791.82097  0.015120321  0.013833471         3958 
 4365000   0.54917539   -7.6895736    791.79328  0.015116328  0.013828515         3956 
 4366000    0.5516522   -7.6825953    790.68815  0.015091773  0.013823564         3956 
 4367000    0.5571632   -7.7007675    792.32803   0.01511961  0.013818619         3961 
 4368000    0.5738335   -7.6733129    790.67147  0.015084544  0.013813677         3964 
 4369000   0.56393878    -7.704674    789.96365  0.015067591  0.013808735         3961 
 4370000   0.54838112   -7.6880361    790.48501  0.015074085  0.013803793         3969 
 4371000     0.554083   -7.6642683      792.487  0.015108804  0.013798853         3964 
 4372000   0.55357125   -7.6933085    791.59253  0.015088299  0.013793917         3960 
 4373000   0.54806727   -7.6879541    791.98849  0.015092395  0.013788983         3965 
 4374000   0.55271799   -7.6946011    791.53086  0.015080225   0.01378405         3959 
 4375000   0.55827049   -7.6803327    791.07905  0.015068172  0.013779116         3968 
 4376000   0.55094483    -7.676568    791.18741  0.015066792   0.01377419         3966 
 4377000   0.55700134   -7.6899396    790.35104  0.015047427  0.013769264         3965 
 4378000   0.55007699   -7.7034904    791.32325  0.015062495   0.01376434         3968 
 4379000   0.54816668   -7.6941298     791.6297  0.015064887  0.013759419         3962 
 4380000   0.55723189   -7.6896456    791.28069  0.015054808  0.013754499         3957 
 4381000   0.54743692   -7.6856755     790.6558  0.015039485  0.013749577         3954 
 4382000   0.54469207   -7.6936969    790.46557  0.015032435  0.013744665         3964 
 4383000   0.56368195   -7.6854342    789.70125  0.015014473  0.013739752         3966 
 4384000   0.53975632   -7.7042969    791.37478   0.01504286   0.01373484         3967 
 4385000   0.54344059   -7.6826611    790.65019  0.015025659  0.013729933         3963 
 4386000   0.55218992   -7.6845203    790.85238  0.015026075  0.013725028         3962 
 4387000   0.54794435   -7.6855518    792.06599  0.015045703  0.013720125         3970 
 4388000   0.54808454   -7.7074394    791.02294  0.015022465  0.013715226         3968 
 4389000   0.54815666   -7.6859147    790.83663  0.015015505  0.013710324         3953 
 4390000   0.55110901    -7.705812    790.66851  0.015008894  0.013705425         3967 
 4391000    0.5404783   -7.6862652     790.7309  0.015006659   0.01370053         3963 
 4392000   0.54908124   -7.6935278    792.25451  0.015032151  0.013695636         3956 
 4393000   0.53889835   -7.7095983    790.35805  0.014992755  0.013690744         3956 
 4394000   0.55433165   -7.6940735    790.16292  0.014985642  0.013685855         3961 
 4395000   0.54735586   -7.6996955    790.52755  0.014989146  0.013680966         3967 
 4396000   0.54232378   -7.6983697    791.80592   0.01500997  0.013676082         3959 
 4397000   0.55200659   -7.7039659    790.49827  0.014981773  0.013671197         3953 
 4398000   0.54127825   -7.6990778    791.26204  0.014992838  0.013666319         3964 
 4399000   0.54960998   -7.6954777    790.47263  0.014974476  0.013661442         3969 
 4400000   0.54363907   -7.6791908    788.94524  0.014942145  0.013656565         3967 
 4401000   0.54481472   -7.6887487    790.36753  0.014965681  0.013651694         3960 
 4402000   0.55049843   -7.6894621    790.81307  0.014970715  0.013646825         3963 
 4403000   0.56051807   -7.6989621    790.50406  0.014961467  0.013641955         3961 
 4404000   0.54260099   -7.7018557     790.4096  0.014956282  0.013637087         3966 
 4405000   0.54192059   -7.7047923    790.89899  0.014962145  0.013632223         3965 
 4406000   0.54210139   -7.7095479    790.69363  0.014954865  0.013627358         3957 
 4407000   0.54289135   -7.7048664    790.70546  0.014951695    0.0136225         3968 
 4408000   0.54044525   -7.6919895    790.39146  0.014942367  0.013617642         3965 
 4409000   0.54159614    -7.677176    790.97326  0.014949975   0.01361279         3963 
 4410000   0.55151404   -7.6805484    790.28543  0.014933587  0.013607935         3965 
 4411000    0.5471453   -7.7083337    789.74726  0.014920034  0.013603083         3964 
 4412000   0.52757217   -7.6994673    791.00706  0.014940448  0.013598233         3964 
 4413000   0.54610377   -7.7078485    791.91927  0.014954288  0.013593384         3968 
 4414000   0.56375958   -7.7034067    791.00611   0.01493366  0.013588538         3954 
 4415000   0.54637351     -7.69504    790.24251  0.014915865  0.013583695         3961 
 4416000   0.53032684   -7.6860248     790.4065  0.014915582  0.013578855         3970 
 4417000   0.54561029     -7.70902    791.26571  0.014928415  0.013574012         3965 
 4418000   0.53957983   -7.7012681    790.92453  0.014918601  0.013569179         3968 
 4419000   0.54039818   -7.7007361    790.90965  0.014914944  0.013564345         3967 
 4420000   0.53626231   -7.7117223    790.62442  0.014906192  0.013559515         3953 
 4421000   0.56362564    -7.700984    790.55043  0.014901426  0.013554683         3955 
 4422000   0.53852966   -7.7079416    790.79251  0.014902618  0.013549856         3960 
 4423000   0.54788577   -7.6919081    789.87924  0.014882042  0.013545028         3965 
 4424000   0.53344508   -7.6982228    791.35545  0.014906485  0.013540203         3960 
 4425000    0.5393186   -7.7073339    790.10891   0.01487964   0.01353538         3964 
 4426000    0.5433969   -7.6891758    790.03614  0.014874909   0.01353056         3970 
 4427000   0.54420628   -7.6839133    790.29948  0.014876506  0.013525743         3969 
 4428000   0.54117139   -7.6884805    791.44081  0.014894625  0.013520927         3957 
 4429000   0.54996842   -7.6929135    791.79067  0.014897845  0.013516117         3951 
 4430000    0.5431859   -7.6975256    790.72981  0.014874526  0.013511306         3963 
 4431000   0.53644679   -7.6977598    790.32007  0.014863463    0.0135065         3956 
 4432000   0.53922027   -7.7125787    790.84388  0.014869959  0.013501696         3960 
 4433000   0.53831547   -7.6965035    790.87832  0.014867252  0.013496889         3962 
 4434000   0.54951755   -7.7099563    790.12708   0.01484978  0.013492087         3961 
 4435000   0.54460034   -7.7195881    790.96556  0.014862186  0.013487288         3966 
 4436000   0.54393857   -7.7055612    789.28167  0.014827203  0.013482489         3957 
 4437000   0.55140088   -7.7033529    791.69445  0.014869177  0.013477694         3968 
 4438000    0.5428348    -7.695939    791.43943  0.014861038  0.013472901         3960 
 4439000   0.55161828   -7.7104316    789.40095  0.014819422  0.013468109         3949 
 4440000   0.54296913   -7.7049563    790.44516  0.014835682  0.013463317         3956 
 4441000   0.54339601   -7.7029082    790.28606  0.014829356  0.013458533         3957 
 4442000   0.54889448   -7.7059726    790.27006  0.014825718   0.01345375         3948 
 4443000   0.53378236   -7.7064489    789.95476  0.014816467  0.013448968         3962 
 4444000   0.54092814   -7.7272327     790.7255  0.014827586  0.013444186         3962 
 4445000   0.55569146    -7.701375    790.73988   0.01482452  0.013439409         3954 
 4446000   0.54718244   -7.7232926     790.6254   0.01481904  0.013434635         3952 
 4447000    0.5381602   -7.7095451    790.15749  0.014806939   0.01342986         3959 
 4448000   0.53990998   -7.7282922    791.09484  0.014821171  0.013425089         3957 
 4449000   0.54463623   -7.7145211    789.99487  0.014797237  0.013420319         3958 
 4450000   0.52813604    -7.720142    790.87581  0.014810408   0.01341555         3965 
 4451000   0.53646204   -7.7058309    790.29227  0.014796156  0.013410785         3955 
 4452000   0.52526937   -7.7037457    789.57769  0.014779457  0.013406022         3966 
 4453000   0.54746452   -7.7045399    790.27451  0.014789178  0.013401262         3956 
 4454000   0.53089793   -7.7032503    789.97069  0.014780173  0.013396502         3964 
 4455000   0.53927715    -7.714489     790.6567  0.014789688  0.013391746         3958 
 4456000   0.53573194   -7.7311669    791.40198  0.014800306  0.013386989         3959 
 4457000   0.53988525   -7.7030625    790.35559  0.014777421  0.013382235         3959 
 4458000   0.52901662    -7.704208    789.40458  0.014756329  0.013377482         3961 
 4459000   0.53795459   -7.7014801    791.02797  0.014783359  0.013372731         3961 
 4460000   0.54160018      -7.7134    791.00991  0.014779707  0.013367985         3960 
 4461000   0.52781758   -7.7036785    789.41323  0.014746567   0.01336324         3958 
 4462000   0.54630062   -7.7190278    790.39863  0.014761666  0.013358499         3957 
 4463000   0.53220448   -7.7153357    791.66508  0.014782005  0.013353761         3949 
 4464000   0.54219093    -7.712946    789.94937  0.014746665   0.01334902         3966 
 4465000   0.54066424   -7.6991749    789.63919  0.014737574   0.01334428         3958 
 4466000   0.54342505   -7.7032941     789.7136  0.014735662  0.013339547         3961 
 4467000   0.54619032   -7.7105767    790.43683  0.014745855  0.013334813         3959 
 4468000   0.53705769    -7.728398    791.08087  0.014754567  0.013330084         3958 
 4469000   0.53597847   -7.7151908    789.73333  0.014726138  0.013325355         3964 
 4470000   0.53311443   -7.7148429    790.30446  0.014733491  0.013320631         3963 
 4471000   0.52885987   -7.7150177      790.426  0.014732461   0.01331591         3973 
 4472000   0.54041762   -7.7284094    789.58438  0.014713483  0.013311186         3959 
 4473000   0.53235269   -7.7349688     790.7156  0.014731269  0.013306466         3969 
 4474000   0.51891846    -7.714404    790.54569  0.014724812  0.013301746         3958 
 4475000   0.52993138   -7.6966672    789.95983  0.014710611  0.013297028         3967 
 4476000   0.55106256   -7.7012643    789.82261   0.01470477  0.013292314         3958 
 4477000   0.54710807   -7.7132936      790.294   0.01471026  0.013287601         3957 
 4478000   0.53669215   -7.7199643    790.13625  0.014704039  0.013282892         3957 
 4479000   0.54375038   -7.7100181    789.09551  0.014681393  0.013278191         3956 
 4480000   0.52842539   -7.7043153    791.21817    0.0147176   0.01327349         3951 
 4481000   0.54407514   -7.7279744    790.41368  0.014699354  0.013268788         3964 
 4482000   0.53036818    -7.721426    789.29711  0.014675314  0.013264086         3961 
 4483000   0.53562904    -7.720238    790.22218  0.014689237   0.01325939         3961 
 4484000   0.53537468      -7.7225     789.9331  0.014680588  0.013254696         3947 
 4485000   0.53723062    -7.731373    789.75188  0.014673948  0.013250003         3956 
 4486000   0.53666712   -7.6813535    789.30432  0.014662363  0.013245311         3961 
 4487000   0.53309437   -7.7159633    789.32566  0.014659491   0.01324062         3961 
 4488000   0.53504364    -7.724457    789.33554  0.014656408  0.013235929         3954 
 4489000   0.53357061    -7.735932    789.71674   0.01466022  0.013231244         3957 
 4490000   0.52121029   -7.7159502    790.10007   0.01466407   0.01322656         3960 
 4491000   0.52339859   -7.7313838    791.71014   0.01469068  0.013221876         3965 
 4492000   0.52829899   -7.7347001    788.91112  0.014635484  0.013217197         3954 
 4493000   0.53170856   -7.7185761    789.17669  0.014637152  0.013212517         3962 
 4494000   0.53203442   -7.7162005    790.18839  0.014652655  0.013207844         3959 
 4495000   0.52944697   -7.6996193    789.54432  0.014637455  0.013203166         3956 
 4496000   0.53657514   -7.7102965    789.62809  0.014635752  0.013198494         3965 
 4497000   0.52766442   -7.7132665    789.76045   0.01463495  0.013193825         3962 
 4498000   0.53102062   -7.7300301    789.90208   0.01463432  0.013189161         3965 
 4499000   0.52165705   -7.7150152    789.76099  0.014628454  0.013184497         3958 
 4500000   0.53495716   -7.7158185    788.80003  0.014607408  0.013179835         3965 
 4501000   0.54393104   -7.7120006    789.44897  0.014616177  0.013175176         3951 
 4502000   0.53012856   -7.7259596    790.49273  0.014632251  0.013170516         3952 
 4503000   0.52174266   -7.7039404    789.81158  0.014616396  0.013165856         3966 
 4504000   0.52702667   -7.7160352    789.25713  0.014602892  0.013161197         3961 
 4505000   0.52362576    -7.703907    788.15312  0.014579229  0.013156545         3966 
 4506000   0.52739616   -7.7116664    790.51718  0.014619714  0.013151895         3966 
 4507000    0.5299174   -7.7200923    790.07164  0.014608232  0.013147245         3963 
 4508000   0.53079961    -7.707032    788.41462  0.014574361  0.013142597         3960 
 4509000   0.53297851   -7.7308656    790.65913  0.014612611  0.013137954         3962 
 4510000   0.53301627   -7.7128115    790.10878  0.014599201  0.013133309         3966 
 4511000   0.51953256   -7.7347005    790.63673  0.014605718   0.01312867         3957 
 4512000     0.533665   -7.7071201    789.75701  0.014586233  0.013124033         3963 
 4513000   0.53109581   -7.7119518    789.12894  0.014571404  0.013119396         3960 
 4514000   0.53695088   -7.7160873    790.62168  0.014595733  0.013114761         3961 
 4515000   0.53012924   -7.7281922    789.55566  0.014572825  0.013110129         3969 
 4516000   0.52323208    -7.728069    789.85968  0.014575208  0.013105499         3960 
 4517000   0.53433114    -7.720808    789.54088    0.0145661  0.013100868         3963 
 4518000   0.53377112   -7.7266204    790.18559  0.014574767  0.013096242         3965 
 4519000   0.53158534   -7.7251122    788.92187  0.014548238  0.013091614         3970 
 4520000   0.52652276   -7.7205058    790.15903  0.014567829  0.013086992         3962 
 4521000   0.53906584    -7.712229    789.98414  0.014561383  0.013082369         3969 
 4522000   0.52877142   -7.7131115    790.29064  0.014563811  0.013077752         3967 
 4523000   0.52355353   -7.7243434    790.56195   0.01456559  0.013073134         3959 
 4524000   0.52709529   -7.7214638    788.67268  0.014527569  0.013068521         3972 
 4525000   0.52869889   -7.7166459    788.53667  0.014521854  0.013063908         3961 
 4526000   0.52030951   -7.7152482    790.09124  0.014547268  0.013059295         3957 
 4527000   0.53244097   -7.7008051    789.58017  0.014534647  0.013054687         3960 
 4528000   0.52891328   -7.7182522    789.06628   0.01452198   0.01305008         3960 
 4529000   0.52021034   -7.7318882    790.02285  0.014536374  0.013045475         3965 
 4530000   0.52114146   -7.7325243    788.95529  0.014513526  0.013040872         3959 
 4531000   0.53533744   -7.7236507    789.21592  0.014515117  0.013036272         3967 
 4532000   0.52969365   -7.7265631    789.75154  0.014521763  0.013031674         3958 
 4533000    0.5305442   -7.7455565    789.80735  0.014519585  0.013027078         3965 
 4534000    0.5226667   -7.7315022    790.05449  0.014520925  0.013022487         3963 
 4535000   0.52762225   -7.7120933    790.33199  0.014522822  0.013017898         3959 
 4536000   0.52388133   -7.7394418    790.36055  0.014520145  0.013013309         3963 
 4537000   0.52313788   -7.7355783    790.73517  0.014523826  0.013008722         3965 
 4538000   0.52555826   -7.7291101    790.16264  0.014510112  0.013004138         3961 
 4539000   0.52305143   -7.7429108    789.17629  0.014488806  0.012999553         3958 
 4540000   0.52242636   -7.7459124    789.02797  0.014482892  0.012994971         3967 
 4541000   0.51776537    -7.745265    789.90942  0.014495879  0.012990391         3970 
 4542000    0.5305212   -7.7390125    788.52167  0.014467226  0.012985811         3960 
 4543000   0.51147071   -7.7352366     789.9964  0.014491093  0.012981236         3960 
 4544000   0.51265216   -7.7374272    789.52694  0.014479294  0.012976663         3964 
 4545000    0.5389726   -7.7201853    791.07604  0.014504511  0.012972093         3960 
 4546000   0.52257588   -7.7327922    789.10013    0.0144651  0.012967526         3955 
 4547000   0.52875537   -7.7366605    789.83373  0.014475363  0.012962958         3967 
 4548000   0.52304361   -7.7344887    789.49618  0.014465996  0.012958389         3973 
 4549000   0.53170304   -7.7293376    789.89664  0.014470152  0.012953825         3968 
 4550000   0.51048574   -7.7376931    789.94728  0.014467899  0.012949263         3972 
 4551000   0.53377207   -7.7471649    789.98003  0.014465319  0.012944704         3973 
 4552000    0.5186213   -7.7287479    788.85356  0.014441519  0.012940145         3958 
 4553000   0.53171315   -7.7386691    790.49272  0.014468349  0.012935591         3963 
 4554000   0.52588735   -7.7249593    788.42575  0.014427349  0.012931042         3975 
 4555000   0.51632675   -7.7191248    789.73949  0.014448216  0.012926492         3965 
 4556000   0.52219246   -7.7342177    788.43694   0.01442122  0.012921938         3969 
 4557000   0.52823869   -7.7464257     789.2939  0.014433727  0.012917392         3962 
 4558000   0.52812905   -7.7353912    788.81117  0.014421734  0.012912847         3962 
 4559000    0.5271625   -7.7331132    788.49841  0.014412854  0.012908303         3957 
 4560000   0.53293673    -7.748414    789.45644  0.014427201  0.012903762         3969 
 4561000      0.53307   -7.7485736    789.13946  0.014418246  0.012899221         3970 
 4562000   0.52291392   -7.7310891    789.08029  0.014414005  0.012894684         3970 
 4563000    0.5196245   -7.7272533    789.10038  0.014411213  0.012890142         3969 
 4564000   0.52134308   -7.7225947    788.37282  0.014394771  0.012885608         3960 
 4565000   0.51786843    -7.737161    790.27132  0.014426275  0.012881079         3964 
 4566000   0.52639106     -7.72143    788.77525  0.014395811  0.012876549         3959 
 4567000   0.51508329   -7.7357793    789.93696  0.014413856  0.012872022         3952 
 4568000   0.52760288   -7.7465265    789.47113  0.014402203  0.012867498         3973 
 4569000    0.5121658    -7.715921    788.59216  0.014383019  0.012862974         3961 
 4570000   0.52758826   -7.7471197     789.1016  0.014389161  0.012858452         3963 
 4571000   0.52612735   -7.7142295    789.20969  0.014387984  0.012853936         3967 
 4572000   0.52954448   -7.7298297    789.95242  0.014398375  0.012849423         3964 
 4573000   0.53375396   -7.7413055    789.53645  0.014387646   0.01284491         3963 
 4574000   0.51252454   -7.7268545    788.58317  0.014367133  0.012840399         3967 
 4575000   0.52105893   -7.7432607    788.74898  0.014367012  0.012835888         3970 
 4576000   0.52525835   -7.7305561    789.90388  0.014384905   0.01283138         3969 
 4577000   0.52059727   -7.7217754    789.15033  0.014368042  0.012826876         3957 
 4578000   0.51645904     -7.73556    789.69582  0.014374833  0.012822372         3969 
 4579000   0.51956893   -7.7296313     788.5615   0.01435105  0.012817866         3967 
 4580000   0.51672621   -7.7398322    789.77752  0.014370042  0.012813367         3969 
 4581000   0.52044869   -7.7536037    790.24762  0.014375457  0.012808867         3963 
 4582000   0.52008588   -7.7325994    788.28227  0.014336576   0.01280437         3972 
 4583000   0.52790185   -7.7290859    788.40182  0.014335621  0.012799874         3966 
 4584000   0.51644258   -7.7404212    789.68388  0.014355801  0.012795379         3961 
 4585000   0.50703109   -7.7372936    789.11592  0.014342347  0.012790889         3965 
 4586000   0.52046338   -7.7331608    788.83115  0.014334045    0.0127864         3961 
 4587000   0.51077875   -7.7427799     788.5784  0.014326328  0.012781914         3960 
 4588000   0.52130336   -7.7549275    790.10799  0.014350988   0.01277743         3968 
 4589000   0.51074491   -7.7285275    788.57487   0.01432002   0.01277295         3968 
 4590000   0.50811298   -7.7279882    788.87615   0.01432237  0.012768467         3965 
 4591000   0.51335619    -7.739422    788.75404  0.014317034  0.012763989         3972 
 4592000   0.51649364   -7.7481584    788.98712  0.014318146   0.01275951         3958 
 4593000   0.51033111   -7.7322782     789.8649  0.014330955  0.012755038         3962 
 4594000   0.52036264   -7.7487816    788.36827  0.014300687  0.012750564         3960 
 4595000   0.51656571   -7.7329755    789.11474  0.014311112  0.012746095         3961 
 4596000   0.51723639   -7.7184807    788.39576  0.014294962  0.012741625         3961 
 4597000    0.5128887   -7.7418013    788.61471  0.014295822  0.012737159         3959 
 4598000   0.51565601   -7.7296709    789.22154  0.014303711  0.012732694         3970 
 4599000   0.51862487    -7.728512    787.70961  0.014273205  0.012728231         3963 
 4600000   0.51007783   -7.7385071    787.92018  0.014273916  0.012723768         3965 
 4601000   0.51463065   -7.7311098    789.58664  0.014300997   0.01271931         3965 
 4602000   0.51758544   -7.7425756    789.46209  0.014295634  0.012714853         3960 
 4603000   0.52209569   -7.7550766    788.13857  0.014268567  0.012710402         3964 
 4604000   0.52041965   -7.7278945    788.76423  0.014276792   0.01270595         3961 
 4605000   0.51931576   -7.7466214    788.68154  0.014272196    0.0127015         3963 
 4606000    0.5145063   -7.7518868    789.04328  0.014275642   0.01269705         3972 
 4607000   0.51273438   -7.7518023     789.8936  0.014287924  0.012692603         3962 
 4608000   0.51753486   -7.7538329    788.99426  0.014268559   0.01268816         3957 
 4609000    0.5221763   -7.7531853    788.05029  0.014248396  0.012683719         3961 
 4610000   0.51869682   -7.7352253    788.66921  0.014256493  0.012679276         3965 
 4611000   0.52043752   -7.7467169    789.35932  0.014265874  0.012674837         3969 
 4612000   0.51705518   -7.7469927    789.08455  0.014257816  0.012670402         3976 
 4613000   0.51883427   -7.7355842    787.51944  0.014226451  0.012665968         3963 
 4614000   0.51150779   -7.7337811    789.92253   0.01426677  0.012661534         3971 
 4615000   0.51526639   -7.7439715    790.62021  0.014276277  0.012657103         3956 
 4616000   0.51554401   -7.7435541    787.51354  0.014217099  0.012652675         3969 
 4617000   0.52633699   -7.7345418    790.17215  0.014262005  0.012648247         3966 
 4618000   0.51216667   -7.7355173     789.6039  0.014248663  0.012643823         3969 
 4619000   0.50553869    -7.728209     788.8295  0.014231607  0.012639399         3972 
 4620000    0.5229207   -7.7469723    788.45039  0.014221688  0.012634978         3974 
 4621000   0.51103235   -7.7394437    788.29325  0.014215777  0.012630556         3957 
 4622000   0.51400094   -7.7444744    789.70206  0.014238101  0.012626141         3968 
 4623000   0.50833868   -7.7323288     789.3591   0.01422884  0.012621727         3967 
 4624000   0.50820501   -7.7574369    788.33139  0.014207241  0.012617315         3965 
 4625000   0.51287623   -7.7375983    788.34002  0.014204325  0.012612904         3963 
 4626000   0.52146285   -7.7496731    788.60925  0.014206104  0.012608498         3965 
 4627000   0.51892585   -7.7517257    790.23085  0.014232239  0.012604093         3960 
 4628000   0.51148765   -7.7400699    788.92701  0.014205687  0.012599689         3966 
 4629000   0.51312039   -7.7410991    788.84375  0.014201119  0.012595287         3962 
 4630000   0.50982356   -7.7660422    788.35115  0.014189186  0.012590887         3967 
 4631000   0.51121475   -7.7369755    788.52351  0.014189223   0.01258649         3959 
 4632000   0.51576845   -7.7493491    789.72764  0.014207823  0.012582093         3967 
 4633000    0.5235297   -7.7574884    789.29762  0.014197022  0.012577698         3966 
 4634000   0.50677115    -7.754319    788.72983  0.014183748  0.012573304         3960 
 4635000   0.50250775   -7.7461991    789.05039  0.014186451  0.012568914         3970 
 4636000   0.50418419   -7.7373192    788.54478  0.014174302  0.012564525         3966 
 4637000   0.50381206   -7.7568882     789.6622  0.014191327  0.012560137         3965 
 4638000   0.50765062   -7.7490411    788.00204  0.014158438  0.012555754         3954 
 4639000   0.52082278   -7.7694149    788.49059  0.014164162  0.012551371         3965 
 4640000   0.50293617   -7.7607177    789.83657  0.014185283  0.012546987         3970 
 4641000   0.51606447   -7.7422192    788.90514  0.014165502   0.01254261         3957 
 4642000   0.50511099   -7.7512046    789.56286  0.014174258  0.012538236         3964 
 4643000    0.5085574   -7.7513046    788.45634  0.014151345  0.012533862         3978 
 4644000    0.5122723   -7.7486781    787.95229  0.014139253  0.012529489         3966 
 4645000    0.5024743   -7.7494149    788.21439  0.014140911  0.012525119         3960 
 4646000   0.50638258   -7.7420959    788.58178  0.014144457  0.012520746         3971 
 4647000   0.50233492   -7.7480368    788.40893  0.014138314  0.012516376         3967 
 4648000   0.49772718   -7.7395363    788.58776  0.014138478  0.012512011         3963 
 4649000   0.50208113   -7.7520041    788.68736  0.014137222  0.012507648         3960 
 4650000   0.50809154   -7.7552691    787.98535  0.014121601  0.012503284         3965 
 4651000   0.50491205    -7.755295    788.44272   0.01412676  0.012498925         3962 
 4652000   0.49524094   -7.7764994      789.753  0.014147195  0.012494567         3957 
 4653000    0.5008888   -7.7588813    789.83942  0.014145702   0.01249021         3967 
 4654000   0.50328505   -7.7303411    788.62209  0.014120865  0.012485857         3968 
 4655000   0.50205969   -7.7529099    788.91167  0.014123016  0.012481506         3969 
 4656000   0.51466279   -7.7573616    788.31024  0.014109218  0.012477156         3963 
 4657000   0.50931867   -7.7672221    789.54515  0.014128286  0.012472808         3958 
 4658000   0.51598506   -7.7504782    789.20699  0.014119203  0.012468461         3971 
 4659000   0.51241258   -7.7577962    788.00592   0.01409469  0.012464115         3965 
 4660000   0.50463607   -7.7549485    789.07769  0.014110831  0.012459776         3966 
 4661000   0.50971538   -7.7543789    788.86079  0.014103926  0.012455436         3964 
 4662000   0.51270175   -7.7487116    787.39859  0.014074764  0.012451097         3968 
 4663000   0.50633566   -7.7495874    790.12656  0.014120497  0.012446763         3957 
 4664000   0.50467374   -7.7494796     788.8023  0.014093809  0.012442429         3968 
 4665000   0.51619328   -7.7664988    788.69635  0.014088895  0.012438099         3959 
 4666000   0.50210673   -7.7458645    788.36107  0.014079888  0.012433766         3965 
 4667000   0.50736096   -7.7539762    789.26641  0.014093036  0.012429436         3966 
 4668000   0.49904264   -7.7489547     788.2613  0.014072074  0.012425109         3973 
 4669000   0.50150353   -7.7462793    787.56978  0.014056718  0.012420783         3970 
 4670000   0.50058418   -7.7620902    788.74754  0.014074724   0.01241646         3967 
 4671000   0.48072019   -7.7548191    788.47155  0.014066787  0.012412139         3969 
 4672000   0.50487041   -7.7524552    788.87002  0.014070884  0.012407819         3968 
 4673000     0.494474    -7.757082     787.3451  0.014040679  0.012403499         3973 
 4674000    0.5019096   -7.7582747    787.15128  0.014034219  0.012399186         3969 
 4675000   0.50326477   -7.7461759    787.91241  0.014044784  0.012394873         3964 
 4676000   0.49984229   -7.7736639    789.50299  0.014070127  0.012390562         3970 
 4677000   0.50948804   -7.7617871    788.36674  0.014046874  0.012386252         3974 
 4678000   0.51387433   -7.7686826     789.0085  0.014055303  0.012381946         3962 
 4679000   0.50076788   -7.7461164    787.88585  0.014032305   0.01237764         3962 
 4680000   0.49287106   -7.7755324    787.69383  0.014025887  0.012373338         3962 
 4681000    0.5123514   -7.7575358    788.09965  0.014030116  0.012369035         3963 
 4682000    0.5105881   -7.7547557    789.24353  0.014047479  0.012364736         3970 
 4683000   0.50009912   -7.7532187    788.13094   0.01402468  0.012360439         3962 
 4684000   0.50688757    -7.766016     788.6199  0.014030385  0.012356143         3971 
 4685000   0.49862287   -7.7529497    787.88757  0.014014364  0.012351848         3965 
 4686000   0.50837833   -7.7577591     787.8177  0.014010131  0.012347555         3965 
 4687000   0.50424929   -7.7647613     788.7599  0.014023894  0.012343266         3956 
 4688000   0.51028413   -7.7674877     787.7848  0.014003569  0.012338975         3962 
 4689000   0.48950963   -7.7597912    788.81405  0.014018875  0.012334688         3969 
 4690000   0.50598933   -7.7421158    788.35463  0.014007723  0.012330402         3969 
 4691000   0.50238621   -7.7760361    788.86231  0.014013755  0.012326122         3970 
 4692000   0.49547754   -7.7540239     787.1232  0.013979881  0.012321841         3967 
 4693000   0.50098879   -7.7639969     786.9146  0.013973198  0.012317562         3968 
 4694000   0.49989002   -7.7648491    788.64135  0.014000876  0.012313283         3968 
 4695000   0.48968859   -7.7692447    789.14259  0.014006791  0.012309008         3960 
 4696000   0.50270599   -7.7578905    787.90022  0.013981761  0.012304734         3958 
 4697000   0.49605316   -7.7416736    787.31933  0.013968479  0.012300463         3969 
 4698000   0.50684723   -7.7748072    787.68713  0.013972029  0.012296191         3962 
 4699000   0.50558836   -7.7580415     789.9088  0.014008456  0.012291925         3962 
 4700000   0.50692991   -7.7557005    787.72401  0.013966738   0.01228766         3965 
 4701000   0.49530858   -7.7497139    788.55756  0.013978543  0.012283399         3962 
 4702000   0.48959256   -7.7685895    788.08675  0.013967226  0.012279137         3965 
 4703000   0.49561727   -7.7762606     788.5772  0.013972946  0.012274874         3962 
 4704000   0.49910149    -7.773256    788.12979   0.01396205  0.012270616         3964 
 4705000   0.49068858   -7.7506342     787.7113   0.01395167  0.012266362         3958 
 4706000   0.49560115   -7.7669629    787.91975  0.013952397  0.012262106         3967 
 4707000   0.49105651   -7.7589542    787.94884  0.013949948  0.012257854         3968 
 4708000   0.49082075   -7.7655878    788.94236   0.01396457  0.012253604         3958 
 4709000   0.49686263   -7.7577027    786.76182  0.013923017  0.012249354         3958 
 4710000   0.48848828    -7.774297    787.43507  0.013931972  0.012245105         3959 
 4711000   0.49089606   -7.7467647    787.68958  0.013933517  0.012240858         3964 
 4712000   0.50249946   -7.7723655    788.98397  0.013953452  0.012236613         3965 
 4713000   0.49031796   -7.7853697    789.27473  0.013955632  0.012232371         3966 
 4714000    0.5001801   -7.7743281    788.39554   0.01393713   0.01222813         3956 
 4715000   0.49796406   -7.7786355    787.77776  0.013923255  0.012223893         3963 
 4716000   0.50904401   -7.7567782    786.64635   0.01390031  0.012219655         3968 
 4717000   0.50067857   -7.7665824    787.86402  0.013918875   0.01221542         3965 
 4718000   0.49108324   -7.7696014    786.52906  0.013892346  0.012211188         3967 
 4719000    0.4987051   -7.7672694    789.04057  0.013933753  0.012206957         3967 
 4720000   0.49167961   -7.7520366    787.52792  0.013904095  0.012202729         3963 
 4721000     0.491024   -7.7726398    789.01334   0.01392737  0.012198504         3965 
 4722000   0.50439331   -7.7739818    787.14458   0.01389144  0.012194282         3962 
 4723000   0.49891757   -7.7652273    787.81475  0.013900324  0.012190057         3968 
 4724000   0.48521058   -7.7633261    787.75928  0.013896403  0.012185837         3963 
 4725000   0.48928142   -7.7681558    788.22361  0.013901651  0.012181617         3965 
 4726000   0.50064458   -7.7630883    787.76944  0.013890701  0.012177398         3966 
 4727000   0.50102232   -7.7657795    786.74568  0.013869714  0.012173182         3973 
 4728000   0.49328544    -7.761951    788.36639  0.013895347  0.012168968         3968 
 4729000   0.49617102   -7.7602812    788.17874  0.013889102  0.012164754         3966 
 4730000   0.49873177     -7.76301    788.42929   0.01389058  0.012160544         3972 
 4731000   0.50608686   -7.7690106    787.29831  0.013867722  0.012156339         3962 
 4732000   0.49446415   -7.7696671    787.59102  0.013869946  0.012152132         3962 
 4733000   0.49762006   -7.7585931       787.69  0.013868758  0.012147928         3965 
 4734000   0.49829794   -7.7734177    789.22347  0.013892823  0.012143728         3957 
 4735000   0.49383079   -7.7613635    787.76119  0.013864153  0.012139528         3970 
 4736000   0.49433183   -7.7644246    787.31873   0.01385344  0.012135332         3966 
 4737000   0.49207263   -7.7560006    787.67554  0.013856793  0.012131139         3968 
 4738000    0.4910116   -7.7559487    787.92465   0.01385825  0.012126948         3958 
 4739000   0.48683073   -7.7587388    787.70686  0.013851496  0.012122755         3960 
 4740000   0.49728705   -7.7711811    786.68641  0.013830633  0.012118567         3959 
 4741000   0.48517366   -7.7576776    787.15812  0.013836007  0.012114378         3960 
 4742000   0.49018566   -7.7887691    787.55319  0.013840032  0.012110192         3965 
 4743000   0.48954323   -7.7709407    787.06804   0.01382859  0.012106007         3966 
 4744000   0.49802134   -7.7643995    787.86229  0.013839627  0.012101822         3969 
 4745000   0.48863608   -7.7561348    787.31038  0.013827018   0.01209764         3969 
 4746000   0.49231967    -7.783063    788.07745  0.013837573  0.012093462         3956 
 4747000   0.49354121   -7.7733487     787.5014  0.013824545  0.012089285         3960 
 4748000   0.49914122    -7.784419    788.42994  0.013837931  0.012085112         3960 
 4749000   0.48873851   -7.7695148    787.79197  0.013823822  0.012080937         3963 
 4750000     0.490661   -7.7615214    787.11431  0.013809023  0.012076764         3973 
 4751000   0.48513533   -7.7496422    788.14034  0.013824113  0.012072597         3973 
 4752000   0.48712089   -7.7707966    786.86414  0.013798824  0.012068429         3967 
 4753000   0.49240237   -7.7835477    788.16921  0.013818802  0.012064266         3964 
 4754000   0.50257756    -7.750755      787.992  0.013812789  0.012060103         3965 
 4755000    0.4895631   -7.7823682     787.8808  0.013807936  0.012055941         3967 
 4756000   0.48199071   -7.7569386    787.97536  0.013806689   0.01205178         3966 
 4757000   0.49652382   -7.7828561    787.36263  0.013793053   0.01204762         3970 
 4758000   0.49192704   -7.7749316     787.1035  0.013785615  0.012043465         3967 
 4759000   0.50196547   -7.7615536    787.69601  0.013793094  0.012039311         3971 
 4760000   0.48989899   -7.7701765    787.62242  0.013788908  0.012035158         3962 
 4761000   0.49434194   -7.7723697    787.66445  0.013786747  0.012031007         3964 
 4762000   0.49240788   -7.7764855    787.31917   0.01377781  0.012026856         3962 
 4763000   0.49227348   -7.7869319     787.7748  0.013782889   0.01202271         3967 
 4764000   0.49332141   -7.7646353    787.01748  0.013766749  0.012018564         3970 
 4765000   0.48264203   -7.7677883    786.42712  0.013753535  0.012014418         3968 
 4766000   0.48930068   -7.7680581    787.70801  0.013773045  0.012010274         3970 
 4767000   0.48751182   -7.7588785    787.65304  0.013769195  0.012006137         3965 
 4768000   0.49552235   -7.7610499    787.70968  0.013767297     0.012002         3962 
 4769000   0.49405539   -7.7824128    788.26359  0.013774089  0.011997863         3967 
 4770000   0.49281873   -7.7742185    787.07572  0.013750449  0.011993728         3967 
 4771000   0.48769287   -7.7739306    787.42364  0.013753644  0.011989595         3967 
 4772000   0.48452885   -7.7620523    788.50012  0.013769561  0.011985465         3967 
 4773000   0.49145472   -7.7819475     787.5258  0.013749665  0.011981336         3960 
 4774000   0.48859836   -7.7769146    787.10666  0.013739468  0.011977209         3968 
 4775000   0.48243444   -7.7607373    787.14617   0.01373728  0.011973085         3965 
 4776000   0.48297645   -7.7709811    786.91146  0.013730309  0.011968965         3964 
 4777000   0.48971568   -7.7772866    787.71759  0.013741497  0.011964845         3961 
 4778000   0.49729622   -7.7841824     787.8956  0.013741726  0.011960725         3964 
 4779000   0.48684391   -7.7720335    786.36653  0.013712188  0.011956607         3970 
 4780000   0.48666749   -7.7772792    787.09565   0.01372203  0.011952493         3965 
 4781000   0.48085921   -7.7858805    786.85734  0.013715006  0.011948376         3966 
 4782000   0.47495938   -7.7668674    787.33777   0.01372051  0.011944264         3969 
 4783000   0.48488529   -7.7828508    787.79621  0.013725629  0.011940153         3954 
 4784000   0.48266101   -7.7958187    787.55776  0.013718606  0.011936045         3965 
 4785000   0.48259671   -7.7951854    787.61218  0.013716687  0.011931938         3965 
 4786000   0.48582195   -7.7742659    785.92813  0.013684499  0.011927834         3960 
 4787000   0.48668841   -7.7834594    786.62629  0.013693794  0.011923729         3965 
 4788000   0.48449126   -7.7768338    787.80134  0.013711385  0.011919627         3965 
 4789000    0.4857837   -7.7773733    788.07748  0.013713327  0.011915524         3964 
 4790000   0.48453192   -7.7862099    785.97929  0.013673961  0.011911426         3966 
 4791000   0.49426015   -7.7852431    787.33581  0.013694702  0.011907329         3959 
 4792000   0.48142023   -7.7738813    788.00171  0.013703424  0.011903237         3964 
 4793000   0.49332063   -7.7781605    787.47218  0.013691359  0.011899143         3961 
 4794000   0.49545613   -7.7776594    787.52375  0.013689399  0.011895052         3954 
 4795000   0.48866192   -7.7919573    788.74979  0.013707852  0.011890965         3963 
 4796000   0.48340895   -7.7887841    787.43349  0.013682122  0.011886877         3961 
 4797000   0.49782351   -7.7722767    786.77962  0.013667911  0.011882793         3959 
 4798000   0.49346322    -7.786458    787.00579   0.01366899  0.011878711         3962 
 4799000   0.48380984   -7.7818639    786.05312  0.013649599  0.011874626         3966 
 4800000   0.48380537    -7.761831    785.89626  0.013644032  0.011870548         3975 
 4801000   0.48698227   -7.7795725    787.69001  0.013672325  0.011866468         3968 
 4802000   0.48462999   -7.7815457    787.28876  0.013662515   0.01186239         3967 
 4803000   0.48741799   -7.7790444     785.8681  0.013635022  0.011858317         3962 
 4804000   0.48490204   -7.7916946    786.96917  0.013651283  0.011854247         3969 
 4805000    0.4808902   -7.7772221    785.23365  0.013618343  0.011850176         3970 
 4806000   0.47783535   -7.8019797    787.64471  0.013657316  0.011846108         3972 
 4807000   0.48632875   -7.7817187    786.54463  0.013635404  0.011842042         3964 
 4808000   0.48191681   -7.7802753    787.42326  0.013647796  0.011837977         3966 
 4809000   0.48427225   -7.7891001    787.54678  0.013647099  0.011833913         3964 
 4810000   0.47413594   -7.8044658    787.61305   0.01364541   0.01182985         3955 
 4811000   0.48394801   -7.7780118    787.13122  0.013634227  0.011825788         3966 
 4812000   0.48452481   -7.7885775    785.73713  0.013607252  0.011821731         3970 
 4813000    0.4810663    -7.780732    786.68127  0.013620771  0.011817674         3960 
 4814000   0.47617235   -7.7932213    787.01039  0.013623639  0.011813619         3960 
 4815000   0.48161698   -7.7958661    786.94195  0.013619625  0.011809565         3960 
 4816000   0.48169878   -7.7964147    786.68375   0.01361233  0.011805513         3969 
 4817000   0.48273291   -7.7852161    787.63248  0.013625917  0.011801464         3968 
 4818000   0.47354099   -7.7731107    787.68346   0.01362397  0.011797417         3965 
 4819000    0.4843896   -7.7925605     786.4747   0.01360024  0.011793374         3961 
 4820000   0.48462617   -7.7880079    787.25149  0.013610849   0.01178933         3958 
 4821000   0.47410458   -7.7925164    787.16326    0.0136065   0.01178529         3967 
 4822000   0.48367218   -7.7943031    788.05539  0.013619096  0.011781251         3975 
 4823000    0.4900302   -7.7915253    786.41427  0.013587917  0.011777214         3964 
 4824000   0.48065746   -7.7937023    787.41342   0.01360236  0.011773179         3961 
 4825000   0.47798635   -7.8023025    786.82472  0.013589373  0.011769146         3965 
 4826000   0.47255559   -7.7952602    787.85335  0.013604319  0.011765115         3964 
 4827000   0.46742545   -7.7836254    786.71232  0.013581802  0.011761084         3959 
 4828000   0.47999914   -7.7914753    787.32521  0.013589568  0.011757054         3959 
 4829000   0.47910418   -7.7864321    786.78826  0.013577488  0.011753025         3965 
 4830000   0.48299071   -7.7992996    787.69876  0.013590386  0.011749001         3970 
 4831000   0.48019525     -7.78543    786.02365  0.013558677  0.011744975         3961 
 4832000   0.47908281   -7.7606332    785.43127  0.013545655  0.011740951         3972 
 4833000   0.47447207   -7.7971569    786.61029  0.013563182  0.011736929         3964 
 4834000   0.47899927   -7.8138033    788.40869  0.013591379  0.011732911         3967 
 4835000   0.47074894   -7.7826625    785.88483  0.013545068  0.011728894         3969 
 4836000   0.48418617   -7.7965707    787.33829  0.013567313  0.011724879         3969 
 4837000   0.47613151   -7.7840264    787.38166  0.013565255  0.011720867         3958 
 4838000   0.48034546   -7.7867583    786.30757   0.01354395  0.011716853         3972 
 4839000   0.48065441   -7.7847199    785.85705  0.013533393  0.011712846         3968 
 4840000   0.47252738   -7.7897305    786.15642  0.013535751  0.011708837         3965 
 4841000   0.48191041   -7.7837199    786.77651  0.013543629  0.011704832         3968 
 4842000   0.48155265   -7.7983465    786.54909  0.013536918  0.011700827         3968 
 4843000   0.46624727   -7.8135691    786.91873  0.013540483  0.011696825         3962 
 4844000   0.47395969   -7.7983823    786.40657  0.013528877  0.011692824         3970 
 4845000   0.47916995   -7.8023448    785.94349   0.01351812  0.011688825         3962 
 4846000   0.47393959   -7.8051964      787.421  0.013540738  0.011684827         3968 
 4847000   0.47615588   -7.7807109     785.8176  0.013510378  0.011680833         3974 
 4848000   0.47071964   -7.7813346    786.78152   0.01352416  0.011676842         3964 
 4849000    0.4795713   -7.7790343    785.62155  0.013501436  0.011672848         3974 
 4850000   0.47363065   -7.7933201    786.70628   0.01351729  0.011668857         3961 
 4851000    0.4780448   -7.7907991    787.39984  0.013526418  0.011664871         3965 
 4852000   0.47455011   -7.7781059     786.0629  0.013500668  0.011660882         3966 
 4853000   0.47608094   -7.8005762    787.07711  0.013515302  0.011656897         3958 
 4854000   0.47996118   -7.7929401    787.44046  0.013518755  0.011652914         3970 
 4855000    0.4709692   -7.7874183     786.6645  0.013502652  0.011648933         3971 
 4856000   0.47566814   -7.7701209    786.37288  0.013494867  0.011644954         3960 
 4857000   0.47744206   -7.7914935    787.13901  0.013505233   0.01164098         3971 
 4858000   0.47971164    -7.795213    786.85902   0.01349765  0.011637003         3965 
 4859000   0.47689743   -7.7883844    787.08792  0.013498798  0.011633029         3958 
 4860000   0.47405392   -7.8087887    787.98273  0.013511364  0.011629057         3963 
 4861000   0.47472479   -7.7908208    787.26428  0.013496268  0.011625088         3970 
 4862000   0.47229126   -7.8062336     787.6972  0.013500912   0.01162112         3969 
 4863000   0.47060502   -7.7811893     785.6351  0.013462799  0.011617151         3969 
 4864000   0.47979212   -7.8077315    787.33437  0.013489144  0.011613185         3969 
 4865000    0.4697595   -7.7918873    786.88836  0.013478732  0.011609222         3969 
 4866000   0.46722787   -7.7972584    786.86262  0.013475521  0.011605259         3968 
 4867000   0.46853294   -7.7979334    787.09998  0.013476816    0.0116013         3961 
 4868000    0.4680951   -7.7966428    786.25861  0.013459645  0.011597341         3971 
 4869000   0.48165716    -7.798303     787.4282  0.013476898  0.011593386         3959 
 4870000   0.45701607   -7.7844823    786.66768  0.013461117   0.01158943         3967 
 4871000   0.47529248    -7.800098    786.35883   0.01345307  0.011585478         3970 
 4872000   0.46669263   -7.7997938    785.78274  0.013440455  0.011581527         3967 
 4873000   0.46738792   -7.7833165    785.92348  0.013440103  0.011577577         3969 
 4874000    0.4738536   -7.7960623    787.77426  0.013468989  0.011573628         3962 
 4875000   0.47307754   -7.8018585     786.3873  0.013442518   0.01156968         3967 
 4876000   0.46713746   -7.7986423    785.97862  0.013432777  0.011565737         3967 
 4877000    0.4789959   -7.8040501    787.21202  0.013451097  0.011561795         3972 
 4878000   0.47707768   -7.8001274    786.43984  0.013435148  0.011557856         3966 
 4879000   0.46446676   -7.8000088    786.96715  0.013441401  0.011553918         3963 
 4880000   0.47454398    -7.791549    786.86543   0.01343691  0.011549981         3969 
 4881000   0.46633186   -7.8084054    785.76508  0.013415371  0.011546047         3975 
 4882000    0.4744155   -7.8051675    787.36896      0.01344  0.011542112         3962 
 4883000   0.47412077   -7.7856798    786.06216  0.013414946   0.01153818         3962 
 4884000   0.48026408   -7.8015989    786.53395  0.013420249  0.011534248         3960 
 4885000   0.46984579   -7.7982994    785.57503  0.013401143  0.011530318         3963 
 4886000   0.47772733    -7.804769       786.97  0.013422193  0.011526392         3970 
 4887000   0.48652904    -7.801969    786.04717   0.01340371  0.011522467         3980 
 4888000   0.45964579   -7.8002926    784.71147  0.013378196  0.011518541         3963 
 4889000   0.47297621   -7.8124028    786.04989  0.013398273   0.01151462         3964 
 4890000   0.46193635   -7.8012832     786.7711  0.013407824  0.011510699         3959 
 4891000   0.46334579   -7.8103906    786.67194  0.013403393  0.011506779         3966 
 4892000   0.46812906   -7.8029444    786.93014  0.013405051  0.011502863         3971 
 4893000   0.47767418   -7.8049812    786.32867  0.013392068  0.011498949         3972 
 4894000   0.46653097   -7.7857305    785.99925  0.013383722  0.011495036         3967 
 4895000   0.47120242   -7.7875266    786.59972  0.013391211  0.011491124         3966 
 4896000   0.47375649   -7.7887213    786.94096  0.013394284  0.011487215         3970 
 4897000   0.46967518   -7.7830148      786.369  0.013381815  0.011483308         3970 
 4898000   0.46242775    -7.786928    786.62776  0.013383486  0.011479402         3969 
 4899000   0.47004351   -7.8072241    786.69255  0.013381856  0.011475496         3974 
 4900000   0.47183258   -7.7974021    786.80121  0.013380973  0.011471594         3963 
 4901000   0.46829193   -7.8045462    786.97821  0.013381252  0.011467695         3966 
 4902000   0.47460789    -7.802076    786.54345  0.013371132  0.011463797         3965 
 4903000   0.46865499   -7.7980259    786.66174  0.013370415    0.0114599         3971 
 4904000   0.46725724   -7.8228821     785.7152  0.013351604  0.011456002         3964 
 4905000   0.46963581   -7.8057453    786.07285  0.013354958  0.011452105         3967 
 4906000    0.4748082    -7.797636    785.87388  0.013348857  0.011448215         3960 
 4907000   0.46048749   -7.8088846    786.63089  0.013358992  0.011444326         3965 
 4908000   0.47050204   -7.7985346    786.45202  0.013353233  0.011440437         3966 
 4909000   0.45707379    -7.807323    785.89693   0.01334109   0.01143655         3975 
 4910000   0.45873231   -7.8066153    785.67333  0.013334578  0.011432666         3964 
 4911000   0.46197498   -7.8224432    786.42582  0.013344631  0.011428781         3954 
 4912000   0.46710515   -7.8030265    785.42009  0.013324852  0.011424898         3968 
 4913000   0.46359045   -7.8004216    787.28134   0.01335371  0.011421018         3962 
 4914000   0.47028842   -7.7876454    785.93577  0.013328174  0.011417138         3964 
 4915000   0.45470403   -7.8096574    786.85125  0.013340984  0.011413263         3959 
 4916000   0.46918118   -7.8032174     786.5554  0.013333255  0.011409389         3958 
 4917000   0.47664545   -7.8022429    785.70083   0.01331606  0.011405518         3964 
 4918000   0.47134571   -7.8228637    786.45753  0.013326175  0.011401645         3960 
 4919000   0.47339324   -7.7932097    787.00255  0.013332699  0.011397777         3967 
 4920000   0.46085188   -7.8017684    786.42928  0.013320279  0.011393908         3969 
 4921000   0.45825261   -7.7946266    786.38738  0.013316863  0.011390041         3973 
 4922000   0.46650254   -7.8026644    785.57962  0.013300481  0.011386176         3966 
 4923000   0.46446946   -7.7903188    786.43234  0.013312214  0.011382314         3970 
 4924000   0.46807722   -7.8024384    786.92756  0.013317891  0.011378455         3973 
 4925000   0.47243044    -7.805136    786.38569  0.013306018  0.011374595         3965 
 4926000   0.46930522   -7.8145093    785.32062  0.013285299  0.011370738         3969 
 4927000   0.46710736   -7.8126387    786.72052   0.01330628  0.011366881         3963 
 4928000   0.45503664   -7.8159838    785.98932  0.013291216  0.011363026         3966 
 4929000   0.46846803   -7.7936352    785.42237  0.013278934  0.011359175         3964 
 4930000   0.46530488   -7.8177971    785.25161  0.013273354  0.011355325         3964 
 4931000   0.45557782   -7.8185123    786.79847  0.013296804  0.011351477         3964 
 4932000   0.46550971   -7.8100303    785.29136  0.013268643   0.01134763         3967 
 4933000   0.47107218   -7.8079442    785.73862  0.013273509  0.011343785         3968 
 4934000   0.46163832   -7.8090931    785.40011  0.013265101  0.011339942         3967 
 4935000   0.45880501   -7.7978228    785.79167  0.013269025  0.011336097         3964 
 4936000   0.46537454   -7.8056338    787.09791   0.01328839  0.011332258         3965 
 4937000   0.46852379   -7.8014956    785.76571  0.013263212  0.011328421         3964 
 4938000   0.46294963   -7.8121759    785.62803  0.013258202  0.011324584         3964 
 4939000   0.45798759   -7.8143095    785.82569  0.013258853  0.011320749         3969 
 4940000   0.46291003   -7.8066903    787.30336  0.013281096  0.011316914         3965 
 4941000   0.46915506   -7.8069576    785.03633  0.013240173  0.011313084         3965 
 4942000   0.45463312   -7.8121918    786.35269  0.013259691  0.011309253         3967 
 4943000     0.461716   -7.8123033    786.88689  0.013266014  0.011305424         3967 
 4944000   0.45627697   -7.8121946    785.40892  0.013238419  0.011301595         3965 
 4945000   0.46262599   -7.8191561    785.99855  0.013245678  0.011297772         3965 
 4946000   0.46537787   -7.7976611    785.56037  0.013235618  0.011293948         3957 
 4947000    0.4568992   -7.8084425    786.34236  0.013246115  0.011290126         3961 
 4948000   0.45613928   -7.8204665    785.42054  0.013227913  0.011286305         3963 
 4949000   0.47246415   -7.8146907    785.98087  0.013234675  0.011282484         3952 
 4950000   0.47327611   -7.8159875    785.20155  0.013218881   0.01127867         3969 
 4951000   0.45108496    -7.815746    786.11477  0.013231582  0.011274854         3965 
 4952000   0.45801796   -7.8099172     786.2409  0.013231033  0.011271041         3970 
 4953000    0.4643748   -7.8181295    785.75006  0.013220103  0.011267229         3964 
 4954000   0.44593644   -7.8140131    785.93142  0.013220485  0.011263417         3965 
 4955000   0.45706787   -7.8082786    785.30751  0.013207324  0.011259609         3966 
 4956000   0.46123123   -7.8210314    786.18364  0.013219391  0.011255804         3962 
 4957000   0.44936252   -7.8189155    786.43802  0.013221001  0.011251998         3963 
 4958000   0.45903259   -7.8105881    786.11584  0.013212919  0.011248194         3957 
 4959000   0.45933197   -7.8201049    784.67861  0.013186103   0.01124439         3966 
 4960000    0.4590602   -7.8064026    786.77015  0.013218585  0.011240592         3972 
 4961000   0.45098184   -7.8126064    786.68421  0.013214476  0.011236794         3975 
 4962000   0.45022761   -7.7989097    786.11266  0.013202214     0.011233         3964 
 4963000    0.4577281   -7.8089743    784.78238  0.013177218  0.011229204         3964 
 4964000   0.45610892   -7.8187574     785.4812  0.013186295  0.011225411         3965 
 4965000   0.46650695   -7.8243792    785.89636  0.013190607  0.011221619         3971 
 4966000   0.44208736    -7.813685    785.40463  0.013179699   0.01121783         3966 
 4967000   0.45220054   -7.8131359    785.77118  0.013183195   0.01121404         3966 
 4968000   0.45811423   -7.8058051    785.47586  0.013175588  0.011210255         3966 
 4969000   0.45233908   -7.8308215    786.67929  0.013193119  0.011206471         3968 
 4970000   0.45348995   -7.8142379     784.4922  0.013153793  0.011202686         3969 
 4971000   0.45754954   -7.8186525     785.2906  0.013164531  0.011198903         3971 
 4972000   0.45547757   -7.8049788    786.35112  0.013179658  0.011195123         3961 
 4973000   0.45135106   -7.8226111     785.6696  0.013165588  0.011191345         3970 
 4974000   0.44942707   -7.8187313    785.41755  0.013158718  0.011187567         3970 
 4975000     0.457043   -7.8172339    785.35471   0.01315502  0.011183793         3962 
 4976000   0.44522015   -7.8227884    785.57425  0.013156053   0.01118002         3971 
 4977000   0.45787139   -7.8204392    785.59142  0.013153697  0.011176247         3966 
 4978000   0.45167068   -7.8280585    785.69956  0.013152865  0.011172477         3972 
 4979000   0.44314942   -7.8093914    785.45897  0.013146197  0.011168708         3961 
 4980000   0.45333985   -7.8153631    786.38853  0.013159112   0.01116494         3970 
 4981000   0.45295364   -7.7993432    785.29337  0.013138148  0.011161175         3958 
 4982000   0.45189941   -7.8301028    786.41972  0.013154351  0.011157412         3967 
 4983000   0.45508979   -7.8151234     785.7291  0.013140162  0.011153649         3969 
 4984000   0.46034499    -7.810593    785.68751   0.01313683  0.011149889         3965 
 4985000   0.45899438    -7.835861    785.71904  0.013134722  0.011146131         3970 
 4986000      0.44918   -7.8156042    785.99734  0.013136739  0.011142375         3966 
 4987000   0.45503701   -7.8395141    786.10225  0.013135857   0.01113862         3966 
 4988000   0.44656769   -7.8164616    785.17729  0.013117771  0.011134868         3966 
 4989000   0.45562179   -7.7992634    785.28274  0.013116903  0.011131117         3970 
 4990000   0.45453611   -7.8346834    784.46294  0.013100584  0.011127366         3968 
 4991000    0.4488168   -7.8198224    785.07297  0.013108144  0.011123615         3963 
 4992000   0.46009885   -7.8094697    785.45671  0.013111924  0.011119871         3969 
 4993000   0.45181205   -7.8203273    785.80876  0.013115174  0.011116123         3970 
 4994000   0.45018184    -7.818097    785.80509  0.013112487  0.011112381         3966 
 4995000   0.45065229    -7.813481     784.3687  0.013085898   0.01110864         3964 
 4996000   0.45511092   -7.8236257     784.6121  0.013087338  0.011104901         3967 
 4997000   0.44591748   -7.8175315    786.48684  0.013115984  0.011101163         3971 
 4998000    0.4546522   -7.8170047    785.58005   0.01309824  0.011097428         3968 
 4999000   0.45127956     -7.81199    785.06338  0.013087007  0.011093694         3963 
 5000000   0.45967404   -7.8154908    785.56077  0.013092679  0.011089961         3972 
 5001000   0.45017101   -7.8236865    786.07695  0.013098663  0.011086228         3970 
 5002000    0.4568101   -7.8025646     785.0791   0.01307942  0.011082495         3966 
 5003000   0.45009385   -7.8265856    785.02405  0.013075889  0.011078768         3962 
 5004000   0.44921891   -7.8312585    786.11298   0.01309141  0.011075043         3964 
 5005000   0.45246823   -7.8269098    785.48545  0.013078346  0.011071319         3972 
 5006000   0.45677996   -7.8148977    785.98436  0.013084039  0.011067595         3968 
 5007000   0.45355296   -7.8218764    785.50488  0.013073445  0.011063873         3966 
 5008000    0.4473741   -7.8138127    785.61418  0.013072653  0.011060153         3962 
 5009000   0.44791128   -7.8207877    785.55463  0.013069053  0.011056436         3967 
 5010000   0.45066064   -7.8295423    786.11861  0.013075825  0.011052718         3964 
 5011000   0.45694375   -7.8145567    784.97156   0.01305414  0.011049002         3963 
 5012000   0.45097255   -7.8115882    786.06378  0.013069696  0.011045289         3971 
Loop time of 10803.8 on 48 procs for 5000000 steps with 4000 atoms

Performance: 79972.023 tau/day, 462.801 timesteps/s
99.4% CPU use with 48 MPI tasks x no OpenMP threads

MPI task timing breakdown:
Section |  min time  |  avg time  |  max time  |%varavg| %total
---------------------------------------------------------------
Pair    | 699.27     | 724.12     | 747.78     |  49.7 |  6.70
Neigh   | 66.184     | 67.358     | 70.434     |   9.7 |  0.62
Comm    | 567.65     | 596.99     | 619.3      |  50.9 |  5.53
Output  | 15.374     | 15.38      | 15.458     |   0.3 |  0.14
Modify  | 9229.4     | 9286.4     | 9321.5     |  22.1 | 85.96
Other   |            | 113.5      |            |       |  1.05

Nlocal:        83.3333 ave          88 max          77 min
Histogram: 2 1 2 2 7 10 11 7 2 4
Nghost:        1759.62 ave        1769 max        1745 min
Histogram: 1 0 4 1 5 13 5 11 3 5
Neighs:        10550.2 ave       11355 max        9548 min
Histogram: 1 1 1 4 7 14 13 5 1 1
FullNghs:      21099.9 ave       22501 max       19332 min
Histogram: 2 0 2 3 7 17 9 2 4 2

Total # of neighbors = 1012794
Ave neighs/atom = 253.19850
Neighbor list builds = 270000
Dangerous builds = 1

#clear
#
#next RN
#
#jump SELF
Total wall time: 3:00:06
