
units lj                  # Use reduced LJ style units
atom_style atomic         # Uncharged point particles
atom_modify map hash      # Needed for indexing of clusters etc
                          # Used to be able to find where atoms are in relation to each other.

lattice fcc 1.0 spacing 1 1 1
Lattice spacing in x,y,z = 1.5874011 1.5874011 1.5874011
region box block 0 10 0 10 0 10 units lattice
create_box 2 box
Created orthogonal box = (0.0000000 0.0000000 0.0000000) to (15.874011 15.874011 15.874011)
  3 by 4 by 4 MPI processor grid
create_atoms 1 box
Created 4000 atoms
  using lattice units in orthogonal box = (0.0000000 0.0000000 0.0000000) to (15.874011 15.874011 15.874011)
  create_atoms CPU = 0.003 seconds
set type 1 type/fraction 2 0.56 78393
Setting atom values ...
  2252 settings made for type/fraction
mass 1 1.0
mass 2 1.0
pair_style lj/cut  3.5
pair_modify tail  yes
pair_coeff 1  1  1.0  1.0   # Intearaction between 1 and 1 set with epsilon = 1 and sigma = 1
pair_coeff 1  2  1.5  0.8
pair_coeff 2  2  0.5  0.88

write_data data.0
System init for write_data ...
Neighbor list info ...
  update every 1 steps, delay 10 steps, check yes
  max neighbors/atom: 2000, page size: 100000
  master list distance cutoff = 3.8
  ghost atom cutoff = 3.8
  binsize = 1.9, bins = 9 9 9
  1 neighbor lists, perpetual/occasional/extra = 1 0 0
  (1) pair lj/cut, perpetual
      attributes: half, newton on
      pair build: half/bin/atomonly/newton
      stencil: half/bin/3d
      bin: standard
WARNING: Not all mixed pair coeffs generated from mixing. Use write_data with 'pair ij' option to store all pair coeffs. (../write_data.cpp:312)


#############################
#   M E L T   S Y S T E M   #
#############################

velocity all create 2.4 5300450 mom yes dist gaussian # Assign velocities
                                                    # Temperature 2.4, random number seed, zero linear momentum
                                                                                # Gaussian distribution

timestep 0.002   # simulation timestep
thermo 1000       # output thermodynamic data every 1000 steps bf 100

# Define a fix  in this case with index 1 applied to all
# particles in the simulation. This fix is for simulations
# in the anisotropic NPT ensemble. Note that we use the MTK
# correction.
fix 1 all npt temp 2.4 2.4 0.1 iso 5.68 5.68 0.5 mtk yes tchain 5 pchain 5 # Use NPT ensemble
                                                                         # Set temperature and pressure and damping
                                                                         # Numbers of thermostats in chain and in barostat
run 10000          # run for 10000 steps
Per MPI rank memory allocation (min/avg/max) = 3.642 | 3.644 | 3.648 Mbytes
Step Temp E_pair E_mol TotEng Press Volume 
       0          2.4   -4.9459583            0   -1.3468583   -4.1435722         4000 
    1000    2.3850169   -4.6848302            0   -1.1081992    5.6956788    3618.5969 
    2000    2.3581135   -4.6944922            0   -1.1582063    5.5215046    3628.6371 
    3000    2.4409104   -4.6496747            0  -0.98922452    5.7124577    3646.3882 
    4000    2.3747595   -4.6951127            0    -1.133864    5.3078449    3645.4092 
    5000    2.4435187   -4.6800052            0   -1.0156434    5.7257327    3634.0576 
    6000    2.4342458   -4.6828162            0   -1.0323604    5.9845664    3603.7839 
    7000    2.3732843   -4.6301263            0   -1.0710897    5.5283399    3664.5183 
    8000    2.4952856   -4.6460851            0  -0.90409237     5.718743    3656.6277 
    9000    2.3807927   -4.6746079            0   -1.1043117    5.5418366    3636.1476 
   10000    2.4046437   -4.6501345            0   -1.0440707    5.4889217    3658.2561 
Loop time of 2.74909 on 48 procs for 10000 steps with 4000 atoms

Performance: 628570.612 tau/day, 3637.561 timesteps/s
99.5% CPU use with 48 MPI tasks x no OpenMP threads

MPI task timing breakdown:
Section |  min time  |  avg time  |  max time  |%varavg| %total
---------------------------------------------------------------
Pair    | 1.1944     | 1.2677     | 1.5027     |   4.7 | 46.11
Neigh   | 0.21615    | 0.22373    | 0.25688    |   1.6 |  8.14
Comm    | 0.66825    | 0.92098    | 1.0138     |   7.3 | 33.50
Output  | 0.0002458  | 0.00025375 | 0.00041467 |   0.0 |  0.01
Modify  | 0.2578     | 0.3208     | 0.39503    |   7.5 | 11.67
Other   |            | 0.01562    |            |       |  0.57

Nlocal:        83.3333 ave          92 max          72 min
Histogram: 2 1 2 5 1 10 17 3 3 4
Nghost:        1742.88 ave        1781 max        1722 min
Histogram: 6 5 6 16 4 6 1 2 1 1
Neighs:        10436.1 ave       11940 max        8864 min
Histogram: 2 2 4 5 7 14 7 3 0 4

Total # of neighbors = 500933
Ave neighs/atom = 125.23325
Neighbor list builds = 904
Dangerous builds = 194

# Equilibrate just above the melting temperature to avoid step fn in T

fix 1 all npt temp 1.25 1.25 0.1 iso 5.68 5.68 0.5 mtk yes tchain 5 pchain 5
run 2000
Per MPI rank memory allocation (min/avg/max) = 3.644 | 3.646 | 3.649 Mbytes
Step Temp E_pair E_mol TotEng Press Volume 
   10000    2.4046437   -4.6501345            0   -1.0440707    5.4889217    3658.2561 
   11000    1.2526134   -6.7762637            0   -4.8978133    5.6620749    2799.9148 
   12000    1.2611242   -6.9289208            0   -5.0377075    5.4378912    2769.1457 
Loop time of 0.696087 on 48 procs for 2000 steps with 4000 atoms

Performance: 496489.620 tau/day, 2873.204 timesteps/s
99.5% CPU use with 48 MPI tasks x no OpenMP threads

MPI task timing breakdown:
Section |  min time  |  avg time  |  max time  |%varavg| %total
---------------------------------------------------------------
Pair    | 0.29567    | 0.3192     | 0.37015    |   2.2 | 45.86
Neigh   | 0.041189   | 0.043616   | 0.049144   |   0.6 |  6.27
Comm    | 0.19523    | 0.25081    | 0.27929    |   3.0 | 36.03
Output  | 5.2507e-05 | 5.4145e-05 | 7.2164e-05 |   0.0 |  0.01
Modify  | 0.060585   | 0.077641   | 0.081892   |   1.2 | 11.15
Other   |            | 0.004766   |            |       |  0.68

Nlocal:        83.3333 ave          89 max          75 min
Histogram: 1 3 2 3 2 16 3 9 2 7
Nghost:        2110.10 ave        2145 max        2087 min
Histogram: 6 5 6 9 9 3 4 2 3 1
Neighs:        13777.0 ave       15335 max       12048 min
Histogram: 2 1 3 8 8 7 9 5 3 2

Total # of neighbors = 661294
Ave neighs/atom = 165.32350
Neighbor list builds = 144
Dangerous builds = 15

#############################
# L I N E A R  Q U E N C H  #
#############################

# Define solid atoms. This closely follows ten Wolde  Ruiz-Montero and Frenkel  Faraday Discuss  1996  104  93-110
# Compute components of the per-atom q6 vector
compute q6 all orientorder/atom degrees 1 6 components 6 nnn NULL cutoff 1.3 # compute the Q6 parameter.
                                                                             # Use all neighbours within 1.3 unit cell.

# get number of connections
compute coord_number all coord/atom orientorder q6 0.5

# An atom is solid if it has 8 or more connections (of a possible 14)
variable is_solid atom c_coord_number>=8
group solid dynamic all var is_solid    # Must be dynamic to update
dynamic group solid defined

# do clustering
compute cluster solid cluster/atom 1.3 # Create a cluster where all atoms within are solid and max 1.3 units from another member

# define chunks one chunk per cluster
compute clus_chunks solid chunk/atom c_cluster nchunk every compress yes  # Says which atoms are in which chunk

# count the size of each chunk
compute size_chunks solid property/chunk clus_chunks count


# Find the maximum entry in the vector of chunk sizes
variable max_n equal max(c_size_chunks)


# Thermo style which includes this variable
# thermo_style custom step temp pe vol v_max_n

thermo ${N}  # Print the thermo information every 100 steps
thermo 1000  

# Reset the npt fix at a lower temperature (below freezing)
fix 1  all npt temp  ${temp} ${temp}  0.1  iso  5.68  5.68  0.5  mtk yes tchain  5  pchain  5
fix 1  all npt temp  0.45 ${temp}  0.1  iso  5.68  5.68  0.5  mtk yes tchain  5  pchain  5
fix 1  all npt temp  0.45 0.45  0.1  iso  5.68  5.68  0.5  mtk yes tchain  5  pchain  5

dump dmp2 all dcd ${N} traj.dcd
dump dmp2 all dcd 1000 traj.dcd


compute msd all msd com yes
variable twopoint equal c_msd[4]/6/(step*dt+1.0e-6)
fix 9 all vector 10 c_msd[4]
variable fit equal slope(f_9)/6/(10*dt)
thermo_style custom step temp pe c_msd[4] v_twopoint v_fit v_max_n

fix 1 all npt temp 1.25 ${temp} 0.1 iso 5.68 5.68 0.5 mtk yes tchain 5 pchain 5
fix 1 all npt temp 1.25 0.45 0.1 iso 5.68 5.68 0.5 mtk yes tchain 5 pchain 5
run 5000000 # 5000000  # Run for this many steps
Neighbor list info ...
  update every 1 steps, delay 10 steps, check yes
  max neighbors/atom: 2000, page size: 100000
  master list distance cutoff = 3.8
  ghost atom cutoff = 3.8
  binsize = 1.9, bins = 8 8 8
  4 neighbor lists, perpetual/occasional/extra = 1 3 0
  (1) pair lj/cut, perpetual
      attributes: half, newton on
      pair build: half/bin/atomonly/newton
      stencil: half/bin/3d
      bin: standard
  (2) compute orientorder/atom, occasional
      attributes: full, newton on
      pair build: full/bin/atomonly
      stencil: full/bin/3d
      bin: standard
  (3) compute coord/atom, occasional
      attributes: full, newton on
      pair build: full/bin/atomonly
      stencil: full/bin/3d
      bin: standard
  (4) compute cluster/atom, occasional
      attributes: full, newton on
      pair build: full/bin/atomonly
      stencil: full/bin/3d
      bin: standard
Per MPI rank memory allocation (min/avg/max) = 9.847 | 9.852 | 9.855 Mbytes
Step Temp PotEng c_msd[4] v_twopoint v_fit v_max_n 
   12000    1.2611242   -6.9289208 4.2010788e-30 2.9174157e-32 8.3333333e+20            9 
   13000    1.2521032   -6.9100212    0.4312671 0.0027645326  0.034425534            2 
   14000    1.2158411   -6.8676174    0.8512209 0.0050667909  0.034778327            1 
   15000    1.2586233   -6.8968173     1.288651 0.0071591722  0.034796907            3 
   16000    1.2641971   -6.9091255    1.6869531 0.0087862139  0.034665804            5 
   17000    1.2345701   -6.8977104    2.1194892  0.010389652  0.034576962            2 
   18000    1.2498375   -6.8770349    2.5056636  0.011600294  0.034660808            2 
   19000    1.2620723   -6.9312702    2.8789804  0.012627107  0.034259465            4 
   20000    1.2489167    -6.874088    3.2238276  0.013432615  0.033738741            2 
   21000    1.2271172   -6.8646087    3.5768717  0.014193935  0.033248646            3 
   22000    1.2693927   -6.9171298    3.9798739   0.01507528  0.032839926            4 
   23000    1.2561206   -6.8957884    4.3794517  0.015867578  0.032719332            4 
   24000    1.2416237   -6.9011367    4.8815544  0.016949841  0.032748092            2 
   25000     1.255536   -6.8846912    5.2996175  0.017665391  0.033003509            5 
   26000      1.23842   -6.8955124    5.7158769  0.018320118  0.033165168            3 
   27000    1.2613587   -6.9210935    6.1204079  0.018890147  0.033306471            2 
   28000    1.2470359   -6.8910619    6.5856753  0.019600224  0.033473484            2 
   29000    1.2299434    -6.878151    6.9492971  0.019969244  0.033609968            4 
   30000    1.2506889   -6.9343992    7.4045487   0.02056819  0.033760615            2 
   31000    1.2512311   -6.9008049    7.7696202  0.020886075  0.033837889            3 
   32000    1.2538445   -6.9278677     8.218194  0.021401546  0.033906445            3 
   33000    1.2458827    -6.875731    8.6746407  0.021905658  0.033980682            2 
   34000    1.2584878   -6.9379431    9.0234774  0.022116366   0.03404672            2 
   35000     1.238819   -6.9083045    9.4399045  0.022475963  0.034074929            1 
   36000     1.249406   -6.8836649    9.8692475   0.02284548  0.034138733            1 
   37000    1.2245416   -6.9159895    10.243419  0.023070763  0.034171959            2 
   38000    1.2353359   -6.8566907    10.661761  0.023381054  0.034191231            1 
   39000    1.2312846   -6.8812452    11.224916  0.023984863  0.034225711            1 
   40000     1.276829   -6.9058602    11.689193  0.024352485  0.034328375            2 
   41000    1.2469001   -6.8560922    12.077188   0.02454713  0.034420282            2 
   42000    1.2505075   -6.8532037    12.532095  0.024865267  0.034503018            2 
   43000    1.2555866   -6.9342568    13.081424  0.025351598  0.034619637            2 
   44000    1.2656699   -6.8898694    13.742073  0.026026653  0.034800309            2 
   45000     1.279391     -6.85475     14.22981    0.0263515  0.035034544            2 
   46000    1.2249348   -6.8693632    14.668452  0.026573282  0.035207261            2 
   47000    1.2602185   -6.9317539    14.926986  0.026466287   0.03533807            2 
   48000    1.2122873   -6.9296926    15.293384  0.026551013   0.03539713            2 
   49000    1.2269847   -6.9066206    15.634683  0.026589597  0.035432733            5 
   50000    1.2307322   -6.9375708    15.950292   0.02658382  0.035447063            1 
   51000     1.240282   -6.8929115    16.381232  0.026766719  0.035445066            1 
   52000    1.2447055   -6.8704926     16.71666  0.026789518  0.035416931            1 
   53000    1.2506937   -6.8683915    17.038373  0.026789895  0.035348061            3 
   54000    1.2198144    -6.896694    17.460839  0.026945738  0.035291352            1 
   55000    1.2488365   -6.9016746    17.957339  0.027208089  0.035256136            4 
   56000    1.2630155   -6.9181591    18.346164  0.027300839  0.035224485            5 
   57000    1.2414553    -6.846592    18.779742  0.027455764  0.035199026            2 
   58000    1.2385859   -6.9516054    18.910503  0.027170262  0.035145674            2 
   59000    1.2517488   -6.9191653     19.24648  0.027184294  0.035058044            1 
   60000    1.2245902   -6.9017052    19.690983  0.027348588  0.034969018            1 
   61000    1.2519785   -6.8533843    20.226326  0.027631593  0.034899301            2 
   62000    1.2558448   -6.8793679    20.735393  0.027870151  0.034859086            2 
   63000    1.2622151    -6.884943    21.065246  0.027864082  0.034821178            3 
   64000    1.2523768   -6.9121129    21.380166  0.027838758  0.034779344            1 
   65000    1.2438092   -6.8809144    21.733537  0.027863509  0.034723407            2 
   66000    1.2390342   -6.8886609    22.242037  0.028083379  0.034675702            2 
   67000     1.236758   -6.9054356    22.373218  0.027827385  0.034611459            1 
   68000    1.2438385    -6.910091    22.850514  0.028003081  0.034545354            2 
   69000    1.2140644   -6.9031032    23.276469  0.028111677  0.034493679            2 
   70000    1.2195882   -6.9090095    23.639191  0.028141894  0.034444646            2 
   71000    1.2396487   -6.9373838    24.044173   0.02822086  0.034392751            3 
   72000    1.2792067   -6.8869448    24.635543   0.02851336  0.034359326            3 
   73000    1.2558603   -6.8508806     24.99476  0.028532831  0.034335006            2 
   74000    1.2176262   -6.8655981    25.474909  0.028687961  0.034310498            3 
   75000    1.2389504   -6.9465463    25.665757  0.028517508   0.03428623            1 
   76000    1.2449047   -6.8742492    26.207806  0.028736629  0.034252505            1 
   77000    1.2555048   -6.9309388    26.644345  0.028835871  0.034234455            2 
   78000    1.2330338   -6.9502538    27.098143  0.028951007  0.034221235            1 
   79000    1.2424087    -6.882812    27.605783  0.029120024  0.034217702            1 
   80000    1.2359407   -6.9205461    27.905283  0.029068003  0.034218724            5 
   81000    1.2446811   -6.9067016    28.242607   0.02905618  0.034200515            3 
   82000     1.255882   -6.9046861    28.486418  0.028949611  0.034172942            2 
   83000    1.2264335   -6.8677985    28.985338  0.029101745   0.03415023            1 
   84000    1.2306136   -6.9287293    29.655288  0.029419928  0.034130572            1 
   85000    1.2286898   -6.9184773    29.843017   0.02925786  0.034128273            2 
   86000    1.2251491   -6.8901276    30.311461  0.029371571  0.034112492            1 
   87000    1.2164899    -6.924038    30.645671  0.029354091  0.034100421            1 
   88000    1.2215252   -6.8740197    31.257518  0.029599923  0.034093637            2 
   89000    1.2132295   -6.8726221    31.638575  0.029624134  0.034097588            1 
   90000    1.2348744   -6.8436957    32.165049  0.029782453  0.034100682            2 
   91000    1.2214369   -6.9510324    32.329418  0.029605694  0.034103667            2 
   92000    1.2410824   -6.9159672     32.99718   0.02988875  0.034112548       -1e+20 
   93000    1.2328898   -6.8699992    33.424237  0.029950033  0.034125212            2 
   94000    1.2176899   -6.9396942    33.986143  0.030129559   0.03413719            2 
   95000     1.253025    -6.902129    34.073871  0.029889361   0.03414644            3 
   96000    1.2443252    -6.939731    34.500992  0.029948778  0.034153179            2 
   97000    1.2205865   -6.9254525    34.846631  0.029936968  0.034151358            2 
   98000    1.2433092    -6.910562    35.295095  0.030012836  0.034151306            1 
   99000     1.237292   -6.9359655    35.653954  0.030011745  0.034153734            2 
  100000    1.2540098   -6.9512205    36.207022  0.030172518  0.034155367            3 
  101000    1.2459483   -6.9661948    36.502083   0.03011723  0.034154259            2 
  102000     1.238706   -6.9513763    36.908929  0.030154353  0.034152726            3 
  103000     1.247655   -6.9347859    37.104492  0.030019815  0.034143182            1 
  104000    1.2288992   -6.9071474    37.439275  0.029999419  0.034123746            1 
  105000    1.2478637   -6.9511806    37.918369  0.030093944  0.034110233            2 
  106000    1.2489677    -6.926657    38.279895  0.030094257  0.034098782            2 
  107000    1.2440705   -6.9194402    38.700156  0.030140308   0.03408656            3 
  108000    1.2259088   -6.9490241    39.049006  0.030130405   0.03406586            2 
  109000     1.250281   -6.9541691    39.275751  0.030027332  0.034046399            4 
  110000     1.230347   -6.9440575    39.814878  0.030162786  0.034025591            2 
  111000    1.2332283   -6.9010831    40.261706  0.030226506  0.034008316            2 
  112000    1.2188363   -6.9404831    40.342474  0.030016722  0.033983723            2 
  113000     1.248516   -6.9663169    40.649079  0.029977197  0.033952334            2 
  114000    1.2380291   -6.9315496    40.971886  0.029950209  0.033920519       -1e+20 
  115000    1.2469014   -6.8869779    41.474735  0.030054156  0.033884661            2 
  116000    1.2335284   -6.9399082    41.810215  0.030036074  0.033854277            1 
  117000    1.2431227   -6.9961302    41.979445   0.02989989  0.033820875            3 
  118000    1.2450099   -6.9432018    42.504638  0.030017399   0.03379054            3 
  119000    1.2455135   -6.9020771    43.115801  0.030193138  0.033766091            1 
  120000    1.1909018   -6.9157142    43.431147  0.030160518  0.033744913            1 
  121000    1.2409873   -6.9391904    43.912656  0.030242876  0.033722715            3 
  122000    1.2592986   -6.9190062    44.094716  0.030119341  0.033698738            2 
  123000    1.2297775   -6.9366791     44.36059    0.0300546  0.033667631            4 
  124000    1.2421501   -6.9120784    44.939846   0.03020151  0.033636988            2 
  125000    1.2220924   -6.9206713    45.101186  0.030067457  0.033612872            5 
  126000    1.2250678    -6.913853    45.650498  0.030192128  0.033583534            2 
  127000    1.1992854   -6.9203845    46.050037   0.03021656  0.033557788            2 
  128000    1.2395529   -6.9274792    46.510691  0.030280398  0.033533921            3 
  129000    1.1948128   -6.9371086    46.994061  0.030357921  0.033514595            1 
  130000    1.2405935   -6.8954752    47.476723  0.030433797   0.03349957            2 
  131000    1.2017084   -6.9189453    47.682314  0.030332261  0.033484543            3 
  132000    1.2041687   -6.9339362    48.143628  0.030393705  0.033470062            2 
  133000     1.225786   -6.9464512    48.373517  0.030309221   0.03345438            4 
  134000    1.2219048   -6.9402288    48.543221   0.03018857   0.03343475            3 
  135000      1.23012   -6.9244329     48.94726  0.030214358  0.033412634            1 
  136000    1.2405647   -6.9806176    49.522813  0.030344861  0.033392334            4 
  137000    1.2250996   -6.9438236     50.04965  0.030443826  0.033377099            2 
  138000    1.2053045   -6.9554436    50.517898  0.030505977  0.033360531            2 
  139000    1.2448745   -6.9523533    50.465839  0.030255299  0.033340696            2 
  140000     1.222757   -6.9270962    51.169668  0.030458136  0.033324047            2 
  141000    1.2568843   -6.9409807    51.514389  0.030445856  0.033309038            3 
  142000     1.245755   -6.9494592    52.065098  0.030554635  0.033298711            3 
  143000      1.20015   -6.9395673    52.116568   0.03037096  0.033288097            2 
  144000    1.2266871   -6.9376908    52.491394  0.030376964    0.0332704            1 
  145000    1.2079146    -6.972026     52.86893  0.030384442  0.033251556            3 
  146000    1.2378939   -6.9590464    53.339956   0.03044518  0.033233517            2 
  147000    1.2142412   -6.9331982    53.592265  0.030381103  0.033218832            3 
  148000    1.2357818   -6.9722812     54.03442  0.030424786  0.033201041            1 
  149000     1.255294   -6.9588116    54.310707  0.030375116  0.033182406            3 
  150000    1.2395312   -6.9670116    54.938818  0.030521566  0.033168044            2 
  151000    1.2324864   -6.9775847    55.228006  0.030479032   0.03315503            2 
  152000    1.2568872   -6.9880503    55.750237  0.030564823  0.033144491            1 
  153000    1.2276464   -6.9721552    56.317207   0.03067386  0.033135334            4 
  154000    1.2251317   -6.9221553    56.735982  0.030701289  0.033125606            2 
  155000    1.2287835   -6.9600162    57.061863  0.030678421  0.033117566            4 
  156000    1.2186747   -6.9591898    57.554911  0.030745145  0.033108573            1 
  157000    1.2127338   -6.9109231    58.008005  0.030789811  0.033101101            4 
  158000    1.2285668   -6.9368934    58.151116   0.03067042  0.033093496            1 
  159000    1.1939786   -6.9272759    58.159345  0.030481837  0.033082953            2 
  160000    1.2200491   -6.9378102    58.762242  0.030605334   0.03307225            5 
  161000    1.2321153   -6.9595057    59.035726  0.030556794  0.033059335            2 
  162000    1.1982913   -6.9246684    59.530014  0.030622435  0.033043316            2 
  163000    1.2158094   -6.9049831    60.198593  0.030776377  0.033034642            2 
  164000    1.2147118   -6.9684295    60.408376  0.030695313  0.033028091            2 
  165000    1.2289147   -7.0576891    60.351089  0.030480348  0.033017554            3 
  166000    1.2143667   -6.9557438    60.807574   0.03052589   0.03300403            2 
  167000    1.2611636   -6.9508606    61.187975  0.030532922   0.03298637            2 
  168000    1.2162043   -6.9562807    61.727074  0.030618588  0.032969754            5 
  169000    1.2230263   -6.9756214    62.090646  0.030616689  0.032953525            1 
  170000    1.2300927   -6.9509828    62.481848  0.030628357  0.032938122            2 
  171000    1.2336153   -6.9238534    62.925168  0.030665287  0.032924049            2 
  172000    1.2228758   -6.9789878    63.170971   0.03060609  0.032908548            3 
  173000    1.2153252   -6.9390981    63.684327  0.030676458  0.032897206            2 
  174000    1.2204601   -6.9518568    63.991995  0.030647507  0.032884671            3 
  175000    1.2432348   -6.9359657    64.761638  0.030838875   0.03287393            2 
  176000    1.2082885   -6.9875688    64.611347  0.030592494  0.032863601            3 
  177000    1.2291535   -6.9154051    65.238147  0.030714759  0.032853125            4 
  178000    1.2117701    -6.940085    65.655312  0.030737505  0.032842926            3 
  179000    1.2415362   -6.9566524    66.059598  0.030754003  0.032833996            3 
  180000    1.2568745    -6.940281    66.603247  0.030834837  0.032824372            3 
  181000       1.2374    -6.942704    67.220665  0.030948741   0.03282031            3 
  182000    1.2416836   -6.9729384    67.345075  0.030835657  0.032814388            2 
  183000    1.2281218   -6.9614576    67.623125  0.030793772  0.032809678            3 
  184000     1.224063   -6.9459371    68.211134  0.030892724   0.03280401            3 
  185000    1.2178221   -6.9672186    68.380771  0.030802149  0.032797958            2 
  186000    1.2168493   -6.9497078    68.671862  0.030766963    0.0327915            3 
  187000    1.2157423   -6.9387719    69.340918  0.030900587   0.03278586            2 
  188000    1.1906759   -6.9489203    69.548193    0.0308281  0.032779676            2 
  189000    1.2378439   -6.9756127    70.029013   0.03087699  0.032773924            3 
  190000    1.2380171   -6.9452796    70.521127  0.030930319  0.032769466            2 
  191000    1.2026475   -7.0057994    70.480733  0.030750756  0.032762462            4 
  192000    1.2426336   -6.9673563    70.905472  0.030774944  0.032752739            2 
  193000    1.2299456   -6.9669685     71.37721  0.030819175  0.032742538            2 
  194000    1.2148594   -6.9734922    71.931923  0.030898592  0.032733204            2 
  195000    1.2168462   -6.9616522    72.163886  0.030839267  0.032723939            4 
  196000    1.2085737    -6.984249    72.573481  0.030856072  0.032715815            3 
  197000    1.1858898   -6.9211268    72.971924  0.030867988  0.032709321            3 
  198000     1.230888   -6.9583837    73.490841  0.030930489   0.03270405            2 
  199000    1.2111864   -6.9723832    73.831697  0.030917796  0.032697609            1 
  200000    1.1990933   -6.9700291    73.966825   0.03081951  0.032691999            2 
  201000    1.1831226   -6.9436552    74.224194  0.030772883  0.032683641            2 
  202000    1.2378602    -6.945087    74.421967  0.030702132  0.032671779            4 
  203000    1.2253088   -6.9895923    74.532408  0.030596226  0.032657984            2 
  204000    1.2107463   -6.9731757    75.081372  0.030670495  0.032643171            1 
  205000     1.221976   -6.9886462    75.340069  0.030626044  0.032628615            2 
  206000    1.2033964   -6.9760398    75.839118  0.030679255  0.032614195            1 
  207000    1.2024083   -7.0022772    75.847061  0.030534244  0.032600851            1 
  208000     1.219405   -6.9816001    76.415792  0.030615301  0.032584517            1 
  209000     1.213341   -6.9685041     77.00963  0.030705594  0.032570114            3 
  210000    1.2025471    -6.938275    77.267555  0.030661728  0.032557289            3 
  211000    1.2463633   -6.9791577    77.414177  0.030574319  0.032545769            4 
  212000    1.2051408   -7.0081269     77.79092  0.030578192  0.032532074            1 
  213000    1.2233021   -6.9662604    78.383972  0.030666656  0.032519739            2 
  214000     1.197963   -7.0249338    78.760762  0.030670079  0.032506522            2 
  215000    1.2465214   -6.9622499    79.237435  0.030712184  0.032494381            2 
  216000    1.2015753   -6.9925729    79.555362  0.030692655  0.032482946            2 
  217000    1.2077487    -7.005825    79.772948  0.030634772  0.032469693            3 
  218000    1.2014465   -6.9911935    80.066548  0.030606479  0.032458152            6 
  219000    1.2095305   -6.9856527    80.184697  0.030511681  0.032443856            2 
  220000    1.2260291   -6.9853945    81.072063  0.030709115  0.032432124            1 
  221000    1.2340693   -7.0099476    80.920332  0.030512946  0.032419532            2 
  222000    1.2413976   -7.0054673    81.556931  0.030614464  0.032405597            2 
  223000    1.2057985   -7.0118081    81.672615  0.030520409  0.032391759            3 
  224000    1.2411155   -6.9186056    82.631971   0.03074106    0.0323801            2 
  225000    1.2211123   -6.9571344    82.581056  0.030585576  0.032369355            1 
  226000    1.1976329   -6.9859983    82.783299  0.030524815   0.03235622            2 
  227000    1.2443065   -6.9522641    83.520243  0.030660882  0.032342312            1 
  228000     1.206994   -6.9380383    83.451505  0.030501281  0.032328009            4 
  229000    1.2162003   -6.9685141     83.56544  0.030409549  0.032311279            3 
  230000    1.2285235    -6.960974    84.658512  0.030673374   0.03229643            2 
  231000    1.1902552   -6.9986377    84.747592  0.030572724  0.032283803            3 
  232000    1.1936343   -6.9945538    84.982051  0.030525162  0.032271076            2 
  233000    1.2347175   -6.9561762    85.566414  0.030603152  0.032259108            5 
  234000    1.2095856    -6.952784    86.209241  0.030701297  0.032248994            2 
  235000    1.2036277   -6.9498357    86.263074  0.030589742  0.032239607            3 
  236000    1.2265093   -6.9616299    87.249148  0.030808315  0.032229788            3 
  237000    1.1989685   -6.9741204    87.592589  0.030799082  0.032220733            4 
  238000    1.2097059   -6.9820537    87.355298  0.030586589  0.032212655            3 
  239000    1.2034583   -6.9675722    88.248312  0.030769983  0.032204665            2 
  240000    1.1949994    -7.009278     88.35279  0.030678052  0.032196967            4 
  241000    1.2379449   -6.9733586    88.981932  0.030768303  0.032189156            5 
  242000    1.2295298   -6.9746449    89.219664  0.030723025  0.032180914            2 
  243000    1.2212796   -6.9711638    89.353166  0.030642375  0.032170453            2 
  244000    1.2149769   -7.0144046    89.682699  0.030629337  0.032160861            3 
  245000    1.2516617   -6.9968744    90.092202  0.030643606  0.032150251            5 
  246000    1.2269298    -6.989445    90.623225  0.030698924  0.032142119            2 
  247000    1.1794738   -7.0107591    90.850793  0.030651415   0.03213321            5 
  248000      1.20117   -6.9837248    91.367741  0.030701526   0.03212521            3 
  249000    1.2118862    -6.971282    91.714976  0.030694436  0.032116541            2 
  250000    1.2020394   -6.9926534    91.954425  0.030651475  0.032107797            3 
  251000    1.2143819   -6.9813029     92.36866  0.030666886   0.03209814            5 
  252000    1.1959228   -6.9668137    93.057167  0.030772873   0.03209025            3 
  253000    1.2292081   -6.8952304    93.523664  0.030804896  0.032082984            1 
  254000    1.2121002   -6.9761666     93.75426  0.030759271   0.03207738            1 
  255000    1.2075572   -6.9669851    93.614531  0.030592984  0.032070615            2 
  256000    1.2039046   -7.0196106    94.104452   0.03063296  0.032060744            1 
  257000    1.2390449   -7.0193851    94.543816  0.030656231  0.032051569            1 
  258000    1.1978756   -6.9900017    95.004116  0.030686084  0.032043209            2 
  259000    1.2123521   -6.9522211    95.641472  0.030772674  0.032035403            3 
  260000    1.1963806   -6.9786383    96.303087  0.030866374  0.032029263            1 
  261000    1.2076479   -7.0315571    96.090589  0.030680265   0.03202309            3 
  262000    1.2301059    -7.014755    96.929624  0.030830033  0.032018694            2 
  263000    1.1983598   -7.0134608    96.568375  0.030598344  0.032012327            3 
  264000    1.1794941   -6.9827878    97.533356  0.030787044  0.032004576            1 
  265000    1.1964515   -6.9823332    97.826052  0.030762909  0.031997188            1 
  266000    1.1828984   -6.9740794    98.146321  0.030747594  0.031989767            1 
  267000    1.2119348   -6.9937662    98.142552  0.030631258  0.031981667            1 
  268000    1.2204278   -6.9589543    99.064417  0.030803612  0.031975112            2 
  269000    1.2237966    -6.959161    99.399979  0.030793054  0.031968059            3 
  270000    1.2007869   -7.0224094    99.157856  0.030604277  0.031961915            3 
  271000    1.2045547   -6.9869759    100.08358   0.03077601  0.031953542            3 
  272000    1.2155766    -6.959982     100.4086  0.030762437  0.031947085            2 
  273000    1.2471513   -6.9821731    100.67091  0.030729826  0.031940533            2 
  274000    1.2110024    -6.966212    101.06363  0.030737113  0.031932869            2 
  275000    1.1754902   -6.9554996    101.49263  0.030755342   0.03192653            1 
  276000     1.181301   -7.0350205    101.16115  0.030543826  0.031919538            2 
  277000    1.1916495    -6.961021    102.23963  0.030758011    0.0319111            4 
  278000    1.2347998   -7.0099688    102.09809  0.030604942  0.031902378            1 
  279000    1.1903865   -6.9669942    102.89231   0.03073247  0.031894186            1 
  280000    1.2113249   -7.0004059    103.31451  0.030748367  0.031887278            3 
  281000     1.206768   -6.9819828      103.338  0.030645908  0.031879357            1 
  282000     1.206075   -6.9733373    103.80839  0.030676237  0.031871047            2 
  283000    1.1911363   -7.0451169    103.80673  0.030567353  0.031863269            3 
  284000    1.1983477   -6.9798049    104.85797  0.030768184  0.031856716            5 
  285000    1.2176682   -6.9809386     105.1592  0.030748305  0.031850436            2 
  286000    1.1919292   -6.9803122    105.25113  0.030667579   0.03184368            1 
  287000    1.1997395    -6.992658    105.86403  0.030738684  0.031836366            1 
  288000     1.209535   -6.9139313    106.60311  0.030845806  0.031829828            2 
  289000    1.2132409   -7.0432568    106.10083  0.030594241  0.031822772            2 
  290000    1.2061605    -6.972309    106.44823  0.030588572  0.031814749            2 
  291000    1.2200317   -7.0111332    106.62651  0.030534511  0.031805259            3 
  292000    1.1834373   -6.9360181    107.68177  0.030731098  0.031796964            2 
  293000    1.1929279   -7.0356735    107.17447  0.030481931  0.031787413            1 
  294000    1.2225342   -7.0118005    107.64911  0.030512787  0.031776693            3 
  295000    1.2128326    -7.038937    107.78618  0.030448074  0.031767777            3 
  296000    1.1927332    -6.992701    108.55916  0.030562827  0.031759861            4 
  297000    1.1921039   -6.9650691    109.69313  0.030778094  0.031753732            3 
  298000    1.1957354   -7.0218227     109.5752  0.030641834  0.031747504            2 
  299000    1.2206041   -7.0550805    109.73688  0.030584414  0.031741189            2 
  300000    1.2203047    -7.040705    110.36877  0.030657991  0.031734424            3 
  301000    1.1924382   -7.0183088    110.74141  0.030659305  0.031729293            2 
  302000    1.1993768    -7.016892    110.83409  0.030583359   0.03172416            3 
  303000    1.1955011    -6.968332    111.86369  0.030765591  0.031717702            1 
  304000    1.1901374    -6.999146    111.77223  0.030639317  0.031711196            3 
  305000    1.1850055    -6.996223    112.11169  0.030631609  0.031704025            4 
  306000      1.20522   -6.9777846    112.70367  0.030692721  0.031698484            2 
  307000    1.1988282   -6.9875011    112.68315  0.030587175  0.031692069            2 
  308000    1.2332487   -7.0071655    112.62621  0.030472459  0.031683186            5 
  309000     1.197123   -7.0013011    113.09532  0.030500357  0.031674366            6 
  310000    1.1881624   -7.0574012    113.35539  0.030471878  0.031665338            1 
  311000     1.199646   -7.0293593    113.66292  0.030456302  0.031655819            3 
  312000    1.2065053   -6.9809135    113.95838  0.030437602  0.031645306            2 
  313000    1.1986968   -7.0382411    113.51538  0.030222413  0.031633659            3 
  314000    1.1707711     -7.00097    114.17765  0.030301924  0.031621907            1 
  315000    1.2189804   -7.0018608    114.46826  0.030282607   0.03161035            2 
  316000    1.1814404   -6.9969924    115.17495  0.030373141    0.0315991            1 
  317000    1.2079225   -6.9817059    115.80147  0.030442027  0.031587955            4 
  318000    1.1961055   -7.0422163    115.56014  0.030283056  0.031575716            3 
  319000    1.2057497   -6.9818229    116.41628  0.030411776  0.031564372            4 
  320000    1.1720058   -7.0340978    116.15119  0.030247705  0.031553188            2 
  321000    1.2028846   -7.0153738    116.53791  0.030253871  0.031542296            2 
  322000     1.202996   -6.9732958    117.04204  0.030290382  0.031531629            2 
  323000    1.2332823   -7.0105722    117.65172  0.030353901  0.031520731            5 
  324000     1.187838    -7.001661    118.12358  0.030381578  0.031510725            2 
  325000    1.1841102   -7.0482492     118.3625   0.03034936  0.031500609            1 
  326000    1.1960373   -7.0209345    119.12029  0.030449971  0.031491592            2 
  327000    1.1927684   -7.0201844    119.05683  0.030340681  0.031483859            2 
  328000    1.2095717   -6.9962076    119.92257  0.030468133  0.031475561            2 
  329000    1.2223194   -6.9980075    120.37609  0.030490399  0.031467549            5 
  330000     1.198456   -7.0250106    120.86259  0.030520855  0.031459367            2 
  331000    1.1965925   -7.0312297    120.76502  0.030404084  0.031451209            2 
  332000    1.1729293   -7.0177829    121.45957  0.030486841  0.031442149            3 
  333000     1.190229   -6.9974616    121.74581  0.030466918  0.031433954            2 
  334000    1.1934993   -6.9995268    122.07092  0.030456815   0.03142634            3 
  335000    1.2009262   -7.0518112      122.076  0.030367164  0.031417851            4 
  336000    1.2011755   -7.0787657    122.38053  0.030352313  0.031409982            2 
  337000    1.1968325   -6.9756774    123.37306  0.030507682   0.03140191            2 
  338000    1.1917928   -7.0081684    123.28132  0.030394803  0.031394017            2 
  339000    1.1906453   -7.0170325     123.7206  0.030413128  0.031385435            3 
  340000    1.2142545   -7.0828725    123.34081  0.030230591  0.031377121           11 
  341000    1.1735115   -7.0443153    123.66759  0.030221797  0.031367228            2 
  342000    1.1902326   -7.0352049    124.17745  0.030257664  0.031358034            5 
  343000    1.1900554     -7.02063    124.58398  0.030268218   0.03134869            2 
  344000    1.1975248   -7.0383571    124.75294  0.030221158  0.031338679            2 
  345000    1.2146082   -7.0299589    125.39595  0.030288877  0.031328993            2 
  346000    1.1780911   -7.0170269    125.93555  0.030331298   0.03131989            2 
  347000    1.1913457    -6.994845    126.73222  0.030435211  0.031312237            5 
  348000    1.1979606   -7.0019497    126.79187  0.030362037  0.031304468            2 
  349000    1.1857488   -7.0191821    126.95769  0.030314635   0.03129632            3 
  350000    1.1902703   -6.9975559    127.20998  0.030288091  0.031288058            3 
  351000    1.2199232    -7.052865    127.55595  0.030283938  0.031279736            2 
  352000    1.1834228   -7.0406405    127.67787  0.030226769  0.031270827            1 
  353000    1.1897819   -7.0158206    128.33694  0.030296728  0.031261905            2 
  354000    1.2051266   -7.0294124    128.43027  0.030233114   0.03125279            4 
  355000    1.1808091   -6.9844222    128.71335  0.030214401    0.0312437            2 
  356000    1.1922159   -7.0183004    129.33448  0.030274924  0.031235572            2 
  357000    1.2005456   -7.0325012    130.13083  0.030376011  0.031227521            2 
  358000    1.1981319    -7.037812    130.22746  0.030313655  0.031220704            2 
  359000    1.2131343   -7.0662645    130.38747  0.030266358  0.031212862            2 
  360000    1.2009073   -7.0538018    130.52556  0.030214251  0.031204251            3 
  361000     1.193289   -7.0468566    131.37013  0.030325515  0.031195885            1 
  362000     1.198579   -6.9998649     132.0162  0.030390471  0.031188343            2 
  363000    1.1823916   -7.0114929    132.40925   0.03039698  0.031181266            3 
  364000    1.1962728    -7.023973    132.31552  0.030292016  0.031173032            2 
  365000    1.1991178   -7.0182792    132.54148  0.030260613  0.031164428            2 
  366000    1.1876504   -7.0517622    132.03491  0.030062593  0.031155328            1 
  367000    1.1954476   -7.0383836    132.95818  0.030190323  0.031145933            2 
  368000    1.2031258   -7.0274705    133.16711  0.030155596  0.031136484            2 
  369000    1.1871953   -7.0644265    133.28047  0.030099473  0.031127275            4 
  370000     1.173287   -6.9923203    134.66362  0.030329644  0.031118955            2 
  371000    1.2091847   -7.0295367    134.17866  0.030138963  0.031110565            3 
  372000    1.1878806   -7.0670823    134.10805  0.030042125  0.031100885            3 
  373000    1.1892393   -7.0179234    135.09731  0.030182599  0.031090494            2 
  374000    1.2033097   -7.0770599    135.31353  0.030150074  0.031080805            3 
  375000    1.1765248   -7.0506228    135.27767  0.030061705  0.031071728            3 
  376000    1.2009437   -7.0406861    136.15064   0.03017523  0.031062275            2 
  377000    1.2389734   -7.0175779    136.48022  0.030168041  0.031053873            4 
  378000     1.194954   -7.0152054    136.31411   0.03005161  0.031044112            2 
  379000     1.165407   -7.0723343    136.60286  0.030035809  0.031034403            4 
  380000    1.1888347   -7.0691273    136.39258  0.029910653  0.031024436            4 
  381000     1.210177   -7.0461494    136.93956  0.029951784  0.031014522            1 
  382000    1.1810208   -7.0269852    138.17122  0.030142064  0.031005395            3 
  383000    1.1804207   -7.0188481    138.96419  0.030235899  0.030996881            1 
  384000    1.1709172   -7.0229881    138.98607  0.030161907  0.030989565            3 
  385000    1.1936576    -7.036692    139.35451  0.030163314  0.030981426            2 
  386000    1.1944484   -7.0618598    139.01177  0.030011177  0.030973636            4 
  387000    1.2009558   -7.0660926    139.83188  0.030110224  0.030965524            5 
  388000    1.1906243   -7.0761973    140.06547  0.030082791  0.030957965            3 
  389000    1.2267367   -7.0457452    140.78974  0.030160612  0.030950792            3 
  390000    1.1990232   -7.0500001    140.96083  0.030119836  0.030943281            4 
  391000    1.2142717   -7.0340976    141.24545  0.030103464  0.030936019            2 
  392000    1.1705553   -7.0787711    141.90796  0.030167509  0.030929129            4 
  393000    1.1689771   -7.1114714     142.0466  0.030120143  0.030922328            2 
  394000    1.1865725   -7.0187399    142.58475  0.030157519  0.030915379            3 
  395000    1.2036489   -7.0735377    142.70058  0.030105608  0.030909035            3 
  396000    1.1689595   -7.0207016    142.95555  0.030083239  0.030901901            7 
  397000    1.1760955   -7.0783766    144.07163  0.030241737  0.030895644            2 
  398000    1.1786829   -7.0278641    144.47521  0.030250254  0.030889339            3 
  399000    1.1993141   -7.0609357    144.17026  0.030110748  0.030882736            1 
  400000     1.185228   -7.0582244    144.17847  0.030037181  0.030875077            4 
  401000     1.224127   -7.0824847    144.57682  0.030045059  0.030867138            5 
  402000    1.1803737   -7.0083119    145.18091  0.030095545  0.030858426            5 
  403000     1.209775   -7.0214355    145.14177  0.030012772  0.030849479            2 
  404000    1.1664243   -7.0714352    144.54748    0.0298159  0.030839057            3 
  405000    1.1703333    -7.078338    144.97478  0.029830201   0.03082819            1 
  406000    1.2184744   -7.0604509    145.27541  0.029818434  0.030817648            4 
  407000    1.1984922   -7.0164696    145.94048  0.029881343  0.030807923            2 
  408000    1.1996761   -7.0318353    146.12209  0.029845199  0.030797854            2 
  409000    1.2011487   -7.0638279    146.02757  0.029752969  0.030787041            1 
  410000    1.1826693   -7.0524389    146.90835  0.029859421  0.030776239            1 
  411000    1.1637984   -7.1356015    146.44034  0.029691878   0.03076574            2 
  412000       1.2034   -7.0772107    147.55368     0.029845  0.030754349            3 
  413000    1.1960194    -7.040199    147.99591  0.029861967  0.030743507            5 
  414000    1.2046468   -7.0503612    147.74804  0.029739944  0.030732604            3 
  415000    1.1716817   -7.0378615    148.46341   0.02981193  0.030722004            3 
  416000    1.1904009   -7.0879563    148.73223  0.029794117  0.030711132            1 
  417000    1.2031398   -7.0574982    148.66149  0.029708532  0.030700646            5 
  418000    1.1833822   -7.0016434    149.38797  0.029782291  0.030690112            2 
  419000    1.1714217   -7.1136709    149.37078  0.029707792  0.030678984            5 
  420000    1.1978171   -7.0283395    149.61091  0.029684705  0.030667535            5 
  421000    1.1906094   -7.0645935    150.32165   0.02975488  0.030656622            2 
  422000    1.1929707    -7.045746     149.9421  0.029609419  0.030645673            3 
  423000    1.1909958   -7.1017889    150.27364  0.029604736  0.030634214            2 
  424000    1.1851782   -7.0493763    151.63382  0.029802245  0.030622761            3 
  425000    1.1676559   -7.0703976    151.56738  0.029719094  0.030611466            5 
  426000    1.1616155   -7.0717723    151.60145  0.029655997  0.030600575            2 
  427000    1.1820001   -7.0672634    152.17856  0.029699172  0.030590458            2 
  428000    1.1886987    -7.024185    152.74072  0.029739237  0.030580414            7 
  429000    1.1711584   -7.0552544     153.1059  0.029740851   0.03056992            1 
  430000    1.1833673   -7.1182237    152.62822  0.029579113  0.030559527            3 
  431000    1.2118845   -7.0676013     153.3742  0.029654718  0.030549339            3 
  432000    1.1979507   -7.0847415    153.41748  0.029594422  0.030538593            3 
  433000    1.1671642   -7.0813918    153.39221   0.02952121  0.030528041            2 
  434000    1.1637484   -7.0240394    154.70513  0.029705286  0.030517476            3 
  435000    1.1646284    -7.070423    154.08075  0.029517384  0.030506652            1 
  436000     1.196794   -7.0816961    154.32959  0.029497245  0.030495429            1 
  437000    1.1583515   -7.0576598    154.89008  0.029536628  0.030483489            3 
  438000    1.1536951    -7.083486    154.52137  0.029399042  0.030471916            2 
  439000    1.1924667   -7.0659483    155.68548  0.029553051  0.030460761            2 
  440000    1.1639632   -7.0795343    155.70737  0.029490032  0.030449296            3 
  441000     1.169924   -7.0195985    156.76801  0.029623584  0.030437724            3 
  442000    1.1774429   -7.0784721    155.72196  0.029359343  0.030425763            2 
  443000    1.1634629   -7.0477091    156.62321  0.029462605  0.030414148            5 
  444000    1.1894728   -7.0130048    157.16504  0.029497943   0.03040205            3 
  445000     1.180849   -7.0688989    156.85511  0.029373616  0.030389418            4 
  446000    1.1767525   -7.0765703    157.40311  0.029410147  0.030376329            2 
  447000    1.1808092   -7.0767151    157.58556  0.029378366  0.030363596            3 
  448000    1.1892598   -7.0748066    157.79284  0.029351346  0.030351299            1 
  449000    1.1807309   -7.1329676    157.45981  0.029224166  0.030339128            4 
  450000    1.1898906   -6.9976795    159.08744  0.029460638  0.030326352            2 
  451000    1.1832412   -7.0863559    158.16563  0.029224987  0.030314046            4 
  452000     1.168327    -7.018387    159.43788   0.02939489  0.030301791            4 
  453000    1.1711308   -7.0839832    159.27813  0.029300613  0.030289626            2 
  454000    1.2026515   -7.0930667    159.85442  0.029341853  0.030277535            2 
  455000    1.2015216   -7.0393792    160.64353  0.029421891  0.030265977            1 
  456000    1.1678577    -7.097536    159.85517  0.029213298  0.030254253            1 
  457000    1.1842324   -7.1143727    160.11878  0.029197444  0.030242027            6 
  458000    1.1713736    -7.034213    161.22816  0.029335547  0.030229126            1 
  459000    1.1725852   -7.0526057    161.01094  0.029232198  0.030217381            1 
  460000     1.153057   -7.1191431    161.41148   0.02924121  0.030204648            4 
  461000    1.1606151   -7.0589988    161.81404   0.02925055  0.030192562            4 
  462000    1.1762988   -7.0586964    162.27758  0.029270847  0.030180808            2 
  463000     1.191352   -7.0523946    162.65821  0.029276137  0.030169128            3 
  464000    1.1663131   -7.1068998     162.8583  0.029248976  0.030158281            3 
  465000    1.1977114   -7.0620389    163.49972  0.029301025   0.03014754            1 
  466000    1.1927489   -7.0639781    163.74883  0.029282695  0.030136118            2 
  467000    1.1871823   -7.0336147    164.07293  0.029277825  0.030125163            2 
  468000    1.1768432   -7.0494546    164.42985   0.02927882  0.030113995            3 
  469000    1.1775598   -7.0278201    164.70881  0.029265958  0.030102845            5 
  470000    1.1692969   -7.1036623    164.91118  0.029239571  0.030091787            4 
  471000    1.1750097   -7.0647358    165.39434  0.029262977  0.030080701            2 
  472000    1.1618974    -7.064854    165.36508  0.029195812  0.030068879            2 
  473000    1.1773315   -7.1212123    165.98471  0.029243255  0.030057609            4 
  474000    1.1930115    -7.098166    166.64797  0.029298167   0.03004658            4 
  475000    1.1960056   -7.0970748    166.46095  0.029203675  0.030035723            7 
  476000    1.1633483   -7.1057014     166.7772  0.029197689  0.030024889            3 
  477000     1.177692   -7.1442432    166.03954  0.029007606  0.030013521            6 
  478000    1.1787019   -7.0587518    167.02328  0.029118424  0.030001622            3 
  479000    1.1548748   -7.1117787    166.39122  0.028947672  0.029989522            2 
  480000    1.1744403   -7.1047686    166.94118  0.028982844  0.029977236            2 
  481000    1.1732958   -7.1102442    167.67273  0.029049329  0.029964809            1 
  482000     1.169565   -7.0489307    167.81163  0.029013075  0.029952079            2 
  483000     1.146146    -7.090403    168.28223    0.0290342  0.029939969            2 
  484000    1.1576599   -7.0943125    168.89533  0.029079774  0.029928015            2 
  485000    1.1704546   -7.0897769    169.11097  0.029056868   0.02991639            2 
  486000    1.1637887    -7.053792    169.57201  0.029076133  0.029904098            9 
  487000    1.1635936   -7.1019473    169.27639  0.028965843  0.029892093            2 
  488000    1.1922741   -7.0389511    170.01082  0.029031902   0.02988009            2 
  489000    1.1734079    -7.079213    169.91962   0.02895699  0.029868131            3 
  490000    1.1825641   -7.0648117    170.11302  0.028930786  0.029855808            4 
  491000    1.1918371   -7.0496221    170.33112   0.02890888  0.029844111            1 
  492000    1.1927351   -7.1000884    171.20373  0.028997923  0.029832373            1 
  493000    1.1926047   -7.0686998    172.05531  0.029083048  0.029821429            2 
  494000    1.1645963   -7.0836169    171.68681  0.028962013    0.0298106            1 
  495000    1.1561315   -7.0627325    172.12671   0.02897756  0.029800192            2 
  496000    1.2009891    -7.070554      173.189  0.029097615  0.029789804            2 
  497000    1.1928706   -7.0978034    173.54696  0.029099087  0.029779311            3 
  498000    1.1798099   -7.0748328    173.69697  0.029065759  0.029768797            5 
  499000    1.1558707   -7.1186851    173.61611  0.028994007  0.029758747            1 
  500000    1.1439745   -7.0900156    174.63049  0.029105082  0.029747998            2 
  501000    1.1391217   -7.1239939    174.87705  0.029087999  0.029737808            2 
  502000    1.1658208   -7.0877045    174.60589  0.028985041  0.029727842            3 
  503000    1.1727036   -7.0853366    175.52502  0.029079692  0.029718314            3 
  504000    1.1797076   -7.0961675     175.8958    0.0290833  0.029708526            2 
  505000     1.166407    -7.113137    175.96463  0.029037067  0.029699187            2 
  506000    1.1877403   -7.0902706     176.0349  0.028991256  0.029689429            1 
  507000    1.1792615   -7.1130683    176.59585  0.029026273  0.029679582            4 
  508000    1.1702124   -7.1237317    177.06844  0.029046661  0.029670108            2 
  509000    1.1667501   -7.1259277    177.15222  0.029003311    0.0296612            2 
  510000    1.1568669   -7.0714581    178.79686  0.029215173   0.02965254            2 
  511000    1.1523939   -7.1084175    179.13747  0.029213548  0.029644355            2 
  512000     1.171414   -7.0586534     179.1932   0.02916556  0.029636526            5 
  513000    1.1666077   -7.1582199    178.74525   0.02903594  0.029628549            1 
  514000    1.1787154   -7.0680892    179.16273  0.029047136  0.029619612            4 
  515000     1.185568   -7.1024326    179.14638  0.028988088   0.02961111            3 
  516000     1.175696   -7.0283553     180.2269  0.029106412  0.029603322            2 
  517000    1.1510957   -7.0807683    180.59243  0.029109032  0.029595354            2 
  518000    1.1741673   -7.0655795    180.36986   0.02901703  0.029586477            1 
  519000    1.1677283   -7.1263879    180.40123  0.028966157  0.029577395            2 
  520000    1.1496096   -7.1102622    180.98434  0.029003901  0.029568675            2 
  521000    1.1643554   -7.0681937    181.91248  0.029096686  0.029560513            5 
  522000    1.1606345   -7.1102658    180.91134  0.028881121  0.029551854            4 
  523000    1.1650357   -7.1275744    181.61656  0.028938266  0.029542501            3 
  524000    1.1577488   -7.1272044    181.43366  0.028853954  0.029533089            1 
  525000    1.1798524   -7.1142306    182.23451  0.028926113   0.02952327            5 
  526000    1.1733203   -7.1237712    182.32347  0.028885213  0.029513721            2 
  527000    1.1647912   -7.0442416    182.39753  0.028842114  0.029504077            2 
  528000    1.1568033   -7.1499771    181.84551  0.028700364  0.029494162            4 
  529000    1.1573266   -7.0669655     183.2695  0.028870431  0.029484164            2 
  530000    1.1852273   -7.1299258    182.88288   0.02875517    0.0294745            2 
  531000     1.167537   -7.0959033    183.75746   0.02883827  0.029464994            5 
  532000    1.1669602   -7.1255713    183.93321  0.028811593  0.029454967            2 
  533000    1.2001335    -7.093346    184.34046   0.02882121  0.029445191            2 
  534000    1.1630716    -7.096617    184.38659  0.028774437  0.029435462            1 
  535000    1.1797709   -7.0798971     184.9313  0.028805499  0.029425463            1 
  536000    1.1730368   -7.1160371    185.68159  0.028868407  0.029415546            2 
  537000    1.1689564   -7.0908925    185.62002  0.028805094  0.029405841            4 
  538000    1.1870317   -7.0605951    186.25104  0.028849294  0.029396414            3 
  539000    1.1869259   -7.0798878    186.40162  0.028819051  0.029386597            3 
  540000    1.1661804   -7.0611549    186.58044  0.028793278  0.029376736            3 
  541000    1.1646811   -7.1591329    186.08065   0.02866307   0.02936738            2 
  542000     1.155072   -7.1220764    186.60347   0.02869057  0.029357225            2 
  543000    1.1660028   -7.1369834    185.95454  0.028538143   0.02934664            5 
  544000    1.1737795   -7.1115721     187.2023  0.028676823  0.029336042            6 
  545000    1.1750797   -7.0908795    188.65308  0.028846037    0.0293263            3 
  546000    1.1769486   -7.1166214    188.16535  0.028718765  0.029316531            3 
  547000    1.1687755   -7.1133478    188.67785  0.028744341   0.02930634            4 
  548000    1.1868329   -7.0929849    188.09885  0.028603839  0.029296257            1 
  549000    1.1600445   -7.1170845    188.43003  0.028602008  0.029286271            1 
  550000    1.1767305   -7.1548821    188.61503  0.028578035   0.02927598            3 
  551000    1.1628538   -7.0918416    189.86521  0.028715246  0.029266161            4 
  552000    1.1654674   -7.1112619    189.56307  0.028617613  0.029256424            3 
  553000    1.1821638    -7.118055    190.33728  0.028682531  0.029246747            2 
  554000    1.1353309   -7.0805866    190.24019  0.028616154  0.029237538            2 
  555000    1.1403698   -7.1182377    190.50712  0.028604673  0.029228033            2 
  556000    1.1580273   -7.0806687    191.10662  0.028643078  0.029218362            2 
  557000    1.1928381   -7.0823009    191.97463  0.028721518  0.029209122            5 
  558000     1.156022   -7.0590933    192.62866  0.028767721  0.029200051            4 
  559000     1.148891   -7.1121521    191.84358  0.028599221  0.029190653            2 
  560000    1.1705305   -7.1466332    192.33966  0.028621973  0.029180726            2 
  561000    1.1570749   -7.1099749    191.87524  0.028501967  0.029170597            2 
  562000    1.1552717   -7.0573298    192.86992  0.028598742  0.029160811            3 
  563000    1.1694469   -7.1473234    192.67528  0.028519135  0.029150675            2 
  564000    1.1421488   -7.1036315     193.2357  0.028551374  0.029140531            4 
  565000    1.1591241   -7.0899261    192.98046  0.028463194  0.029130033            2 
  566000    1.1860497   -7.0968765    193.76883  0.028528979  0.029119168            2 
  567000    1.1505422   -7.0703941    194.38691  0.028569505  0.029108633            2 
  568000    1.1629749   -7.1413803    193.44076  0.028380394  0.029098179            4 
  569000    1.1295233   -7.1431049     194.3019  0.028456634  0.029088084            3 
  570000    1.1954466   -7.1047922    194.98946  0.028507232  0.029077854            2 
  571000    1.1637202   -7.0923901    194.93299  0.028449065  0.029067994            1 
  572000    1.1659246   -7.1502183    195.14602  0.028430364  0.029058065            2 
  573000    1.1444621   -7.1103176    195.63242  0.028451487  0.029047997            5 
  574000     1.137543    -7.163127    195.72891  0.028415928   0.02903829            2 
  575000    1.1533737   -7.1091887    196.03186  0.028410415  0.029028518            6 
  576000    1.1576915   -7.1032088    197.06246  0.028510194  0.029018597            2 
  577000    1.1338069   -7.1356865    196.89326  0.028436346  0.029009245            3 
  578000    1.1483239     -7.09268    197.65432  0.028496874  0.028999654            3 
  579000    1.1359818   -7.1087836    198.69134  0.028596911  0.028990312            3 
  580000    1.1576449   -7.0833483    198.27901  0.028488364  0.028981051            3 
  581000    1.1528349   -7.1129449    197.86731   0.02838028  0.028971949            6 
  582000    1.1611872   -7.0984314    199.06141  0.028502492  0.028963015            4 
  583000    1.1532794   -7.1546192    198.27179  0.028340736  0.028953389            6 
  584000    1.1714406   -7.1577574    198.41451  0.028312573  0.028943656            3 
  585000    1.1946771   -7.1025896    198.95246  0.028340806  0.028933827            4 
  586000     1.153531   -7.1462382    199.41985  0.028358909  0.028924194            3 
  587000    1.1492589   -7.1679399    199.37421  0.028304119  0.028914566            2 
  588000    1.1727504   -7.1312799    200.43617  0.028406487  0.028905398            2 
  589000    1.1495394   -7.0917093    201.89008  0.028563962  0.028896447            2 
  590000    1.1501716   -7.1285941    200.91336  0.028377594  0.028887623            1 
  591000    1.1487863   -7.1554499    201.02462  0.028345265  0.028878278            3 
  592000    1.1465007    -7.146254    201.46216  0.028358975   0.02886846            2 
  593000      1.16577   -7.1230081    202.08164  0.028398207  0.028859259            6 
  594000    1.1770003    -7.144712    201.78706  0.028309072  0.028850285            3 
  595000    1.1516242   -7.1064197    202.91724  0.028419781  0.028841232            2 
  596000    1.1437538   -7.0999425    202.99043  0.028382331  0.028832287            2 
  597000    1.1729428   -7.1237457    202.49964  0.028266282  0.028823002            4 
  598000    1.1420003   -7.1640929    202.24678  0.028183776  0.028813434            2 
  599000     1.167559   -7.0956247    203.15629  0.028263257  0.028803738            2 
  600000    1.1460581   -7.1614999    203.79975   0.02830552  0.028794233            3 
  601000    1.1606358   -7.1637812    203.64943  0.028237581  0.028784962            2 
  602000    1.1547526   -7.1232185    203.71689  0.028200013  0.028775652            2 
  603000    1.1755618   -7.1617062    203.82198   0.02816777  0.028765902            6 
  604000    1.1722453    -7.155564    204.43746  0.028206051  0.028756242            2 
  605000    1.1755758   -7.1035277     204.9729  0.028233181  0.028746753            5 
  606000    1.1368019   -7.1257726    205.30733  0.028232581  0.028736805            1 
  607000    1.1589909    -7.134466    205.00763  0.028144924  0.028726629            2 
  608000    1.1335286   -7.1578599    204.95877  0.028091936   0.02871666            3 
  609000    1.1381338   -7.1234488    205.87101  0.028170636  0.028706237            3 
  610000    1.1503576   -7.1742228    205.57614  0.028084172  0.028695998            2 
  611000    1.1398668   -7.1376683     206.0146  0.028098009  0.028685647            3 
  612000    1.1627585    -7.102376    207.75083  0.028288512   0.02867574            4 
  613000    1.1530093   -7.1183851    207.28001   0.02817836  0.028666271            2 
  614000    1.1508317   -7.1479411    207.04415  0.028100454  0.028656849            8 
  615000    1.1583154   -7.1125277     207.5731  0.028126436   0.02864743            2 
  616000    1.1659046   -7.1285669    208.62359  0.028222888   0.02863839            2 
  617000    1.1522171    -7.135648    208.05555  0.028100426  0.028628729            1 
  618000    1.1755251   -7.1396022    208.89993  0.028168815  0.028619543            6 
  619000    1.1482137   -7.1204429     209.3116  0.028178729  0.028610882            2 
  620000    1.1569741   -7.1626751    209.24672  0.028124559   0.02860187            2 
  621000    1.1418191   -7.1022792    209.82678  0.028157109  0.028592382            2 
  622000    1.1722698   -7.1334118    209.63937  0.028086732  0.028583287            3 
  623000    1.1422312   -7.1236004    210.10153  0.028103468  0.028573765            3 
  624000    1.1635799   -7.1503219    209.92026  0.028034222   0.02856425            2 
  625000    1.1624992   -7.1558168    210.53203  0.028070937  0.028554725            2 
  626000     1.160404   -7.1247824    211.31708  0.028130602  0.028545479            2 
  627000    1.1513567   -7.1212886    211.88473  0.028161181  0.028536443            3 
  628000    1.1242787   -7.1359252    211.52571  0.028068698  0.028527342            2 
  629000    1.1504597   -7.1168683    212.78379  0.028190751  0.028518358            3 
  630000     1.151277   -7.1319977    212.04887  0.028048793  0.028509683            3 
  631000    1.1459694   -7.1449104    212.25243  0.028031224  0.028500974            2 
  632000    1.1528589   -7.1382351    212.59683  0.028032282  0.028492041            1 
  633000    1.1322285   -7.1478821     213.3248  0.028083834  0.028483377            4 
  634000    1.1510453   -7.1491468    212.87904  0.027980946  0.028474763            5 
  635000    1.1713192   -7.1496656    213.70821  0.028045696  0.028465837            2 
  636000    1.1440032   -7.1902035    213.12582  0.027925291  0.028456954            2 
  637000    1.1422657   -7.1523945    213.73384  0.027960995  0.028448034            4 
  638000    1.1608431   -7.1595318    214.01291  0.027953619  0.028438979            2 
  639000    1.1487847   -7.1438182    214.41643  0.027962497  0.028429926            5 
  640000    1.1602874   -7.1362179    215.34321   0.02803948  0.028421307           10 
  641000    1.1262464   -7.1580541    215.61699   0.02803133  0.028412717            5 
  642000    1.1450062   -7.1569221    215.86002  0.028019214  0.028404482            3 
  643000    1.1500308   -7.1374243    216.22036  0.028022337  0.028395913            5 
  644000    1.1547853   -7.1445292    216.92863  0.028070475  0.028387649            3 
  645000    1.1684639   -7.1690811    216.72471  0.028000608  0.028379521            1 
  646000    1.1373464   -7.1755209    216.53141  0.027932328  0.028370832            1 
  647000    1.1320051   -7.1558492    216.83563  0.027928339  0.028362027            3 
  648000    1.1366954   -7.1477526    217.31556   0.02794696  0.028353138            2 
  649000    1.1420121   -7.1691893    217.46285  0.027922811  0.028344287            4 
  650000    1.1354776   -7.1833099    217.99204  0.027947697   0.02833558            2 
  651000    1.1184986   -7.1601538    217.91385  0.027894758  0.028326796            2 
  652000    1.1602845   -7.1408964    218.66323  0.027947754  0.028318383            4 
  653000    1.1433546   -7.1483112    218.95989  0.027942814  0.028309464            1 
  654000    1.1555953   -7.1371226    218.72576  0.027870254  0.028300804            3 
  655000     1.170218   -7.1811321    218.48328  0.027796855  0.028292101            2 
  656000    1.1738129   -7.1056734    220.12493  0.027963024  0.028283376            5 
  657000    1.1108618    -7.146837    220.19195  0.027928963  0.028274812            4 
  658000    1.1478078   -7.2005356    219.54461  0.027804536  0.028265813            4 
  659000     1.142195   -7.1514384    220.10214  0.027832845  0.028256676            2 
  660000    1.1519475   -7.1505326    220.35741  0.027822905  0.028247407            1 
  661000    1.1411998   -7.1537323    221.24785  0.027893072  0.028238245            3 
  662000    1.1365018   -7.1494915    221.21203  0.027846429  0.028228758            6 
  663000    1.1313549   -7.1711854    220.60863  0.027728586  0.028219517            2 
  664000     1.149408   -7.1517128    221.23071  0.027764899   0.02821048            2 
  665000    1.1360629   -7.1224621    222.00804  0.027820556  0.028201488            5 
  666000    1.1519065   -7.1261576    222.69389  0.027864601  0.028192857            2 
  667000    1.1391158   -7.1786164    222.44025  0.027791135  0.028184343            5 
  668000    1.1225837   -7.0868344    223.74671  0.027912514  0.028175861            3 
  669000    1.1434864   -7.1533521    223.97328  0.027899013  0.028167547            3 
  670000    1.1670402   -7.1923065    222.75356  0.027705666  0.028159417            2 
  671000    1.1578742   -7.1304976    224.78578  0.027916763  0.028151328           10 
  672000    1.1591644   -7.1974565    224.55099  0.027846105   0.02814352            2 
  673000     1.143854   -7.1920344    224.44518  0.027791627  0.028134863            3 
  674000    1.1565277   -7.2221856    223.75079  0.027664539  0.028126305            4 
  675000    1.1612134   -7.1705866     224.3051  0.027691988  0.028117652            5 
  676000    1.1571116   -7.1536538    225.40111  0.027786133  0.028109341            2 
  677000    1.1398574   -7.1952416    225.49521  0.027756673  0.028100463            4 
  678000    1.1082525   -7.1214828    226.41889  0.027829264  0.028092055            4 
  679000    1.1491408   -7.1318314    227.05973  0.027866928  0.028083928            4 
  680000    1.1596099   -7.1333303    227.09147  0.027829836  0.028075856            4 
  681000    1.1128245   -7.1560183    227.34426  0.027819904  0.028067831            1 
  682000    1.1561573   -7.1648137     226.7077  0.027701332   0.02805991            2 
  683000    1.1633107   -7.2079076    226.59672  0.027647233  0.028052151            4 
  684000    1.1206694   -7.1618989    226.92901  0.027647296  0.028043924            3 
  685000    1.1409213   -7.1992133    227.81789  0.027715072  0.028035668            1 
  686000    1.1724792   -7.1376591    227.98447  0.027694907  0.028027347            3 
  687000    1.1597378    -7.145236    229.06498   0.02778566  0.028019339            4 
  688000    1.1358302    -7.174551     228.2537  0.027647009  0.028011444            3 
  689000     1.136543    -7.133344    229.55622   0.02776442  0.028003134            2 
  690000    1.1370654   -7.1509574    228.99144  0.027655971  0.027995022            3 
  691000    1.1243291   -7.1722634    229.37101  0.027661723   0.02798702            2 
  692000    1.1428611    -7.158591     230.3776  0.027742968  0.027979028            3 
  693000    1.1237579   -7.1259159    230.77529  0.027750756  0.027971479            2 
  694000     1.128164   -7.1853907     230.4891  0.027676404  0.027964372            4 
  695000    1.1520375   -7.1808374    230.59903  0.027649764  0.027956303            6 
  696000    1.1438181   -7.1591293    230.88715  0.027644534  0.027948379            2 
  697000    1.1276485    -7.164566    230.73347  0.027586498  0.027940413            2 
  698000    1.1223297   -7.1634112     231.7633  0.027669926  0.027932631            3 
  699000    1.1718582   -7.1884302    230.82383  0.027518339  0.027924066            4 
  700000    1.1357772   -7.2069278    231.17323  0.027520623  0.027915383            5 
  701000     1.154389   -7.2032903    231.88078  0.027565475  0.027907107            2 
  702000     1.163947   -7.1986458    232.24013  0.027568867  0.027898655            2 
  703000    1.1317522   -7.1942958    232.71085  0.027585449  0.027890067            3 
  704000    1.1245926   -7.1929097    232.09481  0.027473344  0.027881516            2 
  705000    1.1356693   -7.1468255    233.96043  0.027654897  0.027873484            4 
  706000    1.1383818   -7.1673743    233.67889  0.027582494  0.027865506            3 
  707000    1.1486936   -7.2057082    232.86599  0.027447665  0.027857495            2 
  708000    1.1235083   -7.2096153    233.82992  0.027522354  0.027849089            2 
  709000    1.1199971   -7.1759984    233.95479  0.027498212   0.02784029            3 
  710000    1.1344793   -7.1547851    233.68725  0.027428081  0.027831769            4 
  711000    1.1317788   -7.1600629    233.94139  0.027419291  0.027823533            2 
  712000     1.125447   -7.1562782    234.91276  0.027494471  0.027815176            3 
  713000    1.1282835   -7.1651993    234.88934  0.027453172  0.027806594            3 
  714000    1.1461073   -7.2186648    235.08727  0.027437823  0.027797961            2 
  715000     1.133037   -7.2186933    234.33026  0.027311219  0.027788991            3 
  716000    1.1433781     -7.16302    234.94858  0.027345039  0.027779993            2 
  717000    1.1285631   -7.1472832    235.76139   0.02740137  0.027771022            2 
  718000    1.1434079   -7.1780153    236.11636  0.027404406  0.027762084            4 
  719000    1.1384646   -7.1613746    236.33419  0.027391538  0.027753208            2 
  720000    1.1400786   -7.1893939    237.22923  0.027457087  0.027744406            2 
  721000    1.1578274   -7.1471244     236.7746  0.027366459  0.027736031            2 
  722000    1.1393993   -7.1584872    237.17948  0.027375286  0.027727449            3 
  723000    1.1296101   -7.1602238    238.47149  0.027486341  0.027719133            1 
  724000    1.1283716   -7.1886225    238.65867  0.027469921  0.027711085            2 
  725000    1.1649936   -7.1727012    239.20495  0.027494822  0.027703254            2 
  726000    1.1293422    -7.240244    238.45238  0.027370567  0.027695429            3 
  727000    1.1305899   -7.2029856    239.25962  0.027425449    0.0276872            3 
  728000    1.1111211   -7.1736047    239.80413  0.027450107  0.027679394            2 
  729000     1.135362    -7.166054    239.64814  0.027394621   0.02767165            2 
  730000    1.1594724   -7.1676482    240.33652  0.027435676  0.027663887            3 
  731000    1.1313666   -7.1600872    240.21113   0.02738385  0.027656163            2 
  732000    1.1485475   -7.1541129    241.44048  0.027486393   0.02764861            2 
  733000    1.1272485   -7.1618497    241.60008  0.027467039   0.02764087            2 
  734000    1.1340497   -7.2019038    240.60446  0.027316583  0.027633136            4 
  735000    1.1102102   -7.1732934     241.9875  0.027436225  0.027625212            1 
  736000     1.115248   -7.2070404    242.74925  0.027485195  0.027617657            3 
  737000    1.1410864    -7.204606    241.43764  0.027299597  0.027609833            5 
  738000    1.1386723    -7.203557    241.32772  0.027250194  0.027601703            4 
  739000    1.1443713   -7.1467591    242.88435  0.027388854  0.027593864            3 
  740000    1.1307131   -7.1968307    242.35629  0.027292375  0.027586061            9 
  741000    1.1353448   -7.1597862    243.90603  0.027429828  0.027578403            1 
  742000    1.1094106   -7.1623575    243.65352  0.027364502  0.027570802            5 
  743000    1.1120388   -7.1973726    243.95435  0.027361412  0.027563159            3 
  744000    1.1413348   -7.1791885    243.79236  0.027306492  0.027555504            3 
  745000    1.1351274   -7.2005246    244.71559  0.027373108  0.027548281            2 
  746000    1.1254379    -7.171929    246.00584  0.027480545  0.027541004            8 
  747000    1.1172705   -7.2194608    245.14933  0.027348207   0.02753421            4 
  748000    1.1025986   -7.1935958    246.25344  0.027434653  0.027527257            3 
  749000    1.1219576   -7.1827081    245.83933  0.027351951  0.027520448            3 
  750000    1.1284126     -7.20256    245.89382  0.027321535  0.027513215            4 
  751000    1.1346785   -7.1808893    246.65601   0.02736973  0.027506035            2 
  752000    1.1348287   -7.1792083    247.01927   0.02737359  0.027498862            2 
  753000    1.1324732   -7.2110469    246.24368  0.027251403  0.027491666            2 
  754000    1.1402676   -7.1901807     247.6261  0.027368048  0.027484416            3 
  755000    1.1319444   -7.1437151    247.97617  0.027370438  0.027477205            3 
  756000    1.1215103   -7.1717026    248.15655  0.027354117  0.027469916            2 
  757000    1.1330926   -7.1912551    247.63336  0.027260387   0.02746314            5 
  758000    1.1180321   -7.2139378    248.72645  0.027344596  0.027456364            2 
  759000    1.1144152   -7.2162751     248.7429  0.027310375  0.027449197            2 
  760000    1.1369902   -7.2072987     248.9144  0.027293246  0.027442375            3 
  761000    1.1172562   -7.2132662    249.00766  0.027267593  0.027435433            2 
  762000    1.1002931   -7.2207481    249.66934  0.027304171  0.027428367            3 
  763000    1.1303412   -7.1774777    250.44864  0.027353499  0.027421483            3 
  764000    1.1327405   -7.1874962    250.55351  0.027329136  0.027414925            2 
  765000    1.1316449   -7.1811708    251.41046  0.027386761  0.027408167            4 
  766000    1.1071759   -7.2427021    249.76647  0.027172157   0.02740123            3 
  767000    1.1497933   -7.2505576    249.89999  0.027151238  0.027393871            3 
  768000    1.1097775   -7.1945324    251.07727  0.027243628  0.027386733            2 
  769000    1.1390954    -7.171697    251.37257    0.0272402  0.027379642            2 
  770000    1.1524182   -7.1993271    252.01827  0.027274704  0.027372566            7 
  771000    1.1205914   -7.2049085    252.31544  0.027271449  0.027365724            3 
  772000    1.1213038   -7.2277301    252.03274  0.027205607  0.027358748            5 
  773000    1.1279516   -7.2234115    252.87369   0.02726107  0.027351443            3 
  774000    1.1321655   -7.1648189    253.62203   0.02730642  0.027344862            4 
  775000    1.1140841   -7.2508382    252.79389  0.027182139  0.027337724            4 
  776000    1.1553124   -7.2316034     253.3243   0.02720407  0.027330673            9 
  777000    1.1069397   -7.2283627    254.47646  0.027292627  0.027323723            2 
  778000     1.111645   -7.1613096    254.27744  0.027236229  0.027316891            4 
  779000    1.1127331   -7.2121927    254.83148  0.027260535  0.027310179            2 
  780000    1.1166054   -7.2104268    255.55364   0.02730274  0.027303954            2 
  781000    1.1235809   -7.1863511    256.14333  0.027330701  0.027298098            4 
  782000    1.1268058   -7.2347354    256.06926  0.027287858  0.027292092            2 
  783000     1.139748   -7.2238116     255.8011  0.027224468  0.027286404            3 
  784000    1.1437251   -7.2079299    256.41337  0.027254823  0.027280864            2 
  785000    1.1291314   -7.2336293     257.0369  0.027286295  0.027274773            3 
  786000     1.167806   -7.1857522    258.23028  0.027378104  0.027269062            4 
  787000    1.1208236   -7.2470915    256.94345  0.027207058  0.027263412            3 
  788000    1.1201486   -7.2252079    257.43461  0.027224472  0.027257705            4 
  789000    1.1605752   -7.1974293    258.69668  0.027323266   0.02725219            2 
  790000    1.1299874   -7.2189744    257.52581   0.02716517  0.027246565            4 
  791000    1.1191491   -7.2030606    259.59205  0.027348509  0.027240983            2 
  792000    1.1191525   -7.2082289    258.88403  0.027239481  0.027235114            4 
  793000    1.1050663   -7.1920579    259.48769  0.027268568   0.02722924            3 
  794000    1.0942745   -7.2506408    259.22119  0.027206254  0.027223131            3 
  795000    1.1465033   -7.2169031    259.98461  0.027252055  0.027217016            2 
  796000    1.1162947   -7.2278651    259.45746  0.027162632  0.027211022            2 
  797000    1.1243695   -7.2625516    259.59597  0.027143033  0.027205101            2 
  798000    1.1124992   -7.1897676    260.78793  0.027233493  0.027198801            2 
  799000    1.1156377   -7.2531855    260.85475  0.027206378  0.027192915            7 
  800000    1.1116894   -7.2563706    260.38303  0.027123233  0.027186604            4 
  801000    1.1102959   -7.1992064     261.0407  0.027157792  0.027180514            2 
  802000    1.1244568   -7.1749134    262.06866  0.027230742  0.027175072            7 
  803000    1.1338883   -7.1871535    262.64328  0.027256464  0.027169356            3 
  804000    1.1530232    -7.234583    263.07669  0.027267485  0.027163836            3 
  805000    1.1211998   -7.2001777      263.632  0.027291098  0.027158391            7 
  806000    1.1290169   -7.2071471    263.50459  0.027244064  0.027153064            4 
  807000    1.1226942   -7.2272208    263.33819  0.027193121  0.027147452            4 
  808000    1.1178612   -7.2291825    263.25622  0.027151013  0.027141915            4 
  809000    1.1181957   -7.2418498    263.26206  0.027118053   0.02713661            2 
  810000    1.1313745   -7.1892832    264.44695  0.027206477  0.027131461            3 
  811000    1.1288943   -7.2117235    265.00367  0.027230135  0.027126155            4 
  812000    1.1179514   -7.1894999    264.73441  0.027168966   0.02712084            3 
  813000    1.1247559    -7.236054    265.31226  0.027194779  0.027115296            1 
  814000    1.1160249   -7.1798738    265.14739  0.027144491   0.02710962            4 
  815000    1.1155599   -7.2167834    265.72079  0.027169815  0.027104158            4 
  816000    1.1406955   -7.2347224    265.88329  0.027153113  0.027098588            2 
  817000    1.1165166   -7.1491252    266.80055  0.027213438   0.02709337            5 
  818000    1.1415587   -7.2407903    266.16689  0.027115616  0.027088296            2 
  819000    1.1140091   -7.2257016    267.08651   0.02717608  0.027082916            5 
  820000    1.1206406   -7.2430307    266.47095  0.027080381  0.027077805            3 
  821000    1.1257748   -7.1890372    268.99463  0.027303556  0.027072402            2 
  822000    1.1297049   -7.2286532    267.82119  0.027151378  0.027067273            2 
  823000    1.1289178   -7.2246265     269.0184  0.027239611  0.027062228            3 
  824000    1.1338033   -7.1621708     268.5791  0.027162125  0.027057027            5 
  825000    1.1136691   -7.2302238    269.32412  0.027204457  0.027052238            6 
  826000    1.1174873   -7.2507049    268.35245  0.027073492  0.027047019            3 
  827000    1.1391142   -7.2394761    268.98742  0.027104738   0.02704154            1 
  828000    1.1103734    -7.232293    268.36592  0.027009453  0.027036183            7 
  829000    1.1021191   -7.1840665     270.5059  0.027191988  0.027030939            2 
  830000    1.0991833   -7.2065432    269.59469   0.02706774    0.0270257            2 
  831000    1.0982457   -7.1941604    270.39555  0.027115478  0.027020409            2 
  832000    1.1173355   -7.2342903    270.00035  0.027043304  0.027015102            2 
  833000    1.1321099   -7.2377617    270.46606  0.027057429  0.027009759            3 
  834000    1.1312722   -7.2671896    270.32463  0.027010854  0.027004133            3 
  835000    1.1136229    -7.238841    271.05203  0.027051101  0.026998571            3 
  836000    1.1178615   -7.2409364    271.61827  0.027075186  0.026993287            5 
  837000    1.1310436   -7.2353701    272.46174  0.027126816  0.026988426            3 
  838000    1.1195145   -7.1756947    274.84384  0.027331329  0.026983823            2 
  839000     1.120331   -7.1873203    273.81461  0.027196525  0.026979162            2 
  840000    1.1129969   -7.2155626    273.44584  0.027127564  0.026974447            3 
  841000    1.1182717   -7.2025503    274.46587   0.02719638  0.026969694            3 
  842000    1.1005968   -7.2187094     273.4499  0.027063529  0.026964732            2 
  843000    1.1063796   -7.2212364    273.34663  0.027021217  0.026959421            1 
  844000    1.1217336   -7.2330064    273.15762  0.026970539  0.026954267            2 
  845000    1.1178801   -7.2423847    274.24312  0.027045673  0.026949157            4 
  846000    1.1184032   -7.2361504    273.51627  0.026942107  0.026943905            2 
  847000    1.0666619   -7.1911145    274.20389   0.02697795  0.026938502            3 
  848000    1.0948743    -7.217552    274.58143  0.026983238  0.026933005            2 
  849000    1.1368187   -7.2590138    274.40908  0.026934538   0.02692746            3 
  850000    1.1044095   -7.2504352    275.05089  0.026965773  0.026921901            5 
  851000    1.1040616   -7.2017307    276.53425  0.027079343  0.026916622            3 
  852000    1.1235162   -7.2255934    274.64169   0.02686245  0.026911082            2 
  853000    1.1123561   -7.2029724    275.71368  0.026935686  0.026905342            6 
  854000    1.1118542   -7.2385955    276.13748  0.026945499  0.026899545            7 
  855000    1.1121684   -7.2522501    276.14873  0.026915081  0.026893779            4 
  856000    1.0810828   -7.2182612    276.35899  0.026904108   0.02688788            3 
  857000    1.1126366   -7.2645705    276.23468  0.026860627  0.026882211            3 
  858000    1.1324849   -7.2297554    277.46203  0.026948526  0.026876302            4 
  859000    1.1063197   -7.2527328    277.13082  0.026885023  0.026870565            3 
  860000    1.0921829   -7.2602394    277.81704  0.026920256  0.026865238            4 
  861000    1.1101161   -7.2527827    278.43792  0.026949082  0.026859904            2 
  862000    1.1166845   -7.2293913    278.32218   0.02690663  0.026854446            7 
  863000    1.1330536   -7.2312806    278.73119  0.026914947  0.026849055            3 
  864000     1.113881   -7.2353225    278.96278  0.026906132  0.026843651            1 
  865000    1.1158681   -7.2646216    279.07684  0.026886015  0.026837884            3 
  866000    1.1395383   -7.2396966    279.61467  0.026906723  0.026832221            3 
  867000    1.1022292   -7.2514391    278.58292  0.026776521    0.0268265            8 
  868000    1.1301293   -7.2402536    279.55336   0.02683884  0.026820534            4 
  869000    1.1031174   -7.2497195    279.93515  0.026844568  0.026814772            5 
  870000    1.1069486   -7.2808167    280.06607  0.026826252   0.02680906            2 
  871000    1.1414636   -7.2554418     280.8075   0.02686639  0.026803345            2 
  872000     1.107154   -7.2351563    281.25844  0.026878673   0.02679778           11 
  873000     1.086234   -7.2001585    281.57521  0.026878122  0.026792272            3 
  874000    1.1074015   -7.2852586    280.88659  0.026781711  0.026786707            2 
  875000    1.1198886    -7.228928    281.98551  0.026855763  0.026781046            1 
  876000    1.0980758   -7.1955047    282.33389  0.026858246  0.026775551            4 
  877000    1.1062536   -7.2710207    281.10683  0.026711025  0.026769937            2 
  878000    1.1211839   -7.2334792    282.45391  0.026808457  0.026764174            4 
  879000    1.1239645   -7.2891561    282.04123  0.026738834  0.026758588            3 
  880000    1.1382062   -7.2707333    282.67922  0.026768865  0.026752934            2 
  881000    1.1019957   -7.2881371    282.27895   0.02670062  0.026746999            5 
  882000    1.1008967   -7.2727483    283.42778  0.026778891  0.026741058            2 
  883000    1.1084813   -7.2832504    283.52147  0.026757406  0.026735164            5 
  884000    1.1269153   -7.2440749    283.58852  0.026733458  0.026729488            4 
  885000    1.1365908   -7.2139499    283.52069  0.026696864  0.026723815            2 
  886000    1.0954898   -7.2665586    283.23034  0.026639422  0.026717943            3 
  887000    1.0820936   -7.2362746    285.14756  0.026789511  0.026711947            6 
  888000    1.1223368    -7.277542    284.75807  0.026722792  0.026706008            2 
  889000    1.0970839   -7.2952056     285.8441  0.026794535  0.026700262            3 
  890000    1.1046153   -7.2298972    285.19865  0.026703994  0.026694559            1 
  891000    1.1252547   -7.2920788     284.2864  0.026588702  0.026688734            3 
  892000    1.1004821   -7.2604373    284.79339  0.026606259  0.026682511            3 
  893000    1.1006687   -7.2731763    285.39715  0.026632806  0.026676364            2 
  894000    1.1115568    -7.271545    284.85846  0.026552802   0.02667025            2 
  895000    1.0997166   -7.2887312    285.66937  0.026598638  0.026663951            3 
  896000    1.1116378     -7.26045    286.04241  0.026603647  0.026657765            2 
  897000    1.1199083    -7.273167    285.86388  0.026557403  0.026651518            3 
  898000    1.0940671   -7.2453801    286.28536  0.026566941  0.026645145            3 
  899000    1.1151695   -7.2756463    286.34784  0.026543182   0.02663879            2 
  900000    1.1080738   -7.2664426    287.21616  0.026594089  0.026632478            4 
  901000    1.1224684   -7.2774784    286.96439  0.026541286  0.026626253            2 
  902000    1.0967648   -7.2412039    288.04194  0.026611413  0.026619789            3 
  903000    1.1131157   -7.2600677    287.58774  0.026540028  0.026613548            3 
  904000    1.1037807   -7.2817874    288.22874  0.026569758  0.026607179            3 
  905000    1.1140752   -7.2785952    288.36028  0.026552512  0.026600793            2 
  906000    1.0946074   -7.2904506    288.48055  0.026534267  0.026594384            3 
  907000    1.0801487   -7.2723771    289.20053  0.026571162  0.026587954            4 
  908000    1.1074667   -7.2753255    288.77081  0.026502461  0.026581665            3 
  909000    1.1006469   -7.2402177    290.29324  0.026612875  0.026575567            5 
  910000    1.1167611    -7.285712    289.23337  0.026486572  0.026569584            4 
  911000    1.1041996   -7.3003176    289.15028  0.026449898  0.026563312            3 
  912000    1.1223965   -7.2209446     291.1733  0.026605748  0.026557167            3 
  913000    1.1094695   -7.2663726    290.08061  0.026476872  0.026550855            3 
  914000    1.0943726   -7.2498445    291.24964  0.026554489  0.026544566            4 
  915000     1.099238   -7.2144913    290.71725  0.026476981  0.026538499            3 
  916000    1.1083004   -7.2429743    291.17659  0.026489865  0.026531997            2 
  917000    1.1208699   -7.2208237    291.55908  0.026495736  0.026525598            2 
  918000    1.1196271   -7.3040553    290.88929  0.026406072  0.026519107            2 
  919000    1.0847679   -7.3073286    291.40792  0.026424367  0.026512555            2 
  920000     1.112218    -7.255022    291.88715  0.026439053   0.02650608            6 
  921000    1.0862262   -7.2526759    291.59535  0.026383944  0.026499643            3 
  922000    1.1032967   -7.2172741    293.85473  0.026559538  0.026493567            3 
  923000    1.0998325   -7.2429284    293.41025  0.026490633  0.026487281            4 
  924000    1.1001465   -7.2569714    293.54352  0.026473983   0.02648118            1 
  925000    1.0991707    -7.289449    292.47484  0.026349084  0.026474548            4 
  926000    1.1244568   -7.3023306    292.08245  0.026285318  0.026467793            2 
  927000    1.1145203   -7.2491956    293.50616  0.026384948  0.026461301            3 
  928000     1.121944   -7.3123602    293.21816  0.026330654  0.026454615            3 
  929000    1.0895825   -7.2851229    293.16624  0.026297653  0.026447984            5 
  930000     1.105966   -7.2702116    294.84151   0.02641949  0.026441235            1 
  931000     1.099866   -7.3372092    293.54576  0.026275131  0.026434449            1 
  932000    1.0849674   -7.3250191    293.88449  0.026277226  0.026427552            7 
  933000    1.1012565   -7.3146221    294.59523  0.026312543  0.026420657            5 
  934000    1.1090873   -7.2834348    295.88324   0.02639929  0.026414206            3 
  935000    1.1226916   -7.2983111    295.72363   0.02635683  0.026408059            1 
  936000    1.1030618   -7.2832194    296.45799  0.026394052  0.026401771            1 
  937000    1.1070824   -7.3026377    296.22665  0.026345308   0.02639543            4 
  938000    1.1005995   -7.3164077    296.03398  0.026300105  0.026388997            4 
  939000    1.1021448   -7.2889524    296.79227  0.026339392  0.026382781            6 
  940000    1.1137806   -7.2594928    297.70068  0.026391904   0.02637674            4 
  941000    1.0944735   -7.3213723    297.19081  0.026318704  0.026370331            3 
  942000    1.1278211   -7.2573042    298.13569  0.026374354   0.02636423            3 
  943000    1.1048826   -7.2841091    297.72522  0.026310112   0.02635795            5 
  944000    1.0915154   -7.2788556    298.01981  0.026308246  0.026351771            3 
  945000    1.0789225   -7.2899663    297.75907  0.026257414  0.026345618            4 
  946000    1.1056444   -7.3025037    297.72947   0.02622705   0.02633918            5 
  947000    1.0795481   -7.2654943    299.56507  0.026360882  0.026332949            1 
  948000    1.0956776   -7.2838372    299.81459  0.026355009  0.026326847            2 
  949000    1.0978555   -7.2724715    299.52146  0.026301498  0.026320576            1 
  950000    1.0810326   -7.3009255    300.00653  0.026316362  0.026314293            3 
  951000    1.0852389   -7.2793487    300.09309  0.026296275  0.026308254            7 
  952000    1.0922478   -7.2906941    300.42267  0.026297503  0.026302184            2 
  953000    1.0999979   -7.2831188    300.72486  0.026296332  0.026296162            3 
  954000    1.1000688   -7.2240915     300.7391  0.026270013  0.026290167            3 
  955000    1.1001242   -7.2515635    300.97349  0.026262957  0.026284053            4 
  956000    1.0811054   -7.2754329    301.66355  0.026295637  0.026277905            4 
  957000    1.1095233   -7.3334175     300.5515  0.026171326  0.026271567            9 
  958000    1.0932501   -7.2866666    301.88458  0.026259967  0.026265203            2 
  959000    1.0814138   -7.2617427    301.73721  0.026219778  0.026258881            5 
  960000    1.0846442   -7.2674516    301.56193  0.026177251  0.026252565            2 
  961000     1.118099   -7.2739036    302.92836  0.026268501  0.026246234            3 
  962000     1.104605   -7.2666167    302.08144  0.026167831  0.026239948            5 
  963000    1.0755358   -7.3081367    301.87612  0.026122891  0.026233335            7 
  964000    1.0995761   -7.2791232    302.23431  0.026126756  0.026226815            2 
  965000    1.0825441   -7.2947614    302.71005  0.026140764  0.026220385            3 
  966000    1.0786359   -7.2816335    303.69507  0.026198677  0.026214133            4 
  967000    1.1104664   -7.2553427    304.53078  0.026243604  0.026207892            3 
  968000     1.098379   -7.2491409    303.56299  0.026133178   0.02620171            2 
  969000    1.1063542   -7.2401897     304.2593   0.02616609  0.026195373            2 
  970000    1.1002064   -7.3194878    303.65509  0.026087207  0.026188897            2 
  971000    1.0767807   -7.2844602    304.49308  0.026132259  0.026182505            3 
  972000    1.1012273   -7.3317961    304.00376  0.026063422  0.026176105            3 
  973000    1.1093106   -7.2469613     303.8994  0.026027698   0.02616964            2 
  974000    1.1158777   -7.2988552    303.97939  0.026007819  0.026163169            7 
  975000    1.0891823   -7.2932828    305.02333   0.02607037   0.02615673            3 
  976000    1.0672843   -7.3235761     304.9314  0.026035809  0.026150225            5 
  977000    1.0838199   -7.2499834    306.22629  0.026119609   0.02614369            2 
  978000    1.1101002   -7.3087744    306.13673   0.02608527  0.026137266           10 
  979000    1.1039626   -7.3468258    304.79527  0.025944439   0.02613048            4 
  980000    1.0835369   -7.3019842    306.26493  0.026042936  0.026123519            6 
  981000    1.0943338    -7.281334    305.84365  0.025980602  0.026116506            3 
  982000     1.109663   -7.3036414    305.46151  0.025921717  0.026109505            2 
  983000    1.0961467   -7.3126183    305.51253  0.025899672  0.026102296            7 
  984000    1.0900566   -7.2661813    306.62204  0.025967314  0.026095262            4 
  985000    1.1211128   -7.3306204    305.84096   0.02587487  0.026088308            2 
  986000    1.0928951   -7.3069542    306.96301  0.025943459  0.026081418            3 
  987000    1.1253583   -7.3185766    306.49239  0.025877439  0.026074552            1 
  988000    1.0827321   -7.2884838    306.91202  0.025886641  0.026067489            2 
  989000     1.078423   -7.2813588     307.1362  0.025879356  0.026060399            4 
  990000    1.1242199   -7.2720506    306.85728  0.025829737  0.026053239            3 
  991000    1.0999951   -7.2762983    307.55859  0.025862646  0.026046094            1 
  992000    1.0911947   -7.3416645      306.786  0.025771673  0.026038616            3 
  993000    1.0730261   -7.2896588    308.26885  0.025870162  0.026031558            3 
  994000    1.0735459   -7.2463865    309.43659  0.025942035  0.026024467            4 
  995000    1.1110632    -7.274821    307.69392   0.02577001  0.026017422            2 
  996000    1.1126557   -7.3172614    308.42212  0.025805064  0.026010177            3 
  997000    1.0696317   -7.3175697    307.74942  0.025722954   0.02600268            2 
  998000    1.0932588   -7.3018678     308.5616  0.025764996  0.025995205            4 
  999000    1.0817786   -7.3526115    308.00852  0.025693069  0.025987767            4 
 1000000    1.0974831   -7.2997179    309.36774  0.025780645  0.025980237            2 
 1001000    1.0823095   -7.3176763    308.88246   0.02571449  0.025972785            4 
 1002000    1.1046864   -7.3180158    309.22582  0.025717383  0.025965437            5 
 1003000    1.1134857   -7.2996984    309.97416  0.025753918  0.025958176            2 
 1004000    1.0836377   -7.3262547    310.45799  0.025768426  0.025950851            7 
 1005000    1.0888081   -7.3350033    310.28301  0.025728276  0.025943367            5 
 1006000    1.1034387    -7.331373    309.91718  0.025672397  0.025935898            2 
 1007000    1.1214539   -7.2854902    311.29198  0.025760674  0.025928464            3 
 1008000    1.0901901   -7.3267298    311.19749  0.025727306  0.025921377            2 
 1009000     1.060601   -7.2680095    312.22371  0.025786563  0.025914219           14 
 1010000    1.0865681   -7.3096555     311.6376  0.025712673  0.025907082            6 
 1011000    1.0772865   -7.2736875    312.34916  0.025745892  0.025899848            8 
 1012000    1.0945775   -7.2772922    312.42627  0.025726801  0.025892491            3 
 1013000    1.0958934   -7.3596664    311.66869  0.025639083  0.025885043            4 
 1014000    1.0836372   -7.3177487    310.92335  0.025552543  0.025877421            6 
 1015000    1.0996442   -7.3720947     311.9402  0.025610854  0.025869754            5 
 1016000    1.0810743   -7.3425755    312.00046  0.025590589  0.025862037            7 
 1017000    1.0806677   -7.3642712    311.97165  0.025563066  0.025854298            3 
 1018000    1.0763159   -7.3371096    312.73245  0.025600233  0.025846696            5 
 1019000    1.0777317   -7.3112013    313.51236  0.025638891  0.025839114            5 
 1020000    1.0704088    -7.322355    313.70403  0.025629414  0.025831714            3 
 1021000    1.1046586   -7.3338151    313.75939   0.02560883   0.02582434            4 
 1022000    1.0871079   -7.2828747     314.4495  0.025640044  0.025816928            6 
 1023000    1.0898815   -7.3350476    314.76183  0.025640422  0.025809417            2 
 1024000    1.0961604   -7.3062363    314.26402  0.025574871  0.025802068            2 
 1025000     1.089575    -7.347588    313.87881  0.025518602    0.0257946            2 
 1026000    1.0717824   -7.3307647    315.48911  0.025624522  0.025787048            4 
 1027000    1.0924293   -7.3464238    315.04655  0.025563661  0.025779612            4 
 1028000    1.0848092   -7.2636569     316.2389  0.025635449  0.025772413            5 
 1029000    1.0867146   -7.3272654    315.22654   0.02552855  0.025765324            3 
 1030000    1.0853789   -7.3494939    316.49101  0.025606069  0.025758011            3 
 1031000    1.0680075   -7.3191127    317.52996  0.025665209  0.025750761            4 
 1032000    1.1039696   -7.3207658    315.94763  0.025512567  0.025743603            3 
 1033000    1.1099099   -7.3413256    316.53269  0.025535067  0.025736276            2 
 1034000    1.0869719   -7.2653489    318.15999   0.02564152  0.025729223            2 
 1035000    1.0821224   -7.3172702    318.17322  0.025617811   0.02572235            4 
 1036000    1.0818073   -7.2871563    317.96833  0.025576603  0.025715276            4 
 1037000    1.1019721   -7.3382606    317.71608  0.025531668  0.025708133            2 
 1038000    1.0820577   -7.3507712    317.70833  0.025506449  0.025701173            2 
 1039000    1.1160941   -7.3601773    318.42075   0.02553904  0.025694009            4 
 1040000    1.1036736   -7.2992987    319.20469  0.025577299  0.025686927            3 
 1041000    1.0911318   -7.3263346     318.7039   0.02551264  0.025679925            4 
 1042000    1.0727393   -7.3019872    319.04452  0.025515396  0.025672851            4 
 1043000    1.1043093   -7.3579416     318.5377   0.02545044   0.02566572            6 
 1044000    1.0691545   -7.3306921    319.79057  0.025526067  0.025658474            5 
 1045000    1.0705686   -7.2703393     320.6415  0.025569497  0.025651308            4 
 1046000    1.0741882   -7.3382507    320.69266  0.025549128  0.025644371            5 
 1047000    1.1011771   -7.3216227    320.31557  0.025494712  0.025637348            5 
 1048000     1.080764   -7.3474994     319.3834  0.025396263   0.02563035            2 
 1049000     1.093926   -7.3160447    320.99296  0.025499918  0.025623259           11 
 1050000    1.1023221   -7.2906519    322.44957  0.025591236  0.025616383            7 
 1051000    1.0795981   -7.3070382    322.82243   0.02559645    0.0256095            4 
 1052000    1.0988656    -7.378614    321.23888   0.02544668  0.025602768            3 
 1053000    1.0784674   -7.2811016    322.43207  0.025516941   0.02559585            2 
 1054000    1.1086592   -7.3511096    322.69793  0.025513752  0.025589115            3 
 1055000    1.0816399   -7.3412899    321.90512  0.025426945  0.025582185            1 
 1056000    1.0669405   -7.3120036    322.54769  0.025453574  0.025575297            3 
 1057000    1.0773747   -7.3347724    323.09688  0.025472791  0.025568572            1 
 1058000    1.0812935   -7.2973786    323.95472  0.025516282  0.025561802            2 
 1059000    1.0784705   -7.3245181    323.10016  0.025424942  0.025554926            3 
 1060000     1.053938   -7.3572496    323.28716  0.025415657  0.025547819            4 
 1061000     1.076462    -7.367857    322.46172  0.025326871  0.025540904            4 
 1062000    1.0603995   -7.3519926     323.8033  0.025408294  0.025533793            2 
 1063000    1.0925351   -7.3289864    323.58542  0.025367311  0.025526782            3 
 1064000    1.0910151   -7.3168588    325.11677  0.025463406  0.025519833            4 
 1065000    1.0742173   -7.3242457    324.16879   0.02536532  0.025512913            6 
 1066000    1.0775793   -7.3275067    324.27876  0.025350122  0.025505948            2 
 1067000    1.1012827   -7.3131467    325.46805  0.025419248   0.02549896            8 
 1068000     1.072805   -7.3458747    325.15735  0.025371204  0.025492093            6 
 1069000    1.0732551   -7.3407259    326.25677  0.025433175  0.025485282            2 
 1070000    1.0621462   -7.3141209    324.50707  0.025273136  0.025478183            1 
 1071000    1.0794028   -7.3370724    325.32449  0.025313141  0.025471196            3 
 1072000    1.1006107   -7.3501322    324.80661   0.02524927  0.025463956            5 
 1073000    1.0807806   -7.3321887    325.56697  0.025284791  0.025456623            5 
 1074000    1.0592294   -7.3765734    325.83196   0.02528181  0.025449441            6 
 1075000    1.0778115   -7.3111617    327.40435  0.025380182  0.025442375            6 
 1076000    1.0813674   -7.3805279    326.77141  0.025307575  0.025435448            4 
 1077000    1.1000603   -7.3455331    327.29117  0.025324293  0.025428574            4 
 1078000    1.0788473   -7.3558496    327.50899   0.02531764  0.025421857            4 
 1079000    1.0652911   -7.3534569    328.00879  0.025332777  0.025415017            3 
 1080000    1.0743159   -7.3476385    328.15975  0.025320968  0.025408335            5 
 1081000    1.0756199    -7.306651    328.45361  0.025320198  0.025401483            3 
 1082000    1.0597939   -7.3198152    328.84888   0.02532724  0.025394715            2 
 1083000    1.0758371   -7.3426099    329.23613  0.025333651  0.025387956            2 
 1084000    1.0848634   -7.4084049    328.68617  0.025268002  0.025381009            2 
 1085000    1.0626386   -7.3649579    328.88476  0.025259966    0.0253743            4 
 1086000    1.0651101   -7.3430535    328.99715  0.025245331  0.025367538            4 
 1087000    1.0882891    -7.355297    330.36968  0.025327329  0.025360806            3 
 1088000    1.0974225     -7.36335    329.77511   0.02525851  0.025354076            2 
 1089000     1.073981   -7.3384025    330.01954   0.02525402  0.025347155            2 
 1090000    1.0794047   -7.3435149     330.1989  0.025244564  0.025340513            5 
 1091000    1.0734237   -7.3421601    329.28799  0.025151847  0.025333802            4 
 1092000    1.0860446   -7.3326998    330.37177  0.025211521  0.025326885            5 
 1093000    1.0934561   -7.3187009    330.74368   0.02521681  0.025320008            3 
 1094000    1.0686772   -7.3608933    330.11009  0.025145497  0.025313244            3 
 1095000    1.0942429   -7.3061347    331.20812  0.025206098  0.025306433            4 
 1096000    1.0816659   -7.3516802    331.33665  0.025192872  0.025299576            4 
 1097000    1.0821175   -7.3342286    332.25301  0.025239518  0.025292953            1 
 1098000    1.0809383   -7.3347867    332.53315  0.025237792  0.025286409            3 
 1099000    1.0811181   -7.3267372    332.47237  0.025210219  0.025279825            3 
 1100000     1.047972    -7.328884     333.2726  0.025247924  0.025273214            5 
 1101000    1.0767588   -7.3609307    333.04988  0.025208135   0.02526657            2 
 1102000    1.0638648   -7.3436998     333.9971  0.025256889  0.025259868            2 
 1103000    1.0874307   -7.3320068    333.61132  0.025204844  0.025253379            2 
 1104000    1.0632921   -7.3065999    334.30329  0.025234246   0.02524678            5 
 1105000    1.0711601   -7.3362644    335.04099  0.025267043  0.025240183            8 
 1106000    1.0761845   -7.3480909    332.47515   0.02505087  0.025233474            4 
 1107000    1.0586581    -7.328013    333.82744  0.025130039  0.025226507            2 
 1108000    1.0750818   -7.3616097    334.23587  0.025138077  0.025219775            4 
 1109000    1.0792713   -7.3585302    334.39337  0.025127245  0.025212975            3 
 1110000    1.0668069   -7.3373679    334.81202  0.025136038  0.025206427            6 
 1111000    1.0764346   -7.3750069    334.17899  0.025065931  0.025199636            3 
 1112000    1.0732272   -7.3522292    334.20179  0.025045098  0.025192886            3 
 1113000    1.0801382   -7.3497841    335.75485  0.025138878  0.025186212            2 
 1114000    1.0730019   -7.3161976    336.22276  0.025151314  0.025179763            4 
 1115000    1.0761737   -7.3487668     336.3168  0.025135785   0.02517328            4 
 1116000     1.059085   -7.3618973    336.23129  0.025106876  0.025166773            3 
 1117000    1.0844171   -7.3438537    336.02311  0.025068869  0.025160276            1 
 1118000    1.0828696   -7.3629794    336.46438  0.025079337  0.025153656            2 
 1119000    1.0897534   -7.3197537    337.13432  0.025106815  0.025146958            7 
 1120000    1.0721586   -7.3476957    336.26685  0.025019855  0.025140282            2 
 1121000    1.0784374   -7.3757197     336.5642   0.02501964  0.025133633            4 
 1122000    1.0707386   -7.3351853    337.86878  0.025094235  0.025127129            6 
 1123000    1.0824425   -7.3468568    338.90308  0.025148641  0.025120596            4 
 1124000    1.0666976   -7.4048944    336.94976  0.024981447  0.025114017            2 
 1125000    1.0566795   -7.3645176    338.20503  0.025052224  0.025107381           10 
 1126000    1.0811953   -7.3559905    338.77081  0.025071848  0.025100863            4 
 1127000    1.0718703   -7.3616097    339.21506  0.025082451  0.025094138            3 
 1128000    1.0704348   -7.3281485     339.7212  0.025097607  0.025087596            2 
 1129000    1.1023788   -7.3789977    338.69136  0.024999362   0.02508103            3 
 1130000    1.0938518   -7.3775837    338.71326  0.024978854  0.025074337            6 
 1131000    1.0739936   -7.3594871    340.42308   0.02508275  0.025067805            4 
 1132000    1.0667571    -7.376502    340.19856  0.025044064  0.025061283            3 
 1133000     1.044375   -7.3791121    340.23986  0.025024997  0.025054853            4 
 1134000    1.0722874   -7.3566915    340.61265  0.025030324  0.025048287            1 
 1135000    1.0776711   -7.3395509    341.28269  0.025057467  0.025041773            2 
 1136000    1.0759884   -7.3532691    340.74133  0.024995696  0.025035255            5 
 1137000    1.0849416   -7.3939793    340.65887  0.024967669  0.025028763            4 
 1138000    1.0799337   -7.3666348    341.47727  0.025005658  0.025022193            2 
 1139000    1.0873882   -7.3252122    341.09859  0.024955999  0.025015519            4 
 1140000    1.0612572   -7.3776326    342.10545  0.025007709  0.025008821            6 
 1141000    1.0793462   -7.3475126     342.0169  0.024979324  0.025002187            5 
 1142000    1.0495738   -7.3513774    341.87412  0.024947032  0.024995632            1 
 1143000    1.0505188   -7.3892143    341.98085  0.024932987  0.024988963            3 
 1144000    1.0566838   -7.3867486    342.22123  0.024928703  0.024982293            3 
 1145000    1.0665611   -7.3884943    341.91978  0.024884991  0.024975688            2 
 1146000     1.059925   -7.3561791    342.61889  0.024914113  0.024969041            2 
 1147000    1.0787645   -7.3660153    342.69141  0.024897662  0.024962295            3 
 1148000    1.0887235   -7.3564437    342.13772  0.024835781   0.02495552            3 
 1149000    1.0685151   -7.3746952    341.59217  0.024774599  0.024948848            7 
 1150000    1.0547377   -7.3426862    344.75844  0.024982496  0.024942209            2 
 1151000    1.0893662   -7.3610479    343.60767  0.024877474  0.024935763            5 
 1152000    1.0755213   -7.3681993    344.63311  0.024930057  0.024929325            2 
 1153000    1.0743233   -7.3744191    344.71495   0.02491435  0.024922908            4 
 1154000    1.0682256   -7.3469737    345.34397  0.024938184  0.024916336            4 
 1155000    1.0524375   -7.3627426    344.37339  0.024846565  0.024909718            4 
 1156000     1.057282    -7.420556    343.72224  0.024778131  0.024903025            6 
 1157000     1.041571    -7.374165    343.91206  0.024770388  0.024896281            5 
 1158000    1.0659257   -7.3795223    345.45513  0.024860041  0.024889346            2 
 1159000    1.0587549   -7.4073126    344.84672  0.024794846  0.024882481            5 
 1160000    1.0634926   -7.3845785    345.04325   0.02478759  0.024875768            4 
 1161000     1.058309   -7.3878507    345.29466  0.024784285  0.024868975            5 
 1162000    1.0829259   -7.3555848    345.14999  0.024752581  0.024862277            2 
 1163000    1.0577992   -7.3619218    345.88235  0.024783774  0.024855671            6 
 1164000    1.0599405   -7.3908046    346.41792  0.024800825   0.02484898            4 
 1165000    1.0737642   -7.3618239    346.36879  0.024776022   0.02484225            6 
 1166000    1.0740382    -7.344007    346.90956  0.024793422  0.024835572            2 
 1167000    1.0645932   -7.3912275     345.9617  0.024704492  0.024828774            3 
 1168000    1.0766704   -7.4010508    346.45782  0.024718737  0.024821941            2 
 1169000    1.0639552   -7.3511586    348.23217  0.024824078  0.024815364            3 
 1170000    1.0744561    -7.405999    347.50546  0.024751101   0.02480857            3 
 1171000    1.0642519   -7.3629173    346.66983  0.024670497  0.024801651            2 
 1172000    1.0500463   -7.3913634    346.42821  0.024632268  0.024794515            3 
 1173000    1.0335626   -7.3870448    347.47896  0.024685917  0.024787328            3 
 1174000    1.0669373   -7.3335868    347.16037  0.024642275  0.024780341            2 
 1175000    1.0449895   -7.3670895    347.09176  0.024616437  0.024773305            6 
 1176000    1.0498361   -7.3676613    348.01419  0.024660869  0.024766271            3 
 1177000    1.0464983   -7.4119847     347.8035     0.024625  0.024759112            3 
 1178000      1.06399   -7.3604921    349.20843  0.024703483  0.024752004            5 
 1179000    1.0491658   -7.3845702    348.84653   0.02465695  0.024744975            2 
 1180000    1.0779979   -7.3432372    349.63073  0.024691436  0.024737984            3 
 1181000    1.0881668   -7.3502337     349.3719  0.024652265   0.02473112            8 
 1182000    1.0691887    -7.371569    349.10154  0.024612347  0.024724164            5 
 1183000    1.0565239   -7.4077912    348.41911  0.024543471  0.024717011            5 
 1184000    1.0409463   -7.3902938    349.13293  0.024572982  0.024709844            2 
 1185000    1.0719377   -7.3879075    349.13781  0.024552589  0.024702802            9 
 1186000    1.0496303    -7.321753    350.95636  0.024659665  0.024695727            4 
 1187000    1.0602305   -7.3901903    349.77907  0.024556239  0.024688761            6 
 1188000    1.0669813   -7.4159256     349.7559  0.024533944  0.024681626            4 
 1189000    1.0665146   -7.4398611     349.9144  0.024524418  0.024674313            3 
 1190000    1.0533733   -7.4091249    349.19348  0.024453325  0.024667061            5 
 1191000    1.0561933   -7.3909173    350.60072  0.024531257  0.024659804            3 
 1192000    1.0610658   -7.3935441    350.65673  0.024514593  0.024652472            3 
 1193000    1.0544411    -7.354779    350.21463  0.024463162  0.024645285            5 
 1194000    1.0823683   -7.4012389    349.82012   0.02441514  0.024637916            3 
 1195000    1.0639437   -7.3971577    351.48262  0.024510643  0.024630642            6 
 1196000    1.0661024   -7.3959391    351.76918  0.024510116  0.024623377            5 
 1197000    1.0459119   -7.4026472    351.87823  0.024497231  0.024616161            3 
 1198000    1.0553165   -7.3835625    351.97956  0.024483832  0.024608905            3 
 1199000    1.0564215    -7.377035    351.46225  0.024427457   0.02460163            2 
 1200000     1.049194   -7.4465675    350.54889  0.024343673  0.024594217            4 
 1201000    1.0642382   -7.3913175    351.10426  0.024361939  0.024586741            4 
 1202000    1.0593492    -7.391422    352.75077  0.024455821  0.024579254            5 
 1203000    1.0673505   -7.3567233    351.97368  0.024381662  0.024571852            6 
 1204000    1.0538439   -7.4000552    353.30851  0.024453801   0.02456447            2 
 1205000    1.0761066   -7.4956734    350.65699  0.024250138  0.024556874            4 
 1206000    1.0536967   -7.4470123    351.99017  0.024322151  0.024549308            6 
 1207000    1.0353838    -7.388679    353.21432  0.024386517  0.024541793            6 
 1208000    1.0849453   -7.3978244    352.73678  0.024333387  0.024534344            3 
 1209000     1.036984   -7.4137657    352.14688    0.0242726  0.024526962            9 
 1210000    1.0418283   -7.3988467    352.51263   0.02427773  0.024519456            8 
 1211000    1.0672049    -7.424554    352.82678  0.024279299  0.024511821            4 
 1212000    1.0692503   -7.4442829     352.6144  0.024244665  0.024504081            9 
 1213000    1.0682729   -7.4064347    352.95487  0.024248067  0.024496553            1 
 1214000    1.0799648   -7.4235698    352.34312  0.024186101  0.024489093            2 
 1215000    1.0827364   -7.3547539    354.13599  0.024289163  0.024481542            4 
 1216000    1.0672754   -7.3945009    353.99426  0.024259475  0.024474011           19 
 1217000    1.0296117   -7.3821076    354.35865  0.024264492  0.024466489            5 
 1218000    1.0641149   -7.3546109    354.87514  0.024279908  0.024458743            5 
 1219000    1.0768521   -7.3856234    353.81548   0.02418755  0.024450997            4 
 1220000    1.0410205   -7.4088195    354.26151  0.024198191   0.02444332            5 
 1221000    1.0642047   -7.3650495    354.42199  0.024189325  0.024435598            3 
 1222000    1.0593043    -7.428021    353.76517  0.024124739  0.024428034            4 
 1223000    1.0767673   -7.3958691    354.63315  0.024164155  0.024420358            4 
 1224000     1.058286   -7.4106075    354.61744  0.024143344  0.024412622            8 
 1225000    1.0732264   -7.4053779    354.63447  0.024124794  0.024404857            2 
 1226000    1.0487691   -7.3801327    355.87317  0.024189313  0.024397169            3 
 1227000     1.046794   -7.4263127    355.97217  0.024176322  0.024389408            3 
 1228000    1.0588309   -7.4684061    354.45129  0.024053426  0.024381647            3 
 1229000    1.0448455   -7.4063001    355.43787  0.024100751  0.024373853            2 
 1230000    1.0695642   -7.4433346    354.81283  0.024038809  0.024366172            3 
 1231000    1.0637323   -7.4309923     355.9964  0.024099404  0.024358404            4 
 1232000    1.0652592   -7.4531925     355.7035  0.024060031  0.024350673            2 
 1233000    1.0422516    -7.435275    356.78475  0.024113595   0.02434269            2 
 1234000    1.0542956   -7.4146001     357.1984  0.024121988  0.024335064            2 
 1235000    1.0706112   -7.3883405    358.01056  0.024157257  0.024327455            2 
 1236000    1.0470503    -7.406732    357.40034  0.024096571    0.0243199            3 
 1237000    1.0458798   -7.3941127    358.23809  0.024133528  0.024312392            4 
 1238000    1.0445927    -7.416092    356.92225  0.024025461  0.024304854            3 
 1239000    1.0600558   -7.4457583    358.06779  0.024083117  0.024297297            2 
 1240000    1.0728139   -7.4270757    357.46999  0.024023521  0.024289802            1 
 1241000    1.0438806   -7.4150103    358.65699   0.02408387   0.02428236            3 
 1242000    1.0851817   -7.3843493     359.4702  0.024119042  0.024275027            2 
 1243000    1.0527005   -7.4159332    359.43854  0.024097515  0.024267648            4 
 1244000    1.0657574   -7.4315912     359.6877  0.024094835   0.02426039            6 
 1245000    1.0548171   -7.4068681    360.03334  0.024098617  0.024253158            7 
 1246000    1.0539947   -7.3595285    361.06419  0.024148221  0.024245923            5 
 1247000    1.0588963   -7.3882854    361.45565  0.024155015   0.02423884            2 
 1248000    1.0564431   -7.3816531    362.13106   0.02418076  0.024231766            2 
 1249000    1.0428823   -7.4154452     360.5724  0.024057406  0.024224685            4 
 1250000    1.0574955   -7.4245128    361.57686  0.024105124  0.024217566           10 
 1251000    1.0619085   -7.4388451    361.06003  0.024051427  0.024210504            4 
 1252000    1.0554556   -7.4542105    360.47719  0.023993423  0.024203419            5 
 1253000    1.0256806   -7.4292583     361.7131  0.024056471  0.024196149            2 
 1254000    1.0528005    -7.401267    363.01242  0.024123632  0.024189074            4 
 1255000    1.0556832   -7.4129133    362.28065   0.02405582  0.024181971            9 
 1256000    1.0632057   -7.3737063    363.45125  0.024114334  0.024175006            7 
 1257000    1.0504004   -7.4222379     362.9914  0.024064665  0.024168073            3 
 1258000    1.0604979   -7.4210269    363.15031  0.024056062  0.024160874            5 
 1259000    1.0380348   -7.4306015    363.09921  0.024033572  0.024153681            4 
 1260000    1.0498651   -7.4448215    361.84899  0.023931812   0.02414649            3 
 1261000    1.0593201   -7.4165237     363.0081  0.023989433  0.024139246            2 
 1262000    1.0598863   -7.4346796    362.03694  0.023906295  0.024132014            7 
 1263000    1.0671474   -7.3951831    363.89621  0.024010043  0.024124904            3 
 1264000    1.0629044   -7.4103057    363.61347  0.023972407  0.024117594            2 
 1265000    1.0659471   -7.4532711    363.49795  0.023945846   0.02411029            2 
 1266000    1.0254012   -7.4319179    362.76376  0.023878604  0.024102825            4 
 1267000      1.04089   -7.4099152    364.35929    0.0239647  0.024095652            6 
 1268000    1.0655328   -7.3785913    365.28085  0.024006365  0.024088543            4 
 1269000    1.0674146   -7.3781039    364.14558  0.023912896  0.024081549            3 
 1270000    1.0651314    -7.404127    365.38339  0.023975288  0.024074422            3 
 1271000    1.0744007   -7.4451003    364.60763  0.023905562  0.024067249            3 
 1272000    1.0358766   -7.4539966    364.26657  0.023864424  0.024059994            2 
 1273000    1.0541984    -7.424917    365.74838   0.02394268  0.024052723            5 
 1274000    1.0674734    -7.441265    365.33533  0.023896869  0.024045478            4 
 1275000    1.0675747   -7.4024172    366.98475  0.023985931  0.024038234            6 
 1276000    1.0551052   -7.4256132    366.37735  0.023927465  0.024030941            4 
 1277000    1.0420567   -7.4087974    365.69841  0.023864423  0.024023588            3 
 1278000    1.0429333   -7.4506075    364.75664   0.02378434  0.024016178            4 
 1279000    1.0325951   -7.4072227    366.00078  0.023846806   0.02400879            5 
 1280000    1.0458013   -7.4430379     366.7765  0.023878679  0.024001443            3 
 1281000    1.0455521   -7.4593163    365.12091  0.023752336  0.023994066            2 
 1282000    1.0583628   -7.4215077     366.1888  0.023803224  0.023986782            2 
 1283000    1.0337963   -7.4454627    366.59003  0.023810732  0.023979454            5 
 1284000    1.0555248   -7.4339563    367.35213  0.023841649   0.02397204            1 
 1285000    1.0357892   -7.4561799    366.83531  0.023789579  0.023964646            4 
 1286000    1.0499813   -7.4487042    367.05871  0.023785557  0.023957246            4 
 1287000    1.0368787   -7.4445522    367.62222  0.023803563  0.023950008            2 
 1288000    1.0445792   -7.4695784    367.02904  0.023746703  0.023942841            7 
 1289000    1.0578358   -7.3911642    368.12123   0.02379889  0.023935514            7 
 1290000    1.0538866   -7.4564654    367.63744  0.023749189  0.023928139            4 
 1291000    1.0628622   -7.4621291    367.71284  0.023735659  0.023920879            5 
 1292000    1.0479535   -7.4296059    370.06103  0.023868745  0.023913653            6 
 1293000    1.0493015   -7.4337466    368.10418  0.023724167  0.023906359            2 
 1294000    1.0352146   -7.3944308    369.94396  0.023824315  0.023899038            3 
 1295000     1.035138   -7.4145842    369.70308  0.023790417  0.023891917            4 
 1296000    1.0741625   -7.4314584    368.74372  0.023710373  0.023884661            6 
 1297000    1.0525681    -7.421372    370.05548  0.023776374  0.023877497            2 
 1298000    1.0523428   -7.4514108    370.36903  0.023778186  0.023870247            2 
 1299000    1.0359799   -7.4217688    369.62444  0.023712114  0.023862976            4 
 1300000    1.0529886   -7.4070914    370.83105  0.023771221  0.023855795            2 
 1301000    1.0371597   -7.4559174    370.30115  0.023719008  0.023848601            3 
 1302000    1.0463259   -7.4399563    370.33414  0.023702902  0.023841338            6 
 1303000    1.0791895   -7.4717673    370.26877   0.02368053  0.023834093            3 
 1304000    1.0497081   -7.4463607    370.83643  0.023698647  0.023826812            3 
 1305000    1.0314996   -7.4486829    371.81201  0.023742785  0.023819583            4 
 1306000    1.0392562   -7.4468116    370.39165  0.023633975  0.023812447            3 
 1307000    1.0267916   -7.4488856    371.73448   0.02370151  0.023805312            3 
 1308000    1.0344494   -7.4369565    371.99167  0.023699775  0.023798381            2 
 1309000    1.0513691   -7.4033765    373.07246  0.023750475  0.023791341            3 
 1310000    1.0510274   -7.4629431    372.11163  0.023671223  0.023784295            5 
 1311000    1.0588057   -7.4234538    372.88562  0.023702366  0.023777124            3 
 1312000     1.029315   -7.4160008     372.9663  0.023689424  0.023770052            4 
 1313000    1.0559479   -7.4222267    373.34314  0.023695299  0.023762962            4 
 1314000    1.0407399    -7.476752    372.91767  0.023650284  0.023755798            9 
 1315000    1.0319968   -7.3985981     374.3103  0.023720552  0.023748718            2 
 1316000    1.0376468   -7.4699277     371.0334  0.023495023  0.023741638            6 
 1317000     1.042485   -7.4734104    373.00351  0.023601842  0.023734526            3 
 1318000    1.0428407   -7.4580606    373.06924  0.023588091  0.023727404            8 
 1319000    1.0605632   -7.4584768    373.39004  0.023590475  0.023720337            3 
 1320000    1.0310457   -7.4295254    373.63278  0.023587928  0.023713258            4 
 1321000    1.0474229   -7.4727805     373.7177  0.023575429  0.023706044            5 
 1322000    1.0682042   -7.4432196    374.78084  0.023624612  0.023698943            2 
 1323000    1.0272428   -7.4722235    373.49713  0.023525896  0.023691676            6 
 1324000     1.021746   -7.4840838    373.16444  0.023487188  0.023684364            4 
 1325000    1.0328952    -7.465882    373.78558  0.023508527  0.023677121            2 
 1326000    1.0329448   -7.4435272    374.26514  0.023520937  0.023669748            3 
 1327000    1.0359675   -7.4334674    374.24158  0.023501732  0.023662419            3 
 1328000    1.0238312   -7.4422418    375.12293   0.02353934   0.02365521            3 
 1329000    1.0528609   -7.4986047    375.34619  0.023535628  0.023648105            3 
 1330000    1.0358491    -7.418389    375.01596   0.02349724  0.023640945            5 
 1331000    1.0446559   -7.4585061    376.32121  0.023561308  0.023633837            2 
 1332000     1.042429   -7.4594144     374.7284  0.023443969  0.023626505            3 
 1333000    1.0271737   -7.4784975    374.85739  0.023434446  0.023619031            3 
 1334000    1.0557323   -7.4749504    375.96541  0.023486095  0.023611773            3 
 1335000    1.0491501   -7.4736328    375.28759  0.023426192  0.023604379            2 
 1336000    1.0161616   -7.4474638     376.0864  0.023458483  0.023597008            3 
 1337000    1.0499195   -7.4877283    374.80047  0.023360787  0.023589645            1 
 1338000    1.0208551    -7.464558    376.63432  0.023457543  0.023582328            5 
 1339000    1.0438628   -7.4528443    377.55598  0.023497385  0.023574949            5 
 1340000    1.0531002   -7.4861008    376.35095   0.02340491  0.023567502            3 
 1341000    1.0397952    -7.437418    376.78878  0.023414665  0.023560098            4 
 1342000    1.0351995   -7.4227774    378.24585  0.023487696  0.023552881            9 
 1343000    1.0494225   -7.4317739    377.48876  0.023423229  0.023545617            3 
 1344000    1.0428245   -7.4275755    376.81388  0.023363956  0.023538428            5 
 1345000    1.0232278   -7.4453931    377.49146  0.023388566  0.023531221            9 
 1346000     1.036633   -7.4628617    377.09723  0.023346782  0.023523892            3 
 1347000      1.01139   -7.4716893    376.39213  0.023285829  0.023516518            4 
 1348000    1.0454249   -7.4724849    378.33164  0.023388454  0.023509017            4 
 1349000    1.0343897   -7.4680802    378.15687   0.02336032  0.023501635            6 
 1350000    1.0300818    -7.418482    377.15712  0.023281303  0.023494051            4 
 1351000    1.0357734   -7.4574507    377.88246  0.023308812  0.023486534            5 
 1352000    1.0319323    -7.403213    379.28992  0.023378324  0.023479154            7 
 1353000    1.0005663   -7.4642617    379.53346  0.023376044  0.023471717            4 
 1354000    1.0541124    -7.486998    377.88767  0.023257488  0.023464281            3 
 1355000    1.0445715   -7.4313755    380.07746  0.023374998  0.023456949            5 
 1356000    1.0197395   -7.4140104    379.81216  0.023341455  0.023449649            4 
 1357000    1.0341821   -7.4341949    379.64152  0.023313775  0.023442393            5 
 1358000    1.0460328   -7.4647196    378.98236  0.023256158  0.023435116            3 
 1359000    1.0129291   -7.4362133     380.5126  0.023332879  0.023427886            3 
 1360000    1.0398764    -7.486975    379.04134  0.023225572  0.023420564            4 
 1361000    1.0228596   -7.4624756     379.9682  0.023265258  0.023413262            3 
 1362000    1.0230001   -7.4861769    380.10183  0.023256353  0.023405969            2 
 1363000    1.0244282   -7.4595103    379.37237  0.023194691  0.023398622            7 
 1364000    1.0415285   -7.4989137    380.66574  0.023256704   0.02339134            5 
 1365000     1.037176   -7.5013749    380.07796  0.023203782  0.023384086            8 
 1366000    1.0068137   -7.3967221     380.9806  0.023241862  0.023376623            5 
 1367000    1.0313356   -7.4779301    380.71806  0.023208855  0.023369374            4 
 1368000    1.0434081   -7.5014178    381.24099  0.023223745  0.023362316            4 
 1369000    1.0237234   -7.4631458    380.94593   0.02318882   0.02335504            2 
 1370000    1.0331243   -7.4669398    382.10149  0.023242183  0.023347658            5 
 1371000    1.0356529   -7.4601638    381.81282  0.023207684  0.023340234            6 
 1372000    1.0500989   -7.5438265    381.13802  0.023149783  0.023332737            5 
 1373000      1.04122   -7.4561772    381.91245  0.023179925  0.023325361            4 
 1374000     1.037638   -7.4676897    382.94069  0.023225418  0.023317992            6 
 1375000    1.0316588   -7.4362875    384.27136  0.023289173  0.023310776            3 
 1376000    1.0473433   -7.4805674     383.7308  0.023239511  0.023303589            5 
 1377000    1.0380767   -7.4882578    382.47122  0.023146406  0.023296316            3 
 1378000    1.0258396   -7.4986598    381.67321   0.02308135  0.023289089            3 
 1379000    1.0326436   -7.4769732    382.94969  0.023141751  0.023281852            3 
 1380000    1.0528717   -7.5001187     384.1068  0.023194855   0.02327474            6 
 1381000    1.0139283    -7.463212    383.99313    0.0231712  0.023267672            3 
 1382000    1.0363577   -7.4162034      385.182  0.023226121  0.023260531            3 
 1383000    1.0104373    -7.432406     385.2785  0.023215142  0.023253492            3 
 1384000    1.0303581   -7.4468196    385.84212  0.023232305  0.023246586            5 
 1385000    1.0454667   -7.4523993    385.36927   0.02318708  0.023239618            4 
 1386000    1.0498163   -7.5170872    385.47602  0.023176769  0.023232643            3 
 1387000    1.0058886    -7.479702    386.34388  0.023212201  0.023225479            4 
 1388000    1.0407688   -7.4962659    386.23822  0.023189134  0.023218293            7 
 1389000    1.0218081   -7.4935317    384.64506  0.023076858  0.023211167            7 
 1390000    1.0335203   -7.5216559    384.05001  0.023024581  0.023203932            4 
 1391000    1.0270481   -7.4787456    385.41916  0.023090052  0.023196801            5 
 1392000    1.0072095   -7.4724454    385.41078  0.023072963  0.023189652            2 
 1393000    1.0447495   -7.4929536     385.2347  0.023045866  0.023182577            3 
 1394000    1.0178276   -7.4523791    386.57875  0.023109681  0.023175507            8 
 1395000    1.0275837   -7.4199637    388.36189  0.023199635  0.023168609            3 
 1396000    1.0298637   -7.4421511    386.30688  0.023060344  0.023161672            3 
 1397000    1.0081901   -7.5010374    386.28227  0.023042369  0.023154671            2 
 1398000    1.0349306   -7.4660147    386.57574   0.02304338  0.023147548            3 
 1399000    1.0303069   -7.5024317     386.2354  0.023006636  0.023140425            4 
 1400000    1.0292074    -7.516279    385.57619  0.022950964  0.023133214            3 
 1401000     1.018696   -7.5084975    386.77884  0.023006117  0.023125971            3 
 1402000    1.0428063   -7.4945448    387.55925  0.023036094  0.023118862            4 
 1403000    1.0306038    -7.508365    386.56257  0.022960476  0.023111848           10 
 1404000    1.0375095   -7.4470914    389.48282  0.023117451  0.023104854            5 
 1405000    1.0307451   -7.4711022    388.22555  0.023026426   0.02309792            5 
 1406000     1.024195   -7.5237696    386.41599  0.022902797  0.023090835            3 
 1407000    1.0360005   -7.4817579    389.49157  0.023068679  0.023083827            3 
 1408000    1.0319681   -7.4774735    388.97092   0.02302148  0.023076859            3 
 1409000    1.0074375    -7.484996    388.33525  0.022967545  0.023069796            3 
 1410000    1.0204219   -7.4996162    388.31508  0.022950064  0.023062744            2 
 1411000    1.0109619   -7.4821079    389.01234  0.022974979  0.023055708            3 
 1412000    1.0369826   -7.4625407    390.33919  0.023037016  0.023048594            2 
 1413000    1.0303638   -7.5140375    388.76399  0.022927813  0.023041493            5 
 1414000     1.026492   -7.5323227    389.30828  0.022943675  0.023034451            4 
 1415000    1.0195936   -7.5210013     389.9313  0.022964152  0.023027456            7 
 1416000    1.0378647   -7.5286299    389.66923  0.022932511  0.023020384            8 
 1417000    1.0045824   -7.4896108    389.07241  0.022881229  0.023013338            5 
 1418000    1.0228374   -7.5411467     389.5128  0.022890973   0.02300622            3 
 1419000    1.0211434   -7.4595318    390.77889  0.022949195  0.022999172            2 
 1420000    1.0150256    -7.457326    391.62579  0.022982734  0.022992255            2 
 1421000      1.01608   -7.4818055    390.34569   0.02289149  0.022985392            2 
 1422000    1.0556391   -7.4739652    390.71105  0.022896803  0.022978539            3 
 1423000     1.007144   -7.4751484    392.07142  0.022960378  0.022971568            1 
 1424000    1.0549703   -7.4918877    390.07799  0.022827598  0.022964547            3 
 1425000     1.036606   -7.4444244    392.61385  0.022959874   0.02295754            2 
 1426000    1.0076705   -7.4996929    390.27517  0.022807104   0.02295039            4 
 1427000    1.0200463   -7.5424008    391.20472  0.022845405  0.022943167            5 
 1428000    1.0102828    -7.511599    391.53295  0.022848562  0.022935965            3 
 1429000    1.0233555   -7.5180244    390.74857  0.022786831  0.022928727            3 
 1430000    1.0034825   -7.4906546    391.64098  0.022822901  0.022921633            3 
 1431000    1.0329893   -7.4984096    391.39969  0.022792901   0.02291458            2 
 1432000    1.0100493   -7.5353219    391.42641  0.022778539  0.022907373            6 
 1433000    1.0243902   -7.4809264     391.6492  0.022775599  0.022900138            2 
 1434000    1.0309733   -7.4790614    392.83416  0.022828577  0.022893082            4 
 1435000    1.0485518   -7.4512737    392.74571  0.022807533  0.022886069            5 
 1436000    1.0140978   -7.5102783    392.39488  0.022771291  0.022879015            7 
 1437000     1.016525   -7.5056969    393.09884  0.022796268  0.022871887            4 
 1438000    1.0245722   -7.5192882    392.83676  0.022765227  0.022864639            4 
 1439000    1.0480973   -7.5200525    392.79364   0.02274691   0.02285751            4 
 1440000    1.0212562    -7.519795     392.5997   0.02271989  0.022850321            6 
 1441000   0.99720508   -7.5323148    393.07064  0.022731358  0.022843078            3 
 1442000    1.0286593   -7.4992536    394.19435  0.022780533   0.02283582            6 
 1443000    1.0113617   -7.5391727    393.59862  0.022730343  0.022828709            9 
 1444000    1.0081755   -7.5353483    394.37984  0.022759686  0.022821526           13 
 1445000    1.0383876   -7.5393661    393.36252  0.022685266  0.022814407           11 
 1446000    1.0328844   -7.5118172    395.01225  0.022764653  0.022807332           12 
 1447000    1.0285409   -7.4967481    395.53006  0.022778741  0.022800331            5 
 1448000    1.0200672   -7.4871654    395.48061  0.022760164  0.022793362            9 
 1449000    1.0058738   -7.4923035    395.23067  0.022730082  0.022786441            5 
 1450000    1.0365749   -7.5118299    395.68206  0.022740348  0.022779448            7 
 1451000    1.0143458   -7.5026633    396.04398  0.022745462  0.022772498            3 
 1452000     1.009541   -7.5075395    396.04909   0.02273009  0.022765493            6 
 1453000    1.0401059    -7.518276    395.11331  0.022660777  0.022758601            3 
 1454000   0.99880111   -7.4650067    395.17086   0.02264849  0.022751587            3 
 1455000    1.0344821   -7.5036108    396.11214  0.022686835  0.022744437            9 
 1456000   0.99977319   -7.4698208    396.41441  0.022688554  0.022737277            5 
 1457000    1.0410172   -7.5529743    396.11296   0.02265574  0.022730058            3 
 1458000    1.0406746   -7.5356404    396.67837  0.022672518  0.022722779            6 
 1459000    1.0365411   -7.5189383    394.84394  0.022552201  0.022715612            2 
 1460000    1.0086672   -7.5358861     395.6796  0.022584452  0.022708318            3 
 1461000    1.0034124   -7.4982199    395.92307  0.022582881  0.022701097            4 
 1462000    1.0283366   -7.5741337    395.31204  0.022532606  0.022693826            9 
 1463000    1.0338852   -7.5414577    396.51369  0.022585651  0.022686454            4 
 1464000    1.0239469   -7.5217444    396.81137  0.022587168  0.022679085            4 
 1465000    1.0243264   -7.5168921    396.26941  0.022540922  0.022671833            9 
 1466000   0.99971469    -7.515363    397.10961  0.022573307  0.022664578            4 
 1467000   0.99877972   -7.5104528    398.57632  0.022641236   0.02265739            5 
 1468000    1.0087152   -7.4780252    397.42862  0.022560662  0.022650314            4 
 1469000    1.0293903   -7.5078175    397.31413  0.022538809  0.022643212            3 
 1470000     1.014841     -7.52337    396.62595  0.022484464  0.022636097            4 
 1471000     1.026347   -7.4736114    397.71437  0.022530839   0.02262889            6 
 1472000    1.0134653   -7.5231295    397.74539  0.022517289  0.022621782            3 
 1473000    1.0098678   -7.5312142    397.23328   0.02247303  0.022614383            7 
 1474000    1.0106348   -7.5345605    396.37195  0.022409088  0.022606952            8 
 1475000    1.0256443   -7.4842038    398.59227  0.022519337  0.022599801            7 
 1476000    1.0070114    -7.492422    398.89528  0.022521188  0.022592693            4 
 1477000     1.007104   -7.5334912    398.37268  0.022476455  0.022585405            9 
 1478000    1.0060727   -7.5304201    398.14454  0.022448384  0.022578089            2 
 1479000    1.0215087   -7.5487531      398.584  0.022457967  0.022570764            2 
 1480000    1.0415537   -7.5237246    398.57175  0.022442103  0.022563524            5 
 1481000    1.0065847   -7.5208516    397.83219  0.022385336  0.022556294            4 
 1482000    1.0127718   -7.5408982    398.69876  0.022418959  0.022549076            4 
 1483000    1.0320921   -7.5096065    399.88718  0.022470621  0.022541914            4 
 1484000    1.0160949    -7.485174    399.70015  0.022444977  0.022534734            4 
 1485000    1.0039507   -7.5486466    399.01062  0.022391168  0.022527516            3 
 1486000    1.0184978   -7.5428463    399.79547  0.022420114  0.022520271            6 
 1487000    1.0062851   -7.4990706    399.42155  0.022384081  0.022513023            5 
 1488000    1.0238439   -7.5443887    399.72314  0.022385928   0.02250566            3 
 1489000    1.0187693   -7.5105921    399.15382  0.022339032  0.022498403            2 
 1490000    1.0263439    -7.557526    398.93096  0.022311575  0.022491038            4 
 1491000    1.0275332   -7.5569741    398.95368   0.02229788  0.022483611            3 
 1492000     1.003211   -7.4869205    400.91373  0.022392411  0.022476281            3 
 1493000    1.0167291   -7.5604308    400.07261  0.022330465  0.022468953           11 
 1494000    1.0120795   -7.4864833    400.99324   0.02236687  0.022461576            3 
 1495000    1.0024691   -7.5037921    400.06282  0.022300046   0.02245419            2 
 1496000    1.0036597   -7.5221237    399.45498   0.02225128  0.022446741            2 
 1497000    1.0037678   -7.5735166    398.92571  0.022206953  0.022439228            4 
 1498000   0.99470194   -7.5231975    399.63408  0.022231536  0.022431726            7 
 1499000    1.0292787   -7.5511339    400.97546  0.022291275  0.022424153            3 
 1500000    1.0211313   -7.5798258    399.92343  0.022217968  0.022416642            2 
 1501000    1.0279602   -7.5205924    400.58665  0.022239987  0.022409124            8 
 1502000     1.002969   -7.5295556    400.10887  0.022198673  0.022401611            2 
 1503000    1.0240878   -7.5576832    399.88931  0.022171729   0.02239403            5 
 1504000   0.99471981   -7.5402094    400.45905  0.022188555   0.02238643            3 
 1505000   0.99659382   -7.5492685    400.21129  0.022160094  0.022378787            4 
 1506000    1.0141616   -7.5721265    399.69768  0.022116959  0.022371158            3 
 1507000    1.0162068   -7.5054455    401.27171  0.022189322  0.022363698            5 
 1508000     1.019126   -7.5042927    401.96013  0.022212651  0.022356134            8 
 1509000   0.98949897   -7.5120031    400.71317  0.022129068  0.022348538            6 
 1510000   0.99868922   -7.4848351    400.80175  0.022119302  0.022340937            4 
 1511000    1.0132924   -7.5608362    399.41058  0.022027938   0.02233319            5 
 1512000   0.99580654   -7.5101632    402.19187   0.02216666  0.022325479            3 
 1513000     1.011052   -7.5382458    400.11708  0.022037733  0.022317861            6 
 1514000    1.0118321   -7.5265457    402.32904  0.022144927  0.022310204            2 
 1515000   0.99549155   -7.5371413    401.30577  0.022074025  0.022302502            1 
 1516000    1.0170545   -7.5396984    400.76392  0.022029679  0.022294754            3 
 1517000    1.0255365   -7.5312897    401.00906  0.022028623  0.022286913            5 
 1518000    1.0075815   -7.5035647    401.79303  0.022057149  0.022279156            3 
 1519000   0.98678894   -7.5377401    402.01147  0.022054612  0.022271382            3 
 1520000    1.0014486    -7.549152    401.55063  0.022014837  0.022263514            5 
 1521000    1.0437378   -7.5270587    401.18178  0.021980155  0.022255712            6 
 1522000    1.0197811   -7.5381259    401.70506  0.021994364  0.022247983            4 
 1523000    1.0052108   -7.5544602    401.56296  0.021972147  0.022240112            4 
 1524000    1.0287652   -7.5148399    403.15839  0.022044969  0.022232215            3 
 1525000    1.0079119   -7.5543847    402.78493  0.022010105  0.022224348            3 
 1526000     1.002816   -7.5773169    402.02863  0.021954381  0.022216573            5 
 1527000    1.0125758   -7.5248244    402.99563  0.021992776  0.022208856            7 
 1528000    1.0129555   -7.5301363    403.79213  0.022021822  0.022201265            3 
 1529000    1.0273789   -7.5634773    402.04957  0.021912446  0.022193651            3 
 1530000     1.026311   -7.5599785    403.23067  0.021962455  0.022185983            7 
 1531000   0.99194776   -7.5138716     405.3723   0.02206468  0.022178342            2 
 1532000    1.0302191   -7.5358966    404.34443  0.021994366   0.02217068            7 
 1533000    1.0108185   -7.5451707    403.74471  0.021947419  0.022162989            4 
 1534000   0.99923539    -7.538774    403.63717  0.021927269  0.022155326            3 
 1535000    1.0001814   -7.5411256     404.0444  0.021935092  0.022147721            3 
 1536000    1.0261279   -7.4718541    405.97876  0.022025757  0.022140115            4 
 1537000    1.0081409   -7.5086334    404.07342  0.021908123  0.022132634            5 
 1538000     1.001354   -7.5421962    405.03156  0.021945793  0.022125065            5 
 1539000    1.0174723   -7.5659365    404.94044    0.0219266  0.022117502            6 
 1540000   0.99957748   -7.5708424    405.87714  0.021963049  0.022109872            5 
 1541000    1.0032066   -7.5337102    405.49267  0.021928005  0.022102271            6 
 1542000    1.0114198   -7.5908383    405.13013  0.021894192   0.02209477            2 
 1543000    1.0038201   -7.5699656    406.14037  0.021934563  0.022087179            4 
 1544000   0.99882857   -7.5411364    406.94018  0.021963524  0.022079667            8 
 1545000     1.008342   -7.5874388     405.9495  0.021895874  0.022072305            6 
 1546000    1.0020139   -7.5255913    408.51805  0.022020162  0.022064883            4 
 1547000    1.0128457   -7.5586806    406.67914   0.02190687  0.022057399            4 
 1548000   0.98804399   -7.5611922    405.70059  0.021840041  0.022049847           12 
 1549000   0.99846133   -7.5529677    406.77675  0.021883836  0.022042362            4 
 1550000   0.99426673   -7.5577638    406.65166  0.021862993  0.022034916            4 
 1551000   0.98988889   -7.5672788    407.62818  0.021901364  0.022027482            3 
 1552000   0.99933593   -7.5406166    407.71013  0.021891652  0.022020076            4 
 1553000   0.97632515   -7.5536307    407.44897  0.021863542  0.022012624            5 
 1554000    1.0094256   -7.5719597    406.37836  0.021792061  0.022005097            6 
 1555000   0.99523937   -7.5684932    408.61647  0.021897989  0.021997716            5 
 1556000    1.0054496   -7.5590375    407.21517  0.021808867  0.021990284            4 
 1557000    1.0099643    -7.542852    408.59596  0.021868762  0.021982792           12 
 1558000    1.0327452   -7.5717808    407.42978   0.02179235  0.021975303            7 
 1559000    1.0079998   -7.6127214    407.70718    0.0217932  0.021967865            3 
 1560000    1.0161786   -7.5877375    406.83208  0.021732483  0.021960396            4 
 1561000   0.98011935   -7.5999985    407.52969  0.021755803  0.021952856            3 
 1562000    1.0016716   -7.6176341     407.3291  0.021731173  0.021945281            3 
 1563000   0.98532061   -7.4983054    408.73208  0.021792071  0.021937746            2 
 1564000     1.006927   -7.5934938    408.74644  0.021778902  0.021930177            3 
 1565000   0.99231713   -7.6254172     408.2189  0.021736896  0.021922548            6 
 1566000     1.007264   -7.5922148     408.0579  0.021714448  0.021914911            4 
 1567000   0.99169377   -7.5961184    408.52148  0.021725243  0.021907265            9 
 1568000   0.98924456   -7.5908644    408.04571  0.021686103  0.021899667            4 
 1569000    1.0071718    -7.565201    410.69476  0.021812979  0.021892105            6 
 1570000    1.0115744   -7.5600992    409.86518  0.021755052  0.021884498            2 
 1571000    1.0214631   -7.5755181    409.31049  0.021711781  0.021876889            3 
 1572000   0.96786543   -7.5837252    408.68425  0.021664771  0.021869284            4 
 1573000    1.0138923   -7.5942276    408.24019  0.021627474  0.021861629            4 
 1574000   0.98686819    -7.605201    409.17724  0.021663344  0.021853884            3 
 1575000    1.0026878   -7.5945249    410.01987  0.021694173  0.021846291           10 
 1576000   0.99550738   -7.5797095    409.30578  0.021642649  0.021838708            8 
 1577000    1.0150982     -7.56395    409.43786  0.021635904   0.02183111            5 
 1578000   0.98793927   -7.5724873    410.55961  0.021681433  0.021823571            6 
 1579000    1.0098285   -7.5682822    409.63376  0.021618839  0.021816153            8 
 1580000    1.0048099   -7.6249518    409.61303  0.021604063   0.02180857            5 
 1581000   0.99700818   -7.5769761    410.16253  0.021619362  0.021800864            4 
 1582000    1.0002727   -7.6122872    408.71403  0.021529395  0.021793279            2 
 1583000    1.0120855   -7.6097575    410.10452  0.021588993   0.02178563            5 
 1584000   0.99108508   -7.5936444    409.13851  0.021524543  0.021778041            6 
 1585000   0.98380141   -7.5727218    411.68852  0.021645033  0.021770497            6 
 1586000    0.9842806   -7.5578115    411.67896  0.021630882  0.021762922            4 
 1587000   0.99646708   -7.6032082    410.87773   0.02157518  0.021755248            3 
 1588000   0.99814216   -7.5711214    412.38179  0.021640522  0.021747723            4 
 1589000    1.0233517    -7.558196    411.85655  0.021599358  0.021740237            5 
 1590000    1.0012198   -7.5605067    412.14124  0.021600694  0.021732796            3 
 1591000    1.0069425   -7.5962688    411.66942  0.021562404  0.021725199            5 
 1592000    0.9881763   -7.5836497    410.90193  0.021508686  0.021717661            3 
 1593000    1.0196644   -7.5370288    411.32849  0.021517498  0.021710178            2 
 1594000   0.99410894   -7.5283216    413.85662  0.021636168  0.021702762            3 
 1595000    0.9818722   -7.5988765    411.62318  0.021505913  0.021695256            3 
 1596000   0.97161677   -7.5501599    413.55161  0.021593129  0.021687717            3 
 1597000    1.0158602   -7.5690839    412.56309  0.021528026  0.021680198            8 
 1598000    1.0105671   -7.5470075    414.03348  0.021591233  0.021672705            7 
 1599000     1.015127   -7.5717893     412.7334  0.021509975  0.021665195           10 
 1600000    1.0096261   -7.6030136    412.90518  0.021505478   0.02165772            4 
 1601000   0.98960137   -7.6084004    412.90942  0.021492266  0.021650167            4 
 1602000   0.98784013    -7.593534    414.31282  0.021551853   0.02164264            5 
 1603000   0.98736216   -7.5627009    413.36738  0.021489258  0.021634985            3 
 1604000     1.006697   -7.5873197    412.73059  0.021442778  0.021627395            4 
 1605000   0.98860719    -7.629855    412.74021  0.021429918  0.021619783            9 
 1606000   0.99764698   -7.5772374    414.23784  0.021494284  0.021612194            4 
 1607000    1.0025413   -7.5895056    414.16232  0.021476992  0.021604688            4 
 1608000   0.99961659   -7.5953545    411.79718  0.021341064  0.021597118            6 
 1609000   0.98788739   -7.5851371    412.69773  0.021374442  0.021589515           10 
 1610000    1.0120292    -7.605195    413.77322  0.021416833  0.021581929            4 
 1611000    1.0153908    -7.601374     414.0252  0.021416574  0.021574353            4 
 1612000   0.99686472   -7.5763728    414.50734  0.021428212  0.021566849            6 
 1613000   0.97612348   -7.6351734    413.63951  0.021370092  0.021559337            3 
 1614000   0.99326101   -7.5674656    414.15037  0.021383228  0.021551845            6 
 1615000   0.99608663   -7.6099782    414.28795  0.021377087  0.021544348            6 
 1616000    1.0060616   -7.5785277     414.5407  0.021376893  0.021536823            5 
 1617000   0.97788115   -7.5758316    414.02183  0.021336932  0.021529222            9 
 1618000    1.0124421   -7.5896489    414.66054  0.021356641  0.021521636            5 
 1619000   0.96830548   -7.5808195    414.76779   0.02134897  0.021514056            5 
 1620000   0.99987171   -7.6039058    415.60425  0.021378819  0.021506473            5 
 1621000   0.98176253   -7.5875527    414.87871  0.021328332  0.021498926            3 
 1622000   0.99334425   -7.5779155    415.37856  0.021340863  0.021491572            3 
 1623000   0.98420583   -7.5898225    416.03726  0.021361535  0.021484163            6 
 1624000    1.0057967   -7.5847608    416.97091  0.021396291  0.021476806            6 
 1625000   0.98261437   -7.5719357    416.24114    0.0213457  0.021469464            4 
 1626000   0.99562904   -7.6046579    416.09942  0.021325309  0.021462128            2 
 1627000   0.97916107   -7.5587539    419.19298   0.02147065   0.02145486           10 
 1628000   0.98771914    -7.546307    417.14713   0.02135274  0.021447585            3 
 1629000   0.96967538   -7.5956234    416.39395  0.021301102  0.021440259            5 
 1630000    1.0145143   -7.6043046    417.14424  0.021326393  0.021432793           10 
 1631000   0.99144011   -7.6118461    417.05994   0.02130901  0.021425342            3 
 1632000   0.99108267   -7.5910914    416.11167  0.021247532  0.021417902            4 
 1633000   0.97089877    -7.551547    418.20395  0.021341291  0.021410496            4 
 1634000    1.0031577   -7.6222357    417.02007  0.021267853   0.02140311            5 
 1635000    0.9987404    -7.617766     417.1882  0.021263415  0.021395735            4 
 1636000   0.97190916    -7.543126    418.41476  0.021312895   0.02138842            4 
 1637000    1.0055801    -7.589177    417.78859     0.021268  0.021381059            3 
 1638000   0.98639306   -7.6254163    417.27132    0.0212287  0.021373764            2 
 1639000   0.98044589   -7.5989758    418.51729  0.021279097   0.02136647            4 
 1640000   0.96529449   -7.6310368    416.78428  0.021178063  0.021359018            6 
 1641000    1.0089204   -7.5578885    418.65736  0.021260276  0.021351625            3 
 1642000   0.99752853    -7.580716    418.69706  0.021249343  0.021344307            3 
 1643000   0.99320604   -7.6087641    417.71377  0.021186537  0.021336979            3 
 1644000   0.99894596   -7.6204767    417.79138  0.021177584   0.02132965            3 
 1645000   0.98169924   -7.6329722    418.60765  0.021206061  0.021322331            6 
 1646000   0.97434311   -7.6122207    417.75708  0.021150115  0.021314972            2 
 1647000   0.98850951   -7.6316597    418.27284   0.02116337  0.021307591           14 
 1648000   0.98674019   -7.6078133    419.19716  0.021197267  0.021300161            3 
 1649000   0.98010747   -7.6364895    418.84219  0.021166474  0.021292837            4 
 1650000   0.99000291   -7.6442077    419.08238  0.021165777   0.02128548            3 
 1651000   0.98995944   -7.6280923     418.9652  0.021147042  0.021278157           12 
 1652000   0.97080227   -7.6321007    418.57576  0.021114597  0.021270793            7 
 1653000   0.99985099   -7.6045466    418.97551  0.021121976  0.021263372            8 
 1654000    0.9851056   -7.6219216    419.47442  0.021134342  0.021255993            3 
 1655000   0.99369654   -7.5724406    419.57996  0.021126886  0.021248628            4 
 1656000   0.98014569   -7.5978232    419.45108  0.021107643  0.021241276            6 
 1657000   0.99755964   -7.6155026    419.77373  0.021111131    0.0212338            5 
 1658000   0.97340615   -7.5984914     419.6112  0.021090229  0.021226383            4 
 1659000   0.97699364   -7.6372095    418.93274  0.021043437  0.021218893            7 
 1660000   0.98512287   -7.6048157    420.20235  0.021094496  0.021211444            3 
 1661000   0.99881984   -7.5578629     420.5027  0.021096864  0.021203996            8 
 1662000   0.98546549   -7.6218022      419.987  0.021058313  0.021196653            4 
 1663000   0.95882623   -7.5749873    420.27107  0.021059885  0.021189306            4 
 1664000   0.97309869    -7.609385     419.9688  0.021032092  0.021181975            6 
 1665000   0.99498214   -7.5772272    420.83201  0.021062663  0.021174621            5 
 1666000   0.98907855   -7.5940322    421.99557  0.021108222  0.021167316            7 
 1667000   0.99570607   -7.5735861    422.25297  0.021108427  0.021160121            3 
 1668000   0.97704397   -7.6050763    421.55991  0.021061146  0.021152774            5 
 1669000   0.97324486   -7.5872269     422.6047  0.021100694  0.021145413            4 
 1670000   0.99574712   -7.6218408    420.62825  0.020989434  0.021138066           10 
 1671000   0.98590291   -7.6345712    422.24282  0.021057392  0.021130773            4 
 1672000    1.0056184   -7.6284581    421.81539  0.021023494  0.021123439            3 
 1673000   0.99290404   -7.6236063    422.30229  0.021035181  0.021116031            5 
 1674000   0.97808266   -7.6266565    421.42439  0.020978912  0.021108621            6 
 1675000    0.9936445   -7.6144952    421.91809   0.02099095  0.021101189            3 
 1676000     1.009315   -7.6165481    421.56349  0.020960794  0.021093817            4 
 1677000    0.9915897    -7.655907    422.44323  0.020992011  0.021086438            7 
 1678000   0.97617505   -7.6453569     421.7778  0.020946454  0.021079016           10 
 1679000   0.98126326    -7.601866    422.76604  0.020983027  0.021071638            4 
 1680000   0.97944034   -7.6273989    421.31341  0.020898483  0.021064187            7 
 1681000   0.98701747   -7.6472323    421.80679  0.020910509  0.021056612           11 
 1682000   0.98167596   -7.6246137    422.16358  0.020915754   0.02104922            4 
 1683000   0.96480965   -7.5823019    421.72113  0.020881419  0.021041817            4 
 1684000   0.99078713   -7.6081459    422.98488  0.020931556    0.0210344            5 
 1685000   0.97865838   -7.6339819    422.46258  0.020893303  0.021026929            8 
 1686000    1.0001687   -7.6702251      422.041  0.020860073  0.021019437           10 
 1687000   0.97928156   -7.5971302    423.35996  0.020912861  0.021012075            6 
 1688000   0.98934139   -7.6699604    423.74326  0.020919395  0.021004676            3 
 1689000   0.94645367   -7.6144191    422.79368  0.020860158  0.020997254            6 
 1690000    0.9679105   -7.6435161    423.30915  0.020873232  0.020989801            2 
 1691000   0.96854549   -7.6651706    422.70457  0.020831094  0.020982397            9 
 1692000   0.97240481   -7.6304472    422.69446  0.020818285  0.020974914            5 
 1693000   0.96881877   -7.6835916    421.54759  0.020749537  0.020967411            6 
 1694000   0.96298366   -7.6344328    422.05921  0.020762456  0.020959919           12 
 1695000   0.98870703   -7.6016342    424.30134  0.020860439  0.020952481            5 
 1696000   0.99558511   -7.6591745    423.69138  0.020818169  0.020945006            5 
 1697000   0.96626545   -7.6565237      423.534  0.020798173  0.020937541            5 
 1698000   0.96537913   -7.5867316    424.87032  0.020851508  0.020930116            4 
 1699000   0.97902476   -7.6112716    424.33932   0.02081319   0.02092276           13 
 1700000   0.96439658   -7.6596295    423.97407  0.020783043  0.020915309           14 
 1701000   0.96250919   -7.6452069    423.30037  0.020737819  0.020907876           10 
 1702000     0.985777   -7.6050262     425.5739  0.020836952  0.020900522            7 
 1703000   0.99171124    -7.584271    426.19347  0.020855034  0.020893187            3 
 1704000   0.98242856   -7.6215229     425.4325   0.02080558  0.020885849           11 
 1705000   0.96897237   -7.6850659    425.14636  0.020779392  0.020878541            6 
 1706000   0.98255274   -7.6218133     425.4644  0.020782747   0.02087121            3 
 1707000   0.98264433   -7.6254693     425.5873  0.020776572  0.020863864            7 
 1708000   0.98208486   -7.6451281    424.43253  0.020708067  0.020856546            4 
 1709000   0.98751065   -7.6133292    426.26379  0.020785244  0.020849269            5 
 1710000   0.99332951   -7.6492749    425.98742  0.020759621  0.020842071            3 
 1711000   0.96973762   -7.5799766    427.11332  0.020802324  0.020834859            7 
 1712000   0.98135381   -7.6072651    426.20938  0.020746173  0.020827585            3 
 1713000   0.97768049   -7.5909348    427.88071  0.020815368  0.020820287            6 
 1714000   0.97526056    -7.661418    425.89517  0.020706689  0.020813009            8 
 1715000   0.97402522   -7.6366752    426.56873  0.020727344  0.020805705            7 
 1716000   0.97045522    -7.642534     425.8287  0.020679327  0.020798402            5 
 1717000   0.97851064   -7.6305616     426.7952  0.020714192  0.020791107            5 
 1718000   0.97664401   -7.6118752    426.32504  0.020679328  0.020783783            6 
 1719000   0.96881442   -7.6711172    426.27431  0.020664839  0.020776477            3 
 1720000   0.98766117   -7.6257633    427.23338  0.020699292  0.020769208            2 
 1721000    0.9894547   -7.6291018    427.48557  0.020699475  0.020761954            9 
 1722000   0.97770959   -7.6481226    428.23929   0.02072393  0.020754688            4 
 1723000   0.99113555   -7.6362918    426.94817  0.020649457   0.02074742            8 
 1724000   0.96572013    -7.622958    426.91097  0.020635681  0.020740116            5 
 1725000   0.99018229   -7.5997565    428.42026  0.020696631  0.020732886            2 
 1726000   0.96009813   -7.6513834    428.23623  0.020675755  0.020725639            5 
 1727000   0.97062152   -7.6386129    426.66617  0.020588022  0.020718381            2 
 1728000   0.97756622   -7.6089007    428.24994  0.020652485  0.020711131           11 
 1729000   0.96683117   -7.6379401    427.15907  0.020587964  0.020703888            4 
 1730000   0.99526273   -7.6568083    428.87542  0.020658739  0.020696691            5 
 1731000   0.96939369   -7.6501985    428.19801  0.020614193  0.020689428            2 
 1732000   0.95066217   -7.6588824     428.4494  0.020614386  0.020682131            4 
 1733000   0.95814128   -7.6672793    428.76396  0.020617617  0.020674897            3 
 1734000   0.99164022   -7.6260687    428.14525  0.020575992  0.020667639            5 
 1735000   0.96406837   -7.6366486    428.77559  0.020594409  0.020660482            8 
 1736000   0.96814136   -7.6562304    428.17401  0.020553668  0.020653168           10 
 1737000   0.97475478   -7.6709993    427.60703  0.020514634  0.020645842           10 
 1738000   0.95723723   -7.6547994    428.00712  0.020522014  0.020638487            3 
 1739000   0.97777606   -7.6418051    428.42992  0.020530474  0.020631063            4 
 1740000   0.97232164   -7.6340354    428.43463    0.0205189  0.020623838            5 
 1741000    0.9684239   -7.6311151    429.01776  0.020535026  0.020616539            4 
 1742000   0.97703844   -7.6519096    428.69743  0.020507914  0.020609245           11 
 1743000   0.98081623   -7.6460997    429.51071  0.020535031  0.020602062            5 
 1744000    1.0098772    -7.652807    429.45142  0.020520423  0.020594815            4 
 1745000   0.97616782   -7.6316128    430.27907  0.020548189  0.020587636            4 
 1746000   0.97595184   -7.6418192    430.16228  0.020530846  0.020580493            5 
 1747000   0.98142285   -7.6614675    429.87731  0.020505501  0.020573349            4 
 1748000    0.9977647     -7.63579    430.88054  0.020541597  0.020566129            9 
 1749000   0.97024419   -7.6360274    430.31227  0.020502776  0.020558902            4 
 1750000   0.96941768   -7.6451894     430.5413  0.020501967  0.020551687            3 
 1751000   0.98747657   -7.6828705    428.97011  0.020415482  0.020544422            5 
 1752000   0.96969884   -7.6451998    431.34293  0.020516692  0.020537163            6 
 1753000   0.94335795   -7.6666361    430.73516  0.020476096  0.020529866            6 
 1754000   0.96728747   -7.6796625    430.27838  0.020442721  0.020522602            3 
 1755000   0.97906052   -7.6378965    430.21306   0.02042797  0.020515299            7 
 1756000    0.9705237   -7.6618511    430.54886  0.020432273  0.020508121            9 
 1757000   0.98993199   -7.6169575    431.66467  0.020473566  0.020500892            8 
 1758000   0.97237851   -7.6451549    430.82518  0.020422126  0.020493699            5 
 1759000   0.97193041   -7.6705125     430.3299  0.020387052  0.020486483            5 
 1760000   0.97424515    -7.659692    430.06463  0.020362909  0.020479201            5 
 1761000   0.97452747    -7.641189    431.71894   0.02042963  0.020471951            8 
 1762000   0.96774838   -7.6813673    430.73168  0.020371343  0.020464608            8 
 1763000   0.96300488   -7.6831341    430.43028  0.020345542  0.020457285            5 
 1764000   0.97821422   -7.6560695     431.1592  0.020368443   0.02044994            4 
 1765000   0.96544106   -7.6877567    429.58553  0.020282603  0.020442597            8 
 1766000    0.9827516   -7.6683134    431.32772  0.020353328  0.020435344            4 
 1767000    0.9825699   -7.6533337    432.76084  0.020409396  0.020428039            4 
 1768000   0.98938862   -7.6848267    431.27541  0.020327838  0.020420758            8 
 1769000   0.97052497   -7.6799682    431.73462  0.020337979  0.020413405            5 
 1770000   0.95035173   -7.6913179    430.67028  0.020276378   0.02040603            5 
 1771000   0.97704789   -7.6867085    431.92732  0.020324078  0.020398671            4 
 1772000   0.98225537   -7.6365964    433.34933  0.020379483  0.020391391            7 
 1773000   0.97636953   -7.6771727    432.14582  0.020311422  0.020384181            2 
 1774000   0.96744335    -7.648842    432.10667  0.020298133  0.020376899            9 
 1775000   0.95499677   -7.6792373     431.9524  0.020279455   0.02036967            2 
 1776000   0.96989743   -7.6663763    432.48755  0.020293147  0.020362446            9 
 1777000   0.97064622   -7.6625454    432.89507  0.020300838  0.020355263            7 
 1778000   0.95325486   -7.6415213    433.41039  0.020313573  0.020347986           12 
 1779000   0.95392987   -7.7046622    432.82237   0.02027461  0.020340829            9 
 1780000   0.97328858   -7.6444729    433.28605  0.020284927  0.020333608           13 
 1781000   0.95790954   -7.6929497    432.86291  0.020253739  0.020326426            3 
 1782000   0.96987989   -7.6880425    432.07202  0.020205388  0.020319188            4 
 1783000   0.96472834   -7.6458974    433.28622  0.020250805   0.02031195            5 
 1784000   0.95647402   -7.6626419    432.81407  0.020217399  0.020304719            6 
 1785000   0.96878074   -7.6589689     433.8019  0.020252189   0.02029752            4 
 1786000   0.96634095   -7.6821259    432.85601  0.020196716  0.020290304           11 
 1787000   0.98134362   -7.6465803    433.91063  0.020234594  0.020283037           10 
 1788000   0.96617528   -7.6454367    433.58008  0.020207871  0.020275775            5 
 1789000   0.98917869   -7.6649762    433.20543  0.020179124  0.020268489            4 
 1790000   0.96406138    -7.629448    435.45114  0.020272399  0.020261271            5 
 1791000   0.97923232   -7.6476984    433.65243  0.020177388   0.02025404           11 
 1792000    0.9508369   -7.6641783    434.08429  0.020186211  0.020246728           10 
 1793000   0.95831334   -7.6784712    433.52522  0.020148969  0.020239428            7 
 1794000   0.97603425   -7.6561155    433.98032  0.020158878  0.020232184            5 
 1795000   0.97521803    -7.640589    433.55431  0.020127869  0.020224902            5 
 1796000    0.9630094   -7.6674885    434.19425  0.020146355  0.020217623            6 
 1797000    0.9747876   -7.6949238    431.82231  0.020025149  0.020210248            5 
 1798000   0.97958202   -7.6646562    433.41536  0.020087846  0.020202924            4 
 1799000   0.96473494   -7.6674112    434.79444  0.020140561  0.020195626            7 
 1800000   0.98206807   -7.6663907     434.1613   0.02010006  0.020188353            7 
 1801000   0.95891357   -7.6952977    433.69839   0.02006748  0.020181021            6 
 1802000   0.96554637   -7.6613781    433.63778  0.020053542  0.020173659            5 
 1803000   0.96534608   -7.6607385    435.18542   0.02011395  0.020166307            2 
 1804000   0.96233675   -7.6933365    434.86267  0.020087891  0.020159019            5 
 1805000   0.97818171   -7.6931188     435.5941  0.020110531  0.020151741            4 
 1806000   0.95260108    -7.706569    434.10493  0.020030681  0.020144524            5 
 1807000   0.95073159   -7.7234613    434.80881  0.020052057  0.020137279            5 
 1808000   0.96014657   -7.6650499    435.82465  0.020087788  0.020129966           13 
 1809000   0.94937519   -7.6818039    435.72725  0.020072197  0.020122728            8 
 1810000   0.95546968   -7.6795663    435.91064  0.020069551  0.020115522            3 
 1811000    0.9648595   -7.6714636    435.31104  0.020030878   0.02010836            4 
 1812000    0.9721727   -7.6965192    434.15622  0.019966714   0.02010107            4 
 1813000   0.93973389   -7.6782378    435.13109   0.02000051  0.020093806            8 
 1814000   0.95602745    -7.679862    436.81711  0.020066938   0.02008657            4 
 1815000   0.95420171    -7.651922    436.69894  0.020050457  0.020079359            4 
 1816000   0.95937173   -7.6728433    437.47806  0.020075168  0.020072227            7 
 1817000   0.95325417   -7.6730328    437.46978   0.02006374  0.020065059            5 
 1818000   0.94815927   -7.6864549    436.85166   0.02002437  0.020057843            3 
 1819000   0.97168582   -7.6808206    436.97708  0.020019107  0.020050646            7 
 1820000   0.95860047   -7.6980689     436.6261  0.019992038  0.020043464            6 
 1821000   0.96542194   -7.6645504    436.47656  0.019974216  0.020036179            5 
 1822000   0.97149236   -7.7244167    435.99315  0.019941143  0.020028872            4 
 1823000   0.97901003   -7.6535951    436.56038  0.019956134  0.020021625            3 
 1824000   0.95898991   -7.7111923    437.16579  0.019972852  0.020014334            4 
 1825000   0.96985512   -7.6799575    436.30766  0.019922724  0.020007121            2 
 1826000   0.95260604   -7.6392739    438.18853  0.019997651  0.019999931            4 
 1827000   0.95409939   -7.6886625    436.19961  0.019895987  0.019992752            4 
 1828000   0.95637014   -7.6625883    437.13091  0.019927558  0.019985558            4 
 1829000   0.94644113   -7.6816498    436.88597  0.019905502  0.019978313            5 
 1830000    0.9435017   -7.6606164    437.87163   0.01993951  0.019971028            8 
 1831000    0.9619969   -7.6692029     437.3629  0.019905466  0.019963893           11 
 1832000   0.96339725   -7.6659958    438.75975   0.01995814  0.019956783            7 
 1833000    0.9316358   -7.6682598    438.38452  0.019930193   0.01994968            7 
 1834000   0.93304824     -7.71291    437.70751  0.019888564  0.019942617            5 
 1835000   0.95042391   -7.6881089    439.02477  0.019937546  0.019935447            4 
 1836000   0.94910871   -7.6324234    439.49021  0.019947813  0.019928313            4 
 1837000   0.95215841   -7.6689053    439.05552  0.019917234  0.019921287            9 
 1838000   0.96711451   -7.6875699    439.86172  0.019942951  0.019914231            6 
 1839000   0.95505281   -7.6880533    439.60412  0.019920433  0.019907189            5 
 1840000   0.97318847   -7.6834135    439.36337  0.019898703  0.019900123            5 
 1841000   0.96602544   -7.6447178    441.15782  0.019969121  0.019893031            8 
 1842000   0.93992356   -7.7319958    437.96404  0.019813791  0.019885908            7 
 1843000   0.94762047   -7.7195019    439.17453  0.019857774  0.019878687            4 
 1844000   0.96020823   -7.6799758    438.45869  0.019814655  0.019871579            6 
 1845000   0.95097401   -7.6874814    439.93316  0.019870513  0.019864498            4 
 1846000   0.96153207   -7.6683632    439.66115   0.01984747  0.019857391            3 
 1847000   0.93932905   -7.6598527    439.70091  0.019838518  0.019850382            3 
 1848000   0.95187936   -7.7127273    440.27465  0.019853655  0.019843295            6 
 1849000   0.93432219   -7.6726523    440.29056  0.019843635  0.019836247            5 
 1850000   0.94829221   -7.6539574    439.79964  0.019810795  0.019829221            3 
 1851000   0.95080577   -7.7103183    440.84682  0.019847237  0.019822222            5 
 1852000   0.95661171   -7.6714974    442.85618  0.019926934  0.019815246            7 
 1853000   0.96300211   -7.6787005    440.61402  0.019815345  0.019808316            7 
 1854000   0.95672544   -7.7025796    440.47089  0.019798224   0.01980138           10 
 1855000   0.94261375   -7.7118083    440.36728  0.019782896  0.019794379            8 
 1856000   0.94485783   -7.7183753    441.01857  0.019801481  0.019787362            4 
 1857000   0.96861261   -7.7260052    440.42173  0.019764034  0.019780309            3 
 1858000   0.94694914   -7.6948345    442.52063  0.019847535  0.019773307            4 
 1859000   0.96978221    -7.685837    442.35331  0.019829358  0.019766351            8 
 1860000   0.94901379   -7.6921395    442.38892  0.019820292  0.019759416            4 
 1861000   0.96978132   -7.7162182     442.6855  0.019822922  0.019752472            6 
 1862000   0.97638978   -7.6792405    441.88222  0.019776326  0.019745496            6 
 1863000   0.95292639   -7.7061766    441.69298  0.019757246  0.019738517            3 
 1864000   0.98342359   -7.7347326    441.21163  0.019725127  0.019731525            6 
 1865000   0.95448391   -7.6796882    441.96305  0.019748126  0.019724518            4 
 1866000   0.95769184   -7.6640559    443.57156  0.019809377  0.019717683            4 
 1867000   0.97542637   -7.6990702    442.50526  0.019751172  0.019710839            2 
 1868000   0.96940999   -7.6908599    443.07872  0.019766181    0.0197039            5 
 1869000   0.93518098   -7.6877178    442.74819  0.019740868  0.019696976            6 
 1870000   0.95340143   -7.7000237    443.40641  0.019759644  0.019689998            4 
 1871000   0.94496184   -7.7199004    441.77305  0.019676334  0.019683078            5 
 1872000   0.96304157   -7.6826681    444.07894  0.019768471  0.019676167            5 
 1873000   0.95637528   -7.6969237    442.50046  0.019687687  0.019669266            6 
 1874000   0.94481592   -7.7306478    442.52954  0.019678475  0.019662327            4 
 1875000   0.96208872    -7.705072    443.65975  0.019718211  0.019655411            3 
 1876000   0.94916406   -7.7122806    443.70227  0.019709589  0.019648506           16 
 1877000   0.94737219    -7.705059    443.32336  0.019682266  0.019641639            7 
 1878000   0.94796344   -7.7100569    444.93953    0.0197435   0.01963474            3 
 1879000   0.94445479   -7.7432997    443.11369  0.019652018  0.019627863            5 
 1880000   0.95203466   -7.7207378    444.15247  0.019687609  0.019620961            4 
 1881000   0.96593686   -7.7310809    443.01319   0.01962667  0.019614074            7 
 1882000   0.95763368   -7.7061201    444.35314  0.019675573  0.019607168           12 
 1883000   0.96248663   -7.6605111     444.6616  0.019678775  0.019600335            5 
 1884000   0.95237773   -7.6830964     444.1396  0.019645241    0.0195935            7 
 1885000   0.95455146   -7.7141818    443.51695  0.019607292   0.01958667            4 
 1886000   0.96399092   -7.6970768    444.84668   0.01965565  0.019579877            4 
 1887000   0.94931083   -7.6934291    443.92799  0.019604663   0.01957306            8 
 1888000    0.9592087    -7.649949     445.7742  0.019675768  0.019566225            4 
 1889000   0.96504394   -7.7062554    444.88543  0.019626144   0.01955937           10 
 1890000   0.94302028   -7.7153612    444.68737  0.019607027  0.019552538           14 
 1891000   0.96133933   -7.6612702    445.29781  0.019623559  0.019545688            3 
 1892000   0.95726876   -7.7097056    445.22165  0.019609833  0.019538953            6 
 1893000   0.95137006   -7.7145037    444.91971  0.019586182  0.019532049            4 
 1894000      0.96185    -7.729698    445.05536  0.019581809   0.01952518            9 
 1895000   0.93495734   -7.7160911    445.24725  0.019579914  0.019518317           15 
 1896000   0.95526401   -7.6645919    446.70064  0.019633467  0.019511517            5 
 1897000   0.93444006   -7.7158548    445.94546  0.019589943  0.019504763            3 
 1898000   0.93515859   -7.7508836    444.70307  0.019525074  0.019497882            5 
 1899000   0.93435061   -7.7793437    444.82425  0.019520109  0.019490959            4 
 1900000   0.92093867   -7.7469331    445.93892  0.019558725  0.019483985           15 
 1901000   0.93236197   -7.7611546    445.01144  0.019507778  0.019477084            6 
 1902000    0.9549071    -7.745367    445.58618  0.019522703  0.019470131            7 
 1903000   0.96989618   -7.7622383     445.5121    0.0195092  0.019463238            4 
 1904000    0.9395061   -7.7569644    444.70942  0.019463823  0.019456325            9 
 1905000   0.94202961   -7.6794416    446.90751   0.01954976   0.01944942            4 
 1906000   0.93429818   -7.6852451     447.5297  0.019566706  0.019442596            6 
 1907000   0.93302292   -7.7370824    446.89729   0.01952881  0.019435791            7 
 1908000   0.94477777   -7.6742984      447.186  0.019531185   0.01942902            2 
 1909000   0.94707043   -7.6709514    449.06593  0.019603018  0.019422329            5 
 1910000   0.96475273   -7.7057742    448.82025  0.019582035  0.019415629            9 
 1911000   0.94400595   -7.7194911    446.84949  0.019485849  0.019408826            4 
 1912000   0.94767893   -7.7366238    446.79065  0.019473093  0.019402012            7 
 1913000   0.92575613   -7.7171067    446.36723  0.019444469  0.019395159           11 
 1914000   0.96016276   -7.7362158    447.97412  0.019504272   0.01938833            3 
 1915000   0.97103413   -7.7429772     446.6525  0.019436575  0.019381521            8 
 1916000   0.96135105   -7.7293298    448.25956  0.019496328  0.019374692            6 
 1917000   0.95428297   -7.6988598    447.40053  0.019448815  0.019367896            9 
 1918000   0.96556643   -7.6946981    446.78441  0.019411905  0.019361097            6 
 1919000   0.94948935   -7.7166646    446.52135  0.019390366   0.01935429            4 
 1920000   0.95963402   -7.7496226    446.63243  0.019385088  0.019347443            5 
 1921000   0.94381696   -7.7357159    446.65169  0.019375832  0.019340558            4 
 1922000   0.94480504   -7.6870558    449.07756  0.019470931  0.019333684            3 
 1923000   0.94562849   -7.7291061    447.36162  0.019386446  0.019326875            6 
 1924000   0.92074189   -7.7598939    447.69404  0.019390767      0.01932            6 
 1925000   0.96735051   -7.7096716    448.27977  0.019406051   0.01931316            6 
 1926000   0.94595939   -7.7591771    447.17397  0.019348129  0.019306336            2 
 1927000   0.94201658   -7.7388269    447.87025    0.0193682  0.019299421            8 
 1928000   0.95617201   -7.7454648    447.88882  0.019358957  0.019292593            5 
 1929000   0.96416131   -7.6812062    447.66617  0.019339302  0.019285831            6 
 1930000    0.9199741   -7.7091557    447.53671  0.019323692  0.019279065            7 
 1931000   0.96869367   -7.6959398    448.51638  0.019355963  0.019272326            5 
 1932000   0.93082731    -7.717211    448.36232    0.0193393  0.019265537           10 
 1933000   0.93216568    -7.718091     447.3537  0.019285812  0.019258724            7 
 1934000   0.96325584   -7.7688943    446.03804   0.01921915  0.019251878            4 
 1935000   0.94175887   -7.7907366    446.86299  0.019244745  0.019244933            5 
 1936000   0.94312084   -7.7327233    448.65472  0.019311928  0.019237958            5 
 1937000   0.92870055   -7.7502504    448.11123  0.019278576  0.019231003            8 
 1938000    0.9440239   -7.7474215    448.28556  0.019276125  0.019224078            3 
 1939000   0.94810227   -7.7564204    448.23968  0.019264212  0.019217156            3 
 1940000   0.93526577   -7.7521944    448.21541  0.019253239  0.019210349            4 
 1941000   0.92329683   -7.7375516    449.20106  0.019285637  0.019203494            7 
 1942000   0.95367448   -7.7848712    448.45475  0.019243681  0.019196625            5 
 1943000   0.92857159   -7.6931731    449.87405   0.01929465  0.019189832            9 
 1944000   0.94284573   -7.7622431    448.80103  0.019238727  0.019183051           11 
 1945000   0.93769331   -7.7284836    449.20786  0.019246266  0.019176242            3 
 1946000   0.94594129   -7.7403571    450.05655   0.01927272  0.019169491            4 
 1947000   0.93265391   -7.7306639    450.44465  0.019279432  0.019162719           12 
 1948000   0.94700258   -7.7384484    448.11514  0.019169881  0.019155964            6 
 1949000   0.94149279   -7.7378122    450.40568  0.019257982  0.019149169            4 
 1950000   0.96008025   -7.7483648    450.22887   0.01924055  0.019142404            7 
 1951000   0.93475751   -7.7292862    449.62966  0.019205094  0.019135561            7 
 1952000   0.93351131    -7.733728    449.98932  0.019210609  0.019128765            4 
 1953000   0.91605976   -7.7511039     449.7022  0.019188522  0.019121943            8 
 1954000   0.92292185   -7.7556011    449.28259  0.019160807  0.019115062            4 
 1955000   0.94684235   -7.7820577    448.62683  0.019123053  0.019108192            6 
 1956000   0.96204761   -7.7524233    450.93647  0.019211676  0.019101396            4 
 1957000   0.96292287     -7.70058    450.90289   0.01920043   0.01909458            8 
 1958000    0.9336117   -7.7891778    449.40383  0.019126823  0.019087767            8 
 1959000   0.94742553   -7.7483098     451.2941  0.019197469  0.019080884            7 
 1960000   0.95772073   -7.7651965    450.07595  0.019135882  0.019074005            8 
 1961000   0.94778999   -7.7311641    450.32325  0.019136633  0.019067121           13 
 1962000   0.92989962   -7.7633626    450.91684  0.019152091  0.019060355            5 
 1963000   0.93112681     -7.74822    450.27063  0.019114902  0.019053542            7 
 1964000   0.91608213   -7.8012227    449.10131  0.019055555  0.019046695            6 
 1965000   0.93287634   -7.7778449    450.31317  0.019097251   0.01903985            4 
 1966000   0.93213801   -7.7752517    448.97756  0.019030924  0.019032983            3 
 1967000   0.92969355   -7.7354317    450.83187  0.019099808  0.019026077            7 
 1968000   0.93800527   -7.7755106    449.74872  0.019044238  0.019019186            9 
 1969000   0.92140718   -7.7748303    451.01531  0.019088171  0.019012314            8 
 1970000   0.95651712   -7.7286128    451.54766  0.019101001  0.019005456            9 
 1971000   0.95667688   -7.7653965      451.248   0.01907864  0.018998606            8 
 1972000   0.92540848   -7.7619194    451.44635  0.019077347  0.018991777            4 
 1973000   0.93807943   -7.7236736    451.54511   0.01907185  0.018984993            3 
 1974000   0.94407992   -7.7839294    450.80034  0.019030747  0.018978173            4 
 1975000   0.91928243    -7.711041     451.3662  0.019044987   0.01897144            3 
 1976000   0.93236834   -7.7305763    452.42419  0.019079967  0.018964764            6 
 1977000   0.93645189   -7.7528418    451.75656  0.019042175  0.018958023            9 
 1978000   0.95247954   -7.7632023     451.6212  0.019026845  0.018951299            5 
 1979000   0.94316178   -7.7440343    452.73647  0.019064194  0.018944494            7 
 1980000   0.94264617    -7.761534     452.2336  0.019033401  0.018937767            5 
 1981000   0.93280469   -7.7525453    450.97853  0.018970996  0.018931022            4 
 1982000   0.91846991   -7.7475045    452.75391  0.019036071  0.018924263           19 
 1983000   0.94141001     -7.77641    451.59775  0.018977885  0.018917512            7 
 1984000   0.94221903   -7.7783097     452.0483  0.018987244   0.01891076           10 
 1985000    0.9199797    -7.765851    453.47691  0.019037654  0.018903974            5 
 1986000   0.93034236   -7.7571441    451.89878  0.018961849  0.018897211            7 
 1987000    0.9426639   -7.7626646    454.34176  0.019054762  0.018890476            6 
 1988000   0.92520031   -7.7329577    453.89207  0.019026327  0.018883814           11 
 1989000    0.9512645    -7.775419    453.59852  0.019004463  0.018877121            3 
 1990000   0.93723955   -7.7632449    453.91436  0.019008139  0.018870391            4 
 1991000    0.9219199   -7.7547392    453.83048  0.018995081  0.018863642            4 
 1992000   0.91431752   -7.7814943    454.30193  0.019005268  0.018856949           15 
 1993000   0.92028269   -7.8137305    452.30774  0.018912349  0.018850176            8 
 1994000   0.94576694   -7.7864429    454.15326  0.018979992  0.018843405           13 
 1995000   0.94169156   -7.7839273    453.18488  0.018930029  0.018836642           11 
 1996000   0.93241929    -7.790545    452.96559  0.018911389  0.018829831           11 
 1997000    0.9256402   -7.7898391    452.48373  0.018881812  0.018822987            6 
 1998000   0.93550238   -7.7775356    453.60903  0.018919296  0.018816237            7 
 1999000   0.94622823   -7.7759959    453.11782  0.018889354  0.018809513            5 
 2000000   0.91593441   -7.8058821    452.49572  0.018853989  0.018802782            9 
 2001000   0.92174989   -7.7873412    453.83212  0.018900222  0.018796049            9 
 2002000   0.94753233   -7.8176184    453.28761  0.018868116  0.018789308           11 
 2003000   0.93603925    -7.842423    452.65365   0.01883232  0.018782536            7 
 2004000   0.93929672   -7.8122933     453.1858  0.018845052  0.018775763           11 
 2005000   0.93355597   -7.7701922    455.09778   0.01891512  0.018769053            8 
 2006000    0.9415493   -7.8094605     453.4937  0.018839054  0.018762338            3 
 2007000   0.94540316   -7.8007596    453.12494  0.018814356  0.018755581            4 
 2008000   0.93158347   -7.7571396    454.63909  0.018867824  0.018748895            6 
 2009000   0.94103926   -7.7938585    453.98667   0.01883137  0.018742166            3 
 2010000   0.92385056   -7.7647954    455.16892  0.018871017  0.018735475            5 
 2011000    0.9179065   -7.7881839    454.60804   0.01883839  0.018728759           12 
 2012000   0.91860387   -7.7830204    454.03196  0.018805167  0.018722097            3 
 2013000   0.93136263   -7.7607102    455.39646  0.018852313  0.018715446            3 
 2014000    0.9212318   -7.7928611    454.33863  0.018799182    0.0187088            5 
 2015000   0.92592464   -7.7681305    455.17421  0.018824409   0.01870212            5 
 2016000   0.92628504   -7.7584198    455.08921  0.018811558  0.018695449            4 
 2017000   0.93537969   -7.7830811    455.58311  0.018822637  0.018688768            6 
 2018000   0.92682837   -7.8005516    454.38171  0.018763698  0.018681984            6 
 2019000   0.94362404   -7.8092045    454.92183  0.018776698  0.018675196            8 
 2020000   0.93084919   -7.8107948    454.10064  0.018733525  0.018668394            2 
 2021000   0.92579518   -7.8015962    454.51023  0.018741144  0.018661666            8 
 2022000   0.95081156   -7.7730491    454.18602  0.018718514   0.01865494            4 
 2023000   0.91280244   -7.8095343    454.68356  0.018729756  0.018648244            7 
 2024000   0.93926857   -7.8268913    454.76021  0.018723658  0.018641498            9 
 2025000   0.91460115   -7.8169787    455.58325  0.018748282  0.018634804            5 
 2026000   0.93703389    -7.786087    456.52842  0.018777905  0.018628111           10 
 2027000   0.92643468   -7.7990334    456.10361  0.018751176  0.018621424            4 
 2028000   0.93820959   -7.7771511    456.66922  0.018765172  0.018614751           10 
 2029000   0.93709245   -7.7898115    455.85549  0.018722502  0.018608141           14 
 2030000    0.9207755    -7.752427    458.07594  0.018804431  0.018601515            3 
 2031000   0.94113296   -7.7840632    456.48779  0.018730009  0.018594884            4 
 2032000   0.94639696   -7.8036189    455.67638  0.018687516  0.018588202            3 
 2033000   0.93190144   -7.7693053    456.78885  0.018723924   0.01858153            5 
 2034000   0.91944005    -7.744132     457.7324  0.018753376  0.018574877            8 
 2035000   0.92227784   -7.7784785    457.80783   0.01874725  0.018568275            4 
 2036000   0.89662045   -7.7710875    456.62792  0.018689748   0.01856169            7 
 2037000   0.90438898   -7.7948316     456.0607  0.018657368  0.018555058            3 
 2038000   0.90181655   -7.7429373    458.12935    0.0187328  0.018548478           10 
 2039000   0.91316766   -7.7993748    457.47918   0.01869704  0.018541954            6 
 2040000   0.93352325   -7.8223305    458.50533  0.018729793   0.01853538            7 
 2041000   0.93563005    -7.816222    457.00964  0.018659548  0.018528774            4 
 2042000   0.93866588    -7.804416    456.83776  0.018643395  0.018522147            7 
 2043000   0.92438842   -7.7980359    457.46999  0.018660058  0.018515583           10 
 2044000   0.94084257   -7.8001738     458.5352  0.018694357  0.018509013            7 
 2045000   0.91662572   -7.7901824    457.71746  0.018651893  0.018502451            7 
 2046000   0.91476474   -7.8166978     456.3156  0.018585679  0.018495906            6 
 2047000   0.91143078   -7.7776395    458.15872  0.018651633  0.018489288            5 
 2048000   0.92964058   -7.8199323    457.07932  0.018598605  0.018482682            7 
 2049000    0.9201077   -7.8205166    457.26478  0.018597071  0.018475955           16 
 2050000   0.92487214   -7.7809752    458.94887  0.018656458  0.018469271           12 
 2051000   0.92304537   -7.7717399    457.38048  0.018583637  0.018462669            8 
 2052000   0.93216925   -7.8145417     458.6272  0.018625211  0.018456066           11 
 2053000   0.90640141   -7.7831646    458.64918  0.018617031  0.018449458            5 
 2054000   0.93284451   -7.7605241    459.56838  0.018645261  0.018442911            9 
 2055000   0.92201923   -7.7890512    459.05954  0.018615553  0.018436332            5 
 2056000   0.95155455   -7.7931677    458.42403   0.01858074  0.018429802            9 
 2057000   0.93629108    -7.794856    458.99998   0.01859504  0.018423215            8 
 2058000   0.91917577    -7.816816    459.16661  0.018592752  0.018416658           12 
 2059000   0.92714583     -7.80794    457.50364  0.018516417  0.018410086           14 
 2060000   0.92703407   -7.8072444    459.37058  0.018582952  0.018403504           17 
 2061000   0.92557258   -7.8146556    459.89934  0.018595315  0.018396927            6 
 2062000   0.92818102   -7.8087006    458.44144  0.018527378  0.018390353            8 
 2063000    0.9223324   -7.7785684    460.11131   0.01858585  0.018383861            2 
 2064000   0.91190064   -7.7960984    459.20449  0.018540233  0.018377296           13 
 2065000   0.91537169   -7.8212759     458.7682  0.018513648  0.018370712            5 
 2066000    0.9380284   -7.8389442    458.38013  0.018489034  0.018364103            7 
 2067000   0.91091744   -7.8335556    458.82192    0.0184979  0.018357477            6 
 2068000     0.933827   -7.8133076    458.48534  0.018475392  0.018350861            6 
 2069000   0.92083878   -7.8086818    458.50143  0.018467111  0.018344257            6 
 2070000   0.93464365    -7.800262     458.4706  0.018456948  0.018337681            5 
 2071000   0.90886952   -7.7929611    460.15407  0.018515776  0.018331071           12 
 2072000   0.91624843   -7.8013296    459.37486  0.018475501  0.018324518           11 
 2073000   0.91881829   -7.8163351    460.81623  0.018524531  0.018317979            9 
 2074000   0.89355626   -7.7702381    460.23601  0.018492286  0.018311451            8 
 2075000   0.91788344   -7.7932548    460.32438  0.018486923  0.018304924           10 
 2076000   0.92188698    -7.794448    460.16018  0.018471426  0.018298427            4 
 2077000   0.92757795   -7.7708452    460.32049  0.018468965  0.018291922            4 
 2078000   0.93358223   -7.8480215    458.72131  0.018395946  0.018285418            6 
 2079000   0.94637449   -7.8455738    460.75501  0.018468615  0.018278864            3 
 2080000    0.9427381   -7.8119328    459.95929  0.018427856   0.01827229            7 
 2081000   0.91219187   -7.8247142    460.30175  0.018432715  0.018265765           12 
 2082000   0.91888703   -7.8197805    459.72225  0.018400666  0.018259189            4 
 2083000   0.92326672    -7.751219    462.52268  0.018503868  0.018252665            8 
 2084000   0.90577962   -7.7755907    461.82705  0.018467172   0.01824619           10 
 2085000    0.9127136    -7.801408    460.21009  0.018393689  0.018239681            2 
 2086000    0.9042578   -7.8406698    460.73626  0.018405891  0.018233197            5 
 2087000   0.92255643   -7.8498956    459.84039    0.0183613  0.018226635            5 
 2088000   0.90346279   -7.8074519    460.58035  0.018382038  0.018220126            9 
 2089000    0.9182571     -7.77368     461.6005  0.018413934  0.018213681            6 
 2090000    0.9011446    -7.778674    462.00616  0.018421298  0.018207315            3 
 2091000   0.93746387   -7.7741597    461.54916  0.018394276  0.018200912            6 
 2092000   0.92202311   -7.8049385    461.67805  0.018390617  0.018194541            5 
 2093000   0.91277418   -7.7831086     462.5159  0.018415189  0.018188177            7 
 2094000    0.9253327    -7.801819    461.58167  0.018369216  0.018181749            4 
 2095000   0.93532656   -7.8041288     462.2977   0.01838893  0.018175304           10 
 2096000   0.91786105   -7.7788342     462.8698  0.018402902  0.018168894            3 
 2097000   0.91785134   -7.8125115    462.11281  0.018364044  0.018162482            6 
 2098000   0.92160746   -7.8041619     462.9501  0.018388549   0.01815609            5 
 2099000   0.92256019   -7.8158236    461.73148  0.018331407  0.018149707            9 
 2100000   0.93430283   -7.8325378    461.80598  0.018325634  0.018143278            4 
 2101000   0.92590038    -7.832034    462.49492  0.018344238  0.018136766            9 
 2102000   0.92536611    -7.796607    463.07025  0.018358319   0.01813037           10 
 2103000   0.89785452   -7.7942551    461.79468  0.018299044  0.018123955            7 
 2104000    0.8981126   -7.8471338    462.27512  0.018309376  0.018117517            6 
 2105000   0.89472834   -7.8003508    463.39809  0.018345134  0.018111137            9 
 2106000   0.91420994   -7.8485106    463.05263  0.018322754  0.018104769            9 
 2107000   0.90112477   -7.8298697    463.62617  0.018336742  0.018098381            6 
 2108000   0.93025438   -7.8560844    462.70907  0.018291788   0.01809201           12 
 2109000    0.9221741   -7.8185807    463.94091  0.018331789  0.018085648           13 
 2110000    0.9074301   -7.8360748      462.472  0.018265087  0.018079239            8 
 2111000    0.9221566    -7.787665    463.51653  0.018297668  0.018072846            7 
 2112000   0.93601006   -7.7996132    463.43362  0.018285733   0.01806644            3 
 2113000   0.90687782    -7.801819    463.51356  0.018280232  0.018060073            4 
 2114000   0.89020313   -7.8355697    462.73618  0.018240941  0.018053703            8 
 2115000   0.93460512   -7.8093437    465.44594  0.018339083  0.018047332            6 
 2116000   0.88966388   -7.8277012    463.09673  0.018237899  0.018040974           16 
 2117000    0.8939068   -7.8146318    462.46707  0.018204498  0.018034579            5 
 2118000   0.91744776   -7.8457673    463.37523  0.018231635  0.018028156            4 
 2119000   0.90928693   -7.8547878    462.70624  0.018196722  0.018021723            9 
 2120000   0.91878405   -7.8335012    464.50833  0.018258975  0.018015304            9 
 2121000    0.9189072   -7.8197432    463.68071   0.01821785  0.018008886            3 
 2122000   0.92398655   -7.8409837    463.85919  0.018216274  0.018002528            5 
 2123000    0.9162613   -7.8092405    465.01384  0.018253016  0.017996189            3 
 2124000   0.91327932   -7.8064434    464.79121  0.018235688  0.017989833            7 
 2125000   0.90339535   -7.7992319    465.22402  0.018244079  0.017983491            7 
 2126000   0.92157678   -7.8290837    464.27753  0.018198398  0.017977162            6 
 2127000   0.92327911   -7.8506344    463.71854  0.018167942  0.017970789            8 
 2128000   0.90875415   -7.8376278    464.38299  0.018185424  0.017964441           10 
 2129000   0.92111985   -7.7907782    465.44312  0.018218378   0.01795807            9 
 2130000   0.94169833   -7.8118801    464.73094  0.018181962  0.017951713            5 
 2131000   0.90079913   -7.8115498    465.29975  0.018195673   0.01794534            2 
 2132000   0.89871732   -7.8283849    463.56724   0.01811942  0.017938926            8 
 2133000   0.91252503   -7.8595694    464.61774  0.018151967  0.017932472            7 
 2134000   0.89755913    -7.843808    463.88017  0.018114658  0.017926036            7 
 2135000   0.90159814   -7.8522042    465.10273  0.018153893  0.017919602            9 
 2136000   0.90073251   -7.8520024    463.58116  0.018086032  0.017913166            5 
 2137000    0.8999417   -7.8108269    464.21659  0.018102347  0.017906759            7 
 2138000   0.89210204   -7.8312837    464.89543   0.01812034  0.017900315            7 
 2139000   0.91059594   -7.8470981    463.31641  0.018050351  0.017893858            7 
 2140000   0.90316347   -7.8467886    464.58323  0.018091247  0.017887421            4 
 2141000   0.90848768    -7.830651    463.47233  0.018039558  0.017880944            4 
 2142000   0.91145421   -7.8420851    462.88565  0.018008312  0.017874468            2 
 2143000   0.91293241   -7.8590066    463.15988  0.018010572  0.017867982            3 
 2144000   0.92205937    -7.880118     461.7847  0.017948721  0.017861442            6 
 2145000   0.89426656   -7.8754965    462.76668  0.017978504  0.017854881            7 
 2146000   0.91341561   -7.8765689    464.98715  0.018056351  0.017848298            4 
 2147000   0.90840779   -7.8686921    462.86564  0.017965597  0.017841717           14 
 2148000   0.89631675   -7.8599354    463.14048  0.017967896  0.017835165            7 
 2149000   0.91647314   -7.8864334    463.70153  0.017981291  0.017828655            9 
 2150000   0.90880825   -7.8707948    463.00113   0.01794578  0.017822106            8 
 2151000    0.8995991   -7.8854333    462.51579  0.017918634  0.017815553            2 
 2152000   0.90920078   -7.8286618    465.52671  0.018026902  0.017809007            4 
 2153000   0.89754861    -7.876375     463.7198  0.017948591  0.017802452           16 
 2154000   0.93187348   -7.8658353     465.0281  0.017990873  0.017795884            7 
 2155000   0.92116264   -7.8977839    463.70062  0.017931192    0.0177893            4 
 2156000   0.90884172   -7.8818164    463.32259  0.017908263  0.017782693            6 
 2157000   0.91005375   -7.8392924    464.50194  0.017945524  0.017776105           10 
 2158000   0.92893084   -7.8392886    465.66688  0.017982193  0.017769628           11 
 2159000   0.91076174   -7.8647195     463.3042  0.017882669   0.01776315            7 
 2160000   0.90352971   -7.8531189    465.29719  0.017951281  0.017756671            4 
 2161000     0.897687   -7.8275879    464.45003  0.017910305  0.017750232            9 
 2162000    0.9109826   -7.8792742     464.5826  0.017907131  0.017743722            4 
 2163000   0.89136953   -7.8401161    465.49341  0.017933942  0.017737182            5 
 2164000   0.90464584   -7.8594744    464.19602  0.017875694  0.017730639           14 
 2165000   0.88795808    -7.845795    464.85537  0.017892816  0.017724136           10 
 2166000   0.88316251   -7.8550643    464.39796  0.017866958  0.017717616            8 
 2167000   0.89586618   -7.8186749    464.76863  0.017872967  0.017711083            4 
 2168000   0.91065856   -7.8489874     464.9901  0.017873236  0.017704576            7 
 2169000   0.92238779   -7.8487959    465.38137  0.017880028  0.017698062            6 
 2170000   0.89363328   -7.8388313    465.92696   0.01789274  0.017691518            5 
 2171000   0.89885495   -7.8352172    464.45956  0.017828173  0.017685014            5 
 2172000   0.90157665   -7.8209275    465.68264  0.017866891  0.017678541            7 
 2173000   0.88609773   -7.8430191    464.64678  0.017818944   0.01767201            8 
 2174000   0.88862976   -7.8105222    466.17259  0.017869235  0.017665489            9 
 2175000   0.89544231   -7.8334243    465.85176  0.017848726  0.017658986           11 
 2176000   0.89401349   -7.8510434     464.8264  0.017801256  0.017652454            6 
 2177000    0.9220653   -7.8913888    463.43496  0.017739816  0.017645873            9 
 2178000   0.92293865   -7.8840576    463.63859  0.017739462   0.01763923            9 
 2179000   0.90038056   -7.9040437    464.51745  0.017764932  0.017632596            8 
 2180000   0.91921324   -7.8790254    464.82908  0.017768696  0.017625982           17 
 2181000   0.90292281   -7.9159993    464.33518  0.017741677  0.017619417            7 
 2182000   0.90585792    -7.870005    465.58074  0.017781116  0.017612841           10 
 2183000   0.90018021   -7.8918464    465.08899  0.017754199   0.01760628           19 
 2184000   0.90369459   -7.8827793    466.17785  0.017787616  0.017599729           15 
 2185000   0.88560259   -7.8868203     465.0524  0.017736552  0.017593195           14 
 2186000   0.88465026   -7.8971194    465.02435  0.017727369   0.01758666            8 
 2187000   0.90644977   -7.8611754    465.15442   0.01772422  0.017580141           11 
 2188000   0.92316284   -7.8692069    465.15514  0.017716147  0.017573606           15 
 2189000   0.88466629      -7.8531    465.79954  0.017732585  0.017567155            6 
 2190000   0.92188794   -7.8743218    465.92124  0.017729119   0.01756068            7 
 2191000   0.89521935   -7.8494128    466.83422  0.017755752  0.017554171            7 
 2192000   0.90010411   -7.8748904     465.3543  0.017691389  0.017547681            6 
 2193000   0.90026897   -7.8171942    468.29333  0.017795004  0.017541207            4 
 2194000   0.88757576   -7.8594484    466.94675  0.017735747  0.017534687            8 
 2195000   0.90891056   -7.8521757     465.8306  0.017685292  0.017528185           10 
 2196000   0.87630594   -7.8596836    467.85531  0.017754072  0.017521715            6 
 2197000   0.88965103    -7.850742    467.04485   0.01771525  0.017515265            7 
 2198000   0.90495508   -7.8578271    467.21099  0.017713489   0.01750882            4 
 2199000    0.8982271   -7.8511456     466.2825  0.017670248  0.017502359            5 
 2200000   0.88355237   -7.8795133     465.8796  0.017646955  0.017495855            3 
 2201000   0.91094811   -7.8394921     466.8751  0.017676628  0.017489358            5 
 2202000   0.90554473    -7.901495    466.33443  0.017648139   0.01748288            4 
 2203000   0.88986205   -7.8755508    465.47904  0.017607771  0.017476364            7 
 2204000   0.90003646   -7.8093228    468.62893   0.01771888  0.017469869            6 
 2205000   0.89989922   -7.8502422    466.96367  0.017647909  0.017463439           11 
 2206000   0.91285759    -7.916187    465.83446  0.017597252   0.01745697            5 
 2207000    0.8960868   -7.8781961     467.0012  0.017633333  0.017450499            4 
 2208000   0.91652507   -7.8898517    466.63561  0.017611549    0.0174441            6 
 2209000   0.90272877   -7.8742052     466.0823  0.017582703  0.017437686            7 
 2210000   0.89157565    -7.862412    467.66905   0.01763458   0.01743126            7 
 2211000   0.88230304   -7.8590225    467.49359   0.01761999  0.017424821           11 
 2212000    0.8948423   -7.8676169    467.43851   0.01760995  0.017418423            9 
 2213000   0.90209731   -7.8654471    467.24893  0.017594854  0.017411995            8 
 2214000    0.9026252   -7.8998563    467.47456  0.017595399  0.017405531            5 
 2215000   0.88384147   -7.8772546    467.95884  0.017605675  0.017399076            5 
 2216000   0.89866649   -7.9017819    465.94562  0.017522022  0.017392589            5 
 2217000   0.90452899   -7.9244091    466.84178  0.017547804  0.017386077            5 
 2218000   0.89768691   -7.8981097    467.93366  0.017580916  0.017379579           19 
 2219000   0.90080331   -7.8726793    468.27379  0.017585767  0.017373101            7 
 2220000   0.88234822   -7.8982218    467.82058  0.017560832  0.017366644           13 
 2221000   0.90304056   -7.8891617    467.79378   0.01755192  0.017360218            7 
 2222000   0.87558335   -7.8627369    468.98944  0.017588863  0.017353826           10 
 2223000   0.91648847   -7.8585171    468.19287   0.01755109  0.017347431            6 
 2224000   0.87927231   -7.8634897    467.57899  0.017520196  0.017341055           11 
 2225000   0.90093283   -7.8416897    467.88004  0.017523597  0.017334639           10 
 2226000   0.91146467   -7.8866391    467.99208  0.017519919  0.017328233            4 
 2227000   0.88973949   -7.8700279    469.04662  0.017551512  0.017321812            5 
 2228000   0.90537604   -7.8772114    469.78382  0.017571208  0.017315432            8 
 2229000   0.88825418   -7.8859552    467.76436  0.017487825  0.017309023            5 
 2230000   0.90438875   -7.8689921    469.40398  0.017541255  0.017302649            2 
 2231000   0.89581614   -7.8859063    469.12851  0.017523103  0.017296246            3 
 2232000   0.88221674   -7.9054755    468.14872  0.017478671  0.017289853            3 
 2233000   0.88622711   -7.8977815    468.14204  0.017470594  0.017283409            5 
 2234000   0.88257009   -7.8792983    468.33977   0.01747015  0.017276909            5 
 2235000   0.88962395   -7.8741593      468.237  0.017458501  0.017270444            4 
 2236000   0.88544636   -7.8708573    469.55782  0.017499919   0.01726404            9 
 2237000   0.91135599    -7.872623    467.80183  0.017426681  0.017257636           10 
 2238000   0.89490748   -7.8571606     468.4814  0.017444199  0.017251198            5 
 2239000   0.91223241    -7.892707    468.70603  0.017444768  0.017244786           12 
 2240000    0.8956433   -7.8693245    468.28022  0.017421139  0.017238401            4 
 2241000   0.88122553   -7.9119947    469.07989  0.017443102  0.017232054           11 
 2242000   0.87788059   -7.9066109    468.81962  0.017425648  0.017225633           11 
 2243000   0.89762329   -7.9231915    468.65912  0.017411916   0.01721919            8 
 2244000   0.87410858   -7.8609115    469.57733  0.017438255  0.017212766           25 
 2245000    0.8998866   -7.8876984     469.5227  0.017428459  0.017206361           12 
 2246000   0.89223189   -7.8736296    468.90841  0.017397908  0.017199932            9 
 2247000   0.88966927    -7.919451    468.27753  0.017366768  0.017193507           11 
 2248000   0.89357587   -7.8779704    469.16833  0.017392064  0.017187086           18 
 2249000   0.91535253    -7.880861    469.06238  0.017380405  0.017180709           32 
 2250000    0.8976783   -7.8588595    470.54953   0.01742776  0.017174359           21 
 2251000    0.8891011   -7.8940275    469.80584  0.017392486  0.017168023           10 
 2252000   0.89893215   -7.8980437    471.09872  0.017432605  0.017161703           13 
 2253000   0.89472163   -7.9136061     468.2211  0.017318431  0.017155351            9 
 2254000   0.88429106   -7.9012712    470.15227  0.017382145  0.017148974            5 
 2255000   0.88684078   -7.8785119    469.36941  0.017345506  0.017142611            6 
 2256000   0.90529943   -7.9098853    469.17517  0.017330643  0.017136252            6 
 2257000   0.88509317   -7.8897496    470.08512  0.017356562  0.017129933            4 
 2258000   0.89403303   -7.9049856    469.75306   0.01733662  0.017123601           12 
 2259000   0.87944825   -7.9209546    470.15302    0.0173437  0.017117268           17 
 2260000   0.87430987   -7.9320983    469.90529  0.017326891  0.017110897            8 
 2261000   0.87914942    -7.916798    469.71752  0.017312307  0.017104519            5 
 2262000   0.87299738   -7.8882425    471.08158  0.017354907  0.017098131            6 
 2263000   0.91330432   -7.8549383    471.10304  0.017348028  0.017091815            8 
 2264000   0.87062658   -7.8845155    471.11646  0.017340859  0.017085529           19 
 2265000   0.89120121   -7.8954684    470.77708  0.017320717  0.017079209           23 
 2266000   0.88261062    -7.928559    470.23157  0.017293012  0.017072869           21 
 2267000   0.86727587   -7.9025828    469.74444  0.017267477  0.017066518           14 
 2268000   0.87657434   -7.9135685    470.59177  0.017290997  0.017060167           28 
 2269000   0.87817963   -7.9117748     470.4013  0.017276381  0.017053839           21 
 2270000   0.87012708   -7.8955242    470.25486  0.017263394   0.01704752           10 
 2271000   0.88584315   -7.9200169    470.59408   0.01726824  0.017041148            5 
 2272000   0.89695228   -7.8944959     471.1326  0.017280392   0.01703479            2 
 2273000   0.89725611    -7.923778    469.57474  0.017215675  0.017028428           16 
 2274000   0.89258638   -7.9535981    469.60368  0.017209164  0.017022032           18 
 2275000   0.87638186   -7.8846685     469.8078  0.017209077   0.01701565            6 
 2276000   0.89309746   -7.9275524    468.66711  0.017159751  0.017009278           13 
 2277000   0.91212699    -7.907373    470.23284  0.017209517  0.017002909            5 
 2278000   0.88950151   -7.9147689    470.18494   0.01720021  0.016996596           10 
 2279000   0.87482889   -7.9259632    470.29568  0.017196712  0.016990197            7 
 2280000   0.90013931   -7.9364629    470.02108  0.017179133  0.016983777            6 
 2281000   0.88276688    -7.934559    470.43168  0.017186602  0.016977363            9 
 2282000   0.88985465   -7.9274042    470.08542  0.017166426  0.016970981            8 
 2283000    0.8781733   -7.9129377    470.74337  0.017182924  0.016964576            5 
 2284000    0.8896386   -7.9242253    471.23469  0.017193326  0.016958199            7 
 2285000   0.86966421   -7.9380138    469.75418  0.017131808  0.016951816           10 
 2286000   0.89381965    -7.928761    471.07789  0.017172568  0.016945455            9 
 2287000   0.87796732   -7.9597968    471.01531  0.017162779  0.016939057           22 
 2288000   0.89006434   -7.9175618    471.13566  0.017159661  0.016932702            6 
 2289000   0.91436827   -7.9083287    471.75933   0.01717487  0.016926385            8 
 2290000   0.90342505    -7.929809    469.69138  0.017092117  0.016920056            6 
 2291000   0.88485843   -7.9603301    470.30605  0.017107015  0.016913718            6 
 2292000   0.88385923   -7.9531224    470.89139  0.017120833   0.01690733            4 
 2293000   0.88176184   -7.9128701    471.13916  0.017122371   0.01690094            3 
 2294000   0.86261528   -7.9435651    469.85983  0.017068433   0.01689456            9 
 2295000    0.8767746   -7.9251463    471.91455  0.017135605  0.016888196            8 
 2296000   0.89227057   -7.9264542    471.23775  0.017103577  0.016881866           21 
 2297000   0.88101863   -7.9054665     471.7383   0.01711429  0.016875544           10 
 2298000   0.87078448   -7.9378188    472.12144  0.017120737   0.01686915           16 
 2299000   0.87462163     -7.90396    472.42733  0.017124377  0.016862772            9 
 2300000   0.87097262   -7.9587074     470.2297  0.017037308  0.016856391            7 
 2301000    0.8548611   -7.9340935    471.02074  0.017058552  0.016850011            5 
 2302000   0.85849401   -7.9356045    470.47434  0.017031362  0.016843619           18 
 2303000    0.8727205   -7.9189381    472.36052  0.017092217   0.01683722           13 
 2304000   0.87373716   -7.9591064    470.87156  0.017030945  0.016830828           14 
 2305000   0.89162187   -7.9578651    469.87943  0.016987687  0.016824434            6 
 2306000   0.89034537   -7.9114588    472.47198  0.017074009  0.016818046            9 
 2307000   0.87822216   -7.9065695    472.17261  0.017055794  0.016811663           14 
 2308000   0.87592398   -7.9248137    472.36329  0.017055289  0.016805348           15 
 2309000   0.89874689   -7.9542007    469.90345  0.016959126  0.016799013           10 
 2310000   0.87922983    -7.914041    473.18181  0.017070051  0.016792697            8 
 2311000   0.89920293   -7.9498152    472.01596  0.017020624  0.016786379           17 
 2312000   0.89827613   -7.9581528    471.11006   0.01698061  0.016780035            5 
 2313000   0.89742077   -7.9273394    472.58515  0.017026414  0.016773696           15 
 2314000   0.89043696   -7.9532344    472.38517  0.017011854  0.016767353            9 
 2315000   0.87738305   -7.9323518    471.93174  0.016988183  0.016761002            7 
 2316000    0.8812388   -7.9397089    472.08599  0.016986399  0.016754655           11 
 2317000   0.86544002   -7.8925975    472.08522   0.01697904  0.016748364            2 
 2318000   0.89367915   -7.8943643    472.94563  0.017002647  0.016742121            4 
 2319000   0.88450552   -7.9298936    473.36552  0.017010404  0.016735872            7 
 2320000   0.88163924   -7.9404183    472.22985  0.016962279  0.016729595           36 
 2321000   0.88148734   -7.9007632    472.79595  0.016975296  0.016723274           16 
 2322000   0.87721826   -7.9558514    471.65503  0.016927039  0.016716935           25 
 2323000   0.88194674   -7.9535655    472.27586  0.016942024  0.016710591            9 
 2324000   0.89112886   -7.9405113    472.82168  0.016954306  0.016704278           15 
 2325000   0.89069185   -7.9572111    472.58766  0.016938626   0.01669795           21 
 2326000   0.87947666   -7.9371983    472.63546  0.016933056  0.016691586            5 
 2327000   0.87250735   -7.9534823    471.41814  0.016882185  0.016685247           12 
 2328000   0.88188091    -7.938061    472.15232  0.016901214   0.01667892            6 
 2329000   0.89125628   -7.9512876    471.34932  0.016865225  0.016672579            5 
 2330000   0.87103013   -7.9556277    472.11777  0.016885471  0.016666225            3 
 2331000   0.86872077   -7.9456166     472.8323  0.016903772   0.01665986            6 
 2332000    0.8869742   -7.9653725     471.7221   0.01685685  0.016653503            6 
 2333000   0.87535926    -7.969303     471.7341  0.016850054  0.016647111            9 
 2334000   0.87849581   -7.9556692    471.51513  0.016835016  0.016640722           15 
 2335000   0.87979469   -7.9484704     472.1402  0.016850114  0.016634343            6 
 2336000   0.88214379   -7.9409361    473.55197  0.016893264   0.01662803            6 
 2337000   0.87330407    -7.956667    472.13244  0.016835417  0.016621756            6 
 2338000   0.87700528   -7.9669518    472.13369  0.016828261  0.016615434           10 
 2339000   0.88494792   -7.9349059    473.43754   0.01686752  0.016609114           20 
 2340000   0.88310383   -7.9424264    471.95646  0.016807566  0.016602808            5 
 2341000   0.86884665   -7.9469635    474.31003  0.016884167  0.016596539            8 
 2342000   0.87244536   -7.9162275    474.81381  0.016894884  0.016590277           21 
 2343000   0.88530784   -7.9554047    473.88507  0.016854641  0.016584025           16 
 2344000   0.87421281   -7.9181207    475.13256    0.0168918  0.016577765           13 
 2345000   0.86410685   -7.9360074    473.12109  0.016813116   0.01657153           19 
 2346000   0.88982035   -7.9313642    472.69754  0.016790904  0.016565242           18 
 2347000   0.86358772   -7.9455429    472.69059  0.016783503   0.01655895           34 
 2348000   0.87589077   -7.9315319    474.51119  0.016840971  0.016552674           16 
 2349000   0.87082521   -7.9517323    473.25748  0.016789324  0.016546426            8 
 2350000   0.87555703   -7.9489237    472.91805  0.016770144  0.016540143           11 
 2351000   0.88082479   -7.9919885    473.78972  0.016793908   0.01653387           10 
 2352000   0.85431159   -7.9721604    473.06635  0.016761138   0.01652758            5 
 2353000    0.8645617   -7.9539952    474.18459  0.016793618  0.016521279           10 
 2354000   0.86886627   -7.9628393    473.48999  0.016761894  0.016515025           13 
 2355000   0.87442317   -7.9522759     473.6182  0.016759314  0.016508749            6 
 2356000   0.88169655   -7.9765753    473.83591    0.0167599  0.016502509            7 
 2357000   0.88637454   -7.9731843    472.45042  0.016703805  0.016496225           22 
 2358000   0.87671077   -7.9801147    473.94421  0.016749513  0.016489932           15 
 2359000   0.89255223   -8.0129666    473.69479  0.016733602   0.01648363            6 
 2360000   0.87567685   -7.9914103    472.93162  0.016699563  0.016477303            4 
 2361000   0.88541809    -7.991547    473.87415  0.016725757  0.016470996            6 
 2362000   0.86535413   -7.9917677    474.15257  0.016728499  0.016464692           14 
 2363000   0.85142593    -7.933055     474.3941  0.016729937  0.016458392            7 
 2364000   0.87981857   -7.9313083    474.81804  0.016737805   0.01645214           12 
 2365000   0.88549807   -7.9328791    474.77437  0.016729189  0.016445949           15 
 2366000   0.87786737   -7.9507768    474.44299  0.016710446  0.016439715           14 
 2367000   0.87424146   -7.9442165    474.57432   0.01670801  0.016433469           12 
 2368000   0.86823745    -8.013897    472.23766  0.016618724  0.016427201            9 
 2369000   0.86035468   -7.9526963    474.13347  0.016678397  0.016420924           10 
 2370000   0.86346896   -7.9637379    474.47001  0.016683193  0.016414655            5 
 2371000   0.86128217   -7.9830254    473.86834   0.01665501  0.016408413           19 
 2372000   0.87672705   -7.9811131    474.61729  0.016674301  0.016402162           19 
 2373000   0.87477841   -7.9898489    473.42147   0.01662528  0.016395862           16 
 2374000   0.86353655   -8.0008612    472.64722  0.016591099  0.016389561           10 
 2375000   0.86542611   -8.0039078    473.44035  0.016611942  0.016383257           10 
 2376000   0.86499892   -7.9953829    473.61792  0.016611179  0.016376963           16 
 2377000   0.88403223   -7.9800388    474.31241  0.016628538  0.016370659           25 
 2378000   0.86982166   -7.9706435    473.76037    0.0166022  0.016364381           11 
 2379000   0.87081431   -7.9781834    473.42364  0.016583426  0.016358096            7 
 2380000   0.85776092   -7.9777889    474.80738  0.016624908  0.016351816            6 
 2381000   0.88498338   -8.0016917    472.95309  0.016553027  0.016345476           13 
 2382000   0.88670362   -8.0143218    473.12762  0.016552184  0.016339172            8 
 2383000   0.85451181   -8.0135392    475.02282  0.016611513  0.016332904           28 
 2384000    0.8912487   -8.0253545    473.31392   0.01654481   0.01632663           13 
 2385000     0.875622   -7.9735328    473.85711  0.016556852  0.016320335            7 
 2386000   0.87615551   -8.0155623    473.55479  0.016539354  0.016314047           18 
 2387000   0.86276954   -8.0008193    473.56221  0.016532684  0.016307758            6 
 2388000   0.87171302   -7.9504586    475.02278   0.01657673    0.0163015           24 
 2389000   0.87059687   -7.9623079    475.21348  0.016576443  0.016295268           15 
 2390000   0.85380601   -7.9776079    474.11556  0.016531226  0.016289029           38 
 2391000   0.87449379    -7.989298    474.63526  0.016542425  0.016282755           55 
 2392000   0.88135114   -7.9373111    474.06834  0.016515759  0.016276511           39 
 2393000   0.88742069    -7.972979    474.72576  0.016531751  0.016270268           46 
 2394000   0.86831394   -7.9888605    474.60258  0.016520558  0.016263991           43 
 2395000   0.88221053   -8.0124346    473.30091  0.016468368  0.016257681           46 
 2396000   0.86049497   -7.9950898    473.22708  0.016458928  0.016251389           33 
 2397000   0.86038203   -7.9492132    474.76381  0.016505486  0.016245122           21 
 2398000   0.87370811   -7.9721345    473.97707  0.016471263  0.016238827           17 
 2399000   0.88159828   -8.0042899    474.18589  0.016471651  0.016232526           43 
 2400000   0.87240376   -7.9921018    474.24717  0.016466916   0.01622624           31 
 2401000    0.8836646   -7.9976108    474.82673  0.016480172   0.01621999           29 
 2402000   0.86119485   -7.9886333    474.13234  0.016449221  0.016213733           16 
 2403000   0.85736355   -7.9820503    474.98091  0.016471803  0.016207522           45 
 2404000   0.86342879   -7.9650855    475.45076  0.016481238  0.016201309           60 
 2405000   0.89060378     -7.98916    475.07564  0.016461387  0.016195104           58 
 2406000   0.85321736    -8.007924     473.9045  0.016413983  0.016188887           87 
 2407000   0.88099708   -7.9648759    474.68852  0.016434307  0.016182627           80 
 2408000   0.84139746   -7.9706324    474.29218  0.016413766  0.016176358          135 
 2409000   0.86059811   -7.9824891     474.4025  0.016410769  0.016170123          112 
 2410000   0.87329914   -7.9690432    475.61493  0.016445883  0.016163877           67 
 2411000    0.8645835   -7.9853932    474.40702  0.016397312  0.016157675           97 
 2412000    0.8530413   -7.9761693    474.73243  0.016401756  0.016151441           68 
 2413000   0.87868335   -8.0277181    473.75523  0.016361211  0.016145158          103 
 2414000   0.85460884   -7.9906776     473.3041   0.01633886  0.016138841           70 
 2415000    0.8548023   -8.0021128    473.65779  0.016344299  0.016132533           77 
 2416000   0.86885592   -8.0276388    474.09938  0.016352766  0.016126209           84 
 2417000   0.84754059   -8.0398771    474.41028  0.016356719  0.016119859          109 
 2418000   0.86859619   -8.0213896    473.81842  0.016329557  0.016113522           76 
 2419000   0.86764369   -8.0366525    473.05938  0.016296658  0.016107171          103 
 2420000   0.85814549   -8.0401587    474.60918  0.016343291  0.016100837          100 
 2421000   0.85494864   -8.0398484    472.84612  0.016275854  0.016094491           99 
 2422000   0.84777219   -8.0270844    473.90645  0.016305617  0.016088125          106 
 2423000   0.86822016   -8.0445549    473.52746  0.016285853  0.016081783          114 
 2424000   0.86743684   -8.0448582    473.57121  0.016280639  0.016075446          114 
 2425000   0.85899737   -8.0528921    474.25816  0.016297531  0.016069084          114 
 2426000   0.84087074   -8.0821574    473.49347  0.016264546  0.016062685           88 
 2427000   0.86186212   -8.0861779    473.64449   0.01626303  0.016056326          128 
 2428000   0.87006439   -8.0240538    474.07151  0.016270988  0.016049994          114 
 2429000   0.84486598   -8.0257138     474.9128  0.016293152  0.016043689          124 
 2430000   0.86548664   -8.0591431    473.00238  0.016220932  0.016037364          147 
 2431000   0.88576323   -8.0417222    473.93022  0.016246065  0.016031025          129 
 2432000   0.84537572   -8.0560904    474.41657   0.01625605  0.016024698          139 
 2433000   0.87103485   -8.0292389    475.46579  0.016285306  0.016018383          145 
 2434000   0.83828156   -8.0389596    475.01037  0.016263023  0.016012068          134 
 2435000   0.86691968   -8.0420596    474.48819  0.016238473   0.01600578          156 
 2436000   0.83757117   -8.0521055    475.18862  0.016255768  0.015999499          175 
 2437000   0.86341454   -8.0619598    475.62002   0.01626385  0.015993208          148 
 2438000   0.85066721   -8.0560784    475.21379  0.016243293   0.01598693          252 
 2439000   0.85281831   -8.0274683     474.7749  0.016221638  0.015980677          199 
 2440000   0.85062521   -8.0181356    475.28393  0.016232375   0.01597441          226 
 2441000   0.84593323   -8.0524402    474.81626  0.016209759  0.015968166          218 
 2442000   0.87215537    -8.033328    475.27661   0.01621883  0.015961926          238 
 2443000   0.85206506   -8.0673862     475.0917  0.016205884  0.015955701          362 
 2444000   0.84619429   -8.0596709    474.18302   0.01616827  0.015949407          233 
 2445000   0.85330078   -8.0465006    474.45135  0.016170803  0.015943144          233 
 2446000   0.85068359   -8.0830959    474.71195   0.01617307  0.015936908          214 
 2447000    0.8509926   -8.0487684    476.22453  0.016217972  0.015930705          273 
 2448000   0.85809595   -8.0560776    475.52294  0.016187464  0.015924455          476 
 2449000   0.87802573   -8.0794885    475.43442  0.016177842  0.015918194          272 
 2450000    0.8654517   -8.0554576    474.24932  0.016130929  0.015911933          271 
 2451000   0.84822556   -8.0919004    474.81962  0.016143738  0.015905644          467 
 2452000   0.87768957    -8.070411    475.84568  0.016172026  0.015899347          561 
 2453000   0.87523534   -8.1306648    473.63463  0.016090319  0.015893003          524 
 2454000   0.85439409    -8.109958    473.58775   0.01608217  0.015886641          554 
 2455000   0.85734299    -8.087888    473.38079  0.016068594  0.015880263          501 
 2456000   0.85429296    -8.101682    475.59186  0.016137074  0.015873933          563 
 2457000   0.86819664   -8.1211632    473.72474   0.01606718  0.015867572          294 
 2458000   0.87732651    -8.109432    473.76904  0.016062146  0.015861182          580 
 2459000   0.86132074   -8.1156755     473.4466  0.016044686  0.015854796          609 
 2460000   0.86098182   -8.1095788    473.32583  0.016034073   0.01584838          357 
 2461000   0.84234659   -8.1198056    472.97891   0.01601581  0.015841985          555 
 2462000   0.88243596   -8.1276588     473.2067  0.016017015  0.015835589          618 
 2463000   0.85127678   -8.1338111    473.47006  0.016019423  0.015829182          627 
 2464000   0.85930003   -8.0856651    474.76865   0.01605684  0.015822814          671 
 2465000   0.85086364   -8.1446719     473.7184  0.016014821  0.015816453          673 
 2466000   0.87007757   -8.1514329    473.06206  0.015986147   0.01581003          784 
 2467000   0.85192858   -8.1754654    472.08255   0.01594658  0.015803575          830 
 2468000   0.84904189   -8.1538445    473.50319  0.015988087  0.015797154          795 
 2469000   0.84959427   -8.1657795    473.21919  0.015972026  0.015790706          810 
 2470000   0.85238323   -8.1964059    472.54078  0.015942671   0.01578427          865 
 2471000     0.867447   -8.2117768    472.23564  0.015925929  0.015777799          945 
 2472000   0.84698182     -8.19008     472.6796  0.015934452  0.015771309          935 
 2473000   0.85390715    -8.200557    473.14674  0.015943751  0.015764859          982 
 2474000   0.85116035   -8.1873702    472.50167  0.015915578  0.015758426         1030 
 2475000   0.86793625   -8.2142806    471.90477  0.015889049  0.015751955         1072 
 2476000   0.85317416   -8.1971532    472.49966  0.015902654   0.01574547         1069 
 2477000   0.85033674   -8.2059132    472.37193  0.015891937  0.015738975         1020 
 2478000   0.86693496   -8.1832002    471.84659  0.015867857  0.015732475         1069 
 2479000   0.86173285   -8.2534439    471.49868  0.015849761  0.015725952         1153 
 2480000   0.84620292   -8.2560416    472.11368  0.015864035  0.015719383         1202 
 2481000   0.84609971   -8.2570722    472.09862  0.015857135  0.015712801         1210 
 2482000   0.84054068   -8.2984235     469.8993  0.015776904  0.015706224         1336 
 2483000   0.85733444   -8.2819626    470.99605  0.015807358  0.015699596         1335 
 2484000    0.8559573    -8.291841    471.52284  0.015818668   0.01569294         1397 
 2485000   0.83813416   -8.3184626    469.69015  0.015750843   0.01568626         1442 
 2486000   0.86573143   -8.3246479    469.54964  0.015739797  0.015679585         1446 
 2487000   0.85892309     -8.31494    470.78086  0.015774724  0.015672927         1462 
 2488000   0.85907032   -8.3228707    468.77605  0.015701234   0.01566625         1458 
 2489000   0.82747091   -8.3511903    469.38931  0.015715458  0.015659537         1612 
 2490000   0.85366215   -8.3383175    468.38717  0.015675608  0.015652815         1630 
 2491000   0.85343612   -8.3815718    468.82039  0.015683808  0.015646085         1720 
 2492000   0.85585515   -8.3403656    468.81934  0.015677479  0.015639336         1693 
 2493000   0.83827046   -8.3714445    469.40189  0.015690664  0.015632586         1758 
 2494000   0.84574829   -8.4027257    468.67043  0.015659931  0.015625817         1776 
 2495000   0.87941457   -8.3909921    468.26386  0.015640076  0.015619027         1734 
 2496000   0.85316305   -8.4191451    468.20092  0.015631708   0.01561222         1877 
 2497000   0.84131917   -8.4261868    468.66299  0.015640869  0.015605409         1859 
 2498000   0.85486351   -8.4235568    468.20774   0.01561942  0.015598589         1949 
 2499000   0.86096751   -8.4376548    466.77275  0.015565318  0.015591741         1888 
 2500000   0.86526546   -8.4608296    466.80459  0.015560153  0.015584884         2043 
 2501000   0.84664065   -8.4720626    467.15298   0.01556554  0.015578008         2026 
 2502000   0.84901978   -8.4585651    467.04832  0.015555833  0.015571143         2065 
 2503000   0.85194095   -8.4678199    466.30543  0.015524884  0.015564266         2090 
 2504000   0.86397928   -8.4910815    465.89775  0.015505117  0.015557335         2188 
 2505000   0.85490324   -8.4592615    466.66378  0.015524411   0.01555042         2243 
 2506000   0.84453844   -8.4935815    466.45416  0.015511245  0.015543479         2230 
 2507000   0.85053352   -8.5079902    465.70131  0.015480033    0.0155365         2271 
 2508000   0.85191622   -8.5511455    464.84537   0.01544542  0.015529524         2343 
 2509000   0.86530576    -8.506218    465.84944  0.015472613  0.015522529         2233 
 2510000   0.86623256   -8.5415252    464.52342  0.015422424  0.015515525         2377 
 2511000   0.84711241    -8.553332    464.12453  0.015403044  0.015508508         2332 
 2512000   0.85849115   -8.5290069    465.28466  0.015435399  0.015501501         2364 
 2513000   0.85772067   -8.5254535     465.0401  0.015421147  0.015494503         2332 
 2514000   0.83643407   -8.5055673    466.40648  0.015460305  0.015487504         2455 
 2515000   0.86734574   -8.4866106    466.80064  0.015467218  0.015480518         2311 
 2516000    0.8590936   -8.5373455    465.57932  0.015420619  0.015473551         2281 
 2517000   0.86674286    -8.528605    465.50332  0.015411976  0.015466565         2380 
 2518000   0.85934256   -8.5283047    465.83363  0.015416787  0.015459588         2375 
 2519000   0.84732039   -8.4974454    465.33413  0.015394142  0.015452598         2424 
 2520000   0.85373058    -8.539846    465.96658  0.015408948  0.015445624         2528 
 2521000   0.83354851   -8.5335434     465.8986  0.015400588  0.015438641         2450 
 2522000   0.85002919   -8.5316264    465.08712  0.015367669  0.015431655         2538 
 2523000   0.84083807   -8.5822297    464.20784  0.015332535  0.015424647         2566 
 2524000   0.84029674   -8.5497996     464.5801  0.015338751  0.015417625         2555 
 2525000    0.8398968   -8.5385531    465.66836  0.015368593  0.015410613         2571 
 2526000   0.85474091   -8.5409681    465.49987   0.01535695  0.015403596         2542 
 2527000   0.84410849   -8.5821897    465.40465  0.015347733  0.015396552         2674 
 2528000   0.84761825   -8.5695574    464.49562  0.015311696  0.015389501         2581 
 2529000   0.83954648    -8.615661    462.78474  0.015249267  0.015382444         2676 
 2530000   0.85404445   -8.5978536    464.39802  0.015296378  0.015375395         2704 
 2531000   0.82943294   -8.5830531    463.95072  0.015275607  0.015368349         2725 
 2532000   0.85266582   -8.5815402    464.42593  0.015285213  0.015361314         2615 
 2533000    0.8339372    -8.570654    464.29592  0.015274902  0.015354255         2690 
 2534000   0.84012748   -8.5991344    464.16183  0.015264464  0.015347212         2731 
 2535000    0.8505515   -8.6083411    464.72594  0.015276987  0.015340151         2634 
 2536000   0.83915866   -8.6043258    463.64948   0.01523559  0.015333091         2725 
 2537000   0.86660125   -8.6146785    462.68998  0.015198068  0.015326021         2713 
 2538000   0.86124778    -8.605815    464.06953  0.015237376  0.015318967         2825 
 2539000   0.84500628   -8.6056038    464.19291  0.015235424  0.015311906         2738 
 2540000   0.85911888   -8.5932696    464.00265  0.015223184  0.015304836         2811 
 2541000   0.84184879   -8.6033456    464.12958  0.015221356  0.015297768         2838 
 2542000   0.86014355    -8.595336    464.55583  0.015229341  0.015290711         2800 
 2543000   0.85067025   -8.5934051    464.62443  0.015225601  0.015283637         2845 
 2544000   0.85327643   -8.6068128      463.467  0.015181702   0.01527656         2879 
 2545000   0.84212368   -8.6250328     463.4005  0.015173559  0.015269476         2892 
 2546000   0.83419464     -8.60956     464.0817  0.015189896  0.015262397         2910 
 2547000   0.83953869   -8.6081929    464.15164   0.01518622  0.015255319         2862 
 2548000   0.84346767   -8.6046619    463.68312  0.015164937  0.015248241         2874 
 2549000   0.83532048   -8.5918467    464.54405  0.015187134  0.015241176         2796 
 2550000   0.84519836   -8.6269848    464.04665  0.015164923   0.01523411         2872 
 2551000    0.8235593   -8.6305805    463.52587  0.015141966   0.01522704         2847 
 2552000   0.84979542   -8.6181243    464.00332  0.015151624  0.015219992         2806 
 2553000   0.84488114   -8.6169124    463.06364  0.015115016  0.015212932         2912 
 2554000   0.85907244   -8.5915006    464.77944  0.015165082  0.015205878         2730 
 2555000   0.85245814   -8.6260537    463.56182  0.015119433  0.015198838         2926 
 2556000    0.8545443   -8.6407439    462.81543  0.015089183  0.015191765         2874 
 2557000   0.83621203   -8.6267991    463.10239  0.015092634  0.015184696         2917 
 2558000   0.84863775   -8.6480478    463.69817  0.015106143  0.015177622         2996 
 2559000   0.83878123   -8.6398784    462.10034  0.015048207  0.015170559         2950 
 2560000   0.83718747   -8.6424836    463.37229  0.015083733  0.015163501         2913 
 2561000   0.83049326   -8.6565298    462.81132   0.01505959  0.015156426         2872 
 2562000   0.85157787   -8.6634957     462.8038  0.015053467  0.015149359         2945 
 2563000   0.82468716   -8.6567713    462.92293  0.015051467  0.015142294         2929 
 2564000   0.84409018   -8.6484921    463.07343  0.015050488  0.015135233         2923 
 2565000   0.83973737   -8.6449412    463.42532  0.015056053  0.015128166         2928 
 2566000    0.8477117   -8.6674587    462.76681    0.0150288  0.015121093         3029 
 2567000   0.83137442    -8.645886    462.70524  0.015020947  0.015114021         2989 
 2568000   0.85043275   -8.6522138    461.35363  0.014971237  0.015106945         3076 
 2569000   0.82681181   -8.6462293    463.38281  0.015031232  0.015099878         3023 
 2570000   0.84085046   -8.6634823    463.84082  0.015040234  0.015092803         2992 
 2571000    0.8400259   -8.6593813    462.19049  0.014980892   0.01508573         2995 
 2572000    0.8284786   -8.6435863    462.07921  0.014971462  0.015078651         3032 
 2573000   0.84188642   -8.6802922    462.23939  0.014970831  0.015071577         3168 
 2574000   0.83188774   -8.6589897    462.29842  0.014966926  0.015064501         3048 
 2575000   0.85522528   -8.6542636    462.52684  0.014968506  0.015057441         3051 
 2576000     0.833401    -8.648753    461.95891  0.014944323  0.015050371         3019 
 2577000   0.83644708    -8.692313    462.65819  0.014961137  0.015043306         3169 
 2578000   0.84879028    -8.696744    462.68447  0.014956183  0.015036228         3091 
 2579000   0.84146955   -8.6537973    462.22248  0.014935455  0.015029156         3047 
 2580000   0.83118906   -8.6617327    463.07181    0.0149571    0.0150221         3120 
 2581000   0.83248301   -8.7011747    462.78808  0.014942144  0.015015024         3072 
 2582000   0.82702379   -8.6572722    462.72255  0.014934242  0.015007957         3040 
 2583000   0.82531382   -8.6826801    461.95715  0.014903767  0.015000893         3105 
 2584000   0.82977183   -8.6972693    461.34089  0.014878125  0.014993801         3143 
 2585000    0.8510156   -8.7138858    461.32001  0.014871696  0.014986723         3157 
 2586000   0.84196164    -8.696688    461.52963    0.0148727  0.014979634         3172 
 2587000   0.84645906   -8.7146683    462.53745  0.014899415   0.01497255         3096 
 2588000   0.82123688   -8.6893556    462.67976  0.014898241  0.014965462         3123 
 2589000   0.82570654   -8.7058662    461.68822  0.014860571  0.014958385         3150 
 2590000   0.82808328   -8.6853411     462.0717  0.014867172  0.014951303         3124 
 2591000   0.84011659   -8.7438106    461.20403  0.014833527   0.01494422         3188 
 2592000   0.83347667   -8.6968513    462.80881  0.014879398  0.014937134         3187 
 2593000   0.83609957    -8.697695    461.89741   0.01484437  0.014930054         3094 
 2594000   0.84266702   -8.7036308    461.40556  0.014822846  0.014922977         3145 
 2595000   0.81865002   -8.6952399    462.04597    0.0148377  0.014915882         3166 
 2596000   0.83971687   -8.7166623    461.00729  0.014798642  0.014908779         3179 
 2597000    0.8218064    -8.679057    462.16032  0.014829942  0.014901676         3156 
 2598000   0.84711637   -8.7394898    461.64636  0.014807748  0.014894581         3213 
 2599000   0.84724258   -8.7267868    461.40374  0.014794272  0.014887477         3213 
 2600000   0.84996697     -8.71381    462.27368  0.014816464   0.01488038         3244 
 2601000    0.8405913   -8.6882165    462.33829  0.014812838  0.014873298         3226 
 2602000    0.8469229   -8.7146504    461.85511   0.01479167  0.014866216         3223 
 2603000   0.81701298    -8.703016    462.21877   0.01479763  0.014859133         3237 
 2604000     0.843045   -8.7263331    461.46803  0.014767922  0.014852045         3280 
 2605000   0.82542137    -8.723087    461.20386  0.014753802  0.014844965         3238 
 2606000   0.83699688   -8.7418546    461.14799  0.014746354  0.014837881         3209 
 2607000   0.83745338   -8.6925276    461.40029  0.014748763  0.014830798         3293 
 2608000   0.83833698   -8.7282567    461.51242   0.01474669  0.014823715         3272 
 2609000   0.83606327   -8.7207499    460.91209  0.014721863  0.014816642         3210 
 2610000   0.81533959   -8.7334837    460.75238  0.014711123   0.01480956         3215 
 2611000   0.84785988   -8.7074086    461.22513  0.014720578  0.014802483         3186 
 2612000   0.84616214   -8.7243905    461.19827  0.014714085  0.014795405         3221 
 2613000   0.83525792   -8.7242088    460.67248  0.014691685   0.01478832         3299 
 2614000   0.83120565   -8.7428373    460.56278  0.014682568  0.014781252         3278 
 2615000   0.82025224   -8.7181452    461.35932  0.014702336  0.014774175         3213 
 2616000   0.82863986   -8.7222656    461.83525  0.014711877  0.014767101         3208 
 2617000   0.82500765   -8.7597051     460.7919  0.014673032   0.01476003         3275 
 2618000   0.82305635   -8.7576166    461.43137  0.014687782  0.014752973         3261 
 2619000   0.82521134   -8.7520602    461.05951  0.014670342  0.014745907         3288 
 2620000   0.81752049   -8.7588836    460.83312  0.014657542  0.014738846         3298 
 2621000   0.83562061   -8.7559863    460.44177  0.014639507  0.014731791         3289 
 2622000   0.81792503   -8.7501318    460.10208  0.014623127  0.014724724         3299 
 2623000   0.84881107   -8.7557522    461.43129  0.014659782  0.014717641         3336 
 2624000   0.83990162   -8.7425163    460.17024  0.014614146  0.014710574         3347 
 2625000   0.82829814   -8.7424464     461.0693  0.014637121  0.014703518         3311 
 2626000   0.83309321   -8.7512139    461.18131  0.014635101  0.014696451         3318 
 2627000   0.83631067   -8.7438967     460.8419  0.014618764  0.014689393         3331 
 2628000   0.83693818   -8.7136959    460.05789   0.01458834   0.01468233         3366 
 2629000   0.83145061   -8.7573919    461.30473  0.014622313  0.014675274         3348 
 2630000   0.84214042   -8.7464843    461.40469  0.014619921  0.014668207         3336 
 2631000   0.82792899   -8.7485951    461.49481  0.014617218  0.014661138         3330 
 2632000   0.82943835   -8.7665278    460.63916  0.014584573  0.014654073         3430 
 2633000   0.81525746   -8.7357473    461.52431  0.014607049  0.014647012         3387 
 2634000   0.83473834   -8.7521363    460.86596  0.014580674  0.014639959         3361 
 2635000   0.83202788   -8.7825307    460.65178  0.014568367   0.01463291         3387 
 2636000   0.82806181   -8.7523081    460.03298  0.014543278  0.014625868         3372 
 2637000   0.83915853   -8.7992701    460.67377  0.014558013  0.014618814         3355 
 2638000   0.82455002   -8.7519041    460.58253  0.014549612  0.014611769         3334 
 2639000   0.82000889   -8.7390799    461.06251  0.014559256  0.014604722         3341 
 2640000   0.83273895   -8.7473118    460.94338   0.01454998  0.014597692         3333 
 2641000   0.84225608   -8.7911609    460.00503  0.014514863  0.014590653         3323 
 2642000   0.84661268   -8.7831379    460.10324  0.014512467   0.01458361         3372 
 2643000   0.82415244   -8.7761104    460.69188  0.014525535  0.014576557         3333 
 2644000   0.80843868   -8.7947859    459.75177  0.014490411  0.014569502         3349 
 2645000   0.82588864   -8.7454277    460.90633  0.014521308   0.01456246         3345 
 2646000   0.82511041   -8.7844625    460.26959  0.014495767  0.014555428         3417 
 2647000   0.83852203   -8.8032369    459.52414  0.014466822  0.014548389         3400 
 2648000    0.8389923   -8.7916893    458.82018  0.014439205  0.014541359         3326 
 2649000   0.81513008   -8.7741458    460.47495  0.014485811  0.014534333         3330 
 2650000   0.84245662   -8.7797105    460.60957  0.014484578   0.01452732         3342 
 2651000   0.85259327   -8.8066218    460.55423  0.014477374  0.014520302         3397 
 2652000   0.84991656    -8.779312     459.5461  0.014440237  0.014513287         3308 
 2653000   0.81818275   -8.7783477    459.96369  0.014447911  0.014506268         3358 
 2654000    0.8086977   -8.8109897    459.44217  0.014426092  0.014499246         3378 
 2655000   0.83554903   -8.8038832    458.90996  0.014403954  0.014492227         3412 
 2656000   0.83210778    -8.793894    459.68912  0.014422977  0.014485229         3369 
 2657000   0.82012414   -8.7541668    459.44286  0.014409825  0.014478225         3410 
 2658000   0.83482222   -8.7916158     459.6123  0.014409716   0.01447123         3339 
 2659000   0.81848105   -8.7901561     460.0983  0.014419528  0.014464255         3388 
 2660000   0.83486943   -8.8064218    459.39127  0.014391957  0.014457269         3413 
 2661000    0.8331246    -8.818917    459.99609  0.014405489  0.014450283         3414 
 2662000   0.83217596   -8.7992398    460.69997  0.014422113  0.014443303         3447 
 2663000    0.8291055   -8.7829399    459.72292  0.014386122  0.014436313         3439 
 2664000   0.81951442   -8.8188774    460.05294  0.014391046  0.014429333         3392 
 2665000   0.82518724   -8.7958733    460.98887  0.014414912  0.014422338         3473 
 2666000   0.81313518    -8.833708    459.54182  0.014364273  0.014415356         3461 
 2667000    0.8068097   -8.7896128    459.99196  0.014372952  0.014408381         3404 
 2668000    0.8200163   -8.8001321    459.82306  0.014362289  0.014401418         3452 
 2669000   0.81108534   -8.7813603    460.14495  0.014366959  0.014394454         3410 
 2670000   0.82482131   -8.8160751    460.41356  0.014369961  0.014387497         3421 
 2671000   0.82777567   -8.8263493    460.05527  0.014353403  0.014380536         3440 
 2672000   0.83379653   -8.7908029    459.94583  0.014344618  0.014373592         3377 
 2673000   0.83020806   -8.8123209    459.62569  0.014329271  0.014366654         3388 
 2674000   0.83562853   -8.7905108    459.84287   0.01433068  0.014359706         3358 
 2675000   0.82278114    -8.811691    459.26067  0.014307186  0.014352757         3407 
 2676000   0.81395329   -8.8266079    459.26812  0.014302071  0.014345807         3395 
 2677000   0.83842361   -8.7997409     460.3143  0.014329296  0.014338856         3411 
 2678000   0.82013806   -8.8236533    459.90792    0.0143113  0.014331909         3434 
 2679000   0.82679291   -8.8306047    459.10934  0.014281117  0.014324946         3363 
 2680000   0.81598644   -8.8323356    459.11714   0.01427603     0.014318         3471 
 2681000   0.83091241   -8.8205579     459.4841  0.014282112  0.014311055         3429 
 2682000   0.82432818   -8.8050844    460.16626  0.014297982  0.014304117         3465 
 2683000   0.82051172   -8.8015767    459.68941  0.014277842  0.014297171         3446 
 2684000   0.81978462   -8.8344861    458.84279  0.014246237  0.014290231         3457 
 2685000   0.84251887   -8.8403632    459.69707  0.014267445  0.014283287         3405 
 2686000   0.83143971   -8.8304645    460.19652  0.014277629   0.01427635         3432 
 2687000   0.81972595   -8.8409719    459.05277  0.014236843  0.014269407         3416 
 2688000   0.81198366   -8.8366879      459.151  0.014234592  0.014262469         3474 
 2689000   0.83660402   -8.8290745    459.19598  0.014230692  0.014255528         3485 
 2690000   0.82074954   -8.8414151    459.21311  0.014225933  0.014248593         3448 
 2691000    0.8240511   -8.8438439    459.57387  0.014231818  0.014241664         3390 
 2692000   0.81067749   -8.7978062    460.66131  0.014260194  0.014234732         3386 
 2693000   0.83028585   -8.8329416    460.16648  0.014239587  0.014227802         3414 
 2694000   0.81811076   -8.8485422    458.96322  0.014197081  0.014220869         3425 
 2695000   0.82283915   -8.8345283    458.94261  0.014191175  0.014213942         3381 
 2696000   0.81072538   -8.8199347    458.97074  0.014186781  0.014207015         3453 
 2697000   0.81966322   -8.8495866    459.08977  0.014185199  0.014200104         3424 
 2698000    0.8237169   -8.8603563     460.8735  0.014235035  0.014193194         3422 
 2699000   0.80205476   -8.8458888    459.61227   0.01419082  0.014186289         3456 
 2700000   0.82640336   -8.8313837    460.39006   0.01420957  0.014179388         3430 
 2701000   0.81828367   -8.8178675     459.6186  0.014180507  0.014172495         3443 
 2702000   0.84040844   -8.8293008    460.27189  0.014195407  0.014165599         3399 
 2703000   0.81626196     -8.83542    459.30352  0.014160301  0.014158702         3392 
 2704000   0.81472715   -8.8414749    459.13416  0.014149845  0.014151822         3489 
 2705000   0.80806262   -8.8188535    459.68461  0.014161572  0.014144927         3420 
 2706000   0.83557845   -8.8581852     459.2118  0.014141777  0.014138045         3506 
 2707000   0.82820997   -8.8477436    458.71754  0.014121338  0.014131159         3431 
 2708000   0.80655464   -8.8582374    459.40432  0.014137258  0.014124278         3495 
 2709000   0.81535389   -8.8566944    459.08621  0.014122253  0.014117395         3437 
 2710000   0.81505517   -8.8479857    459.38378  0.014126192  0.014110517         3462 
 2711000   0.81713197    -8.847398    458.61082  0.014097222  0.014103645         3440 
 2712000   0.81880524   -8.8410078    459.06858   0.01410609  0.014096762         3483 
 2713000   0.82074538   -8.8522817    459.30821  0.014108251  0.014089889         3506 
 2714000   0.83481388    -8.834074    459.21141   0.01410008  0.014083017         3451 
 2715000   0.79465868    -8.833703    459.33288  0.014098615  0.014076167         3416 
 2716000   0.81699418   -8.8443793    459.32663  0.014093232  0.014069317         3411 
 2717000   0.79983578   -8.8551614    459.09437  0.014080922  0.014062462         3437 
 2718000   0.81333442   -8.8422704     459.4521  0.014086709  0.014055616         3504 
 2719000   0.82904603   -8.8337808    459.94297  0.014096572  0.014048773         3366 
 2720000   0.83016586   -8.8573945    458.52914  0.014048074   0.01404194         3444 
 2721000   0.81498448   -8.8459522    459.33239  0.014067512  0.014035109         3450 
 2722000   0.84984673   -8.8495097    459.53473  0.014068538  0.014028275         3462 
 2723000   0.80830851   -8.8723852    459.13784  0.014051225  0.014021441         3448 
 2724000   0.79884022    -8.840581    459.44425  0.014055441  0.014014621         3477 
 2725000   0.81753852   -8.8610629    458.21384  0.014012656  0.014007805         3432 
 2726000   0.82577908   -8.8454675    458.96503  0.014030479  0.014000985         3450 
 2727000   0.82347531   -8.8616255    458.52451  0.014011872  0.013994172         3471 
 2728000   0.80241991    -8.852756    458.77885  0.014014505   0.01398735         3474 
 2729000   0.81134705   -8.8515105    458.50836   0.01400111  0.013980548         3469 
 2730000   0.80538822   -8.8374676    459.32154  0.014020804  0.013973735         3433 
 2731000   0.82263425   -8.8636915    459.26278  0.014013877  0.013966933         3412 
 2732000    0.8262094   -8.8636539    458.28901  0.013979045  0.013960129         3449 
 2733000   0.80716657   -8.8474019    459.73102  0.014017899  0.013953333         3371 
 2734000   0.80274574   -8.8715115    459.47424  0.014004945  0.013946538         3378 
 2735000     0.793219   -8.8415525    459.02846  0.013986242  0.013939744         3445 
 2736000   0.83073458   -8.8214885    459.76762  0.014003643  0.013932962         3367 
 2737000   0.81005017     -8.85894    459.09945  0.013978183  0.013926178         3433 
 2738000   0.81543564   -8.8105093    459.57062  0.013987418  0.013919399         3428 
 2739000   0.80027054   -8.8513182     459.2435  0.013972359  0.013912634         3425 
 2740000   0.81946389   -8.8490703    458.46897  0.013943703  0.013905872         3436 
 2741000   0.81474366   -8.8388901    458.94355  0.013953045  0.013899114         3386 
 2742000   0.82497063   -8.8266669     459.4043  0.013961959   0.01389236         3389 
 2743000   0.81545029   -8.8442328    459.85743  0.013970635  0.013885599         3398 
 2744000   0.81955468   -8.8880098     458.9229  0.013937163  0.013878832         3457 
 2745000   0.80001592    -8.861148    458.57123  0.013921409  0.013872063         3438 
 2746000   0.81343195   -8.8252646    459.10597  0.013932568  0.013865296         3422 
 2747000   0.81894852   -8.8709072     459.7482  0.013946979  0.013858544         3441 
 2748000   0.81306551   -8.8716684    458.51154  0.013904402  0.013851801         3422 
 2749000   0.80753064   -8.8781149    458.50026  0.013899002  0.013845056         3453 
 2750000   0.81113008   -8.8598944     458.6741  0.013899215  0.013838313         3442 
 2751000   0.82473696   -8.8748877    458.71466  0.013895391  0.013831565         3465 
 2752000    0.8161222   -8.8764228    458.77902  0.013892291  0.013824812         3459 
 2753000    0.8227682   -8.8540521    459.23583  0.013901073   0.01381807         3429 
 2754000   0.82308844   -8.8833301    457.92664   0.01385641  0.013811343         3472 
 2755000    0.8001899   -8.8519136    459.60788  0.013902235   0.01380461         3435 
 2756000   0.78095462   -8.8743448    459.27407  0.013887097  0.013797873         3396 
 2757000   0.82703368   -8.8851543    458.62947  0.013862576  0.013791145         3466 
 2758000   0.77966045   -8.8754486    459.22046  0.013875407  0.013784427         3482 
 2759000   0.81629642   -8.8711564    458.75888  0.013856436  0.013777707         3478 
 2760000   0.82125553   -8.8380067    459.84196  0.013884117  0.013770996         3435 
 2761000   0.81799146   -8.8648533    458.92743  0.013851486  0.013764285         3477 
 2762000   0.80187441   -8.8953874    458.15764  0.013823245  0.013757575         3483 
 2763000   0.82176074   -8.8669036    458.49129  0.013828305  0.013750854         3443 
 2764000   0.80151041   -8.8649796    458.00665  0.013808691  0.013744148         3500 
 2765000   0.80747752   -8.8837226    458.83538  0.013828673  0.013737443         3481 
 2766000   0.81739825   -8.8639009    458.58547  0.013816145  0.013730744         3475 
 2767000   0.81074271   -8.8364977    459.70609  0.013844901  0.013724047         3436 
 2768000   0.78977974   -8.8880369    459.00609  0.013818825  0.013717349         3515 
 2769000   0.81976589     -8.87381    459.22491   0.01382042  0.013710666         3497 
 2770000   0.82145864   -8.9068026    458.98389  0.013808179  0.013703978         3483 
 2771000   0.79980061   -8.8681763    459.14927   0.01380817  0.013697293         3466 
 2772000   0.80474856   -8.8784632    458.52319  0.013784367  0.013690604         3503 
 2773000   0.80497828   -8.8860543    457.45881   0.01374741  0.013683918         3477 
 2774000   0.79885084   -8.8958096    457.89629  0.013755596  0.013677234         3529 
 2775000   0.80248455   -8.8721784    458.25579  0.013761435   0.01367055         3481 
 2776000   0.81344437   -8.8891068    459.27311  0.013787017  0.013663872         3489 
 2777000   0.81372353   -8.9120381    458.17617  0.013749135  0.013657193         3495 
 2778000    0.8114608   -8.8739013    458.14568  0.013743271   0.01365052         3456 
 2779000   0.80597609   -8.8860845    458.12438  0.013737687  0.013643836         3443 
 2780000   0.82515007   -8.9349083    458.08163  0.013731464  0.013637149         3500 
 2781000   0.81523865   -8.8948786    458.03445  0.013725112  0.013630473         3516 
 2782000   0.80712922    -8.925728    458.85707   0.01374482  0.013623813         3559 
 2783000   0.81143708   -8.8978476    458.00894  0.013714485  0.013617138         3505 
 2784000   0.79244062   -8.9018462    458.17485  0.013714525  0.013610476         3491 
 2785000   0.78613177   -8.8997064    459.38535  0.013745821  0.013603805         3515 
 2786000   0.80377465   -8.8962302    458.32197   0.01370908  0.013597155         3554 
 2787000   0.80373179   -8.9273846    458.64946  0.013713953  0.013590494         3586 
 2788000   0.80752063     -8.88732    458.25532  0.013697254  0.013583845         3568 
 2789000    0.8034424    -8.924337    457.84158   0.01367998  0.013577185         3622 
 2790000   0.78315497   -8.9301135    458.15005  0.013684291  0.013570525         3624 
 2791000   0.79705981   -8.9259221    458.21935  0.013681457  0.013563854         3600 
 2792000   0.80493365   -8.9137981    458.63713  0.013689026  0.013557183         3627 
 2793000   0.78968515   -8.9406967    457.90844  0.013662383  0.013550509         3656 
 2794000    0.8184465   -8.9397052    457.70202  0.013651337   0.01354384         3703 
 2795000   0.78886695   -8.9318151    458.00338  0.013655438  0.013537171         3687 
 2796000   0.79430942   -8.9381179    458.28216  0.013658863  0.013530499         3686 
 2797000   0.79257169   -8.9341695    457.35366  0.013626316  0.013523833         3643 
 2798000   0.78757178   -8.9456433    457.76158  0.013633595  0.013517172         3674 
 2799000   0.80854159   -8.9502332    457.85319  0.013631451  0.013510501         3697 
 2800000   0.81378413   -8.9811792    456.94206  0.013599466  0.013503828         3700 
 2801000   0.81297142   -8.9384032    457.19959  0.013602273  0.013497166         3673 
 2802000   0.79296925   -8.9689175    456.97073  0.013590612  0.013490488         3747 
 2803000    0.7987453   -8.9921473    456.41446  0.013569225  0.013483817         3724 
 2804000   0.81376443   -8.9558041    457.60653  0.013599814  0.013477159         3718 
 2805000   0.81478845   -8.9675717    456.65597  0.013566725  0.013470502         3729 
 2806000   0.79851922   -8.9231757    457.48253  0.013586438  0.013463851         3712 
 2807000   0.81454625     -8.94708    457.32258  0.013576849  0.013457208         3649 
 2808000   0.80470321   -8.9406576    457.29328  0.013571144  0.013450568         3723 
 2809000   0.79137199   -8.9539597    457.29878  0.013566476  0.013443934         3725 
 2810000   0.81080632    -8.994408    455.45722  0.013507035  0.013437306         3769 
 2811000   0.81430228   -8.9795952     457.3553  0.013558499  0.013430668         3736 
 2812000   0.79356883   -8.9771765    456.90945  0.013540465  0.013424042         3698 
 2813000   0.78420418   -8.9607631    457.17731  0.013543587  0.013417413         3728 
 2814000   0.81089479   -8.9642812    456.15791  0.013508585  0.013410776         3770 
 2815000    0.7890765   -8.9244285    457.47811  0.013542869   0.01340416         3733 
 2816000   0.80626346   -8.9625835     457.7125  0.013544996  0.013397539         3753 
 2817000   0.79594097   -8.9816216    456.98522  0.013518673  0.013390923         3771 
 2818000   0.80427751   -8.9510484    457.42403  0.013526852    0.0133843         3731 
 2819000   0.80650563   -8.9862977    457.08728  0.013512099  0.013377686         3737 
 2820000   0.78938437   -8.9743387      456.149   0.01347958  0.013371067         3727 
 2821000   0.79339886   -8.9796874    457.04544  0.013501283  0.013364458         3722 
 2822000   0.80884646   -8.9742846    457.06089  0.013496955   0.01335785         3736 
 2823000   0.79505173   -8.9563312    456.55446  0.013477225  0.013351241         3765 
 2824000   0.80883939   -8.9538979    457.09119  0.013488291  0.013344631         3784 
 2825000    0.7989485   -8.9788505    456.48862  0.013465741  0.013338021         3823 
 2826000   0.81098519   -8.9395109    456.67231  0.013466393  0.013331423         3782 
 2827000   0.79293498   -8.9796954     456.9075  0.013468562  0.013324819         3814 
 2828000   0.80511006    -8.978574      456.247  0.013444336  0.013318211         3822 
 2829000   0.80366219   -8.9831991    457.01553  0.013462223  0.013311597         3809 
 2830000   0.82184546   -8.9744018    456.17997  0.013432861  0.013304997         3781 
 2831000   0.79577075   -9.0004054    456.25859  0.013430431  0.013298398         3803 
 2832000   0.80920009   -9.0025478    456.64994  0.013437204  0.013291807         3852 
 2833000   0.78697263   -8.9798678    456.61468  0.013431424  0.013285221         3774 
 2834000   0.80129256   -8.9915215    457.33375  0.013447828  0.013278649         3824 
 2835000   0.82020827   -8.9565044    457.04602  0.013434627  0.013272068         3780 
 2836000   0.79134271   -9.0047365    456.19929   0.01340501  0.013265492         3835 
 2837000   0.79414031   -8.9843974    456.97403  0.013423042  0.013258921         3805 
 2838000   0.80197507   -8.9830256    456.64779  0.013408732  0.013252354         3816 
 2839000   0.78561931   -9.0062281    456.98233  0.013413829  0.013245796         3803 
 2840000   0.78275817   -8.9900851     455.6363   0.01336961  0.013239234         3806 
 2841000   0.79751385   -8.9786206    455.94001  0.013373812  0.013232672         3772 
 2842000   0.78303924    -8.980304    455.97608  0.013370164  0.013226118         3786 
 2843000   0.79833171   -8.9655356    457.39602  0.013407082  0.013219561         3777 
 2844000   0.77957163   -9.0004414    456.08777  0.013364035  0.013213013         3808 
 2845000   0.80269807   -8.9661898     456.5265  0.013372188  0.013206473         3763 
 2846000   0.78705882    -8.962473    456.51755  0.013367227  0.013199934         3799 
 2847000   0.80305321    -8.994247    456.17367  0.013352467  0.013193398         3821 
 2848000   0.78718042   -9.0108299    456.75168  0.013364691   0.01318686         3853 
 2849000   0.78434499   -8.9988204    455.74169  0.013330458  0.013180324         3792 
 2850000   0.80291415   -8.9836707    455.82815  0.013328309  0.013173787         3804 
 2851000   0.81258702   -9.0253988    455.68354  0.013319407  0.013167262         3788 
 2852000   0.79137519   -9.0001223    455.48821  0.013309029  0.013160733         3785 
 2853000   0.79299485   -9.0328421    456.29822  0.013328024  0.013154201         3841 
 2854000    0.7919165   -9.0007385    455.71525  0.013306332   0.01314768         3751 
 2855000   0.81131208   -8.9706418    456.68675  0.013330028  0.013141172         3813 
 2856000   0.78483053    -9.014204    455.97586  0.013304618  0.013134667         3799 
 2857000   0.79891963   -8.9831725    456.14484   0.01330489   0.01312817         3788 
 2858000   0.79008065   -8.9642274    455.76632  0.013289198  0.013121668         3789 
 2859000   0.77841082   -8.9950198    455.44065  0.013275057  0.013115157         3815 
 2860000   0.79056738   -9.0095559    456.41914  0.013298926  0.013108654         3839 
 2861000   0.79518623   -9.0275937    455.23642  0.013259828  0.013102159         3803 
 2862000    0.7935701   -8.9970198    456.13728  0.013281426  0.013095673         3841 
 2863000   0.77805805   -8.9820275    456.72241  0.013293818  0.013089182         3832 
 2864000   0.81068778   -9.0156844     456.4212  0.013280412  0.013082693         3835 
 2865000   0.79473929    -9.014628    456.89824  0.013289652  0.013076217         3799 
 2866000   0.78525375   -8.9834213    455.54289  0.013245606  0.013069746         3870 
 2867000   0.79218522   -8.9713139    456.67502  0.013273893  0.013063279         3804 
 2868000   0.80064526   -9.0082637    456.97971  0.013278118  0.013056811         3837 
 2869000   0.81478202    -9.010388    455.07153  0.013218065  0.013050335         3808 
 2870000   0.79291535   -8.9862012    456.34872  0.013250544  0.013043869         3846 
 2871000    0.7943461   -8.9982821    455.37605  0.013217696  0.013037409         3827 
 2872000   0.79820381   -9.0056649    456.10025  0.013234107  0.013030952         3794 
 2873000   0.77025333   -8.9989417    456.75243  0.013248417  0.013024498         3862 
 2874000   0.80450564   -8.9766633    456.73964  0.013243437  0.013018043         3861 
 2875000   0.79417897   -9.0087136     456.3419  0.013227301    0.0130116         3862 
 2876000    0.7800625   -9.0412371    455.65994  0.013202942  0.013005158         3870 
 2877000   0.79913635   -9.0063457    455.88536  0.013204882  0.012998713         3841 
 2878000   0.76800624   -8.9980983    456.62741   0.01322178  0.012992275         3858 
 2879000   0.80206408   -8.9964959    455.31707   0.01317926  0.012985836         3843 
 2880000   0.79236461   -8.9845404    455.69635  0.013185658  0.012979404         3837 
 2881000   0.80352942   -9.0419678    456.95816  0.013217579  0.012972979         3856 
 2882000   0.79110173   -9.0245448    455.28226  0.013164534  0.012966548         3864 
 2883000   0.81535268   -9.0173777    456.36918  0.013191386  0.012960129         3869 
 2884000   0.81721299   -9.0370814    455.35024  0.013157369  0.012953703         3841 
 2885000   0.78587474   -9.0279616     456.3854  0.013182709  0.012947285         3875 
 2886000   0.78727808   -9.0232852    455.59231  0.013155241  0.012940864         3826 
 2887000   0.80687176   -9.0200552    455.77597  0.013155986  0.012934453         3838 
 2888000   0.79994558   -9.0272671    455.76312   0.01315106  0.012928041         3819 
 2889000   0.79472159   -8.9995536    455.97023  0.013152482  0.012921633         3854 
 2890000   0.79860189    -9.010811    455.55478  0.013135951  0.012915231         3850 
 2891000   0.79100815   -9.0272833    455.08381  0.013117832  0.012908837         3800 
 2892000   0.76609231   -9.0230129    455.07317  0.013112989  0.012902436         3815 
 2893000   0.78862729   -9.0502097    455.93089  0.013133163  0.012896038         3866 
 2894000   0.78588248   -8.9949125    456.18594  0.013135969   0.01288965         3846 
 2895000    0.7954989   -9.0136426    455.77111  0.013119491  0.012883271         3828 
 2896000   0.80018646   -9.0100241    455.60411  0.013110155  0.012876882         3835 
 2897000   0.79259937   -8.9959799    455.47063   0.01310179  0.012870498         3837 
 2898000    0.7818673   -8.9928676    455.85338  0.013108275  0.012864127         3852 
 2899000   0.78954207   -9.0117021    455.65637   0.01309809  0.012857753         3814 
 2900000    0.7871894   -9.0032385    455.62469  0.013092663  0.012851388         3812 
 2901000   0.78894193   -9.0242804    455.96957  0.013098057  0.012845027         3797 
 2902000   0.77816874   -9.0310943    456.04579  0.013095732  0.012838668         3847 
 2903000   0.77772532   -9.0249504    455.28215  0.013069301  0.012832318         3871 
 2904000    0.7838185   -9.0308278    454.94729  0.013055191   0.01282598         3824 
 2905000   0.78931284   -9.0088897    456.20178  0.013086683  0.012819645         3798 
 2906000   0.77260524   -9.0195773    456.43927   0.01308899  0.012813311         3823 
 2907000   0.78543565   -8.9886277    456.05049  0.013073343   0.01280697         3853 
 2908000   0.78983355   -9.0118533     455.1836  0.013044005  0.012800632         3825 
 2909000   0.79395455   -8.9986366    455.84711  0.013058528    0.0127943         3838 
 2910000    0.7699691   -9.0245632    455.27428  0.013037637  0.012787966         3807 
 2911000   0.75601255   -9.0056818    455.08905  0.013027856  0.012781638         3784 
 2912000   0.78947815   -9.0093689    455.69977  0.013040859  0.012775318         3795 
 2913000   0.77943418   -9.0322422    456.27076  0.013052716  0.012769007         3858 
 2914000   0.78463257   -9.0319957    455.70293  0.013031999  0.012762686         3819 
 2915000   0.79947313   -9.0055091    455.78743  0.013029944  0.012756379         3823 
 2916000   0.75891329    -9.010319    456.51156  0.013046169  0.012750077         3823 
 2917000   0.79198266   -9.0328099    456.35454  0.013037211  0.012743782         3854 
 2918000   0.78522223    -9.011708    455.22455  0.013000473  0.012737484         3861 
 2919000   0.79540919   -9.0325133    455.98213  0.013017647  0.012731194         3882 
 2920000   0.78972481   -9.0208324    456.64672  0.013032155  0.012724903         3803 
 2921000    0.7932561   -9.0377816    455.65425   0.01299938  0.012718617         3786 
 2922000   0.79414807   -9.0439228     455.7124  0.012996589  0.012712331         3808 
 2923000   0.79722175   -9.0318786    454.88248  0.012968482   0.01270605         3842 
 2924000   0.78811381   -9.0239712      455.885  0.012992618  0.012699767         3800 
 2925000    0.7848025   -9.0092089    455.50262  0.012977283  0.012693486         3818 
 2926000   0.77583186   -9.0376818    455.21806  0.012964743  0.012687219         3821 
 2927000   0.79968937    -9.043418    455.61581  0.012971638  0.012680945         3875 
 2928000   0.79779784    -9.024057    456.60669  0.012995409  0.012674681         3840 
 2929000   0.78560919   -9.0583919    455.30738  0.012954005  0.012668416         3845 
 2930000   0.78589939   -9.0203352     455.5583  0.012956721   0.01266215         3852 
 2931000   0.77438838   -9.0265965    455.43596  0.012948822  0.012655899         3852 
 2932000   0.77845458   -9.0224578    456.40524  0.012971954  0.012649648         3838 
 2933000   0.78159232   -9.0384193    455.12771  0.012931234  0.012643397         3861 
 2934000   0.78150152   -9.0501517    456.26958  0.012959259  0.012637159         3851 
 2935000   0.77639717   -9.0485794    455.05726  0.012920422  0.012630913         3833 
 2936000   0.78371186   -9.0612154    454.89569  0.012911435  0.012624678         3831 
 2937000   0.77779962   -9.0423766    454.94159  0.012908342  0.012618437         3853 
 2938000   0.77486908    -9.028004    455.61139  0.012922946  0.012612203         3848 
 2939000   0.77444794   -9.0303941    455.46621  0.012914433  0.012605974         3844 
 2940000   0.77500999   -9.0600802     454.9931   0.01289663   0.01259975         3859 
 2941000   0.78994985   -9.0304543    455.09767  0.012895208  0.012593528         3843 
 2942000   0.79196444   -9.0295466     454.7753  0.012881693  0.012587307         3854 
 2943000   0.78442648   -9.0462009    454.83138  0.012878904  0.012581091         3863 
 2944000   0.77427365    -9.049512    454.72901  0.012871632  0.012574881         3832 
 2945000   0.79989621    -9.067076    454.54292  0.012861996  0.012568671         3850 
 2946000   0.78143038   -9.0623861    455.53117  0.012885584  0.012562467         3882 
 2947000   0.77259372   -9.0294134    455.06742  0.012868098  0.012556258         3825 
 2948000   0.77873776   -9.0320473    455.62269  0.012879429  0.012550065         3843 
 2949000    0.7655147   -9.0284269    456.50811  0.012900082  0.012543873         3821 
 2950000   0.78927054    -9.026265    455.56944  0.012869193  0.012537683         3847 
 2951000   0.76303586   -9.0325838    455.29697  0.012857138  0.012531496         3842 
 2952000   0.78457298     -9.03563    455.55481  0.012860061  0.012525319         3834 
 2953000   0.77944232   -9.0449989    455.16865  0.012844809  0.012519142         3859 
 2954000    0.7728105   -9.0293517     454.3893  0.012818475  0.012512969         3845 
 2955000   0.78349659   -9.0612399     454.7038  0.012823006  0.012506796         3851 
 2956000   0.79259393   -9.0415287    454.98639  0.012826635  0.012500631         3837 
 2957000   0.79399701   -9.0464052    455.13747  0.012826555  0.012494475         3840 
 2958000    0.7670173   -9.0424338    455.61946  0.012835797   0.01248832         3827 
 2959000    0.7862743   -9.0104831    454.88354  0.012810734   0.01248217         3830 
 2960000   0.78793056     -9.08459    454.74948  0.012802632   0.01247601         3868 
 2961000   0.78450361   -9.0531146    454.36103  0.012787376  0.012469858         3843 
 2962000   0.78673763   -9.0494257    455.36511  0.012811307  0.012463713         3840 
 2963000   0.76434534   -9.0138537    455.65423  0.012815115  0.012457569         3861 
 2964000   0.77007646   -9.0570075    455.84236  0.012816081  0.012451418         3850 
 2965000   0.76880542   -9.0596493    454.47405  0.012773301  0.012445293         3803 
 2966000   0.77227943   -9.0308687    455.21942  0.012789937  0.012439159         3851 
 2967000   0.78430512   -9.0347178    455.56369  0.012795295  0.012433037         3855 
 2968000   0.77734644   -9.0325192    455.22869  0.012781578  0.012426913         3864 
 2969000    0.7742613   -9.0446172    454.94868  0.012769414  0.012420792         3836 
 2970000   0.76765161   -9.0369752    455.56327  0.012782359  0.012414672         3861 
 2971000   0.75811623   -9.0461258    455.43423  0.012774437  0.012408549         3863 
 2972000   0.77209727   -9.0520379    455.33765  0.012767431   0.01240244         3875 
 2973000   0.76737485    -9.042763    455.74845  0.012774651   0.01239633         3855 
 2974000   0.77635463   -9.0455499    455.17008  0.012754149  0.012390211         3845 
 2975000   0.77531768   -9.0174642    456.15182  0.012777362  0.012384104         3874 
 2976000     0.782361   -9.0521587    455.10514   0.01274376  0.012378002         3854 
 2977000   0.77210905   -9.0674175    454.55697  0.012724134  0.012371897         3891 
 2978000   0.76779118   -9.0624938    455.70399  0.012751958  0.012365804         3863 
 2979000   0.79230704   -9.0433614    454.80032  0.012722399  0.012359716         3862 
 2980000   0.77170257   -9.0246886    455.41255   0.01273525  0.012353634         3864 
 2981000   0.77957831   -9.0566376    454.44036  0.012703801  0.012347555         3860 
 2982000   0.76287597   -9.0452297    455.44983  0.012727751   0.01234148         3845 
 2983000   0.77492449    -9.063211     454.6268  0.012700492  0.012335404         3855 
 2984000   0.78243637    -9.022415    455.41151   0.01271815  0.012329332         3872 
 2985000   0.76798736   -9.0567012    454.87715  0.012698971  0.012323259         3841 
 2986000   0.77334848   -9.0334764    455.58078  0.012714355  0.012317186         3819 
 2987000   0.75778431   -9.0588629    454.66646   0.01268459  0.012311123         3851 
 2988000   0.76317906    -9.060186    455.94722  0.012716065  0.012305065         3859 
 2989000   0.78596389   -9.0564731    454.94017  0.012683734  0.012299001         3851 
 2990000   0.76902465   -9.0555253    455.42194  0.012692919  0.012292948         3845 
 2991000   0.79107639    -9.040359    454.87032  0.012673307  0.012286897         3845 
 2992000   0.77437932   -9.0259097    455.59342  0.012689211  0.012280858         3860 
 2993000   0.74932733   -9.0652039    455.06196  0.012670174  0.012274816         3861 
 2994000    0.7747016    -9.035149    455.14972  0.012668384  0.012268771         3858 
 2995000   0.77898944   -9.0769321    454.44261   0.01264448  0.012262733         3864 
 2996000   0.75501557   -9.0349551    454.33791  0.012637347  0.012256702         3844 
 2997000   0.77157874   -9.0843794    455.44192  0.012663828  0.012250672         3876 
 2998000   0.74391984   -9.0555852    455.77953  0.012668989  0.012244649         3872 
 2999000   0.76879886   -9.0541507    455.05305  0.012644577  0.012238626         3860 
 3000000   0.76818853   -9.0346632    454.95611   0.01263767  0.012232618         3860 
 3001000   0.77614386   -9.0667391    454.77549  0.012628443  0.012226595         3864 
 3002000   0.77583579   -9.0622036    454.64901  0.012620725  0.012220588         3873 
 3003000   0.77513565   -9.0606871    454.69768  0.012617873  0.012214588         3843 
 3004000   0.77706389   -9.0557304    455.18397  0.012627163  0.012208585         3899 
 3005000   0.77846364   -9.0352737     455.7318  0.012638153  0.012202579         3858 
 3006000    0.7828227    -9.072069    454.88619  0.012610507  0.012196582         3887 
 3007000   0.75326792   -9.0616073    454.23519  0.012588271  0.012190588         3868 
 3008000    0.7899967   -9.0811439    454.79849  0.012599692  0.012184598         3872 
 3009000   0.77812089   -9.0798932    454.32876  0.012582496  0.012178599         3869 
 3010000   0.76987744   -9.0380301    456.09945  0.012627338  0.012172612         3863 
 3011000   0.78164089   -9.0686645    454.74243  0.012585587  0.012166629         3865 
 3012000   0.77975679   -9.0729347    454.60499  0.012577606  0.012160646         3908 
 3013000   0.77381471   -9.0703166     454.4759  0.012569861  0.012154664         3861 
 3014000    0.7765959    -9.056199    454.15201  0.012556735  0.012148697         3841 
 3015000   0.76506716   -9.0496444    453.83384  0.012543777  0.012142721         3859 
 3016000   0.77282817    -9.049021    455.00641  0.012572016  0.012136757         3832 
 3017000   0.77133701   -9.0370377    455.56549  0.012583292   0.01213079         3855 
 3018000   0.76784783   -9.0837108    454.55728  0.012551283  0.012124829         3851 
 3019000   0.78241767   -9.0815306    454.06509   0.01253354  0.012118871         3893 
 3020000   0.77062655   -9.0244862    454.46457  0.012540413  0.012112921         3863 
 3021000   0.76081935   -9.0722804    454.70156  0.012542799  0.012106972         3854 
 3022000   0.76839058   -9.0867379    453.43543  0.012503735  0.012101022         3865 
 3023000   0.77339656   -9.0802738    455.18281  0.012547767  0.012095084         3845 
 3024000   0.76839106   -9.0660741    455.25197  0.012545524  0.012089143         3856 
 3025000     0.768611   -9.0484789    455.73951  0.012554807  0.012083219         3877 
 3026000    0.7517759    -9.071857    453.97345  0.012502023  0.012077297         3893 
 3027000   0.76619328   -9.0689366    454.75699  0.012519463  0.012071367         3862 
 3028000   0.75864495   -9.0502633    453.82644  0.012489719  0.012065436         3844 
 3029000   0.75389288   -9.0927647    455.40838  0.012529118  0.012059515         3853 
 3030000   0.76709746   -9.0725069    455.02406  0.012514413  0.012053595         3886 
 3031000   0.77479815   -9.0779202    455.01644  0.012510075  0.012047673         3860 
 3032000   0.76137699   -9.0815985    454.44761  0.012490315   0.01204176         3840 
 3033000   0.78736007   -9.0539365    454.45833  0.012486491  0.012035852         3855 
 3034000   0.77412415   -9.0629078    454.08106  0.012472013  0.012029943         3875 
 3035000   0.76074332   -9.0614994    454.22801  0.012471939  0.012024038         3852 
 3036000   0.77120167   -9.0574729    455.18208  0.012494018  0.012018142         3844 
 3037000   0.77317605   -9.0572535     455.1791  0.012489823  0.012012252         3871 
 3038000   0.77764563   -9.0518499    454.24577   0.01246011  0.012006364         3858 
 3039000   0.75793634   -9.0742168    453.50327   0.01243565  0.012000476         3879 
 3040000   0.78852509   -9.0657982    454.95108  0.012471247  0.011994594         3878 
 3041000   0.77377161   -9.0563366     454.1737  0.012445843   0.01198872         3868 
 3042000   0.77904625   -9.0655935    454.01816  0.012437491  0.011982841         3876 
 3043000   0.76022361    -9.049087    455.14082  0.012464148   0.01197697         3843 
 3044000   0.75374152   -9.0676379    454.41717  0.012440242    0.0119711         3876 
 3045000   0.77026227   -9.0730452    454.71839  0.012444401  0.011965233         3881 
 3046000     0.747764     -9.04462    455.63704  0.012465447  0.011959369         3881 
 3047000   0.74764638   -9.0620812     454.7509  0.012437121    0.0119535         3860 
 3048000   0.76022413   -9.1113316    453.94605  0.012411036  0.011947638         3868 
 3049000   0.74914674   -9.0630446    454.24902  0.012415246  0.011941781         3903 
 3050000   0.76075727   -9.0821852    455.06062   0.01243335  0.011935937         3870 
 3051000   0.76243122   -9.0863943    454.55896  0.012415573  0.011930094         3873 
 3052000   0.75074856   -9.0632893    454.40818  0.012407388  0.011924243         3876 
 3053000   0.77471914   -9.0576029     453.5937  0.012381092  0.011918399         3883 
 3054000   0.77090262   -9.0682308    454.75785  0.012408804  0.011912558         3846 
 3055000   0.77324643   -9.0787924    454.03216  0.012384947  0.011906724         3876 
 3056000   0.75738404   -9.0574738    454.48496  0.012393242  0.011900889         3861 
 3057000    0.7693776     -9.06782    454.65934  0.012393941  0.011895067         3863 
 3058000   0.78029027   -9.0696654    455.03194  0.012400042  0.011889246         3840 
 3059000   0.77680482    -9.072187    453.95633  0.012366686  0.011883426         3865 
 3060000   0.74926708   -9.0846434    454.02293  0.012364459  0.011877606         3874 
 3061000   0.75048749   -9.0646857    454.41641  0.012371132  0.011871794         3886 
 3062000   0.77524128   -9.0801532    454.32456  0.012364592  0.011865987         3869 
 3063000   0.75252389   -9.0629373    455.35976  0.012388719  0.011860189         3850 
 3064000   0.76592992   -9.0829713    455.67026  0.012393121   0.01185439         3845 
 3065000   0.76143931   -9.1047589    455.13178  0.012374437  0.011848594         3886 
 3066000   0.75358377   -9.0628548    453.85112  0.012335592  0.011842795         3856 
 3067000   0.78646224   -9.0801835    454.30552  0.012343917  0.011837014         3863 
 3068000   0.76846901   -9.0939052    455.07292  0.012360738  0.011831227         3899 
 3069000   0.76612432   -9.0830099    454.55179   0.01234256  0.011825446         3875 
 3070000   0.76876393   -9.0542868    454.89346  0.012347814  0.011819673         3865 
 3071000   0.75445299   -9.0989677    453.63641  0.012309682  0.011813906         3875 
 3072000   0.75155311   -9.0775121    454.69294  0.012334335  0.011808134         3845 
 3073000   0.74551803   -9.0858003    454.99319  0.012338464  0.011802372         3830 
 3074000   0.76796802   -9.0878339    455.15672  0.012338883  0.011796608         3865 
 3075000   0.76861398   -9.0818819    454.65761  0.012321344  0.011790848         3886 
 3076000   0.75900366    -9.076131    454.62907  0.012316566  0.011785086         3863 
 3077000   0.77025625   -9.0569968    454.69393  0.012314319  0.011779333         3886 
 3078000    0.7502943   -9.0823963    454.02492  0.012292206  0.011773581         3850 
 3079000   0.73993789   -9.0709269    455.01844  0.012315103  0.011767838         3875 
 3080000   0.74962403   -9.0705897    454.98212  0.012310122  0.011762091         3856 
 3081000   0.74746515   -9.0651565    454.26492  0.012286728  0.011756351         3890 
 3082000   0.76688626   -9.0569297    454.56106  0.012290749  0.011750617         3875 
 3083000   0.76322758   -9.0781719    453.31953  0.012253204  0.011744886         3883 
 3084000   0.75885795   -9.0909815     454.3302   0.01227654  0.011739155         3867 
 3085000   0.75563063    -9.074154    454.77123  0.012284474  0.011733425         3881 
 3086000   0.76060828   -9.0745992    454.40299   0.01227055  0.011727706         3838 
 3087000   0.75736194   -9.0898476    454.94295  0.012281151  0.011721983         3869 
 3088000   0.76337241   -9.0866745    453.76161  0.012245294  0.011716272         3864 
 3089000   0.74940662   -9.0770427    454.41984  0.012259087  0.011710564         3861 
 3090000   0.75069451    -9.075553    454.09518  0.012246364  0.011704859         3838 
 3091000   0.75856084   -9.0835452    453.29879  0.012220931  0.011699151         3876 
 3092000   0.76889286   -9.0876089      454.041  0.012236982  0.011693447         3877 
 3093000   0.75328491   -9.0720231    454.00835  0.012232147   0.01168775         3858 
 3094000   0.75807901   -9.0780671    453.93405  0.012226192  0.011682057         3883 
 3095000   0.75812749   -9.0919618    453.74209  0.012217073  0.011676358         3852 
 3096000   0.76194978   -9.0976809    455.24289  0.012253523  0.011670671         3863 
 3097000   0.75061154    -9.079635     454.0151  0.012216529  0.011664988         3879 
 3098000   0.76432065   -9.0580237    454.53293  0.012226515  0.011659308         3829 
 3099000   0.74711307   -9.0771514    454.20843  0.012213844  0.011653629         3860 
 3100000   0.74723285   -9.1042802    454.40824  0.012215275  0.011647957         3871 
 3101000   0.75435313     -9.10172    453.73039   0.01219312  0.011642281         3925 
 3102000   0.77294483   -9.0556129    454.65576  0.012214049  0.011636614         3877 
 3103000   0.75109267   -9.0707423    453.72917  0.012185228  0.011630947         3889 
 3104000   0.74385682   -9.0945464    453.90975  0.012186151  0.011625289         3882 
 3105000   0.74253293   -9.0772598    454.31794  0.012193181  0.011619626         3859 
 3106000   0.75648086   -9.0751118    454.14831  0.012184705  0.011613972         3868 
 3107000   0.76068242   -9.0864886    453.99597  0.012176697  0.011608324         3871 
 3108000   0.75582356   -9.0874879    455.19238  0.012204858  0.011602681         3866 
 3109000   0.76297152   -9.0733355     454.1096   0.01217191  0.011597033         3862 
 3110000    0.7541409   -9.0873355    453.76472  0.012158754  0.011591391         3864 
 3111000   0.76840132   -9.0850554    453.80563  0.012155942  0.011585749         3868 
 3112000   0.75078859   -9.0709709     454.0218  0.012157824   0.01158012         3852 
 3113000   0.75047762   -9.0732984    454.19723  0.012158615  0.011574485         3860 
 3114000    0.7626039   -9.0688941    453.78287  0.012143622  0.011568848         3838 
 3115000   0.75137829   -9.0875496    453.79458  0.012140037  0.011563218         3873 
 3116000   0.74849269   -9.0989031    454.18025  0.012146455  0.011557597         3878 
 3117000   0.75768746   -9.0898158    453.67199   0.01212897  0.011551976         3868 
 3118000   0.75301676   -9.0903472     454.1403  0.012137596  0.011546351         3890 
 3119000   0.76872826   -9.1032984    454.08124  0.012132127  0.011540734         3865 
 3120000     0.747538   -9.0905704    454.50069  0.012139442  0.011535118         3855 
 3121000   0.73708998   -9.0729458    454.38177  0.012132377  0.011529506         3875 
 3122000   0.74943592   -9.0923763    454.07733  0.012120364  0.011523903         3870 
 3123000   0.75939173   -9.0822347    453.43863   0.01209944  0.011518293         3883 
 3124000   0.75099251    -9.100517    453.73535  0.012103482  0.011512697         3885 
 3125000   0.74625997   -9.1032786    454.07445  0.012108652  0.011507099         3895 
 3126000   0.76257768    -9.069045    454.18458  0.012107714  0.011501515         3860 
 3127000    0.7451869   -9.0821237    453.81471  0.012093985  0.011495936         3843 
 3128000   0.75052373   -9.0968478     454.6628  0.012112713  0.011490359         3828 
 3129000   0.74363435   -9.0707006    454.58697  0.012106822  0.011484783         3856 
 3130000    0.7594358   -9.0880316    453.29347  0.012068516  0.011479207         3857 
 3131000      0.75514   -9.0794772    454.03503  0.012084399  0.011473639         3884 
 3132000   0.73201796   -9.1002816     455.3673  0.012115988  0.011468071         3823 
 3133000   0.75749923   -9.0913726    454.25272  0.012082475  0.011462505         3867 
 3134000   0.76397414   -9.0927562    454.53893   0.01208623   0.01145694         3833 
 3135000   0.74054317    -9.083934    455.29356  0.012102434  0.011451385         3838 
 3136000    0.7346861   -9.0880734     453.8768  0.012060927  0.011445828         3910 
 3137000    0.7384675   -9.0988506    454.07551  0.012062361  0.011440271         3866 
 3138000   0.76494669   -9.0941201    454.26699  0.012063602  0.011434722         3880 
 3139000   0.75088338   -9.1299908    453.28813  0.012033772  0.011429174         3876 
 3140000   0.75955297   -9.0716054     453.8062  0.012043689   0.01142363         3834 
 3141000   0.75434412   -9.0850061     454.5326  0.012059127  0.011418084         3851 
 3142000   0.74140258   -9.1163086     454.4886  0.012054121  0.011412545         3904 
 3143000   0.74880785   -9.1092386    453.57663  0.012026106  0.011407006         3870 
 3144000     0.754056   -9.0982008    453.79839  0.012028159  0.011401479         3869 
 3145000   0.76041292   -9.0928832    454.04326  0.012030823  0.011395946         3869 
 3146000   0.74648883   -9.0987144    453.71539  0.012018314   0.01139043         3878 
 3147000   0.76496587   -9.1088327    454.50685  0.012035453  0.011384906         3876 
 3148000   0.75298776   -9.0930065    453.66197  0.012009264  0.011379381         3880 
 3149000   0.76634283   -9.0951306    453.78183  0.012008623   0.01137387         3865 
 3150000    0.7468234   -9.0834451    453.48382  0.011996926  0.011368352         3843 
 3151000   0.75396906   -9.1162883     453.5777  0.011995602   0.01136284         3880 
 3152000   0.74636348    -9.102644    453.45408  0.011988528  0.011357336         3896 
 3153000   0.74183982   -9.0739471    454.04242  0.012000275   0.01135183         3878 
 3154000   0.76124297   -9.1017683    453.70639  0.011987592  0.011346327         3906 
 3155000   0.75555731   -9.1109318    453.31055  0.011973337  0.011340829         3880 
 3156000   0.74835389   -9.1003009    453.71931  0.011980337  0.011335335         3851 
 3157000   0.73351969   -9.1165872    453.94765  0.011982569  0.011329843         3881 
 3158000   0.72153156   -9.0973425    454.05771  0.011981679  0.011324352         3877 
 3159000   0.74553962   -9.0950884    454.10434  0.011979116  0.011318868         3850 
 3160000   0.73666163   -9.1253428    453.78893  0.011967008  0.011313387         3888 
 3161000   0.76418154   -9.1318463    452.90527  0.011939926  0.011307913         3867 
 3162000   0.74762124   -9.1160749    452.90659  0.011936185  0.011302444         3885 
 3163000   0.74900839   -9.0861621    453.34223  0.011943888  0.011296974         3849 
 3164000   0.74479435   -9.1032122    453.25714  0.011937873  0.011291512         3874 
 3165000   0.75607298   -9.1317428    454.45973  0.011965764  0.011286051         3849 
 3166000   0.74600826   -9.1076209    454.59824  0.011965631  0.011280591         3877 
 3167000   0.74800692   -9.0898643    454.90106   0.01196982  0.011275135         3888 
 3168000   0.75782719   -9.0754975     454.0268  0.011943045  0.011269685         3847 
 3169000   0.74122819   -9.0855862    452.89191  0.011909433  0.011264239         3894 
 3170000   0.74516282   -9.1008636     453.4687  0.011920839  0.011258794         3882 
 3171000   0.72631193   -9.1097936    453.09518  0.011907263  0.011253346         3875 
 3172000   0.74194395   -9.1134436    454.29065  0.011934916    0.0112479         3848 
 3173000   0.74043461   -9.0909138    454.38873  0.011933731  0.011242466         3861 
 3174000   0.75768534   -9.1199416    453.27774  0.011900802  0.011237031         3884 
 3175000   0.75224835    -9.120093    453.22165  0.011895581  0.011231599         3891 
 3176000   0.74982914   -9.1078303    454.06519  0.011913969  0.011226172         3875 
 3177000   0.73579066   -9.1062897     453.8394  0.011904296  0.011220746         3875 
 3178000   0.74491746   -9.1026041    453.39883  0.011888998  0.011215321         3874 
 3179000   0.74893744   -9.1137479    453.07961   0.01187689  0.011209906         3869 
 3180000   0.75903791   -9.1048964    454.63941  0.011914031  0.011204494         3876 
 3181000   0.72727146   -9.1008936    454.13841   0.01189716  0.011199082         3881 
 3182000   0.73870508   -9.1055368    453.52574  0.011877376  0.011193674         3883 
 3183000   0.73055643   -9.1026534    453.82694  0.011881531  0.011188266         3884 
 3184000   0.74374715   -9.1072209    453.34203  0.011865108  0.011182869         3856 
 3185000   0.73066575   -9.1191354     453.0092  0.011852674  0.011177472         3896 
 3186000   0.75382091   -9.1172124    454.26666  0.011881844  0.011172077         3868 
 3187000   0.74390968   -9.1262039    454.42914  0.011882364  0.011166693         3859 
 3188000   0.74366751   -9.1192166     453.8965  0.011864714  0.011161307         3876 
 3189000   0.74975131   -9.0845692    453.75326  0.011857251  0.011155928         3860 
 3190000   0.74879967   -9.0945637    454.57327  0.011874955  0.011150545         3898 
 3191000   0.74311692   -9.0950292    454.16466  0.011860563  0.011145163         3878 
 3192000   0.73216742   -9.1030365    453.09232  0.011828851  0.011139791         3871 
 3193000   0.74200543   -9.0956968    453.47289  0.011835079  0.011134413         3871 
 3194000   0.73815975   -9.1179764    454.07252  0.011847018  0.011129042         3902 
 3195000   0.72496371   -9.1249173     453.4479  0.011827019  0.011123669         3890 
 3196000   0.74602534   -9.0949927    453.87597   0.01183448  0.011118302         3893 
 3197000   0.76386865   -9.1121612    454.07637  0.011836002  0.011112944         3857 
 3198000   0.73605367   -9.1209175    453.93561  0.011828633  0.011107587         3897 
 3199000   0.74259238   -9.0758756    453.41152  0.011811283  0.011102233         3876 
 3200000   0.73321198   -9.1189611    453.12445  0.011800116  0.011096888         3876 
 3201000   0.74594365   -9.0881616     454.1915  0.011824209  0.011091546         3853 
 3202000   0.72955976   -9.1060742    453.36547  0.011799018  0.011086213         3879 
 3203000    0.7395518   -9.0896599    454.30094  0.011819673  0.011080873         3860 
 3204000   0.72265777   -9.1071452    453.36579  0.011791661  0.011075538         3889 
 3205000   0.75028411   -9.1006425    453.45986  0.011790428    0.0110702         3895 
 3206000   0.76814139   -9.1174846    453.85195  0.011796942  0.011064872         3878 
 3207000   0.73362795   -9.1065667    453.69188  0.011789104  0.011059552         3859 
 3208000   0.72749919    -9.089002    453.65079  0.011784362  0.011054226         3854 
 3209000   0.73285344   -9.1208286    452.73815  0.011756989  0.011048909         3885 
 3210000   0.72714483   -9.1283881    453.31363  0.011768267  0.011043587         3893 
 3211000    0.7229918     -9.10821    453.37642  0.011766231  0.011038271         3890 
 3212000   0.74969937   -9.1203322    453.67217  0.011770241  0.011032958         3879 
 3213000   0.74520087   -9.1090288    453.47561   0.01176148  0.011027645         3895 
 3214000   0.74659716   -9.1413126    454.00924  0.011771656  0.011022336         3876 
 3215000   0.71776138   -9.1291724    453.48572  0.011754425  0.011017027         3869 
 3216000   0.74122221   -9.1413426    453.30335  0.011746045  0.011011727         3879 
 3217000   0.73525303   -9.1055397    454.29472  0.011768074  0.011006428         3876 
 3218000   0.74698585   -9.1198714    453.69265  0.011748825  0.011001133         3880 
 3219000   0.74271736   -9.1144529     453.0097  0.011727496  0.010995845         3876 
 3220000   0.74756556    -9.107221    453.49382  0.011736382  0.010990554         3897 
 3221000   0.73449544   -9.1275156    453.01362  0.011720315  0.010985269         3870 
 3222000   0.73189788   -9.1266799    453.79448  0.011736874  0.010979994         3880 
 3223000   0.74254599   -9.1348285    453.43854  0.011724029  0.010974719         3891 
 3224000   0.75477626   -9.1041866    453.26963  0.011716027  0.010969444         3899 
 3225000   0.72661159   -9.0959719    454.16112   0.01173543  0.010964173         3863 
 3226000   0.73029975   -9.1021425    453.41516  0.011712522  0.010958906         3880 
 3227000   0.73422983   -9.1070489    453.21307  0.011703674  0.010953641         3882 
 3228000   0.73226543   -9.1001013     453.3131  0.011702631  0.010948375         3844 
 3229000   0.72349953   -9.1172034    453.33478  0.011699566   0.01094312         3847 
 3230000   0.73068152   -9.1201492    453.34767  0.011696276  0.010937861         3873 
 3231000   0.74477276   -9.1264816    452.98421  0.011683282   0.01093261         3868 
 3232000   0.74434194   -9.1317993    452.61938   0.01167026  0.010927368         3889 
 3233000   0.74271518   -9.1156047    453.74277  0.011695607  0.010922123         3884 
 3234000   0.75140915   -9.0901464    453.33799   0.01168156  0.010916883         3882 
 3235000   0.71553428   -9.1349209     453.6022  0.011684755  0.010911646         3879 
 3236000   0.73570713   -9.1062926    452.81335   0.01166083  0.010906409         3902 
 3237000   0.73490121   -9.1064141    453.99163  0.011687561  0.010901178         3889 
 3238000   0.74957319   -9.1252298    452.87173   0.01165513  0.010895946         3871 
 3239000   0.70896129    -9.142312    453.09584  0.011657298  0.010890718         3871 
 3240000   0.73061108   -9.1094703    453.82019   0.01167233  0.010885485         3894 
 3241000   0.74374968    -9.137118     453.7088  0.011665864   0.01088026         3882 
 3242000   0.73455799   -9.1248051    452.85843  0.011640408  0.010875039         3884 
 3243000   0.73585437   -9.1344308    453.13731  0.011643985  0.010869821         3893 
 3244000   0.72737824   -9.1009504    453.35567  0.011646005  0.010864607         3911 
 3245000   0.72928611   -9.1314084    452.89315  0.011630538  0.010859399         3900 
 3246000   0.74294343   -9.1370407    453.74968  0.011648944  0.010854186         3910 
 3247000   0.73383676   -9.1285099    453.14051  0.011629723  0.010848979         3871 
 3248000   0.73044981   -9.1077614    452.97538  0.011621905   0.01084378         3871 
 3249000    0.7243022   -9.1126631    453.87117  0.011641304  0.010838579         3887 
 3250000   0.72332608   -9.1431282    453.90702  0.011638641  0.010833387         3864 
 3251000   0.73474377   -9.1332234    453.20763  0.011617134  0.010828201         3900 
 3252000   0.73390769   -9.1293782    453.53063  0.011621839  0.010823012         3883 
 3253000   0.74575787   -9.1405814    453.77925  0.011624635  0.010817828         3879 
 3254000   0.71799677   -9.1305534    453.50801  0.011614116  0.010812648         3876 
 3255000   0.72523209   -9.1062453     453.8991  0.011620561  0.010807471         3882 
 3256000    0.7273367   -9.1030773    453.00445  0.011594094  0.010802298         3901 
 3257000   0.73209093    -9.119642    452.75167  0.011584067  0.010797129         3865 
 3258000   0.73579142   -9.0919865    453.75306  0.011606125  0.010791962         3890 
 3259000   0.72920888    -9.140367     453.0518  0.011584632  0.010786801         3878 
 3260000   0.73317289    -9.123834      453.622  0.011595655  0.010781643         3860 
 3261000   0.73016311   -9.1254138    454.12029  0.011604832  0.010776486         3875 
 3262000    0.7177102   -9.1030052    452.99721  0.011572584  0.010771339         3864 
 3263000   0.73575988   -9.1153295    453.03401  0.011569977  0.010766191         3876 
 3264000    0.7364015   -9.1212775    454.08746  0.011593328  0.010761046         3885 
 3265000   0.73012075   -9.1141653     452.8403  0.011557945  0.010755897         3901 
 3266000   0.72162016   -9.1287974    453.20716  0.011563767  0.010750753         3905 
 3267000   0.72123923   -9.1249183    453.24303  0.011561142  0.010745616         3884 
 3268000   0.73057924   -9.1270179     453.5324  0.011564984  0.010740477         3897 
 3269000   0.71646049   -9.1425763    452.90451   0.01154544  0.010735342         3902 
 3270000    0.7140832   -9.1316613    453.29311  0.011551812  0.010730209         3912 
 3271000   0.71770516   -9.1555517    452.13147  0.011518686   0.01072508         3903 
 3272000   0.73857901   -9.1053163    454.20874  0.011568071  0.010719959         3873 
 3273000   0.73258623   -9.1250862     453.6496  0.011550301  0.010714844         3880 
 3274000   0.74666937   -9.1399982     453.4104  0.011540684  0.010709728         3889 
 3275000   0.70142935   -9.1116111    451.56843  0.011490291   0.01070461         3881 
 3276000     0.720379   -9.1167944    452.69186  0.011515361  0.010699494         3879 
 3277000   0.74379513   -9.1335049     454.1121  0.011547963  0.010694384         3892 
 3278000   0.72496598   -9.1249764     453.4487  0.011527575  0.010689282         3881 
 3279000    0.7150924   -9.1258854    452.84344  0.011508677  0.010684175         3898 
 3280000    0.7302857    -9.143035    452.14305  0.011487374  0.010679073         3869 
 3281000   0.73399321   -9.1485708    452.17889  0.011484783   0.01067398         3894 
 3282000   0.73122271   -9.1277017    452.93827  0.011500565  0.010668882         3872 
 3283000   0.70796048   -9.1435477    453.57027  0.011513105   0.01066379         3853 
 3284000    0.7135342   -9.1295575    453.63335  0.011511199  0.010658698         3907 
 3285000   0.71819143   -9.1248738    453.59267  0.011506663  0.010653613         3884 
 3286000   0.72606215     -9.11575    453.38794   0.01149797  0.010648532         3893 
 3287000   0.72451586   -9.1357544    452.14521  0.011462966  0.010643451         3896 
 3288000   0.73101982   -9.1300772    452.64776  0.011472216  0.010638377         3878 
 3289000    0.7237229   -9.1258505    452.86463  0.011474223    0.0106333         3864 
 3290000   0.71699686   -9.1299063     453.0386  0.011475142  0.010628232         3909 
 3291000     0.710569   -9.1350197    453.71854  0.011488872  0.010623162         3883 
 3292000   0.72718101   -9.1521447    452.63064  0.011457843  0.010618098         3884 
 3293000   0.72514961    -9.145762    452.48064  0.011450568  0.010613042         3895 
 3294000   0.72288287   -9.1279795     453.6078  0.011475607  0.010607988         3910 
 3295000   0.71662404    -9.140723    453.80566  0.011477128   0.01060293         3891 
 3296000   0.72506836   -9.1008988    453.15611  0.011457224  0.010597879         3857 
 3297000   0.74475438   -9.1148018    453.30446  0.011457498   0.01059283         3896 
 3298000   0.72581492   -9.1334243    453.57006  0.011460735  0.010587787         3871 
 3299000   0.71153539   -9.1459075    452.66295  0.011434348  0.010582741         3894 
 3300000   0.72533958   -9.1213453    453.24017  0.011445459  0.010577698         3877 
 3301000    0.7274842   -9.1567403    452.06251  0.011412262  0.010572656         3904 
 3302000   0.71633688   -9.1304207    452.43609  0.011418234  0.010567624         3868 
 3303000   0.73649986   -9.1408193    452.87615  0.011425879  0.010562593         3900 
 3304000   0.71497081   -9.1239945    451.96189  0.011399362  0.010557564         3872 
 3305000   0.71653853   -9.1356054    452.97145  0.011421368  0.010552534         3897 
 3306000   0.72006944   -9.1567944    452.32428    0.0114016  0.010547505         3876 
 3307000   0.71517174   -9.1225374    453.49848  0.011427741  0.010542485         3906 
 3308000   0.71243567   -9.1116377    453.23387  0.011417621  0.010537476         3911 
 3309000   0.72840023   -9.1221899    453.65202  0.011424701  0.010532461         3892 
 3310000   0.70410048    -9.152512     453.2033  0.011409952  0.010527457         3887 
 3311000   0.71192547   -9.1302131    453.20869  0.011406642  0.010522453         3893 
 3312000   0.73730533   -9.1584803    451.82291   0.01136833  0.010517454         3906 
 3313000   0.71860694   -9.1185636    452.83184  0.011390277  0.010512452         3904 
 3314000   0.71193343   -9.1393994    452.65889  0.011382491  0.010507454         3900 
 3315000   0.73061072   -9.1266285     453.3451  0.011396307  0.010502458         3917 
 3316000     0.735777   -9.1371425    453.50527  0.011396896  0.010497466         3859 
 3317000   0.72069701   -9.1338685    453.00125  0.011380797  0.010492481         3853 
 3318000   0.72905532   -9.1218885    452.45089  0.011363545  0.010487494         3891 
 3319000   0.71845939   -9.1596295    452.68059  0.011365888  0.010482507         3892 
 3320000   0.71426662   -9.1424946    452.99533  0.011370365  0.010477528         3891 
 3321000   0.70833186   -9.1441995    453.23779  0.011373025  0.010472557         3881 
 3322000   0.69484142    -9.120034    452.68495  0.011355733  0.010467585         3879 
 3323000   0.72386416     -9.13037    452.67567  0.011352083  0.010462616         3906 
 3324000    0.7155762   -9.1339534    453.61965  0.011372334  0.010457648         3888 
 3325000   0.70327254    -9.123086    453.53125  0.011366698  0.010452683         3905 
 3326000   0.70527718   -9.1388748    452.03929  0.011325899  0.010447726         3914 
 3327000   0.71866559   -9.1459671    451.65233  0.011312803  0.010442766         3901 
 3328000   0.71846308   -9.1497492    452.77623  0.011337546  0.010437811         3913 
 3329000    0.7099323   -9.1612001      452.858  0.011336187  0.010432857         3887 
 3330000   0.72492251   -9.1545083    452.72307  0.011329406  0.010427911         3903 
 3331000   0.71987738     -9.16725    452.56352  0.011322013  0.010422962         3913 
 3332000    0.7183395   -9.1350855    453.20113  0.011334562   0.01041802         3892 
 3333000   0.71502224   -9.1347304    452.32986  0.011309377  0.010413087         3896 
 3334000   0.72440519   -9.1351233    452.73448  0.011316099  0.010408147         3913 
 3335000   0.71207222   -9.1647928    453.03051  0.011320103  0.010403211         3903 
 3336000   0.71398237   -9.1366981     452.2522  0.011297267  0.010398278         3892 
 3337000    0.7058321    -9.154595    452.88415  0.011309663  0.010393351         3899 
 3338000   0.70912982   -9.1487054    452.17537   0.01128858  0.010388422         3891 
 3339000   0.71226643   -9.1491606    451.97732  0.011280257  0.010383496         3912 
 3340000   0.72603851    -9.141377    453.73058  0.011320623  0.010378579         3891 
 3341000   0.71131573   -9.1300959     453.2473  0.011305181  0.010373661         3893 
 3342000   0.71175926   -9.1419765    453.17768  0.011300062  0.010368747         3893 
 3343000   0.72448348   -9.1496889    453.11292  0.011295067  0.010363836         3881 
 3344000   0.71247367   -9.1567134    452.08462  0.011266064  0.010358923         3901 
 3345000   0.70589667   -9.1527331    453.13984  0.011288985  0.010354021         3865 
 3346000   0.71890587   -9.1478412    453.42331  0.011292671   0.01034912         3882 
 3347000   0.71981878   -9.1363882    452.39877  0.011263788  0.010344218         3894 
 3348000   0.73052088   -9.1522972    452.16041   0.01125449  0.010339326         3876 
 3349000    0.7026389    -9.142925    452.54624  0.011260731  0.010334436         3893 
 3350000   0.70761175   -9.1488995    451.86345  0.011240384  0.010329544         3875 
 3351000   0.71567234    -9.160972    452.50142  0.011252895  0.010324655         3905 
 3352000   0.71012989   -9.1599839     451.3893   0.01122189  0.010319766         3908 
 3353000   0.71698584   -9.1482153    451.99431   0.01123358  0.010314888         3879 
 3354000   0.72944102   -9.1494497     453.4188  0.011265623  0.010310013         3902 
 3355000   0.71417669   -9.1231894    453.73783  0.011270189  0.010305136         3904 
 3356000   0.73427627   -9.1593893    450.98945  0.011198586  0.010300263         3891 
 3357000   0.71269315   -9.1667517    452.09067  0.011222586  0.010295393         3901 
 3358000   0.72606567   -9.1453104    452.14915  0.011220696  0.010290524         3883 
 3359000     0.720537   -9.1413588    452.15373  0.011217469  0.010285658         3893 
 3360000   0.72135698   -9.1520943    453.07378  0.011236949  0.010280801         3894 
 3361000   0.72671205   -9.1656406    452.25348  0.011213267  0.010275943         3875 
 3362000   0.72395163   -9.1264113    452.75297  0.011222312  0.010271085         3903 
 3363000   0.71339071    -9.167581    452.49211  0.011212511  0.010266229         3883 
 3364000   0.71965177   -9.1669633    452.34253  0.011205473   0.01026138         3896 
 3365000   0.71677917   -9.1381494    451.73631   0.01118713  0.010256536         3880 
 3366000   0.71876464   -9.1552087     452.3709  0.011199517  0.010251691         3882 
 3367000    0.7177804    -9.155601     452.6696  0.011203584  0.010246845         3852 
 3368000   0.71522159   -9.1709717    451.80111  0.011178769  0.010242008         3880 
 3369000    0.7242363   -9.1724184    452.12546  0.011183473  0.010237175         3901 
 3370000   0.71632923   -9.1553878    453.06449  0.011203375  0.010232346         3905 
 3371000   0.71589506   -9.1427302    452.22827   0.01117938  0.010227515         3891 
 3372000   0.72484121   -9.1398067    452.72843  0.011188425  0.010222692         3888 
 3373000   0.70025961   -9.1589837    451.66057  0.011158725   0.01021787         3890 
 3374000    0.7076501   -9.1394909    452.28949  0.011170952  0.010213042         3879 
 3375000   0.71752875   -9.1702578    452.84385   0.01118133  0.010208221         3868 
 3376000   0.70846129    -9.139306    453.10343  0.011184425  0.010203402         3862 
 3377000   0.70671645    -9.155418    453.08358  0.011180623   0.01019859         3890 
 3378000   0.71343603   -9.1754111    452.01899  0.011151051  0.010193784         3897 
 3379000   0.70849965      -9.1484    452.41709  0.011157569   0.01018898         3861 
 3380000   0.70021483   -9.1477261    452.45248   0.01115514  0.010184176         3900 
 3381000   0.71831869   -9.1651156    452.28851  0.011147799  0.010179376         3879 
 3382000   0.71801868   -9.1548817    451.92339  0.011135506  0.010174581         3907 
 3383000    0.7091196   -9.1440798    452.32518  0.011142112   0.01016978         3886 
 3384000   0.70778336   -9.1578395    452.09472  0.011133144  0.010164982         3893 
 3385000   0.69982047   -9.1795009    452.70025  0.011144762   0.01016019         3886 
 3386000   0.71913052   -9.1679045    452.91356  0.011146721  0.010155402         3878 
 3387000   0.68610383   -9.1672478      451.981  0.011120485  0.010150613         3879 
 3388000   0.70753223   -9.1572008    452.63332  0.011133248  0.010145827         3911 
 3389000   0.71999065   -9.1688047    452.58805  0.011128849  0.010141049         3891 
 3390000   0.70570084   -9.1621624    451.85096  0.011107447  0.010136268         3916 
 3391000   0.72214209   -9.1370781    452.65884  0.011124025  0.010131492         3902 
 3392000   0.70962736   -9.1631177    452.10328  0.011107097  0.010126725         3858 
 3393000   0.71786743    -9.156565    452.34116  0.011109666   0.01012196         3903 
 3394000   0.71065284   -9.2026693    452.44686  0.011108988  0.010117188         3928 
 3395000   0.70888381   -9.1635099    452.39405   0.01110442  0.010112428         3887 
 3396000   0.71027902   -9.1513226    451.91719  0.011089448  0.010107665         3902 
 3397000   0.70516706   -9.1552475    452.50215  0.011100534   0.01010291         3884 
 3398000   0.70351981   -9.1728331     452.2989  0.011092282  0.010098155         3914 
 3399000   0.69874567   -9.1737615    451.98594  0.011081346  0.010093399         3903 
 3400000   0.69544883   -9.1529903    451.75364  0.011072393  0.010088649         3880 
 3401000   0.71025713    -9.140191    451.57759  0.011064824  0.010083902         3876 
 3402000   0.71052421    -9.150697    451.98227  0.011071484  0.010079163         3882 
 3403000   0.71731507    -9.180753    451.92598  0.011066852  0.010074423         3895 
 3404000   0.70715029   -9.1791701     451.7409   0.01105907  0.010069692         3874 
 3405000   0.69636877   -9.1665256    451.67018  0.011054092   0.01006496         3891 
 3406000   0.72296119   -9.1677444    452.75728  0.011077444  0.010060229         3900 
 3407000   0.71354782   -9.1590462    452.81646   0.01107564  0.010055501         3881 
 3408000   0.69492863   -9.1500818    452.22073  0.011057823  0.010050769         3878 
 3409000   0.70359559   -9.1673531    451.82123  0.011044813  0.010046046         3897 
 3410000    0.7108773   -9.1587115    452.07073  0.011047672  0.010041322         3882 
 3411000   0.68573208   -9.1704226    451.55718  0.011031886  0.010036601         3902 
 3412000   0.70250096   -9.1676187    451.54206  0.011028284  0.010031882         3874 
 3413000   0.70959202   -9.1802252    451.84487  0.011032446  0.010027168         3893 
 3414000   0.69634968   -9.1612897    451.41508  0.011018724  0.010022455         3904 
 3415000   0.69561034   -9.1860063    451.90504  0.011027453   0.01001775         3877 
 3416000   0.71490431   -9.1610316    452.13874  0.011029926  0.010013046         3893 
 3417000   0.70093224    -9.159035    452.42595  0.011033703  0.010008348         3864 
 3418000   0.71769245   -9.1583289    452.50623  0.011032432   0.01000365         3889 
 3419000   0.70695834   -9.1899616    451.55736  0.011006078  0.009998953         3889 
 3420000   0.69835238   -9.1741737    450.99154  0.010989073 0.0099942585         3917 
 3421000   0.69043844   -9.1497307    452.73284  0.011028277 0.0099895666         3863 
 3422000   0.70864739   -9.1640766    452.01801  0.011007647 0.0099848808         3881 
 3423000   0.71237557    -9.161983    452.47333  0.011015516 0.0099801943         3890 
 3424000   0.71276712   -9.1812738    450.97761  0.010975896 0.0099755159         3907 
 3425000   0.69351409   -9.1592425    451.74032  0.010991249 0.0099708357         3915 
 3426000    0.7167268   -9.1749673    451.99079  0.010994133 0.0099661546         3895 
 3427000   0.70217599   -9.1460268    452.22823  0.010996699 0.0099614892         3908 
 3428000   0.69393033   -9.1719009    452.20763   0.01099299 0.0099568227         3900 
 3429000   0.69939019   -9.1675752    451.07266  0.010962201 0.0099521588         3902 
 3430000   0.68419585   -9.1842215     452.2447  0.010987481 0.0099474958         3905 
 3431000   0.70327983   -9.1617506      452.393   0.01098788 0.0099428325         3882 
 3432000   0.70234946   -9.1952707    451.64463  0.010966507 0.0099381754         3901 
 3433000    0.7021333   -9.1422771    452.58598  0.010986163 0.0099335204         3892 
 3434000   0.69798666   -9.1805324    451.33133  0.010952517 0.0099288647         3910 
 3435000   0.71507033   -9.1615931    451.27531   0.01094797 0.0099242149         3906 
 3436000    0.7008985   -9.1836741    452.28909  0.010969371 0.0099195656         3922 
 3437000   0.71654665   -9.1656514     451.3551  0.010943534 0.0099149174         3901 
 3438000   0.69474426   -9.1936367    450.74745  0.010925622 0.0099102714         3908 
 3439000    0.6967009    -9.172418    451.57262   0.01094244 0.0099056336         3892 
 3440000   0.68628569   -9.1733067    452.19558   0.01095435 0.0099009947         3915 
 3441000   0.69119849   -9.1944772    451.64514  0.010937836 0.0098963597         3921 
 3442000    0.7137026   -9.1773192    451.95775  0.010942227 0.0098917313         3907 
 3443000   0.70031448   -9.2102349    452.23694  0.010945806 0.0098871051         3904 
 3444000   0.70785783   -9.1801782    452.17936  0.010941235 0.0098824793         3897 
 3445000   0.69454628   -9.1810795    452.34991  0.010942184 0.0098778561         3859 
 3446000   0.70025096   -9.1981011    450.91444  0.010904296 0.0098732333         3927 
 3447000   0.70666614   -9.2035942     451.9453  0.010926054 0.0098686142         3889 
 3448000   0.68925285   -9.1831025    452.05181  0.010925459 0.0098639975         3886 
 3449000   0.68550563   -9.1590613    451.43286  0.010907337 0.0098593872         3881 
 3450000   0.70621977    -9.181942     451.9188  0.010915913 0.0098547775         3917 
 3451000    0.6981956   -9.1805518    452.56851  0.010928439 0.0098501733         3884 
 3452000    0.6898954   -9.1899957    451.24036  0.010893211 0.0098455712         3899 
 3453000   0.69367481   -9.1811682    452.04403  0.010909451 0.0098409691         3899 
 3454000   0.70061381   -9.1761786    451.74829  0.010899158 0.0098363733         3894 
 3455000   0.70653456   -9.1782338    451.19593   0.01088268 0.0098317803         3923 
 3456000   0.67749334   -9.1783342    450.64044  0.010866137 0.0098271863         3923 
 3457000   0.69701206   -9.1791588    451.45535  0.010882638 0.0098225944         3925 
 3458000   0.70172354   -9.1809309    452.39114  0.010902042 0.0098180068         3895 
 3459000   0.72131342   -9.1618001    451.94844  0.010888225 0.0098134218         3897 
 3460000   0.70525658   -9.1819994    452.43172  0.010896718 0.0098088428         3908 
 3461000    0.6986287     -9.15545    452.42281  0.010893355  0.009804267         3878 
 3462000   0.70637024   -9.1921635    452.03474  0.010880867 0.0097996929         3881 
 3463000   0.69782457   -9.1734834    452.23239  0.010882481 0.0097951146         3911 
 3464000   0.69383816   -9.1616644    452.44423  0.010884436 0.0097905409         3885 
 3465000   0.70485328   -9.1847201    451.38364  0.010855787 0.0097859735         3892 
 3466000    0.6970922   -9.1712286    451.35058  0.010851861 0.0097814074         3897 
 3467000   0.69443053   -9.1852123    451.81227  0.010859828 0.0097768423         3895 
 3468000   0.69420612   -9.1767884    451.58653  0.010851272 0.0097722816         3889 
 3469000   0.71298962   -9.1735673    452.41653  0.010868082  0.009767726         3897 
 3470000   0.68583479   -9.1672307    451.21199  0.010836023 0.0097631728         3891 
 3471000   0.69276012   -9.1721473    452.63715  0.010867117 0.0097586205         3887 
 3472000   0.69763624   -9.2061724    452.10395  0.010851189 0.0097540705         3895 
 3473000   0.68600599   -9.1861255    451.97713  0.010845022 0.0097495261         3907 
 3474000   0.69372927   -9.1990857    451.94653  0.010841166 0.0097449846         3906 
 3475000   0.69398739   -9.1672914    451.25325  0.010821421 0.0097404431         3898 
 3476000   0.68346493   -9.1901487    451.16039  0.010816081 0.0097359052         3892 
 3477000   0.68987969   -9.1820059    452.05156  0.010834329 0.0097313714         3878 
 3478000   0.70001249   -9.1910349    451.65445  0.010821699 0.0097268437         3892 
 3479000   0.69825339   -9.2067431    451.28892  0.010809833 0.0097223102         3901 
 3480000   0.68336885   -9.2006097    451.36548   0.01080856 0.0097177862         3888 
 3481000   0.70051494   -9.1942062    450.90737  0.010794489 0.0097132615         3905 
 3482000   0.69614133   -9.1940079    451.23471  0.010799222  0.009708739         3912 
 3483000   0.69845148   -9.1679507    452.76797  0.010832806 0.0097042234         3876 
 3484000    0.6904426   -9.2015062    451.40558   0.01079711  0.009699708         3925 
 3485000   0.69332344   -9.2094685    451.54605  0.010797371 0.0096951919         3889 
 3486000   0.69143382   -9.1971875    450.99541   0.01078111 0.0096906808         3874 
 3487000   0.69431621   -9.1603567    452.20702  0.010806974 0.0096861706         3896 
 3488000    0.6970499    -9.172391    451.97204  0.010798262 0.0096816648         3901 
 3489000   0.68857304   -9.1684621    451.41817  0.010781938 0.0096771628         3901 
 3490000   0.70863199   -9.1585186    451.83097  0.010788705 0.0096726639         3909 
 3491000   0.69883363   -9.1654653    451.44282  0.010776349 0.0096681724         3876 
 3492000   0.68013419   -9.1886142    450.89322  0.010760148 0.0096636789         3897 
 3493000   0.69115992   -9.1740357    451.62872  0.010774614 0.0096591852         3868 
 3494000    0.6943223   -9.1937944    451.42084  0.010766572 0.0096546968         3889 
 3495000   0.69887673   -9.2000279    450.68532  0.010745954 0.0096502093         3896 
 3496000   0.68967812   -9.1918195    450.82067  0.010746107 0.0096457277         3916 
 3497000   0.70600645   -9.1990958    451.06639  0.010748889 0.0096412458         3919 
 3498000   0.68820147   -9.2099618    450.81646  0.010739862 0.0096367624         3913 
 3499000   0.70305515   -9.1845043    451.19655  0.010745845 0.0096322878         3885 
 3500000   0.67905486   -9.1970856    450.83919  0.010734267  0.009627818         3889 
 3501000   0.70601214   -9.1893076    450.55884  0.010724527 0.0096233501         3930 
 3502000   0.68052869   -9.2040267    452.06181  0.010757229 0.0096188834         3908 
 3503000   0.69681111   -9.2095158    452.12947  0.010755768   0.00961442         3871 
 3504000   0.68869983   -9.1757336    451.62845  0.010740783 0.0096099573         3882 
 3505000   0.69816104   -9.1841894    452.60881  0.010761027 0.0096054993         3893 
 3506000   0.68022905   -9.1666959    451.63502  0.010734812 0.0096010389         3907 
 3507000   0.67881949    -9.167424    452.42588  0.010750544 0.0095965899         3893 
 3508000   0.69160506   -9.1924304    451.61244  0.010728156 0.0095921383         3907 
 3509000   0.68162148   -9.2068904    451.49765  0.010722372 0.0095876912         3914 
 3510000   0.69343282   -9.1865132    451.50076  0.010719391 0.0095832471         3894 
 3511000   0.66840887   -9.1946185    451.81014  0.010723681 0.0095788041         3878 
 3512000   0.69139798   -9.1884283    450.92945  0.010699731 0.0095743647         3886 
 3513000   0.69675521   -9.1986665    451.53118  0.010710959 0.0095699277         3918 
 3514000   0.69781471   -9.1956038    452.04219  0.010720029 0.0095654929         3865 
 3515000   0.69564931   -9.1941712    451.58544  0.010706151 0.0095610617         3892 
 3516000   0.68839477   -9.1725978    451.02496  0.010689822 0.0095566309         3876 
 3517000   0.68141476   -9.1847267    451.11886  0.010689007 0.0095522087         3891 
 3518000   0.68843062   -9.1812337     451.6431  0.010698387  0.009547782         3915 
 3519000   0.69714712   -9.1910205    451.64909  0.010695489 0.0095433623         3913 
 3520000   0.68169657   -9.2030378    451.84038  0.010696979 0.0095389479         3901 
 3521000   0.69315205   -9.1971131    451.89452  0.010695222 0.0095345323         3888 
 3522000   0.68290469    -9.208562    450.41277  0.010657126 0.0095301186         3904 
 3523000   0.68788539   -9.2140167    450.99437  0.010667858  0.009525708         3896 
 3524000   0.66886146   -9.2029513    451.56169  0.010678246 0.0095212999         3904 
 3525000   0.67849244   -9.1824589    451.96238   0.01068469 0.0095168948         3923 
 3526000   0.69334612   -9.2005133    450.96866  0.010658174 0.0095124904         3902 
 3527000    0.6964373   -9.1616844    452.06551  0.010681068 0.0095080934         3907 
 3528000   0.68263048    -9.212178    450.50671   0.01064122 0.0095036971         3904 
 3529000   0.69031252   -9.1989228    451.17096  0.010653891 0.0094993053         3888 
 3530000   0.68976466   -9.2028688    451.18394  0.010651179 0.0094949148         3916 
 3531000   0.68092993   -9.1962119    451.93996  0.010666005  0.009490525         3887 
 3532000   0.69093093   -9.1816058    452.24788   0.01067025 0.0094861392         3893 
 3533000   0.68454138   -9.1774388    451.59359  0.010651797 0.0094817573         3921 
 3534000   0.67905889   -9.1996456    451.10405  0.010637239 0.0094773796         3896 
 3535000   0.68914857   -9.1869409    450.83213   0.01062782 0.0094730064         3884 
 3536000   0.68331012   -9.2011392    451.60376     0.010643 0.0094686299         3880 
 3537000   0.68183691   -9.2111344    450.96955  0.010625048  0.009464258         3890 
 3538000   0.68575597    -9.207609    451.59596    0.0106368 0.0094598845         3890 
 3539000    0.6820028   -9.2110916    450.97777  0.010619237  0.009455518         3896 
 3540000   0.70277744   -9.1903545    451.36029  0.010625242 0.0094511524         3891 
 3541000   0.67280403   -9.1875796    450.94366  0.010612437 0.0094467876         3884 
 3542000   0.67381463   -9.2025429    450.98566  0.010610429 0.0094424273         3917 
 3543000   0.70848674    -9.200062     451.2298  0.010613176 0.0094380687         3898 
 3544000   0.68664245   -9.2084834    450.96969  0.010604065 0.0094337172         3905 
 3545000   0.68513283   -9.2125303    451.99303   0.01062513 0.0094293645         3886 
 3546000   0.70941058    -9.199529    451.66917  0.010614523 0.0094250158         3897 
 3547000   0.68921323   -9.2178779    451.48302  0.010607157 0.0094206706         3904 
 3548000   0.67790869   -9.2045851    450.98384  0.010592443  0.009416332         3924 
 3549000   0.69886307   -9.2055355    450.92385  0.010588049 0.0094119902         3878 
 3550000   0.69457587   -9.2077943    451.38278   0.01059584 0.0094076503         3909 
 3551000   0.67826803   -9.2103203    451.23316  0.010589345 0.0094033153         3890 
 3552000   0.67327566   -9.1996601    451.57672  0.010594424  0.009398983         3902 
 3553000   0.68113977   -9.2058218    450.88545  0.010575229 0.0093946575         3908 
 3554000    0.6755077   -9.2179754    450.78417  0.010569878 0.0093903308         3897 
 3555000   0.65994707    -9.222038    450.97659  0.010571416 0.0093860042         3913 
 3556000   0.67096076   -9.2061361    452.30321  0.010599532 0.0093816785         3910 
 3557000   0.69760413   -9.1902918    452.17075  0.010593448 0.0093773556         3905 
 3558000    0.6691954   -9.2069837    451.55601  0.010576073 0.0093730371         3920 
 3559000   0.68620797   -9.2072062    451.42493  0.010570032 0.0093687234         3885 
 3560000   0.68681121   -9.2130443     451.3662  0.010565688 0.0093644118         3899 
 3561000   0.68265617   -9.1933255    450.78768  0.010549183 0.0093601003         3907 
 3562000   0.68667452   -9.2405474    449.77896  0.010522622 0.0093557912         3910 
 3563000   0.69773551    -9.217826    450.96979  0.010547521 0.0093514862         3894 
 3564000   0.68028375   -9.2066916    451.44294  0.010555624 0.0093471853         3890 
 3565000   0.69113181   -9.2188678    450.43178  0.010529027 0.0093428852         3879 
 3566000    0.6760694   -9.2018322    451.31601  0.010546738 0.0093385888         3919 
 3567000   0.67868373   -9.2003805    452.04552  0.010560824 0.0093342965         3903 
 3568000   0.68662903   -9.2016052    450.24952  0.010515917 0.0093300068         3912 
 3569000   0.67814669   -9.2147567    451.19578  0.010535065 0.0093257167         3915 
 3570000   0.66299412   -9.2085701    451.72113  0.010544377 0.0093214321         3908 
 3571000   0.67803632   -9.2003545    451.08168  0.010526502 0.0093171496         3908 
 3572000   0.67985651   -9.2125736    451.06868  0.010523252  0.009312868         3907 
 3573000    0.6763796   -9.2248571    450.89367  0.010516225 0.0093085891         3925 
 3574000   0.68485781   -9.2099112    450.69466  0.010508643 0.0093043159         3908 
 3575000   0.68003992   -9.1993652    451.07245  0.010514509 0.0093000413         3886 
 3576000   0.68671619   -9.1889866    451.61426  0.010524195 0.0092957743         3887 
 3577000     0.679254   -9.2180213    450.66275  0.010499086 0.0092915038         3908 
 3578000   0.67434637   -9.2064415    451.21303  0.010508968 0.0092872413         3908 
 3579000     0.671772   -9.1900217    450.74728  0.010495187 0.0092829785         3903 
 3580000   0.68257007   -9.2207389     450.6198  0.010489288  0.009278718         3906 
 3581000   0.69788049    -9.216317      451.329  0.010502862 0.0092744612         3921 
 3582000   0.67127133    -9.227673    451.07038  0.010493914 0.0092702082         3905 
 3583000   0.67823906   -9.2158127     451.1575  0.010493011 0.0092659531         3879 
 3584000   0.68009724   -9.2182278    450.61354  0.010477435 0.0092617069         3905 
 3585000   0.67688337   -9.2215697    450.76974  0.010478144 0.0092574607         3921 
 3586000   0.67255656   -9.2135703     450.6131  0.010471582 0.0092532155         3915 
 3587000   0.67644804    -9.203626    451.38389  0.010486569 0.0092489738         3899 
 3588000   0.67929841   -9.1904812    451.32751  0.010482337  0.009244732         3894 
 3589000   0.67679417   -9.2119727    451.14286  0.010475129 0.0092404961         3910 
 3590000   0.67905576   -9.2020213    451.04511  0.010469942 0.0092362634         3907 
 3591000   0.67376608     -9.23171    450.85664  0.010462653 0.0092320349         3915 
 3592000   0.66346066   -9.2163665    451.32676  0.010470647 0.0092278089         3887 
 3593000   0.67134773   -9.2075062    451.19563  0.010464691 0.0092235772         3880 
 3594000   0.67220593   -9.2108629    450.65187  0.010449171 0.0092193523         3907 
 3595000   0.68422357   -9.2072825    450.44409  0.010441448 0.0092151293         3899 
 3596000   0.68543582   -9.2087147     451.1407  0.010454688 0.0092109073         3890 
 3597000   0.66979644    -9.211293    450.81471  0.010444229 0.0092066919         3912 
 3598000   0.68053396   -9.2173487    450.57239  0.010435714 0.0092024735         3920 
 3599000   0.67312995   -9.2067666     451.1966  0.010447268 0.0091982616         3864 
 3600000   0.68519962   -9.2027001    450.72027   0.01043334 0.0091940526         3889 
 3601000   0.67612289   -9.2291243    451.55175  0.010449684 0.0091898457         3898 
 3602000   0.67524771   -9.2217162    450.71428  0.010427408 0.0091856399         3895 
 3603000     0.671759    -9.211586    450.61654  0.010422253  0.009181438         3921 
 3604000   0.67301059   -9.2168189    450.69261   0.01042112 0.0091772376         3908 
 3605000   0.68109471   -9.1953709    451.20582  0.010430093 0.0091730372         3910 
 3606000   0.66853116   -9.2200527    451.46232  0.010433128 0.0091688463         3915 
 3607000   0.68667137   -9.2225885    450.49149  0.010407806 0.0091646543         3900 
 3608000   0.66834821   -9.2501879    450.94386   0.01041537 0.0091604659         3921 
 3609000   0.65744877   -9.2196677    450.70284  0.010406919 0.0091562778         3935 
 3610000    0.6643363   -9.2284995     450.3721  0.010396401 0.0091520898         3897 
 3611000   0.67216175   -9.2159031    451.34935  0.010416075 0.0091479111         3904 
 3612000   0.67280601   -9.2040089    449.81996  0.010377906 0.0091437337         3923 
 3613000   0.65705523    -9.231227    450.19399  0.010383661 0.0091395524         3891 
 3614000   0.66221789   -9.2089188    451.21743  0.010404386 0.0091353785         3889 
 3615000   0.66648416   -9.2096653    452.31531  0.010426817 0.0091312055         3887 
 3616000   0.67968953   -9.2407067    450.32522   0.01037807 0.0091270421         3909 
 3617000   0.67740541   -9.2083752    450.49246  0.010379054 0.0091228745         3895 
 3618000   0.66774802   -9.2226751    451.25306  0.010393704 0.0091187112         3911 
 3619000   0.67333906   -9.2340846    451.28974  0.010391677 0.0091145525         3912 
 3620000   0.67250772   -9.2173253    451.17045   0.01038606 0.0091103954         3916 
 3621000   0.67990823   -9.2115201    452.03469  0.010403081 0.0091062415         3911 
 3622000   0.66388582   -9.2259204    451.30593  0.010383442 0.0091020895         3879 
 3623000   0.66613769   -9.2353577    451.16392   0.01037731 0.0090979421         3906 
 3624000   0.67664924   -9.2098789    451.77856   0.01038858 0.0090937949         3912 
 3625000   0.66434375    -9.203193    451.54008  0.010380232 0.0090896518         3918 
 3626000   0.67821441   -9.2219887    450.54744  0.010354556 0.0090855065         3903 
 3627000   0.68031475   -9.2473933    450.59418  0.010352775 0.0090813674         3911 
 3628000   0.66506675   -9.2202916    450.61669  0.010350438 0.0090772346         3900 
 3629000   0.67208924   -9.2141673    451.79054  0.010374542 0.0090730998         3905 
 3630000   0.65484789   -9.2351943    451.53129  0.010365732 0.0090689703         3901 
 3631000   0.67458253   -9.2112758    450.98032  0.010350232 0.0090648418         3910 
 3632000   0.68064006    -9.238556    450.84421   0.01034426 0.0090607153         3907 
 3633000    0.6642003   -9.2314049    450.84218  0.010341366 0.0090565896         3905 
 3634000    0.6744287   -9.2381487    449.98217  0.010318799 0.0090524674         3902 
 3635000    0.6682105   -9.2307126    450.13223    0.0103194 0.0090483507         3921 
 3636000   0.67033586   -9.1882231    451.17463  0.010340453 0.0090442358         3908 
 3637000   0.68080205   -9.2126313    450.62604   0.01032504 0.0090401223         3903 
 3638000   0.68303707   -9.2317188    450.67607  0.010323348 0.0090360109         3910 
 3639000   0.67272221   -9.2146405     450.8283  0.010323997 0.0090319011         3916 
 3640000    0.6688633   -9.1990636    450.86446  0.010321988  0.009027791         3928 
 3641000   0.68185707   -9.2223833    451.01492  0.010322597  0.009023685         3931 
 3642000   0.68349502   -9.2161219    451.07475  0.010321132 0.0090195833         3927 
 3643000   0.67693072   -9.2382706    451.30116  0.010323478 0.0090154819         3910 
 3644000   0.65751151   -9.2366719    451.23768  0.010319193 0.0090113822         3894 
 3645000   0.67225646   -9.1987495    451.24912  0.010316624  0.009007286         3886 
 3646000   0.66990386   -9.2028781    451.21192  0.010312944 0.0090031961         3883 
 3647000   0.67090298   -9.2408431    450.71898  0.010298852 0.0089991063         3907 
 3648000   0.68016365   -9.2329963    450.44301  0.010289725 0.0089950195         3914 
 3649000    0.6734331   -9.2211304    450.72967  0.010293452 0.0089909368         3905 
 3650000   0.66422372   -9.2225284    451.17847  0.010300878 0.0089868509         3886 
 3651000   0.67085408   -9.2295783    450.57994  0.010284396 0.0089827687         3900 
 3652000   0.66960909   -9.2435361    450.09771  0.010270576  0.008978684         3923 
 3653000    0.6750609   -9.2064814    451.40375  0.010297558 0.0089746106         3892 
 3654000   0.66229557   -9.2173426    450.85867  0.010282309 0.0089705354         3908 
 3655000   0.67850771   -9.2383445    450.40139   0.01026907 0.0089664628         3890 
 3656000   0.64805586   -9.2325941    449.75333  0.010251489 0.0089623962         3911 
 3657000   0.67217643   -9.2512595    450.98524  0.010276758 0.0089583284         3899 
 3658000   0.66861594   -9.2379105    451.41606  0.010283763 0.0089542658         3910 
 3659000   0.66234525   -9.2002399    450.95302  0.010270407 0.0089502062         3888 
 3660000   0.65269232   -9.2297496    451.46805  0.010279327 0.0089461505         3879 
 3661000    0.6790598   -9.2464755    450.51632  0.010254856 0.0089420945         3914 
 3662000   0.66830367   -9.2180297     451.1221  0.010265841 0.0089380435         3892 
 3663000   0.65409438   -9.2268743    450.83818  0.010256579 0.0089339926         3912 
 3664000    0.6656159   -9.2479068    450.10582  0.010237123 0.0089299416         3887 
 3665000   0.66725524   -9.2354962    450.36172  0.010240148  0.008925897         3899 
 3666000   0.65751546   -9.2492318    450.93933  0.010250485 0.0089218504         3923 
 3667000   0.66413633    -9.227014    451.32326  0.010256414 0.0089178085         3915 
 3668000   0.65723902    -9.230248    451.11618  0.010248914 0.0089137694         3904 
 3669000   0.68276065   -9.2197811    450.49898  0.010232102 0.0089097357         3884 
 3670000   0.66584141    -9.231873    450.37602  0.010226522 0.0089057002         3898 
 3671000   0.67597313    -9.238353    451.10624  0.010240312 0.0089016675         3905 
 3672000   0.65956184   -9.2207463    450.96056  0.010234218 0.0088976394         3920 
 3673000   0.65405308    -9.244345    450.96547  0.010231542 0.0088936121         3918 
 3674000   0.64588244   -9.2232472    451.07617  0.010231269 0.0088895859         3909 
 3675000   0.67077631   -9.2331162    450.97848  0.010226269 0.0088855623         3920 
 3676000   0.65903463   -9.2464552      451.319  0.010231207 0.0088815377         3906 
 3677000    0.6752095   -9.2471803    450.09202  0.010200617 0.0088775203         3914 
 3678000   0.67974674   -9.2408571    451.01653   0.01021879 0.0088735053         3911 
 3679000   0.67057405   -9.2504499    450.79471  0.010210988  0.008869492         3910 
 3680000    0.6409328   -9.2149149    450.67195  0.010205434 0.0088654816         3893 
 3681000    0.6680903   -9.2294195    452.09707  0.010234924 0.0088614749         3925 
 3682000   0.64839642   -9.2296786     450.6983  0.010200487 0.0088574702         3912 
 3683000   0.67146242   -9.2272465    450.51635    0.0101936 0.0088534664         3909 
 3684000   0.66889945    -9.240786    450.50194  0.010190507 0.0088494649         3924 
 3685000    0.6756626   -9.2220849    450.83071  0.010195177  0.008845465         3910 
 3686000   0.66449654   -9.2131852    450.34756  0.010181487 0.0088414716         3888 
 3687000   0.66853712   -9.2447585    450.55718  0.010183464 0.0088374791         3903 
 3688000   0.65206282   -9.2431737    450.39659  0.010177074 0.0088334888         3931 
 3689000   0.66096028   -9.2400727    449.70945  0.010158793 0.0088294996         3884 
 3690000   0.67488691   -9.2416663    449.97761  0.010162096 0.0088255145         3913 
 3691000   0.67122364   -9.2218619    450.69444  0.010175527 0.0088215323         3899 
 3692000   0.65435772   -9.2186237    450.85612   0.01017642 0.0088175505         3923 
 3693000   0.67173286   -9.2510798    450.24376  0.010159847 0.0088135724         3882 
 3694000   0.65505076   -9.2449778    450.66546  0.010166609 0.0088095944         3900 
 3695000   0.65515921   -9.2482189     450.8947  0.010169028  0.008805622         3903 
 3696000   0.65389342   -9.2223328    450.91251  0.010166678 0.0088016543         3896 
 3697000   0.66627538    -9.221229    450.62251  0.010157391 0.0087976864         3879 
 3698000   0.66472844    -9.241182    451.07634  0.010164872 0.0087937181         3913 
 3699000   0.65715571   -9.2612602    450.13235  0.010140857 0.0087897488         3895 
 3700000   0.66559114   -9.2424119    449.32601  0.010119955 0.0087857839         3920 
 3701000   0.65433956   -9.2389622     450.5675  0.010145175 0.0087818268         3902 
 3702000   0.66471009   -9.2354128    450.74606  0.010146454 0.0087778707         3919 
 3703000   0.65997745   -9.2268082     450.3045  0.010133777 0.0087739118         3895 
 3704000   0.64865254   -9.2471083     450.6454   0.01013871 0.0087699572         3879 
 3705000   0.65761457   -9.2407339    450.04877  0.010122554 0.0087660062         3901 
 3706000   0.65534842   -9.2549165    449.83566  0.010115031 0.0087620552         3912 
 3707000   0.66667096   -9.2211189    450.77998  0.010133531 0.0087581093         3902 
 3708000   0.66647106   -9.2310982    450.06855  0.010114809 0.0087541654         3874 
 3709000   0.64831515   -9.2462221    449.89427  0.010108166 0.0087502213         3899 
 3710000   0.64568342   -9.2524428    450.72403   0.01012408 0.0087462847         3878 
 3711000   0.65637681   -9.2377233    450.99416  0.010127418  0.008742348         3898 
 3712000   0.65960963   -9.2438984    449.85432    0.0100991 0.0087384145         3903 
 3713000   0.66771455   -9.2480557    449.73894  0.010093791 0.0087344827         3920 
 3714000    0.6436852   -9.2423789     450.0302  0.010097608 0.0087305561         3894 
 3715000   0.66775571   -9.2287714    451.05744  0.010117933 0.0087266276         3901 
 3716000   0.64857416   -9.2366909    451.01423  0.010114241 0.0087227037         3880 
 3717000   0.64750085   -9.2427564    449.31142  0.010073344 0.0087187815         3910 
 3718000   0.67003681   -9.2184754    450.51883  0.010097697 0.0087148651         3887 
 3719000   0.65832613   -9.2361162    449.85714  0.010080155 0.0087109482         3904 
 3720000   0.65471293   -9.2415959    450.41736  0.010089995 0.0087070328         3896 
 3721000    0.6440567   -9.2356628    450.51283  0.010089421 0.0087031196         3913 
 3722000   0.64567419   -9.2515874    450.45242  0.010085358 0.0086992087         3885 
 3723000   0.65305141   -9.2330215    449.55166  0.010062487 0.0086952996         3915 
 3724000   0.67025605   -9.2555656    450.29101  0.010076329 0.0086913914         3883 
 3725000   0.65656632   -9.2508461    450.38388  0.010075702 0.0086874851         3902 
 3726000   0.65651564   -9.2505102    450.01611  0.010064772 0.0086835859         3884 
 3727000   0.65724717   -9.2478477    450.35849  0.010069727 0.0086796889         3907 
 3728000   0.66639021   -9.2273739     450.2847  0.010065377 0.0086757922         3896 
 3729000   0.64823525   -9.2423841    449.73704  0.010050439 0.0086718984         3897 
 3730000   0.65660962   -9.2494474    450.51071  0.010065029 0.0086680078         3907 
 3731000   0.65265762   -9.2344397    450.65113  0.010065468   0.00866412         3902 
 3732000   0.65177026   -9.2628438    450.80377  0.010066179 0.0086602346         3906 
 3733000    0.6612282   -9.2476143    449.27758  0.010029413 0.0086563495         3907 
 3734000    0.6388324   -9.2359346    450.25547  0.010048551 0.0086524637         3914 
 3735000    0.6519492    -9.245134    449.88313  0.010037553 0.0086485855         3900 
 3736000   0.66629584   -9.2507462    450.61862  0.010051272  0.008644705         3878 
 3737000   0.65239352   -9.2499951    449.67673  0.010027578 0.0086408313         3871 
 3738000    0.6593235   -9.2614788    450.72168  0.010048191 0.0086369573         3915 
 3739000    0.6589662   -9.2573487    450.59405   0.01004266 0.0086330878         3905 
 3740000   0.65667361   -9.2248238    450.58351   0.01003974 0.0086292183         3911 
 3741000   0.65559391   -9.2532259    450.51225  0.010035468 0.0086253475         3912 
 3742000   0.65298981   -9.2138663    450.30298  0.010028126 0.0086214877         3906 
 3743000   0.63683964    -9.227589    449.73625   0.01001283 0.0086176249         3915 
 3744000   0.64543172   -9.2495343    450.29284  0.010022544 0.0086137634         3907 
 3745000   0.66454802   -9.2524244    450.12714   0.01001618 0.0086099101         3919 
 3746000   0.65787599   -9.2442977    450.66165  0.010025397 0.0086060549         3895 
 3747000   0.64773313   -9.2602892    449.98709  0.010007719 0.0086021996         3914 
 3748000   0.64944797   -9.2434034    450.83575  0.010023918 0.0085983524         3893 
 3749000   0.65774244   -9.2594316    450.70521  0.010018343 0.0085945067         3910 
 3750000   0.65353791   -9.2443215    450.88466  0.010019659 0.0085906613         3890 
 3751000   0.63816214   -9.2649581     449.9825 0.0099969453 0.0085868168         3871 
 3752000   0.65851963   -9.2436403    451.69166  0.010032242   0.00858298         3882 
 3753000   0.64613597   -9.2488083    449.95618 0.0099910334 0.0085791443         3903 
 3754000   0.64391015   -9.2740771    450.91682  0.010009697 0.0085753097         3914 
 3755000   0.64494227   -9.2269099    450.50747 0.0099979464 0.0085714725         3909 
 3756000     0.639659   -9.2540124     450.6973 0.0099994965 0.0085676358         3911 
 3757000   0.65130394   -9.2536256     450.0818 0.0099831824 0.0085638035         3924 
 3758000   0.64475866   -9.2656024    450.00621 0.0099788497 0.0085599765         3904 
 3759000   0.64350879   -9.2500837    450.73149  0.009992274 0.0085561478         3921 
 3760000   0.65068844   -9.2493522    449.95484 0.0099724033   0.00855232         3922 
 3761000   0.64297083   -9.2556622    450.65763 0.0099853237 0.0085484986         3915 
 3762000   0.64978274   -9.2501261    450.73729  0.009984434 0.0085446768         3917 
 3763000   0.65056778    -9.237046    451.48481 0.0099983349 0.0085408596         3913 
 3764000   0.63815561   -9.2462332     450.0701 0.0099643575 0.0085370455         3910 
 3765000   0.65416108   -9.2659628    449.24801 0.0099435151  0.008533231         3898 
 3766000   0.65504552   -9.2439963    450.17366 0.0099613573 0.0085294183         3890 
 3767000   0.66481926   -9.2273227    450.36673 0.0099629841 0.0085256112         3912 
 3768000   0.67404219   -9.2532775    450.48109 0.0099628692  0.008521807         3924 
 3769000   0.64903499   -9.2773073    449.62462  0.009941289 0.0085180008         3901 
 3770000     0.652404    -9.228098    451.47306 0.0099795106 0.0085141991         3894 
 3771000     0.653183   -9.2628359     450.4858 0.0099550473  0.008510399         3891 
 3772000   0.65422861   -9.2580245    450.49833 0.0099526849 0.0085065976         3900 
 3773000   0.64738932   -9.2386525    450.44855 0.0099489475 0.0085028044         3910 
 3774000   0.65351806   -9.2521977    450.07467 0.0099380557 0.0084990108         3903 
 3775000   0.64350736   -9.2627761    450.12124 0.0099364512 0.0084952227         3919 
 3776000   0.64133061    -9.260717    450.45472 0.0099411794  0.008491437         3901 
 3777000   0.63133615   -9.2843114     449.9693 0.0099278374 0.0084876482         3917 
 3778000   0.63624431   -9.2700558    450.75093 0.0099424503 0.0084838641         3896 
 3779000   0.63901928   -9.2648616    450.18374  0.009927312 0.0084800865         3902 
 3780000   0.65560731   -9.2549304    450.43792 0.0099302893 0.0084763068         3910 
 3781000   0.65141123   -9.2724431    450.30216 0.0099246708  0.008472529         3914 
 3782000   0.64368387   -9.2601745    451.04506 0.0099384158 0.0084687536         3924 
 3783000   0.64870812   -9.2580968    450.09027 0.0099147562 0.0084649827         3920 
 3784000   0.65573335   -9.2620984    449.56559 0.0099005812 0.0084612096         3906 
 3785000   0.64365571   -9.2407285    449.93005 0.0099059896 0.0084574431         3905 
 3786000   0.65487116    -9.244559    449.43384 0.0098924512  0.008453678         3895 
 3787000   0.65567993    -9.248677    450.60831 0.0099156833 0.0084499161         3896 
 3788000    0.6516678   -9.2439034    450.60319  0.009912953 0.0084461591         3898 
 3789000   0.64536024   -9.2518132    450.40277 0.0099059287 0.0084423992         3929 
 3790000   0.63668928   -9.2416128     450.6665 0.0099091138 0.0084386383         3910 
 3791000   0.64522323    -9.263978    450.08656 0.0098937518 0.0084348832         3901 
 3792000   0.63121981   -9.2600018    450.33932 0.0098966975 0.0084311326         3876 
 3793000   0.63778041   -9.2695522    450.47374 0.0098970415 0.0084273797         3909 
 3794000   0.64653111   -9.2605909    450.06744 0.0098855086 0.0084236309         3900 
 3795000    0.6382751   -9.2757002    450.05054 0.0098825327 0.0084198833         3915 
 3796000   0.64634908   -9.2506104    449.95669  0.009877869 0.0084161401         3895 
 3797000   0.63112587   -9.2309185    450.51775 0.0098875811 0.0084123999         3893 
 3798000   0.65662308   -9.2544644    450.44948   0.00988348 0.0084086645         3911 
 3799000   0.64234298   -9.2596725    450.40873 0.0098799844 0.0084049271         3901 
 3800000   0.65951448   -9.2660593    450.01695 0.0098687928 0.0084011946         3899 
 3801000   0.65112312   -9.2629588    449.71308 0.0098595343 0.0083974628         3895 
 3802000   0.63869308    -9.261739    449.73231 0.0098573625 0.0083937348         3877 
 3803000   0.65189619   -9.2548079    449.35795 0.0098465675  0.008390008         3910 
 3804000   0.64090828   -9.2414855    449.24089 0.0098414145 0.0083862823         3904 
 3805000   0.64963811   -9.2624205    449.88812  0.009853003 0.0083825605         3904 
 3806000   0.64106997    -9.256074    449.73466 0.0098470543 0.0083788352         3912 
 3807000   0.65333689   -9.2578991    450.13704 0.0098532755 0.0083751138         3907 
 3808000   0.65066418   -9.2711672    449.57903 0.0098384767 0.0083713944         3915 
 3809000   0.65312575   -9.2573244    449.88755 0.0098426436 0.0083676774         3903 
 3810000   0.64996041   -9.2686204    450.47109 0.0098528234 0.0083639627         3904 
 3811000   0.64335932   -9.2811227    449.63942 0.0098320524 0.0083602491         3914 
 3812000   0.62759666   -9.2650238    449.64708 0.0098296407 0.0083565383         3923 
 3813000   0.63961463   -9.2628071    450.62286 0.0098483884 0.0083528301         3909 
 3814000   0.63572807   -9.2495661    449.52621 0.0098218451  0.008349126         3885 
 3815000   0.65550211   -9.2728444    449.52683 0.0098192843  0.008345424         3927 
 3816000    0.6481787    -9.242548    449.75737 0.0098217455 0.0083417269         3911 
 3817000   0.65345942   -9.2721919    448.92417 0.0098009818 0.0083380331         3889 
 3818000   0.63570334   -9.2586908    449.52925 0.0098116215 0.0083343386         3904 
 3819000   0.63773083   -9.2562716    448.90169 0.0097953584 0.0083306445         3905 
 3820000   0.64443262    -9.256987    450.60386  0.009829927 0.0083269515         3921 
 3821000   0.63856149   -9.2753864    449.34218 0.0097998382 0.0083232596         3921 
 3822000   0.63866834   -9.2871796    449.48254 0.0098003346 0.0083195724         3916 
 3823000   0.62559629   -9.2573321    449.20638 0.0097917513 0.0083158876         3897 
 3824000   0.62933319    -9.261933     450.5295 0.0098180243 0.0083122031         3898 
 3825000   0.64235865   -9.2698482    449.75148 0.0097985073 0.0083085249         3900 
 3826000   0.63520861   -9.2740683    449.47779  0.009789985 0.0083048425         3900 
 3827000   0.62827517   -9.2727589    449.79419 0.0097943164 0.0083011655         3897 
 3828000   0.63809351   -9.2708675    449.84298 0.0097928201 0.0082974913         3936 
 3829000   0.64771372   -9.2669885    449.93477 0.0097922602 0.0082938181         3908 
 3830000   0.64077618   -9.2550712     449.1165 0.0097718994  0.008290149         3892 
 3831000   0.65192338   -9.2736457    450.20009 0.0097929193 0.0082864829         3872 
 3832000    0.6308059   -9.2609897    450.59932 0.0097990458 0.0082828214         3884 
 3833000   0.62366476   -9.2563125    450.79724 0.0098007923 0.0082791562         3918 
 3834000   0.63294533   -9.2649805    449.71206 0.0097746491 0.0082754956         3883 
 3835000   0.64433459   -9.2851969    449.62552   0.00977022 0.0082718369         3925 
 3836000   0.63462641   -9.2675286    449.27967 0.0097601597 0.0082681778         3915 
 3837000   0.63042432   -9.2938429    449.29339 0.0097579141 0.0082645225         3931 
 3838000   0.63800195   -9.2765329    449.91905 0.0097689563 0.0082608701         3899 
 3839000   0.63952876   -9.2792422    449.22507 0.0097513473 0.0082572167         3912 
 3840000   0.64969544   -9.2652184    449.22346 0.0097487731 0.0082535676         3898 
 3841000    0.6409378   -9.2772874    449.18716 0.0097454473 0.0082499218         3917 
 3842000   0.63328877   -9.2766614    450.85097 0.0097789991 0.0082462747         3923 
 3843000   0.63894875   -9.2660872    449.79509 0.0097535582 0.0082426321         3917 
 3844000   0.63057161   -9.2737327    449.53528 0.0097453885 0.0082389919         3917 
 3845000   0.63142797   -9.2741403    449.55453  0.009743271 0.0082353549         3898 
 3846000   0.63989365   -9.2668817    450.13601 0.0097533369 0.0082317167         3904 
 3847000   0.64010422   -9.2891642    449.42164 0.0097353271 0.0082280816         3908 
 3848000   0.63665021   -9.2639423    449.65158 0.0097377768 0.0082244528         3925 
 3849000   0.63490603   -9.2613693    449.53949 0.0097328199 0.0082208248         3899 
 3850000   0.63452379   -9.2699448    449.55502 0.0097306281 0.0082171994         3916 
 3851000   0.63903328     -9.27349    450.27431 0.0097436664 0.0082135705         3922 
 3852000   0.63862196   -9.2542145    449.88649 0.0097327468 0.0082099463         3911 
 3853000   0.64204133    -9.276115    449.42732 0.0097202898  0.008206327         3933 
 3854000   0.62198363   -9.2496607    449.72694 0.0097242463 0.0082027088         3905 
 3855000   0.62661042   -9.2682972    450.21578 0.0097322909 0.0081990975         3909 
 3856000   0.63426214   -9.2931765     449.8655 0.0097221969 0.0081954852         3886 
 3857000   0.63510367   -9.2874572       449.47 0.0097111312  0.008191876         3916 
 3858000   0.63611604   -9.2697716    449.75934  0.009714864 0.0081882651         3900 
 3859000   0.63226504   -9.2825077    449.91032 0.0097156069 0.0081846601         3904 
 3860000   0.62869282   -9.2817794    450.34178 0.0097224045 0.0081810581         3919 
 3861000   0.63497963   -9.2573759      449.883 0.0097099846 0.0081774566         3908 
 3862000   0.63281089   -9.2812397    449.62568 0.0097019179 0.0081738555         3914 
 3863000   0.62581712   -9.2751765     449.4965 0.0096966196 0.0081702542         3907 
 3864000   0.63517278   -9.2872956    449.35499 0.0096910583  0.008166658         3907 
 3865000   0.63081509   -9.2727481    449.31738 0.0096877399 0.0081630645         3923 
 3866000   0.62755192   -9.2797384    449.46331 0.0096883796 0.0081594765         3907 
 3867000   0.64907301   -9.2702553    450.07065 0.0096989623 0.0081558884         3928 
 3868000   0.64242463   -9.2869964    448.87374 0.0096706682 0.0081523021         3916 
 3869000   0.63585111   -9.2645626    448.97106 0.0096702649 0.0081487197         3895 
 3870000   0.63041228   -9.2705733    449.35731 0.0096760834 0.0081451386         3910 
 3871000   0.61918236   -9.2626961    449.27707 0.0096718563 0.0081415552         3923 
 3872000   0.63413243   -9.2829252    448.75621 0.0096581485 0.0081379745         3909 
 3873000   0.63268151   -9.2659963    449.19158 0.0096650223 0.0081343942         3926 
 3874000   0.64041172   -9.2637714    448.36745 0.0096447998 0.0081308184         3907 
 3875000   0.63753617   -9.2996612    448.83687 0.0096524058  0.008127246         3924 
 3876000   0.63666384   -9.2825119     449.9004 0.0096727812 0.0081236722         3902 
 3877000   0.62216121   -9.2945522    449.73868 0.0096668103 0.0081201019         3915 
 3878000   0.62739481    -9.288231    449.27486 0.0096543506 0.0081165369         3909 
 3879000   0.62200118   -9.2921991    449.47806 0.0096562272 0.0081129716         3902 
 3880000    0.6179679     -9.28857    449.18824 0.0096475137  0.008109406         3936 
 3881000   0.64119722   -9.2818749    449.18142 0.0096448814 0.0081058416         3910 
 3882000   0.63906404   -9.2771174     449.1225 0.0096411321 0.0081022843         3929 
 3883000   0.64418207   -9.2817464    449.14836 0.0096392042 0.0080987273         3924 
 3884000   0.63861514   -9.2706415    449.53847 0.0096450925 0.0080951699         3928 
 3885000    0.6190957    -9.283048    448.99535 0.0096309599 0.0080916193         3875 
 3886000   0.63372074   -9.3024319    448.65355 0.0096211518 0.0080880671         3909 
 3887000   0.64199684   -9.2570241    449.97828 0.0096470774 0.0080845179         3927 
 3888000   0.62104998   -9.2943106    449.43417  0.009632934 0.0080809687         3912 
 3889000   0.62602784   -9.2821678    449.20803 0.0096256113 0.0080774233         3898 
 3890000   0.63200077   -9.2501055    450.24544 0.0096453609 0.0080738813         3890 
 3891000   0.64003553   -9.2681212    449.78317 0.0096329815 0.0080703399         3929 
 3892000   0.63079242   -9.2968925    449.28277 0.0096197922 0.0080668015         3915 
 3893000   0.62883362   -9.3009964    448.65462 0.0096038748  0.008063265         3910 
 3894000   0.62275728   -9.2918629    449.51474 0.0096198156 0.0080597325         3904 
 3895000   0.62638305   -9.2930839    449.74544 0.0096222816 0.0080562023         3909 
 3896000   0.62894935   -9.2782354    449.30631 0.0096104189  0.008052672         3917 
 3897000   0.62347959    -9.302813    449.56949 0.0096135808 0.0080491426         3885 
 3898000   0.62354814   -9.2804179    448.77256 0.0095940772 0.0080456178         3916 
 3899000   0.63823586   -9.3008333    449.38916 0.0096047953 0.0080420948         3890 
 3900000   0.63534378   -9.2821686    449.23234 0.0095989815 0.0080385718         3925 
 3901000   0.63491849   -9.2902743    449.61718  0.009604742 0.0080350536         3913 
 3902000    0.6334222   -9.2932882    448.32404 0.0095746633 0.0080315341         3900 
 3903000   0.62976998    -9.289175    449.75719 0.0096028096 0.0080280179         3906 
 3904000   0.63558722   -9.2990927    448.95276 0.0095831788 0.0080245049         3893 
 3905000   0.63817024    -9.300304    449.03183  0.009582412 0.0080209937         3900 
 3906000   0.63032905   -9.2931702    449.32475 0.0095862081 0.0080174843         3917 
 3907000   0.61149163   -9.2837898    449.93616 0.0095967956 0.0080139758         3913 
 3908000   0.63085687   -9.2837126    449.23509 0.0095793903 0.0080104701         3916 
 3909000   0.62930204   -9.2965323     449.0173 0.0095722968 0.0080069612         3907 
 3910000   0.61933979   -9.3039396    449.34824  0.009576902   0.00800346         3921 
 3911000   0.63664041   -9.2787838    449.47761 0.0095772098 0.0079999586         3894 
 3912000   0.62778945   -9.2971647    449.74701 0.0095805003  0.007996461         3908 
 3913000   0.62881113   -9.2978636    448.96894 0.0095614818 0.0079929613         3902 
 3914000   0.61712969   -9.3015999    448.87065 0.0095569462 0.0079894718         3895 
 3915000   0.61745014   -9.2892939    449.19757 0.0095614638 0.0079859791         3912 
 3916000   0.62787089   -9.2928908    448.90774 0.0095528545 0.0079824895         3918 
 3917000   0.61631108   -9.3123451    448.89351 0.0095501129 0.0079790013         3916 
 3918000   0.62968319    -9.281689     449.2657 0.0095555917 0.0079755145         3911 
 3919000   0.62815325   -9.2727149    449.74459 0.0095633365 0.0079720316         3876 
 3920000   0.62621272   -9.3060918    449.09116 0.0095470059  0.007968551         3881 
 3921000    0.6231259   -9.2765916    449.29914 0.0095489913 0.0079650746         3919 
 3922000   0.63679687   -9.2798307    449.07583 0.0095418117 0.0079615988         3919 
 3923000   0.63156415    -9.294655    449.35515 0.0095453129 0.0079581255         3887 
 3924000   0.63452684   -9.2926046    448.90948 0.0095334158 0.0079546513         3886 
 3925000   0.61248379   -9.2824227    449.56654 0.0095449372 0.0079511805         3906 
 3926000   0.62805266   -9.2906738    448.89769 0.0095283089 0.0079477134         3910 
 3927000   0.62103894   -9.2863085    448.86361 0.0095251593  0.007944246         3931 
 3928000   0.61779208   -9.3044371    448.97891 0.0095251806 0.0079407799         3900 
 3929000   0.62009332   -9.2671455    449.45002 0.0095327484 0.0079373186         3893 
 3930000   0.61272159   -9.2943058    449.23867 0.0095258411  0.007933858         3912 
 3931000   0.62058118   -9.3042731    449.59021 0.0095308703 0.0079304017         3936 
 3932000   0.62249365   -9.2721152    449.37029 0.0095237854 0.0079269421         3920 
 3933000   0.61039007   -9.2961855    449.05544 0.0095146929 0.0079234864         3908 
 3934000   0.61126974   -9.2739312     449.5526 0.0095228055 0.0079200329         3890 
 3935000   0.63671974   -9.3113012    449.14439 0.0095117405 0.0079165825         3901 
 3936000   0.62048528   -9.2987815    449.15767 0.0095096052 0.0079131376         3904 
 3937000   0.61767692   -9.3069595    449.40671 0.0095124611 0.0079096934         3898 
 3938000   0.62125369   -9.2905161    449.40028 0.0095099094 0.0079062503         3904 
 3939000   0.63059989   -9.2895238    449.47815 0.0095091426 0.0079028065         3903 
 3940000   0.63591695   -9.2972804    449.19826 0.0095008091 0.0078993673         3910 
 3941000   0.61898413   -9.2900511    448.89737  0.009492036 0.0078959296         3912 
 3942000   0.62479023   -9.2822695    449.41376 0.0095005445 0.0078924937         3900 
 3943000     0.617771   -9.2834979    449.26382 0.0094949662 0.0078890593         3926 
 3944000   0.61224058   -9.3068642     448.9274 0.0094854505 0.0078856248         3877 
 3945000   0.62285223   -9.2845661    450.52191 0.0095167281  0.007882195         3908 
 3946000   0.61804274   -9.2871037    449.66532 0.0094962265 0.0078787684         3900 
 3947000   0.63029152     -9.29713    448.29887 0.0094649707 0.0078753402         3903 
 3948000   0.61950834   -9.2735809    449.25789  0.009482816 0.0078719149         3906 
 3949000   0.62345052   -9.2697095    449.97415 0.0094955296 0.0078684943         3871 
 3950000   0.61437245   -9.3029386    448.92489 0.0094709893 0.0078650719         3907 
 3951000    0.6296197   -9.2883562    449.09167 0.0094721098 0.0078616541         3930 
 3952000   0.61730076   -9.2830741    449.39118 0.0094760287 0.0078582394         3902 
 3953000   0.63458133   -9.2955714    448.94426 0.0094642098 0.0078548248         3903 
 3954000   0.62306132   -9.2948595    449.47879 0.0094730819 0.0078514128         3884 
 3955000   0.59998537   -9.3208678    449.20064 0.0094648259 0.0078480009         3913 
 3956000   0.61573387   -9.3164623    449.51161 0.0094689841 0.0078445925         3902 
 3957000   0.62124948   -9.3092524    448.82489 0.0094521289 0.0078411888         3918 
 3958000    0.6165085   -9.2889773    448.87593 0.0094508155 0.0078377863         3894 
 3959000   0.62426742   -9.3146398    448.35089 0.0094373767 0.0078343805         3915 
 3960000   0.61681382   -9.3262515    448.23002 0.0094324499 0.0078309797         3907 
 3961000   0.60777303   -9.3075811    448.35399 0.0094326768 0.0078275815         3908 
 3962000   0.61788243   -9.3077334    449.44207 0.0094531817 0.0078241829         3910 
 3963000   0.61079967   -9.3213831    449.22865 0.0094463085  0.007820786         3922 
 3964000   0.60953128    -9.287776    448.99677 0.0094390508 0.0078173937         3895 
 3965000    0.6012358   -9.3090623    448.77172 0.0094319402 0.0078140045         3893 
 3966000   0.61549256   -9.2825713    449.29779 0.0094406159 0.0078106174         3907 
 3967000   0.62324758   -9.2998949    448.87962 0.0094294518 0.0078072327         3906 
 3968000   0.62661724   -9.3044152    449.56134 0.0094413925 0.0078038437         3901 
 3969000   0.61616207   -9.2840064     449.4965 0.0094376523 0.0078004615         3884 
 3970000   0.61868981   -9.2965583     449.5618 0.0094366457 0.0077970827         3906 
 3971000    0.6166689    -9.295614    449.05919 0.0094237218 0.0077937023         3903 
 3972000    0.6220107   -9.2944335    448.14351  0.009402138 0.0077903244         3931 
 3973000   0.61153559   -9.3004487    449.53135 0.0094288815 0.0077869502         3923 
 3974000   0.62918756   -9.3141365    448.99966 0.0094153595 0.0077835763         3901 
 3975000   0.61723618   -9.3147124    448.79248 0.0094086474 0.0077802056         3919 
 3976000   0.60885996   -9.2972686    448.74704 0.0094053286 0.0077768406         3907 
 3977000   0.61080161   -9.2851164    450.03508 0.0094299531 0.0077734768         3929 
 3978000   0.62618314   -9.3000342    448.48781 0.0093951695 0.0077701143         3914 
 3979000   0.61678091   -9.3144264    448.81205 0.0093995989 0.0077667571         3900 
 3980000    0.6211168   -9.3125589    449.19649 0.0094052866 0.0077633973         3925 
 3981000   0.62380164   -9.2947322    449.54883 0.0094102994  0.007760039         3896 
 3982000   0.62046942   -9.2842261    449.09321 0.0093984013 0.0077566859         3928 
 3983000   0.61533964   -9.3168993    448.88682 0.0093917236 0.0077533324         3917 
 3984000   0.61025953   -9.3233699    448.82421 0.0093880566 0.0077499805         3905 
 3985000   0.62316269   -9.3128207    448.77013 0.0093845698 0.0077466321         3892 
 3986000   0.60127383   -9.3020769    449.33382 0.0093940003  0.007743283         3921 
 3987000    0.6170968   -9.2969281    449.22064 0.0093892785 0.0077399398         3911 
 3988000   0.61460258    -9.310778    448.65663 0.0093751386  0.007736595         3911 
 3989000   0.61677663   -9.3083577    448.33132 0.0093659922 0.0077332522         3923 
 3990000   0.59995127   -9.2871996    449.42139 0.0093864116 0.0077299132         3898 
 3991000   0.61778213   -9.3161496    449.25333 0.0093805506 0.0077265741         3890 
 3992000   0.61913301   -9.3006749    448.48271  0.009362114 0.0077232388         3884 
 3993000   0.60703628   -9.3069625    449.28931 0.0093766029 0.0077199045         3879 
 3994000   0.61138259   -9.2905613    449.11927 0.0093707076 0.0077165698         3929 
 3995000   0.60522606   -9.3202267    448.44408 0.0093542779 0.0077132357         3918 
 3996000   0.61008562   -9.3087874    448.40593 0.0093511413 0.0077099077         3904 
 3997000   0.59983648   -9.3213873    448.83913 0.0093578336 0.0077065817         3937 
 3998000   0.61949606   -9.3170943    448.39425 0.0093462199 0.0077032561         3920 
 3999000   0.59188394   -9.3223898     448.7598 0.0093515005 0.0076999326         3911 
 4000000   0.62402015   -9.3125925    449.47253  0.009364011 0.0076966119         3922 
 4001000   0.61652714    -9.321382    448.90638 0.0093498787 0.0076932926         3886 
 4002000   0.61782661   -9.3189824    449.05561 0.0093506498 0.0076899724         3909 
 4003000   0.61452789   -9.3016716    448.81038 0.0093432088 0.0076866543         3920 
 4004000   0.60808075   -9.3041246    448.91659  0.009343086 0.0076833411         3917 
 4005000    0.6199935   -9.3280895    448.89297 0.0093402616 0.0076800314         3902 
 4006000   0.61739888   -9.2931093    448.71675 0.0093342643 0.0076767211         3896 
 4007000     0.622208   -9.3200005    449.00704  0.009337972 0.0076734151         3924 
 4008000   0.61339405   -9.3233663    448.97501 0.0093349761 0.0076701085         3904 
 4009000    0.6124885   -9.3104467      448.383 0.0093203417 0.0076668028         3908 
 4010000   0.61953194   -9.3192442    449.08231 0.0093325501 0.0076634996         3921 
 4011000   0.59928552    -9.311771    448.90925 0.0093266279 0.0076601994         3913 
 4012000   0.60322792   -9.3075474    449.26026  0.009331594 0.0076568994         3905 
 4013000   0.61331249   -9.3115385    448.72558 0.0093181656 0.0076536039         3928 
 4014000   0.62521671   -9.3091961    448.56723 0.0093125567 0.0076503097         3902 
 4015000   0.60741378    -9.317414     448.6001 0.0093109194 0.0076470163         3909 
 4016000   0.60605274   -9.3312245    448.87318 0.0093142676 0.0076437241         3923 
 4017000   0.59224326   -9.2996046    449.35689 0.0093219834 0.0076404309         3917 
 4018000   0.60195998   -9.3037353    448.42633 0.0093003636 0.0076371425         3901 
 4019000   0.62179132   -9.3205968    448.37433 0.0092969712 0.0076338519         3921 
 4020000    0.5954161   -9.3139746    448.19088 0.0092908558 0.0076305703         3889 
 4021000   0.61068259   -9.3329648    448.41707 0.0092932327 0.0076272851         3904 
 4022000   0.59178687   -9.3241683    448.90102 0.0093009493 0.0076240047         3915 
 4023000   0.61056706   -9.3089684    448.89584 0.0092985302 0.0076207269         3919 
 4024000   0.59715616   -9.3273841     448.6273 0.0092906581 0.0076174494         3900 
 4025000   0.61309154   -9.3329467    448.37943 0.0092832181 0.0076141729         3908 
 4026000   0.61299585   -9.3197018    448.71647 0.0092878885 0.0076109018         3919 
 4027000   0.58862027   -9.3182306    448.80959 0.0092875091 0.0076076303         3910 
 4028000   0.61278496   -9.3232924    448.67525 0.0092824241 0.0076043612         3915 
 4029000   0.61006055   -9.3136947    449.24009 0.0092918029  0.007601093         3904 
 4030000   0.60370079   -9.3304495    448.57576 0.0092757602 0.0075978273         3913 
 4031000   0.60939694   -9.3248951    449.23683 0.0092871253 0.0075945639         3905 
 4032000   0.61794206   -9.3132167    448.50424  0.009269681 0.0075913012         3908 
 4033000    0.5976602   -9.3198523    449.03053 0.0092782572 0.0075880449         3921 
 4034000   0.60485497   -9.3232006    449.17488 0.0092789391 0.0075847891         3922 
 4035000   0.61284963    -9.310417    449.09029 0.0092748925 0.0075815322         3928 
 4036000   0.61319465   -9.3260499    448.30316 0.0092563421 0.0075782776         3915 
 4037000   0.61378749   -9.3137603    449.04884 0.0092694419 0.0075750231         3913 
 4038000   0.60824133   -9.3262822    448.67181 0.0092593654 0.0075717761         3904 
 4039000   0.58871951   -9.3174567    448.58558 0.0092552939 0.0075685318         3915 
 4040000   0.60281313   -9.3149462    449.62808 0.0092745066 0.0075652868         3910 
 4041000   0.60828172    -9.346606    448.46565 0.0092482399  0.007562043         3935 
 4042000   0.59553932   -9.3264143    448.75614 0.0092519409 0.0075588012         3902 
 4043000     0.611141    -9.321581    448.22866 0.0092387802 0.0075555604         3918 
 4044000   0.61804372   -9.3267248     448.7285 0.0092467957 0.0075523231         3923 
 4045000   0.59915134   -9.3191667    449.26494 0.0092555612 0.0075490839         3912 
 4046000   0.60346667    -9.296074    448.60264 0.0092396325 0.0075458489         3901 
 4047000   0.59308856   -9.3366987    448.51972 0.0092356419 0.0075426175         3927 
 4048000   0.59481219   -9.2993171    448.63233 0.0092356788 0.0075393838         3920 
 4049000   0.59742715   -9.3321952    447.81129 0.0092164997 0.0075361498         3918 
 4050000   0.59773649   -9.3174918    448.44472 0.0092272575 0.0075329188         3914 
 4051000   0.60100677   -9.3291505    448.45515 0.0092251944 0.0075296891         3912 
 4052000   0.59581182   -9.3401088    448.58499 0.0092255881 0.0075264661         3927 
 4053000   0.58944571    -9.321672    448.45663 0.0092206726  0.007523239         3916 
 4054000   0.60917685   -9.3244577    448.41118 0.0092174638 0.0075200157         3924 
 4055000   0.61147474   -9.3271878    448.50404  0.009217099 0.0075167967         3915 
 4056000   0.61002999   -9.3161324    448.65194 0.0092178652 0.0075135825         3919 
 4057000   0.60748739   -9.3350502    448.61859 0.0092149082  0.007510367         3935 
 4058000   0.60366159   -9.3162487    448.08625 0.0092017055 0.0075071495         3902 
 4059000   0.60517669   -9.3153654    448.83078 0.0092147241 0.0075039375         3901 
 4060000   0.60431366   -9.3289104    448.73577 0.0092105044 0.0075007277         3918 
 4061000   0.58534279   -9.3225458    448.06497 0.0091944712 0.0074975194         3920 
 4062000   0.61435653    -9.319176    448.28384 0.0091966979 0.0074943178         3928 
 4063000     0.613228   -9.3071151    448.38744 0.0091965593 0.0074911139         3927 
 4064000   0.61019123   -9.3196675    448.31186 0.0091927466 0.0074879135         3928 
 4065000   0.60111513   -9.3367159    448.15838 0.0091873386 0.0074847128         3904 
 4066000   0.60321999   -9.3468015    448.24309 0.0091868153 0.0074815133         3901 
 4067000    0.6032379    -9.325201    448.98292 0.0091997156 0.0074783153         3914 
 4068000   0.58984917   -9.3345296    448.66726 0.0091909877 0.0074751182         3909 
 4069000   0.60037676   -9.3321121    448.15396 0.0091782165 0.0074719253         3896 
 4070000   0.60292355   -9.3238445    448.07299 0.0091743037 0.0074687334         3907 
 4071000   0.61716144   -9.3261244     448.3724 0.0091781789 0.0074655435         3913 
 4072000   0.59623726   -9.3470289    448.22557 0.0091729201 0.0074623541         3901 
 4073000   0.60228967   -9.3374662    447.82406 0.0091624532  0.007459168         3907 
 4074000   0.60098615   -9.3249512    449.05382 0.0091853587  0.007455986         3920 
 4075000   0.58748277   -9.3266499    447.79581 0.0091573784 0.0074528036         3901 
 4076000   0.61381621   -9.3404419     448.5204 0.0091699459 0.0074496247         3902 
 4077000   0.59174626   -9.3368437    447.81754 0.0091533305 0.0074464452         3926 
 4078000   0.59636154   -9.3417424    447.79132   0.00915055 0.0074432664         3904 
 4079000   0.60670627    -9.344924    448.17864 0.0091562196 0.0074400917         3907 
 4080000   0.59453976   -9.3242181    448.43476 0.0091592068 0.0074369191         3916 
 4081000   0.61022858   -9.3331037    448.40863 0.0091564288 0.0074337495         3915 
 4082000   0.60902066   -9.3364033    448.36575 0.0091533103 0.0074305785         3910 
 4083000   0.61278411   -9.3303259    447.71883  0.009137865  0.007427409         3912 
 4084000    0.5943556   -9.3393222    448.89291 0.0091595843 0.0074242392         3920 
 4085000   0.60242467   -9.3494932    448.34449 0.0091461544  0.007421076         3891 
 4086000   0.59606085   -9.3447261    448.24768 0.0091419416  0.007417913         3908 
 4087000   0.60056182   -9.3356776    448.53148 0.0091454914 0.0074147534         3911 
 4088000   0.60194895   -9.3415556    448.20995    0.0091367 0.0074115947         3925 
 4089000   0.59581282    -9.331853    448.31335 0.0091365728 0.0074084412         3895 
 4090000   0.60507679    -9.321541     448.2293 0.0091326262 0.0074052859         3910 
 4091000   0.60204028   -9.3268763    448.07436 0.0091272379 0.0074021295         3898 
 4092000   0.58694502   -9.3239349    448.34906 0.0091306017 0.0073989798         3929 
 4093000   0.58719125   -9.3336957    448.36356 0.0091286659 0.0073958305         3908 
 4094000   0.59822202   -9.3421782    448.71835 0.0091336581 0.0073926861         3916 
 4095000    0.5893179   -9.3450445    447.74143 0.0091115472 0.0073895357         3918 
 4096000   0.58596292   -9.3261246    449.25704 0.0091401579 0.0073863936         3921 
 4097000     0.591737   -9.3312149    447.98165 0.0091119855  0.007383252         3919 
 4098000   0.59780961   -9.3320213    448.71521 0.0091246789  0.007380114         3921 
 4099000   0.60289377    -9.319878    448.47898 0.0091176502 0.0073769776         3917 
 4100000   0.59305944   -9.3377786    448.56467  0.009117168 0.0073738424         3918 
 4101000   0.59471267   -9.3435523    448.41772 0.0091119589 0.0073707108         3917 
 4102000   0.59932442   -9.3445993    447.51202 0.0090913379 0.0073675799         3920 
 4103000   0.60111999   -9.3265089    448.30049 0.0091051363 0.0073644495         3904 
 4104000   0.60472088   -9.3262418     448.5428 0.0091078378 0.0073613183         3903 
 4105000   0.59822903   -9.3319449    448.51053 0.0091049641 0.0073581907         3909 
 4106000   0.59516968   -9.3494772    447.65283 0.0090853392 0.0073550666         3934 
 4107000   0.58127673    -9.330198     448.2595 0.0090954366 0.0073519449         3912 
 4108000   0.58555986   -9.3362768    448.26077 0.0090932484 0.0073488258         3925 
 4109000   0.60178004   -9.3516632    448.12311 0.0090882434 0.0073457079         3912 
 4110000   0.59254335   -9.3211679    448.28242 0.0090892623 0.0073425899         3913 
 4111000   0.59074828   -9.3322084     448.1043 0.0090834407 0.0073394724         3920 
 4112000   0.58776315   -9.3290431    448.21686  0.009083513 0.0073363561         3906 
 4113000   0.59359904   -9.3482564    447.51649 0.0090671143 0.0073332442         3906 
 4114000   0.60760886   -9.3429952    448.21215 0.0090790016 0.0073301311         3908 
 4115000   0.58717276   -9.3448867    448.11415 0.0090748107 0.0073270217         3905 
 4116000   0.59271214   -9.3373751    447.87667 0.0090677978 0.0073239172         3924 
 4117000   0.58949055   -9.3296798    447.43849 0.0090567259 0.0073208117         3924 
 4118000   0.59762297   -9.3347866    447.35385 0.0090528138 0.0073177085         3930 
 4119000   0.58224087    -9.330257    448.43657 0.0090725211 0.0073146071         3920 
 4120000   0.58746695   -9.3399272    448.02704 0.0090620356 0.0073115086         3896 
 4121000   0.58104188    -9.354356     448.4263 0.0090679102 0.0073084108         3922 
 4122000   0.58265025   -9.3449918    448.61279 0.0090694806 0.0073053144         3917 
 4123000   0.58235842   -9.3370195    448.14414 0.0090578086 0.0073022211         3911 
 4124000   0.57885013    -9.335502    447.85912 0.0090498529 0.0072991284         3910 
 4125000   0.60938143   -9.3562174    447.84648 0.0090474036 0.0072960375         3928 
 4126000   0.58922086   -9.3477359    448.30571 0.0090544859 0.0072929506         3926 
 4127000   0.60015075   -9.3323169    448.44123 0.0090550285 0.0072898657         3918 
 4128000   0.60029418   -9.3485258    449.25509 0.0090692647 0.0072867805         3923 
 4129000    0.5927959   -9.3426603     448.1333 0.0090444276 0.0072836977         3896 
 4130000   0.59588677   -9.3491766    447.86822  0.009036889 0.0072806154         3927 
 4131000   0.59520441   -9.3329577    448.35306  0.009044482 0.0072775361         3911 
 4132000   0.58891333    -9.351591     448.4039 0.0090433184 0.0072744597         3929 
 4133000   0.59490058   -9.3381242    448.06396 0.0090342761 0.0072713827         3917 
 4134000   0.58418492   -9.3279164    448.53074 0.0090415001 0.0072683085         3913 
 4135000   0.58922541   -9.3343563    447.75302   0.00902364 0.0072652327         3918 
 4136000   0.58400955   -9.3505092    447.43653 0.0090150817 0.0072621578         3917 
 4137000   0.58630724    -9.329753     447.8323 0.0090208746 0.0072590881         3912 
 4138000   0.58964425   -9.3525485    448.07841 0.0090236509 0.0072560223         3922 
 4139000   0.59262282   -9.3384418    448.34655 0.0090268694 0.0072529566         3913 
 4140000   0.59416972   -9.3418014    447.34175 0.0090044636 0.0072498889         3903 
 4141000   0.60576162   -9.3316416    447.49201 0.0090053129 0.0072468277         3936 
 4142000   0.58840981   -9.3543269    447.75033  0.009008336 0.0072437673         3926 
 4143000   0.58556952   -9.3240817    448.24444 0.0090161003 0.0072407105         3928 
 4144000   0.58717991   -9.3418612    447.84056 0.0090058027  0.007237652         3933 
 4145000   0.59219634   -9.3529493     448.1342 0.0090095335 0.0072345969         3918 
 4146000   0.58267117   -9.3531552    448.39541 0.0090126107 0.0072315439         3926 
 4147000   0.58093511   -9.3379004    448.49699 0.0090124787 0.0072284893         3911 
 4148000   0.57963949   -9.3434977    448.36041 0.0090075621  0.007225438         3914 
 4149000   0.58517893   -9.3429024    448.15266 0.0090012184 0.0072223883         3932 
 4150000   0.58276872   -9.3604483    447.21931 0.0089803074 0.0072193397         3933 
 4151000   0.59381863   -9.3521747    447.82624 0.0089903284 0.0072162939         3907 
 4152000   0.58828584   -9.3509845     448.4662 0.0090010074 0.0072132489         3921 
 4153000   0.57986026    -9.342934    448.23222 0.0089941451  0.007210206         3917 
 4154000   0.59868131   -9.3551234    447.39192 0.0089751228 0.0072071656         3910 
 4155000   0.59337429   -9.3461282    447.97006  0.008984558 0.0072041259         3924 
 4156000   0.58606428   -9.3547179    448.03848 0.0089837681 0.0072010895         3917 
 4157000   0.59893191   -9.3370491    448.14006 0.0089836433 0.0071980543         3930 
 4158000   0.59203297   -9.3545048    447.86914 0.0089760529 0.0071950236         3943 
 4159000   0.58631473   -9.3489093    447.82219  0.008972954 0.0071919903         3927 
 4160000   0.59766804   -9.3542453    447.64683 0.0089672842 0.0071889617         3914 
 4161000   0.59469939   -9.3464812    448.04205 0.0089730443 0.0071859336         3910 
 4162000   0.57258202   -9.3574891    448.03315 0.0089707102 0.0071829083         3915 
 4163000    0.5850872   -9.3435417    448.23903 0.0089726765 0.0071798827         3945 
 4164000   0.59137712   -9.3439598    447.72235 0.0089601815 0.0071768595         3920 
 4165000   0.58597987   -9.3408903    447.99403  0.008963466 0.0071738377         3917 
 4166000   0.58258112   -9.3472552    448.37289 0.0089688927 0.0071708178         3922 
 4167000   0.58148549   -9.3391304    448.30733 0.0089654294 0.0071678021         3939 
 4168000    0.5761259    -9.349032     447.8172 0.0089534788 0.0071647819         3921 
 4169000   0.59397459   -9.3574216    447.99991 0.0089549833 0.0071617696         3920 
 4170000   0.57573984   -9.3279302    448.41347 0.0089611005  0.007158757         3899 
 4171000   0.57933207   -9.3278073     448.6433  0.008963544 0.0071557493         3911 
 4172000   0.57691164   -9.3181378    448.25796 0.0089536985 0.0071527387         3924 
 4173000   0.58091351   -9.3407606    448.10229 0.0089484443 0.0071497331         3908 
 4174000   0.56575378   -9.3540171    448.30331 0.0089503137 0.0071467263         3930 
 4175000   0.57294355   -9.3352931    447.37153 0.0089295714 0.0071437223         3934 
 4176000   0.57306746   -9.3615333     447.9599 0.0089391742  0.007140718         3919 
 4177000   0.58954315   -9.3466813    447.53866 0.0089286301 0.0071377172         3927 
 4178000   0.58930095   -9.3470033    447.33554 0.0089224417 0.0071347165         3949 
 4179000   0.58982254   -9.3441979     447.3311 0.0089202181 0.0071317195         3926 
 4180000   0.58922226   -9.3529227    447.75683 0.0089265715 0.0071287227         3946 
 4181000   0.58201657    -9.338295    447.38008 0.0089169274 0.0071257263         3936 
 4182000   0.58363595   -9.3352175    448.25466 0.0089322225 0.0071227329         3928 
 4183000   0.59688174   -9.3496495    447.78627 0.0089207561 0.0071197428         3933 
 4184000   0.58130946   -9.3609621    448.77817 0.0089383797 0.0071167555         3924 
 4185000   0.58179808   -9.3643217    448.20536 0.0089248379 0.0071137675         3923 
 4186000   0.57265184   -9.3712912    447.16907 0.0089020757 0.0071107783         3950 
 4187000      0.57979   -9.3608441    448.38107 0.0089240719 0.0071077937         3912 
 4188000    0.5836977    -9.363607    447.96802 0.0089137221 0.0071048116         3939 
 4189000   0.58227631   -9.3528867    447.22994 0.0088969114 0.0071018307         3906 
 4190000   0.57102876   -9.3380001    447.20411 0.0088942743 0.0070988537         3926 
 4191000   0.57750135   -9.3485936    447.90075 0.0089060039 0.0070958781         3935 
 4192000     0.587007   -9.3527852    447.69552 0.0088997997 0.0070929023         3916 
 4193000   0.58444067   -9.3499227     447.6366 0.0088965061 0.0070899277         3922 
 4194000   0.57649726   -9.3556672    447.62642 0.0088941826 0.0070869547         3925 
 4195000   0.57851487   -9.3578668    448.42269 0.0089078803 0.0070839845         3932 
 4196000   0.57943421   -9.3514558    447.56736 0.0088887702 0.0070810147         3954 
 4197000   0.56623487   -9.3428961    447.70747 0.0088894343 0.0070780449         3922 
 4198000   0.57445788   -9.3535493    446.92733 0.0088718305  0.007075078         3918 
 4199000   0.56919063   -9.3624913    447.62686 0.0088836004 0.0070721134         3928 
 4200000   0.58397188    -9.358012    447.33017 0.0088755986 0.0070691499         3930 
 4201000   0.58591064   -9.3556905     447.7857  0.008882522 0.0070661868         3930 
 4202000   0.56781493   -9.3652037    447.91775  0.008883027 0.0070632263         3922 
 4203000   0.57533562   -9.3747278    447.06566  0.008864019 0.0070602674         3928 
 4204000   0.58811923   -9.3916997    447.63856 0.0088732667 0.0070573102         3922 
 4205000   0.56782099   -9.3660234    447.23543 0.0088631676 0.0070543549         3932 
 4206000     0.578388   -9.3619434    447.78501  0.008871949 0.0070514005         3928 
 4207000   0.57142112    -9.344976    448.37861 0.0088815984 0.0070484514         3932 
 4208000   0.56494103   -9.3630089    447.39244 0.0088599581 0.0070455034         3927 
 4209000   0.56657056   -9.3541406    447.68085 0.0088635632 0.0070425549         3921 
 4210000   0.56660168   -9.3692271     447.5402 0.0088586738 0.0070396103         3918 
 4211000   0.57534423   -9.3602584    448.02844 0.0088662322 0.0070366684         3926 
 4212000   0.57214394   -9.3347514    447.88359 0.0088612613 0.0070337286         3912 
 4213000   0.58780482   -9.3771379     447.7499 0.0088565136 0.0070307898         3915 
 4214000    0.5758733   -9.3752307    448.03245 0.0088599993 0.0070278473         3906 
 4215000   0.57317016   -9.3442728    447.31437 0.0088437004 0.0070249073         3923 
 4216000    0.5750707   -9.3750394    448.03089 0.0088557656 0.0070219701         3932 
 4217000   0.56918928   -9.3712306    447.62637 0.0088456718 0.0070190361         3932 
 4218000   0.56612492   -9.3711363    446.70917 0.0088254537  0.007016102         3929 
 4219000    0.5620583   -9.3645203    447.55729  0.008840114  0.007013168         3922 
 4220000   0.57938845   -9.3716409    447.21696 0.0088312986 0.0070102379         3919 
 4221000   0.58021293    -9.362224    447.21438 0.0088291555 0.0070073088         3928 
 4222000   0.58424544   -9.3753645    446.94744 0.0088217954 0.0070043808         3903 
 4223000   0.57204271   -9.3636565    447.99331 0.0088403448 0.0070014551         3922 
 4224000   0.57825628   -9.3591151    447.96422 0.0088376779  0.006998536         3913 
 4225000   0.58197344   -9.3424961    448.01359   0.00883656 0.0069956136         3934 
 4226000   0.57018786   -9.3735173    447.27634  0.008819931 0.0069926945         3930 
 4227000   0.58166472    -9.364636    447.47466 0.0088217543 0.0069897751         3912 
 4228000   0.57600928    -9.363167    447.94466 0.0088289313 0.0069868539         3944 
 4229000    0.5739002   -9.3733333    448.20201 0.0088319148 0.0069839356         3944 
 4230000   0.57212164   -9.3621315    447.10294 0.0088081745 0.0069810239         3946 
 4231000    0.5743244   -9.3656907    447.06831 0.0088054107 0.0069781118         3934 
 4232000   0.57129239   -9.3659232    447.56086  0.008813029 0.0069752049         3941 
 4233000    0.5712799   -9.3574075    447.76087 0.0088148845 0.0069722971         3915 
 4234000   0.57273316   -9.3733129    447.59284 0.0088094953 0.0069693889         3917 
 4235000   0.56728371   -9.3731167    447.97626 0.0088149598 0.0069664829         3945 
 4236000   0.56338531   -9.3788429     447.7041 0.0088075249 0.0069635792         3937 
 4237000   0.56183105    -9.367973    447.46869  0.008800816 0.0069606752         3945 
 4238000   0.57210082   -9.3747957    448.08672  0.008810892 0.0069577745         3924 
 4239000   0.57701953   -9.3814897    447.22968  0.008791965 0.0069548754         3919 
 4240000   0.56341769   -9.3857602    447.24266 0.0087901466 0.0069519787         3922 
 4241000   0.57351117   -9.3612704    447.36065 0.0087903925 0.0069490819         3920 
 4242000   0.56287351   -9.3752516    447.94551 0.0087998097 0.0069461883         3933 
 4243000   0.57425519   -9.3869282    447.69161 0.0087927491 0.0069432946         3936 
 4244000   0.58035184   -9.3735335    448.20442 0.0088007466 0.0069404023         3929 
 4245000   0.56645473   -9.3693126    448.05928 0.0087958241 0.0069375117         3913 
 4246000   0.55603856   -9.3919915    447.60998 0.0087849345 0.0069346249         3911 
 4247000   0.57476357   -9.3777702    447.66556 0.0087839564 0.0069317398         3943 
 4248000   0.58063113   -9.3797933    446.63544 0.0087616808 0.0069288553         3950 
 4249000   0.57776089   -9.3712387    447.47256 0.0087760366 0.0069259704         3936 
 4250000   0.57378407   -9.3586856    447.66441 0.0087777335 0.0069230911         3932 
 4251000   0.57940183   -9.3907547    448.29546 0.0087880392 0.0069202089         3926 
 4252000   0.56734808   -9.3851851     447.9193 0.0087786004 0.0069173303         3938 
 4253000    0.5794341    -9.363614    447.12576 0.0087609875 0.0069144543         3930 
 4254000   0.57102696   -9.3772595    447.40773 0.0087644518  0.006911579         3944 
 4255000   0.55686243   -9.3798555    447.33849 0.0087610359 0.0069087055         3926 
 4256000   0.57576944   -9.3688146    447.32557 0.0087587243 0.0069058344         3924 
 4257000   0.57455258   -9.3809025    447.12869 0.0087528127 0.0069029648         3925 
 4258000   0.54947876   -9.3673085    447.06212 0.0087494544 0.0069000969         3919 
 4259000   0.57084483    -9.367184    447.36049 0.0087532381 0.0068972312         3941 
 4260000   0.57069858   -9.4000097    446.94733 0.0087431011 0.0068943665         3928 
 4261000   0.55941731   -9.3770234    447.67871  0.008755353 0.0068915023         3944 
 4262000   0.56915452   -9.3830547    447.84717 0.0087565925 0.0068886402         3944 
 4263000   0.56113029   -9.3714415    447.83758  0.008754351 0.0068857795         3926 
 4264000   0.56724213   -9.3804408     447.2116 0.0087400641 0.0068829201         3925 
 4265000   0.56789735   -9.3795259    447.54969 0.0087446207 0.0068800642         3953 
 4266000   0.56870609   -9.3590021    447.88523 0.0087491254 0.0068772073         3945 
 4267000   0.56392051    -9.365203    446.99565 0.0087297018 0.0068743519         3933 
 4268000   0.55635489   -9.3781883    446.95507 0.0087268641    0.0068715         3928 
 4269000   0.56498086    -9.384689    447.38625 0.0087332368 0.0068686485         3943 
 4270000   0.57180114   -9.3862405    447.29247 0.0087293613 0.0068658009         3934 
 4271000   0.56161577   -9.3793267    446.53553 0.0087125485 0.0068629524         3934 
 4272000   0.58378039   -9.3664023    447.72611 0.0087337333 0.0068601074         3907 
 4273000   0.55481302   -9.3767814    447.11085 0.0087196905  0.006857264         3918 
 4274000   0.55820349   -9.3735516    447.71153 0.0087293623 0.0068544211         3929 
 4275000   0.56206988   -9.3588368    447.74622 0.0087279965 0.0068515804         3915 
 4276000   0.55466704   -9.3786631     447.3261 0.0087177678  0.006848739         3925 
 4277000   0.57032472    -9.370652    446.72119 0.0087039434  0.006845902         3937 
 4278000   0.57310498   -9.3879477    446.99954 0.0087073308 0.0068430677         3942 
 4279000   0.57715272   -9.3745108    447.64415 0.0087178497 0.0068402321         3938 
 4280000   0.56610195   -9.3594273    446.86255 0.0087005948  0.006837401         3930 
 4281000   0.55460832   -9.3688992    447.71581 0.0087151719 0.0068345701         3937 
 4282000   0.55657576   -9.3752423    447.59393 0.0087107646  0.006831739         3929 
 4283000   0.56380061   -9.3862402    446.19151 0.0086814443 0.0068289117         3943 
 4284000   0.54845288   -9.3701273      447.842 0.0087115235 0.0068260853         3924 
 4285000   0.55411929   -9.3815836    447.78732 0.0087084272 0.0068232606         3911 
 4286000   0.57552953    -9.384792    447.30282 0.0086969751 0.0068204356         3927 
 4287000   0.56566816   -9.3593381    447.97677 0.0087080471  0.006817614         3917 
 4288000   0.56148085   -9.3571905    447.66289 0.0086999163 0.0068147942         3930 
 4289000   0.56374634    -9.373327    447.88271 0.0087021587 0.0068119763         3945 
 4290000   0.56927904   -9.3723347    447.44573  0.008691642 0.0068091596         3930 
 4291000   0.56769864   -9.3867443    447.95711 0.0086995477 0.0068063441         3933 
 4292000   0.57199744    -9.376183    447.44603 0.0086875977 0.0068035307         3923 
 4293000   0.58149895   -9.3864548    447.68734 0.0086902582 0.0068007172         3938 
 4294000   0.56737846   -9.3785884      446.562  0.008666395 0.0067979061         3911 
 4295000   0.58030469   -9.3760278    446.76391 0.0086682948 0.0067950963         3936 
 4296000   0.56287277   -9.3858437    446.70296 0.0086650946 0.0067922884         3941 
 4297000   0.57195124   -9.3951179     447.6914 0.0086822472  0.006789481         3941 
 4298000   0.56047756   -9.3955539    447.27405 0.0086721353 0.0067866772         3933 
 4299000   0.56378458   -9.3719286    447.40412 0.0086726394 0.0067838747         3941 
 4300000   0.56478909   -9.4059092    447.02641 0.0086633026 0.0067810725         3932 
 4301000   0.56015601   -9.3848222    447.31589 0.0086668969 0.0067782702         3923 
 4302000   0.55823206    -9.387903    447.17855 0.0086622219 0.0067754727         3928 
 4303000   0.56672959   -9.3752113    447.61192 0.0086686017 0.0067726737         3925 
 4304000   0.55605974   -9.3818419    447.17553 0.0086581384  0.006769877         3954 
 4305000   0.55989854    -9.375117    447.42119 0.0086608825  0.006767084         3934 
 4306000   0.55449694   -9.3706477    446.75387 0.0086459565 0.0067642916         3923 
 4307000   0.56833109   -9.3831142    447.94805 0.0086670546 0.0067614994         3940 
 4308000   0.55743866   -9.3898634    447.27043  0.008651935 0.0067587079         3931 
 4309000   0.55541813   -9.3903661    447.82901 0.0086607297 0.0067559213         3925 
 4310000    0.5679199   -9.3612835    447.18969 0.0086463591 0.0067531393         3936 
 4311000   0.56377447   -9.4000429    446.48192  0.008630672 0.0067503541         3943 
 4312000   0.55837561   -9.3788925    446.83851 0.0086355617 0.0067475711         3924 
 4313000   0.57193107   -9.3580612    447.90879 0.0086542389 0.0067447918         3921 
 4314000   0.56402417   -9.3712313    446.89623 0.0086326732 0.0067420151         3932 
 4315000   0.55579651   -9.3859466    447.22974 0.0086371136 0.0067392372         3932 
 4316000   0.55814318   -9.4135508     446.8228 0.0086272551 0.0067364611         3916 
 4317000   0.56954072   -9.3844946    447.69813 0.0086421537 0.0067336846         3924 
 4318000   0.56351515    -9.378632     447.1967 0.0086304751   0.00673091         3921 
 4319000     0.564302   -9.3969747    447.55649 0.0086354188 0.0067281382         3933 
 4320000   0.55710838    -9.379998    447.10435 0.0086246981 0.0067253676         3936 
 4321000   0.55959772   -9.3883553    446.54004  0.008611819 0.0067225979         3927 
 4322000   0.56572067   -9.3761482    447.63733 0.0086309835 0.0067198326         3919 
 4323000   0.56425968   -9.4006888    447.16964 0.0086199714 0.0067170682         3935 
 4324000   0.56696549   -9.3857691    447.08073 0.0086162645  0.006714305         3934 
 4325000   0.56447039    -9.394059    446.93332  0.008611432 0.0067115419         3934 
 4326000   0.56273743   -9.3758747    447.32528 0.0086169918 0.0067087807         3912 
 4327000   0.55508716   -9.3769509    447.21959 0.0086129649 0.0067060203         3931 
 4328000   0.56336081   -9.3960663    446.80837 0.0086030569 0.0067032629         3940 
 4329000   0.55606392   -9.3834278     446.1707 0.0085887946  0.006700508         3921 
 4330000   0.56103384   -9.3824244    447.29554 0.0086084592 0.0066977537         3921 
 4331000   0.56668515   -9.3849161    446.65398 0.0085941273 0.0066949991         3923 
 4332000    0.5476161   -9.3835506     447.3704 0.0086059248 0.0066922439         3914 
 4333000   0.54587778   -9.3990197    447.19191 0.0086005061 0.0066894941         3937 
 4334000   0.56836942   -9.4002988    447.01353 0.0085950917 0.0066867431         3934 
 4335000   0.54344366   -9.3637199    447.39815 0.0086005027 0.0066839971         3934 
 4336000   0.55387808   -9.3862063    447.51833 0.0086008289 0.0066812512         3922 
 4337000   0.54392382    -9.371289     447.2376 0.0085934518 0.0066785069         3921 
 4338000   0.55739009   -9.3902498    446.64816 0.0085801475 0.0066757607         3933 
 4339000   0.56633664   -9.4077179    446.96418 0.0085842395 0.0066730183         3932 
 4340000   0.56880745   -9.3734339    447.33351  0.008589353 0.0066702793         3941 
 4341000   0.55208197   -9.3792601    448.11436 0.0086023644 0.0066675442         3943 
 4342000   0.56355844   -9.3910613    446.85364 0.0085761869 0.0066648069         3934 
 4343000   0.55456609   -9.3914799    446.65368 0.0085703754 0.0066620738         3935 
 4344000    0.5564254   -9.3910259    447.29607 0.0085807258 0.0066593403         3942 
 4345000   0.56637448   -9.4183789    446.84161 0.0085700348 0.0066566089         3911 
 4346000    0.5632485   -9.4017066    446.74257 0.0085661638 0.0066538782         3943 
 4347000   0.55600823   -9.3786039    446.76778 0.0085646763 0.0066511492         3916 
 4348000   0.55072826   -9.3965355     447.0025 0.0085672052 0.0066484211         3927 
 4349000   0.54724439   -9.4011716    446.44948 0.0085546386  0.006645693         3947 
 4350000     0.557921   -9.3879338    446.74448 0.0085583234 0.0066429667         3924 
 4351000   0.55616581   -9.3949251    447.36729 0.0085682849 0.0066402444         3933 
 4352000   0.54363525   -9.3881096    446.97531 0.0085588104 0.0066375234         3928 
 4353000   0.55993259   -9.3947353    446.53685 0.0085484503  0.006634804         3922 
 4354000   0.54676092   -9.3934251    446.72762 0.0085501382  0.006632086         3934 
 4355000   0.55432396   -9.3908865    446.96363 0.0085526909 0.0066293675         3931 
 4356000   0.55017468   -9.3868269    447.48002 0.0085606064 0.0066266509         3947 
 4357000   0.54985536   -9.3945275    446.71432 0.0085439967  0.006623938         3930 
 4358000   0.55845881   -9.3842964    446.61262 0.0085400913  0.006621226         3916 
 4359000   0.56611441   -9.4002952    446.64266 0.0085387065 0.0066185132         3927 
 4360000   0.55252971   -9.3900418    446.68967 0.0085376467 0.0066158053         3936 
 4361000   0.56773409   -9.3846753     447.0613 0.0085427903 0.0066130983         3941 
 4362000   0.54793848   -9.4200516    446.33196 0.0085268982 0.0066103921         3937 
 4363000   0.56330428   -9.4015428    447.12826 0.0085401531 0.0066076878         3926 
 4364000   0.56760694   -9.4198829    447.17554 0.0085390991 0.0066049841         3940 
 4365000   0.55953959   -9.3890866    447.21721 0.0085379383 0.0066022831         3941 
 4366000   0.54298594   -9.4184493    445.84514 0.0085097943 0.0065995816         3933 
 4367000   0.55159196   -9.3873131    447.09061 0.0085316123 0.0065968803         3937 
 4368000   0.56191473   -9.3988838    446.46563 0.0085177357  0.006594181         3944 
 4369000   0.54888066   -9.3983971    447.05704 0.0085270665 0.0065914842         3908 
 4370000   0.55502106   -9.4170388    447.04507 0.0085248869 0.0065887907         3947 
 4371000   0.56337316   -9.3948189    446.69301 0.0085162246 0.0065860981         3934 
 4372000    0.5452859   -9.4075443    446.58401  0.008512199 0.0065834068         3923 
 4373000   0.55602472   -9.4116212    446.72746 0.0085129861 0.0065807169         3934 
 4374000   0.55755107   -9.4000835    446.55643 0.0085077814 0.0065780305         3934 
 4375000   0.55628678   -9.4067684     446.0017 0.0084952705 0.0065753429         3945 
 4376000   0.53685948   -9.3955361    447.15174 0.0085152297 0.0065726561         3915 
 4377000   0.53839196   -9.3815301    446.89998 0.0085084909 0.0065699718         3927 
 4378000   0.55486362   -9.4039272    446.84727 0.0085055443 0.0065672889         3937 
 4379000   0.55684921   -9.4016937    446.85405 0.0085037308 0.0065646086         3928 
 4380000   0.54560797   -9.4052802     447.1409 0.0085072469 0.0065619273         3918 
 4381000   0.55180807   -9.4051089    447.65184  0.008515024 0.0065592483         3928 
 4382000   0.56524683   -9.4107886    447.45982 0.0085094291 0.0065565729         3913 
 4383000   0.54348674   -9.4127243    446.15197 0.0084826217 0.0065538968         3939 
 4384000   0.54978904   -9.3968043    447.59531 0.0085081226 0.0065512234         3945 
 4385000   0.55799589   -9.4028494    447.11283 0.0084970131 0.0065485526         3937 
 4386000   0.54133518   -9.4035821    447.06867 0.0084942368 0.0065458808         3953 
 4387000   0.54399238   -9.3947759    447.27962 0.0084963076 0.0065432092         3930 
 4388000   0.54776548   -9.3952917    446.61391 0.0084817288 0.0065405406         3917 
 4389000    0.5516534   -9.4033519    447.37797 0.0084943033 0.0065378738         3946 
 4390000   0.54079158   -9.4139324     446.1356 0.0084687852 0.0065352083         3943 
 4391000   0.54566062   -9.4144374    447.07423 0.0084846699 0.0065325431         3927 
 4392000   0.55214756   -9.4021508     447.1535 0.0084842422 0.0065298812         3930 
 4393000   0.56652011   -9.4058155    447.47356 0.0084883823 0.0065272205         3936 
 4394000   0.54139297   -9.4122367    446.49743  0.008467938  0.006524562         3919 
 4395000    0.5459961   -9.3975129    446.27088 0.0084617156 0.0065219041         3927 
 4396000   0.55279795   -9.4103629    445.91687 0.0084530799 0.0065192475         3931 
 4397000   0.55003771   -9.4062292    447.32163 0.0084777808 0.0065165924         3950 
 4398000   0.55891922    -9.404154    446.66468 0.0084634054 0.0065139402         3945 
 4399000   0.54921958   -9.4065729    446.68463 0.0084618593 0.0065112891         3928 
 4400000   0.53569938   -9.3928649    446.15806 0.0084499632 0.0065086411         3928 
 4401000   0.54790737   -9.4106295    447.06301 0.0084651785 0.0065059908         3939 
 4402000   0.55183812   -9.4054672    446.89296 0.0084600364 0.0065033421         3943 
 4403000   0.54913664   -9.3987432    445.70775  0.008435683 0.0065006952         3926 
 4404000   0.55121485   -9.3941908    446.45854 0.0084479742 0.0064980513         3922 
 4405000   0.54957534    -9.407513    446.27904 0.0084426606 0.0064954082         3923 
 4406000   0.56591175   -9.4075071    446.85578 0.0084516526 0.0064927672         3929 
 4407000   0.54591142   -9.4129237    446.43153 0.0084417125 0.0064901276         3924 
 4408000   0.54183864    -9.427243    446.15684 0.0084346046 0.0064874892         3917 
 4409000   0.54606958   -9.4131014    446.83594 0.0084455269 0.0064848511         3924 
 4410000   0.54030719   -9.4160713    447.22292 0.0084509244  0.006482216         3929 
 4411000   0.54540608   -9.3864206    446.61143 0.0084374562 0.0064795834         3938 
 4412000   0.53144423   -9.4043624    446.80459 0.0084391921 0.0064769516         3943 
 4413000   0.54513232   -9.4161732    446.59389  0.008433301 0.0064743222         3920 
 4414000   0.54226164   -9.4080168    445.94938 0.0084192225 0.0064716904         3933 
 4415000   0.54049411   -9.4153575    446.61253 0.0084298327  0.006469061         3911 
 4416000   0.54136013    -9.397425    447.37937 0.0084423946 0.0064664333         3938 
 4417000   0.55368136   -9.3982563    446.70077 0.0084276804  0.006463808         3939 
 4418000   0.53560644   -9.4163065     446.4571 0.0084211766  0.006461184         3922 
 4419000   0.54377064    -9.407049     446.0823  0.008412203  0.006458561         3939 
 4420000   0.55486494   -9.4302231    447.17986 0.0084309928 0.0064559389         3935 
 4421000   0.53816057   -9.4103327    446.69804 0.0084200037 0.0064533198         3910 
 4422000   0.54339485   -9.3902938    446.34382 0.0084114243 0.0064507029         3939 
 4423000   0.53334527   -9.3983149    446.72608 0.0084167247 0.0064480857         3933 
 4424000   0.54571736    -9.398504    447.39673 0.0084274549 0.0064454693         3930 
 4425000   0.53698565    -9.412868    447.35412  0.008424748 0.0064428554         3943 
 4426000   0.55652906   -9.4220357    446.31925 0.0084033599 0.0064402433         3930 
 4427000   0.55092561   -9.4113278     446.0367  0.008396143 0.0064376305         3935 
 4428000   0.54945126   -9.4109875    446.73113 0.0084073158 0.0064350222         3930 
 4429000   0.53667187   -9.4174579    446.51556 0.0084013614 0.0064324129         3932 
 4430000   0.53200443   -9.4063447    446.85264 0.0084058058 0.0064298065         3945 
 4431000   0.51656028   -9.4186413    446.06242 0.0083890472 0.0064271993         3924 
 4432000   0.54854343   -9.4171345    446.30823 0.0083917764 0.0064245955         3948 
 4433000   0.53528399   -9.3990804    446.38912 0.0083914039 0.0064219908         3936 
 4434000   0.54545301   -9.4081876    445.87256 0.0083798031 0.0064193922         3935 
 4435000   0.53962342   -9.4245944    445.62559 0.0083732731 0.0064167917         3932 
 4436000   0.55242122   -9.4214339     446.1161    0.0083806 0.0064141916         3931 
 4437000    0.5304033   -9.3971775    446.29471 0.0083820657 0.0064115973         3950 
 4438000   0.55408666   -9.4232741    446.12362 0.0083769644 0.0064090008         3948 
 4439000    0.5429527   -9.4176127    446.06652 0.0083740053  0.006406408         3931 
 4440000    0.5526813   -9.4111308    446.31386 0.0083767617 0.0064038179         3934 
 4441000     0.541768   -9.4073701    446.19937 0.0083727271 0.0064012276         3943 
 4442000   0.53658228   -9.4097456     446.5683 0.0083777634 0.0063986388         3938 
 4443000   0.54359373   -9.4172179    446.53442 0.0083752423 0.0063960513         3918 
 4444000   0.54888123   -9.4244169    446.08034 0.0083648429 0.0063934666         3945 
 4445000   0.53267292   -9.4089097    446.83699 0.0083771465 0.0063908829         3912 
 4446000   0.54499624   -9.4096439     446.4639 0.0083682692 0.0063882992         3912 
 4447000   0.53634589   -9.4227592    446.76292 0.0083719909 0.0063857177         3937 
 4448000   0.53818281   -9.4126042    446.66277 0.0083682324 0.0063831374         3928 
 4449000   0.53991205   -9.4153408    445.80589 0.0083503014 0.0063805569         3934 
 4450000   0.53788552   -9.4096562    446.40232 0.0083595941 0.0063779772         3923 
 4451000   0.54007715   -9.4254763    446.72504  0.008363758 0.0063754014         3943 
 4452000   0.53138927   -9.4009927    446.30852 0.0083540827  0.006372827         3949 
 4453000   0.54304971    -9.415964    445.97298 0.0083459274 0.0063702518         3938 
 4454000   0.54127944   -9.4225899    446.16156 0.0083475819 0.0063676803         3938 
 4455000   0.53437384    -9.420285    446.21282 0.0083466671 0.0063651095         3945 
 4456000   0.54179101   -9.4192632    446.40794 0.0083484429 0.0063625405         3929 
 4457000   0.54371224   -9.4216573     446.3491 0.0083454698   0.00635997         3940 
 4458000   0.53973855    -9.422565    446.45706 0.0083456157 0.0063574034         3947 
 4459000   0.53540358   -9.4311683    446.90083 0.0083520377 0.0063548382         3944 
 4460000   0.52944631   -9.4413759    445.57168 0.0083253303  0.006352272         3939 
 4461000    0.5329263    -9.415036    446.17767 0.0083347843 0.0063497086         3933 
 4462000   0.52192569   -9.4187088    446.11118 0.0083316745 0.0063471479         3937 
 4463000   0.53908727   -9.4207095    446.64006 0.0083396829 0.0063445858         3933 
 4464000   0.54405157   -9.4279227    446.81003 0.0083409878 0.0063420258         3954 
 4465000   0.53265498   -9.4175913    446.65886 0.0083362983 0.0063394683         3933 
 4466000   0.53681702    -9.427136     446.4661 0.0083308348 0.0063369115         3942 
 4467000   0.53231239   -9.4206878    446.03956 0.0083210125 0.0063343581         3942 
 4468000   0.53748507   -9.4050114    446.80305 0.0083333903 0.0063318057         3943 
 4469000   0.53917252   -9.4122244    446.62454 0.0083281969  0.006329255         3932 
 4470000   0.54050218   -9.4187003    446.46138  0.008323292 0.0063267048         3928 
 4471000   0.54699138   -9.4136952    446.63024 0.0083245777 0.0063241551         3936 
 4472000   0.54762142       -9.421    445.88974 0.0083089174 0.0063216089         3936 
 4473000   0.53996503   -9.4196096    445.77221 0.0083048702 0.0063190629         3958 
 4474000   0.52510811    -9.419056    446.45364 0.0083157063  0.006316517         3940 
 4475000   0.54266099   -9.4400222    446.04979 0.0083063276 0.0063139735         3918 
 4476000   0.53679307   -9.4325891    445.86784 0.0083010843 0.0063114335         3940 
 4477000   0.54357323   -9.4305258     446.7885  0.008316367 0.0063088931         3924 
 4478000   0.53566428   -9.3924944    447.16067 0.0083214357 0.0063063536         3931 
 4479000    0.5367793   -9.4239142    445.82958 0.0082948125 0.0063038158         3951 
 4480000   0.54513066   -9.4394562    446.54815 0.0083063271 0.0063012795         3932 
 4481000   0.52980288   -9.4010156    446.32702 0.0083003612 0.0062987443         3942 
 4482000   0.54424673   -9.4244982    445.56201 0.0082842855 0.0062962093         3935 
 4483000   0.51892175   -9.4239313    446.26145 0.0082954392 0.0062936764         3933 
 4484000    0.5351383   -9.4177303    446.46424 0.0082973581 0.0062911463         3933 
 4485000   0.53145729   -9.3968992    446.15339 0.0082897322 0.0062886158         3932 
 4486000   0.53691466   -9.4223172    445.83411 0.0082819532 0.0062860861         3926 
 4487000   0.52077826   -9.4425501    445.58137 0.0082754135 0.0062835593         3939 
 4488000   0.54308471   -9.4218142    446.62971 0.0082930352 0.0062810342         3918 
 4489000   0.53827614   -9.4251444    445.96457 0.0082788402 0.0062785093         3936 
 4490000   0.53103721   -9.4301679    446.43486 0.0082857249 0.0062759867         3913 
 4491000   0.52861944   -9.4341375    446.42828 0.0082837578  0.006273464         3936 
 4492000   0.52974174   -9.4116888    445.91882 0.0082724625 0.0062709452         3933 
 4493000   0.53178291   -9.4206614    446.08445 0.0082736934 0.0062684265         3936 
 4494000   0.54197369   -9.4285824    446.14482 0.0082729718 0.0062659094         3937 
 4495000   0.52104104   -9.4339011    446.02622 0.0082689326 0.0062633931         3925 
 4496000   0.54074309   -9.4283612    445.95518 0.0082657766 0.0062608751         3925 
 4497000   0.54504502   -9.4299533    445.88896 0.0082627114 0.0062583607         3926 
 4498000   0.52634154   -9.4235508    446.34614 0.0082693445 0.0062558498         3939 
 4499000    0.5163065   -9.4133498    445.88833 0.0082590267 0.0062533397         3922 
 4500000   0.52962195   -9.4428806    446.36597 0.0082660365 0.0062508308         3937 
 4501000   0.52762997   -9.4362667    446.47695 0.0082662548 0.0062483215         3935 
 4502000   0.51556494   -9.4149826    445.95033 0.0082546707 0.0062458173         3937 
 4503000   0.53185152    -9.433809    445.96069 0.0082530293 0.0062433137         3920 
 4504000   0.52759471   -9.4384083    445.81224 0.0082484502 0.0062408109         3928 
 4505000   0.52977654   -9.4311999    445.65462 0.0082437037 0.0062383094         3930 
 4506000   0.53205676   -9.4264264    446.23113  0.008252536 0.0062358079         3934 
 4507000   0.52569482   -9.4292232    446.15986 0.0082493873 0.0062333064         3932 
 4508000   0.53618524   -9.4108856    446.81314 0.0082596337 0.0062308107         3930 
 4509000   0.52187068   -9.4271252    445.86738 0.0082403227 0.0062283125         3923 
 4510000    0.5365709   -9.4173363    445.54668 0.0082325698 0.0062258172         3936 
 4511000   0.52556581   -9.4389781    446.13355 0.0082415862 0.0062233227         3934 
 4512000   0.54762046   -9.4444066    446.34051 0.0082435822 0.0062208305         3939 
 4513000   0.52862386   -9.4255548    446.21571 0.0082394511 0.0062183387         3943 
 4514000     0.540931   -9.4245364     445.8126 0.0082301839  0.006215849         3949 
 4515000   0.53748552   -9.4215787    446.30419 0.0082374343 0.0062133624         3930 
 4516000   0.52999083   -9.4371282    446.24664 0.0082345482 0.0062108755         3921 
 4517000   0.53628824   -9.4335811    446.06374  0.008229351 0.0062083898         3947 
 4518000   0.53086605   -9.4249652    445.96553  0.008225718 0.0062059022         3938 
 4519000   0.52741883   -9.4388519    445.96854 0.0082239532 0.0062034189         3955 
 4520000    0.5312458   -9.4434833    445.69961 0.0082171757 0.0062009377         3930 
 4521000   0.52833138   -9.4276199    445.90636 0.0082191691 0.0061984588         3923 
 4522000   0.53709865   -9.4268503    446.89574 0.0082355843  0.006195982         3915 
 4523000   0.51436095   -9.4225446    446.44597 0.0082254766 0.0061935034         3944 
 4524000   0.53081447   -9.4419818     446.1403 0.0082180279 0.0061910263         3929 
 4525000   0.52600015   -9.4112045    446.02594 0.0082141057   0.00618855         3935 
 4526000   0.52795111   -9.4476633    445.74324 0.0082070858 0.0061860758         3937 
 4527000   0.51977307   -9.4275843    445.99303  0.008209871 0.0061836046         3942 
 4528000   0.53232211   -9.4295971    446.85012 0.0082238316 0.0061811326         3924 
 4529000   0.53165366   -9.4338204    445.75448 0.0082018562 0.0061786634         3948 
 4530000   0.51845692   -9.4388661     445.3219 0.0081920879 0.0061761952         3930 
 4531000   0.53772555    -9.448065     445.3495 0.0081907875 0.0061737267         3924 
 4532000   0.52431799   -9.4575447      445.708 0.0081955723 0.0061712595         3937 
 4533000   0.52731572   -9.4392152    445.66725 0.0081930152 0.0061687935         3914 
 4534000   0.52667114   -9.4298083    446.92744   0.00821437 0.0061663303         3935 
 4535000   0.52987312    -9.444204    446.21034 0.0081993815 0.0061638696         3934 
 4536000    0.5329775   -9.4335993    446.45387 0.0082020479 0.0061614104         3922 
 4537000   0.52866853   -9.4386943    445.51611 0.0081830158   0.00615895         3949 
 4538000   0.53722702   -9.4597253    445.96695 0.0081894915 0.0061564922         3945 
 4539000   0.52917949   -9.4270919    446.41302 0.0081958768 0.0061540357         3938 
 4540000   0.52627395   -9.4269999    446.22579 0.0081906349 0.0061515799         3930 
 4541000   0.51835325   -9.4296797    446.39013 0.0081918471 0.0061491258         3939 
 4542000   0.51627068   -9.4437993    445.86887 0.0081804798   0.00614667         3944 
 4543000   0.51682686   -9.4528912     446.2958 0.0081865104 0.0061442191         3938 
 4544000   0.51655338   -9.4333901    446.08543 0.0081808507 0.0061417691         3936 
 4545000   0.51845313   -9.4464975    446.14022 0.0081800554 0.0061393203         3924 
 4546000    0.5197759   -9.4401474     446.0336 0.0081763015 0.0061368714         3937 
 4547000   0.52035631   -9.4569607    445.34708 0.0081619214  0.006134424         3936 
 4548000   0.52517737   -9.4541464     445.6902 0.0081664138 0.0061319776         3935 
 4549000   0.53253802   -9.4423016     446.7488 0.0081840111 0.0061295337         3912 
 4550000   0.52082916   -9.4416397    446.08352 0.0081700278 0.0061270902         3908 
 4551000   0.52108488   -9.4509495    444.68398 0.0081426057 0.0061246511         3948 
 4552000   0.52738523   -9.4377101    446.33462 0.0081710351 0.0061222112         3936 
 4553000   0.51563996   -9.4180803    446.50128 0.0081722908 0.0061197744         3922 
 4554000   0.51678062   -9.4378318    445.76638 0.0081570485 0.0061173371         3918 
 4555000   0.52377969   -9.4385477    445.60356 0.0081522788 0.0061149015         3933 
 4556000   0.52001628   -9.4560987    445.85167 0.0081550277 0.0061124662         3942 
 4557000   0.53810476   -9.4356593    446.76661 0.0081699694 0.0061100341         3931 
 4558000   0.51879166   -9.4281288    445.49698 0.0081449645 0.0061076043         3929 
 4559000   0.51747888   -9.4122578    446.08244 0.0081538794 0.0061051737         3935 
 4560000   0.52776106   -9.4401827    446.22606  0.008154716 0.0061027458         3937 
 4561000   0.52301166   -9.4503784    445.32393 0.0081364453 0.0061003175         3913 
 4562000   0.52371371   -9.4435313    445.54627 0.0081387234  0.006097891         3938 
 4563000   0.52141949   -9.4544695    445.72805 0.0081402595 0.0060954672         3932 
 4564000   0.51266919   -9.4573164    445.69131 0.0081378051 0.0060930437         3941 
 4565000   0.51499212   -9.4470663    446.31656 0.0081474363 0.0060906216         3935 
 4566000    0.5137238   -9.4394285    446.06674 0.0081410925 0.0060882008         3946 
 4567000   0.51519681   -9.4436773    445.48252 0.0081286496 0.0060857835         3942 
 4568000   0.52376208   -9.4254055    445.72533 0.0081312997 0.0060833654         3932 
 4569000   0.50448835    -9.427208    445.76067 0.0081301647  0.006080948         3926 
 4570000   0.52502194   -9.4444311    445.95969 0.0081320147  0.006078533         3930 
 4571000   0.51584517   -9.4575753    446.16178   0.00813392  0.006076117         3914 
 4572000   0.51145766   -9.4428543    445.26399 0.0081157769 0.0060737052         3948 
 4573000   0.52962059   -9.4452198    446.10273 0.0081292865 0.0060712935         3927 
 4574000   0.51205616   -9.4573051    445.59525 0.0081182635 0.0060688827         3925 
 4575000   0.50658789   -9.4392644    445.72026 0.0081187661  0.006066472         3941 
 4576000   0.52113068   -9.4427572    445.84942 0.0081193441 0.0060640642         3934 
 4577000   0.51813933   -9.4453626    446.10593 0.0081222403 0.0060616558         3932 
 4578000   0.51957752     -9.45984    446.05502 0.0081195394 0.0060592498         3941 
 4579000   0.52597634   -9.4545817    445.55811  0.008108723 0.0060568441         3923 
 4580000   0.51981547   -9.4497952    445.86907 0.0081126105 0.0060544399         3936 
 4581000    0.5200709   -9.4524498    445.58739 0.0081057155 0.0060520378         3941 
 4582000   0.52373823   -9.4565394    445.82565 0.0081082796 0.0060496376         3935 
 4583000   0.51298661   -9.4399844     445.9074 0.0081079969 0.0060472388         3940 
 4584000    0.5161767   -9.4428045    446.00858 0.0081080676 0.0060448404         3938 
 4585000   0.51672484   -9.4478095    446.13247 0.0081085509 0.0060424435         3927 
 4586000   0.51949417   -9.4523896    446.28495 0.0081095536  0.006040049         3919 
 4587000   0.51638335   -9.4490682    445.77776 0.0080985714 0.0060376561         3930 
 4588000   0.50206065   -9.4441118    445.73942 0.0080961098  0.006035265         3943 
 4589000   0.51989726   -9.4548118    446.03886 0.0080997832  0.006032876         3943 
 4590000   0.50612041   -9.4540457    445.55424 0.0080892201 0.0060304861         3924 
 4591000   0.51178998   -9.4534766    445.94694 0.0080945861 0.0060280971         3926 
 4592000   0.52068774   -9.4376657    445.89796 0.0080919346 0.0060257097         3946 
 4593000   0.51403882   -9.4373895    446.00131 0.0080920479 0.0060233219         3936 
 4594000   0.51876432   -9.4534971    445.14904 0.0080748265 0.0060209372         3936 
 4595000   0.52252946   -9.4449579    445.70145 0.0080830875 0.0060185534         3928 
 4596000   0.50733375   -9.4581271    445.94211 0.0080856925 0.0060161703         3930 
 4597000   0.51036976   -9.4530724    445.47819 0.0080755238 0.0060137894         3941 
 4598000   0.52599818   -9.4473205    445.87295  0.008080922 0.0060114086         3933 
 4599000   0.52028875   -9.4452798     445.3177 0.0080691039 0.0060090293         3927 
 4600000   0.52145521   -9.4470511    445.99485 0.0080796168 0.0060066547         3938 
 4601000   0.51401693    -9.463307    446.06293 0.0080790938 0.0060042794         3928 
 4602000   0.51437241   -9.4490739      445.163 0.0080610422 0.0060019048         3950 
 4603000    0.5070325   -9.4552396    445.85175 0.0080717603 0.0059995316         3939 
 4604000   0.52316409   -9.4450116    445.75801 0.0080683104 0.0059971597         3929 
 4605000   0.51695634   -9.4547577    445.64379 0.0080644914 0.0059947885         3937 
 4606000   0.51936245   -9.4469698    445.93989 0.0080680977 0.0059924189         3929 
 4607000   0.52904027    -9.446887    445.07504 0.0080507025 0.0059900496         3931 
 4608000   0.51027077   -9.4509273    445.32012 0.0080533875 0.0059876831         3927 
 4609000   0.51171167   -9.4659185    445.83421 0.0080609352 0.0059853163         3950 
 4610000   0.51986191   -9.4586655    445.22678 0.0080482064 0.0059829514         3944 
 4611000    0.5131189   -9.4538106    445.46945 0.0080508467 0.0059805884         3934 
 4612000   0.52519998   -9.4555207    446.15558 0.0080614986 0.0059782267         3938 
 4613000   0.51615525   -9.4582576    445.56471 0.0080490771 0.0059758639         3936 
 4614000   0.52449982   -9.4616267    446.27077 0.0080600848 0.0059735043         3917 
 4615000   0.52153437   -9.4636242    445.47136 0.0080439033 0.0059711472         3941 
 4616000   0.52307391   -9.4518964    445.18744  0.008037035 0.0059687898         3928 
 4617000   0.51182067   -9.4462105    445.77414 0.0080458836 0.0059664327         3933 
 4618000    0.5056374   -9.4599722    445.40478 0.0080374762 0.0059640768         3934 
 4619000   0.50447461   -9.4437862    445.78127 0.0080425285 0.0059617242         3925 
 4620000   0.50281051   -9.4745095    445.22436 0.0080307424 0.0059593711         3945 
 4621000   0.50704317    -9.464795    445.85528 0.0080403824   0.00595702         3949 
 4622000   0.51721613   -9.4667702    445.71294 0.0080360763 0.0059546699         3927 
 4623000   0.51129049   -9.4633088    445.82703 0.0080363947 0.0059523209         3912 
 4624000   0.51041315   -9.4444872    445.62826 0.0080310745 0.0059499747         3930 
 4625000   0.51110316    -9.477868    445.46878 0.0080264645 0.0059476301         3916 
 4626000   0.50041548   -9.4653303    445.49926 0.0080252786 0.0059452865         3928 
 4627000   0.50422671   -9.4519704    445.39701 0.0080217025 0.0059429438         3945 
 4628000   0.50440951   -9.4475799    445.39546 0.0080199413 0.0059406025         3920 
 4629000   0.50894765   -9.4612033    444.71431 0.0080059464  0.005938262         3936 
 4630000   0.51260735   -9.4694953    445.86293 0.0080248908 0.0059359235         3929 
 4631000   0.51316077   -9.4669234    444.50399 0.0079987042 0.0059335871         3947 
 4632000   0.51824168   -9.4717465    444.95348  0.008005064   0.00593125         3936 
 4633000   0.51376467     -9.45632    445.56716 0.0080143745 0.0059289153         3950 
 4634000   0.50459571   -9.4500118     445.0338 0.0080030536 0.0059265804         3948 
 4635000   0.51551095   -9.4771584    445.86363 0.0080162466  0.005924247         3943 
 4636000   0.51227436   -9.4414042    445.21147 0.0080027946 0.0059219154         3936 
 4637000   0.51911354   -9.4629502    445.89978 0.0080134386 0.0059195842         3940 
 4638000   0.49354645   -9.4667851    445.54806 0.0080053913 0.0059172545         3922 
 4639000   0.50690084   -9.4649172    445.09075 0.0079954506 0.0059149265         3943 
 4640000   0.51114674   -9.4648184    445.15822 0.0079949394 0.0059126004         3924 
 4641000   0.50358339   -9.4533938    445.45179  0.007998488 0.0059102741         3915 
 4642000   0.51221819   -9.4560429    446.05751 0.0080076388 0.0059079486         3928 
 4643000   0.52057424   -9.4639413    445.29361 0.0079922034 0.0059056261         3933 
 4644000   0.50504578   -9.4650236     445.9337 0.0080019685 0.0059033024         3937 
 4645000   0.50135107   -9.4610891    445.44042 0.0079913961 0.0059009819         3932 
 4646000   0.51511399   -9.4711476     444.9397 0.0079806949 0.0058986638         3932 
 4647000   0.49787007   -9.4555792     445.5976 0.0079907754 0.0058963458         3939 
 4648000   0.51058261   -9.4615031    445.75645 0.0079919043 0.0058940279         3923 
 4649000   0.51615855   -9.4530444    444.85537 0.0079740333  0.005891712         3937 
 4650000   0.50981061   -9.4736962    445.26028 0.0079795749 0.0058893977         3939 
 4651000   0.49841032   -9.4404954     445.7483 0.0079866032 0.0058870865         3938 
 4652000   0.49986696   -9.4639826     445.3243 0.0079772911 0.0058847739         3952 
 4653000   0.49351946   -9.4515211    446.36093 0.0079941423 0.0058824629         3929 
 4654000   0.51210042   -9.4553956    444.99964 0.0079680497 0.0058801533         3927 
 4655000   0.50302817   -9.4606527    445.22551 0.0079703816 0.0058778445         3929 
 4656000   0.51587665   -9.4628421    445.68509 0.0079768952 0.0058755396         3928 
 4657000   0.50247363   -9.4740038    445.55237 0.0079728073 0.0058732329         3956 
 4658000   0.50833777   -9.4749714    445.24648 0.0079656233 0.0058709292         3937 
 4659000   0.50650657   -9.4834098    445.66779 0.0079714494  0.005868625         3936 
 4660000     0.514432   -9.4769912     444.9583 0.0079570512 0.0058663226         3938 
 4661000   0.49668781   -9.4722874     445.9988 0.0079739469 0.0058640207         3945 
 4662000   0.49516199   -9.4673643    445.27231 0.0079592505 0.0058617206         3935 
 4663000   0.50672349   -9.4681316    445.44661 0.0079606586  0.005859423         3947 
 4664000   0.50430467   -9.4693324    445.48024 0.0079595526 0.0058571256         3924 
 4665000   0.49997221   -9.4725929     445.2724 0.0079541336 0.0058548285         3945 
 4666000   0.50122666   -9.4608712    445.70255 0.0079601113 0.0058525351         3938 
 4667000   0.50003508   -9.4582616    446.16832 0.0079667224 0.0058502401         3927 
 4668000   0.50987534   -9.4794168    445.07617 0.0079455187 0.0058479479         3931 
 4669000    0.4882204   -9.4688363    445.27905 0.0079474379 0.0058456571         3943 
 4670000   0.50664614   -9.4737687     445.8343 0.0079556442 0.0058433661         3928 
 4671000   0.50117396   -9.4770368    445.56717 0.0079491752 0.0058410773         3943 
 4672000    0.5042832   -9.4749027    444.62189  0.007930613 0.0058387894         3927 
 4673000   0.51314958   -9.4632295    445.35496 0.0079419887 0.0058365032         3944 
 4674000   0.50591038   -9.4801614    445.42853 0.0079416013 0.0058342183         3940 
 4675000   0.51101571   -9.4630905    445.12767 0.0079345395 0.0058319337         3950 
 4676000   0.49992453   -9.4478813    445.83627  0.007945471  0.005829652         3928 
 4677000   0.50371744   -9.4634454     444.9555 0.0079280788 0.0058273714         3929 
 4678000    0.4972142    -9.489638    444.89512 0.0079253085 0.0058250912         3937 
 4679000   0.50012325   -9.4678511    445.68739  0.007937725  0.005822812         3937 
 4680000   0.50024723    -9.477893    444.42802 0.0079136043 0.0058205343         3944 
 4681000    0.5037316   -9.4769638    444.93708 0.0079209763 0.0058182581         3957 
 4682000   0.50271944   -9.4737128    446.07526 0.0079395426 0.0058159823         3924 
 4683000   0.48876628   -9.4729154    445.11404 0.0079207424 0.0058137081         3942 
 4684000   0.49886941    -9.460706    444.78135 0.0079131325 0.0058114363         3950 
 4685000   0.49826148   -9.4837545    445.02626 0.0079157997 0.0058091653         3955 
 4686000   0.50261747   -9.4767275    445.40225 0.0079207968 0.0058068948         3929 
 4687000   0.50044777   -9.4644089    444.53404 0.0079036704 0.0058046252         3936 
 4688000     0.504316   -9.4789577    444.77391 0.0079062484 0.0058023588         3935 
 4689000    0.5049639   -9.4632745    444.80316 0.0079050821 0.0058000908         3930 
 4690000    0.5042626   -9.4824076    444.99596 0.0079068223 0.0057978257         3941 
 4691000    0.5069815   -9.4674037    445.41958 0.0079126622 0.0057955605         3938 
 4692000   0.51459319   -9.4786192    445.04234 0.0079042758 0.0057932986         3933 
 4693000   0.50265137   -9.4836056     445.4748 0.0079102707 0.0057910373         3942 
 4694000   0.49923402   -9.4722103    445.79038  0.007914188 0.0057887783         3941 
 4695000   0.50255923   -9.4616504    445.20524 0.0079021165 0.0057865188         3932 
 4696000   0.50513334   -9.4731762     445.5211 0.0079060388 0.0057842599         3945 
 4697000    0.4963613   -9.4742862     445.4136 0.0079024484 0.0057820034         3942 
 4698000   0.49570696   -9.4835491    445.52411 0.0079027264 0.0057797479         3940 
 4699000   0.50073637   -9.4685034    444.85721 0.0078892177 0.0057774929         3933 
 4700000    0.4971829   -9.4866461    445.29044 0.0078952206 0.0057752405         3937 
 4701000   0.50533521   -9.4788193    444.44741 0.0078785968 0.0057729886         3941 
 4702000   0.49633825   -9.4767338    445.14119 0.0078892172 0.0057707371         3948 
 4703000   0.50347193   -9.4677087    444.67631 0.0078793025 0.0057684874         3934 
 4704000    0.4958043   -9.4569463    445.08082 0.0078847934 0.0057662401         3944 
 4705000   0.49065229   -9.4867832    445.26177 0.0078863225 0.0057639927         3949 
 4706000   0.49508324   -9.4841856    445.37417  0.007886637 0.0057617475         3941 
 4707000   0.50150711   -9.4951329    444.70855 0.0078731773 0.0057595016         3939 
 4708000   0.48857066   -9.4893294    445.67178 0.0078885545 0.0057572565         3941 
 4709000   0.49915482   -9.4631993    444.43948 0.0078650718 0.0057550132         3952 
 4710000   0.49136119   -9.4734067    445.22686  0.007877333 0.0057527728         3960 
 4711000   0.49371861   -9.4824385    444.77602  0.007867686 0.0057505313         3926 
 4712000   0.50661102   -9.4780391      445.441 0.0078777766 0.0057482922         3944 
 4713000   0.49925331    -9.475781    444.71184 0.0078632124 0.0057460529         3950 
 4714000   0.51250659   -9.4632129    445.65686 0.0078782503 0.0057438156         3950 
 4715000   0.48242857   -9.4712341     444.9526 0.0078641321 0.0057415794         3950 
 4716000    0.4946813   -9.4943662    445.20532 0.0078669304 0.0057393449         3949 
 4717000   0.49429826   -9.4738954    444.45218 0.0078519571 0.0057371119         3956 
 4718000   0.51388832   -9.4704173    444.94215 0.0078589471 0.0057348793         3929 
 4719000   0.49565479   -9.4827688    445.20325 0.0078618926 0.0057326497         3924 
 4720000   0.49999954   -9.4853674    444.93932 0.0078555672 0.0057304218         3941 
 4721000   0.49600387   -9.4790251    445.45611 0.0078630253 0.0057281936         3918 
 4722000   0.50280706   -9.4787466    445.05466 0.0078542753 0.0057259656         3944 
 4723000   0.49100268   -9.4857656    444.63339 0.0078451795 0.0057237392         3945 
 4724000   0.49839209   -9.4782783    444.88138 0.0078478934  0.005721514         3924 
 4725000   0.50754939   -9.4749919    444.62575 0.0078417239 0.0057192906         3934 
 4726000   0.49526148   -9.4983563    445.16897 0.0078496433 0.0057170661         3942 
 4727000   0.48693495   -9.4768207    445.15934  0.007847813 0.0057148447         3939 
 4728000   0.48550208   -9.4689642    444.59401 0.0078361889 0.0057126237         3950 
 4729000   0.49197492   -9.4850274    445.12423 0.0078438752 0.0057104049         3947 
 4730000   0.50050452   -9.4845169    444.92469 0.0078387013 0.0057081874         3937 
 4731000   0.49818357   -9.4894331    445.02874 0.0078388773 0.0057059703         3942 
 4732000   0.49451247   -9.4848576    445.00284 0.0078367646 0.0057037531         3937 
 4733000   0.49591711   -9.4831851      444.607 0.0078281393 0.0057015395         3959 
 4734000   0.49661061   -9.4644497    445.01401 0.0078336504 0.0056993263         3943 
 4735000   0.49636802   -9.4930135    444.75565  0.007827449 0.0056971128         3954 
 4736000   0.48892553   -9.4873029    444.98995 0.0078299189 0.0056949011         3944 
 4737000   0.49992575   -9.4780579    444.58131 0.0078210772 0.0056926903         3932 
 4738000   0.49547159   -9.4767579    444.51448 0.0078182511 0.0056904819         3937 
 4739000   0.48882106   -9.4881436    445.04269 0.0078258896  0.005688274         3949 
 4740000   0.48475312   -9.4917712    445.43823 0.0078311925 0.0056860682         3935 
 4741000   0.48426702   -9.4941299    444.77158 0.0078178229 0.0056838621         3953 
 4742000   0.49604869   -9.4852937    445.38515 0.0078269568 0.0056816583         3947 
 4743000   0.49154398   -9.4642846    445.48842  0.007827121 0.0056794547         3927 
 4744000    0.4861945   -9.4782399    444.59896 0.0078098468 0.0056772526         3952 
 4745000   0.48385574   -9.4754742    444.83329 0.0078123162 0.0056750532         3938 
 4746000   0.49802152    -9.492455    444.70385 0.0078083973 0.0056728531         3942 
 4747000   0.50109608   -9.4897131    444.88321 0.0078099011  0.005670656         3932 
 4748000   0.49022112   -9.4825634     445.0161 0.0078105886  0.005668458         3934 
 4749000   0.48878612   -9.5011955    444.20154 0.0077946505 0.0056662621         3922 
 4750000   0.49236524   -9.4900056    444.78763 0.0078032917 0.0056640677         3944 
 4751000   0.48707429   -9.4879748     444.9186 0.0078039466 0.0056618741         3945 
 4752000   0.49864614   -9.4877466    445.00825 0.0078038765 0.0056596809         3930 
 4753000   0.49849577   -9.4830735    444.73799 0.0077974962 0.0056574896         3956 
 4754000    0.4881882   -9.4852979    444.72499 0.0077956281 0.0056552998         3931 
 4755000   0.49170254   -9.4779216      444.924 0.0077974764 0.0056531096         3933 
 4756000   0.48516147   -9.4846847    444.49284 0.0077882822  0.005650922         3951 
 4757000   0.48729703   -9.4750099    445.59785 0.0078060025 0.0056487365         3943 
 4758000   0.49343609   -9.4983509    445.12783 0.0077961299 0.0056465512         3938 
 4759000   0.49325599   -9.4941888    445.42285 0.0077996577 0.0056443677         3938 
 4760000   0.48723983   -9.4971501    444.31538 0.0077786306 0.0056421841         3938 
 4761000   0.48404944    -9.511936    444.40019 0.0077784812 0.0056399999         3948 
 4762000   0.49382272   -9.4878652    444.49807 0.0077785606 0.0056378179         3929 
 4763000   0.48163666   -9.4892015    444.78942 0.0077820249  0.005635637         3947 
 4764000   0.48422154   -9.4726736    445.47337 0.0077923554 0.0056334584         3935 
 4765000   0.49288911   -9.4976773    444.72485 0.0077776294 0.0056312815         3939 
 4766000   0.48609643   -9.4856304    444.19303 0.0077666987 0.0056291044         3935 
 4767000   0.48383362   -9.4940914    444.87284 0.0077769533 0.0056269272         3926 
 4768000   0.48698407   -9.4865415    445.22643 0.0077815022 0.0056247528         3942 
 4769000   0.49858909   -9.4883374    444.81956 0.0077727608  0.005622579         3941 
 4770000   0.49810805   -9.4950055    445.10617 0.0077761386 0.0056204071         3939 
 4771000   0.49711007   -9.4891539    445.66605 0.0077842879 0.0056182358         3950 
 4772000   0.46888332   -9.4766124    444.81166 0.0077677364 0.0056160663         3939 
 4773000   0.48322834   -9.4987373     444.4737 0.0077602084 0.0056138971         3926 
 4774000   0.49887163    -9.497189    444.74827 0.0077633757 0.0056117291         3927 
 4775000   0.48539134   -9.4870081    445.38445 0.0077728525 0.0056095624         3926 
 4776000   0.48924673   -9.5011364    444.74547 0.0077600759 0.0056073977         3959 
 4777000   0.48910432    -9.497795     444.5803   0.00775557  0.005605233         3946 
 4778000   0.49040284   -9.4912197    445.60126 0.0077717536 0.0056030716         3945 
 4779000    0.4886205   -9.4903305    445.01436 0.0077598933 0.0056009098         3935 
 4780000   0.48368948   -9.5008136    444.62435 0.0077514705   0.00559875         3934 
 4781000    0.4810682   -9.4742114    444.93449  0.007755255 0.0055965908         3939 
 4782000   0.49178093   -9.5110861    444.06066 0.0077384055 0.0055944334         3940 
 4783000   0.48126692   -9.4930877    444.34318 0.0077417099 0.0055922758         3940 
 4784000   0.48078936   -9.5031598    444.93466 0.0077503948 0.0055901201         3938 
 4785000   0.48302457   -9.4984436    445.15538 0.0077526189 0.0055879645         3938 
 4786000   0.48459117   -9.4987919    444.58674  0.007741098 0.0055858102         3936 
 4787000   0.48917328   -9.4935409    445.25473 0.0077511095 0.0055836573         3925 
 4788000   0.49613077   -9.4931478    445.11452 0.0077470502 0.0055815057         3939 
 4789000   0.48086197   -9.4887005    444.67834 0.0077378426 0.0055793553         3929 
 4790000   0.48848706   -9.5065181    444.67685 0.0077362014 0.0055772057         3935 
 4791000   0.48494897   -9.5027174     444.7378 0.0077356467 0.0055750573         3946 
 4792000   0.48084979   -9.5001066    445.28757 0.0077435929 0.0055729108         3925 
 4793000   0.49447024   -9.4836389    444.74052 0.0077324661 0.0055707658         3926 
 4794000   0.48852325   -9.4823864    444.61718 0.0077287091  0.005568621         3943 
 4795000   0.47781391   -9.4917787     444.4046 0.0077234028  0.005566476         3939 
 4796000   0.48860914    -9.502386    445.32276 0.0077377461 0.0055643325         3946 
 4797000   0.48303931   -9.4955968    444.86992 0.0077282663 0.0055621922         3947 
 4798000   0.48759678    -9.488485     445.0404 0.0077296165 0.0055600507         3939 
 4799000   0.47828176   -9.5036836     444.5494 0.0077194797 0.0055579121         3933 
 4800000   0.47769127   -9.4994951    444.11921  0.007710403 0.0055557733         3933 
 4801000   0.47751023    -9.484636    444.17291  0.007709729 0.0055536362         3935 
 4802000   0.47492125   -9.5033122    445.03792 0.0077231348 0.0055515008         3949 
 4803000   0.48621923   -9.5040922    444.18643 0.0077067532 0.0055493637         3951 
 4804000   0.48646453   -9.4992641    444.33224 0.0077076783  0.005547228         3949 
 4805000    0.4958323   -9.4648669    445.03705 0.0077182978 0.0055450964         3928 
 4806000   0.48480613   -9.4956062    444.02121 0.0076990777 0.0055429647         3930 
 4807000   0.47398457   -9.4931177    444.43202 0.0077045977 0.0055408352         3942 
 4808000   0.49210979   -9.5056658    444.28453  0.007700439 0.0055387062         3941 
 4809000   0.48636706    -9.495918    444.73899 0.0077067129 0.0055365771         3933 
 4810000   0.48984164   -9.4803473    444.95863  0.007708916 0.0055344504         3937 
 4811000   0.48586072   -9.5083348    444.90953 0.0077064632 0.0055323254         3932 
 4812000   0.47568628   -9.4954038    444.33027 0.0076948301 0.0055301996         3938 
 4813000   0.48539047   -9.5076004    444.38851 0.0076942397 0.0055280758         3942 
 4814000   0.48109732   -9.4951784    444.07353  0.007687189 0.0055259531         3939 
 4815000   0.47729822   -9.5059022    444.36017 0.0076905533 0.0055238321         3946 
 4816000   0.47740232   -9.5063584    445.05929 0.0077010535 0.0055217119         3941 
 4817000   0.47973987    -9.506707     444.4167 0.0076883382 0.0055195927         3932 
 4818000   0.48167599   -9.4886061    444.38804 0.0076862467 0.0055174746         3938 
 4819000   0.48088768   -9.4953396    444.45641  0.007685834 0.0055153561         3940 
 4820000   0.49033614   -9.5032963    444.95576 0.0076928728 0.0055132402         3942 
 4821000   0.48558998    -9.505481    444.17352 0.0076777557 0.0055111261         3942 
 4822000   0.47349535   -9.5084678    444.22304 0.0076770193 0.0055090123         3954 
 4823000   0.47246721    -9.504673    444.33091 0.0076772912 0.0055069006         3951 
 4824000   0.48601408    -9.501966    444.22387 0.0076738507 0.0055047888         3948 
 4825000    0.4832823   -9.4995505    444.09041 0.0076699553  0.005502679         3944 
 4826000   0.47592221   -9.5058564    443.88629 0.0076648413 0.0055005702         3935 
 4827000   0.47798144    -9.493804    445.03934 0.0076831597 0.0054984615         3946 
 4828000   0.47768394   -9.4965087    444.69003  0.007675539 0.0054963543         3954 
 4829000   0.48038789   -9.4972222    444.63244 0.0076729557 0.0054942499         3945 
 4830000   0.47675187   -9.4960139    445.33718 0.0076835261 0.0054921442         3944 
 4831000   0.47376694   -9.4961657    444.41241 0.0076659837 0.0054900405         3942 
 4832000   0.49087965   -9.5056605     444.3241 0.0076628742  0.005487937         3935 
 4833000   0.47775214   -9.5019245    444.80752 0.0076696242 0.0054858342         3933 
 4834000   0.47125486   -9.5080434    444.72739 0.0076666561 0.0054837324         3947 
 4835000   0.48317843   -9.5177677    444.49224 0.0076610175 0.0054816318         3930 
 4836000   0.48602273   -9.5198329    445.33921 0.0076740284 0.0054795321         3939 
 4837000   0.49377594   -9.5035882    444.81133 0.0076633473 0.0054774345         3934 
 4838000   0.48652088   -9.5072411    444.56287 0.0076574836 0.0054753381         3935 
 4839000   0.48011101   -9.4897571     444.3755 0.0076526745 0.0054732425         3939 
 4840000   0.47729057     -9.50188    444.96503 0.0076612436 0.0054711485         3946 
 4841000   0.48103938    -9.516293    444.10831 0.0076449134 0.0054690574         3941 
 4842000    0.4806139   -9.5190063    444.19735 0.0076448669 0.0054669653         3926 
 4843000   0.47282469   -9.5127524    444.50152 0.0076485222 0.0054648741         3933 
 4844000   0.46978103   -9.4983945     444.4428 0.0076459331 0.0054627842         3919 
 4845000   0.47073656    -9.504061    444.16793 0.0076396272 0.0054606957         3945 
 4846000   0.47028116   -9.5133153    444.48071 0.0076434294 0.0054586074         3942 
 4847000   0.47821868   -9.5096115    444.83231 0.0076478975 0.0054565199         3957 
 4848000   0.47800788   -9.5186063     445.1326 0.0076514817 0.0054544343         3938 
 4849000   0.47212167   -9.5073205    444.35338 0.0076365123 0.0054523479         3944 
 4850000   0.47026177   -9.4852705    444.67444 0.0076404543 0.0054502642         3944 
 4851000   0.48724719   -9.5249651    444.05851 0.0076282985 0.0054481816         3938 
 4852000   0.48216294   -9.5117682    444.24501 0.0076299294 0.0054461011         3947 
 4853000   0.46561529   -9.5089334    443.94276 0.0076231672 0.0054440206         3954 
 4854000   0.47805958   -9.5098511    444.37617 0.0076290374 0.0054419408         3924 
 4855000   0.48080294   -9.5120451    444.71599 0.0076332988 0.0054398625         3945 
 4856000   0.47276337   -9.5160689    444.15519 0.0076221031 0.0054377849         3937 
 4857000   0.47891145   -9.5085642    444.09937 0.0076195761  0.005435708         3938 
 4858000   0.46929086   -9.5113813    444.14535 0.0076187963 0.0054336318         3955 
 4859000   0.47061883   -9.5106339    444.26011 0.0076191964 0.0054315586         3936 
 4860000   0.48302293   -9.5028095    444.40242  0.007620069 0.0054294863         3936 
 4861000    0.4765368   -9.5001021    444.41478 0.0076187133 0.0054274146         3949 
 4862000   0.47823291   -9.5053103    443.69273 0.0076047705  0.005425343         3947 
 4863000   0.46878459   -9.4936004    444.18762 0.0076116873 0.0054232716         3945 
 4864000   0.46556547    -9.508082    445.08032 0.0076254166 0.0054212039         3937 
 4865000   0.46580422   -9.5167469    444.11882 0.0076073797 0.0054191361         3952 
 4866000   0.46823647   -9.5116799    443.92143 0.0076024358 0.0054170684         3932 
 4867000   0.46673923   -9.5178446    443.82821 0.0075992776 0.0054150038         3941 
 4868000   0.47884555   -9.5161757    443.72449  0.007595941 0.0054129395         3929 
 4869000   0.46963921   -9.5282834    444.39901 0.0076059254 0.0054108759         3929 
 4870000   0.46650164   -9.5159777    444.21165 0.0076011576 0.0054088129         3948 
 4871000   0.47454461   -9.5216503    444.42909 0.0076033171 0.0054067529         3925 
 4872000   0.46990149   -9.5113038    444.22676 0.0075982958 0.0054046942         3938 
 4873000   0.47247457    -9.502537    444.44965 0.0076005481 0.0054026339         3937 
 4874000   0.46535432   -9.5174116     444.2442  0.007595476 0.0054005768         3947 
 4875000     0.476909   -9.5413558    444.07889 0.0075910922 0.0053985196         3947 
 4876000   0.47315506   -9.5189808     444.4878 0.0075965238 0.0053964623         3949 
 4877000   0.46031729   -9.5118962    444.71831 0.0075989049 0.0053944084         3929 
 4878000   0.46891163   -9.5139763    444.48264  0.007593321 0.0053923539         3944 
 4879000   0.47341912   -9.5182826     444.1277 0.0075857024 0.0053903019         3938 
 4880000   0.46927452   -9.5263826    444.51867 0.0075908243 0.0053882499         3936 
 4881000   0.46870275   -9.5303484    444.20399 0.0075838966 0.0053861989         3951 
 4882000   0.46084472   -9.5178001    444.14253  0.007581294 0.0053841499         3944 
 4883000   0.47649842   -9.5216995    444.16636 0.0075801482 0.0053821023         3951 
 4884000   0.46468898   -9.5196408    443.96632 0.0075751829 0.0053800548         3944 
 4885000   0.47381263   -9.5158707    443.76321 0.0075701674 0.0053780098         3939 
 4886000   0.47727246   -9.5163092    443.97153  0.007572171 0.0053759636         3947 
 4887000    0.4710346   -9.5176238    444.60683 0.0075814547 0.0053739192         3936 
 4888000   0.47285944   -9.5219009    443.99003 0.0075693881 0.0053718755         3955 
 4889000   0.46820108   -9.5216444    443.65401 0.0075621124 0.0053698339         3940 
 4890000   0.46997363   -9.5182569    444.70868 0.0075785392 0.0053677942         3945 
 4891000   0.46467452   -9.5159972    444.92258 0.0075806342 0.0053657538         3944 
 4892000   0.46370007   -9.5265871    443.86886 0.0075611348  0.005363714         3946 
 4893000   0.46024394   -9.5278991    444.24875 0.0075660595 0.0053616765         3944 
 4894000   0.46533241   -9.5187538    444.60306 0.0075705467 0.0053596395         3944 
 4895000   0.47427016   -9.5255514    444.27995 0.0075634993 0.0053576032         3953 
 4896000   0.46683905   -9.5181766    444.82362 0.0075712082 0.0053555677         3934 
 4897000   0.46799323   -9.5094795    444.59628 0.0075657934 0.0053535351         3936 
 4898000   0.46666661    -9.503456    444.45284 0.0075618083 0.0053515033         3943 
 4899000   0.47238028   -9.5015072    443.61286 0.0075459764  0.005349473         3942 
 4900000   0.47436422   -9.5355325    443.98725 0.0075508036 0.0053474431         3940 
 4901000    0.4628854   -9.5195991    444.55105 0.0075588493 0.0053454146         3942 
 4902000    0.4704339   -9.5166743    443.86437 0.0075456339 0.0053433854         3951 
 4903000   0.46676565   -9.5218711    444.52435 0.0075553123 0.0053413572         3947 
 4904000   0.47139378   -9.5126483    444.15209 0.0075474457 0.0053393316         3946 
 4905000   0.46482215   -9.5149084    444.48906  0.007551632 0.0053373057         3951 
 4906000   0.46072339   -9.5344825    443.57819 0.0075346206 0.0053352809         3942 
 4907000   0.46564783   -9.5134931    443.97018 0.0075397421 0.0053332574         3930 
 4908000   0.47064395   -9.5214698    443.71668 0.0075339017 0.0053312355         3933 
 4909000   0.46423891   -9.5111662    444.76938 0.0075502373  0.005329215         3944 
 4910000   0.47433805   -9.5408238     443.6843 0.0075302834 0.0053271946         3930 
 4911000   0.46745608   -9.5352813    444.33106 0.0075397248 0.0053251757         3939 
 4912000    0.4727995   -9.5244042    444.17993 0.0075356258 0.0053231582         3951 
 4913000   0.48143208   -9.5381281    443.96198 0.0075303953 0.0053211409         3927 
 4914000   0.46917906   -9.5139396    443.69123 0.0075242714  0.005319125         3942 
 4915000    0.4676161   -9.5283352    444.31946 0.0075333919 0.0053171097         3938 
 4916000   0.45615946    -9.519765    444.69672 0.0075382546 0.0053150976         3940 
 4917000   0.46499863   -9.5397907    443.61768 0.0075184341 0.0053130834         3928 
 4918000   0.46672656   -9.5209513    443.88156 0.0075213766 0.0053110717         3941 
 4919000   0.45902595   -9.5326449    444.50832 0.0075304655 0.0053090611         3939 
 4920000   0.46252779   -9.5259679    443.32917 0.0075089629 0.0053070526         3947 
 4921000   0.46696362   -9.5320058    444.59879 0.0075289371 0.0053050428         3951 
 4922000   0.47156602   -9.5251613    443.35847 0.0075064078 0.0053030349         3952 
 4923000   0.46332376   -9.5306991    443.61377 0.0075092046 0.0053010285         3929 
 4924000   0.46799105   -9.5231799    444.17317 0.0075171468 0.0052990233         3923 
 4925000   0.45884954    -9.529759     444.3812 0.0075191404 0.0052970191         3949 
 4926000   0.46039707   -9.5176466    444.16009 0.0075138735 0.0052950161         3943 
 4927000   0.45489079   -9.5177877     444.3004 0.0075147215 0.0052930141         3914 
 4928000   0.45946996   -9.5336791    444.49572 0.0075164996 0.0052910135         3947 
 4929000    0.4600754   -9.5301228    443.69017 0.0075013553 0.0052890123         3942 
 4930000    0.4580926   -9.5439979    443.91944 0.0075037093 0.0052870119         3937 
 4931000   0.47213649   -9.5211844    444.51812 0.0075123052 0.0052850137         3950 
 4932000   0.45961984   -9.5377384    443.91287 0.0075005555 0.0052830165         3938 
 4933000   0.46720895   -9.5464824    443.74634 0.0074962217 0.0052810192         3933 
 4934000   0.45741491   -9.5211064    443.48477 0.0074902846 0.0052790239         3952 
 4935000   0.46957391   -9.5192258     443.2466  0.007484745 0.0052770294         3950 
 4936000     0.449154   -9.5340309    443.97942 0.0074956006 0.0052750369         3942 
 4937000   0.47495459   -9.5108115    443.77394  0.007490614 0.0052730444         3951 
 4938000   0.46353171   -9.5222929    444.39776 0.0074996247  0.005271054         3940 
 4939000   0.45474647   -9.5280012    443.81397 0.0074882563 0.0052690629         3949 
 4940000   0.45619696   -9.5260027    443.83895 0.0074871617 0.0052670745         3950 
 4941000   0.45257193    -9.543831    443.28626  0.007476325 0.0052650864         3944 
 4942000   0.46368638   -9.5221269    444.23234 0.0074907652 0.0052630988         3941 
 4943000   0.45461418   -9.5291808    444.04116 0.0074860267 0.0052611129         3932 
 4944000   0.46328494   -9.5405995    443.05708 0.0074679254 0.0052591263         3954 
 4945000   0.45258637   -9.5346352    444.34501 0.0074881196 0.0052571423         3928 
 4946000   0.46277944   -9.5262046    444.15577  0.007483417 0.0052551596         3938 
 4947000   0.45033848   -9.5285218    443.91971 0.0074779279 0.0052531782         3941 
 4948000   0.46396042   -9.5268197    443.90036 0.0074760906 0.0052511978         3930 
 4949000   0.46609407   -9.5134671    443.95581 0.0074755138 0.0052492187         3939 
 4950000   0.45481025   -9.5387785    444.36129 0.0074808299 0.0052472396         3930 
 4951000   0.45649775   -9.5309873    444.03952 0.0074739029 0.0052452617         3929 
 4952000    0.4640001   -9.5442098    444.03309 0.0074722855 0.0052432841         3944 
 4953000   0.46005352   -9.5280975    443.87932 0.0074681896 0.0052413084         3932 
 4954000    0.4576586   -9.5278036    443.89652 0.0074669715 0.0052393338         3921 
 4955000   0.45714644   -9.5259019    443.67022 0.0074616587 0.0052373596         3943 
 4956000   0.46704505   -9.5376131     444.2468  0.007469848 0.0052353862         3926 
 4957000   0.46173468   -9.5321212    443.87537 0.0074620969 0.0052334152         3936 
 4958000   0.45520368   -9.5278201    444.01935 0.0074630118 0.0052314431         3949 
 4959000    0.4527826   -9.5359939    443.66053 0.0074554771 0.0052294732         3956 
 4960000   0.45307995   -9.5368879    443.94443 0.0074587438 0.0052275044         3932 
 4961000   0.45781783   -9.5330516    443.44695 0.0074488837 0.0052255351         3949 
 4962000   0.45427095   -9.5344522    444.40532 0.0074634777 0.0052235684         3932 
 4963000   0.46535967   -9.5431353    444.07434 0.0074564165 0.0052216035         3936 
 4964000   0.45962817   -9.5466202    443.43445 0.0074441722 0.0052196395         3929 
 4965000   0.46639952   -9.5322221    443.65734 0.0074464138 0.0052176756         3934 
 4966000   0.45369723   -9.5210372    444.27376 0.0074552585 0.0052157141         3936 
 4967000   0.46278983   -9.5321484    444.06762  0.007450299 0.0052137521         3960 
 4968000   0.45469779   -9.5359796    442.67751 0.0074254815 0.0052117908         3936 
 4969000   0.45186712    -9.532652    443.19638 0.0074326889 0.0052098308         3947 
 4970000   0.44053466   -9.5345335    444.29895 0.0074496806 0.0052078729         3935 
 4971000   0.45400788   -9.5317917    443.96528 0.0074425884 0.0052059154         3946 
 4972000   0.45241128   -9.5454872    443.24108 0.0074289535 0.0052039584         3933 
 4973000   0.44631415   -9.5340343    443.87912 0.0074381513 0.0052020024         3935 
 4974000    0.4612106   -9.5471274    443.99296 0.0074385632 0.0052000489         3942 
 4975000   0.45350882    -9.532201    443.72398 0.0074325624 0.0051980946         3950 
 4976000    0.4445329   -9.5369102    442.84315 0.0074163175 0.0051961429         3939 
 4977000   0.45477998   -9.5265617    443.86327 0.0074319079 0.0051941918         3937 
 4978000   0.44723183   -9.5421838    443.81697 0.0074296399 0.0051922412         3947 
 4979000   0.45577932   -9.5392575    443.95662  0.007430485 0.0051902913         3944 
 4980000   0.45840094   -9.5378203    443.56602 0.0074224568 0.0051883429         3954 
 4981000   0.45759076   -9.5333139    444.13029  0.007430407 0.0051863962         3924 
 4982000    0.4514558   -9.5435834    443.32995 0.0074155284 0.0051844501         3934 
 4983000    0.4581666   -9.5333453    443.46164 0.0074162425 0.0051825042         3927 
 4984000   0.43741277    -9.528517    443.97942 0.0074234119 0.0051805583         3939 
 4985000   0.45739857   -9.5278901    442.98477 0.0074052953 0.0051786153         3941 
 4986000   0.45698108   -9.5456264    443.84925 0.0074182586 0.0051766724         3943 
 4987000   0.45621813   -9.5338203    443.20356 0.0074059815 0.0051747312         3941 
 4988000   0.45419871   -9.5422949    443.67223 0.0074123268 0.0051727891         3946 
 4989000   0.45374946   -9.5420209    443.40538 0.0074063836 0.0051708493         3958 
 4990000   0.44914039   -9.5276994    443.90163  0.007413187 0.0051689101         3923 
 4991000   0.44548729   -9.5367713    443.92021 0.0074120118 0.0051669729         3934 
 4992000   0.45084826   -9.5385285     443.9606 0.0074112013 0.0051650338         3944 
 4993000   0.45577377   -9.5397603    444.14277 0.0074127574 0.0051630986         3935 
 4994000   0.45580398   -9.5443221    443.82019 0.0074058902 0.0051611638         3925 
 4995000   0.44851993   -9.5403838    443.76534 0.0074034926 0.0051592299         3950 
 4996000   0.45208809   -9.5403974    443.29854 0.0073942243 0.0051572967         3937 
 4997000     0.457754   -9.5337008    444.08371 0.0074058386 0.0051553655         3922 
 4998000   0.44995343    -9.542702    443.78265 0.0073993372 0.0051534349         3945 
 4999000   0.45291745   -9.5489956    443.90144 0.0073998374 0.0051515055         3950 
 5000000   0.44517841   -9.5498476    443.51657 0.0073919429 0.0051495759         3941 
 5001000   0.46077596   -9.5515649    443.08749 0.0073833149 0.0051476477         3939 
 5002000   0.43604761   -9.5444693    443.38897 0.0073868614 0.0051457208         3937 
 5003000   0.45484625   -9.5563875    444.06642 0.0073966691  0.005143795         3934 
 5004000   0.45280182   -9.5463922    443.18175 0.0073804582 0.0051418706         3939 
 5005000   0.44787134   -9.5456809    443.33268 0.0073814964 0.0051399457         3947 
 5006000   0.45047887   -9.5489945    443.67734 0.0073857594 0.0051380229         3959 
 5007000    0.4537939   -9.5527763    444.03223 0.0073901908 0.0051361004         3934 
 5008000   0.45234686   -9.5508924    443.70968  0.007383348 0.0051341785         3941 
 5009000   0.45694162     -9.55599    443.45072 0.0073775658 0.0051322597         3946 
 5010000   0.45698949   -9.5516099    443.34079 0.0073742647 0.0051303398         3952 
 5011000   0.45720761   -9.5588238    444.14578   0.00738618 0.0051284214         3946 
 5012000   0.46485968   -9.5460546    443.72337 0.0073776831 0.0051265042         3935 
Loop time of 13151.1 on 48 procs for 5000000 steps with 4000 atoms

Performance: 65698.149 tau/day, 380.198 timesteps/s
99.4% CPU use with 48 MPI tasks x no OpenMP threads

MPI task timing breakdown:
Section |  min time  |  avg time  |  max time  |%varavg| %total
---------------------------------------------------------------
Pair    | 959.04     | 1064.9     | 1221.1     | 187.3 |  8.10
Neigh   | 92.649     | 98.3       | 104.42     |  25.5 |  0.75
Comm    | 797.15     | 975.9      | 1105.1     | 216.7 |  7.42
Output  | 20.506     | 20.51      | 20.609     |   0.3 |  0.16
Modify  | 10822      | 10867      | 10920      |  21.4 | 82.63
Other   |            | 124.3      |            |       |  0.95

Nlocal:        83.3333 ave          91 max          77 min
Histogram: 3 2 9 5 6 15 1 3 2 2
Nghost:        2451.50 ave        2474 max        2432 min
Histogram: 4 4 5 6 7 10 2 4 4 2
Neighs:        17028.2 ave       19846 max       14485 min
Histogram: 3 6 5 7 6 5 4 7 3 2
FullNghs:      34055.1 ave       37752 max       30370 min
Histogram: 4 0 2 9 10 8 8 2 3 2

Total # of neighbors = 1634644
Ave neighs/atom = 408.66100
Neighbor list builds = 265807
Dangerous builds = 0

#clear
#
#next RN
#
#jump SELF
Total wall time: 3:39:15
