
units lj                  # Use reduced LJ style units
atom_style atomic         # Uncharged point particles
atom_modify map hash      # Needed for indexing of clusters etc
                          # Used to be able to find where atoms are in relation to each other.

lattice fcc 1.0 spacing 1 1 1
Lattice spacing in x,y,z = 1.5874011 1.5874011 1.5874011
region box block 0 10 0 10 0 10 units lattice
create_box 2 box
Created orthogonal box = (0.0000000 0.0000000 0.0000000) to (15.874011 15.874011 15.874011)
  3 by 4 by 4 MPI processor grid
create_atoms 1 box
Created 4000 atoms
  using lattice units in orthogonal box = (0.0000000 0.0000000 0.0000000) to (15.874011 15.874011 15.874011)
  create_atoms CPU = 0.002 seconds
set type 1 type/fraction 2 0.9 78393
Setting atom values ...
  3586 settings made for type/fraction
mass 1 1.0
mass 2 1.0
pair_style lj/cut  3.5
pair_modify tail  yes
pair_coeff 1  1  1.0  1.0   # Intearaction between 1 and 1 set with epsilon = 1 and sigma = 1
pair_coeff 1  2  1.5  0.8
pair_coeff 2  2  0.5  0.88

write_data data.0
System init for write_data ...
Neighbor list info ...
  update every 1 steps, delay 10 steps, check yes
  max neighbors/atom: 2000, page size: 100000
  master list distance cutoff = 3.8
  ghost atom cutoff = 3.8
  binsize = 1.9, bins = 9 9 9
  1 neighbor lists, perpetual/occasional/extra = 1 0 0
  (1) pair lj/cut, perpetual
      attributes: half, newton on
      pair build: half/bin/atomonly/newton
      stencil: half/bin/3d
      bin: standard
WARNING: Not all mixed pair coeffs generated from mixing. Use write_data with 'pair ij' option to store all pair coeffs. (../write_data.cpp:312)


#############################
#   M E L T   S Y S T E M   #
#############################

velocity all create 2.4 2750902 mom yes dist gaussian # Assign velocities
                                                    # Temperature 2.4, random number seed, zero linear momentum
                                                                                # Gaussian distribution

timestep 0.002   # simulation timestep
thermo 1000       # output thermodynamic data every 1000 steps bf 100

# Define a fix  in this case with index 1 applied to all
# particles in the simulation. This fix is for simulations
# in the anisotropic NPT ensemble. Note that we use the MTK
# correction.
fix 1 all npt temp 2.4 2.4 0.1 iso 5.68 5.68 0.5 mtk yes tchain 5 pchain 5 # Use NPT ensemble
                                                                         # Set temperature and pressure and damping
                                                                         # Numbers of thermostats in chain and in barostat
run 10000          # run for 10000 steps
Per MPI rank memory allocation (min/avg/max) = 3.642 | 3.644 | 3.648 Mbytes
Step Temp E_pair E_mol TotEng Press Volume 
       0          2.4   -3.1995671            0   0.39953293    -2.596694         4000 
    1000    2.4083692   -2.2291879            0    1.3824628    5.8397918    3981.4384 
    2000    2.3832574   -2.2425702            0    1.3314222    5.6807155    4000.7987 
    3000    2.4259629   -2.2783883            0    1.3596463     5.630765    3988.5093 
    4000    2.3248355   -2.2301799            0    1.2562015    5.5625512    4027.8587 
    5000    2.3737598   -2.2377673            0    1.3219822      5.72915    4005.8329 
    6000    2.4475476   -2.2585195            0     1.411884     5.762819    3992.5264 
    7000    2.4185264   -2.2384191            0    1.3884635    5.6322309    4020.6643 
    8000    2.3555641   -2.1932285            0    1.3392344    5.6240786    4051.7557 
    9000    2.3712184   -2.2127214            0    1.3432171    5.8876225    4006.9565 
   10000    2.3874812   -2.2725951            0    1.3077313    5.5039997    4004.8518 
Loop time of 2.6022 on 48 procs for 10000 steps with 4000 atoms

Performance: 664053.693 tau/day, 3842.903 timesteps/s
99.5% CPU use with 48 MPI tasks x no OpenMP threads

MPI task timing breakdown:
Section |  min time  |  avg time  |  max time  |%varavg| %total
---------------------------------------------------------------
Pair    | 1.0624     | 1.1654     | 1.2415     |   3.0 | 44.78
Neigh   | 0.20857    | 0.21816    | 0.23234    |   1.0 |  8.38
Comm    | 0.82124    | 0.91019    | 1.0207     |   4.3 | 34.98
Output  | 0.00025509 | 0.00029281 | 0.0018602  |   0.0 |  0.01
Modify  | 0.25041    | 0.29207    | 0.33872    |   4.7 | 11.22
Other   |            | 0.0161     |            |       |  0.62

Nlocal:        83.3333 ave          97 max          74 min
Histogram: 2 5 8 9 8 10 4 0 1 1
Nghost:        1644.94 ave        1676 max        1622 min
Histogram: 4 4 8 10 5 7 2 1 5 2
Neighs:        9523.25 ave       11382 max        8519 min
Histogram: 5 7 7 9 12 4 1 1 1 1

Total # of neighbors = 457116
Ave neighs/atom = 114.27900
Neighbor list builds = 907
Dangerous builds = 200

# Equilibrate just above the melting temperature to avoid step fn in T

fix 1 all npt temp 1.25 1.25 0.1 iso 5.68 5.68 0.5 mtk yes tchain 5 pchain 5
run 2000
Per MPI rank memory allocation (min/avg/max) = 3.643 | 3.645 | 3.649 Mbytes
Step Temp E_pair E_mol TotEng Press Volume 
   10000    2.3874812   -2.2725951            0    1.3077313    5.5039997    4004.8518 
   11000    1.2594998   -3.3776218            0   -1.4888443    5.7019309    3090.3403 
   12000    1.2219279   -3.3454188            0   -1.5129851    5.5763457    3110.3022 
Loop time of 0.611776 on 48 procs for 2000 steps with 4000 atoms

Performance: 564912.539 tau/day, 3269.170 timesteps/s
99.6% CPU use with 48 MPI tasks x no OpenMP threads

MPI task timing breakdown:
Section |  min time  |  avg time  |  max time  |%varavg| %total
---------------------------------------------------------------
Pair    | 0.27041    | 0.29664    | 0.32766    |   2.4 | 48.49
Neigh   | 0.03971    | 0.042359   | 0.04537    |   0.7 |  6.92
Comm    | 0.18887    | 0.22267    | 0.25384    |   3.1 | 36.40
Output  | 5.4832e-05 | 5.7213e-05 | 7.6318e-05 |   0.0 |  0.01
Modify  | 0.042501   | 0.045125   | 0.048409   |   0.9 |  7.38
Other   |            | 0.004929   |            |       |  0.81

Nlocal:        83.3333 ave          91 max          76 min
Histogram: 2 1 5 8 12 4 7 2 5 2
Nghost:        1940.19 ave        1965 max        1914 min
Histogram: 2 4 3 6 6 10 3 10 0 4
Neighs:        12275.6 ave       14010 max       11235 min
Histogram: 7 5 11 5 5 6 4 3 0 2

Total # of neighbors = 589230
Ave neighs/atom = 147.30750
Neighbor list builds = 143
Dangerous builds = 13

#############################
# L I N E A R  Q U E N C H  #
#############################

# Define solid atoms. This closely follows ten Wolde  Ruiz-Montero and Frenkel  Faraday Discuss  1996  104  93-110
# Compute components of the per-atom q6 vector
compute q6 all orientorder/atom degrees 1 6 components 6 nnn NULL cutoff 1.3 # compute the Q6 parameter.
                                                                             # Use all neighbours within 1.3 unit cell.

# get number of connections
compute coord_number all coord/atom orientorder q6 0.5

# An atom is solid if it has 8 or more connections (of a possible 14)
variable is_solid atom c_coord_number>=8
group solid dynamic all var is_solid    # Must be dynamic to update
dynamic group solid defined

# do clustering
compute cluster solid cluster/atom 1.3 # Create a cluster where all atoms within are solid and max 1.3 units from another member

# define chunks one chunk per cluster
compute clus_chunks solid chunk/atom c_cluster nchunk every compress yes  # Says which atoms are in which chunk

# count the size of each chunk
compute size_chunks solid property/chunk clus_chunks count


# Find the maximum entry in the vector of chunk sizes
variable max_n equal max(c_size_chunks)


# Thermo style which includes this variable
# thermo_style custom step temp pe vol v_max_n

thermo ${N}  # Print the thermo information every 100 steps
thermo 1000  

# Reset the npt fix at a lower temperature (below freezing)
fix 1  all npt temp  ${temp} ${temp}  0.1  iso  5.68  5.68  0.5  mtk yes tchain  5  pchain  5
fix 1  all npt temp  0.45 ${temp}  0.1  iso  5.68  5.68  0.5  mtk yes tchain  5  pchain  5
fix 1  all npt temp  0.45 0.45  0.1  iso  5.68  5.68  0.5  mtk yes tchain  5  pchain  5

dump dmp2 all dcd ${N} traj.dcd
dump dmp2 all dcd 1000 traj.dcd


compute msd all msd com yes
variable twopoint equal c_msd[4]/6/(step*dt+1.0e-6)
fix 9 all vector 10 c_msd[4]
variable fit equal slope(f_9)/6/(10*dt)
thermo_style custom step temp pe c_msd[4] v_twopoint v_fit v_max_n

fix 1 all npt temp 1.25 ${temp} 0.1 iso 5.68 5.68 0.5 mtk yes tchain 5 pchain 5
fix 1 all npt temp 1.25 0.45 0.1 iso 5.68 5.68 0.5 mtk yes tchain 5 pchain 5
run 5000000 # 5000000  # Run for this many steps
Neighbor list info ...
  update every 1 steps, delay 10 steps, check yes
  max neighbors/atom: 2000, page size: 100000
  master list distance cutoff = 3.8
  ghost atom cutoff = 3.8
  binsize = 1.9, bins = 8 8 8
  4 neighbor lists, perpetual/occasional/extra = 1 3 0
  (1) pair lj/cut, perpetual
      attributes: half, newton on
      pair build: half/bin/atomonly/newton
      stencil: half/bin/3d
      bin: standard
  (2) compute orientorder/atom, occasional
      attributes: full, newton on
      pair build: full/bin/atomonly
      stencil: full/bin/3d
      bin: standard
  (3) compute coord/atom, occasional
      attributes: full, newton on
      pair build: full/bin/atomonly
      stencil: full/bin/3d
      bin: standard
  (4) compute cluster/atom, occasional
      attributes: full, newton on
      pair build: full/bin/atomonly
      stencil: full/bin/3d
      bin: standard
Per MPI rank memory allocation (min/avg/max) = 9.821 | 9.827 | 9.832 Mbytes
Step Temp PotEng c_msd[4] v_twopoint v_fit v_max_n 
   12000    1.2219279   -3.3454188 1.896816e-30 1.3172333e-32 8.3333333e+20            2 
   13000    1.2560989    -3.364096   0.98990106 0.0063455194  0.083535037            1 
   14000    1.2370155   -3.3633885    2.0419206  0.012154289  0.086448191            2 
   15000    1.2401803   -3.3585182    3.1208414  0.017338007  0.087894219            2 
   16000    1.2420509   -3.3636201    4.1917073  0.021831808  0.088143845            2 
   17000    1.2701065   -3.3347443    5.3577126  0.026263296  0.089327412            2 
   18000    1.2390709   -3.3641627    6.4046674  0.029651237  0.090132008            2 
   19000    1.2761677   -3.3098856    7.6736516  0.033656366  0.090933812            1 
   20000    1.2404832    -3.352743    8.7646987  0.036519577  0.091910482            3 
   21000    1.2445556   -3.3532982    10.000913  0.039686163  0.092725464            1 
   22000      1.24345    -3.375102    11.084442  0.041986521  0.093344383            2 
   23000    1.2193708   -3.3396283    12.160367  0.044059301  0.093669223            2 
   24000    1.2620862   -3.3649734    13.159603  0.045693066  0.093533746            2 
   25000    1.2449346   -3.3588841    14.317242  0.047724139  0.093330015            1 
   26000    1.2594245   -3.3403655    15.422523  0.049431162  0.093310759            2 
   27000     1.241634   -3.3411253    16.582454  0.051180412  0.093156508            2 
   28000    1.2549698   -3.3601462    17.703335  0.052688496  0.093202219            2 
   29000    1.2522884   -3.3695773    18.739676  0.053849642   0.09330164            1 
   30000    1.2673169   -3.3541329    19.851766  0.055143792  0.093198867            3 
   31000    1.2613318   -3.3585216    21.035712  0.056547612  0.092972092            2 
   32000     1.255629   -3.3805406    22.045776  0.057410874  0.092807186            1 
   33000    1.2569139   -3.3620681    23.301845  0.058843043  0.092854683            2 
   34000    1.2621938   -3.3186304    24.490671  0.060026153  0.092943653            3 
   35000    1.2264955   -3.3467271    25.717271  0.061231596  0.093001253            5 
   36000    1.2658734   -3.3859994    26.468904   0.06127061  0.093046766            1 
   37000    1.2605881   -3.3702205    27.605209  0.062173893  0.092911949            2 
   38000    1.2476457   -3.3509155     28.40938  0.062301272  0.092643442            2 
   39000    1.2712787   -3.3424983    29.473728  0.062978051  0.092367597            7 
   40000    1.2455582   -3.3679458    30.579928  0.063708182  0.092173118            2 
   41000    1.2336691   -3.3623016     31.65911  0.064347784  0.092057204            1 
   42000    1.2146621   -3.3591264    32.689436  0.064859992  0.091914429            1 
   43000    1.2332051   -3.3666951     33.52113   0.06496343  0.091689814            2 
   44000    1.2440857   -3.3733151    34.257261  0.064881176  0.091322715            3 
   45000    1.2402253    -3.370733    35.502101  0.065744631  0.090969103            2 
   46000    1.2505732   -3.3567968    36.674444   0.06643921  0.090694487            1 
   47000    1.2213803   -3.3626298    37.617365  0.066697455  0.090484816            1 
   48000    1.2666518   -3.3617522     38.79431  0.067351231  0.090291085            1 
   49000    1.2194416   -3.3594518     39.40164   0.06700959  0.090090957            3 
   50000    1.2214288   -3.3536186    40.633294  0.067722157  0.089825235            2 
   51000    1.2511432   -3.3551703    41.800987  0.068302265  0.089669335            1 
   52000    1.2572003    -3.390883    42.734416  0.068484641  0.089536007            3 
   53000    1.2435831   -3.3822598    43.786255  0.068846313  0.089406349            1 
   54000      1.24774   -3.3699202    45.140957   0.06966197  0.089344292            2 
   55000    1.2399155   -3.3482967    46.173019  0.069959119  0.089290294            2 
   56000    1.2334217   -3.3726322    47.319095  0.070415319  0.089230437            6 
   57000    1.2351247   -3.3868603    48.369297  0.070715346  0.089174674            1 
   58000    1.2479571   -3.3582348    49.510227  0.071135383  0.089143755            1 
   59000    1.2513925   -3.3563204    50.603326  0.071473624  0.089129606            3 
   60000    1.2383864   -3.3346749    51.802573  0.071948018  0.089149072            2 
   61000    1.2376989   -3.3797554    52.921435  0.072297041  0.089194316            1 
   62000    1.2476482   -3.3598765    54.065751  0.072669019   0.08922232            2 
   63000    1.2522129   -3.3673882    55.111289   0.07289853  0.089259346            2 
   64000    1.2516944   -3.3682051    56.415261   0.07345737  0.089287571            2 
   65000    1.2410952   -3.3713111    57.518591  0.073741783  0.089336764            2 
   66000    1.2432327   -3.3990462    58.746817  0.074175273  0.089424021            2 
   67000    1.2609547   -3.3627817    59.622682  0.074157565  0.089505022            1 
   68000    1.2560437   -3.3587348    61.237522  0.075045982  0.089568234            3 
   69000    1.2458326   -3.3471944    62.039508  0.074926942  0.089664762            2 
   70000     1.227005   -3.3885024    63.126092  0.075150109  0.089720907            1 
   71000    1.2441147   -3.3839854    64.226756  0.075383516  0.089793547            1 
   72000    1.2114591   -3.3716304    65.807904  0.076166555   0.08989144            2 
   73000    1.2551122   -3.3526969    66.908271  0.076379304  0.089994546            1 
   74000    1.2392022   -3.3986677    67.883478  0.076445358  0.090071041            1 
   75000    1.2196583   -3.3606024     68.82752  0.076475022  0.090139984            3 
   76000     1.232571   -3.3484643    70.263679  0.077043507  0.090217727            3 
   77000    1.2341035   -3.3714417    71.074693  0.076920663  0.090284618            2 
   78000    1.2374029   -3.3602065    71.803136  0.076712752   0.09034056            2 
   79000    1.2406821   -3.3932655    73.008783  0.077013483  0.090377904            2 
   80000    1.2617083   -3.3720866    74.339824  0.077437316  0.090429015            2 
   81000    1.2622684    -3.358381    75.157553  0.077322585  0.090472143            1 
   82000    1.2686968   -3.3961005    75.989987  0.077225596  0.090497977            1 
   83000    1.2572065   -3.3788043    77.216036   0.07752614  0.090513545            1 
   84000    1.2354044   -3.3645551    77.985958  0.077367022  0.090523307            2 
   85000    1.2107972   -3.3732712    79.216997  0.077663722  0.090509169            3 
   86000    1.2774256   -3.3644658    80.133671  0.077648906  0.090494381            2 
   87000    1.2231277   -3.4105814    81.360973  0.077931966  0.090455172            1 
   88000    1.2220439   -3.3905531    82.914372  0.078517397  0.090449715            4 
   89000    1.2275811   -3.3950414    83.411633  0.078100779  0.090446205            1 
   90000     1.230147   -3.3441302    85.181748  0.078871989  0.090457825            1 
   91000    1.2613981    -3.384513    85.884924  0.078649197  0.090468977            1 
   92000    1.2253291   -3.3716048    87.131073  0.078923073  0.090502662            2 
   93000    1.2182881   -3.3745688    88.040723  0.078889536  0.090543611            2 
   94000    1.2375898   -3.3999369    89.165259  0.079047215  0.090566549            1 
   95000    1.2112859   -3.3476619    90.590231  0.079465114  0.090566532            2 
   96000    1.2336046    -3.354294    91.913085  0.079785663  0.090586218            2 
   97000    1.2437766   -3.4095333    92.490185  0.079458922   0.09061219            2 
   98000    1.2334705   -3.3891453    94.155565  0.080064256  0.090652878            3 
   99000    1.2394334   -3.3662237    95.650065  0.080513522  0.090714068            1 
  100000    1.2368227   -3.3919381     96.57156    0.0804763  0.090778372            1 
  101000    1.1990572   -3.3828636    98.061386  0.080908734   0.09084966            1 
  102000    1.2115982   -3.3628581    99.008005  0.080888892  0.090908145            2 
  103000    1.2581851   -3.3813643    99.837997  0.080775078  0.090958496            1 
  104000    1.2301828   -3.3998361     101.1068  0.081015064  0.091008082            1 
  105000    1.2325848   -3.4332733    101.95822   0.08091922  0.091063415            4 
  106000     1.217597   -3.3653006    103.85165   0.08164438  0.091124825            2 
  107000    1.2452117   -3.3738133    105.04521  0.081810911  0.091189355            2 
  108000     1.248455    -3.391734    106.00215   0.08179178  0.091240765            2 
  109000    1.2371243   -3.3699002    107.06986  0.081857695   0.09130853            1 
  110000    1.2190752     -3.37699    107.91366  0.081752771  0.091350618            4 
  111000    1.2187283   -3.3859323     108.7913  0.081675152  0.091374906            1 
  112000    1.2569584    -3.358778     110.2157  0.082005725  0.091404045            2 
  113000    1.2575028    -3.372885    110.93903  0.081813442  0.091426483            1 
  114000    1.2369523   -3.3542175    111.58273  0.081566325  0.091443206            1 
  115000    1.2170395   -3.3952911    112.94217  0.081842151  0.091456692            4 
  116000    1.2288601   -3.3551018    113.93029   0.08184647  0.091461898            2 
  117000    1.2367697    -3.373247    114.16305  0.081312713  0.091457448            3 
  118000    1.2370201     -3.38176    116.26078  0.082105067  0.091454627            1 
  119000     1.270978   -3.4157318    116.45068  0.081548093  0.091438177            3 
  120000    1.2372535   -3.3948932    117.38188  0.081515192   0.09141079            3 
  121000     1.233482   -3.3894752    117.94244  0.081227575  0.091378228            4 
  122000    1.2131876   -3.3734695    119.73786  0.081788153  0.091349186            1 
  123000    1.2291697   -3.4019473    119.83451  0.081188689  0.091316075            2 
  124000    1.2523105   -3.3926959    121.68654  0.081778589  0.091272868            2 
  125000    1.2715402   -3.3633348     122.7614  0.081840935  0.091239008            2 
  126000    1.2162271   -3.3508771    123.22748  0.081499656  0.091192547            2 
  127000    1.2326549   -3.3944942    124.61263  0.081766818  0.091155475            2 
  128000    1.2330956   -3.3543951    126.19375  0.082157386  0.091128922            2 
  129000    1.2344159   -3.3763026    127.31152  0.082242581   0.09111303            1 
  130000    1.2355257   -3.3394659     128.6085  0.082441343  0.091100375            2 
  131000     1.252642   -3.3603147    129.77378  0.082553296  0.091094415            2 
  132000    1.2352691   -3.3830293    131.09038  0.082759081  0.091091076            1 
  133000    1.2159551   -3.4001893    131.87083  0.082625832   0.09107894            1 
  134000     1.244667   -3.3520356     134.3174  0.083530722  0.091085123            3 
  135000    1.2061423   -3.4066419     134.5099  0.083030804  0.091102758            2 
  136000     1.268665   -3.3853698    135.92122  0.083285058  0.091114909            1 
  137000    1.2285575   -3.3776482    136.35086  0.082938481   0.09111531            2 
  138000    1.2107255   -3.3739592    137.41623  0.082980814  0.091108601            1 
  139000    1.2273756    -3.354644    138.82962  0.083231184  0.091104795            1 
  140000    1.2301002   -3.3833611    140.13843   0.08341573  0.091094977            2 
  141000    1.2257346   -3.4126488    140.13981  0.082824944  0.091083561            2 
  142000    1.2285263   -3.3780119    141.98959  0.083327225  0.091071293            2 
  143000    1.2124752   -3.3788974    142.60827  0.083105054  0.091065714            1 
  144000    1.2236764   -3.3755328    143.73018  0.083177185  0.091048394            1 
  145000    1.2296964   -3.3874843    143.63379  0.082548156  0.091030659            2 
  146000    1.2092163   -3.3621921    145.08532  0.082811253  0.090998488            3 
  147000    1.2363469   -3.3884474    145.94727  0.082736547  0.090970144            2 
  148000    1.2258811   -3.3272192    147.64518  0.083133549  0.090935795            2 
  149000    1.2384449   -3.3262809    149.28181  0.083490943   0.09091113            3 
  150000    1.2385065   -3.3800151    148.64631   0.08258128  0.090881286            6 
  151000    1.2395157   -3.3547292    150.61594  0.083121379  0.090852036            2 
  152000    1.2089483   -3.3937467    152.33035  0.083514444  0.090824982            2 
  153000    1.2304337   -3.3674832    153.04788  0.083359412  0.090800855            2 
  154000    1.2044404   -3.3831243    154.22006  0.083452411  0.090775443            3 
  155000    1.2215368   -3.3803421    154.74308  0.083195203  0.090755956            3 
  156000    1.2372861   -3.3782392    155.98386  0.083324714  0.090724582            1 
  157000    1.2182127   -3.3763583    156.41175  0.083021098  0.090699179            1 
  158000    1.2173102   -3.3326729     158.1298  0.083401795  0.090670857            2 
  159000    1.2237957    -3.409791    158.98183   0.08332381   0.09064625            1 
  160000    1.2150995   -3.3846423    159.58901  0.083119275  0.090612844            1 
  161000    1.2179712   -3.3816763    161.55547  0.083620841  0.090579395            1 
  162000    1.2209553   -3.4015189    161.75828  0.083208993  0.090546008            2 
  163000    1.2268991   -3.3895733    162.60941  0.083133645  0.090512823            2 
  164000    1.2317722    -3.396718    163.45471  0.083056257  0.090476372            2 
  165000    1.2238855   -3.3965742    164.05906  0.082858111  0.090436828            2 
  166000    1.2231607   -3.3995544    165.18215  0.082922764  0.090396262            2 
  167000    1.2568322   -3.3700097    167.27436  0.083470237  0.090356441            2 
  168000    1.2128259    -3.392866    167.29512  0.082983691  0.090322088            3 
  169000    1.2090321   -3.3681852    168.89169  0.083279926     0.090292            2 
  170000    1.2629425    -3.399558    170.13744  0.083400703  0.090263898            2 
  171000    1.2253527   -3.4088884    170.93053  0.083299479   0.09023071            4 
  172000    1.2328385    -3.399668    171.69173  0.083183977  0.090197304            1 
  173000    1.2349946   -3.4091209    173.53944  0.083593177   0.09015812            2 
  174000    1.2395447   -3.3701841    174.70621  0.083671555  0.090132272            1 
  175000    1.2163862   -3.4014233    175.22914  0.083442446  0.090107326            2 
  176000    1.1926524   -3.4192027    176.31903  0.083484387  0.090088115            1 
  177000    1.2168406   -3.3823739    177.30531  0.083477076  0.090061053            2 
  178000    1.2096885   -3.3845222    178.99286  0.083798154  0.090042924            1 
  179000     1.223679   -3.3672909    180.20925    0.0838963  0.090024535            1 
  180000     1.252206   -3.3767207    182.27315  0.084385719  0.090008917            3 
  181000    1.2061902   -3.3830966    182.40702  0.083981133  0.089996099            1 
  182000     1.216633   -3.3935789     182.7252  0.083665385  0.089978242            2 
  183000    1.2277445    -3.396548    184.77767  0.084142835  0.089962324            3 
  184000    1.2021497   -3.4002316    185.62251  0.084068166  0.089950905            2 
  185000    1.2313486   -3.3815182    186.61386  0.084060299  0.089942239            2 
  186000    1.2137378   -3.3835343    187.80297  0.084141113  0.089924035            2 
  187000    1.2182311   -3.3638095     189.1607  0.084296212    0.0899193            1 
  188000    1.2270701   -3.3898237     190.2081  0.084312099  0.089916376            1 
  189000    1.2307674   -3.4206675    191.30025  0.084347552  0.089913013            2 
  190000    1.2188157   -3.3570893    192.52784  0.084442037  0.089907761            6 
  191000    1.1866933   -3.4110081    192.66869  0.084061384  0.089890893            1 
  192000    1.2367863   -3.4051184    193.80682  0.084117543  0.089875617            3 
  193000    1.2356854   -3.4029918    194.22536  0.083862417  0.089858061            1 
  194000    1.2448012    -3.386085    196.53599  0.084422676  0.089847019            3 
  195000    1.2015408   -3.4044528    197.43053  0.084372023  0.089841364            1 
  196000    1.2176348   -3.3784423    199.39945  0.084778677  0.089833346            2 
  197000    1.2217028   -3.3756016    199.85851  0.084542516  0.089829315            2 
  198000    1.2097528   -3.3958473    200.11667  0.084224187  0.089822712            2 
  199000    1.2078619   -3.4068803     201.9529   0.08456989  0.089818754            2 
  200000    1.2579062    -3.433435    203.16439  0.084651827  0.089810373            3 
  201000    1.2049957   -3.3847689     204.7779  0.084899627  0.089807699            4 
  202000    1.2078062   -3.4033768    204.23308  0.084254572  0.089802661            2 
  203000     1.226424   -3.3481537    205.92625  0.084534585  0.089793975            1 
  204000    1.2364384   -3.4159961    206.86526  0.084503784   0.08978012            2 
  205000    1.2451662   -3.3874902    207.19759  0.084226661  0.089770006            1 
  206000    1.2234789   -3.3830488    207.98433  0.084136056  0.089762137            3 
  207000    1.2041348   -3.3909171    208.85285  0.084079246  0.089744845            2 
  208000    1.2140228   -3.4076169    210.39797  0.084294058  0.089730151            1 
  209000    1.1921471   -3.3706137     212.7576  0.084831579  0.089716742            1 
  210000    1.2144922   -3.4018737    211.99535  0.084125137  0.089707018            1 
  211000    1.2077505   -3.3961386    215.42077  0.085079293  0.089696948            2 
  212000    1.2140839   -3.3798497    214.61972  0.084363098  0.089691153            3 
  213000    1.2168942    -3.400459     216.4225   0.08467234  0.089686962            2 
  214000    1.2009065   -3.4098916    216.53822  0.084321735  0.089674331            2 
  215000    1.2162548   -3.3926354    218.27081  0.084601088  0.089659447            1 
  216000    1.2263641   -3.3942489    219.04458  0.084507941  0.089649174            4 
  217000    1.2127691   -3.3870998    220.54991  0.084696584   0.08964239            1 
  218000     1.211511   -3.3705688    222.21181   0.08494335   0.08963116            2 
  219000    1.2186579   -3.3863285    222.48426  0.084659155  0.089623422            2 
  220000     1.186265   -3.3820522    224.50344  0.085039183  0.089615492            3 
  221000    1.2087479   -3.3862433    225.42196  0.085000739  0.089609805            3 
  222000    1.2120638   -3.3818352    226.52489  0.085031866  0.089609486            1 
  223000    1.2164483   -3.4083323    227.02573  0.084837716  0.089606486            4 
  224000    1.2001527   -3.4160161    228.07802  0.084850454  0.089597152            2 
  225000    1.2396832   -3.3858174    229.26463  0.084912824  0.089592865            1 
  226000    1.2099759   -3.4160603    230.57877  0.085021671  0.089583658            3 
  227000    1.1666316   -3.3779208    231.15466  0.084858541  0.089571024            1 
  228000    1.2264663   -3.3826015    231.68602  0.084680563  0.089563943            2 
  229000    1.1723867   -3.3727166    232.34991  0.084552368  0.089547429            2 
  230000    1.2108274   -3.4312731    232.85531  0.084367867  0.089530955            2 
  231000    1.2004153   -3.3850129    234.44495    0.0845761  0.089512747            2 
  232000    1.2102621   -3.3942116    235.26237  0.084505161  0.089494482            2 
  233000    1.1946874   -3.4086193    235.51904  0.084234278  0.089476275            2 
  234000    1.1910098    -3.394186       237.63  0.084626069  0.089459701            2 
  235000    1.2286788   -3.4077335    238.30513  0.084505365  0.089440404            1 
  236000    1.1965877   -3.3892782    239.27448  0.084489577  0.089421964            2 
  237000    1.2121725   -3.4216696    241.67132  0.084975851  0.089409497            2 
  238000    1.1934199   -3.4249623    242.06679  0.084757279  0.089393045            2 
  239000    1.2270634   -3.4120943    242.38997  0.084515333  0.089374344            1 
  240000    1.2230962   -3.3999188    242.75367   0.08428947  0.089356543            3 
  241000    1.1925226   -3.3909186    244.12204  0.084412875  0.089333674            3 
  242000    1.1920656   -3.3892234    244.66395   0.08425067  0.089312782            3 
  243000     1.168656   -3.4367474    245.71242  0.084263517  0.089292194            2 
  244000    1.2166522   -3.3945024    247.41056  0.084498142  0.089271916            2 
  245000    1.2041782   -3.4195272    249.54792  0.084880245  0.089249969            1 
  246000     1.230108    -3.423722    249.52907  0.084528818  0.089226019            2 
  247000    1.2061771   -3.4099231    250.28932   0.08444309  0.089205131            2 
  248000    1.2058644   -3.3984868    251.26075  0.084429016   0.08918479            2 
  249000    1.2239341   -3.3971762    251.56848  0.084192933  0.089165877            1 
  250000    1.1861527   -3.4199617    253.45664  0.084485546  0.089151408            2 
  251000    1.1935119   -3.3953659    254.05488  0.084347569  0.089132907            2 
  252000    1.2072306   -3.3958404    255.76904   0.08457971  0.089113268            4 
  253000    1.2126436   -3.4311232    255.94575  0.084303607  0.089094419            4 
  254000    1.2131542    -3.392739    258.13684  0.084690565  0.089075597            2 
  255000    1.2271749   -3.4266444    259.48101  0.084797714   0.08905895            1 
  256000    1.1874076   -3.4476322    259.47237  0.084463662  0.089042544            2 
  257000    1.1890618   -3.4008042    260.39935  0.084435586  0.089024932            1 
  258000    1.2176683   -3.3940382    262.86195   0.08490373  0.089009027            2 
  259000    1.2092553   -3.4402842    262.74539  0.084538414  0.088997714            2 
  260000    1.2183554   -3.4247939    264.91248  0.084907845  0.088984578            2 
  261000    1.2372536   -3.3849793    265.31898  0.084712319  0.088974091            2 
  262000    1.2117935    -3.397198    268.24126  0.085318465    0.0889655            2 
  263000    1.1828773   -3.4303001    266.74563  0.084520163  0.088949552            1 
  264000    1.1912281   -3.4306834    268.20625  0.084661064  0.088932579            1 
  265000    1.2042942   -3.4068364    269.61159   0.08478352  0.088913708            1 
  266000     1.204419   -3.3936135    269.77352  0.084515515  0.088895985            1 
  267000    1.2125028   -3.4202339    268.80707  0.083897337   0.08887051            2 
  268000    1.2240914    -3.407416    271.39926  0.084390317  0.088843947            2 
  269000    1.2073172   -3.3920266    273.52862  0.084736252  0.088820526            2 
  270000     1.228764   -3.3955729    274.54557  0.084736285  0.088802899            2 
  271000    1.1644574   -3.4380159    274.89004  0.084529534  0.088780575            3 
  272000    1.1933565   -3.4323243    275.20584  0.084315514  0.088755945            1 
  273000    1.1765707   -3.4026468    276.60272  0.084433066  0.088732712            3 
  274000    1.2099619   -3.3995717    278.35619  0.084658209  0.088710827            2 
  275000    1.2181186   -3.3965796    278.46178  0.084382357  0.088686806            1 
  276000    1.2370342   -3.4213472    280.67574  0.084745089  0.088669528            2 
  277000    1.2060817   -3.4044027    281.64071  0.084729456  0.088652979            2 
  278000    1.2077747   -3.4116929    281.73175  0.084451962   0.08863397            1 
  279000    1.1891117    -3.413802    283.02605  0.084535856  0.088613789            2 
  280000    1.1834324   -3.4215763     283.1336  0.084265952  0.088593817            2 
  281000    1.2001069   -3.4189517    284.24326  0.084295155   0.08857144            3 
  282000    1.2022057   -3.4221872    286.67249  0.084714094   0.08855282            2 
  283000    1.2239882   -3.4091213    287.35681  0.084616258  0.088535064            1 
  284000    1.1903398   -3.3977451    287.96698  0.084497354  0.088516196            3 
  285000    1.1936047   -3.4306393    288.69659  0.084414207   0.08850017            2 
  286000    1.1870238   -3.4374236    289.82784  0.084448672  0.088481283            3 
  287000    1.2006584   -3.4121854    292.49665   0.08492934  0.088463554            1 
  288000    1.2198704   -3.4254061    291.03886  0.084212633  0.088444753            2 
  289000    1.2147228   -3.4441665    293.00053  0.084486889  0.088422269            4 
  290000    1.2053467   -3.4363572    293.44672  0.084323771  0.088403457            2 
  291000    1.2085958   -3.4400932    295.96102  0.084754015  0.088382653            2 
  292000    1.1696079   -3.3930781    296.34973  0.084574694  0.088362823            1 
  293000    1.2126174   -3.4519228    297.00952  0.084473697   0.08834711            2 
  294000    1.2031175   -3.4180954    297.59361   0.08435193  0.088330629            2 
  295000    1.1868604   -3.4142114    299.86726  0.084708265  0.088317847            3 
  296000    1.1993366   -3.4283131    300.88041  0.084707323  0.088305632            4 
  297000    1.2114067   -3.4138649    301.72935   0.08466031  0.088293495            2 
  298000    1.2010627   -3.4054525    303.14752  0.084772795  0.088278371            1 
  299000    1.2174082   -3.4137375    304.29673  0.084809567  0.088264451            1 
  300000    1.2309105   -3.4202104    304.28766   0.08452435  0.088247775            4 
  301000    1.2082579   -3.4203048    305.64253  0.084618641  0.088228074            5 
  302000    1.1908073   -3.4085984    304.85413  0.084120897  0.088206638            1 
  303000    1.1894706    -3.459888    305.41213  0.083996736  0.088181837            4 
  304000    1.1883909   -3.4440574    306.85885  0.084117008  0.088157493            1 
  305000    1.1954439   -3.3866587    309.10437  0.084454746  0.088133102            2 
  306000    1.1960105   -3.4014989    310.71701  0.084617921  0.088112605            1 
  307000    1.2260352   -3.3986274    309.67442  0.084059289  0.088090998            2 
  308000    1.1710775   -3.3934586    312.00644  0.084417326  0.088071685            3 
  309000    1.2332431   -3.3675823    313.44594  0.084532347  0.088054755            4 
  310000    1.2009741   -3.4485134    313.78955  0.084352029  0.088039062            1 
  311000    1.2279681   -3.4270837    315.24539  0.084470897  0.088021865            2 
  312000    1.2375164   -3.3755229    316.30576  0.084483376  0.088002181            2 
  313000    1.2168364   -3.4152378    317.63468  0.084567273  0.087984836            1 
  314000    1.2086847   -3.4443884    318.00721  0.084396818  0.087965935            1 
  315000    1.2303306   -3.4424655    318.54021  0.084269898  0.087949264            2 
  316000    1.2126007   -3.4237941    318.60082  0.084019205  0.087930746            2 
  317000    1.1580559    -3.411075    319.80243  0.084070039  0.087910685            1 
  318000    1.2163106   -3.4148784    320.59442  0.084013212  0.087888848            2 
  319000     1.194204   -3.4230732    322.04968  0.084130009  0.087867955            2 
  320000    1.1767053   -3.4200232    323.26662  0.084184015  0.087849028            4 
  321000    1.1842683   -3.4164102    324.25196   0.08417756  0.087828647            3 
  322000    1.2190626    -3.395747    325.66036  0.084280633  0.087809534            2 
  323000    1.1893137   -3.4110937    326.64642  0.084274101  0.087793826            2 
  324000    1.2358241   -3.3954819    327.94217  0.084347265  0.087778497            2 
  325000    1.1991542   -3.4117177    329.34776  0.084448145   0.08776037            3 
  326000    1.1892211   -3.4324288    328.70836  0.084025655  0.087741263            1 
  327000    1.2033636   -3.4409243    330.26724  0.084165963  0.087722471            1 
  328000    1.2045017     -3.43139     331.9663   0.08434103  0.087707271            1 
  329000    1.1858814   -3.4277578    334.86196  0.084818126  0.087692944            1 
  330000    1.2072597   -3.4012688    334.73381   0.08452874  0.087678024            4 
  331000    1.2014984   -3.4045945    334.67886  0.084259532  0.087660808            3 
  332000    1.1893778   -3.3934893    336.38102  0.084432987  0.087645781            2 
  333000    1.2058882   -3.4221631    337.71974   0.08451445  0.087629081            1 
  334000    1.1970937   -3.4201256    338.91006  0.084558399  0.087614785            1 
  335000    1.2071329   -3.4403185    339.92106  0.084557478  0.087598067            3 
  336000    1.1968432     -3.41263    339.00402  0.084078377  0.087584238            1 
  337000    1.2242087   -3.4341544    342.00225  0.084570289  0.087569663            6 
  338000    1.2038169   -3.4487364    343.61071  0.084716645  0.087554936            2 
  339000    1.1657759   -3.4335776    341.68475  0.083993301  0.087539562            2 
  340000    1.1859968   -3.3974053    344.68879  0.084482547  0.087524224            2 
  341000    1.1835361   -3.4098393    345.45908   0.08442304  0.087507909            2 
  342000     1.161261   -3.4411174    347.01023   0.08455415  0.087490152            4 
  343000    1.2039028   -3.4310998    346.72745  0.084238934  0.087474566            1 
  344000    1.2122896   -3.4472159    348.34196  0.084385166  0.087459122            2 
  345000    1.1924054   -3.4165949    351.43408  0.084887458  0.087444268            1 
  346000    1.1820404   -3.4441111    348.90764  0.084033632   0.08742633            1 
  347000     1.197071   -3.4796829    349.23007  0.083868893  0.087405061            1 
  348000    1.2113048   -3.4171429    351.12348  0.084081293  0.087385358            2 
  349000    1.2052447   -3.4518754    351.75363  0.083990838  0.087366559            1 
  350000    1.1914467   -3.4106725    352.03749  0.083818449  0.087345995            1 
  351000    1.1862795    -3.433485    353.82488  0.084004007  0.087326257            1 
  352000    1.2190298   -3.4388961    354.27628  0.083872225  0.087304979            1 
  353000    1.1632334   -3.4298323    355.57297  0.083940739  0.087281911            2 
  354000    1.1731112    -3.414667    356.30987  0.083877087  0.087259274            1 
  355000    1.1793691    -3.423801    357.19193   0.08384787  0.087237102            1 
  356000    1.1741389   -3.4329772    356.50735  0.083452095  0.087209942            2 
  357000    1.1762346   -3.4162434     356.8938  0.083308543  0.087184734            2 
  358000    1.1937332   -3.4280623    358.81019  0.083521925  0.087156987            4 
  359000     1.203728   -3.4170565    360.48683  0.083678465  0.087129759            3 
  360000    1.1987944    -3.453839    360.71697  0.083499298  0.087105402            2 
  361000    1.2110018    -3.422988    361.66645  0.083487177  0.087075754            1 
  362000    1.2108725   -3.4065917     363.9333  0.083778384  0.087050124            4 
  363000    1.1853593   -3.4202415     364.4599  0.083668479  0.087026681            2 
  364000    1.2088964    -3.429403    365.90644  0.083769789  0.087001801            2 
  365000     1.167687   -3.4544421    364.48493  0.083215737  0.086979098            3 
  366000    1.1845441   -3.4208626    369.26655  0.084077083  0.086955464            2 
  367000    1.2043971   -3.4745769     367.6292  0.083476203  0.086930465            2 
  368000    1.2053911   -3.4291437    369.95476  0.083775987  0.086907313            3 
  369000    1.1917233   -3.4011834    371.80602  0.083967033  0.086885201            1 
  370000    1.1764076   -3.4445452    371.38923  0.083646224  0.086863945            1 
  371000    1.1967389   -3.4412143    372.04668  0.083568436  0.086839621            3 
  372000     1.195638   -3.4198502    373.16244  0.083593736  0.086814153            2 
  373000    1.2167636   -3.4397444    373.54303  0.083454654  0.086788037            1 
  374000    1.1967429   -3.4021873    375.59124  0.083687888  0.086766287            2 
  375000    1.1801029   -3.4462119    376.86278  0.083747284  0.086745791            1 
  376000    1.2192776   -3.4367402    378.24196  0.083830221  0.086725063            2 
  377000    1.1764812   -3.4445912     377.3428  0.083409107  0.086703613            1 
  378000    1.1686327   -3.4246574    379.26427  0.083612053  0.086681798            2 
  379000    1.1903039   -3.4520193    379.61259  0.083468028  0.086660758            2 
  380000    1.1631543   -3.4165698    381.20789  0.083598222  0.086638578            2 
  381000      1.22796   -3.4254516    383.81006  0.083947958  0.086619414            2 
  382000    1.1912031   -3.4237753    383.80227  0.083726499   0.08660065            3 
  383000    1.1727134   -3.4498679    384.78867  0.083722513  0.086581018            2 
  384000    1.2149812   -3.4618255    384.29361  0.083397051   0.08655871            2 
  385000    1.1852757    -3.420079    385.36242  0.083411779  0.086536428            1 
  386000    1.1776772   -3.4229829    386.85354  0.083517604  0.086515241            2 
  387000    1.1840273   -3.4220813    388.44118  0.083643665  0.086491249            4 
  388000    1.1715374   -3.4338377    386.49222  0.083009497  0.086465823            1 
  389000    1.1852483   -3.4280315    387.75795  0.083067256  0.086439307            2 
  390000    1.2040633   -3.4660205    388.52533  0.083018234  0.086416067            5 
  391000    1.1842064   -3.4335573    389.11982  0.082932613  0.086389261            2 
  392000    1.1828368   -3.4504784    390.99262  0.083119179  0.086362574            3 
  393000    1.1988677   -3.4471753    392.41711  0.083209736  0.086338111            1 
  394000     1.185162   -3.4445173    393.33548  0.083192784  0.086314624            2 
  395000    1.1976399   -3.4255356    394.75293  0.083281209  0.086293477            2 
  396000    1.2071317   -3.4397919    396.30695  0.083397926  0.086274104            2 
  397000    1.1973935   -3.4574837    394.98087  0.082909502  0.086251176            3 
  398000    1.1606907   -3.4284759     399.4296  0.083632664  0.086230077            2 
  399000    1.1962456   -3.4217194    396.73713   0.08286072   0.08620733            2 
  400000    1.1774488   -3.4532182    399.69246  0.083269263  0.086183244            2 
  401000    1.1539741   -3.4168692    400.70921  0.083272904  0.086161653            3 
  402000    1.1608503   -3.4234227    401.71208  0.083273648  0.086140453            1 
  403000    1.1862998   -3.4518661    402.79356  0.083290645  0.086118869            1 
  404000    1.2073042   -3.4207646    404.21276   0.08337722   0.08609375            1 
  405000    1.2015241   -3.4655863    404.68538  0.083268597  0.086069894            1 
  406000    1.1778737    -3.428864    405.10866  0.083150382  0.086045832            1 
  407000    1.1709781   -3.4421596    405.75277  0.083077963  0.086026028            1 
  408000    1.1839832   -3.4484612    407.87274   0.08330734  0.086006607            1 
  409000    1.1758047   -3.4322901    410.08471  0.083554341  0.085985121            1 
  410000    1.1622546   -3.4701556    408.63025  0.083054928  0.085963658            1 
  411000    1.1805266   -3.4546206    409.79768  0.083089554  0.085941727            1 
  412000    1.1756279   -3.4066429    410.69261  0.083068893  0.085917956            2 
  413000     1.188628   -3.4399762    412.84445  0.083301946  0.085896922            1 
  414000    1.1598299   -3.4086651     413.5151   0.08323573  0.085873323            4 
  415000    1.1724936   -3.4411318    411.38249  0.082606925   0.08584925            2 
  416000     1.177271   -3.4624984    410.54452  0.082240489  0.085823652            3 
  417000    1.1831371   -3.4420734    414.39591  0.082812931  0.085798596            1 
  418000    1.2004702   -3.4426202    414.76392  0.082688182  0.085774951            2 
  419000     1.192844   -3.4508042    415.34855  0.082607111  0.085748734            2 
  420000    1.1825545   -3.4491198    417.04566  0.082747155  0.085721277            1 
  421000    1.1846533   -3.4354542    416.80596  0.082503159  0.085696777            2 
  422000    1.1863216   -3.4226758    418.36946  0.082616402  0.085671383            4 
  423000    1.2030992   -3.4250556    420.33751  0.082808809  0.085646815            1 
  424000    1.1606649   -3.4636054    419.60122  0.082468793  0.085620754            2 
  425000    1.1434886   -3.4755095    419.92683  0.082338595  0.085593202            1 
  426000    1.1833519   -3.4376396    423.20908  0.082787378  0.085566906            3 
  427000    1.2083587   -3.4282147    425.50482  0.083041535  0.085543388            3 
  428000    1.1926877   -3.4142126    425.22652  0.082793326  0.085520562            1 
  429000    1.1995698   -3.4794561    427.03402  0.082951441   0.08549876            2 
  430000    1.1581345   -3.4192678    428.57771  0.083057695  0.085479775            3 
  431000    1.1655364   -3.4192884    429.30362  0.083005341  0.085462931            1 
  432000    1.1922945   -3.4402399    429.28743  0.082810076  0.085443723            3 
  433000    1.1816671   -3.4408339    431.99361  0.083139647  0.085424016            1 
  434000    1.1830119   -3.4484277     434.4566  0.083421005  0.085403873            2 
  435000    1.1602092   -3.4170153    432.79051  0.082910058  0.085383498            1 
  436000    1.1799012   -3.4410702    434.98384  0.083139114  0.085365795            2 
  437000    1.1601834   -3.4455877    435.31255  0.083011546  0.085349022            1 
  438000    1.1868328   -3.4778372    434.24707  0.082619306  0.085330936            3 
  439000    1.1934473    -3.469071    437.70333  0.083087193  0.085313231            1 
  440000    1.1844245   -3.4355972    438.41158  0.083032496  0.085295037            3 
  441000    1.1506728   -3.4572754    437.34196  0.082642094  0.085278427            1 
  442000    1.1571857   -3.4617217    439.17033  0.082799835  0.085262806            2 
  443000    1.1829578   -3.4239069    442.13523  0.083170661  0.085250103            2 
  444000    1.1784317   -3.4458311    446.00204  0.083709092  0.085239161            2 
  445000    1.1800486   -3.4341095    445.41689  0.083411402  0.085228836            1 
  446000     1.178529   -3.4388305    447.01276  0.083522564  0.085218106            3 
  447000     1.193566   -3.4900118    448.27299  0.083570654  0.085208755            1 
  448000    1.2054085   -3.4594575    449.35304  0.083585015  0.085199853            4 
  449000    1.1613316   -3.4178543    450.50652   0.08361294  0.085190923            5 
  450000    1.1669885   -3.4030461    450.95257  0.083509735  0.085183086            2 
  451000    1.1702928    -3.430485    453.11272  0.083723711  0.085176391            1 
  452000    1.1546893   -3.4301704    453.20018  0.083554605  0.085170486            1 
  453000    1.1874831   -3.4088099    455.63898  0.083818796   0.08516082            2 
  454000    1.1798757   -3.4668793    453.34081  0.083212336   0.08515028            1 
  455000    1.1757266   -3.4460117    457.13981   0.08372524  0.085141115            3 
  456000    1.1712284   -3.4165786    459.34719  0.083945027  0.085134611            1 
  457000     1.214837   -3.4410891    457.70592  0.083462057  0.085128455            1 
  458000    1.2054233   -3.4647951     459.2794   0.08356612  0.085121669            1 
  459000    1.1821011   -3.4483544     461.3683  0.083763308  0.085116304            1 
  460000    1.1711909   -3.4321939    462.59832  0.083804044  0.085111124            2 
  461000    1.1979444   -3.4287978    462.40949  0.083588122  0.085103992            2 
  462000    1.1705707   -3.4398667    463.82297  0.083662152  0.085097279            2 
  463000    1.1731743   -3.4701584    463.66437   0.08345291   0.08509112            3 
  464000    1.1727808   -3.4658096    465.73857  0.083645577   0.08508383            1 
  465000    1.1441385   -3.4439058    466.58614  0.083617587  0.085076973            1 
  466000    1.1669722    -3.438265    466.56872  0.083435035  0.085069316            5 
  467000    1.1781233   -3.4670641    470.52648  0.083962612  0.085066146            1 
  468000    1.2083873   -3.4408886    469.92369   0.08367587  0.085062278            2 
  469000    1.1776325   -3.4775291    471.60344  0.083795921  0.085060946            1 
  470000    1.1716836   -3.4335156    474.73063  0.084172097  0.085059495            1 
  471000    1.1413452   -3.4418002    475.05408  0.084050616   0.08505595            1 
  472000    1.1879555   -3.4596791    475.49906  0.083951106  0.085054789            2 
  473000    1.1761436   -3.4100185    477.39224  0.084107159  0.085053082            3 
  474000    1.1719463   -3.4379364    479.69302  0.084334215  0.085052055            2 
  475000    1.1817444   -3.4131354    478.92782  0.084022424  0.085049611            1 
  476000    1.1859577   -3.4769508    478.07443  0.083696504  0.085048887            2 
  477000     1.179632   -3.4300849    482.85818  0.084356775  0.085048528            1 
  478000    1.1862839   -3.4744737    479.55936  0.083605189  0.085045959            3 
  479000    1.1766751   -3.4329672    482.73127  0.083982476   0.08504338            1 
  480000    1.1509457   -3.4567324    480.78524  0.083469659  0.085040658            2 
  481000    1.1616881   -3.4502398    485.74357  0.084155157  0.085036161            3 
  482000    1.1720462   -3.4398013    484.63874  0.083789547  0.085033974            1 
  483000    1.1697409   -3.4391285     488.1025  0.084213681  0.085030842            1 
  484000    1.1691719   -3.4401338    486.33055  0.083734598  0.085028692            3 
  485000    1.1616758   -3.4399561    489.48447  0.084103861  0.085026534            2 
  486000    1.1757721   -3.4589987     491.9315  0.084350394  0.085025171            2 
  487000    1.2131722   -3.4907095    489.34617    0.0837348  0.085024043            1 
  488000    1.1621102   -3.4737094    489.88054  0.083654464   0.08502214            1 
  489000    1.1755586   -3.4709286    491.43898  0.083748974  0.085019054            6 
  490000    1.1685424   -3.4617395     493.7252  0.083966871  0.085017994            1 
  491000    1.1642707   -3.4432737    493.29196  0.083722328  0.085017507            1 
  492000    1.1859069    -3.463426    495.84384   0.08398439  0.085017098            3 
  493000    1.1375292   -3.4719623    498.16221  0.084205917  0.085017571            2 
  494000    1.1565574   -3.4341183    498.36112  0.084069016  0.085018877            1 
  495000    1.1669914   -3.4356654     501.9802  0.084508452  0.085020532            2 
  496000    1.1755957   -3.4514796    503.76888  0.084638589  0.085021964            1 
  497000    1.1719684   -3.4272972    503.74731  0.084464673  0.085023858            1 
  498000      1.19839   -3.4449554    503.83722  0.084310111  0.085024566            2 
  499000    1.1899328   -3.4202143    502.19463  0.083866839  0.085023969            2 
  500000    1.1838163   -3.4397711    505.40392  0.084233987  0.085022767            2 
  501000    1.1766715   -3.4682437    502.87107  0.083644556  0.085019073            1 
  502000    1.1956565   -3.4444141    501.94121  0.083323574  0.085015153            1 
  503000    1.1567518   -3.4976248    502.81877  0.083303308  0.085008347            3 
  504000    1.1609748   -3.4702049    504.37847  0.083395911  0.085000291            2 
  505000    1.1721213   -3.4804174    504.44512  0.083241768   0.08499165            2 
  506000    1.1682026   -3.4794019    505.20666  0.083202678  0.084984346            6 
  507000    1.1740268   -3.4615243    506.02597  0.083173236  0.084974639            4 
  508000    1.1823752   -3.4899335    505.88481  0.082986354  0.084963562            2 
  509000    1.1763755   -3.4663723    508.82641  0.083304912  0.084951875            1 
  510000    1.1854138   -3.4787106    509.12007  0.083189554  0.084939091            3 
  511000    1.1573634   -3.4509742    510.46574  0.083246206  0.084924891            1 
  512000    1.1615179   -3.4707215    509.68605  0.082956714   0.08491062            1 
  513000    1.1682241   -3.4505067    513.36692  0.083392938  0.084895126            1 
  514000    1.1531097   -3.4738466    509.18394   0.08255252  0.084880881            3 
  515000    1.1615403    -3.459761    510.48151  0.082602185  0.084865734            1 
  516000     1.197155   -3.4626789    513.77561  0.082974097  0.084850741            4 
  517000    1.1314856   -3.4784546    512.87213  0.082667977   0.08483544            4 
  518000    1.1838796   -3.4334845    514.24028  0.082728487  0.084819774            2 
  519000    1.1420243   -3.4417903    514.72498  0.082646914  0.084805158            2 
  520000    1.1865332    -3.457656    515.21937  0.082567207  0.084788873            1 
  521000    1.1876735   -3.5172408    515.94403  0.082524637  0.084770585            2 
  522000    1.1878045   -3.4500097    518.00154  0.082695009   0.08475306            1 
  523000    1.1835606   -3.4535755    519.95671  0.082848424  0.084736931            1 
  524000    1.1530526   -3.4760912    518.49087  0.082457199  0.084720763            2 
  525000    1.1839815   -3.4477686    520.30033  0.082587354  0.084704879            2 
  526000    1.1576778   -3.4703882    523.01693  0.082860729    0.0846886            5 
  527000    1.2058077   -3.4710798    522.46436  0.082616122  0.084671814            2 
  528000    1.1299965   -3.4682138    523.74989  0.082662545  0.084655029            2 
  529000    1.1644911   -3.4408738    524.82111  0.082675033   0.08463924            3 
  530000     1.166987   -3.4419036    525.64972  0.082649327   0.08462395            2 
  531000     1.155103   -3.4472164    530.10805  0.083193353  0.084609355            2 
  532000     1.166445   -3.4323151    531.12944  0.083196968  0.084596154            1 
  533000    1.1553352   -3.4753642      529.202  0.082739525  0.084582617            2 
  534000    1.1683201   -3.4664614    527.15071  0.082264467  0.084567769            2 
  535000    1.1599607   -3.4766142    526.89571  0.082070983  0.084552048            2 
  536000    1.1824149   -3.4609158    531.95599    0.0827046  0.084536204            4 
  537000     1.172683   -3.4705823    532.82686  0.082685733  0.084520471            1 
  538000     1.165483   -3.4648294    533.06737  0.082569295  0.084504895            1 
  539000    1.2110659   -3.4870851    534.19756  0.082590842  0.084490496            1 
  540000     1.147187   -3.4690526    533.40502  0.082315589  0.084475648            1 
  541000    1.1670365    -3.460427     536.2689  0.082604574  0.084461378            3 
  542000    1.1949944   -3.4857027    537.40171   0.08262634  0.084447588            4 
  543000    1.1635999   -3.4820855    536.26516  0.082299748  0.084432874            4 
  544000    1.1728807   -3.4583842    537.23886  0.082297619  0.084417566            7 
  545000     1.179754   -3.4648119    538.44152  0.082330508  0.084402368            2 
  546000     1.139943   -3.4784732    540.85032  0.082547363  0.084387451            1 
  547000    1.1539909   -3.4715193    540.94605  0.082411037  0.084371921            2 
  548000    1.1459912   -3.4606401    540.07645  0.082128413  0.084356734            2 
  549000    1.1585471   -3.4735874     541.7765   0.08223687  0.084340575            4 
  550000    1.1850116   -3.4774097     541.4526  0.082038273   0.08432444            1 
  551000    1.1327275   -3.4727173    543.63015  0.082218716  0.084308861            2 
  552000    1.1560713   -3.4691098    544.21901  0.082158666   0.08429195            1 
  553000    1.1327256   -3.4775117    545.56774  0.082213342  0.084274835            3 
  554000    1.1824111   -3.4554951    548.94587  0.082573085   0.08425856            1 
  555000    1.1773829   -3.4613035    548.51147  0.082359079  0.084242653            4 
  556000    1.1574948    -3.455624    547.55881  0.082068166  0.084226934            2 
  557000    1.1605994   -3.4740898    549.23597  0.082171748   0.08421016            5 
  558000    1.1888601   -3.4758231     550.6607  0.082237261   0.08419428            2 
  559000     1.167784   -3.4935201    548.32639  0.081742156  0.084176716            3 
  560000    1.1756777   -3.4798443    550.14358  0.081866604   0.08415914            3 
  561000    1.1603942   -3.4642387    555.49142  0.082515065  0.084142599            1 
  562000    1.1527986   -3.4651885    551.20644  0.081732865  0.084124785            2 
  563000    1.1836068   -3.5277568    549.72045  0.081367739  0.084104821            2 
  564000    1.1457497   -3.4929737    554.56909  0.081939878  0.084085965            2 
  565000      1.16539   -3.4680461     557.4542  0.082220384  0.084067034            2 
  566000    1.1520975   -3.4618274    559.16651  0.082327225  0.084049618            1 
  567000    1.1805282   -3.4798379    558.18968   0.08203846  0.084032483            1 
  568000    1.1545249   -3.4546354     561.3209  0.082353418  0.084016253            1 
  569000    1.1375483   -3.4531745    561.23323  0.082195844  0.084001032            3 
  570000    1.1654346   -3.4174171    563.29082  0.082352458  0.083985427            2 
  571000    1.1354336   -3.4405179    564.22039  0.082343898  0.083970805            1 
  572000    1.1657737    -3.467901    563.91295  0.082155151  0.083956693            1 
  573000    1.1426315   -3.4799646    563.08205  0.081890933  0.083939886            3 
  574000    1.1577053   -3.4667619    566.76419  0.082282838  0.083923999            2 
  575000    1.1369385   -3.4475845    565.33147  0.081932097  0.083908857            3 
  576000    1.1755294   -3.4666858     566.4741  0.081955165  0.083893101            3 
  577000    1.1579174   -3.4614601    566.43238  0.081807102   0.08387777            2 
  578000    1.1637646   -3.4663186    568.27374  0.081931047  0.083862346            2 
  579000    1.1649525   -3.4919895    569.57968  0.081977501  0.083846498            2 
  580000    1.1694016   -3.4762151    570.40168  0.081954264  0.083832337            1 
  581000     1.154204   -3.4863256    573.39472  0.082242502  0.083817435            2 
  582000    1.1646932   -3.4486277     574.2906  0.082229468  0.083803125            4 
  583000    1.1644907   -3.4549691    575.95466  0.082326281  0.083788365            2 
  584000    1.1519688   -3.4751738    576.81335  0.082307841  0.083774738            4 
  585000    1.1537891   -3.4669033    577.57212  0.082275231  0.083760587            3 
  586000    1.1568406   -3.4740882    575.36771  0.081821347  0.083745651            2 
  587000    1.1609777   -3.4857286    574.75601  0.081595118  0.083729851            1 
  588000    1.1656036   -3.4734098    579.56163  0.082137419  0.083715724            3 
  589000    1.1822245   -3.4592849    578.84026  0.081895905  0.083701613            3 
  590000    1.1820456   -3.4814203    580.90637  0.082048922  0.083686983            1 
  591000     1.159977   -3.4577565    582.10424  0.082078996  0.083672545            2 
  592000    1.1467308   -3.4831025    581.96581  0.081920863  0.083657211            2 
  593000    1.1409765   -3.4876797    580.09063    0.0815192  0.083641039            3 
  594000    1.1711942   -3.5061472    581.45597  0.081573509    0.0836243            2 
  595000    1.1461712   -3.4609717    583.14015   0.08167229    0.0836093            2 
  596000    1.1500213    -3.454884    585.34354  0.081843336   0.08359376            2 
  597000    1.1558261   -3.4792524    585.56372   0.08173698  0.083578867            2 
  598000    1.1843245   -3.4849047    585.68592  0.081617325  0.083563056            1 
  599000    1.1650182   -3.5073668    586.07658  0.081535417   0.08354774            3 
  600000    1.1354311   -3.4875904    589.82558  0.081920219  0.083532915            2 
  601000    1.1595962   -3.4714819    590.43959   0.08186905  0.083518389            2 
  602000    1.1790198    -3.500294    590.88581  0.081794824  0.083502356            1 
  603000    1.1592349      -3.4705    591.75705  0.081779582  0.083487449            1 
  604000    1.1548192    -3.496358    591.14749  0.081560084  0.083470839            2 
  605000    1.1587013   -3.4736424    595.05604  0.081963642  0.083455287            3 
  606000    1.1486744   -3.4851108    591.80592  0.081381452  0.083440285            3 
  607000     1.161477   -3.4557357    596.00432  0.081823767  0.083424546            3 
  608000    1.1547244   -3.5180111    593.56686  0.081355107   0.08340853            2 
  609000    1.1497531   -3.4912947    597.42319  0.081749205  0.083393437            2 
  610000    1.1454252   -3.4859522    597.12469  0.081574411  0.083378981            2 
  611000    1.1533227   -3.4764779    597.46786  0.081487706  0.083365024            2 
  612000    1.1763176   -3.5027619    600.94905  0.081828574  0.083351175            1 
  613000    1.1349217   -3.4977099    600.96108  0.081696721   0.08333701            2 
  614000    1.1404251   -3.5148037    599.98316  0.081430939  0.083323564            5 
  615000    1.1686827   -3.4993466    603.98391  0.081840638  0.083308306            1 
  616000    1.1204067    -3.483559    603.64209  0.081661538  0.083293713            2 
  617000    1.1477872   -3.4921653    605.59475  0.081792916  0.083278883            4 
  618000    1.1700157      -3.4856    608.72091  0.082082108  0.083264729            1 
  619000    1.1585457   -3.4959045    606.71236  0.081679101  0.083249075            4 
  620000    1.1408489   -3.4654694    607.70133  0.081680287  0.083233297            1 
  621000    1.1573913   -3.5128505    605.63072  0.081270896  0.083218059            2 
  622000    1.1492925   -3.4755832    611.07392  0.081869497  0.083203601            1 
  623000    1.1580066   -3.4596569    610.93345  0.081719295  0.083189922            4 
  624000    1.1686662   -3.4773157    610.24552  0.081496464  0.083176736            2 
  625000    1.1413847   -3.4878696    615.38443  0.082051257  0.083163871            2 
  626000    1.1812426   -3.4770754    614.14924  0.081755756  0.083151959            5 
  627000    1.1716023     -3.49368    614.41512  0.081660701  0.083139481            1 
  628000    1.1481024   -3.4811254    615.93005  0.081731695  0.083128023            2 
  629000    1.1318599   -3.4975579    616.81276  0.081718701  0.083115225            1 
  630000    1.1519291   -3.4769467    617.67393  0.081702901  0.083102444            2 
  631000    1.1813988   -3.4916534    618.18473  0.081640878  0.083089047            3 
  632000    1.1641627   -3.5049094    616.64003  0.081308021  0.083075265            3 
  633000    1.1358903   -3.4843784    621.32481  0.081796316  0.083062048            1 
  634000    1.1488218   -3.5014243    620.05003  0.081499741  0.083049761            1 
  635000    1.1192973   -3.5041752    619.80255  0.081338917  0.083035244            2 
  636000    1.1554282   -3.4775207    624.16003  0.081781974  0.083021808            1 
  637000    1.1526832   -3.4893866    624.01441  0.081634538  0.083008256            1 
  638000    1.1171731   -3.4669882    623.04706  0.081380232  0.082994405            4 
  639000    1.1544044   -3.4926549    625.82304  0.081614898  0.082980214            3 
  640000    1.1514826   -3.4877718    622.50529  0.081055376  0.082965831            3 
  641000    1.1558577     -3.46853    627.72673  0.081607739  0.082950682            3 
  642000    1.1496572    -3.504883    625.71969  0.081220105  0.082936146            1 
  643000    1.1645064   -3.5084878    627.45241  0.081318353  0.082919976            1 
  644000    1.1467756   -3.4997955    625.88264  0.080988954  0.082903773            2 
  645000    1.1451853   -3.4659917    630.22772   0.08142477   0.08288897            3 
  646000    1.1475449   -3.4964213    628.92791  0.081131051  0.082872787            1 
  647000    1.1316955   -3.4668768    630.56604  0.081216647  0.082857194            2 
  648000    1.1710535   -3.4971555    632.23388  0.081305797   0.08284154            2 
  649000    1.1481291   -3.4705528    631.23556  0.081052332  0.082824932            2 
  650000    1.1598987   -3.5323208    630.84849  0.080878011  0.082809288            2 
  651000    1.1498887   -3.4977202    634.63331  0.081238263  0.082794205            4 
  652000    1.1607617   -3.4923634    636.18689   0.08131223  0.082780344            2 
  653000    1.1595972   -3.4915941    636.11776  0.081178887  0.082763596            2 
  654000    1.1503672   -3.5132335    636.46143  0.081098551  0.082747569            3 
  655000    1.1379703   -3.4600456     635.8275  0.080894084  0.082731295            1 
  656000    1.1573558   -3.4505195    638.78182  0.081146064  0.082716342            2 
  657000    1.1709706   -3.4986818    640.14754  0.081195781  0.082701388            2 
  658000    1.1455544   -3.5120035    640.49987  0.081117005    0.0826855            1 
  659000    1.1410106   -3.4829605    639.84021  0.080910497   0.08266917            1 
  660000    1.1354558   -3.4978891    644.75691    0.0814087  0.082653895            2 
  661000    1.1635908   -3.4897305    639.63273  0.080639527  0.082638218            4 
  662000    1.1657607   -3.5261141    643.18969   0.08096547  0.082622431            3 
  663000    1.1635432   -3.5079673    643.98348  0.080943122  0.082607201            1 
  664000    1.1472954   -3.4928732    647.45565  0.081256985  0.082591936            3 
  665000    1.1872432   -3.5157903    647.75812  0.081172697  0.082576851            2 
  666000    1.1222728   -3.5041502    646.76373  0.080926393  0.082563161            3 
  667000    1.1287101   -3.5014266    652.03144  0.081463198   0.08254951            4 
  668000    1.1464706   -3.4855945    652.21781  0.081364497  0.082536212            3 
  669000    1.1686654   -3.5146496    651.10307   0.08110402  0.082523942            1 
  670000    1.1182216   -3.5416967     649.2567  0.080753321  0.082509708            2 
  671000     1.171881   -3.5013101    652.76837  0.081069097   0.08249455            1 
  672000    1.1551966    -3.468959    655.29826  0.081262185  0.082479177            1 
  673000    1.1480782   -3.5024508    651.92531  0.080723788  0.082463608            4 
  674000    1.1601581   -3.5057709     651.4798  0.080548937  0.082447709            2 
  675000    1.1837196   -3.4817741     655.7223  0.080953371  0.082431463            1 
  676000    1.1572891    -3.484466      655.507  0.080807075  0.082415664            3 
  677000      1.13794   -3.5128263    653.62409  0.080455944   0.08239955            3 
  678000    1.1030356   -3.4823324    656.18808  0.080652419  0.082383993            4 
  679000    1.1683501   -3.5177246    654.96296  0.080383279  0.082366362            1 
  680000    1.1310515   -3.4649755    658.33941  0.080678849  0.082348593            2 
  681000    1.1351971   -3.4993864    660.57244  0.080833632  0.082331382            5 
  682000    1.1510997    -3.490226    659.32703  0.080562931  0.082313539            2 
  683000     1.143415   -3.4888354    659.32083  0.080444221  0.082294897            2 
  684000    1.1472157   -3.4987147    658.61355  0.080240442  0.082277177            2 
  685000    1.1330998   -3.5014213      662.363   0.08057944  0.082258648            3 
  686000    1.1462549   -3.4926802    662.75446  0.080509531  0.082240351            4 
  687000    1.1353392   -3.5060862    663.31616  0.080460475  0.082220657            1 
  688000    1.1482512   -3.4795219    661.63312  0.080139671  0.082199959            1 
  689000    1.1626498   -3.4773587    664.58992  0.080380977  0.082181172            1 
  690000     1.122761   -3.4876093    664.26769  0.080225567  0.082161796            1 
  691000    1.1471884   -3.5167451    662.73357  0.079924453  0.082141354            3 
  692000    1.1201878   -3.4864496    666.36058  0.080245735  0.082122919            2 
  693000    1.1479226   -3.5067869    668.35597  0.080369886  0.082104251            1 
  694000     1.156849   -3.4931914    667.87227  0.080195997  0.082084953            4 
  695000     1.144893   -3.4951528     669.5825  0.080285671   0.08206593            6 
  696000    1.1638272   -3.5142719    671.09064  0.080350891  0.082047763            2 
  697000    1.1399694   -3.5037348    671.15147  0.080242882  0.082029389            2 
  698000     1.151241   -3.5407515    670.02592  0.079993544  0.082010344            1 
  699000    1.1641019   -3.5071425     670.9136  0.079984931  0.081992429            3 
  700000    1.1497466   -3.5005324    675.07769  0.080366392  0.081975074            1 
  701000    1.1199543   -3.5301965     675.0457  0.080247944  0.081956511            2 
  702000    1.1625645   -3.5197305    675.72264  0.080213988  0.081938097            3 
  703000    1.1252384   -3.4863064    678.17377  0.080390442  0.081920458            3 
  704000    1.1313773   -3.5134967    674.92468  0.079891652   0.08190145            2 
  705000     1.138953    -3.499499     676.7257  0.079991217  0.081883338            1 
  706000    1.1365888   -3.5068121      680.918  0.080372757  0.081866395            1 
  707000    1.1468175   -3.5014521    679.62241  0.080106366  0.081848601            1 
  708000    1.1507801   -3.5071807    681.82696  0.080252702   0.08183097            3 
  709000    1.1329216    -3.489623    682.44592  0.080212262  0.081813324            1 
  710000    1.1135003   -3.5344743    680.23489  0.079839776  0.081795218            1 
  711000    1.1193566   -3.4734095    683.82619  0.080148404  0.081777417            1 
  712000    1.1149551   -3.5258254    684.42774  0.080106243  0.081759282            1 
  713000    1.1359756   -3.4893408    683.91139  0.079933542   0.08174193            1 
  714000    1.1404826   -3.5070828    687.85029  0.080281313  0.081724543            1 
  715000    1.1644681    -3.537119    687.07498  0.080078669  0.081707349            1 
  716000    1.1379543   -3.5304068     690.2338  0.080334474  0.081690018            4 
  717000    1.1298308   -3.4947367    692.38706  0.080472694  0.081673904            6 
  718000    1.1525335   -3.4838289    691.89264  0.080303232   0.08165822            2 
  719000    1.1251535   -3.4992778     691.7236  0.080171952  0.081642127            2 
  720000     1.137527   -3.5209543     691.4354  0.080027245  0.081624319            2 
  721000    1.1625401    -3.517295    696.43971  0.080494649  0.081607059            2 
  722000    1.1166811    -3.500806     691.7371  0.079840386  0.081589166            3 
  723000    1.1221976   -3.4979682    691.18202  0.079665977  0.081571329            3 
  724000    1.1489288   -3.5026885    690.84849  0.079517551  0.081552602            2 
  725000    1.1262785   -3.5220257    691.71013  0.079506911  0.081533666            1 
  726000    1.1253788   -3.5153058    689.70566  0.079167316  0.081514569            4 
  727000    1.1254359   -3.4990685    694.50789  0.079608882  0.081496096            2 
  728000    1.1217167   -3.4767203    695.15786  0.079573931  0.081476749            2 
  729000    1.1285718   -3.5120974    695.38577  0.079490828  0.081457347            1 
  730000    1.1727538   -3.5107422    695.96925  0.079448544  0.081436527            3 
  731000     1.125203   -3.5270789    696.01574   0.07934516  0.081415925            2 
  732000    1.1135539   -3.5496158    696.35805  0.079275735  0.081395285            1 
  733000    1.1300827   -3.5178674    698.68342  0.079431948  0.081375538            2 
  734000    1.1369229   -3.5187521    701.77597  0.079674838  0.081355805            1 
  735000    1.1167742   -3.4918392    703.19524  0.079727351  0.081334485            1 
  736000    1.1229938   -3.5370953    698.93339  0.079136479  0.081313985            1 
  737000    1.1300755   -3.5624353    699.27868  0.079068146   0.08129365            6 
  738000    1.1435033   -3.5055013    701.51482  0.079213507  0.081273776            1 
  739000     1.147159    -3.507401    700.47607  0.078989183  0.081253774            4 
  740000    1.1350653   -3.4979882     706.7234  0.079585969  0.081233677            3 
  741000    1.1308945   -3.5075648    705.72417  0.079366191  0.081214314            2 
  742000    1.1496314   -3.4876232     705.2251  0.079203178  0.081193741            3 
  743000    1.1194547   -3.5364446    706.18781  0.079204555  0.081173477            1 
  744000    1.1291658   -3.5267015    708.68284  0.079377559  0.081152431            4 
  745000    1.1135442   -3.5039427     710.7287  0.079499854    0.0811325            4 
  746000    1.1429032   -3.5091589    708.54051   0.07914885  0.081112053            2 
  747000    1.1138861   -3.5173794    712.13437  0.079443816  0.081090741            2 
  748000    1.1378794   -3.5419026    710.23368  0.079125856  0.081070878            3 
  749000    1.1266415   -3.5015736    710.78725  0.079081804  0.081050597            3 
  750000    1.1268894   -3.5190648    711.00839  0.079000932   0.08103014            2 
  751000    1.1410757   -3.5159971    713.75543  0.079200558  0.081010775            2 
  752000    1.1491783   -3.5228242    718.18715  0.079586342  0.080991463            3 
  753000     1.134095   -3.5343956    715.19328  0.079149323  0.080973162            1 
  754000     1.116357   -3.5294418    715.86009  0.079118047  0.080954612            1 
  755000    1.1377873   -3.5301623     716.9674  0.079135475  0.080935425            2 
  756000    1.1218336   -3.4939481    717.66009  0.079107153   0.08091648            2 
  757000    1.1199641    -3.512252    720.60843  0.079327216  0.080897333            1 
  758000    1.1351385   -3.5339605    720.04009  0.079160081   0.08087915            1 
  759000    1.1210634   -3.5220504    721.45303  0.079210917  0.080860458            2 
  760000    1.1330254   -3.4988774     723.4136  0.079321666  0.080841209            1 
  761000    1.1337011   -3.5011928     723.0673  0.079179512  0.080822115            2 
  762000    1.1431281    -3.544853    721.90589  0.078948588  0.080803464            1 
  763000    1.1700106   -3.5005277    723.58177  0.079028153  0.080784834            2 
  764000    1.1365405   -3.5266504    721.06772  0.078650493   0.08076643            1 
  765000    1.1207887   -3.5384902    727.27666  0.079224037  0.080747265            4 
  766000    1.1054341   -3.5089668    731.43876  0.079573408  0.080729317            1 
  767000    1.1450129   -3.5161511    726.64899   0.07894926  0.080711256            3 
  768000    1.1352645   -3.4966093    728.90771  0.079091548  0.080692708            2 
  769000    1.1171047   -3.5416635     728.7482  0.078971413   0.08067317            2 
  770000    1.1329651   -3.5225016     724.9956  0.078462728  0.080653675            2 
  771000    1.1334374   -3.4965872    730.76227  0.078984248  0.080633306            2 
  772000    1.1099821   -3.5291796    725.24187  0.078286039  0.080613342            2 
  773000    1.1250313   -3.5106532    730.60369  0.078762795  0.080593267            3 
  774000    1.1310613   -3.5056154    731.80673  0.078790561  0.080573296            2 
  775000    1.1240638   -3.5099918    731.22084  0.078625897  0.080553381            1 
  776000    1.1091061   -3.5086979    734.06419  0.078829917  0.080533421            1 
  777000    1.1197533   -3.5487326    732.72388  0.078584715  0.080513769            2 
  778000    1.1446827   -3.5207583    738.04963  0.079054159  0.080494313            2 
  779000    1.1323543   -3.5066711    737.99805   0.07894716  0.080474027            3 
  780000     1.126903   -3.5309443     738.2743  0.078875459  0.080454277            3 
  781000    1.1292856   -3.5288008     738.2064  0.078767222  0.080436022            1 
  782000    1.1136328   -3.5232466    740.29605  0.078889179  0.080417314            2 
  783000     1.127246   -3.5019659    740.22784  0.078781167  0.080398498            1 
  784000    1.1024261   -3.5054867    742.48781  0.078920898  0.080380834            1 
  785000    1.1202486   -3.5231527    744.98261  0.079085202  0.080363317            1 
  786000    1.1253802   -3.5098661    746.19083  0.079112683  0.080346017            2 
  787000    1.1131414   -3.5207492    745.91765  0.078983232  0.080328716            2 
  788000     1.107654   -3.5452474    744.74511     0.078759  0.080310749            1 
  789000    1.1660122   -3.5399249    745.39537  0.078727859   0.08029295            1 
  790000    1.1235396    -3.523851    747.06403  0.078804222  0.080275869            1 
  791000      1.13478   -3.4835331    748.87753  0.078895652  0.080258069            3 
  792000    1.1351519   -3.5451717    749.23255  0.078833391  0.080240165            3 
  793000    1.1135711   -3.5478074    747.88702  0.078592583  0.080221419            3 
  794000    1.1144522   -3.5038568    751.95985  0.078921059  0.080203009            3 
  795000     1.127912   -3.4946124    750.91626  0.078712397    0.0801837            1 
  796000    1.1318117   -3.5134022    755.32988  0.079075573   0.08016481            3 
  797000    1.1311898   -3.5207903    754.50978  0.078890609  0.080147016            2 
  798000    1.1219196   -3.5488341    752.77766  0.078610867  0.080130082            3 
  799000     1.122363   -3.5341929     754.0494  0.078645119  0.080114295            6 
  800000    1.1179954    -3.527907    759.60939  0.079125978  0.080098072            4 
  801000    1.1041586   -3.5330998    759.88355  0.079055717  0.080083363            2 
  802000    1.1206814   -3.5112602    759.81994  0.078950534  0.080068252            2 
  803000    1.1223629   -3.5147556    760.70155  0.078943706  0.080053122            3 
  804000     1.124722   -3.5084651    760.97505  0.078873865  0.080035753            2 
  805000    1.1395295   -3.4723676    761.79903  0.078861183  0.080019337            2 
  806000    1.1110263   -3.5359414    759.24522  0.078499299  0.080003735            4 
  807000    1.1275592   -3.5604178    760.54981  0.078536742  0.079987786            2 
  808000    1.1361629   -3.5115569     765.2058   0.07891974   0.07997213            2 
  809000    1.1413213   -3.5404135    762.58151  0.078551865  0.079956166            2 
  810000    1.1175633   -3.5127802    764.20627  0.078622044  0.079940232            2 
  811000    1.1270382   -3.5348909    768.34862  0.078950742  0.079924184            3 
  812000    1.1030723   -3.5386063    769.48148  0.078969775  0.079907612            2 
  813000     1.100693   -3.5329099     766.8244  0.078600287  0.079890438            2 
  814000    1.1019557      -3.4998    771.08024  0.078939418  0.079874605            2 
  815000    1.1358075   -3.5440937    769.44368  0.078675223  0.079859427            1 
  816000    1.0865793   -3.5269317    771.31744  0.078770164  0.079843816            3 
  817000    1.1249156   -3.5453752    773.53857  0.078900303  0.079827831            1 
  818000    1.1010349   -3.5188892    774.76833  0.078929129  0.079812412            1 
  819000    1.1440556   -3.5417891    771.71019  0.078521591  0.079797677            2 
  820000    1.1032625   -3.5293125    775.16747  0.078777182  0.079781521            3 
  821000    1.1139725   -3.5148787    774.97004   0.07866119  0.079766655            4 
  822000    1.1125506   -3.5525232    772.02403  0.078266831  0.079751205            2 
  823000    1.1208916   -3.5306872    778.85381  0.078863285  0.079735512            2 
  824000    1.1185103   -3.5044232    779.88232  0.078871594  0.079719773            1 
  825000    1.1139263   -3.5233509    776.85986  0.078470693  0.079703822            1 
  826000    1.1259006   -3.5110123    778.81497  0.078572939  0.079687888            2 
  827000    1.1107912   -3.5203998    776.93032  0.078288021  0.079671169            4 
  828000    1.1326122   -3.5204871    782.56545  0.078760613  0.079654951            2 
  829000    1.1256169   -3.5377434    778.55452  0.078262416  0.079639224            3 
  830000    1.0994701   -3.5547432    783.03057  0.078617527   0.07962323            2 
  831000    1.1165081    -3.568995    784.22351   0.07864255  0.079607331            4 
  832000    1.1353535   -3.5362782    781.21257  0.078246451  0.079590392            2 
  833000    1.1054756   -3.5116366    784.39334  0.078470722    0.0795739            1 
  834000    1.1351986   -3.5262887    782.40447  0.078177904  0.079557925            2 
  835000    1.1411414   -3.5450483    786.79806  0.078522761  0.079541215            2 
  836000    1.1204773   -3.5201053    785.69857  0.078319236  0.079524464            2 
  837000    1.1078031   -3.5219711      789.774  0.078631421  0.079508633            2 
  838000    1.1241807   -3.5194099    788.06624  0.078367764  0.079492755            1 
  839000    1.1112383   -3.5169718     784.4364  0.077913826   0.07947574            5 
  840000    1.1126717   -3.5123975    789.30055  0.078303625   0.07945915            1 
  841000    1.1279163   -3.5332676    791.60847  0.078439206  0.079444013            2 
  842000    1.1204583   -3.5479037    790.76806  0.078262872  0.079428169            3 
  843000    1.1075045   -3.5249567    790.28551  0.078122332  0.079413196            3 
  844000    1.0989746    -3.553883    792.19026  0.078217837  0.079397156            3 
  845000    1.1351312   -3.5699801    793.78414   0.07828246  0.079381187            4 
  846000    1.1017075   -3.5115622    798.67308  0.078671501  0.079365738            4 
  847000    1.1295543    -3.550148    795.96988   0.07831266  0.079350972            1 
  848000    1.1228869   -3.5014538    796.80865  0.078302737  0.079336363            3 
  849000    1.1098972    -3.576775    795.21174  0.078053763  0.079321396            2 
  850000    1.1098206   -3.5216992    799.93015  0.078424525  0.079305224            2 
  851000    1.1165103   -3.5396451    802.79512  0.078612918  0.079289493            2 
  852000    1.0965636   -3.5548624    797.96113  0.078047841  0.079273639            3 
  853000    1.0963494   -3.5128351    800.26741  0.078181654  0.079256883            3 
  854000    1.0963541   -3.5201167    800.44831  0.078107759  0.079240907            3 
  855000    1.1171473   -3.5557082    799.57462  0.077931249  0.079225591           10 
  856000    1.0920944   -3.5495268    803.94725  0.078265893  0.079211032            1 
  857000    1.1039179   -3.5275893    803.58778  0.078139613  0.079195854            3 
  858000    1.1582042   -3.5010336     802.4878  0.077941705  0.079181436            1 
  859000    1.1090614   -3.5631603    802.87287  0.077888326  0.079165987            4 
  860000    1.1052172   -3.4748027    810.19699   0.07850746  0.079151477            3 
  861000     1.117754   -3.5279064    808.68206  0.078269654  0.079136604            2 
  862000    1.1501813   -3.5292996    809.22523  0.078231364   0.07912164            2 
  863000    1.0923595   -3.5315782    807.52771  0.077976797   0.07910738            2 
  864000    1.1363771    -3.540304    806.62618  0.077799593  0.079092227            2 
  865000    1.1008583   -3.5275143    808.81526  0.077920545  0.079076194            1 
  866000    1.1238744   -3.5608869    809.23852  0.077871297  0.079060495            2 
  867000    1.0941248   -3.5415779    810.80541  0.077932085  0.079043932            3 
  868000    1.1151192   -3.5330265    812.91591  0.078044922  0.079028314            2 
  869000    1.0945982   -3.5662217    812.11959  0.077878749   0.07901209            3 
  870000    1.1029594   -3.5244055    814.22284  0.077990694  0.078996238            3 
  871000    1.0989044   -3.5458694    811.65257   0.07765524  0.078980155            4 
  872000    1.1033486   -3.5532102    815.18953  0.077904198   0.07896312            2 
  873000    1.0932668   -3.5436164    812.00084  0.077510581  0.078946692            4 
  874000    1.1126744   -3.5377323    815.61201   0.07776621  0.078930479            3 
  875000    1.1437872   -3.5135066    818.14263  0.077918346  0.078915093            1 
  876000     1.127602   -3.5287461     822.3625  0.078230831  0.078899854            2 
  877000    1.0916631   -3.5428458    817.20112   0.07765119  0.078884707            4 
  878000    1.1169015   -3.5327642    820.98716  0.077922091  0.078869657            1 
  879000    1.0935566   -3.5437997    824.15197  0.078133482  0.078854676            2 
  880000    1.1029449   -3.5571153    821.19128  0.077764326  0.078839284            2 
  881000    1.1268519   -3.5385084    821.73155  0.077727162  0.078823734            4 
  882000    1.1171468   -3.5470046    823.91354  0.077845195  0.078809357            2 
  883000    1.1202793   -3.5626743    823.78199   0.07774462  0.078795034            3 
  884000    1.0997632   -3.4932795    833.59595   0.07858182  0.078781079            1 
  885000    1.1395392   -3.5299835    826.84362  0.077857215  0.078767125            1 
  886000    1.0948908   -3.5370655    825.20459   0.07761518  0.078752604            2 
  887000    1.1217488    -3.541977    830.50652  0.078025791  0.078737195            2 
  888000    1.1172186   -3.5406566    828.48378  0.077748103  0.078722815            3 
  889000    1.1013421   -3.5404653    829.81522  0.077785454  0.078707559            1 
  890000    1.1305889    -3.553946    831.18706  0.077826504   0.07869266            3 
  891000    1.0978189   -3.5380728    830.46876  0.077671976  0.078677101            1 
  892000    1.0778935   -3.5755267    830.00999   0.07754204  0.078661612            1 
  893000    1.1246352   -3.5681487    833.95773  0.077823603  0.078645524            1 
  894000    1.1099395    -3.531397    831.84728  0.077539828  0.078629839            2 
  895000    1.1147324    -3.549523    833.86323  0.077640897  0.078614139            3 
  896000    1.1158639   -3.5488724     835.9705  0.077750233  0.078598564            1 
  897000    1.1201037   -3.5766125    836.40255  0.077703693  0.078582732            3 
  898000    1.1274506   -3.5577205    835.91848  0.077572242  0.078566892            2 
  899000     1.111916   -3.5493717    836.09099  0.077501946  0.078551505            2 
  900000    1.1364373   -3.5333236    836.34756  0.077439589  0.078535783            1 
  901000    1.1121194   -3.5418611    836.68089   0.07738447  0.078520164            2 
  902000    1.0994473   -3.5285857    838.61476  0.077477343  0.078504114            3 
  903000    1.0976452   -3.5159822    842.94123  0.077790811  0.078489314            3 
  904000    1.1197437    -3.554109    842.29757  0.077645425  0.078474961            1 
  905000    1.0941254   -3.5500401    843.55927  0.077675807  0.078459889            3 
  906000    1.1025763   -3.5507901    845.68081   0.07778521  0.078445551            2 
  907000    1.1101934   -3.5610884    844.17942  0.077561505  0.078431358            4 
  908000    1.1178605   -3.5696571    849.80892  0.077992742  0.078417709            1 
  909000    1.1173812   -3.5463497    851.43061  0.078055611  0.078405503            2 
  910000    1.1083451   -3.5612699    847.68964  0.077627256  0.078392579            2 
  911000    1.0975332   -3.5745798    850.42907  0.077792634  0.078379717            1 
  912000    1.1160091   -3.5592969    850.35017  0.077700125  0.078367205            2 
  913000    1.0898135   -3.5422782    852.27193  0.077790428  0.078354077            1 
  914000    1.0849245   -3.5449164    854.93253  0.077947897  0.078341269            3 
  915000    1.1112625   -3.5434927    850.16033  0.077428081  0.078327652            2 
  916000    1.1011754   -3.5525407    852.37247  0.077544803  0.078314723            4 
  917000     1.108933    -3.546733     853.4259  0.077555971  0.078301339            3 
  918000    1.1253348   -3.5672868    851.57765  0.077303708  0.078287832            4 
  919000    1.1141453   -3.5660048    855.00705  0.077530563  0.078274083            2 
  920000    1.1231365    -3.564925    854.03921  0.077358624  0.078260797            2 
  921000    1.1151604    -3.544763    855.65454  0.077420787  0.078246692            2 
  922000    1.1036498   -3.5503049    858.50729  0.077594658  0.078233654            4 
  923000    1.1006347   -3.5626027    857.53956  0.077423218  0.078219754            2 
  924000    1.1051794   -3.5652897    857.63232  0.077347792  0.078205903            2 
  925000    1.0859569   -3.5555968    858.58053  0.077349597  0.078191526            2 
  926000    1.1045141   -3.5307257    860.61313  0.077448986  0.078177571            2 
  927000    1.0921772    -3.577097    861.26623  0.077424149  0.078163546            2 
  928000    1.1298317    -3.528205    863.29182  0.077522613  0.078149703            4 
  929000     1.082759   -3.5713706    860.59301  0.077197077  0.078135466            1 
  930000    1.0711778   -3.5788291    862.72179   0.07730482  0.078120978            2 
  931000    1.1191029    -3.565557    863.52317  0.077293517  0.078106883            2 
  932000    1.0965405   -3.5450857    867.68279   0.07758251  0.078093447            2 
  933000    1.1037784   -3.5770256    863.89088  0.077160672  0.078079237            3 
  934000    1.1001853   -3.5311791    867.62014   0.07741079  0.078064645            4 
  935000    1.0983276   -3.5359605     866.4534  0.077224011  0.078050907            1 
  936000    1.1055441   -3.5795948    866.31939  0.077129576  0.078036716            1 
  937000    1.1000645   -3.5576648     865.1025  0.076939034  0.078021888            5 
  938000    1.0950925   -3.5591163    868.82348  0.077187587   0.07800679            2 
  939000    1.0957567   -3.5566809    872.96321  0.077472773  0.077991233            2 
  940000    1.0990769   -3.5901325    868.34121  0.076980604  0.077977109            1 
  941000    1.0799485   -3.5726834      869.371  0.076989993  0.077961777            4 
  942000    1.1019819   -3.5488644    874.33892  0.077347746  0.077947146            2 
  943000    1.1036093   -3.5521263    874.21407   0.07725469  0.077932504            4 
  944000    1.1014405   -3.5882876     870.8735  0.076877957  0.077917503            2 
  945000    1.0855236   -3.5875652    875.67203  0.077219756  0.077902992            4 
  946000    1.0874095   -3.5561973      870.439   0.07667715  0.077887316            2 
  947000    1.1067928   -3.5842529    871.64316  0.076702143  0.077872744            2 
  948000    1.0900433   -3.5702012    876.85041  0.077078974  0.077857725            1 
  949000    1.0805279   -3.5627349    880.10765  0.077283777  0.077843537            1 
  950000     1.128763   -3.5160404    875.10528  0.076763621  0.077829143            2 
  951000    1.1005979   -3.5691245    875.95861  0.076757677  0.077814722            2 
  952000      1.10435   -3.5901719    879.85856  0.077018432  0.077800184            2 
  953000    1.0948998   -3.5590039    880.68556   0.07700993  0.077785907            1 
  954000    1.1105377   -3.5462212    882.30384  0.077070566  0.077772709            4 
  955000    1.0855795   -3.5817326    881.14741  0.076888954  0.077758818            1 
  956000    1.1014648   -3.5530205    881.76626   0.07686247  0.077744548            3 
  957000    1.1016812   -3.5554899    882.99858  0.076889462  0.077730171            3 
  958000    1.1081411    -3.566166     884.5354  0.076942884  0.077716411            2 
  959000    1.0892618   -3.5509556    885.83676  0.076975736  0.077701739            4 
  960000    1.1061329    -3.549494    889.15382  0.077183492  0.077687043            3 
  961000    1.1136542   -3.5867547    886.21384  0.076848234  0.077671983            3 
  962000     1.115115   -3.5729443    887.29377    0.0768619  0.077657077            3 
  963000    1.0680493   -3.5470109    886.03321  0.076673002  0.077641614            4 
  964000     1.103567   -3.5509516    886.64705  0.076646529  0.077626622            2 
  965000    1.0860784   -3.5557257    890.56556  0.076905488  0.077611284            2 
  966000    1.1034127   -3.5862052    885.74537  0.076410056  0.077595333            1 
  967000    1.0850523   -3.5630502    885.59418   0.07631801  0.077579043            2 
  968000    1.1010041    -3.565876    887.78411  0.076427696  0.077562538            2 
  969000    1.1135232   -3.5602663    887.09528  0.076289584  0.077546148            2 
  970000    1.0665597   -3.5478831    887.56035  0.076250889  0.077529516            1 
  971000    1.0965661   -3.5743617    890.87613  0.076456928  0.077512952            2 
  972000    1.0893299   -3.5517628    892.25519  0.076496501  0.077496243            2 
  973000    1.0997476   -3.5887966    889.72364  0.076201065  0.077478972            2 
  974000    1.0904632   -3.5876471    892.23493   0.07633769  0.077461317            2 
  975000    1.1004156   -3.5584235    889.99556  0.076067997   0.07744426            2 
  976000    1.0872293   -3.5374782    896.11761  0.076512774  0.077426724            3 
  977000    1.1145549   -3.5360022    891.14249  0.076010107  0.077408778            4 
  978000    1.0978533   -3.5929321    888.78495  0.075731506  0.077391291            2 
  979000    1.0830608   -3.5525051    891.31696  0.075869676  0.077373514            2 
  980000    1.1152193   -3.5652654    893.14511  0.075947714  0.077355459            2 
  981000    1.0914098   -3.5429156    895.39618  0.076061517  0.077337776            3 
  982000    1.1226795   -3.5971155    894.38159  0.075897963  0.077319689            2 
  983000    1.0998936   -3.5730324    900.06733  0.076302758  0.077302542            3 
  984000    1.0745559   -3.5459487    901.07598  0.076310635  0.077284546            2 
  985000    1.1147622   -3.5602035    895.76609  0.075783933  0.077266575            2 
  986000    1.1108447   -3.5544591    902.58346  0.076283254  0.077249547            4 
  987000    1.1004399   -3.5621025    896.85051  0.075721928  0.077231745            3 
  988000    1.1109567   -3.5874106    896.07252  0.075579666  0.077213939            2 
  989000    1.0933262   -3.5629108    899.61166  0.075801454  0.077196265            2 
  990000    1.1025805   -3.6053437    898.40046  0.075622935  0.077178321            2 
  991000    1.0914096   -3.6027817     899.9816  0.075679583  0.077159312            2 
  992000    1.0749092   -3.5475932    902.93065  0.075851029  0.077140905            1 
  993000     1.119804   -3.5660248    902.16436  0.075710335  0.077122467            2 
  994000    1.0665548   -3.6010676     901.4819  0.075576953  0.077103801            3 
  995000    1.0762947   -3.5680268     906.9447  0.075958517   0.07708552            6 
  996000    1.1104554   -3.5577992    904.20109  0.075652702  0.077067646            2 
  997000    1.1058056   -3.5707061    905.34403  0.075672353  0.077049525            3 
  998000    1.0732704   -3.5834974    905.94682  0.075646862  0.077031136            1 
  999000    1.0879721   -3.5634984     907.4792  0.075698966  0.077012461            4 
 1000000    1.1089874   -3.5802437    904.93714  0.075411428  0.076992565            2 
 1001000    1.0752078   -3.5776942    906.84701  0.075495089  0.076972972            1 
 1002000    1.1007197   -3.5957569    905.29999  0.075291083  0.076953304            1 
 1003000    1.0953064   -3.5493385    904.79677  0.075174208  0.076933198            3 
 1004000     1.095463   -3.5973205     902.7621  0.074930453  0.076913092            2 
 1005000    1.0731005    -3.582487    910.10372  0.075464654  0.076893501            5 
 1006000    1.0658296   -3.5728709    912.33667  0.075574608  0.076874244            1 
 1007000    1.0782608   -3.5770712     911.1211  0.075398965  0.076854671            2 
 1008000    1.1035328   -3.5655981    913.87862  0.075552134   0.07683541            2 
 1009000    1.0918553   -3.6096365    910.07834  0.075163391   0.07681682            2 
 1010000    1.0846068   -3.5748328    914.61509  0.075463291  0.076797583            2 
 1011000    1.0979923   -3.5987476     911.7188  0.075149918  0.076778414            2 
 1012000    1.1078312   -3.5323226    916.87575  0.075500309  0.076759251            2 
 1013000    1.1098286   -3.5939488    910.37906  0.074891334  0.076739367            3 
 1014000    1.0749898    -3.604476    912.17779  0.074965301  0.076719212            3 
 1015000     1.100146   -3.5856467    915.03171  0.075125757  0.076699694            2 
 1016000    1.0926651   -3.5750804    913.63713  0.074937428  0.076679678            2 
 1017000    1.0829944   -3.5613222    920.35705  0.075414376  0.076659885            4 
 1018000    1.1062952   -3.5871626    916.97719  0.075063621  0.076640784            2 
 1019000    1.0798525    -3.579028    920.15237  0.075249621  0.076621134            1 
 1020000       1.0979   -3.5544021    921.77032  0.075308033  0.076602229            1 
 1021000    1.0765449   -3.6000168    918.18597  0.074941721  0.076582458            5 
 1022000    1.1020308   -3.6127938    922.83827  0.075247739  0.076563297            2 
 1023000    1.1014162   -3.5922125    925.84384  0.075419016  0.076544424            1 
 1024000    1.0797969   -3.5698411    920.11687  0.074879303  0.076525501            7 
 1025000    1.0847454   -3.5690548    922.78176  0.075022907  0.076506644            1 
 1026000    1.0779494    -3.605751    921.49829   0.07484554  0.076488083            2 
 1027000    1.1026208   -3.5870295    927.57439  0.075265692  0.076469702            2 
 1028000    1.0762219   -3.5760081    926.11305  0.075074015   0.07645129            4 
 1029000    1.0760935   -3.5617165    929.88173  0.075306263  0.076433112            5 
 1030000    1.0660324   -3.5508061    928.30393  0.075105496  0.076414652            2 
 1031000    1.0904203   -3.5466268    931.88718  0.075322275  0.076396474            3 
 1032000     1.072443   -3.5645433    930.75638  0.075157976  0.076378696            1 
 1033000    1.0808224   -3.6037974    929.95909  0.075020901  0.076360385            1 
 1034000    1.0883706   -3.5892682    931.34223  0.075059818  0.076341845            2 
 1035000    1.0593201   -3.5718053    934.41619  0.075234798  0.076323586            3 
 1036000    1.0793176   -3.5743876    933.41095  0.075081318  0.076305761            2 
 1037000       1.0586    -3.604952    934.70594  0.075112981  0.076287092            1 
 1038000    1.0806016   -3.5906291    934.82566   0.07505023  0.076268679            2 
 1039000    1.0775392   -3.5925521    933.13263  0.074842207  0.076250016            4 
 1040000    1.0747712   -3.5740666      936.712  0.075057051  0.076231001            3 
 1041000    1.1113617   -3.6067147    932.12088  0.074617426  0.076212641            2 
 1042000    1.0712741   -3.5469453    935.77118  0.074837746  0.076193981            3 
 1043000    1.0966061     -3.61405    934.61004  0.074673222  0.076175773            2 
 1044000     1.077712   -3.5898401    936.46153  0.074749484   0.07615724            1 
 1045000     1.111836   -3.5817666    941.69647  0.075095412  0.076139153            3 
 1046000    1.0840535   -3.6033489    937.98512  0.074727941  0.076120786            1 
 1047000    1.1092659   -3.5615912    937.84564  0.074645466  0.076103018            2 
 1048000    1.0744092    -3.582725    943.43331  0.075018552  0.076085753            1 
 1049000    1.1025411   -3.5931452    944.94713  0.075067297  0.076067776            2 
 1050000    1.0738638    -3.577434    944.02709  0.074922785  0.076050572            6 
 1051000    1.0801053   -3.5769261    946.46931   0.07504514  0.076034107            2 
 1052000     1.067484   -3.5784415    945.50595  0.074897493  0.076016993            1 
 1053000    1.0945395   -3.6272814    946.69143  0.074920183   0.07600016            2 
 1054000    1.1066964   -3.5995553    946.55789  0.074838543  0.075982963            2 
 1055000    1.0666545     -3.58775    950.06636  0.075044736  0.075966654            3 
 1056000    1.0632245   -3.5552506    951.65373  0.075098937  0.075950327            2 
 1057000    1.1212741   -3.5791436    948.78457  0.074801685  0.075933553            3 
 1058000    1.0887205   -3.5672503    954.62559  0.075191052  0.075917488            2 
 1059000    1.0714465   -3.6003696    951.41784   0.07486763  0.075900564            2 
 1060000    1.1071649    -3.599848    954.02334  0.075001835  0.075883487            2 
 1061000    1.0696773   -3.5851853    951.02854  0.074695926  0.075866123            3 
 1062000     1.084393   -3.6027289    953.64257   0.07483071  0.075848741            4 
 1063000    1.0690882   -3.5831951    953.81522  0.074773849  0.075831686            3 
 1064000    1.0912909   -3.5977098    953.32702  0.074665337  0.075815327            1 
 1065000    1.0698374   -3.5708146    957.58228  0.074928191  0.075799153            1 
 1066000     1.084503   -3.6140818    956.22468  0.074751773  0.075783169            3 
 1067000    1.0736907   -3.5882382    958.28469  0.074842603  0.075766753            2 
 1068000     1.084888   -3.5446432    961.91489  0.075055781  0.075750467            2 
 1069000    1.0529932   -3.6183993    961.01226  0.074915206  0.075734507            2 
 1070000    1.0982733   -3.6056204    961.19985  0.074859801   0.07571828            3 
 1071000    1.0868214   -3.5738118    962.94104  0.074925385  0.075702476            2 
 1072000    1.0745497    -3.587206    961.45673  0.074740106  0.075686686            1 
 1073000    1.0783706   -3.5911347     957.0435  0.074327703  0.075670771            3 
 1074000    1.0788778   -3.5714089    964.60185  0.074844961  0.075654221            3 
 1075000    1.0575847   -3.6065871    962.91775  0.074644787  0.075638131            5 
 1076000    1.0753776   -3.5767562    966.73561  0.074871097  0.075621824            1 
 1077000    1.0905736   -3.5976659    969.45541  0.075012025   0.07560605            7 
 1078000    1.0971375   -3.5983851    967.73024  0.074809078  0.075590395            3 
 1079000     1.076763   -3.5928174     967.8904  0.074752116  0.075574515            2 
 1080000    1.0886259   -3.6214189    967.20895   0.07463032  0.075558792            2 
 1081000     1.081301   -3.5875795    965.31297  0.074415123  0.075542467            2 
 1082000    1.0827328   -3.6015816    967.61873  0.074523931  0.075525178            3 
 1083000    1.0597216    -3.561531    967.98793  0.074483528  0.075508396            3 
 1084000    1.0666952   -3.5884674    968.90086  0.074484998  0.075491828            3 
 1085000    1.0783703   -3.5790678    967.81415  0.074332884  0.075475039            2 
 1086000    1.0735652   -3.5931585    969.88778  0.074423556  0.075457405            2 
 1087000    1.0434165     -3.57328    968.07459  0.074216083  0.075439966            4 
 1088000    1.0922112    -3.583384    973.71924  0.074580212  0.075423401            1 
 1089000    1.0776906   -3.5975699    974.44053  0.074566922  0.075407058            2 
 1090000     1.089225     -3.61667    974.17845  0.074478475  0.075390454            3 
 1091000    1.0645978   -3.5861759    978.03388  0.074704696   0.07537487            3 
 1092000    1.0772553   -3.6060519    971.65298  0.074149342  0.075358872            4 
 1093000    1.0591018   -3.5886294    973.99967   0.07426042  0.075342385            5 
 1094000    1.1047076   -3.5896666    976.39784  0.074375216  0.075326237            2 
 1095000    1.0878922   -3.5771711    977.07192  0.074358594  0.075309687            1 
 1096000    1.0776395   -3.6026272    974.81404  0.074119072  0.075293433            4 
 1097000    1.0580201   -3.5957349    978.29127  0.074315654  0.075277429            3 
 1098000    1.0889549   -3.5836583    981.70666  0.074507184  0.075261143            2 
 1099000    1.0807312   -3.5951792    980.93865  0.074381153  0.075245035            2 
 1100000    1.0900537   -3.5939994    983.50042  0.074507607  0.075228842            1 
 1101000    1.0832675   -3.6018094     979.5828  0.074143415  0.075212267            2 
 1102000    1.0818774   -3.5835784    982.55059  0.074300559  0.075196278            3 
 1103000    1.0655272   -3.5933939    983.35427  0.074293916  0.075179646            3 
 1104000    1.0654499   -3.6202148    982.37099    0.0741524  0.075162421            4 
 1105000     1.081083   -3.5835925    982.16707  0.074069915  0.075146087           14 
 1106000    1.0606379   -3.5636498    986.10578  0.074299712   0.07513016            4 
 1107000    1.0835614   -3.5981502    985.48503  0.074185865  0.075114115            2 
 1108000    1.0651609     -3.60489    988.50418  0.074345982  0.075097652            1 
 1109000    1.0775812   -3.5818242    988.35042   0.07426739  0.075081534            2 
 1110000    1.0730991   -3.5894239    991.43608  0.074432138  0.075065635            2 
 1111000    1.0824941   -3.5980684      990.534   0.07429748  0.075049449            1 
 1112000    1.0749073   -3.5992243    987.12865  0.073975468   0.07503376            2 
 1113000    1.0664076   -3.6001144      992.481  0.074309748  0.075017538            2 
 1114000    1.0813914   -3.6098555    991.22452  0.074149051  0.075001307            3 
 1115000    1.0861965   -3.5903045    992.76232  0.074197483  0.074985473            3 
 1116000    1.0758379   -3.5634435    994.35628  0.074250021  0.074969832            2 
 1117000    1.0844548   -3.5908294    991.86251  0.073997502  0.074954484            3 
 1118000    1.0731592   -3.5971142    994.04842  0.074094247  0.074938283            2 
 1119000    1.0816901   -3.5694348     995.3063  0.074121708  0.074923242            2 
 1120000    1.0842711   -3.5942567    995.21279  0.074048571  0.074907868            1 
 1121000     1.068274   -3.6009639    1000.4827  0.074374272  0.074892511            4 
 1122000    1.0764849   -3.5853478    996.75334  0.074030997  0.074876816            2 
 1123000    1.0760262   -3.5988373    995.91319   0.07390273  0.074861177            1 
 1124000    1.0760776   -3.6038197    997.70242  0.073969634  0.074845466            3 
 1125000    1.0569732   -3.5899006    1001.0691   0.07415327  0.074829875            1 
 1126000    1.0790875   -3.6091461    1001.6842  0.074132932   0.07481407            4 
 1127000    1.0837742   -3.6032648    1008.0834  0.074540329   0.07479889            1 
 1128000    1.0991667   -3.5909071    1005.2558  0.074265349  0.074783549            2 
 1129000    1.0893261   -3.5816662    1005.3748  0.074208352  0.074768055            3 
 1130000    1.1091851   -3.6187147    1002.7979  0.073952647  0.074752825            3 
 1131000    1.0716743   -3.5756896    1005.7107   0.07410188  0.074737377            2 
 1132000    1.0795308   -3.5967919    1005.0301  0.073986314  0.074721639            2 
 1133000    1.0758016   -3.5933361      1006.01  0.073993087  0.074705861            2 
 1134000    1.0821699   -3.6218283    1006.1426  0.073937584  0.074689665            2 
 1135000    1.0280472    -3.598275    1007.0658  0.073940223  0.074673705            2 
 1136000    1.0706145   -3.6223118    1007.7911   0.07392834  0.074657636            9 
 1137000    1.0789111    -3.602883    1008.3554  0.073904676  0.074641122            2 
 1138000    1.0803593   -3.5800231     1005.115  0.073602449  0.074624764            2 
 1139000    1.0477796   -3.6140812    1007.7317  0.073729274  0.074608664            2 
 1140000    1.0423238   -3.6045836    1010.5726  0.073872264  0.074592301            3 
 1141000    1.0816317   -3.6044898    1008.2647  0.073638961  0.074576118            1 
 1142000    1.0682126   -3.5880597    1015.1814  0.074079203  0.074560063            1 
 1143000    1.0717076   -3.6191393    1008.2983   0.07351256  0.074543985            2 
 1144000    1.0931308   -3.5944771    1014.3515  0.073889244  0.074527944            2 
 1145000    1.0669326   -3.5710103    1012.6546  0.073701206  0.074512439            1 
 1146000    1.0536076   -3.5894705     1015.504  0.073844094   0.07449673            1 
 1147000    1.0914997   -3.6135533    1014.3919   0.07369892  0.074480614            5 
 1148000    1.0572909   -3.6416858    1010.5333  0.073354626  0.074464487            2 
 1149000    1.0877614   -3.6234682    1015.1825  0.073627976   0.07444826            3 
 1150000    1.0517228   -3.6370874    1015.4711  0.073584864   0.07443247            2 
 1151000    1.0431133   -3.6114896    1016.3032  0.073581177  0.074416941            4 
 1152000    1.0654101   -3.5988867    1020.5557  0.073824917  0.074400742            2 
 1153000    1.0639608   -3.5966258    1021.7524  0.073847382  0.074384843            1 
 1154000    1.0763388    -3.605307    1021.0912  0.073735646  0.074369178            3 
 1155000    1.0663404   -3.6232202    1020.4123  0.073622819  0.074353054            2 
 1156000    1.0724524   -3.5921925    1020.3722  0.073556241  0.074336795            3 
 1157000    1.0785765   -3.6189563    1020.6091  0.073509729  0.074320708            1 
 1158000    1.0616984   -3.6012952    1018.2753  0.073278305  0.074304764            3 
 1159000     1.045546   -3.5849582    1023.9385  0.073622266   0.07428879            1 
 1160000    1.0681634   -3.6073244    1023.5482  0.073530764  0.074272853            3 
 1161000    1.0602232    -3.601539    1024.7267  0.073552016  0.074256811            2 
 1162000    1.0654673   -3.6284723    1024.9767  0.073506651  0.074240745            1 
 1163000    1.0625264   -3.6072554    1026.2461  0.073534403  0.074224391            5 
 1164000    1.0814675   -3.6110818      1025.33  0.073405641   0.07420809            2 
 1165000    1.0746608   -3.6227429    1026.5248    0.0734281   0.07419214            3 
 1166000    1.0465062   -3.6125967    1026.0911  0.073334125  0.074176123            1 
 1167000    1.0594105   -3.5857263      1027.72  0.073387602  0.074160236            4 
 1168000    1.0354898   -3.6005617    1030.1149  0.073495641  0.074144907            3 
 1169000    1.0583036    -3.597252    1030.7577  0.073478595  0.074129267            3 
 1170000    1.0519032   -3.5705803    1031.6803  0.073481503  0.074113443            5 
 1171000    1.0714487   -3.6077957    1031.6736  0.073418277  0.074097759            2 
 1172000    1.0418097   -3.6223395    1031.0787  0.073313333   0.07408203            2 
 1173000    1.0496798   -3.6213396    1029.5709  0.073143715   0.07406643            3 
 1174000    1.0931895   -3.6250271    1032.4776  0.073287737  0.074050566            3 
 1175000    1.0840766    -3.624821    1035.9406  0.073470965  0.074035182            2 
 1176000    1.0556176   -3.6316665     1037.801  0.073540323  0.074019923            4 
 1177000    1.0651227   -3.6172667    1034.6961  0.073258005  0.074004667            3 
 1178000    1.0602752   -3.5967613    1037.8807    0.0734211  0.073988842            1 
 1179000    1.0528837   -3.6071136    1035.3129  0.073177333    0.0739731            3 
 1180000    1.0631768   -3.6038241    1036.9826  0.073233237  0.073957541            2 
 1181000    1.0567037   -3.6349906    1039.7722  0.073368061  0.073942644            3 
 1182000    1.0721925   -3.5932941    1042.0891  0.073469339  0.073927839            4 
 1183000     1.056355    -3.595268    1040.9556   0.07332739  0.073912955            5 
 1184000    1.0506214   -3.6328961    1043.4287  0.073439521  0.073897364            3 
 1185000    1.0732008   -3.6230312    1037.0245  0.072927181  0.073881388            3 
 1186000    1.0759656    -3.584934    1041.8635  0.073205696  0.073866075            2 
 1187000    1.0490694   -3.5950667    1044.8291  0.073352226  0.073851073            1 
 1188000    1.0684742   -3.6035381    1046.2848  0.073392593  0.073835701            3 
 1189000    1.0521558   -3.5994648    1043.8864  0.073162768  0.073820556            2 
 1190000    1.0710222   -3.6167792    1049.2346  0.073475809   0.07380534            3 
 1191000    1.0583219   -3.5861105    1047.0044  0.073258077  0.073790223            3 
 1192000    1.0756887   -3.6256599    1044.3674  0.073012262  0.073775012            5 
 1193000    1.0768395   -3.5924517    1049.1543  0.073285438  0.073760146            3 
 1194000    1.0584198   -3.6409646    1048.9819  0.073212025   0.07374473            2 
 1195000     1.055303   -3.6117806    1047.2305  0.073028629   0.07372927            4 
 1196000    1.0599392   -3.6094482    1050.4873  0.073194488   0.07371437            2 
 1197000    1.0760191   -3.6058997     1053.091  0.073314604  0.073699158            4 
 1198000    1.0442981   -3.6317902    1048.0857  0.072905236  0.073683488            2 
 1199000    1.0745117   -3.6021392     1051.596  0.073088408  0.073668439            2 
 1200000     1.048881   -3.6353526    1052.5985  0.073097116  0.073652933            4 
 1201000    1.0722754   -3.6549498    1052.1567  0.073005597  0.073637591            2 
 1202000    1.0741391   -3.6088141    1050.2438  0.072812244  0.073621325            3 
 1203000    1.0638233   -3.6018032     1053.022   0.07294417   0.07360526            1 
 1204000    1.0715369   -3.6080766    1056.0913  0.073096021  0.073588915            6 
 1205000      1.07534   -3.6086485    1052.1871  0.072765361  0.073573053            6 
 1206000    1.0539704   -3.6186388    1054.9692  0.072897263  0.073557367            6 
 1207000     1.063213   -3.6313538    1057.9517  0.073042786  0.073541571            5 
 1208000    1.0753625   -3.6258642    1056.0142  0.072848661  0.073526178            3 
 1209000    1.0544584   -3.6452192    1056.6478  0.072832079  0.073510766            2 
 1210000    1.0689498   -3.6357433    1054.4929  0.072623478  0.073495267            3 
 1211000    1.0640906   -3.6141809    1058.9994  0.072873614   0.07347944            2 
 1212000    1.0553351   -3.6332157     1051.348  0.072287404  0.073463522            3 
 1213000    1.0511265   -3.6247001    1060.4577   0.07285365  0.073447878            2 
 1214000    1.0525277   -3.6191312    1059.7724  0.072746595  0.073432227            1 
 1215000    1.0702341    -3.643495    1058.6936  0.072612731  0.073416563            2 
 1216000    1.0641882   -3.6254915    1058.8075   0.07256082  0.073400677            3 
 1217000    1.0415448   -3.6574957    1061.5159  0.072686655  0.073385776            1 
 1218000    1.0490481    -3.596871    1066.7783  0.072987021  0.073370589            1 
 1219000    1.0685564   -3.6007856    1063.2573  0.072686442  0.073355605            3 
 1220000    1.0620676    -3.621108    1065.6519  0.072790427   0.07334058            2 
 1221000    1.0676617   -3.6388903     1066.101  0.072761468   0.07332524            2 
 1222000    1.0435006   -3.6141514    1067.4021  0.072790652  0.073310512            2 
 1223000    1.0429201   -3.6352576    1069.6373  0.072883433  0.073295485            2 
 1224000     1.067058   -3.6560194    1065.8912  0.072568848  0.073280324            2 
 1225000    1.0643753   -3.6072091    1070.4179  0.072817547  0.073265159            2 
 1226000    1.0586846   -3.6233936    1066.1449   0.07246771  0.073249789            1 
 1227000    1.0674077   -3.5837399    1068.1982  0.072548101  0.073234653            2 
 1228000    1.0600542   -3.5843959    1067.1559  0.072418289  0.073219503            3 
 1229000    1.0752126   -3.6052806    1068.4637  0.072448037  0.073204002            3 
 1230000    1.0385865   -3.6173315    1073.4099  0.072724245  0.073189046            3 
 1231000    1.0608586   -3.6142463    1073.6362   0.07268049  0.073174169            3 
 1232000    1.0555551   -3.6043359    1074.5124  0.072680762  0.073159062            2 
 1233000    1.0396822   -3.6229294    1073.8682  0.072578276  0.073144444            1 
 1234000    1.0515426   -3.6030077     1076.412  0.072691249   0.07312974            1 
 1235000    1.0485964   -3.6385703    1076.8492  0.072661889  0.073115292            2 
 1236000    1.0817439   -3.6233049     1077.549  0.072650281  0.073100287            4 
 1237000    1.0564032   -3.6239526    1082.3547  0.072915296  0.073085909            4 
 1238000    1.0429722   -3.6451439     1072.731  0.072208604  0.073070586            2 
 1239000    1.0664603   -3.6244634    1076.4335   0.07239935  0.073055247            1 
 1240000    1.0432129   -3.6326589    1081.7477  0.072698095  0.073039634            3 
 1241000    1.0475094   -3.6087334    1077.0648   0.07232506  0.073024218            2 
 1242000    1.0257609   -3.6154615    1079.4234  0.072425079  0.073008649            3 
 1243000    1.0277938   -3.6231693    1080.5264  0.072440763  0.072992843            5 
 1244000    1.0602958   -3.6294554    1080.1808  0.072359379  0.072977676            2 
 1245000    1.0471423   -3.6462276    1082.8782  0.072481807  0.072962711            3 
 1246000    1.0607128   -3.6361386    1082.2529  0.072381817  0.072947327            2 
 1247000    1.0423334   -3.6245498    1081.0713  0.072244811  0.072932308            3 
 1248000     1.073174     -3.62808    1085.2793    0.0724679  0.072916929            2 
 1249000    1.0597283   -3.6136982    1082.2579  0.072208293  0.072901579           10 
 1250000     1.055407   -3.6531381    1083.8493  0.072256621  0.072886135            6 
 1251000    1.0543481   -3.6026551    1089.3943  0.072568234  0.072870742            2 
 1252000     1.053827   -3.6197118    1088.2926  0.072436941  0.072855176            3 
 1253000    1.0615922   -3.6282627     1088.211  0.072373706  0.072839622            1 
 1254000    1.0469225   -3.6503262    1084.8446  0.072092277  0.072823715            3 
 1255000    1.0506628    -3.600499    1084.8966   0.07203829  0.072807484            3 
 1256000    1.0404222   -3.6344153    1083.5877  0.071894088  0.072791285            3 
 1257000    1.0395656   -3.6295269    1090.9377  0.072324162  0.072775256            3 
 1258000    1.0351821   -3.5908299    1087.3571  0.072029482  0.072758889            3 
 1259000    1.0417719   -3.6113819    1088.7458  0.072064193  0.072742438            3 
 1260000    1.0534603    -3.624619    1084.2998  0.071712949  0.072726079            1 
 1261000    1.0887754   -3.5966008    1090.9395  0.072094865  0.072709861            4 
 1262000    1.0527208   -3.6230905     1090.086  0.071981379   0.07269383            2 
 1263000    1.0759895   -3.6248056    1088.7925   0.07183904  0.072677653            2 
 1264000    1.0399505   -3.6204808    1092.1795  0.072005504   0.07266128            4 
 1265000    1.0677135    -3.642718    1090.8645  0.071861954  0.072645313            2 
 1266000    1.0515029   -3.6312026    1093.0287  0.071947648  0.072628898            6 
 1267000    1.0604742   -3.6297599    1095.2407  0.072036351  0.072612725            1 
 1268000     1.031412   -3.6161165    1092.0079  0.071767079  0.072596456            2 
 1269000    1.0297459   -3.6467547    1097.3768  0.072063094  0.072580329            2 
 1270000    1.0672816   -3.6334551    1093.1588  0.071729579  0.072563556            1 
 1271000    1.0783972   -3.6792858    1093.9014  0.071721836  0.072547177            2 
 1272000    1.0369331   -3.6523845    1090.8313  0.071464318  0.072530173            3 
 1273000    1.0465741   -3.6276002    1098.2701  0.071895138  0.072513988            3 
 1274000     1.044259   -3.6190203    1099.2243  0.071901117  0.072497879            6 
 1275000     1.044359    -3.633974    1098.8116   0.07181775  0.072481461            3 
 1276000    1.0616844   -3.6432983    1098.8106  0.071761402  0.072465185            3 
 1277000    1.0390351   -3.6472836    1096.4578   0.07155167  0.072449279            3 
 1278000    1.0685213   -3.6518295    1098.9229  0.071656425  0.072433204            2 
 1279000    1.0286504   -3.6430818     1100.518  0.071704329  0.072417397            3 
 1280000    1.0380974   -3.6725028    1100.3554  0.071637723   0.07240164            1 
 1281000    1.0332585    -3.612036    1107.0268  0.072015796  0.072386617            1 
 1282000    1.0393128   -3.6364937    1104.6697  0.071806402  0.072371287            1 
 1283000    1.0402578   -3.6275157    1106.2935  0.071855903  0.072356064            4 
 1284000    1.0432333   -3.6492654    1108.6344   0.07195187  0.072339977            2 
 1285000    1.0604073   -3.6429518    1102.8671  0.071521863  0.072324236            5 
 1286000    1.0589484   -3.6404801    1101.2629  0.071362291  0.072308779            3 
 1287000    1.0508922    -3.661391     1109.704  0.071853408  0.072292851            2 
 1288000    1.0445592   -3.6584832    1107.2727  0.071640312   0.07227691            4 
 1289000    1.0373696   -3.6297561     1111.819   0.07187865  0.072261011            2 
 1290000    1.0397199   -3.6686788    1104.4241  0.071345225  0.072245017            4 
 1291000     1.064238   -3.6351071    1110.9829  0.071713327  0.072229375            2 
 1292000    1.0450301   -3.6554141    1108.2248  0.071479928  0.072214024            4 
 1293000    1.0237433   -3.6539303    1109.3612  0.071497888  0.072198354            3 
 1294000    1.0500496    -3.623896    1113.3207  0.071697622   0.07218275            1 
 1295000    1.0247493   -3.6586566    1112.2481  0.071573238  0.072166849            4 
 1296000    1.0366246   -3.6633859    1110.9055  0.071431679  0.072151162            4 
 1297000    1.0527858   -3.6111379    1115.8816  0.071696327  0.072135327            2 
 1298000    1.0397016   -3.6573607    1113.0958  0.071462238  0.072119733            2 
 1299000    1.0312144   -3.6463205    1115.2958  0.071548356  0.072103497            6 
 1300000    1.0634213   -3.6722632    1108.6282  0.071065911  0.072087342            7 
 1301000    1.0415958   -3.6453322    1111.6231  0.071203122  0.072071043            7 
 1302000    1.0488751   -3.6320824    1118.5293  0.071590454  0.072055005            2 
 1303000    1.0354716   -3.6308916    1116.6422  0.071414828  0.072039014            2 
 1304000    1.0439945   -3.6127379    1117.9204  0.071441744  0.072023151            2 
 1305000    1.0359454   -3.6587649    1117.1143  0.071335526  0.072006993            4 
 1306000    1.0619762   -3.6570775    1117.2341  0.071288545  0.071990591            4 
 1307000     1.051499   -3.6367391    1120.0481  0.071413424  0.071974571            3 
 1308000    1.0486152   -3.6563892    1117.6739  0.071207566  0.071958296            2 
 1309000     1.016572   -3.6515738    1118.6768  0.071217009   0.07194224            1 
 1310000    1.0401233   -3.6468098    1118.3718  0.071143244  0.071926068            2 
 1311000    1.0558683   -3.6475723    1120.6532  0.071233994  0.071909957            3 
 1312000    1.0313504   -3.6527691    1122.3857  0.071289739  0.071893867            5 
 1313000      1.03577   -3.6830801    1119.0321  0.071022598  0.071877571            2 
 1314000    1.0319371   -3.6283628    1126.4671  0.071440074  0.071861306            3 
 1315000    1.0409102   -3.6711409     1119.697  0.070956719  0.071845101            3 
 1316000    1.0531849   -3.6554809    1124.7273  0.071221335  0.071828968            5 
 1317000    1.0712322   -3.6483574    1124.8454  0.071174726  0.071812618            4 
 1318000    1.0404452   -3.5893257     1127.357  0.071279527  0.071796734            4 
 1319000     1.060329   -3.6460632    1126.7685  0.071188304  0.071780744            3 
 1320000    1.0311843   -3.6660999    1123.7139  0.070941532  0.071764781            2 
 1321000    1.0358197   -3.6488706    1125.9774  0.071030621  0.071748463            5 
 1322000    1.0266303    -3.631247    1133.6683  0.071461692  0.071732778            1 
 1323000    1.0515044   -3.6149215    1130.7109  0.071221399  0.071717246            2 
 1324000    1.0504646   -3.6472474    1128.5731  0.071033053  0.071701012            1 
 1325000    1.0414806    -3.611537    1128.2079   0.07095647  0.071684648            1 
 1326000    1.0221822   -3.6614471    1127.3698   0.07085029  0.071668355            8 
 1327000    1.0350718   -3.6359547    1130.4423  0.070989848   0.07165204            5 
 1328000    1.0326996   -3.6633314     1130.351  0.070930662  0.071635647            1 
 1329000    1.0306597   -3.6430493    1132.3855  0.071004859  0.071619654            1 
 1330000    1.0489936   -3.6374437    1134.8787  0.071107689  0.071603487            4 
 1331000    1.0295966   -3.6615947    1133.6287  0.070976001  0.071587139            2 
 1332000     1.042941   -3.6486859    1134.0388  0.070948374  0.071571316            1 
 1333000    1.0348638   -3.6219527    1136.0507  0.071020926  0.071555649            2 
 1334000    1.0443677   -3.6825938    1133.6277  0.070816324  0.071539449            3 
 1335000    1.0505941   -3.6394367    1140.1842  0.071172548  0.071523875            2 
 1336000    1.0438413   -3.6202392    1135.1937  0.070807991  0.071507714            2 
 1337000     1.034801   -3.6490077    1137.5111   0.07089947  0.071491783            2 
 1338000    1.0431822   -3.6381564    1138.8212  0.070928079  0.071475866            1 
 1339000    1.0580964   -3.6553938    1133.3265  0.070533138  0.071459923            4 
 1340000    1.0344771    -3.615677     1138.379  0.070794717  0.071443966            5 
 1341000    1.0357423   -3.6179541    1141.6285  0.070943854  0.071428528            2 
 1342000     1.032111   -3.6565615    1140.0401  0.070792359  0.071412565            2 
 1343000    1.0303724   -3.6063555    1141.8311  0.070850774  0.071396846            2 
 1344000    1.0138806   -3.6517836    1142.7671  0.070856094  0.071380959            3 
 1345000     1.055355   -3.6488252    1141.8855  0.070748791  0.071365142            3 
 1346000    1.0269923   -3.6211992    1145.4348  0.070915975  0.071349405            2 
 1347000    1.0753623   -3.6640582    1148.7623  0.071069184  0.071333883            5 
 1348000    1.0294396   -3.6497584    1144.8793  0.070776418  0.071317993            3 
 1349000    1.0342907   -3.6642375    1144.8573  0.070722593  0.071302437            3 
 1350000    1.0464549   -3.6679996    1145.1453  0.070687983  0.071286962            5 
 1351000    1.0297699   -3.6472023    1143.7116  0.070547227  0.071271239            3 
 1352000    1.0264785   -3.6144691    1147.4635  0.070726298  0.071256283            2 
 1353000    1.0275276   -3.6356273    1150.7952  0.070879234  0.071241526            1 
 1354000    1.0547314   -3.6779476    1151.4833  0.070869236  0.071226832            3 
 1355000    1.0185267   -3.6247767     1157.479  0.071185668   0.07121209            2 
 1356000    1.0375465   -3.6889908    1149.4149  0.070637594  0.071196934            2 
 1357000     1.038277   -3.6524299    1154.8688  0.070920464  0.071182244            1 
 1358000    1.0153289   -3.6606505    1156.2662  0.070953988   0.07116734            4 
 1359000    1.0066052   -3.6620165     1153.961  0.070760425  0.071152272            4 
 1360000    1.0207493   -3.6009426    1158.0446  0.070958617  0.071137489            1 
 1361000    1.0236447    -3.645704    1153.2313  0.070611762  0.071122643            3 
 1362000    1.0414812   -3.6592912    1154.6707  0.070647989  0.071107406            4 
 1363000    1.0498743   -3.6841688    1153.8495  0.070545945  0.071092392            2 
 1364000    1.0315862   -3.6285333    1155.9944  0.070625268  0.071077413            2 
 1365000    1.0204176   -3.6263535    1159.2391  0.070771621  0.071062576            2 
 1366000    1.0259049   -3.6424721     1156.049  0.070525197  0.071047266            4 
 1367000    1.0223661   -3.6862488    1152.4222   0.07025251  0.071031881            4 
 1368000    1.0088329   -3.6508491    1153.9155  0.070292126  0.071016019            3 
 1369000    1.0370895   -3.6698296    1158.8849  0.070543276  0.071000511            7 
 1370000    1.0501148    -3.650217    1158.9544  0.070496008  0.070985008            2 
 1371000    1.0465572   -3.6873205    1153.3192  0.070102068  0.070969185            3 
 1372000    1.0337916    -3.666362    1160.6955  0.070499001  0.070953372            4 
 1373000    1.0434162   -3.6468323    1163.9947  0.070647895  0.070937413            2 
 1374000     1.037274   -3.6440488    1157.6211  0.070209917   0.07092123            2 
 1375000    1.0367418   -3.6600086    1158.9948  0.070242107  0.070904792            2 
 1376000     1.025294   -3.6594571    1154.8636  0.069940867  0.070888284            2 
 1377000    1.0361922   -3.6608796    1160.7123  0.070244029  0.070871772            2 
 1378000     1.037971   -3.6504456    1162.9961  0.070331163  0.070855395            2 
 1379000    1.0221145   -3.6458811    1162.0875  0.070225253  0.070839282            1 
 1380000    1.0481343   -3.6229203     1164.296  0.070307732  0.070822877            3 
 1381000    1.0126769   -3.6522047    1167.5595  0.070453747  0.070806902            2 
 1382000    1.0122821   -3.6662381    1161.8552  0.070058806  0.070790829            6 
 1383000    1.0236052    -3.635693    1167.4463  0.070345041  0.070775416            2 
 1384000    1.0236704   -3.6689869    1163.7361  0.070070812  0.070759705            4 
 1385000    1.0494534   -3.6692285     1163.955  0.070033391  0.070743903            4 
 1386000    1.0220247   -3.6408189    1166.2685  0.070121963  0.070728678            5 
 1387000    1.0374689   -3.6754785    1167.3808  0.070138237  0.070713225            4 
 1388000    1.0064195   -3.6722266    1170.3435  0.070265578  0.070697764            2 
 1389000    1.0092816   -3.6691931    1175.2854  0.070511483  0.070682775            2 
 1390000    1.0423035   -3.6752331    1171.2862  0.070220993  0.070667657            4 
 1391000    1.0322795   -3.6647559    1170.7221   0.07013672  0.070652386            4 
 1392000    1.0336339    -3.668359     1173.552  0.070255748  0.070636831            6 
 1393000    1.0368896    -3.659455    1174.3743  0.070254505  0.070621882            2 
 1394000     1.030573   -3.6655491    1171.2406  0.070016773  0.070606018           14 
 1395000    1.0472233   -3.6781781    1170.7895  0.069939637    0.0705904            2 
 1396000    1.0594083   -3.6714602    1175.4735  0.070169146  0.070574757            6 
 1397000    1.0151093   -3.6621526    1178.2696  0.070285709  0.070559296            3 
 1398000    1.0342881   -3.6890823    1175.3938  0.070064005  0.070543813            3 
 1399000    1.0499239   -3.6575559    1174.9564  0.069987875  0.070528722            3 
 1400000    1.0407607   -3.6582107    1177.1768  0.070070048  0.070513306            1 
 1401000    1.0402909   -3.6394405    1180.1945   0.07019953  0.070498205            2 
 1402000    1.0270868   -3.6580136    1180.4084  0.070162174   0.07048293            2 
 1403000    1.0205584   -3.6267302    1180.6291  0.070125275  0.070467637            2 
 1404000    1.0308104   -3.6660985     1175.291  0.069758485  0.070452832            2 
 1405000    1.0305749   -3.6418679    1177.6879  0.069851003   0.07043759            1 
 1406000    1.0472813   -3.6548584    1183.7975  0.070163437  0.070422411            3 
 1407000    1.0147045    -3.663724    1179.0238  0.069830833  0.070407006            3 
 1408000    1.0324692   -3.6523336    1185.1156  0.070141785  0.070391536            4 
 1409000    1.0245534   -3.6911451    1174.9409  0.069490236  0.070375675            4 
 1410000    1.0404409   -3.6463241    1181.8441  0.069848943  0.070359964            1 
 1411000    1.0142143   -3.6642481    1182.4864  0.069837372   0.07034424            2 
 1412000    1.0147266   -3.6607988    1181.5549  0.069732937  0.070328547            3 
 1413000    1.0302424    -3.635758    1184.3965  0.069851176  0.070312864            4 
 1414000     1.024988   -3.6398086    1187.6177  0.069991611  0.070297336            2 
 1415000    1.0196021   -3.6528726    1185.8821  0.069839934  0.070281817            2 
 1416000    1.0646537    -3.698821     1182.774  0.069607697  0.070266336            3 
 1417000    1.0167682    -3.633183    1184.0322  0.069632566  0.070250581            2 
 1418000    1.0201477   -3.7153361    1183.9838  0.069580616  0.070234255            4 
 1419000    1.0380506   -3.6367995    1186.9717  0.069707056  0.070218397            2 
 1420000    1.0274207   -3.6807136    1185.4648  0.069569532  0.070202477            2 
 1421000    1.0503901   -3.6575601    1186.0458  0.069554647  0.070186708            2 
 1422000    1.0271196   -3.6760576    1187.7136   0.06960347  0.070170646            2 
 1423000    1.0276677   -3.6473149    1189.1539  0.069638901  0.070154859            2 
 1424000    1.0324327   -3.6290693    1183.1216  0.069236985  0.070138807            2 
 1425000    1.0257219   -3.6722879    1185.0652  0.069302057  0.070122755            3 
 1426000     1.026112   -3.6793378    1186.1099  0.069314508  0.070106547            2 
 1427000    1.0510183   -3.6697156    1185.2698  0.069216876  0.070090058            6 
 1428000    1.0406529   -3.6621362    1193.4274  0.069644459  0.070074214            2 
 1429000    1.0295762   -3.6969364     1191.416  0.069478421  0.070058108            2 
 1430000    1.0568429   -3.7055364     1188.918  0.069284264  0.070042002            3 
 1431000    1.0394973   -3.6720973    1191.9057  0.069409838  0.070026272            8 
 1432000    1.0216899   -3.7016959    1194.7329  0.069525889  0.070010633            1 
 1433000    1.0250819   -3.6710219    1193.2382  0.069390454  0.069994992            2 
 1434000    1.0320483   -3.6658468    1201.0019  0.069793229  0.069978977            4 
 1435000    1.0348271   -3.6770185    1195.9102  0.069448907  0.069963285            4 
 1436000    1.0296653   -3.6716802     1198.442  0.069547469   0.06994722            3 
 1437000    1.0099135   -3.6458168    1201.5953  0.069681933  0.069931946            2 
 1438000    1.0167891   -3.6695739    1198.5113  0.069454756  0.069916848            3 
 1439000    1.0254242   -3.6994189    1194.5321  0.069176054  0.069901387            6 
 1440000    1.0134921    -3.668661    1198.7592  0.069372641  0.069886085            2 
 1441000    1.0556846   -3.6744938    1197.9643  0.069278526  0.069870966            6 
 1442000    1.0127751   -3.6784059    1201.8082  0.069452625  0.069856054            5 
 1443000    0.9827147   -3.6730826    1201.3368  0.069377271  0.069840693            3 
 1444000    1.0279192   -3.6837876    1206.1896  0.069609283  0.069825556            2 
 1445000    1.0301068   -3.7044195    1202.8766  0.069370046  0.069811012            5 
 1446000    1.0192445   -3.7000218    1208.4151  0.069641257  0.069796094            4 
 1447000    1.0230163   -3.7037347    1203.9106  0.069333712  0.069780944            1 
 1448000    1.0085914    -3.685873     1206.057   0.06940936  0.069766125            2 
 1449000    1.0356516   -3.6775465    1205.3828   0.06932268  0.069751106            2 
 1450000    1.0299785   -3.6747586    1209.8286  0.069530379  0.069735942            4 
 1451000   0.99573658   -3.6488063    1206.4143  0.069286372  0.069721127            4 
 1452000    1.0238813   -3.6591282    1211.8582  0.069551093  0.069706087            4 
 1453000    1.0388436   -3.6826932    1210.5138  0.069426118  0.069691297            2 
 1454000    1.0222255    -3.728577    1212.1537  0.069472356  0.069676503            1 
 1455000    1.0365321   -3.6959038    1213.7296  0.069514866  0.069661911            7 
 1456000    1.0284855   -3.6575508    1217.9639  0.069709471  0.069647733            2 
 1457000    1.0270183   -3.6575598    1215.6576  0.069529719    0.0696332            4 
 1458000    1.0367922   -3.6966802    1218.5002  0.069644501  0.069618474            2 
 1459000    1.0140547   -3.6739299    1215.0739   0.06940107  0.069604272            2 
 1460000    1.0367747   -3.6779463    1216.1549  0.069415233  0.069589742            4 
 1461000    1.0400092   -3.6762897     1213.319  0.069205966  0.069575076            4 
 1462000    1.0260445   -3.6325055     1217.844  0.069416554  0.069560846            5 
 1463000    1.0305464   -3.6674936    1222.1033  0.069611716  0.069546613            3 
 1464000    1.0368866   -3.6676828    1216.8116  0.069262957  0.069532557            2 
 1465000    1.0217584   -3.6696144    1220.3512  0.069417019  0.069518187            2 
 1466000    1.0186691   -3.6906086    1218.6153  0.069270993  0.069503913            3 
 1467000    1.0028743   -3.6823103    1217.3988  0.069154668  0.069489352            3 
 1468000    1.0199712   -3.6598634    1223.0561  0.069428706  0.069475123            2 
 1469000    1.0450214   -3.6708695    1221.8443  0.069312704  0.069460906            2 
 1470000    1.0144243   -3.7314935    1218.2316  0.069060748  0.069446322            3 
 1471000   0.99816564   -3.6778517    1223.2262  0.069296747  0.069431931            2 
 1472000    1.0011131   -3.6778038    1227.0801  0.069467849  0.069417729            4 
 1473000    1.0273337   -3.6617785    1225.0888  0.069308034  0.069403862            4 
 1474000    1.0432139   -3.6821342    1220.6416  0.069009586  0.069389387            3 
 1475000   0.99941109   -3.6632674    1226.3206   0.06928365  0.069374907            2 
 1476000    1.0032494   -3.6806774    1224.1837  0.069116061  0.069360392            2 
 1477000    1.0208298   -3.6873155    1223.6676  0.069040148  0.069345784            3 
 1478000    1.0060048   -3.6710965    1229.9396  0.069347067  0.069331826            1 
 1479000    1.0101547   -3.6969274    1232.9844  0.069471737  0.069317664            2 
 1480000   0.99896912   -3.6657056    1226.9347  0.069084164  0.069303826            4 
 1481000   0.99608908   -3.6985151    1227.6717  0.069078986  0.069290004            2 
 1482000    1.0251911   -3.7389264    1225.9434   0.06893519   0.06927589            2 
 1483000    1.0116802   -3.6947561    1230.3731  0.069137623  0.069261982            3 
 1484000   0.99078097   -3.6731555    1225.4572  0.068814984  0.069248132            2 
 1485000    1.0249888   -3.6983523    1231.7505  0.069121799  0.069234257            2 
 1486000    1.0026246   -3.6987171    1233.3213  0.069163376  0.069220403            1 
 1487000    1.0123487   -3.6862444    1235.7458  0.069252737  0.069206552            3 
 1488000    1.0391919   -3.6918035    1231.9492  0.068993573  0.069192163            2 
 1489000    1.0419854   -3.6823366    1235.3536  0.069137764  0.069178089            2 
 1490000    1.0089072   -3.6828982    1240.5177  0.069380182  0.069164432            2 
 1491000    1.0186139   -3.7103976    1236.9642  0.069135042  0.069150639            3 
 1492000   0.99901733    -3.693863    1240.2329  0.069271274  0.069137685            4 
 1493000    1.0300314   -3.7042192     1237.871  0.069093045  0.069124197            2 
 1494000    1.0222935   -3.6635356    1237.0739  0.069002336  0.069110734            7 
 1495000    1.0176545   -3.6809065      1237.15  0.068960422   0.06909724            3 
 1496000   0.99745068   -3.6991001    1239.9889  0.069072464  0.069083839            3 
 1497000   0.99238461   -3.7211866    1236.4293  0.068828174  0.069070259            2 
 1498000   0.99920406   -3.6808645    1242.9434  0.069144606   0.06905671            7 
 1499000   0.99369848   -3.6714218     1244.276  0.069172561  0.069043437            4 
 1500000    1.0116443   -3.6571344    1245.3873  0.069188184  0.069030146            1 
 1501000    1.0164289   -3.7258449    1240.5494  0.068873493  0.069016921            5 
 1502000    1.0243109   -3.6833152    1248.0546   0.06924404   0.06900364            3 
 1503000    1.0318218   -3.6947881    1244.6364  0.069008447  0.068990319            2 
 1504000    1.0055414   -3.6744382    1249.9621  0.069257654  0.068977269            2 
 1505000    1.0117389   -3.6939453    1247.5558  0.069078393  0.068964375            4 
 1506000    1.0225433   -3.6777153    1251.1967  0.069233992  0.068951721            3 
 1507000   0.98207784   -3.6973817    1246.5919  0.068933414  0.068938819            3 
 1508000    1.0044719   -3.7112408    1250.3485  0.069095299  0.068925637            2 
 1509000    1.0324624   -3.6842653    1252.9809   0.06919488  0.068912511            2 
 1510000    1.0094085   -3.6656895    1255.9211  0.069311317   0.06889961            3 
 1511000    0.9954263   -3.6711708    1255.7899  0.069258211  0.068886644            6 
 1512000    1.0061227   -3.6582501    1254.8472  0.069160448  0.068873852            2 
 1513000    1.0068218   -3.6669742    1260.9204  0.069449239  0.068861427            2 
 1514000    1.0166193   -3.6933787     1254.074  0.069026527  0.068848717            2 
 1515000    1.0063634   -3.6936475    1256.2167  0.069098828    0.0688359            3 
 1516000    1.0086628   -3.6765353    1261.1966  0.069326988  0.068823149            3 
 1517000   0.99094431   -3.6626083    1255.7159  0.068980217  0.068810181            1 
 1518000    1.0194951   -3.6892479    1260.1394  0.069177611  0.068797148            3 
 1519000     1.008064   -3.7084182    1255.7674   0.06889222  0.068784377            6 
 1520000    1.0125098   -3.6662715    1260.5021  0.069106477  0.068771964            2 
 1521000    1.0147005   -3.6835019    1265.1817  0.069317431  0.068759369            3 
 1522000   0.99826345   -3.7024644    1258.4741  0.068904627  0.068746585            2 
 1523000    1.0100884   -3.6853433    1264.4292  0.069185227  0.068734127            3 
 1524000    1.0012898   -3.6514734    1260.5993  0.068930407  0.068721513            2 
 1525000    1.0044734    -3.696547    1257.4805  0.068714783  0.068708895            5 
 1526000    1.0078454   -3.6777002    1263.5056  0.068998777  0.068695982            4 
 1527000    1.0110228   -3.6525797    1268.9922  0.069253011  0.068683152            2 
 1528000    1.0151582    -3.686564    1262.6148  0.068859884  0.068670336            4 
 1529000   0.98467837   -3.6754331    1265.3412   0.06896344   0.06865772            3 
 1530000   0.98719292   -3.7001731    1261.4276  0.068705208  0.068644926            3 
 1531000   0.99325241   -3.6925759    1263.0045  0.068746161  0.068632126            3 
 1532000   0.99605103   -3.6884057    1264.4733  0.068781185   0.06861931            3 
 1533000    1.0333412   -3.6844002    1265.7364   0.06880498  0.068606584            1 
 1534000    0.9857336   -3.6830541    1265.9251  0.068770379  0.068593666            3 
 1535000    1.0200047   -3.6841454    1265.0132   0.06867607  0.068580737            3 
 1536000   0.99704338   -3.7120945    1266.7516  0.068725672  0.068567872            3 
 1537000    1.0127591   -3.7271509    1264.5662  0.068562469  0.068554931            6 
 1538000   0.99992721   -3.7017124    1267.5207  0.068677976  0.068542114            1 
 1539000    1.0260178   -3.7232642    1266.5259  0.068579486  0.068528817            3 
 1540000    1.0275065   -3.6872475    1267.0009  0.068560656  0.068515909            2 
 1541000    0.9895098   -3.6926696    1266.7407  0.068502091  0.068503002            2 
 1542000   0.99033912    -3.734964    1262.0636  0.068204906   0.06849022            2 
 1543000     0.986755   -3.6846595    1273.6459  0.068786232   0.06847722            3 
 1544000    1.0123122   -3.6942169    1269.9036  0.068539702  0.068464341            2 
 1545000   0.99322926   -3.6907134    1271.3358   0.06857259  0.068451232            2 
 1546000     1.004606   -3.6832229    1274.3478   0.06869059  0.068438497            2 
 1547000   0.99309075    -3.718215     1274.884   0.06867507  0.068425497            5 
 1548000    1.0106402   -3.6816967     1277.985  0.068797644  0.068412808            2 
 1549000   0.97343519   -3.6911116    1273.0434  0.068487379  0.068400303            2 
 1550000    1.0188825   -3.6962462     1277.425  0.068678765  0.068387895            5 
 1551000    1.0017185   -3.7173762    1271.4117  0.068311394  0.068375137            4 
 1552000     1.012026    -3.663923    1280.9566  0.068779886  0.068362687            2 
 1553000    1.0196577   -3.7095449    1282.3386  0.068809755  0.068350299            4 
 1554000   0.99608062   -3.6722619    1278.5777  0.068563797  0.068337694            4 
 1555000    1.0165649   -3.6861771     1277.153  0.068443356  0.068325346            5 
 1556000   0.99783421   -3.7039537    1279.0577  0.068501376  0.068313147            1 
 1557000    1.0026175   -3.7041278    1278.1793  0.068410366  0.068300563            4 
 1558000    1.0173133   -3.7091216    1282.3674  0.068590468  0.068287381            4 
 1559000   0.99616911   -3.6862365    1279.1217  0.068372978  0.068274422            3 
 1560000   0.99041173   -3.6915559    1283.7423  0.068575977  0.068261741            7 
 1561000    1.0050464   -3.7033843    1284.9935  0.068598843  0.068249158            2 
 1562000   0.99178297    -3.694419    1283.3701  0.068468318   0.06823637            1 
 1563000    1.0283154   -3.7108456    1279.0983  0.068196752  0.068223549            2 
 1564000    1.0111868   -3.6797832    1279.6698  0.068183602  0.068210795            2 
 1565000    1.0123633   -3.6740152    1286.6935  0.068514031  0.068197887            2 
 1566000    1.0019326   -3.6874605    1282.6992  0.068257729  0.068185651            6 
 1567000   0.99578804   -3.6906059    1285.2625  0.068350485  0.068173161            3 
 1568000     1.032303    -3.685575    1290.1017  0.068564078  0.068160546            4 
 1569000   0.98876927   -3.6777146    1287.4603   0.06838009  0.068148064            1 
 1570000    1.0134421   -3.7289056         1288   0.06836518  0.068135238            2 
 1571000    0.9833167   -3.6806069    1289.2848  0.068389814  0.068121971            3 
 1572000     1.019942   -3.7210299    1287.7189  0.068263298  0.068109019            4 
 1573000    1.0288723   -3.6983613    1292.2548  0.068460202  0.068096283            2 
 1574000    1.0012923   -3.6947347    1288.1111  0.068197329  0.068083626            5 
 1575000   0.99233146   -3.7048994    1289.7102  0.068238633  0.068070826            4 
 1576000    0.9937953   -3.6992155    1284.7207  0.067931508  0.068057641            3 
 1577000    1.0035529   -3.6920856     1291.415   0.06824218  0.068044885            3 
 1578000   0.97709609   -3.7108723    1288.6194  0.068051297  0.068031909            4 
 1579000    1.0014985   -3.7084241    1288.6032  0.068007346   0.06801889            3 
 1580000   0.99037566   -3.6998855    1293.7088  0.068233586  0.068005672            3 
 1581000    1.0125371   -3.7251768      1291.25  0.068060825  0.067993153            2 
 1582000   0.99588331   -3.7133121    1296.0434    0.0682703   0.06798018            2 
 1583000   0.99419704   -3.7329593    1293.9105  0.068114892  0.067967028            3 
 1584000    1.0111185    -3.688035     1298.731  0.068325496  0.067954064            4 
 1585000    0.9930322   -3.7249577    1295.8541  0.068131132   0.06794107            2 
 1586000   0.98847157   -3.7150654    1292.1189  0.067891913  0.067928011            1 
 1587000    1.0046497   -3.7119076    1295.1771   0.06800972  0.067915291            4 
 1588000    1.0035396   -3.7074263    1294.4155  0.067926927  0.067902583            3 
 1589000   0.98467024   -3.7108787    1295.5915  0.067945852  0.067890006            4 
 1590000   0.99231536    -3.744697    1294.7238   0.06785764  0.067876962            2 
 1591000   0.98430531   -3.6839929     1305.613  0.068385344  0.067864331            1 
 1592000   0.97470805   -3.6966665    1300.3138  0.068065001  0.067851972            5 
 1593000    1.0101558   -3.6919466    1299.9068  0.068000984  0.067839335            3 
 1594000   0.99524924   -3.6997154    1301.9274  0.068063957   0.06782646            5 
 1595000   0.98097619   -3.6846531    1301.3207  0.067989588  0.067813576            4 
 1596000    1.0096995    -3.704127    1298.6796  0.067809085  0.067800923            1 
 1597000   0.98619449   -3.7113831    1300.8537   0.06788007  0.067787986            2 
 1598000   0.99018705   -3.6937977    1305.1207  0.068060114  0.067774928            3 
 1599000    1.0078274   -3.7308535    1299.4354  0.067721255  0.067761734            3 
 1600000   0.99265507   -3.7152394    1300.9284  0.067756685   0.06774867            4 
 1601000   0.99016526   -3.7055028    1300.4941  0.067691762  0.067735755            4 
 1602000     0.987291   -3.7095249    1307.5186  0.068014909  0.067722801            3 
 1603000    1.0029157   -3.7016395    1307.4479  0.067968802  0.067709919            3 
 1604000    1.0114465   -3.7346574    1303.4413  0.067718274  0.067696869            2 
 1605000   0.99720417   -3.7171446    1307.8579  0.067905394  0.067683446            4 
 1606000   0.98792431   -3.7041078     1307.346  0.067836549  0.067670352            4 
 1607000   0.99595446   -3.7179761     1305.214  0.067683777  0.067657219            4 
 1608000    1.0127123   -3.7023533    1308.6978  0.067822235  0.067643656            2 
 1609000   0.98724951   -3.7402755    1300.2758  0.067343891  0.067630004            1 
 1610000   0.99540575   -3.7033697    1306.5983  0.067629314  0.067616404            3 
 1611000   0.99477461   -3.7234297    1300.8446  0.067289705  0.067602857            3 
 1612000    1.0141983   -3.7082182    1304.8813  0.067456643  0.067589134            2 
 1613000   0.99142797    -3.698196    1309.9001  0.067674109  0.067575718            3 
 1614000   0.97842422   -3.7133522    1308.3508  0.067552188  0.067562554            1 
 1615000   0.98114261   -3.7283918    1309.3727   0.06756309  0.067549794            3 
 1616000   0.98718523   -3.7348436    1308.9327  0.067498594  0.067536778            3 
 1617000   0.98389063   -3.7442155    1306.8454  0.067349277  0.067523595            2 
 1618000   0.97571608   -3.7239452    1312.7075  0.067609574  0.067510158            4 
 1619000   0.99808376    -3.713287    1314.5805  0.067664221  0.067497153            2 
 1620000    1.0028799   -3.6965206    1313.1741  0.067550106  0.067484081            3 
 1621000   0.97227325   -3.7172355    1319.5805  0.067837778  0.067471274            2 
 1622000   0.98087838   -3.7178597    1316.9816  0.067662435  0.067458459            1 
 1623000    1.0054557   -3.7174937    1320.2281  0.067787436  0.067445755            2 
 1624000     1.006227     -3.72755    1313.0698  0.067378378  0.067433158            3 
 1625000   0.97288116    -3.691754    1320.7708  0.067731838  0.067420694            2 
 1626000    1.0101122   -3.7232009    1318.6421  0.067581082  0.067408228            3 
 1627000   0.97598888   -3.6942246    1322.4296  0.067733536  0.067395538            5 
 1628000   0.99379566   -3.7087529     1317.542  0.067441749  0.067383053            4 
 1629000    0.9905766   -3.7147571    1319.9774  0.067524936   0.06737037            1 
 1630000    0.9867399   -3.6800211    1329.7565  0.067983459  0.067357887            3 
 1631000     1.022143   -3.7252407    1324.9297  0.067695159  0.067345624            3 
 1632000   0.99859716   -3.7263172    1321.2552  0.067466054  0.067333059            2 
 1633000    1.0128889   -3.7143152    1327.1745  0.067726805  0.067320746            4 
 1634000   0.98110278   -3.7238527    1324.8633  0.067567489  0.067308738            2 
 1635000    1.0222965   -3.7191314    1326.5213   0.06761067  0.067296645            6 
 1636000   0.97676627    -3.717663    1328.1536  0.067652484  0.067284433            1 
 1637000   0.98994565   -3.7008108    1322.5865  0.067327759  0.067272482            2 
 1638000   0.99157866    -3.729899    1323.3169  0.067323812  0.067260289            3 
 1639000   0.98948049   -3.7217483    1327.2636  0.067483407  0.067247698            3 
 1640000   0.99332609   -3.7165545    1330.5275  0.067608102  0.067235323            7 
 1641000   0.96826648   -3.7183043    1333.4529  0.067715466  0.067223144            3 
 1642000   0.98704414   -3.7326773    1325.9968  0.067295817  0.067211125            2 
 1643000   0.97548138    -3.736732    1330.9451  0.067505836  0.067198736            4 
 1644000   0.98623896   -3.7454323    1333.1862  0.067578378  0.067186616            4 
 1645000   0.98825897   -3.7357815    1329.5165  0.067351394  0.067174794            2 
 1646000    1.0005933   -3.7293717    1337.2945  0.067704256  0.067162671            3 
 1647000   0.97832239   -3.7545109    1333.8195  0.067487328  0.067150552            2 
 1648000   0.97706657   -3.7334616    1338.4722  0.067681644  0.067138622            3 
 1649000   0.98420669   -3.7039813    1337.1523    0.0675739  0.067126292            2 
 1650000   0.96539877   -3.7262784    1333.4396  0.067345437   0.06711427            3 
 1651000   0.96865394   -3.7253226    1336.4222  0.067455189  0.067102008            2 
 1652000   0.97784851   -3.7123624    1334.8876  0.067336946  0.067089911            3 
 1653000   0.99525439   -3.7030212    1341.2954   0.06761925  0.067077825            1 
 1654000   0.98918121   -3.7066612    1334.6432  0.067243208  0.067065541            2 
 1655000   0.97781919   -3.6965993    1339.8509  0.067464798  0.067053373            2 
 1656000   0.98285332   -3.7275603    1332.2842  0.067043286  0.067041022            4 
 1657000   0.96800087   -3.7514934    1331.7772  0.066977331  0.067028105            6 
 1658000    0.9967222   -3.7335664    1338.0529  0.067252356  0.067015244            2 
 1659000   0.99049716   -3.7322882    1338.5074  0.067234651  0.067002262            5 
 1660000   0.98590862    -3.724639     1337.258  0.067131425   0.06698922            3 
 1661000   0.99192303   -3.7165968     1340.488  0.067253063  0.066976612            4 
 1662000   0.98622113    -3.717857     1341.059  0.067241223   0.06696409            8 
 1663000    0.9768344   -3.7420498    1336.6121  0.066977958  0.066951383            5 
 1664000   0.98594263   -3.7163061     1338.053  0.067009866  0.066938444            1 
 1665000   0.98951058     -3.73875    1341.8343  0.067158876  0.066925318            8 
 1666000   0.98843308   -3.7609169     1335.877  0.066820576  0.066912312            2 
 1667000     1.011508   -3.7362065    1334.8576  0.066729533  0.066899098            4 
 1668000   0.98450787   -3.7481025    1337.3204  0.066812568   0.06688565            2 
 1669000   0.98378669   -3.7407998    1334.6674  0.066640076  0.066872211            6 
 1670000   0.97075383   -3.7186914    1342.6851  0.067000256  0.066858994            2 
 1671000   0.97827045   -3.7599958    1339.3877  0.066795716  0.066845903            3 
 1672000   0.96812756    -3.729714    1341.3403  0.066853087  0.066832491            3 
 1673000   0.98782201   -3.7158723    1342.2311  0.066857495  0.066819152            2 
 1674000    0.9955039   -3.7176311    1342.8677  0.066849248  0.066805743            3 
 1675000   0.97387531   -3.6968503    1345.0887  0.066919834  0.066792593            2 
 1676000   0.97501843   -3.7454613    1344.4803  0.066849659  0.066779349            3 
 1677000     1.016345   -3.7736943    1336.5265  0.066414554  0.066766088            9 
 1678000   0.99078311    -3.751527    1339.1461   0.06650507  0.066752526            1 
 1679000    1.0000021   -3.7162794    1343.0543  0.066659436  0.066738973            4 
 1680000     1.014241   -3.7133184    1347.2045  0.066825618   0.06672545            5 
 1681000   0.99609412   -3.7026268    1345.2946  0.066691188  0.066711714            3 
 1682000   0.99183204   -3.7540252    1346.7606  0.066724167  0.066698097            1 
 1683000    1.0049707   -3.7398065    1347.5735   0.06672477  0.066684527            1 
 1684000    1.0057249   -3.7039494    1346.5046  0.066632256  0.066670608            3 
 1685000   0.98547775   -3.7542224    1345.2106  0.066528714  0.066657033            6 
 1686000   0.99637091   -3.7267603    1347.9632  0.066625305  0.066643382            2 
 1687000    0.9918484   -3.7484866    1347.3696  0.066556491   0.06662967            3 
 1688000   0.97730178   -3.7640073    1345.4508  0.066422333   0.06661588            4 
 1689000   0.97647972   -3.7041733    1349.3218  0.066573997   0.06660229            4 
 1690000   0.98655001   -3.7353414    1347.6016  0.066449781  0.066588642            2 
 1691000    1.0065479   -3.7198363    1349.6946  0.066513632  0.066575049            7 
 1692000   0.98454513   -3.7423561    1349.3151  0.066455631  0.066561233            4 
 1693000   0.99857189   -3.7494304    1352.6318   0.06657963  0.066548081            3 
 1694000   0.98562746   -3.7274327    1355.2887   0.06667103  0.066534745            3 
 1695000   0.94958186   -3.7737453    1349.2403   0.06633433  0.066521057            3 
 1696000   0.97769954   -3.6976423     1352.828  0.066471503  0.066507393            3 
 1697000   0.98508655   -3.7455398     1352.895  0.066435624  0.066493973            2 
 1698000   0.97475974   -3.7540207    1350.4862  0.066278281   0.06648076            4 
 1699000   0.98355725   -3.7246381    1349.8351  0.066207335  0.066467048            3 
 1700000   0.97948722   -3.7256196    1357.7837  0.066558023    0.0664538            2 
 1701000   0.97987296   -3.6969222    1357.2748  0.066493965  0.066440137            3 
 1702000   0.98181692   -3.7695542    1357.3728  0.066459696  0.066426256            3 
 1703000   0.97106866   -3.7306388    1357.4118  0.066422576  0.066412422            3 
 1704000   0.99058366    -3.745295    1351.6753  0.066103057  0.066398403            4 
 1705000   0.97775441   -3.7439208    1355.5307  0.066252722  0.066384467            3 
 1706000   0.96087403   -3.7303756    1355.8639  0.066230166    0.0663705            4 
 1707000    1.0011045   -3.7175328    1354.0979  0.066105149  0.066356527            2 
 1708000    1.0057239   -3.7107428    1364.6455  0.066581066  0.066342706            4 
 1709000   0.95837413   -3.7538929    1360.5325  0.066341549  0.066329211            2 
 1710000   0.98499998   -3.7318574    1360.0839  0.066280892  0.066315302            4 
 1711000   0.97793015   -3.7639282    1359.5223    0.0662148  0.066301439            4 
 1712000   0.97716721   -3.7251418    1358.6175  0.066132084  0.066287754            4 
 1713000   0.99449484   -3.7482159    1358.7467  0.066099763  0.066274024            4 
 1714000   0.98343397   -3.7053583     1360.153  0.066129571  0.066260421            3 
 1715000   0.97780549   -3.7432873    1357.9442  0.065983681  0.066246869            2 
 1716000   0.96780169   -3.7431935    1366.4572  0.066358643  0.066233493            2 
 1717000   0.97895937   -3.7524923    1363.3928  0.066171266  0.066219819            4 
 1718000   0.98957457   -3.7453515     1359.912   0.06596391  0.066206421            4 
 1719000     0.984565   -3.7209314     1363.072  0.066078727  0.066192882            2 
 1720000    0.9769783   -3.7304387    1363.9906  0.066084817  0.066178968            1 
 1721000   0.98420034   -3.7341149    1368.1831  0.066249425  0.066165199            7 
 1722000   0.97074729   -3.7079202    1367.4166  0.066173857  0.066151349            2 
 1723000   0.98990105   -3.7841547    1360.5581  0.065803736  0.066137438            4 
 1724000   0.98910124   -3.7451586    1365.6335    0.0660109  0.066123534            4 
 1725000   0.95786315   -3.7026901    1365.0026  0.065942157  0.066109569            1 
 1726000   0.99990798    -3.765284    1364.8235  0.065895302    0.0660956           11 
 1727000   0.98301155   -3.7606997    1366.4059  0.065933501  0.066081411            5 
 1728000   0.95415205    -3.767188     1365.157   0.06583512  0.066067274            4 
 1729000   0.99424531   -3.7534044    1369.8669  0.066024048  0.066053293            2 
 1730000   0.97189943   -3.7330777    1368.2691  0.065908918  0.066039322            2 
 1731000   0.98114851   -3.7399737    1367.3153  0.065824923  0.066025337            2 
 1732000   0.98296868   -3.7809897    1366.8033  0.065762285   0.06601146            9 
 1733000   0.96994679   -3.7843189     1365.393  0.065656521  0.065997177            4 
 1734000   0.98570242   -3.7241983     1376.178  0.066136965  0.065983121            3 
 1735000   0.97458865     -3.74348    1370.5773  0.065829841  0.065969222            3 
 1736000   0.98546243   -3.7529189    1370.2896   0.06577811  0.065955408            3 
 1737000   0.96296223   -3.7311771    1373.1397  0.065876977  0.065941823            6 
 1738000   0.97739832   -3.7317519    1375.9923  0.065975849  0.065928064            4 
 1739000   0.97117478   -3.7319321    1370.6012  0.065679567  0.065914339            2 
 1740000   0.97213782   -3.7522355    1374.8799  0.065846739   0.06590037            4 
 1741000   0.97330284   -3.7499956    1371.7571  0.065659443  0.065886388            3 
 1742000   0.96581059   -3.7478751    1377.0413  0.065874538  0.065872188            3 
 1743000   0.95965322   -3.7441475    1374.1528  0.065698643  0.065858615            5 
 1744000   0.97848991   -3.7492242    1381.5333  0.066013633  0.065844926            2 
 1745000   0.95700259   -3.7322962    1377.5617  0.065786136  0.065831215            6 
 1746000   0.97689365   -3.7730373    1375.7413  0.065661575  0.065817302            4 
 1747000   0.99103528   -3.7329418    1381.8043  0.065913198  0.065803506            3 
 1748000   0.96465527   -3.7429101    1377.4602   0.06566839  0.065789693            2 
 1749000   0.92707237   -3.7551256    1376.8522  0.065601876  0.065775802            5 
 1750000    0.9835171   -3.7210541    1375.4677  0.065498461  0.065761707            3 
 1751000   0.96566383   -3.7492477    1375.9238  0.065482761  0.065747752            2 
 1752000   0.97332062   -3.7522921    1377.6571  0.065527829  0.065733767            2 
 1753000   0.95794843   -3.7510931    1380.5846  0.065629617  0.065719827            1 
 1754000    0.9651992   -3.7188834     1380.251  0.065576348  0.065706238            3 
 1755000   0.98862255   -3.7458869    1385.8392  0.065804333  0.065692357            5 
 1756000   0.98331227   -3.7483993    1382.0307  0.065586118  0.065678631            4 
 1757000   0.98071389   -3.7867236    1379.7598  0.065441082   0.06566473            2 
 1758000   0.96958713   -3.7514007    1380.5968  0.065443533  0.065650769            2 
 1759000   0.94779954   -3.7494482     1377.172  0.065244076  0.065637085            2 
 1760000    0.9743663   -3.7657301    1378.1954  0.065255465  0.065623278            3 
 1761000    0.9791195   -3.7415987    1378.8537  0.065249561  0.065609373            3 
 1762000   0.98156269   -3.7612631    1385.1678  0.065511151  0.065595537            2 
 1763000   0.99628847   -3.7402539    1390.4697  0.065724603  0.065581804            2 
 1764000   0.97555195   -3.7360467    1391.5302  0.065737444  0.065568367            6 
 1765000   0.98079236   -3.7283933    1388.2584  0.065545724  0.065555083            3 
 1766000   0.96266001   -3.7738104    1387.2261  0.065459896   0.06554136            3 
 1767000   0.96877023   -3.7487461    1388.4487  0.065480508   0.06552763            5 
 1768000   0.97687614   -3.7464101     1389.528  0.065494345  0.065514026            2 
 1769000   0.98367652   -3.7255843    1391.7197  0.065560568  0.065500708            2 
 1770000   0.99479047   -3.7883778    1395.8362  0.065717337  0.065487292            3 
 1771000   0.96382063   -3.7512028    1395.4121  0.065660271  0.065474166            2 
 1772000   0.97270987   -3.7960303    1395.2046  0.065613458  0.065460856            3 
 1773000   0.99865682   -3.7430543    1396.4577   0.06563535  0.065447536            1 
 1774000   0.98118243   -3.7274995    1398.5519  0.065696725  0.065434179            6 
 1775000   0.96553052    -3.749756    1393.2725  0.065411854   0.06542084            3 
 1776000   0.94586583   -3.7333457    1393.6275  0.065391682  0.065407735            2 
 1777000   0.96046289    -3.739712    1391.6713  0.065263145  0.065394278            4 
 1778000   0.97453451   -3.7296068     1402.393  0.065728956  0.065381138            2 
 1779000    0.9605541   -3.7447245    1397.6398  0.065469355  0.065367908            7 
 1780000   0.95890518   -3.7535062    1394.9632  0.065307266  0.065354527            3 
 1781000   0.97172034   -3.7963172    1395.5834  0.065299615  0.065341078            1 
 1782000   0.96100928   -3.7536094    1402.5229   0.06558749  0.065327817            3 
 1783000   0.95010474   -3.7542905    1396.2276  0.065256477  0.065314594            3 
 1784000   0.97834679   -3.7645613    1397.7255   0.06528987  0.065301103            3 
 1785000   0.96599785   -3.7438434    1400.6221  0.065388518  0.065287733            2 
 1786000   0.97154164   -3.7729877    1395.4525  0.065110697  0.065274148            3 
 1787000   0.98424588   -3.7152988    1407.3467  0.065628926  0.065260971            5 
 1788000   0.95724457    -3.759758    1399.6388  0.065232979  0.065247617            5 
 1789000   0.98944603   -3.7453086    1400.2253  0.065223836  0.065234334            3 
 1790000   0.97162649   -3.7467511    1403.1357  0.065322893  0.065221276            3 
 1791000   0.96442376   -3.7760701    1408.8549  0.065552525  0.065208143            4 
 1792000   0.95362535   -3.7424042    1407.6942   0.06546197  0.065194857            3 
 1793000   0.97100661   -3.7355838    1409.3977  0.065504635  0.065181937            1 
 1794000   0.98502615   -3.7566048    1408.0296  0.065404571  0.065169229            2 
 1795000   0.96605124   -3.7840696    1404.3944  0.065199367  0.065156186            4 
 1796000   0.96277484   -3.7794521    1402.4284  0.065071845  0.065143209            5 
 1797000    0.9516857    -3.781423    1403.8511  0.065101611  0.065130065            3 
 1798000      0.96302   -3.7424902    1404.4156  0.065091564  0.065117002            3 
 1799000   0.96866509    -3.763904    1397.8602  0.064751721  0.065103909            5 
 1800000   0.96068381   -3.7611186    1405.1696  0.065054148  0.065090858            3 
 1801000    0.9619753   -3.7611645    1407.2205  0.065112924  0.065077686            3 
 1802000   0.96673097   -3.7362206    1412.5324  0.065322439  0.065064981            3 
 1803000   0.95254855   -3.7173857    1417.3738  0.065509973  0.065052292            2 
 1804000   0.99722771   -3.7496371    1415.6989   0.06539629  0.065039436            4 
 1805000    0.9805357   -3.7346657    1413.0127  0.065236043  0.065026651            3 
 1806000   0.95262583   -3.7631851    1416.0063  0.065338052  0.065013812            2 
 1807000   0.95927422   -3.7382075    1413.2501  0.065174788  0.065000859            4 
 1808000   0.96797634   -3.7680688    1406.2292  0.064815139   0.06498779            2 
 1809000   0.96428864   -3.7469447    1418.8207  0.065359348  0.064974872            4 
 1810000   0.95690213    -3.780355    1417.0707  0.065242665  0.064961971            3 
 1811000   0.96729047    -3.763968    1416.8582  0.065196863  0.064948839            3 
 1812000   0.96293229   -3.7727873    1416.9009  0.065162845  0.064935924            7 
 1813000   0.96020389   -3.7492234    1419.1784  0.065231588  0.064923243            2 
 1814000   0.95988484   -3.7443596    1419.4751  0.065209255  0.064910433            4 
 1815000   0.96292814   -3.7606271    1417.6794  0.065090882  0.064897632            3 
 1816000   0.96685086   -3.7608152    1419.9204  0.065157874  0.064884901            2 
 1817000   0.96704466   -3.7544701    1424.6625  0.065339502  0.064872402            3 
 1818000   0.97261646   -3.7484685    1422.1267  0.065187328  0.064859734            7 
 1819000   0.95940451   -3.7617449    1419.8505  0.065047209  0.064847024            5 
 1820000   0.98247399    -3.765593    1417.0614  0.064883765  0.064834324            8 
 1821000   0.97270044   -3.7455501    1423.1499  0.065126759  0.064821853            2 
 1822000   0.96224302   -3.7793751    1413.9152  0.064668643  0.064809072            4 
 1823000   0.94377949    -3.760687    1422.9719   0.06504717  0.064796296            4 
 1824000   0.97168323   -3.7550385    1423.1198  0.065018267  0.064783403            4 
 1825000   0.95572241   -3.7919047    1418.2518  0.064760357    0.0647708            3 
 1826000    0.9554135   -3.7529794    1425.3536  0.065048996  0.064757742            4 
 1827000   0.95524215   -3.7804504    1424.2239  0.064961862  0.064744646            4 
 1828000    0.9597046    -3.781357    1420.0769  0.064737275  0.064731623            4 
 1829000   0.93228271   -3.7643995    1423.8048  0.064871732   0.06471833            2 
 1830000   0.94828847    -3.737928    1420.9073  0.064704342  0.064705102            3 
 1831000   0.96348953   -3.7608885    1427.1806  0.064954516  0.064692067            2 
 1832000   0.97315003   -3.7915769    1425.1552   0.06482693  0.064679049            3 
 1833000   0.96809512   -3.7451525    1430.0265  0.065013024  0.064665966            4 
 1834000   0.95225243   -3.7587637    1428.1958  0.064894394  0.064653278            6 
 1835000   0.94548975   -3.7457515    1429.0141  0.064896191  0.064640586            4 
 1836000   0.96070673   -3.7813905     1426.462  0.064745006  0.064627375            2 
 1837000   0.95952827    -3.765311    1426.4596  0.064709653  0.064614169            3 
 1838000   0.96439624   -3.7529702    1427.9233  0.064740808  0.064600807            5 
 1839000   0.96706067   -3.7962155     1427.162  0.064671109  0.064587621            3 
 1840000   0.96291306   -3.7608732    1427.3639  0.064645104  0.064574349            2 
 1841000   0.96401212   -3.7364549    1435.4427  0.064975679  0.064561531            3 
 1842000   0.96124823    -3.757797    1428.9652  0.064647359   0.06454836            3 
 1843000   0.96496392   -3.7715828    1431.6959  0.064735752  0.064535423            2 
 1844000   0.95097554   -3.7823062    1429.4652  0.064599839  0.064522258            2 
 1845000   0.96034221   -3.7683743    1434.5411  0.064794085  0.064509307            2 
 1846000   0.95039956    -3.770778    1433.2243  0.064699542  0.064496194            2 
 1847000   0.98197473      -3.7544    1430.5027  0.064541723  0.064482993            6 
 1848000   0.94245805    -3.778123    1436.2082   0.06476408  0.064470027            4 
 1849000   0.93819883   -3.7711013    1430.1815   0.06445743  0.064456919            5 
 1850000   0.94872091   -3.7695339    1434.1255  0.064600246  0.064444085            3 
 1851000   0.96903381   -3.7758324    1436.6075  0.064677088  0.064431085            3 
 1852000   0.95050606   -3.7634861    1435.9486  0.064612516  0.064418371            2 
 1853000   0.96553134   -3.7787455    1435.0842  0.064538773  0.064405624            4 
 1854000    0.9494282    -3.801543    1435.2549  0.064511639  0.064392685            4 
 1855000   0.96125812   -3.7721808    1440.2611  0.064701758  0.064379774            2 
 1856000   0.95796438   -3.7806807    1437.8972  0.064560757  0.064366974            4 
 1857000   0.96434078   -3.7745226    1444.4234  0.064818855  0.064354395            3 
 1858000   0.96918315   -3.7669099    1440.3196  0.064599912  0.064341795            5 
 1859000   0.95347803    -3.804968    1436.9994  0.064416327  0.064329272            2 
 1860000   0.96488549    -3.760959    1442.1644  0.064613101   0.06431675           12 
 1861000   0.95584194   -3.7931758    1447.2211  0.064804813  0.064304202            2 
 1862000   0.97421364   -3.8062212    1438.2769  0.064369713  0.064291629            4 
 1863000   0.93532095   -3.7829241    1441.1376  0.064463125  0.064279112            3 
 1864000   0.96417627    -3.770102    1438.2456  0.064299249  0.064266828            2 
 1865000   0.92991825   -3.7703139    1441.7417  0.064420988  0.064254023            2 
 1866000   0.94180616   -3.7697149    1450.6742  0.064785379  0.064241223            3 
 1867000    0.9520638   -3.7716333     1447.483  0.064608241  0.064228656            2 
 1868000   0.95484603    -3.802728    1444.0541  0.064420686  0.064215969            3 
 1869000   0.94961527   -3.7472695    1452.3945  0.064758093  0.064203212            3 
 1870000   0.93189209   -3.7920166    1442.2763  0.064272564  0.064190563            3 
 1871000    0.9445187   -3.7702824    1444.4159  0.064333506  0.064177558            4 
 1872000   0.96760072   -3.7679815    1444.4413  0.064300273   0.06416485            5 
 1873000   0.95749786   -3.7692076    1449.1619   0.06447597  0.064152404            5 
 1874000   0.94147207   -3.7409875    1452.0132  0.064568358   0.06414001            5 
 1875000    0.9334332   -3.7417639     1448.134   0.06436151  0.064127245            2 
 1876000   0.94019013   -3.7715328    1445.7101  0.064219531  0.064114498            2 
 1877000   0.94964696   -3.7954244    1450.5891  0.064401933  0.064101812            3 
 1878000   0.92124667   -3.8095411    1452.0051  0.064430472  0.064089174            3 
 1879000   0.96071551   -3.7506601    1456.0805  0.064576925  0.064076914            2 
 1880000   0.94487219    -3.783615    1452.4496  0.064381629  0.064064514            2 
 1881000   0.92787381   -3.7535325    1451.4995  0.064305312  0.064051972            2 
 1882000   0.95702697   -3.7746797    1452.1106    0.0642982  0.064039372            4 
 1883000   0.96499442   -3.7664492    1448.5101  0.064104714  0.064026801            4 
 1884000    0.9590447   -3.8018047    1456.2361  0.064412426  0.064014248            5 
 1885000   0.98076002   -3.7685416    1456.6763  0.064397713  0.064001922            3 
 1886000   0.96588922   -3.7432415    1456.3235  0.064347982  0.063989582            3 
 1887000   0.93636695   -3.7885221     1455.319  0.064269519  0.063977292            1 
 1888000   0.95321012   -3.8131385    1456.2517  0.064276648  0.063964859            7 
 1889000   0.94804763   -3.7909057    1459.6544   0.06439273  0.063952229            3 
 1890000   0.93900597   -3.7894398    1457.5691  0.064266713  0.063939887            3 
 1891000   0.92226922   -3.7762432    1461.0754  0.064387247  0.063927717            2 
 1892000   0.96047744   -3.7628639    1455.9108   0.06412574  0.063915234            2 
 1893000   0.94021744   -3.7885865    1463.2493  0.064414919  0.063903003            4 
 1894000   0.94573284   -3.8075633    1459.4536  0.064213903  0.063890702            5 
 1895000   0.94797837   -3.7723245    1461.3498  0.064263402   0.06387821            4 
 1896000   0.95043474   -3.7639147    1461.9591   0.06425629  0.063865771            7 
 1897000   0.93858949   -3.7624043    1468.2307  0.064497921  0.063853381            4 
 1898000    0.9313479   -3.7632989    1463.1731  0.064241881  0.063841287            4 
 1899000   0.94457085   -3.7901633    1468.8399  0.064456729  0.063828865            6 
 1900000    0.9719806     -3.78668    1460.6591  0.064063996   0.06381643            2 
 1901000   0.92800851   -3.7606479    1466.8453  0.064301476  0.063803702            2 
 1902000   0.93318032   -3.7767318    1465.1034  0.064191352  0.063791432            2 
 1903000   0.94998589   -3.7767676    1467.8625  0.064278443  0.063778983            2 
 1904000   0.93978887   -3.7604871    1469.1919  0.064302866  0.063766931            3 
 1905000   0.93244053   -3.7845943    1466.6352  0.064157271   0.06375464            1 
 1906000   0.94406065    -3.798474    1464.2114  0.064017639  0.063742313            2 
 1907000   0.94318821   -3.7960747    1465.8747  0.064056751  0.063730074            4 
 1908000   0.97097548   -3.7618905    1466.6472  0.064056918  0.063717846            2 
 1909000    0.9562871   -3.7904668    1466.5851  0.064020653  0.063705406            3 
 1910000   0.95584822   -3.7638888    1466.5508  0.063985636  0.063693129            4 
 1911000   0.97008567   -3.7921201    1471.6061  0.064172601  0.063680898            3 
 1912000   0.93494155   -3.7714612    1473.1831  0.064207773  0.063668548            3 
 1913000   0.96105672   -3.7963325     1470.728   0.06406726  0.063656251            2 
 1914000   0.95286346   -3.7979658    1472.7667  0.064122548  0.063643952            2 
 1915000   0.92674664   -3.7877876    1469.8058  0.063960218  0.063631745            3 
 1916000   0.93809753   -3.7780949    1469.0901  0.063895707  0.063619453            4 
 1917000   0.92800273    -3.823567    1467.9204  0.063811529  0.063606928            4 
 1918000    0.9458558   -3.7509125    1473.9773  0.064041418  0.063594644            3 
 1919000   0.93739115   -3.7831495    1469.5328  0.063815042  0.063582144            2 
 1920000   0.95890559     -3.80172    1472.8606  0.063926243  0.063569785            1 
 1921000   0.96329934   -3.7935474    1474.7996  0.063977078  0.063557302            5 
 1922000    0.9534294   -3.7753152    1474.3762  0.063925431  0.063544973            8 
 1923000   0.95308797   -3.7878557    1474.6461  0.063903887  0.063532394            2 
 1924000   0.94706946    -3.781636    1474.3996  0.063859997  0.063520014            2 
 1925000    0.9408002   -3.7911252    1471.5821  0.063704853   0.06350762            4 
 1926000   0.94036211   -3.7922933    1472.4923  0.063711161  0.063495197            3 
 1927000   0.95934061    -3.799025    1475.6242  0.063813536  0.063482652            3 
 1928000   0.93521716   -3.7844771    1474.6837  0.063739788  0.063469867            6 
 1929000   0.93826534   -3.7903478    1470.1253   0.06350982  0.063457281            2 
 1930000   0.93461265   -3.7990679    1471.8009   0.06354926  0.063444811            2 
 1931000     0.945708   -3.7774212    1473.8906  0.063606533   0.06343207            4 
 1932000   0.94925345   -3.8127861    1472.7854   0.06352594  0.063419281            2 
 1933000   0.93264475    -3.764594     1476.051  0.063633858  0.063406373            2 
 1934000   0.94178759   -3.7918954    1480.7602  0.063803869  0.063394027            1 
 1935000   0.95038137   -3.8269004     1473.857    0.0634736  0.063381547            2 
 1936000   0.94288233   -3.8218487    1477.0891  0.063579938  0.063368859            5 
 1937000   0.94238221   -3.7892667    1481.8284  0.063751008  0.063356277            3 
 1938000   0.94341013   -3.7829067    1482.3154  0.063739054  0.063343634            4 
 1939000   0.93578204   -3.7943782    1479.2739  0.063575465   0.06333104            3 
 1940000     0.946151   -3.8337099    1475.6059  0.063385132  0.063318281            2 
 1941000   0.92665266   -3.7965017    1482.2393  0.063637271  0.063305563            3 
 1942000   0.92027044   -3.7972043    1478.2274  0.063432346   0.06329258            3 
 1943000   0.93897711   -3.7958476    1481.4872  0.063539509   0.06327979            4 
 1944000   0.93742505   -3.7941106    1473.0647  0.063145777  0.063266836            3 
 1945000   0.94031666   -3.8193713    1480.4155  0.063428255  0.063253835            3 
 1946000    0.9393894   -3.7793469    1483.4076  0.063523791  0.063240749            2 
 1947000   0.94570952   -3.7720049    1482.0763  0.063434184  0.063227781            5 
 1948000   0.94041452   -3.7930976    1482.4562  0.063417875  0.063214844            2 
 1949000   0.93578836   -3.8121596    1476.1439   0.06311544  0.063201977            2 
 1950000    0.9452546   -3.7864361    1484.7642  0.063451464  0.063189226            5 
 1951000   0.92289664   -3.8144366     1479.549  0.063196182   0.06317639            2 
 1952000    0.9508297   -3.8106364    1489.7246  0.063598215  0.063163766            2 
 1953000     0.937444   -3.7929483    1484.4663  0.063341281  0.063150916            2 
 1954000   0.96113671   -3.7675091    1490.5287  0.063567411  0.063138351            2 
 1955000   0.93143406    -3.783278    1484.4685  0.063276576  0.063125708            2 
 1956000   0.92298198   -3.8036167    1489.9442  0.063477514  0.063113048            6 
 1957000   0.94428274   -3.7844228    1482.3704  0.063122567  0.063100294            3 
 1958000   0.93275769   -3.7899021    1489.4659  0.063392316  0.063087821            4 
 1959000   0.94960982   -3.7776466    1488.3496  0.063312473  0.063075322            6 
 1960000   0.94488376   -3.7916347    1487.5443  0.063245931   0.06306276            2 
 1961000   0.93058497   -3.8393385    1486.7309  0.063179111  0.063050113            2 
 1962000   0.95782363   -3.8050913    1488.8166  0.063235498  0.063037424            4 
 1963000   0.93226098   -3.8119918    1487.1175  0.063131155  0.063024661            2 
 1964000   0.94359502   -3.8186046    1487.2586  0.063104998  0.063011966            3 
 1965000   0.92804376   -3.7668751     1498.322  0.063542069  0.062999475            3 
 1966000   0.92816314   -3.7821225     1491.483  0.063219864  0.062987202            4 
 1967000   0.95434401   -3.7913553    1497.6886  0.063450629  0.062975043            2 
 1968000   0.92404886   -3.8033335    1493.9992  0.063262161  0.062962366            2 
 1969000   0.91042885   -3.8256889    1493.4452  0.063206584  0.062949814            2 
 1970000   0.93573794   -3.7890872    1496.1529  0.063289041  0.062937478            5 
 1971000   0.95225358   -3.7864203    1495.2131  0.063217197  0.062925179            5 
 1972000   0.91332508   -3.8016509    1498.8353  0.063338204  0.062913059            2 
 1973000   0.94302789   -3.7927426     1499.369  0.063328643  0.062900693            4 
 1974000   0.93238801   -3.8219457     1497.477  0.063216693  0.062888127            2 
 1975000   0.91732528   -3.7867901    1499.8007  0.063282728  0.062875902            2 
 1976000   0.94489024   -3.8375987    1496.4014  0.063107348   0.06286369           10 
 1977000   0.94446241    -3.767706    1501.9519  0.063309389  0.062851206            4 
 1978000   0.94247561   -3.7779962    1501.4771  0.063257376  0.062839031            4 
 1979000   0.94261655   -3.7804004    1506.7323  0.063446702  0.062826876            2 
 1980000   0.94122948   -3.8260132    1506.6125  0.063409618  0.062814746            2 
 1981000   0.93112092   -3.8041687    1500.0937  0.063103384  0.062802527            4 
 1982000   0.93495187   -3.7827918    1507.2927  0.063374229  0.062790387            4 
 1983000   0.94089913   -3.7867269    1508.4619  0.063391405  0.062778282            2 
 1984000   0.92354524   -3.8045702    1507.3399  0.063312328  0.062765904            3 
 1985000   0.95330123   -3.8065106    1504.8053  0.063174026  0.062753741            9 
 1986000   0.93488459   -3.8008451    1504.2832  0.063120308  0.062741522            4 
 1987000   0.93695828   -3.8123238    1503.8529  0.063070497  0.062729114            5 
 1988000   0.95595184   -3.8059553     1507.731  0.063201335  0.062716725            4 
 1989000   0.94692935   -3.7725402    1504.2956  0.063025622  0.062704214            3 
 1990000   0.93474411   -3.8110727    1506.3786  0.063081182  0.062691817            4 
 1991000     0.944164   -3.7963853    1507.3348  0.063089521  0.062679323            4 
 1992000   0.92789794   -3.8024395    1511.1699  0.063218285  0.062666971            3 
 1993000   0.91881827   -3.7859493    1509.7877   0.06312877  0.062654364            4 
 1994000   0.95377628   -3.8145034    1504.2086  0.062863951  0.062641809            7 
 1995000   0.92399035    -3.841197     1506.915  0.062945489  0.062629397            6 
 1996000   0.94617599   -3.8000579    1510.5227  0.063064576  0.062617145            3 
 1997000   0.93403621   -3.7827364    1515.3469  0.063234305  0.062605087            2 
 1998000   0.93344915   -3.8289738    1510.0255  0.062980708  0.062592957            3 
 1999000    0.9184923   -3.8353989    1514.0951  0.063118854  0.062580887            2 
 2000000   0.94621224   -3.8059582    1512.0863  0.063003597  0.062568936            4 
 2001000   0.94245407    -3.822718    1513.1008  0.063014358     0.062557            2 
 2002000   0.92694263   -3.8085632    1519.4447  0.063246948  0.062544996            5 
 2003000   0.92760276   -3.7995142     1516.772  0.063104179  0.062532822            4 
 2004000   0.92800992   -3.7914443    1509.0881  0.062753165   0.06252064            3 
 2005000   0.94620256   -3.8097606     1512.441  0.062861223  0.062508567            2 
 2006000   0.92769427   -3.8214309    1509.3115  0.062699878  0.062496454            4 
 2007000   0.92195255   -3.7911265    1515.6023  0.062929843  0.062484253            3 
 2008000   0.93998054   -3.8154684     1515.749  0.062904592  0.062472253            4 
 2009000   0.93268413   -3.7872383    1514.7598  0.062832247  0.062460473            6 
 2010000   0.94608988    -3.789006    1513.8423  0.062762946  0.062448452            3 
 2011000   0.92127919   -3.8156067       1521.4  0.063044918  0.062436329            2 
 2012000   0.93290546   -3.7915745    1520.4949  0.062976096  0.062424223            4 
 2013000   0.92557472   -3.8056705    1522.1545  0.063013518  0.062412501            3 
 2014000   0.94307498   -3.8244768    1514.3064  0.062657498  0.062400714           12 
 2015000   0.93404191    -3.833222    1516.3788  0.062712108  0.062388988            3 
 2016000   0.94181982   -3.8405692    1518.6862  0.062776381  0.062377272            3 
 2017000    0.9384505   -3.8000406    1526.6369  0.063073743  0.062365649            2 
 2018000   0.92886242   -3.8087863    1524.6994  0.062962479  0.062354098            2 
 2019000   0.94944731   -3.8269425    1524.8079  0.062935772  0.062342343            5 
 2020000   0.93489078   -3.8005049    1527.0454  0.062996921  0.062330746            3 
 2021000   0.92710416   -3.8102952     1527.921  0.063001854   0.06231896            2 
 2022000   0.93282699   -3.8325317    1523.3885  0.062783898  0.062307192            3 
 2023000   0.92869648   -3.8250801    1529.2363  0.062993752  0.062295445            4 
 2024000   0.90847879   -3.7919298    1529.4129    0.0629699  0.062283925            4 
 2025000   0.94317307   -3.8085631    1526.4229  0.062815757   0.06227232            5 
 2026000   0.93086244   -3.8434926    1525.1864  0.062733893  0.062260567            2 
 2027000   0.91141534   -3.8406241     1531.648  0.062968589  0.062248708            2 
 2028000   0.89933424   -3.8165115    1526.4324  0.062723224  0.062236943            2 
 2029000    0.9282069   -3.8137708    1527.1402  0.062721381  0.062225265            3 
 2030000   0.90832677   -3.8428269    1527.8491  0.062719584  0.062213431            3 
 2031000    0.9213664    -3.845547    1528.3253  0.062708244  0.062201787            6 
 2032000   0.94284545   -3.8163469    1529.5663  0.062728278  0.062190272            3 
 2033000     0.937536   -3.8321678    1534.8189  0.062912726  0.062178681            3 
 2034000   0.93681044   -3.8445627    1525.0235  0.062480477  0.062166963            3 
 2035000   0.90382801   -3.7870928    1535.2086  0.062866854  0.062155456            2 
 2036000   0.91538467   -3.8074751    1532.0684  0.062707448  0.062144027            8 
 2037000   0.91148064   -3.8515324    1533.6675  0.062742083  0.062132392            2 
 2038000   0.91207806   -3.8290264    1528.5443   0.06250181  0.062120743            3 
 2039000   0.95516867   -3.8343989    1537.8387  0.062851016  0.062108974            3 
 2040000   0.94701639   -3.8070587    1532.8475   0.06261632  0.062097598            3 
 2041000     0.911238    -3.809884    1541.9932  0.062959055  0.062086323            2 
 2042000   0.91363356   -3.8019798    1539.8451  0.062840563  0.062075124            4 
 2043000   0.91610771   -3.8068772    1537.1098   0.06269823  0.062063887            4 
 2044000    0.9423746   -3.8300324    1535.2161   0.06259035   0.06205251            4 
 2045000   0.92733514   -3.7931289    1541.2443  0.062805393  0.062041137            2 
 2046000   0.90781817   -3.8210027    1540.4458  0.062742171    0.0620299            2 
 2047000   0.92183778   -3.8370977    1541.0201    0.0627349  0.062018584            9 
 2048000   0.90394124   -3.8232545    1539.3318  0.062635572  0.062007364            2 
 2049000   0.93067183    -3.813959    1541.0623  0.062675381  0.061995889            3 
 2050000   0.92139453   -3.7853167    1548.0105  0.062927254  0.061984705            1 
 2051000   0.93303385   -3.7995976    1547.6055  0.062880121  0.061973616            3 
 2052000   0.91459664      -3.8121    1540.6377  0.062566509   0.06196235            4 
 2053000   0.92576874   -3.8271703    1541.0044  0.062550916  0.061951073            4 
 2054000   0.93034076    -3.848406    1541.8367   0.06255423  0.061939641            4 
 2055000   0.89455708   -3.8189219    1546.0485  0.062694585  0.061928451            4 
 2056000   0.94127382   -3.8268308    1544.5081  0.062601658  0.061917402            3 
 2057000   0.92669884   -3.8468516    1541.1764  0.062436248   0.06190626            2 
 2058000   0.91113206   -3.8274998    1544.6997   0.06254858  0.061894979            4 
 2059000   0.91998873   -3.8295222    1541.8556  0.062403094  0.061883694            4 
 2060000   0.91874985   -3.8068637    1546.5107  0.062561114  0.061872495            4 
 2061000   0.94087044   -3.8386512    1544.4199  0.062446221   0.06186126            3 
 2062000   0.92589656   -3.8598295    1544.6903  0.062426863  0.061849901            8 
 2063000    0.9104258    -3.830582    1547.3724  0.062504942  0.061838458            3 
 2064000   0.94115538   -3.8428117    1541.5952  0.062241407  0.061827073            3 
 2065000   0.91062911   -3.8202726    1548.3733  0.062484797  0.061815751            7 
 2066000   0.92126773   -3.8358834    1547.3557  0.062413508  0.061804528            4 
 2067000   0.91945819   -3.8173376    1550.1049   0.06249415  0.061793306            2 
 2068000   0.92202218   -3.7999654    1555.4948  0.062681125  0.061782046            5 
 2069000   0.91219678    -3.844823    1549.5676  0.062412098  0.061770382            3 
 2070000   0.92655571   -3.8246716    1550.5903  0.062423122  0.061758739            5 
 2071000   0.91733376    -3.791535    1556.4725  0.062629669   0.06174738            4 
 2072000   0.91003247   -3.8568046    1546.3121  0.062190801  0.061735981            5 
 2073000   0.92085472   -3.8256752    1548.3491  0.062242687  0.061724391            7 
 2074000   0.92654711   -3.8299301    1553.5628  0.062422162  0.061712864            4 
 2075000   0.91274912   -3.8175544    1552.0636  0.062331871  0.061701353            5 
 2076000   0.93507684   -3.8360247    1547.5768   0.06212174  0.061689731            2 
 2077000   0.91967291   -3.8403088    1547.9465  0.062106664  0.061678383            4 
 2078000   0.90783379   -3.8431643    1551.8217  0.062232183   0.06166685            3 
 2079000   0.92667928   -3.8391865    1554.7613  0.062320077  0.061655324            2 
 2080000   0.93877963   -3.8389562    1543.0189  0.061819669  0.061643867            5 
 2081000   0.94937854   -3.8056309    1561.8718   0.06254492  0.061632637            5 
 2082000   0.92430032   -3.8275071    1557.9255  0.062356928  0.061621274            3 
 2083000   0.90809013   -3.8284405    1559.7265  0.062399044  0.061609994            4 
 2084000   0.91954244   -3.8214342    1555.9702  0.062218897  0.061598549            4 
 2085000   0.90467071   -3.8333788     1556.431  0.062207474  0.061587092            3 
 2086000   0.92022841   -3.8074404    1554.9721  0.062119373  0.061575532            3 
 2087000   0.92003867   -3.8280475    1557.9506  0.062208539  0.061563998            3 
 2088000   0.91294389   -3.8407184    1556.4622  0.062119342  0.061552625            3 
 2089000   0.88763564   -3.8144619    1559.5107  0.062211214   0.06154127            2 
 2090000   0.89755608   -3.8337944    1561.5511  0.062262803  0.061529955            1 
 2091000   0.93594909   -3.8240776     1563.171  0.062297585  0.061518435            6 
 2092000    0.9219005   -3.8063761    1556.9516  0.062020059   0.06150715            3 
 2093000   0.92677167    -3.834208    1562.2664  0.062202039  0.061495735            4 
 2094000   0.91391569   -3.8539454    1558.7469  0.062032271  0.061484421            5 
 2095000   0.91195953   -3.8200246    1566.1213  0.062295994  0.061473011            4 
 2096000   0.92913171   -3.8400585    1563.6591  0.062168381  0.061461828            5 
 2097000   0.91758306   -3.8560076    1559.9966   0.06199319  0.061450186            2 
 2098000   0.94171934   -3.8589525    1559.4719  0.061942798  0.061438831            9 
 2099000   0.89750883   -3.8514519    1562.1903  0.062021212  0.061427323            5 
 2100000   0.90838189   -3.8258593    1561.3175  0.061957045  0.061415986            5 
 2101000   0.90880806   -3.8349705     1567.317  0.062165517  0.061404426            3 
 2102000   0.90817478   -3.7966085    1566.9713  0.062122238  0.061392941            2 
 2103000    0.9309207   -3.8008479    1566.3607  0.062068502   0.06138151            4 
 2104000   0.90957176   -3.8595749    1563.5892   0.06192923  0.061370013            5 
 2105000   0.92855983   -3.8248017    1566.7894  0.062026501  0.061358634            2 
 2106000   0.91362422   -3.8497935    1561.2597   0.06177824  0.061347261            5 
 2107000   0.93561224   -3.8365842    1567.1435  0.061981628  0.061335849            6 
 2108000     0.898227   -3.8408363    1562.5183  0.061769383  0.061324653            6 
 2109000   0.91006664   -3.8207346    1573.6103  0.062178374  0.061313403            4 
 2110000   0.91566749   -3.8296578    1573.7873  0.062155897  0.061302468            4 
 2111000   0.92822302    -3.871807    1570.5809  0.061999876  0.061291251           12 
 2112000   0.93691583   -3.8518246    1569.2796  0.061919176  0.061280041            3 
 2113000   0.91358921   -3.8139183    1567.3224  0.061812681  0.061268882            4 
 2114000    0.9038254   -3.8528112    1568.9619  0.061848074  0.061257683            2 
 2115000   0.91707566   -3.8444955    1569.7409  0.061849524  0.061246338            3 
 2116000   0.88637353   -3.8766634    1568.5836  0.061774716  0.061234978           11 
 2117000   0.91359923   -3.8085151    1574.2904   0.06197018  0.061223766            7 
 2118000   0.93043275   -3.8449281     1565.997  0.061614611  0.061212647            5 
 2119000   0.92297928   -3.8615694    1577.6485  0.062043751  0.061201266            3 
 2120000   0.91922938   -3.8570691    1571.6975  0.061780562  0.061190168            1 
 2121000   0.90905637   -3.8443884    1575.0176  0.061881879  0.061178929            6 
 2122000    0.9022231    -3.825576    1576.3595  0.061905416  0.061167681            4 
 2123000   0.90599915   -3.8106621    1585.0422  0.062217073  0.061156431            4 
 2124000   0.87586503    -3.833327    1569.4821  0.061577295  0.061145133            4 
 2125000   0.91090095   -3.8472857    1572.7745  0.061677432  0.061133806            3 
 2126000   0.92788266   -3.8552935    1576.7171  0.061802958  0.061122251            4 
 2127000   0.90412693   -3.8341032    1578.0726  0.061827009  0.061110879            4 
 2128000   0.91889447   -3.8492383    1576.6514  0.061742302   0.06109966            5 
 2129000   0.90150049   -3.8645561    1575.6913  0.061675722  0.061088168            3 
 2130000   0.90781563   -3.8324081    1580.6221  0.061839675  0.061076935            4 
 2131000   0.91146133   -3.8278284    1581.3664  0.061839762  0.061065529            2 
 2132000   0.91823747   -3.8356494    1579.3264  0.061731019  0.061054167            3 
 2133000   0.91698022   -3.8322294    1576.4196  0.061588514  0.061042993            3 
 2134000   0.91237876   -3.8364788    1580.8484  0.061732597  0.061031697            3 
 2135000   0.91164906    -3.818109    1582.3929  0.061763969  0.061020416            4 
 2136000   0.89901332   -3.8296435    1588.6345  0.061978561  0.061009546            5 
 2137000    0.9037116   -3.8419092    1582.4641  0.061708943  0.060998323            3 
 2138000   0.89991535   -3.8819506    1579.6628   0.06157089  0.060987101            5 
 2139000   0.89732744   -3.8622058    1577.5055  0.061458059  0.060975848            8 
 2140000   0.89516907   -3.8379008    1582.3104  0.061616448  0.060964731            6 
 2141000   0.89898048   -3.8388633    1585.1228  0.061697137  0.060953616            2 
 2142000   0.88937922   -3.8393876    1584.0691  0.061627339   0.06094275            3 
 2143000   0.91402353   -3.8394324    1586.7241  0.061701826  0.060931727            2 
 2144000   0.90829896   -3.8511452    1593.3216  0.061929477  0.060921155            3 
 2145000   0.91576946   -3.8370361    1586.3268  0.061628856  0.060910315            2 
 2146000   0.90488428   -3.8866421    1585.7828  0.061579016  0.060899667            5 
 2147000   0.88625572   -3.8344612    1596.4132  0.061962941  0.060888871            4 
 2148000   0.91336569   -3.8662202    1587.0664  0.061571476  0.060877874            3 
 2149000   0.91743061   -3.8617133    1585.7244  0.061490788  0.060866943            2 
 2150000   0.90482801   -3.8100614    1595.6044  0.061845133  0.060855976            4 
 2151000   0.90635771   -3.8357206    1591.6052  0.061661444  0.060845019           13 
 2152000   0.93282283    -3.834352    1595.6501  0.061789426  0.060834156            3 
 2153000   0.91198717   -3.8681772    1592.5306  0.061639985   0.06082339            3 
 2154000   0.90869468   -3.8478554    1590.3785  0.061528105  0.060812371            7 
 2155000   0.91890485   -3.8417356    1591.6577  0.061549021  0.060801588            4 
 2156000   0.89134229   -3.8496309    1591.0735  0.061497894  0.060791011            5 
 2157000   0.89645307   -3.8524098    1596.3392  0.061672819  0.060780305            3 
 2158000   0.88138068   -3.8409242    1596.3567  0.061644915  0.060769683            3 
 2159000   0.92486059   -3.8637867    1598.2124  0.061687988  0.060758963            6 
 2160000    0.9021921     -3.85029    1593.0361  0.061459725  0.060748116            5 
 2161000   0.87902213   -3.8261398    1594.0526  0.061470483  0.060737421            4 
 2162000   0.91242704   -3.8404713    1599.7642  0.061662202  0.060726857            4 
 2163000   0.90851174   -3.8588105    1593.2637  0.061383252  0.060716066            5 
 2164000   0.88438472   -3.8395816    1598.0917  0.061540807   0.06070536            3 
 2165000   0.90588983   -3.8552288    1597.4393  0.061487273  0.060694465            4 
 2166000    0.9028933   -3.8437459      1597.16  0.061448139  0.060683679            3 
 2167000   0.90677879   -3.8796655      1599.33  0.061503229  0.060672843            4 
 2168000   0.88861023   -3.8705028    1596.4341  0.061363549  0.060662062            5 
 2169000   0.88862757   -3.8945702    1595.8815  0.061314025  0.060650967            4 
 2170000   0.89584536   -3.8610299    1602.2043  0.061528584  0.060640148            2 
 2171000   0.90059306   -3.8691482    1596.2319  0.061270992  0.060629491            5 
 2172000   0.91042227   -3.8411481    1605.6575  0.061604415   0.06061865            5 
 2173000   0.90495455   -3.8443528    1602.1659  0.061442165  0.060607644            2 
 2174000   0.89926759     -3.83307    1603.5258  0.061466029  0.060596907            5 
 2175000   0.89273189   -3.8673213    1598.6512  0.061251004  0.060586032            9 
 2176000   0.90155235   -3.8658367    1599.4378   0.06125298  0.060575107            3 
 2177000   0.89009824   -3.8590645    1597.6991  0.061158286   0.06056366            5 
 2178000   0.89996799   -3.8360073    1596.4735  0.061083315  0.060552402            2 
 2179000   0.89596381   -3.8702224    1599.4807  0.061170289  0.060541271            4 
 2180000   0.91250586    -3.858075    1603.0487   0.06127862  0.060530127            5 
 2181000   0.90471739   -3.8709555    1596.8418  0.061013364   0.06051886            3 
 2182000   0.88649312   -3.8495489    1603.4647  0.061238342  0.060507845            5 
 2183000   0.89885631   -3.8613257    1600.8125  0.061109043  0.060496852            2 
 2184000   0.91725503   -3.8485594    1600.6177  0.061073631  0.060485824            4 
 2185000   0.90717833   -3.8599451    1606.3797  0.061265435  0.060475036            6 
 2186000   0.89271681   -3.8630628    1606.3685  0.061236983  0.060463977            4 
 2187000   0.89694093   -3.8610066    1604.1993  0.061126327  0.060452985            4 
 2188000   0.91378847   -3.8295945     1607.174  0.061211684  0.060441945            5 
 2189000   0.89824744   -3.8792683    1603.5105  0.061044257   0.06043079            2 
 2190000   0.91200003   -3.8345124    1607.4912  0.061167854  0.060419609            7 
 2191000   0.90608664    -3.858702    1607.6326  0.061145313   0.06040865            3 
 2192000   0.91414358   -3.8327267    1609.0215  0.061170221  0.060397638            4 
 2193000   0.90271014   -3.8688671    1612.1717  0.061262036  0.060386661            3 
 2194000   0.89355873   -3.8746652    1607.0854  0.061040923  0.060375493            8 
 2195000   0.90802055   -3.8596026    1607.7101  0.061036829  0.060364471            8 
 2196000   0.89294214   -3.8430617    1608.4089  0.061035552  0.060353526            2 
 2197000   0.87270004   -3.8857476    1606.2953  0.060927603  0.060342536            3 
 2198000   0.91412571   -3.8749506    1611.8032  0.061108706  0.060331545            6 
 2199000   0.89604612   -3.8776386    1608.9292  0.060972003  0.060320435            2 
 2200000   0.89943503   -3.8731092    1612.5927  0.061083057  0.060309364            5 
 2201000   0.89362523   -3.8750383    1612.7209  0.061060159  0.060298283            6 
 2202000   0.89804894   -3.8351849    1614.6508  0.061105464  0.060287226            2 
 2203000   0.91107039   -3.8610449    1611.5429  0.060960163  0.060276388            4 
 2204000   0.88954724   -3.8734759    1613.2877  0.060998475  0.060265245            4 
 2205000   0.89206045   -3.8519599    1617.9536  0.061147152  0.060254164            6 
 2206000   0.89842817   -3.8240064    1618.9955   0.06115879  0.060243349            3 
 2207000   0.87954343   -3.8691795    1610.3087  0.060803076  0.060232531            2 
 2208000   0.87923687   -3.8748537    1617.1545  0.061033909   0.06022171            3 
 2209000   0.92270063   -3.8415766    1618.5822  0.061060142   0.06021096            4 
 2210000   0.91242901    -3.861044    1618.6553  0.061035266   0.06020019            3 
 2211000   0.90114641   -3.8649214    1616.9829   0.06094463   0.06018932            6 
 2212000   0.87478101   -3.8812698      1624.21  0.061189347  0.060178467            3 
 2213000    0.8968573   -3.8770062    1616.5548   0.06087343  0.060167629            3 
 2214000   0.90400615   -3.8432982    1618.4115  0.060915818  0.060156688            5 
 2215000   0.90453852    -3.886598     1612.378  0.060661324  0.060145618            2 
 2216000   0.89774242   -3.8667175    1617.4437  0.060824446  0.060134417            3 
 2217000   0.90893414   -3.8845122     1614.813  0.060698128  0.060123557            7 
 2218000   0.89849779   -3.8582506    1622.7674  0.060969618  0.060112444            5 
 2219000   0.90018919   -3.8717887    1615.4499  0.060667337  0.060101411            3 
 2220000   0.91181639   -3.8506923    1618.9264   0.06077051   0.06009039            5 
 2221000   0.91460577   -3.8791025    1617.4065   0.06068612  0.060079502            5 
 2222000   0.88892973   -3.8485554    1623.2405  0.060877608  0.060068404            3 
 2223000   0.91353712   -3.8806706     1620.104  0.060732645  0.060057467            4 
 2224000   0.89175945   -3.8605882    1618.4631   0.06064385  0.060046515            2 
 2225000   0.90375932   -3.8561093    1621.3292  0.060723939  0.060035538            4 
 2226000   0.88215831   -3.8686968      1624.77  0.060825471  0.060024749            3 
 2227000   0.86582536    -3.886415    1624.8095  0.060799637  0.060013725            4 
 2228000   0.90696093   -3.8750654    1624.9399  0.060777226  0.060002927            5 
 2229000   0.90943408   -3.8736508    1627.1315  0.060831893  0.059992103            6 
 2230000   0.90190992   -3.8736836    1628.0101  0.060837447   0.05998132            5 
 2231000   0.90444329    -3.883649    1623.8384  0.060654355  0.059970447            4 
 2232000   0.88815654   -3.8486755    1628.1926  0.060789748  0.059959606            3 
 2233000    0.8769193   -3.8735816     1634.803  0.061009216  0.059948893            3 
 2234000   0.87998796   -3.8639994    1627.0295  0.060691938  0.059938199            7 
 2235000   0.89744309    -3.875167    1625.9609  0.060624939  0.059927434            3 
 2236000   0.90112054   -3.8923867    1627.5511  0.060657091  0.059916625            5 
 2237000     0.898683   -3.8826548    1626.1132   0.06057641  0.059905815            6 
 2238000   0.91868955   -3.8812763    1632.8649  0.060800748  0.059895018            3 
 2239000   0.89344574   -3.8719483    1634.8703  0.060848231  0.059884355            5 
 2240000   0.91851327   -3.8774822    1630.3337  0.060652295   0.05987361            6 
 2241000   0.89567398   -3.8796486    1631.8001  0.060679761   0.05986295            4 
 2242000   0.87928455   -3.8820437    1633.2228  0.060705574  0.059852247            2 
 2243000   0.89260474   -3.8801202    1634.2373  0.060716201  0.059841574            4 
 2244000    0.9063951   -3.8674828    1635.6732  0.060742468  0.059831285            2 
 2245000   0.88977612   -3.8666299    1635.7104  0.060716793  0.059820636            2 
 2246000   0.89561543   -3.8822804    1631.8745  0.060547438   0.05981005            4 
 2247000    0.9051008   -3.8854981    1637.6588   0.06073501   0.05979938            2 
 2248000   0.88928401   -3.8790898    1637.7607   0.06071177  0.059788787            8 
 2249000   0.91431211   -3.8958891    1637.2101  0.060664374  0.059778202            4 
 2250000   0.90699472   -3.8703241    1636.5535  0.060613092   0.05976761            5 
 2251000   0.90599197   -3.8817372    1638.4397  0.060655992  0.059757223            3 
 2252000   0.90931679   -3.8772593    1640.0319  0.060687976  0.059746722            3 
 2253000   0.90315215   -3.8951709     1633.432  0.060416925  0.059736139            4 
 2254000   0.89455705   -3.8718841    1639.4926   0.06061419   0.05972536            2 
 2255000   0.90750919   -3.8732632    1642.0855  0.060683129  0.059714911            5 
 2256000   0.90092149   -3.8461161    1640.3756   0.06059307  0.059704586            5 
 2257000    0.8807813    -3.886354     1636.276  0.060414859  0.059694184            2 
 2258000     0.872606   -3.8788004    1642.4161  0.060614708  0.059683679            2 
 2259000   0.88268927   -3.8723683    1645.1978   0.06069049  0.059673159            9 
 2260000   0.87764285   -3.8680823    1645.6187  0.060679155  0.059662887            3 
 2261000   0.89163713    -3.902758    1638.3602  0.060384793  0.059652598            2 
 2262000   0.89769826   -3.8785808    1643.5004  0.060547467  0.059642053            6 
 2263000    0.8785521    -3.867038    1645.7121  0.060602153  0.059631508            5 
 2264000   0.88632368   -3.8808887      1642.35  0.060451636  0.059620978            8 
 2265000   0.88453054   -3.8921691    1640.1156  0.060342738  0.059610348            3 
 2266000   0.88643817   -3.8631894    1644.8415  0.060489906  0.059599642            5 
 2267000   0.88161255    -3.894101    1641.0835   0.06032508  0.059588944            4 
 2268000   0.89798587    -3.860759    1644.0227  0.060406476   0.05957823            9 
 2269000   0.90804869   -3.8670068    1643.7365  0.060369344  0.059567749            2 
 2270000   0.87961507   -3.8757536    1647.1655   0.06046863  0.059557289            6 
 2271000   0.88936947   -3.8867348    1645.7864    0.0603914  0.059546786            9 
 2272000   0.88354321   -3.8755505    1653.9758  0.060665191   0.05953634            9 
 2273000   0.89399978   -3.8870846    1647.3195  0.060394467   0.05952606            4 
 2274000   0.88725723   -3.8851373    1650.9704  0.060501702   0.05951575            5 
 2275000   0.89500161    -3.883103    1649.3198  0.060414646  0.059505497            2 
 2276000   0.89732694   -3.8869854    1650.8703  0.060444869  0.059495223            7 
 2277000   0.86587246   -3.8839957    1649.4262  0.060365473   0.05948479            2 
 2278000   0.87206447   -3.8849311    1651.1594  0.060402379  0.059474423            3 
 2279000   0.88452798    -3.894919    1657.8626  0.060620981  0.059464295            5 
 2280000    0.9068667   -3.8737507    1654.6255  0.060476079  0.059454156            3 
 2281000   0.87172714   -3.9014071    1654.2575   0.06043612  0.059444068            5 
 2282000   0.89156751   -3.8741944    1654.4236  0.060415702  0.059434167            3 
 2283000   0.89351551   -3.9003124    1655.1278  0.060414946  0.059424002            5 
 2284000   0.87342845   -3.8747828    1653.4769   0.06032826   0.05941396            3 
 2285000   0.88018419   -3.8731593    1663.4067  0.060663994  0.059403985            3 
 2286000   0.87904286   -3.8777954     1658.092  0.060443714  0.059393896            2 
 2287000   0.88490667   -3.8977414    1660.4951  0.060504849  0.059383843            3 
 2288000   0.88446929   -3.8626124    1662.2666  0.060542927   0.05937409            3 
 2289000   0.89540184   -3.8986587    1663.1835  0.060549859  0.059364169            3 
 2290000   0.90072393   -3.8853199    1661.9536   0.06047866  0.059354417            4 
 2291000   0.89167221   -3.8934572    1662.7175   0.06048005  0.059344617            3 
 2292000   0.88576878   -3.8739323     1667.258  0.060618747  0.059334961            3 
 2293000   0.88407869   -3.9027969    1664.7948  0.060502791  0.059325039            4 
 2294000    0.8997616   -3.9005819    1667.3072  0.060567685  0.059315219            3 
 2295000   0.90053969   -3.8857495    1666.2857  0.060504201  0.059305294            9 
 2296000   0.88873157   -3.8878142    1662.0744     0.060325  0.059295594            6 
 2297000   0.88488234   -3.8853185     1670.663  0.060610324  0.059286079            4 
 2298000   0.89786886   -3.8822236    1667.4815  0.060468579  0.059276324            3 
 2299000   0.88046781   -3.8883038    1668.5996  0.060482804  0.059266404            2 
 2300000   0.87692893   -3.8802191    1667.5907  0.060419954  0.059256513            2 
 2301000    0.8801736   -3.9108154    1661.3093  0.060166206  0.059246777            4 
 2302000   0.88075389   -3.8895757    1669.7834  0.060446837  0.059236658            5 
 2303000   0.88176355    -3.864717    1672.7851  0.060529206  0.059226897            3 
 2304000   0.90106314   -3.8952788    1666.5587  0.060277731  0.059216934            5 
 2305000   0.88727479   -3.8784953    1668.1834  0.060310317  0.059206996            4 
 2306000   0.88335291   -3.9045596    1667.7082  0.060266993  0.059196884            8 
 2307000   0.88028144   -3.9066278    1670.4556   0.06034011  0.059186914            2 
 2308000   0.88183628   -3.9045853    1675.2782  0.060488093  0.059176969            4 
 2309000   0.86533023   -3.8752464     1669.748  0.060262308  0.059167039            5 
 2310000   0.88554906   -3.8593842    1668.5066  0.060191434   0.05915707            6 
 2311000   0.88756565   -3.9176065    1665.9295  0.060072462   0.05914705            4 
 2312000   0.86573735   -3.8702882    1667.7737   0.06011295  0.059136807            3 
 2313000   0.91329526    -3.912864    1666.6562  0.060046701   0.05912665            6 
 2314000   0.88345323   -3.9020302    1672.4374  0.060228947  0.059116714            5 
 2315000   0.87946272   -3.9100506    1668.3191  0.060054684   0.05910671            2 
 2316000   0.89934182   -3.9061499    1678.3537  0.060389814  0.059096862            5 
 2317000   0.89541482   -3.9110867    1675.0725  0.060245737  0.059087021            2 
 2318000   0.86460466   -3.9072169    1673.0409  0.060146709  0.059076917            5 
 2319000    0.8716004   -3.8872703    1679.1193  0.060339203  0.059066993            2 
 2320000   0.87913428    -3.874853    1673.5066  0.060111586  0.059056859            3 
 2321000   0.87772711    -3.914749    1671.9517  0.060029862  0.059046771            5 
 2322000   0.85712749   -3.8851321    1671.3944  0.059984008   0.05903662            5 
 2323000   0.88799148   -3.8863803    1672.5741  0.060000504  0.059026481            3 
 2324000   0.88516853   -3.8937207    1670.5512  0.059902153  0.059016317            4 
 2325000   0.88447432   -3.8797973    1672.9904  0.059963815   0.05900633            2 
 2326000   0.90291335   -3.8792738     1679.419  0.060168349  0.058996349            7 
 2327000   0.88175734   -3.8683056    1674.6855  0.059972982  0.058986306            3 
 2328000   0.87925729   -3.8937294    1676.5116  0.060012586  0.058976029            3 
 2329000   0.87699749   -3.8821294    1676.7963  0.059997004  0.058965792            2 
 2330000     0.880193    -3.892964    1674.2304  0.059879486  0.058955547            3 
 2331000   0.88202973   -3.8917115    1675.4349  0.059896858  0.058945236            4 
 2332000   0.89184663   -3.8898344    1676.1413  0.059896416  0.058934952           11 
 2333000    0.8770006   -3.9047552    1678.8745  0.059968371  0.058924648            2 
 2334000     0.865737   -3.8690004    1676.2147  0.059847711  0.058914364            5 
 2335000   0.86334766   -3.9120301    1672.9461   0.05970543  0.058903951            3 
 2336000   0.88888111   -3.8952577    1672.7319  0.059672229  0.058893574            4 
 2337000    0.8617273   -3.9045962     1674.865  0.059722755  0.058883319            4 
 2338000   0.88285282    -3.903919    1674.0414  0.059667858  0.058873127            2 
 2339000   0.90254104      -3.8926    1679.9964  0.059854509  0.058863079            7 
 2340000   0.88202874   -3.9109194    1688.7891  0.060142061  0.058852768            4 
 2341000    0.8936411   -3.8928556    1686.1488  0.060022384  0.058842642            2 
 2342000   0.85466538   -3.8908586    1684.3867  0.059934055  0.058832509            4 
 2343000   0.87944169   -3.8915457    1675.3348  0.059586529  0.058822308            6 
 2344000   0.88013983   -3.8995838    1680.4646  0.059743478  0.058812183            2 
 2345000    0.8438917   -3.9165712    1685.8891  0.059910771  0.058802145            6 
 2346000   0.86688888   -3.8865732    1686.0624   0.05989139  0.058792243            2 
 2347000   0.89401684   -3.9076575    1684.6689  0.059816395  0.058782181            3 
 2348000   0.87866908   -3.9092382    1684.9981  0.059802602  0.058771925            3 
 2349000   0.89656815   -3.9231397    1688.0061  0.059883856  0.058761701            2 
 2350000   0.86172668   -3.8877622    1684.4978  0.059733964  0.058751752            3 
 2351000   0.85498039   -3.9032582    1680.5651   0.05956916  0.058741604            2 
 2352000   0.87028745   -3.9295459    1691.8063  0.059942115   0.05873159           11 
 2353000   0.87516405   -3.9032227    1688.1329  0.059786544  0.058721621            2 
 2354000   0.86744566   -3.9122914    1686.0915  0.059688879  0.058711473            4 
 2355000   0.88056952   -3.8837252    1691.0868  0.059840296  0.058701368            6 
 2356000   0.87235956   -3.9089603    1683.8957  0.059560543  0.058691222            6 
 2357000   0.91684282    -3.906503    1686.8922  0.059641218  0.058681185            4 
 2358000   0.88394791   -3.8941622    1688.9117  0.059687295  0.058671128            3 
 2359000   0.87268485   -3.8818829    1688.0975  0.059633232  0.058660965            5 
 2360000   0.89746437   -3.9216441    1681.8191  0.059386267  0.058650685            3 
 2361000    0.8572572   -3.9255207    1683.3303  0.059414454  0.058640259            8 
 2362000   0.87791629   -3.9175635    1693.4341  0.059745771  0.058630092            5 
 2363000    0.8781455   -3.8974656    1685.8964  0.059454664  0.058619741            2 
 2364000   0.85980453   -3.8883427    1689.7197  0.059564287  0.058609417            4 
 2365000    0.8708622   -3.8852658    1692.7859  0.059647142   0.05859905            5 
 2366000   0.87262919   -3.8940106    1691.6053  0.059580349  0.058588787            3 
 2367000   0.87583446   -3.8962795    1687.8899  0.059424373   0.05857854            7 
 2368000   0.88383643   -3.9054145    1684.9935  0.059297349  0.058568339            4 
 2369000   0.87802196   -3.9183036    1690.9905  0.059483272  0.058557937            5 
 2370000   0.86895672   -3.9155371    1692.5604  0.059513377  0.058547559            4 
 2371000   0.87869424   -3.9277766    1686.0669  0.059260049  0.058537091            5 
 2372000   0.87334843    -3.889152    1691.5897  0.059429093  0.058526624            3 
 2373000    0.8718902   -3.8991658     1688.035  0.059279217  0.058516267            3 
 2374000    0.8590244   -3.8822059    1692.3212  0.059404704  0.058505811            3 
 2375000   0.86343456   -3.9183831    1690.8425  0.059327806  0.058495394           10 
 2376000   0.88212273   -3.9134474    1690.6978  0.059297763  0.058484878            4 
 2377000   0.88235516   -3.9297063     1694.867  0.059418981  0.058474555            4 
 2378000     0.860872   -3.8904522    1695.3075  0.059409429  0.058464286            3 
 2379000   0.86346677   -3.9096203    1690.9195  0.059230753   0.05845373            8 
 2380000   0.87360005   -3.8972515    1693.9759  0.059312882  0.058443459            3 
 2381000   0.87961908   -3.9357089    1691.8507  0.059213591  0.058433018            5 
 2382000   0.84877974   -3.9334483    1693.8599  0.059259022  0.058422385            3 
 2383000   0.87268575   -3.9060307    1694.4507  0.059254816  0.058411897            9 
 2384000   0.88404067   -3.9127164    1693.1809  0.059185575  0.058401459            5 
 2385000   0.87773266   -3.9103245    1694.4135  0.059203826  0.058391078            5 
 2386000   0.87788511   -3.9068876    1693.7897  0.059157226  0.058380476            3 
 2387000   0.85971992     -3.92125     1700.563  0.059368907  0.058369956            4 
 2388000   0.86850748    -3.934237    1691.4179  0.059024913  0.058359634            3 
 2389000   0.88169637   -3.8976703    1703.5725  0.059424183  0.058349297            2 
 2390000   0.86860459   -3.9199773      1706.06  0.059486053  0.058338965            2 
 2391000   0.86196326    -3.895098    1704.8979  0.059420672  0.058328768            5 
 2392000    0.8583183   -3.9353738    1694.2472  0.059024776   0.05831855            4 
 2393000   0.88624251   -3.9162168    1699.3978  0.059179474   0.05830831            3 
 2394000   0.86085825   -3.8907818    1708.3421    0.0594661  0.058298205            2 
 2395000   0.88069767   -3.9197369    1703.4927  0.059272537  0.058288172            3 
 2396000   0.85882235   -3.8904619    1710.8076  0.059502211  0.058278162            2 
 2397000   0.85863813   -3.9342091    1703.3456  0.059217966  0.058268223            4 
 2398000    0.8665212   -3.9197206    1703.6732  0.059204657  0.058258092            5 
 2399000   0.86676235   -3.8996815    1705.7688  0.059252773  0.058247875            4 
 2400000   0.85371521   -3.9118263    1703.8464  0.059161333  0.058237838            7 
 2401000   0.86939513   -3.8864203    1711.7987  0.059412699  0.058227765            8 
 2402000   0.86895763   -3.9217596    1703.4928  0.059099806  0.058217706            4 
 2403000   0.86741477    -3.891143    1705.5764  0.059147469  0.058207412            6 
 2404000   0.86459843   -3.9085682     1703.331   0.05904503  0.058197236            5 
 2405000   0.87120514   -3.8963405    1704.2778  0.059053285   0.05818706            4 
 2406000   0.87374218   -3.9230694    1703.4715  0.059000815  0.058176978            2 
 2407000   0.87494709   -3.9146008    1710.8395   0.05923139  0.058166807            4 
 2408000   0.84574111   -3.9060806     1708.048  0.059110189  0.058156579            3 
 2409000   0.85605033   -3.9301653    1707.0708  0.059051847  0.058146159            7 
 2410000   0.85693462   -3.9379655    1706.7533  0.059016367  0.058135895            2 
 2411000   0.85213421   -3.9248405    1702.7167  0.058852366   0.05812548            3 
 2412000    0.8825333   -3.9152606    1708.3113  0.059021258  0.058114834            3 
 2413000   0.86425629   -3.9305336    1704.0184  0.058848542  0.058104491            3 
 2414000   0.86660227   -3.9357189    1708.2821  0.058971351  0.058094119            5 
 2415000   0.86463264   -3.9162291    1704.6291  0.058820879  0.058083562            4 
 2416000   0.83961511   -3.9357491    1710.3376  0.058993434  0.058072961            2 
 2417000   0.85161639   -3.9286656    1707.0276  0.058854902  0.058062269            2 
 2418000   0.86741388   -3.8822693    1713.1314  0.059040921  0.058051859            3 
 2419000   0.86474686   -3.8994427     1712.459   0.05899335  0.058041272            5 
 2420000   0.86237761   -3.9302417    1708.6365  0.058837346  0.058030724            4 
 2421000   0.86246607   -3.8814387     1710.224  0.058867684  0.058020261            3 
 2422000   0.86716009   -3.9202826    1710.1194   0.05883978  0.058009711            5 
 2423000   0.85685239   -3.9372366    1708.6857   0.05876619  0.057999041            3 
 2424000   0.85758531   -3.9090083     1710.633  0.058808891  0.057988333            5 
 2425000   0.84702166   -3.9208891    1716.3551  0.058981275  0.057977748            8 
 2426000   0.85774879   -3.9338097    1713.0509  0.058843462  0.057967172            2 
 2427000   0.86075868   -3.9367573    1711.2786  0.058758365   0.05795652            3 
 2428000    0.8397063   -3.9447299    1713.5891  0.058813466  0.057945968            2 
 2429000   0.85877584   -3.9172607    1715.2811    0.0588473  0.057935291            3 
 2430000   0.85482205   -3.8859954    1716.7511  0.058873495  0.057924812            3 
 2431000   0.85057505   -3.9345501    1709.6798  0.058606875  0.057914102            3 
 2432000    0.8659637   -3.9321189    1714.2428  0.058739132  0.057903565            4 
 2433000   0.85775454   -3.9232627    1718.0539  0.058845523  0.057892884            4 
 2434000   0.87160028   -3.9253715     1718.772  0.058845932  0.057882208            5 
 2435000   0.87900917   -3.9009244     1715.858  0.058722039   0.05787176            3 
 2436000   0.86578524   -3.9459403    1710.8481  0.058526549  0.057861137            6 
 2437000   0.87773082    -3.925839     1713.126  0.058580427  0.057850348            4 
 2438000   0.89022933   -3.9444584     1713.934  0.058584016  0.057839524            3 
 2439000   0.85559218   -3.9283998    1718.3231  0.058709959  0.057828891            5 
 2440000   0.86760159   -3.8991857     1715.232  0.058580327   0.05781822            5 
 2441000   0.88664439   -3.9275591    1717.4109  0.058630714  0.057807573            3 
 2442000   0.86201238   -3.9329033    1719.3103  0.058671522  0.057796769            3 
 2443000   0.86554882   -3.8987053    1718.1824  0.058609033  0.057786147            2 
 2444000   0.85875512   -3.9018745    1715.4673  0.058492474  0.057775586            4 
 2445000   0.87639321   -3.9069638    1720.3472  0.058634873  0.057764964            3 
 2446000   0.83919502    -3.906746     1722.443  0.058682304  0.057754513            4 
 2447000   0.85859796   -3.8959348    1725.2949  0.058755445  0.057744159            6 
 2448000    0.8673313   -3.8980237    1719.7396  0.058542332  0.057733807            4 
 2449000   0.86764375   -3.9106764    1722.3106  0.058605913  0.057723322            2 
 2450000   0.85582553   -3.9352675    1722.4915  0.058588147  0.057712911            9 
 2451000   0.86306319   -3.9322186    1717.2496  0.058386021  0.057702214            3 
 2452000   0.85054503   -3.9466593     1717.663  0.058376258  0.057691619            2 
 2453000   0.84728145    -3.949276     1718.177  0.058369923  0.057680859            4 
 2454000   0.88250883   -3.9267703     1722.053  0.058477759  0.057670232            4 
 2455000    0.8640925   -3.9126867    1724.2622  0.058528928  0.057659666            3 
 2456000   0.86567313   -3.9128996    1722.6477  0.058450315  0.057649106            3 
 2457000   0.84423583   -3.9058986    1723.4854   0.05845494  0.057638431            5 
 2458000   0.87223871   -3.9288157    1728.7981  0.058611271  0.057627917            5 
 2459000   0.86560809   -3.9049824    1731.4897  0.058678653  0.057617442            5 
 2460000   0.86065286   -3.9119584    1729.0563  0.058572368  0.057606987            6 
 2461000   0.85524347   -3.8978652    1725.3747  0.058423901  0.057596602            4 
 2462000    0.8531857   -3.9487233    1726.9585  0.058453781  0.057586197            1 
 2463000   0.84616579   -3.9196097    1724.1301  0.058334352  0.057575903            4 
 2464000   0.85713686   -3.9115041    1726.0589  0.058375911  0.057565556            6 
 2465000   0.83985236   -3.9226394    1720.2569  0.058156082  0.057555047            6 
 2466000   0.86363865   -3.9136687    1729.6356  0.058449432  0.057544463            3 
 2467000   0.84937089   -3.9263388    1727.6855  0.058359868  0.057533819            3 
 2468000   0.85938753    -3.908091    1724.7496  0.058237088  0.057523157            5 
 2469000   0.85306095    -3.909726    1726.8169  0.058283276  0.057512542            5 
 2470000   0.85189439   -3.9264368    1725.2004  0.058205143  0.057501911            3 
 2471000   0.86984455   -3.9250019    1728.4157   0.05829002  0.057491207            3 
 2472000   0.84069267   -3.9411833    1730.0658  0.058322067  0.057480577            5 
 2473000    0.8530439   -3.9365402    1722.6241   0.05804772  0.057470004            4 
 2474000   0.86021645   -3.9054502    1725.5565  0.058123029  0.057459376            4 
 2475000   0.85021148   -3.9600671    1728.4491   0.05819694  0.057448607            2 
 2476000    0.8557476   -3.9550106    1728.5139  0.058175615  0.057437863            4 
 2477000   0.87043376   -3.9163644    1730.0301  0.058203138  0.057427138            4 
 2478000   0.86470083   -3.9358677    1729.1367  0.058149606  0.057416267            6 
 2479000   0.86429379   -3.9179718    1731.7693  0.058214645  0.057405523            2 
 2480000   0.85421632   -3.9221764    1728.0275  0.058065441  0.057394869            4 
 2481000   0.84287422    -3.965864    1726.2649  0.057982832  0.057384078            6 
 2482000   0.85444846   -3.9313376    1729.3868  0.058064289  0.057373172            3 
 2483000   0.85739059   -3.9264013    1731.8053  0.058122074  0.057362323            5 
 2484000   0.84354874   -3.9568414    1732.0074  0.058105454  0.057351554            3 
 2485000   0.83338045   -3.9242426    1732.2677  0.058090801  0.057340712            5 
 2486000   0.85948617   -3.9338854    1733.6201  0.058112767  0.057330132            3 
 2487000   0.85912725   -3.9433196    1730.0465  0.057969658  0.057319722            3 
 2488000   0.84538709   -3.9203013    1737.1487  0.058184242   0.05730907            5 
 2489000   0.83140782   -3.9014868    1736.7282  0.058146785   0.05729848            6 
 2490000   0.85085747   -3.9325575    1731.9104  0.057962197  0.057287836            6 
 2491000   0.85752915   -3.9107329    1733.6334  0.057996568  0.057277159            4 
 2492000   0.84870076    -3.948624    1734.2973  0.057995496  0.057266608           13 
 2493000   0.83600045   -3.9513231    1733.4393  0.057943551  0.057255854            4 
 2494000   0.85452913   -3.9532189    1736.4718  0.058021647  0.057245054            3 
 2495000   0.85589136   -3.9283245    1736.7876  0.058008939  0.057234381            4 
 2496000   0.81957067   -3.9435307     1740.154  0.058098089  0.057224005            4 
 2497000   0.85895547   -3.9498674    1741.5651  0.058121915   0.05721345            3 
 2498000    0.8406404   -3.9339803    1743.0802  0.058149193  0.057202852            3 
 2499000   0.85095125   -3.9188827    1739.1285  0.057994146  0.057192251            2 
 2500000   0.84969276   -3.9356339    1741.0641  0.058035469  0.057181487            2 
 2501000   0.85650235   -3.9147127     1736.072  0.057845928  0.057170913            2 
 2502000   0.85742642    -3.932965    1741.1442  0.057991747  0.057160326            2 
 2503000    0.8512287   -3.9464701    1735.7099  0.057787652  0.057149817            6 
 2504000   0.83675869   -3.9712702    1736.7974  0.057800766  0.057139083            2 
 2505000   0.85526158   -3.9446411    1741.2712   0.05792652  0.057128471            5 
 2506000   0.84027398   -3.9495808    1736.3207  0.057738783  0.057117863            2 
 2507000   0.84942331   -4.0003217    1734.0816  0.057641323  0.057107141            5 
 2508000    0.8632711    -3.934531    1743.8596  0.057943235  0.057096432            3 
 2509000   0.84999785   -3.9368036      1743.26  0.057900226  0.057085928            4 
 2510000   0.84471118   -3.9422776    1744.0582  0.057903658  0.057075514            3 
 2511000    0.8388319   -3.9501241    1737.8954  0.057676073  0.057064967            6 
 2512000   0.84601066   -3.9214852    1748.1341   0.05799277  0.057054405            7 
 2513000   0.85211645   -3.9326227    1744.4677  0.057848115  0.057043904            1 
 2514000   0.85890567    -3.944523    1750.3683  0.058020694  0.057033334            2 
 2515000   0.84849811   -3.9398414    1744.0028  0.057786707  0.057022888            3 
 2516000   0.85158069   -3.9390438    1746.6189  0.057850388  0.057012286            4 
 2517000   0.86861938   -3.9208546    1742.4647  0.057689866  0.057001688            4 
 2518000   0.84498317   -3.9238938     1749.822  0.057910446  0.056991321            3 
 2519000   0.85143903   -3.9541379    1746.8742  0.057789936  0.056980852            5 
 2520000   0.85720813   -3.9489116     1748.628  0.057824999  0.056970251            7 
 2521000   0.84217651   -3.9180094    1749.1036  0.057817783  0.056959747            9 
 2522000   0.84745625   -3.9516088    1748.8144  0.057785303  0.056949255            3 
 2523000    0.8392422   -3.9635791    1746.0069   0.05766967  0.056938778            7 
 2524000   0.84218215   -3.9478574    1745.9693  0.057645581   0.05692831            3 
 2525000   0.83975406   -3.9418084    1752.5167  0.057838837  0.056917912            4 
 2526000   0.86742819   -3.9524114    1751.9841  0.057798367  0.056907691            5 
 2527000   0.84486132   -3.9357603    1747.8313  0.057638546  0.056897366            4 
 2528000   0.84796044   -3.9422892    1754.5779  0.057838144  0.056886995            2 
 2529000   0.82917041   -3.9519513    1759.8065  0.057987563  0.056876592            3 
 2530000   0.84288196   -3.9677756    1745.8441  0.057504748  0.056866228            8 
 2531000   0.85592191   -3.9542251    1752.1786  0.057690589  0.056855941            6 
 2532000   0.85779473   -3.9578892    1754.5954  0.057747348  0.056845712            4 
 2533000   0.84837251   -3.9464687    1758.6527  0.057858032  0.056835317            9 
 2534000   0.84460668   -3.9499287    1753.5271  0.057666637  0.056825016            4 
 2535000   0.84332397   -3.9635206    1751.3765   0.05757319  0.056814736            4 
 2536000     0.859842    -3.929367    1758.8294  0.057795394  0.056804491            5 
 2537000   0.85031031   -3.9496023    1756.0861  0.057682504  0.056794252            6 
 2538000   0.85538254   -3.9610588    1757.8856  0.057718858  0.056784046            5 
 2539000   0.82819598   -3.9821759    1757.8071   0.05769355  0.056773803            5 
 2540000   0.83731237   -3.9442235    1762.6552  0.057829894  0.056763727            6 
 2541000    0.8164713   -3.9428504    1756.9582  0.057620299  0.056753613            4 
 2542000   0.85762131    -3.947148    1764.6728  0.057850537  0.056743508            5 
 2543000   0.84433212   -3.9600052     1759.461  0.057657001  0.056733541            4 
 2544000      0.85311   -3.9404032    1760.4961  0.057668244  0.056723265            4 
 2545000   0.84957371   -3.9279914    1764.9924  0.057792809  0.056713046            3 
 2546000   0.84415608   -3.9701399    1760.8607  0.057634877  0.056703011            3 
 2547000   0.84664955   -3.9577804    1759.9907  0.057583781  0.056692957            4 
 2548000   0.86174041   -3.9691117    1757.5486  0.057481311  0.056682761            5 
 2549000   0.84655737   -3.9521241    1761.0839  0.057574339  0.056672555            2 
 2550000   0.85466515   -3.9275231    1761.5895  0.057568284  0.056662243            6 
 2551000   0.83132318   -3.9783813    1761.2772  0.057535514  0.056651974            5 
 2552000   0.83259988   -3.9500555    1759.8546  0.057466518  0.056641815            4 
 2553000    0.8235824   -3.9573411    1762.8418  0.057541515  0.056631689            3 
 2554000    0.8238834    -3.976324    1762.9167  0.057521428  0.056621559            3 
 2555000   0.85600081   -3.9464095    1766.4613  0.057614524  0.056611421            5 
 2556000   0.85288465   -3.9777542    1760.6294  0.057401846  0.056601309            3 
 2557000   0.83612797   -3.9680424    1764.1367  0.057493701  0.056591177            5 
 2558000   0.84148193   -3.9335448    1769.7206  0.057653134    0.0565811            2 
 2559000   0.84669961   -3.9265492    1769.1842  0.057613136  0.056571026            4 
 2560000   0.84600517    -3.961757    1766.1277  0.057491136  0.056561054            6 
 2561000   0.85733436   -3.9399816    1769.7236  0.057585697  0.056551052            3 
 2562000   0.85958512   -3.9183548    1766.8038  0.057468249   0.05654096            4 
 2563000   0.82891846   -3.9751231    1766.4267  0.057433563  0.056530933            6 
 2564000   0.83624588   -3.9948883    1762.0837  0.057270012  0.056520614            3 
 2565000   0.86676139   -3.9401445    1767.3378  0.057418381  0.056510487            1 
 2566000   0.83660386   -3.9546414    1768.8923   0.05744649  0.056500443            4 
 2567000   0.84558391   -3.9435519    1768.0593  0.057397068  0.056490214            3 
 2568000   0.84697268   -3.9648279    1773.1023  0.057538367  0.056480286            2 
 2569000   0.86194475    -3.936893    1771.5071  0.057464226  0.056470216            2 
 2570000   0.84190134    -3.972006    1770.2545   0.05740125   0.05646028            5 
 2571000   0.83913964   -3.9802104    1769.9331  0.057368503  0.056450061            2 
 2572000    0.8387397   -3.9650256    1773.2383  0.057453289  0.056439997            4 
 2573000   0.83335148   -3.9663083    1770.9938  0.057358267  0.056429853            5 
 2574000   0.85350521   -3.9444428    1774.6776  0.057455245   0.05641985            3 
 2575000   0.85526559   -3.9659651    1775.1116  0.057446976  0.056409769            2 
 2576000   0.85283288   -3.9679095    1773.3005  0.057366088  0.056399718            2 
 2577000   0.84698354   -3.9793123    1770.4454  0.057251499  0.056389641            4 
 2578000   0.83497655   -3.9476781    1773.3091  0.057321861  0.056379602            3 
 2579000   0.83510978   -3.9510185    1772.8306  0.057284174  0.056369379            6 
 2580000   0.86766091   -3.9399668    1777.8749    0.0574249  0.056359277            6 
 2581000    0.8416522   -3.9319807    1772.3706  0.057224932  0.056349113            7 
 2582000   0.84891124   -3.9520303    1775.6155  0.057307496  0.056338926            5 
 2583000   0.81983971   -3.9573496    1778.0255  0.057363063  0.056328862            2 
 2584000   0.83262589   -3.9446248    1777.0593  0.057309703  0.056318651            2 
 2585000   0.84258766   -3.9364756    1771.5095  0.057108622  0.056308428            3 
 2586000   0.83660297   -3.9787958    1771.0488  0.057071692  0.056298121            3 
 2587000    0.8415751   -3.9450592    1782.2993  0.057412039  0.056287645            7 
 2588000   0.83745393   -3.9602982    1772.1999  0.057064653  0.056277361            6 
 2589000   0.82143387   -3.9523734    1773.7779  0.057093406  0.056267135           10 
 2590000   0.82517526   -3.9582943    1779.4261  0.057253093   0.05625665            4 
 2591000   0.82850905   -3.9643836    1777.5338  0.057170135  0.056246147            4 
 2592000   0.85127723    -3.974896    1771.8221  0.056964444  0.056235681            2 
 2593000   0.85047865   -3.9741442      1770.84  0.056910915  0.056225133            3 
 2594000   0.84364501    -3.973744    1773.3143  0.056968461  0.056214614            5 
 2595000   0.85076152   -3.9780089    1775.7103  0.057023451  0.056204116            3 
 2596000   0.85644933   -3.9587495    1782.2929  0.057212793  0.056193594            3 
 2597000   0.83130385   -3.9679622    1771.1695  0.056833832  0.056183002           10 
 2598000   0.82209326    -3.974193    1770.4753  0.056789688  0.056172331            6 
 2599000   0.82816628    -3.974606    1769.1879  0.056726557  0.056161703            7 
 2600000   0.86031322   -3.9296014    1773.4187  0.056840344  0.056151015            6 
 2601000   0.84253752   -3.9489396    1779.3612   0.05700888  0.056140467            3 
 2602000   0.82110735   -3.9810057    1771.8401  0.056746096  0.056129937            3 
 2603000   0.83796296   -3.9581428    1778.7206   0.05694457  0.056119228            4 
 2604000   0.84781152   -3.9359777    1785.0654   0.05712575  0.056108768            3 
 2605000   0.82943971   -3.9865794    1775.3488  0.056792988  0.056098249            3 
 2606000   0.82132813   -3.9467129    1783.1796  0.057021603  0.056087634            8 
 2607000   0.82324776   -3.9641451    1774.0472  0.056707811  0.056077044            7 
 2608000   0.83620686   -3.9568135    1780.8449  0.056903275  0.056066424            3 
 2609000   0.83757179   -3.9779226      1776.27  0.056735338  0.056055811            7 
 2610000    0.8379393   -3.9887714    1775.6616  0.056694177  0.056045043            4 
 2611000   0.83577781   -3.9652677    1772.9365  0.056585486  0.056034354            4 
 2612000   0.82433791   -3.9946259    1777.2806  0.056702417   0.05602351            3 
 2613000   0.86025635   -3.9544991    1783.4231  0.056876615  0.056012913            6 
 2614000   0.83448192    -4.001005    1773.1837  0.056528426  0.056002374            4 
 2615000   0.83103145   -3.9751627    1775.0106  0.056565029  0.055991708            3 
 2616000    0.8292589   -3.9848293    1780.7281  0.056725538  0.055980951           12 
 2617000   0.82409014   -3.9841536    1777.7188  0.056608038  0.055970397            7 
 2618000   0.82011968   -3.9631682    1781.0597  0.056692759  0.055959622            5 
 2619000   0.79735725   -3.9674635    1778.7453   0.05659747  0.055948934            6 
 2620000   0.82344057   -3.9726049    1780.4995  0.056631663  0.055938469            3 
 2621000    0.8349604   -3.9676517    1777.8047  0.056524377  0.055927877            5 
 2622000   0.83947536   -4.0009739     1776.965  0.056476131   0.05591729            5 
 2623000   0.83081994    -3.968835    1781.5318  0.056599689  0.055906636            2 
 2624000   0.83309779   -3.9669085    1780.8206  0.056555531  0.055896083            2 
 2625000   0.80652061   -3.9721313     1786.853  0.056725491  0.055885606            5 
 2626000   0.82844811   -3.9718497    1792.3423  0.056878089  0.055875212            5 
 2627000   0.81227929    -3.950454    1786.2388  0.056662822  0.055864727            4 
 2628000   0.83150226   -3.9710285    1791.0264  0.056793075  0.055854443            6 
 2629000   0.83634673   -3.9860652    1787.3355  0.056654479  0.055844191            5 
 2630000   0.83419139   -3.9696449    1783.4568  0.056510037  0.055833759            5 
 2631000    0.8287786   -3.9542026    1792.0535  0.056760849  0.055823526            4 
 2632000   0.85700014   -3.9767368    1793.0223  0.056769955  0.055813195            4 
 2633000   0.81934025   -3.9819975     1783.693  0.056453127  0.055802824            2 
 2634000   0.83757095   -3.9633306    1787.4222  0.056549677   0.05579221            6 
 2635000   0.82314425   -3.9616745     1787.533  0.056531721  0.055781785            2 
 2636000   0.81325305   -3.9728399    1785.5245  0.056446778  0.055771312            2 
 2637000   0.81236725    -3.963483    1793.7665  0.056685832  0.055760905            4 
 2638000   0.82442549   -3.9846193    1786.0825   0.05642161  0.055750261           15 
 2639000   0.83503157   -3.9945899    1793.1858  0.056624536  0.055739696            8 
 2640000   0.83231499   -3.9940201    1788.6791  0.056460829  0.055729102            3 
 2641000   0.82426399   -3.9765056    1786.8175  0.056380712   0.05571849            2 
 2642000   0.81905403   -3.9788835    1789.7481  0.056451808  0.055707884            4 
 2643000   0.82219275    -3.955604    1791.1257  0.056473884  0.055697316            2 
 2644000   0.81918018   -3.9882874    1786.8755  0.056318567  0.055686698            2 
 2645000   0.85098186   -3.9865751    1789.7504  0.056387851  0.055676083            6 
 2646000   0.84907339   -3.9783934    1790.0376  0.056375587  0.055665676            4 
 2647000   0.82759542   -3.9602608    1785.1046  0.056198985  0.055655102           11 
 2648000   0.84438582   -3.9870247     1785.177   0.05618004  0.055644413            4 
 2649000   0.82127665   -3.9663639    1791.0196  0.056342633  0.055633876            3 
 2650000   0.81201549   -3.9791026    1793.7585  0.056407499  0.055623397            3 
 2651000   0.84628027   -4.0193149    1794.5769  0.056411949   0.05561281            6 
 2652000   0.82479911   -3.9826399    1796.6004   0.05645426  0.055602208            4 
 2653000   0.83239023   -3.9763723    1796.7784  0.056438571   0.05559183            7 
 2654000   0.81739602   -3.9893604    1797.4228  0.056437541    0.0555814            4 
 2655000   0.83411425   -3.9718092    1801.3773  0.056540405  0.055570942            4 
 2656000   0.81856683   -3.9870783    1795.1037  0.056322279   0.05556046            7 
 2657000   0.81940546   -3.9766961    1797.1819  0.056366263  0.055549961            6 
 2658000   0.82523057    -4.011617    1791.4537  0.056165467  0.055539441            6 
 2659000   0.81465366   -4.0088115    1798.4828  0.056364636  0.055528973            7 
 2660000   0.84308229    -3.988323    1796.9483  0.056295373  0.055518472           10 
 2661000    0.8379944   -3.9844359    1796.5598   0.05626205  0.055508095            3 
 2662000   0.80805346   -4.0076973    1797.9714  0.056285105  0.055497674            4 
 2663000   0.82765057   -4.0046959    1796.7496  0.056225737  0.055487146            4 
 2664000   0.83606136    -3.963145    1798.1295  0.056247794  0.055476594            3 
 2665000   0.84124556   -3.9691054    1797.7614  0.056215178  0.055466064            3 
 2666000   0.83514196   -4.0043228    1794.8169  0.056102053  0.055455669            2 
 2667000   0.81852296    -3.981551    1793.8962  0.056052249  0.055445155            3 
 2668000   0.82415915   -3.9818573    1795.7945  0.056090533  0.055434465            4 
 2669000    0.8142675   -4.0023688    1793.1788  0.055987848  0.055423772            4 
 2670000   0.84582278   -3.9630401    1797.5455  0.056103166  0.055413101            4 
 2671000   0.83520215   -4.0055788    1798.9269  0.056125263  0.055402487            5 
 2672000   0.82040387   -3.9966956    1797.9985  0.056075302  0.055391812            5 
 2673000   0.82404802   -4.0037638    1788.0716  0.055744844  0.055381242            3 
 2674000   0.81460692   -3.9819272    1803.7966  0.056214055  0.055370443            3 
 2675000    0.8396024    -3.974624    1799.7132  0.056065832  0.055359911            3 
 2676000   0.82049437   -3.9900111    1803.3298  0.056157503  0.055349268            5 
 2677000   0.80278316    -3.992569    1803.0753  0.056128606  0.055338544            3 
 2678000    0.8141564   -3.9927208    1805.4327  0.056181002  0.055328014            5 
 2679000   0.83104146   -3.9826791    1801.8152  0.056047506  0.055317373            2 
 2680000   0.83180173   -3.9917365    1803.4387  0.056077073  0.055306821            3 
 2681000   0.83469384   -3.9886138    1806.3529   0.05614674  0.055296311            3 
 2682000   0.80026564   -3.9654561    1810.2468  0.056246792  0.055285939            3 
 2683000   0.81246872   -4.0100979    1803.1745  0.056006166  0.055275559            4 
 2684000   0.81555258   -3.9722621    1806.1761  0.056078493  0.055265043            8 
 2685000    0.8215119   -4.0114767    1806.3285  0.056062338  0.055254567            5 
 2686000   0.82711865   -3.9783714    1808.1651  0.056098447  0.055244234            2 
 2687000   0.80849058   -3.9772455    1803.6439   0.05593735   0.05523381            2 
 2688000   0.80986818   -4.0021898    1803.7195  0.055918884  0.055223533            6 
 2689000   0.80903278   -3.9625643    1810.7059  0.056114599  0.055213003            5 
 2690000   0.80399444   -3.9747285    1806.3679  0.055959354   0.05520255            4 
 2691000   0.81530842    -3.995998     1804.481  0.055880125  0.055191966            5 
 2692000   0.81447203   -4.0132024    1809.0965  0.056002244  0.055181271            5 
 2693000    0.8233838   -3.9920554    1807.0732   0.05591884  0.055170827            3 
 2694000   0.81952428   -4.0075731    1808.4317  0.055940106  0.055160352            5 
 2695000   0.82730698   -4.0065634    1805.3882  0.055825238  0.055149862            6 
 2696000   0.81543189   -4.0200557    1809.3367  0.055926581  0.055139354            7 
 2697000   0.81381696   -3.9823523    1808.6944  0.055885998  0.055128802            6 
 2698000    0.8322717   -3.9732876    1809.8306  0.055900377  0.055118262            6 
 2699000   0.82199632   -3.9941823    1805.6661  0.055751084  0.055107712            4 
 2700000   0.81478828   -4.0039452    1810.1486  0.055868783  0.055097163            4 
 2701000   0.82924853   -4.0065962    1808.6731  0.055802577  0.055086519            5 
 2702000   0.79942806   -3.9935924    1807.4672  0.055744732  0.055075937            6 
 2703000   0.84026539   -3.9875124     1807.696  0.055731161  0.055065367            4 
 2704000   0.82363915   -3.9937687    1811.4601  0.055826556  0.055054899            5 
 2705000   0.81809504   -3.9884138    1815.0457   0.05591638  0.055044253            4 
 2706000   0.82051591   -4.0012653    1814.5025  0.055878989  0.055033653            4 
 2707000    0.8296514   -3.9873341    1813.4812  0.055826906  0.055023208            2 
 2708000   0.80994761   -3.9675368     1817.706  0.055936299  0.055012823            8 
 2709000   0.81700572   -4.0060305    1813.4911  0.055785994  0.055002357            6 
 2710000   0.80859935   -3.9838409     1813.345  0.055760915  0.054991834            5 
 2711000   0.80737047   -4.0071342    1801.9304  0.055389474  0.054981244            2 
 2712000   0.79569448   -4.0046649    1812.9781  0.055708519   0.05497054            6 
 2713000   0.82036114   -3.9881704    1815.8085  0.055774925  0.054959806            6 
 2714000   0.82157501   -4.0078058    1812.8376  0.055663155  0.054949198            6 
 2715000   0.80746015   -4.0072851    1811.7602  0.055609582  0.054938611            4 
 2716000   0.84719375   -3.9932457    1816.1672  0.055724325  0.054928026            8 
 2717000   0.82431602   -3.9880399    1814.4089  0.055649886  0.054917596            6 
 2718000   0.79896288   -3.9957808    1815.7738  0.055671259  0.054907076            3 
 2719000   0.83165267   -4.0016669    1816.4161  0.055670469  0.054896565            5 
 2720000   0.82351231   -4.0286339    1817.8486   0.05569389  0.054885907            4 
 2721000   0.79837079    -3.987436    1813.8543  0.055551092  0.054875298            5 
 2722000   0.82805989   -3.9926517    1819.7675  0.055711716   0.05486465            5 
 2723000   0.81899791   -4.0096655    1810.9633  0.055421816  0.054853972            2 
 2724000   0.83185963   -3.9946084    1817.3588  0.055597124  0.054843271            4 
 2725000    0.8264873   -3.9892272    1816.6275  0.055554357  0.054832644            2 
 2726000   0.80395511   -4.0114075    1817.6832   0.05556625  0.054822098            6 
 2727000   0.82407181     -4.00402    1817.7446  0.055547751  0.054811569            9 
 2728000   0.80834801   -4.0133993     1816.457  0.055488056  0.054800896            5 
 2729000   0.80542901   -3.9980024    1807.8015  0.055203418  0.054790197            6 
 2730000   0.83212448   -3.9970004    1819.5968  0.055543247  0.054779634            3 
 2731000   0.80052191   -4.0101774    1820.7263  0.055557375  0.054769178            5 
 2732000   0.81079132   -4.0101827    1817.4523  0.055437175  0.054758669            2 
 2733000   0.80300413   -3.9892801     1816.181  0.055378125  0.054748056            5 
 2734000   0.80623562     -4.01715    1820.9027  0.055501788  0.054737538            5 
 2735000   0.81724542   -4.0160372    1822.9526  0.055543955  0.054727186            3 
 2736000   0.82040392   -3.9905005    1825.0816  0.055588499  0.054716815            5 
 2737000   0.82955033   -4.0390648    1820.5979  0.055431673  0.054706315            4 
 2738000   0.80907844   -4.0094236     1818.384  0.055344046  0.054695754            3 
 2739000    0.8125185   -4.0005871    1823.5189  0.055480068  0.054685143            3 
 2740000   0.81622678   -3.9795595    1827.8051  0.055590178  0.054674638            5 
 2741000   0.81006184   -4.0042158    1819.7621  0.055325371  0.054664271            6 
 2742000     0.809931   -4.0162552    1823.8871  0.055430558  0.054653821            3 
 2743000   0.82771831    -4.004597    1827.0611  0.055506778  0.054643511            6 
 2744000   0.82837073   -4.0056192    1825.8226  0.055448936  0.054633203            3 
 2745000   0.81651828   -3.9973401    1828.5805  0.055512463  0.054622934            4 
 2746000   0.81414382   -4.0092515    1827.0473  0.055445717  0.054612539            5 
 2747000   0.81421931   -4.0314339    1823.4207  0.055315518     0.054602            8 
 2748000   0.80359962   -4.0066896    1822.5524  0.055269056  0.054591422            3 
 2749000   0.80989194   -3.9903476    1828.8604  0.055440172  0.054580955            3 
 2750000   0.82092379   -4.0143864    1828.3776  0.055405381  0.054570491            5 
 2751000   0.80764797   -4.0079743    1827.4006  0.055355645  0.054560134            7 
 2752000   0.80503847   -4.0002501    1824.0504  0.055234085  0.054549623           12 
 2753000   0.81929415   -4.0059834     1818.525  0.055046767  0.054539083            4 
 2754000   0.82536596    -4.037185    1827.0605  0.055285054  0.054528468            5 
 2755000   0.80300592   -3.9854754    1832.9303  0.055442537  0.054518046            2 
 2756000   0.81348681   -3.9959979     1826.469  0.055227051  0.054507618            3 
 2757000   0.81984006   -3.9955013    1834.2285  0.055441559  0.054497206            3 
 2758000   0.81594638   -3.9867532    1829.1266  0.055267302  0.054486653            3 
 2759000   0.79189935   -4.0253511     1828.436  0.055226409  0.054476118            6 
 2760000   0.81504103   -3.9977607    1822.9706  0.055041384  0.054465519            7 
 2761000   0.79803784   -4.0280419    1821.0222  0.054962639  0.054454808            5 
 2762000   0.81528855   -4.0470564    1820.9326  0.054940037  0.054444123            5 
 2763000   0.82836336   -4.0101796    1830.2838   0.05520219  0.054433555            6 
 2764000   0.79623668   -4.0145518    1828.5196  0.055129029   0.05442307            6 
 2765000    0.8086851   -4.0560125     1821.976  0.054911875  0.054412538            4 
 2766000   0.80588683   -4.0193743    1826.6477   0.05503277  0.054401968            9 
 2767000   0.80624543   -4.0071325    1831.6393  0.055163213  0.054391339            4 
 2768000   0.80456136   -4.0035761     1835.132  0.055248434   0.05438083            3 
 2769000   0.79519166   -4.0119711    1831.0809  0.055106563   0.05437014            4 
 2770000   0.80016568    -4.021705     1822.366  0.054824489  0.054359479            4 
 2771000   0.81854622   -4.0316133    1830.5066  0.055049518    0.0543488            3 
 2772000   0.82717078   -4.0455672    1818.1136  0.054657094  0.054337999            6 
 2773000   0.80490178   -4.0156065    1829.1432  0.054968843  0.054327175            5 
 2774000   0.83295025   -4.0116931    1831.1993  0.055010793  0.054316444            4 
 2775000   0.82166394   -4.0185007    1828.1712  0.054900037  0.054305718            5 
 2776000    0.7977099   -4.0275204    1830.3659  0.054946143  0.054295023            5 
 2777000   0.80229075   -4.0118116    1830.0347  0.054916416  0.054284154            5 
 2778000   0.79741934   -3.9999458    1824.5116  0.054730969  0.054273329            5 
 2779000   0.79029897   -4.0256214     1831.676  0.054926113  0.054262452            4 
 2780000   0.80651229    -4.017182    1830.5515  0.054872645  0.054251581            4 
 2781000   0.80517855   -4.0194601    1823.5762    0.0546439  0.054240642            5 
 2782000    0.8140579   -4.0117442    1830.6042  0.054834777  0.054229811            7 
 2783000   0.78991572   -4.0215679    1826.2862  0.054685778  0.054218924            5 
 2784000   0.81052738   -4.0192265    1834.4477  0.054910433  0.054207901            2 
 2785000   0.79929348   -4.0344842    1829.5114  0.054743011  0.054197052            8 
 2786000   0.81088566   -3.9839744    1836.8024  0.054941446  0.054185993            9 
 2787000   0.81418269   -4.0128506    1827.2648  0.054636552  0.054174958            5 
 2788000   0.80735629    -4.023722    1829.5147  0.054684203  0.054164014            4 
 2789000   0.80621495   -4.0135425    1827.9207  0.054616969   0.05415305            7 
 2790000    0.8196734   -4.0187721    1825.6481  0.054529512  0.054142051            4 
 2791000   0.83743757    -4.000339    1827.4067  0.054562485  0.054131196            7 
 2792000   0.80247434   -4.0278286    1832.1799  0.054685407  0.054120289           17 
 2793000   0.79699391   -4.0275975    1833.2883  0.054698898  0.054109329            6 
 2794000   0.79448367   -4.0039618    1836.1015  0.054763227  0.054098485            5 
 2795000   0.80389323    -4.008128    1833.2432  0.054658412  0.054087684            2 
 2796000    0.8040899   -4.0269287    1829.9519  0.054540769   0.05407687            5 
 2797000   0.80119928   -4.0090349    1834.5876  0.054659386  0.054065966            8 
 2798000   0.80508473   -4.0671929     1831.349  0.054543394  0.054054949            5 
 2799000   0.80330603    -4.028675    1833.9132  0.054600251  0.054044004            4 
 2800000   0.80869466   -3.9974782    1835.6016     0.054631  0.054033137            3 
 2801000   0.80379577   -4.0432509    1834.0294  0.054564722  0.054022182            8 
 2802000   0.80698783    -4.012406     1835.713  0.054595319  0.054011254            5 
 2803000   0.80601308   -4.0339717    1833.8874  0.054521566  0.054000305            3 
 2804000   0.81586721   -4.0012448    1838.4033  0.054636331  0.053989399            4 
 2805000   0.82075988   -4.0320458    1833.0763  0.054458594  0.053978424            9 
 2806000   0.83674364   -4.0404836    1832.5034  0.054422174  0.053967486            7 
 2807000   0.81007433   -4.0399137    1836.6746  0.054526617  0.053956522            4 
 2808000   0.80445857   -4.0159751    1835.4393  0.054470539  0.053945598            3 
 2809000   0.81596939   -4.0100535    1837.6267  0.054516041  0.053934559            6 
 2810000   0.78820275    -4.020505     1835.775  0.054441725  0.053923633            6 
 2811000   0.79425959   -4.0437053    1834.9622  0.054398262  0.053912629            5 
 2812000    0.7934168   -4.0529431    1838.0827  0.054471393  0.053901649            3 
 2813000    0.8137025   -4.0159536    1840.5755  0.054525876  0.053890714            3 
 2814000   0.80050235   -4.0258732    1843.0695  0.054580358  0.053879781            3 
 2815000   0.80149747   -3.9938549      1841.52  0.054515097  0.053868868            8 
 2816000   0.78536896   -4.0246572    1841.7106  0.054501378  0.053857987            4 
 2817000   0.80648747   -4.0112098    1841.3371  0.054470984  0.053847091            4 
 2818000   0.79998343   -4.0208116    1834.1006  0.054237657  0.053836204            3 
 2819000   0.80822456   -4.0365655    1837.7058   0.05432499  0.053825289            7 
 2820000   0.78106296   -4.0312121    1835.0249  0.054226505   0.05381426            5 
 2821000   0.80261802    -4.027288    1835.6332   0.05422525  0.053803149            6 
 2822000   0.79717622   -4.0278139     1841.876  0.054390384  0.053792214            3 
 2823000   0.80243009   -4.0380376    1840.9315  0.054343236  0.053781324            2 
 2824000   0.81033444   -4.0253579    1842.7708  0.054378269  0.053770443            5 
 2825000   0.79208937   -3.9986374     1843.567  0.054382507  0.053759598           11 
 2826000   0.78267974   -4.0234217    1844.0859  0.054378566  0.053748762            4 
 2827000   0.80197044   -4.0313173    1838.8939  0.054206281  0.053737758            6 
 2828000   0.79978611   -4.0278921    1839.7149  0.054211307  0.053726867            4 
 2829000   0.80780242   -4.0342923    1836.5658   0.05409938  0.053715875            7 
 2830000   0.80406329   -4.0288008    1838.0759  0.054124731  0.053704762            6 
 2831000   0.78781331   -4.0427163    1839.8071  0.054156572  0.053693716            6 
 2832000   0.77514503   -4.0241555    1844.8606  0.054286151  0.053682664            7 
 2833000   0.79076453    -4.034398    1839.5351   0.05411034  0.053671622            4 
 2834000   0.79764642   -4.0092935    1843.5895  0.054210465  0.053660698            4 
 2835000   0.81114722   -4.0461067    1842.6281  0.054163083  0.053649725            2 
 2836000   0.80366451   -4.0185283    1848.1262  0.054305542  0.053638746            6 
 2837000   0.78980029   -4.0209566    1839.3235  0.054027833  0.053627694            7 
 2838000   0.80990321   -4.0331858    1840.6937  0.054049029  0.053616713            2 
 2839000   0.80342713   -4.0527067    1842.1204  0.054071869  0.053605712            5 
 2840000   0.80914649   -4.0201858    1843.4472  0.054091759  0.053594775            3 
 2841000    0.7895068   -4.0588733    1845.5366  0.054134009  0.053583751            4 
 2842000   0.80197105   -4.0161578    1849.9575   0.05424459  0.053572712            7 
 2843000   0.79550943   -4.0389729    1846.0263  0.054110281    0.0535617            5 
 2844000   0.79182908   -4.0522079    1844.2008  0.054037763  0.053550645            5 
 2845000   0.79877111   -4.0132443    1849.2033  0.054165299  0.053539625            3 
 2846000   0.80202323   -4.0169396    1844.0097  0.053994194  0.053528681            5 
 2847000    0.8009969   -4.0394452    1847.7532  0.054084803  0.053517751            4 
 2848000   0.78648785     -4.02942    1844.3583  0.053966477  0.053506892           10 
 2849000   0.79700873   -4.0415498     1841.179   0.05385454  0.053495845            4 
 2850000   0.80498429   -4.0657798    1843.1849  0.053894294  0.053484875            3 
 2851000   0.77300119    -4.018511    1848.7351  0.054037622  0.053473726            7 
 2852000   0.79679392   -4.0701974    1843.2058  0.053857113  0.053462624            9 
 2853000   0.79430153   -4.0501098    1847.6526  0.053968121  0.053451545            4 
 2854000   0.78742771   -4.0425667    1842.2752  0.053792199  0.053440482            3 
 2855000   0.78418804   -4.0347224     1845.885  0.053878722  0.053429451            3 
 2856000   0.78932229   -4.0584115    1844.7509  0.053826767  0.053418267            6 
 2857000   0.78852827   -4.0592326    1848.7738  0.053925265   0.05340725            5 
 2858000   0.78336726    -4.040668      1845.03  0.053797236  0.053396183            5 
 2859000   0.79492922   -4.0369174    1847.5943  0.053853162  0.053385258            4 
 2860000   0.78908383   -4.0619494    1849.2118  0.053881462  0.053374259           11 
 2861000   0.81915696   -4.0420867    1847.5204  0.053813363   0.05336323            2 
 2862000   0.77270321   -4.0647495    1844.1909  0.053697616  0.053352185            4 
 2863000   0.79334215   -4.0505441    1849.2307  0.053825552  0.053341116           10 
 2864000   0.78428776    -4.029777    1844.4837  0.053668636  0.053330208            6 
 2865000   0.79589784   -4.0423033    1847.7204  0.053744049  0.053319113            4 
 2866000   0.78089836   -4.0431551    1847.7609  0.053726473  0.053308106            3 
 2867000   0.80506114   -4.0228098    1857.3269  0.053985783  0.053297055            4 
 2868000   0.79332547   -4.0162936    1856.2514  0.053935711   0.05328625            1 
 2869000   0.79053204   -4.0115329    1855.9623  0.053908515  0.053275393            6 
 2870000   0.79124395   -4.0342511    1846.1845  0.053605821  0.053264299            6 
 2871000   0.78101859   -4.0217695    1855.3168  0.053852224  0.053253355            5 
 2872000   0.79945278   -4.0388867    1847.3176   0.05360137  0.053242314            8 
 2873000   0.80308781   -4.0279164    1854.0406  0.053777719  0.053231336            4 
 2874000    0.7992362   -4.0202346    1855.8741  0.053812169  0.053220394            5 
 2875000   0.78243558   -4.0324984    1856.2406  0.053804077  0.053209493            5 
 2876000   0.78499131   -4.0515301    1853.9633   0.05371938  0.053198454            3 
 2877000   0.81145919   -4.0244373    1851.3132  0.053623949  0.053187451            3 
 2878000   0.79613428   -4.0536184    1859.9584  0.053855639   0.05317655            5 
 2879000    0.7910418   -4.0274002    1856.7219  0.053743253  0.053165727            3 
 2880000   0.80208802   -4.0199305     1857.709  0.053753155  0.053154892            4 
 2881000   0.78163767   -4.0267436    1855.2945  0.053664657   0.05314389            2 
 2882000   0.78451601   -4.0608058    1857.8078  0.053718709  0.053133038            7 
 2883000    0.8059733   -4.0651425    1854.2054  0.053595947  0.053122118            5 
 2884000   0.79423641   -4.0345581    1856.5568  0.053645308  0.053111198            3 
 2885000   0.78341744   -4.0307531    1864.5104  0.053856453  0.053100495            6 
 2886000   0.78872965   -4.0564308    1864.6158  0.053840835  0.053089833            3 
 2887000   0.78826531   -4.0234266    1863.1118  0.053778771  0.053079066            5 
 2888000   0.78162632   -4.0602539     1855.405  0.053537771  0.053068363            4 
 2889000   0.78158952   -4.0568509    1858.4112  0.053605953  0.053057477            4 
 2890000   0.77711591   -4.0367858     1860.375  0.053644032  0.053046812            4 
 2891000   0.79153176   -4.0345196    1863.4922  0.053715329  0.053036212           12 
 2892000   0.78684209   -4.0288018    1864.1438  0.053715533  0.053025667            3 
 2893000   0.80765007     -4.03097     1859.098  0.053551619  0.053014959            3 
 2894000   0.78955486   -4.0704342    1863.5495  0.053661296  0.053004248            7 
 2895000   0.78338476   -4.0619315    1859.5213  0.053526807  0.052993515            3 
 2896000   0.78558907   -4.0564832    1864.7267  0.053658112  0.052982776            5 
 2897000   0.80282776   -4.0611049    1862.2455  0.053568218  0.052971974            3 
 2898000   0.79278024   -4.0457399    1867.2848  0.053694641  0.052961304            3 
 2899000    0.7938982   -4.0372348    1862.9247  0.053550785  0.052950693            4 
 2900000   0.76909554   -4.0332989    1865.2918  0.053600339   0.05293991            4 
 2901000   0.79314129   -4.0576959    1867.2925  0.053639335  0.052929172            3 
 2902000   0.76904777   -4.0471037    1861.9393  0.053467129    0.0529184            4 
 2903000   0.78383675   -4.0575349    1865.7074  0.053556878  0.052907552            5 
 2904000   0.76709382   -4.0455913    1867.0799   0.05357782  0.052896784            4 
 2905000   0.78714018   -4.0737747    1862.0873  0.053416159   0.05288598            5 
 2906000   0.77978423    -4.053454    1858.0404  0.053281728  0.052875151            6 
 2907000   0.79078889   -4.0671704    1863.7871  0.053428137  0.052864372            3 
 2908000    0.7931632   -4.0512382    1867.2467  0.053508904   0.05285362            5 
 2909000   0.79835837   -4.0519246    1859.9944  0.053282756  0.052842803            4 
 2910000   0.79348143   -4.0464324    1864.5195   0.05339403  0.052832086            2 
 2911000   0.78429325   -4.0436323    1865.8647  0.053414196  0.052821256            4 
 2912000   0.78656742   -4.0645269    1862.1471  0.053289466  0.052810416            4 
 2913000   0.79857258   -4.0600882    1861.5569  0.053254289  0.052799591            4 
 2914000   0.78661537   -4.0357622     1867.056  0.053393273  0.052788833            3 
 2915000   0.78867938   -4.0357872    1869.6934  0.053450356  0.052778175            6 
 2916000   0.77612342    -4.045341    1871.5011  0.053483685  0.052767386            3 
 2917000   0.78766882   -4.0537311    1872.6662  0.053498634  0.052756696            5 
 2918000   0.78931115   -4.0369522    1870.3931  0.053415384  0.052745936            4 
 2919000   0.77639755   -4.0582903    1865.0841   0.05324552  0.052735217            3 
 2920000   0.77711227   -4.0493604    1872.6952  0.053444497  0.052724431            7 
 2921000   0.80224545   -4.0732778    1868.1883  0.053297624   0.05271373            5 
 2922000    0.7775585   -4.0806763    1873.7341  0.053437545  0.052703009            4 
 2923000   0.77978823    -4.028067    1872.2033  0.053375623  0.052692336            5 
 2924000    0.7739545   -4.0897947    1869.9503  0.053293158  0.052681642            7 
 2925000   0.78876164   -4.0518282    1869.9376  0.053274574  0.052671002            4 
 2926000   0.77926625   -4.0546817     1867.463  0.053185891  0.052660318            6 
 2927000   0.76732264   -4.0755051    1864.1621  0.053073741  0.052649578            4 
 2928000   0.77556206    -4.065098     1869.725  0.053213941    0.0526389            8 
 2929000   0.76521161   -4.0522728    1870.5329  0.053218758  0.052628075            8 
 2930000   0.78409577   -4.0623682    1871.8785  0.053238866  0.052617399            4 
 2931000   0.77913672   -4.0718346    1873.8674   0.05327725   0.05260664            3 
 2932000   0.76782602   -4.0520727    1870.2727  0.053156909  0.052595854            8 
 2933000   0.78555599   -4.0870749    1867.9227  0.053072016  0.052585029            3 
 2934000   0.79960661   -4.0580115    1871.5136  0.053155919  0.052574171            5 
 2935000   0.77557971   -4.0653219    1874.2541  0.053215619  0.052563459           10 
 2936000   0.77575983    -4.072399    1872.2762  0.053141355  0.052552621            2 
 2937000   0.78174116   -4.0799181     1867.548  0.052989105  0.052541744            3 
 2938000   0.78241715   -4.0717069    1877.9727  0.053266756  0.052530962            4 
 2939000   0.79361403   -4.0826932    1870.0947  0.053025255  0.052520138            4 
 2940000   0.77895094   -4.0504088    1877.8655  0.053227479  0.052509462            6 
 2941000   0.79702603   -4.0683254     1873.071   0.05307353  0.052498756            4 
 2942000   0.77704918   -4.0542608     1879.477  0.053236941  0.052487948            3 
 2943000   0.78012784   -4.0576736    1877.0522  0.053150191  0.052477202            8 
 2944000   0.77667763   -4.0710044    1871.5476  0.052976324  0.052466451            6 
 2945000   0.78852976   -4.0647458    1878.8909  0.053166127  0.052455833            8 
 2946000   0.76917558     -4.06745    1873.4086  0.052993001  0.052445235            6 
 2947000   0.79700548   -4.0726615    1874.5574  0.053007504  0.052434551           13 
 2948000   0.76628807   -4.0475947    1881.4675  0.053184856  0.052423846            5 
 2949000   0.78626296   -4.0652813    1876.8429   0.05303614  0.052413183            5 
 2950000   0.77063458   -4.0390316    1874.5458  0.052953272  0.052402391            2 
 2951000   0.77462591   -4.0324971    1885.5986  0.053247448  0.052391727            5 
 2952000   0.77493024   -4.0841673    1871.6539  0.052835758  0.052381032            4 
 2953000   0.75940089   -4.0328548    1883.0668  0.053139937  0.052370209            3 
 2954000   0.77050537   -4.0763444    1881.7625  0.053085152  0.052359573           14 
 2955000   0.77743608   -4.0499339    1882.0004  0.053073896  0.052348893            3 
 2956000   0.76010127   -4.0499694    1880.8189  0.053022634  0.052338294            5 
 2957000    0.7729588   -4.0867405    1880.1429  0.052985651  0.052327501            8 
 2958000   0.77326639   -4.0778948    1876.9501  0.052877792   0.05231669            9 
 2959000   0.79170673    -4.072525    1878.8512  0.052913463  0.052305914            8 
 2960000    0.7867703   -4.0567227    1877.1695   0.05284824   0.05229515           11 
 2961000   0.77275169   -4.0632732    1876.9637  0.052824601  0.052284368            3 
 2962000    0.7699054    -4.030601    1883.3281  0.052985824  0.052273649            4 
 2963000   0.77691307   -4.0605225    1884.0867  0.052989276     0.052263            3 
 2964000   0.78229457   -4.0974177    1879.2487  0.052835376  0.052252247            8 
 2965000   0.77999168   -4.0971745    1881.1159  0.052870036  0.052241614            8 
 2966000   0.77096096   -4.0621333    1881.8121  0.052871771  0.052231018            7 
 2967000   0.77270982   -4.0517798    1885.4853  0.052957119  0.052220565            6 
 2968000   0.77888792   -4.0390134     1888.824   0.05303302  0.052209878            5 
 2969000   0.77588624   -4.0942061    1879.3571  0.052749442  0.052199288            5 
 2970000   0.78417883   -4.0661883    1886.2659   0.05292553  0.052188664            3 
 2971000   0.78416287   -4.0617302    1877.6432  0.052665859  0.052177987            7 
 2972000   0.78433939   -4.0832034     1882.424   0.05278219  0.052167273            9 
 2973000   0.76264463   -4.0451234    1882.6282   0.05277016  0.052156509            4 
 2974000    0.7880512    -4.075055     1879.088  0.052653216   0.05214573            4 
 2975000   0.76534664   -4.0726449    1884.2162  0.052779166  0.052134989            7 
 2976000   0.81037748    -4.060403    1881.0298  0.052672206  0.052124354            9 
 2977000   0.77291467   -4.0939341    1880.7894  0.052647783  0.052113689            6 
 2978000   0.77626503   -4.0775163    1891.1378  0.052919684  0.052102927            6 
 2979000   0.77429444   -4.0711586    1887.7672  0.052807631  0.052092184            8 
 2980000   0.78166333   -4.0430927    1890.9276  0.052878289  0.052081424            9 
 2981000   0.77671479   -4.0597055     1888.839  0.052802163  0.052070756            5 
 2982000   0.76475217   -4.0683989    1887.3901  0.052743967  0.052060052            9 
 2983000   0.75808131    -4.069698    1886.5248  0.052702112  0.052049525            4 
 2984000   0.76753241   -4.0865664    1881.5877  0.052546574  0.052038959            5 
 2985000   0.79264093   -4.0779507    1889.1191  0.052739227  0.052028435            3 
 2986000   0.77004862   -4.0698406      1893.59  0.052846338   0.05201777            5 
 2987000   0.77825216    -4.093144    1892.3993  0.052795427   0.05200719            3 
 2988000   0.78372527   -4.0850775    1888.6124  0.052672144  0.051996556            5 
 2989000   0.78167375   -4.0871127    1896.3434  0.052870063  0.051986004            4 
 2990000   0.77468243   -4.0689887     1891.552   0.05271884  0.051975514            5 
 2991000   0.76806896   -4.0327772    1895.4482  0.052809769   0.05196506            6 
 2992000   0.75720889   -4.0693543    1891.8031  0.052690593  0.051954455            5 
 2993000   0.77792129   -4.0418154    1893.5396   0.05272134  0.051943879            4 
 2994000   0.77442206   -4.0849018    1891.0387  0.052634122  0.051933343            4 
 2995000   0.78486645   -4.0573029    1893.4291  0.052683057  0.051922781            9 
 2996000   0.76147334   -4.1254215    1888.7262  0.052534663  0.051912103            5 
 2997000   0.75780272   -4.0748857    1892.6309  0.052625706   0.05190139            6 
 2998000   0.75717642   -4.0861219    1894.8731  0.052670477  0.051890836            2 
 2999000   0.77227733   -4.0882985    1892.6473  0.052591067  0.051880246            9 
 3000000   0.77287001   -4.0756042    1894.8182  0.052633838  0.051869576            3 
 3001000   0.77033959   -4.0710439    1900.9922  0.052787744  0.051859188            7 
 3002000   0.75941757   -4.0699494    1895.3197  0.052612694   0.05184878            5 
 3003000   0.77897936   -4.0764288     1895.434  0.052598346  0.051838387            4 
 3004000   0.77056084   -4.0830361    1894.3007  0.052549398  0.051827917            3 
 3005000   0.77275506   -4.0795643    1892.0743   0.05247017  0.051817331            4 
 3006000   0.76898143   -4.0733911    1893.5254  0.052492943  0.051806823            4 
 3007000   0.77726488   -4.0884303    1894.7426  0.052509218   0.05179628            6 
 3008000   0.76688631    -4.072893    1895.0869    0.0525013  0.051785582            8 
 3009000    0.7858463   -4.0656574    1898.2507  0.052571472  0.051775158            6 
 3010000   0.78122265   -4.0645498      1896.33   0.05250083  0.051764709           11 
 3011000   0.77930828   -4.0723925    1900.2852   0.05259286  0.051754201            5 
 3012000   0.78055597   -4.0461286    1907.8514  0.052784732  0.051743697            5 
 3013000   0.76103838   -4.0889026    1899.5902  0.052538727  0.051733205            5 
 3014000   0.76379632   -4.0453669     1892.618  0.052328522  0.051722596            2 
 3015000   0.75858161    -4.081256    1895.6494  0.052394953  0.051712079            3 
 3016000   0.76957198   -4.0790272    1899.8828  0.052494551  0.051701608            6 
 3017000   0.76540057   -4.0519364    1893.1595  0.052291445  0.051691077            3 
 3018000   0.76198153   -4.0996399    1894.2568  0.052304418  0.051680608            3 
 3019000   0.77132523   -4.0928049    1892.2428    0.0522315  0.051670044            8 
 3020000    0.7703993   -4.1010926    1891.0909   0.05218242  0.051659471            4 
 3021000    0.7719386   -4.0578044    1895.4978   0.05228671  0.051648916            4 
 3022000    0.7630987   -4.1024607    1896.8758  0.052307406  0.051638298            6 
 3023000     0.766638   -4.0555168    1900.4709  0.052389207  0.051627884            4 
 3024000   0.77486339   -4.0701771    1895.5408  0.052236024  0.051617327            5 
 3025000   0.77296436   -4.0923236    1896.9273   0.05225695  0.051606748            4 
 3026000   0.76959659   -4.0783554    1895.9218   0.05221199  0.051596016            4 
 3027000      0.76555   -4.0991174    1895.3865  0.052180004  0.051585414           10 
 3028000   0.74152723   -4.0893359    1901.7968  0.052339191  0.051574799            4 
 3029000   0.77060126   -4.1063358    1898.6049  0.052234096  0.051564257            4 
 3030000   0.78350436   -4.0415477    1903.0883  0.052340161  0.051553712            8 
 3031000   0.76782534   -4.0796726    1897.1631   0.05215999  0.051543225            9 
 3032000   0.76719102   -4.1096453      1896.42  0.052122361  0.051532639            5 
 3033000   0.75579721   -4.0670115    1906.7665  0.052389452  0.051522044            3 
 3034000   0.76123262   -4.0711783    1905.1983  0.052329111   0.05151157            9 
 3035000   0.78067927   -4.0884455    1892.3645  0.051959487  0.051500947            5 
 3036000   0.77707374   -4.0926538    1900.4619  0.052164633  0.051490438            3 
 3037000   0.77179832    -4.081584    1902.5548  0.052204884  0.051479874            5 
 3038000    0.7629095   -4.0863914    1903.9852  0.052226936  0.051469334            5 
 3039000   0.77736929   -4.1010406    1902.6483  0.052173091  0.051458762            7 
 3040000   0.76178299   -4.0641524    1909.6171  0.052346961  0.051448261            3 
 3041000   0.76451592   -4.0935749    1901.5886   0.05210974  0.051437704           14 
 3042000   0.75480071   -4.0580324    1904.0885  0.052161093   0.05142726            4 
 3043000   0.75012976   -4.1028183    1903.8437  0.052137247   0.05141677            4 
 3044000   0.75842282    -4.098491    1907.2214  0.052212589  0.051406178            7 
 3045000   0.76169426   -4.0927797    1910.5021  0.052285224   0.05139572            7 
 3046000   0.75105641   -4.1099743    1899.8604  0.051976921  0.051385189            3 
 3047000    0.7554471    -4.087259    1909.7083  0.052229194  0.051374751            4 
 3048000     0.759552   -4.1013989    1906.4881  0.052124018  0.051364233            7 
 3049000   0.77136637   -4.1040541    1905.8756  0.052090182  0.051353728            9 
 3050000   0.76973011   -4.1004418    1909.0941  0.052161042  0.051343152            2 
 3051000   0.76260186   -4.1186903    1907.0486  0.052088074  0.051332674            7 
 3052000    0.7718549   -4.0913173    1909.5577  0.052139517  0.051322269           11 
 3053000   0.75679126   -4.1186791    1903.2891  0.051951334  0.051311796            3 
 3054000   0.75990306   -4.1053963    1904.2081    0.0519594  0.051301365            3 
 3055000   0.75797862    -4.089652    1905.0934  0.051966542  0.051290863            3 
 3056000   0.76857597   -4.0995805    1908.4651   0.05204148  0.051280391            4 
 3057000   0.76526138   -4.1042124    1910.6117   0.05208297  0.051269968            6 
 3058000   0.75854162   -4.0997018    1909.7843  0.052043391  0.051259552            3 
 3059000   0.76464249   -4.1044827    1908.9098  0.052002555  0.051249096            5 
 3060000   0.76470388   -4.0762526    1906.9568  0.051932375  0.051238603            3 
 3061000   0.76222759   -4.1048713    1903.8411  0.051830585    0.0512281            9 
 3062000   0.76283911   -4.0639312    1909.2354  0.051960468  0.051217653            4 
 3063000   0.76556417   -4.1003131    1907.5225  0.051896901   0.05120723            6 
 3064000   0.75919236    -4.099699    1909.8114  0.051942215  0.051196641            4 
 3065000   0.73947494   -4.0988168    1912.2293  0.051991008  0.051186185            6 
 3066000   0.76783414   -4.0902006    1914.7585  0.052042795  0.051175709            6 
 3067000   0.76483944   -4.0758767    1909.2739  0.051876803  0.051165177            6 
 3068000   0.75437027   -4.1089402    1908.9776  0.051851847  0.051154668            4 
 3069000   0.74896698   -4.0787517    1907.8181  0.051803468   0.05114426            4 
 3070000    0.7674421   -4.0707428    1915.2944  0.051989533   0.05113377            3 
 3071000   0.76852298    -4.083711    1912.0484  0.051884522  0.051123362            7 
 3072000   0.75387444   -4.0843829    1908.7295  0.051777601  0.051112888           14 
 3073000   0.76760103   -4.0905426    1910.5258  0.051809464  0.051102477            4 
 3074000   0.75688357    -4.106627    1912.7187  0.051852057  0.051092002            6 
 3075000   0.75998076   -4.1092297    1908.5465  0.051722129  0.051081523            3 
 3076000   0.76357388    -4.103593    1912.1615  0.051803248  0.051070932           11 
 3077000   0.74670729   -4.0865642    1911.0578  0.051756522  0.051060383            5 
 3078000   0.75252583   -4.0748925     1921.398  0.052019657  0.051049911            3 
 3079000   0.75613511   -4.1035471    1913.8847  0.051799413  0.051039472            8 
 3080000   0.75349413   -4.1062002    1915.4932  0.051826115  0.051028939            7 
 3081000   0.75095106   -4.0836893    1913.7978  0.051763436  0.051018471            5 
 3082000   0.73819814   -4.0899324    1911.0753  0.051673028  0.051007962            9 
 3083000   0.76089697   -4.0707173    1917.0814  0.051818612  0.050997418            6 
 3084000   0.77144319   -4.0779063     1913.309  0.051699875  0.050986912            6 
 3085000   0.77622405   -4.1144455     1911.894  0.051644896  0.050976465            8 
 3086000   0.73970104   -4.0795161    1916.1309  0.051742571  0.050965903            7 
 3087000   0.75468444   -4.1133164    1915.6149  0.051711881  0.050955281            3 
 3088000   0.75560428   -4.1145201    1911.5454  0.051585314  0.050944592            9 
 3089000   0.76902318    -4.121368    1912.0986  0.051583539   0.05093394            5 
 3090000   0.77017333   -4.1057767    1913.8168  0.051613182  0.050923445            5 
 3091000   0.76780378   -4.1130398    1914.4365  0.051613193  0.050912863            6 
 3092000   0.75218025   -4.1010788    1916.6892  0.051657212  0.050902289            7 
 3093000    0.7674268   -4.0809519    1917.6681  0.051666886  0.050891806            4 
 3094000   0.75233223   -4.0890926    1919.9076  0.051710504  0.050881298            6 
 3095000   0.74853625   -4.0925258    1922.0749  0.051752152  0.050870794            7 
 3096000   0.74865177   -4.1001244     1914.744  0.051538115   0.05086039            5 
 3097000   0.74421895   -4.1016089    1917.5383  0.051596662  0.050849813            6 
 3098000   0.76516657   -4.0921673    1913.1816  0.051462814  0.050839309            4 
 3099000   0.74368888   -4.1181661    1915.1537  0.051499238  0.050828794            4 
 3100000    0.7713106   -4.1084174    1918.2749  0.051566529  0.050818225            6 
 3101000    0.7565035   -4.1191388    1911.3342  0.051363384  0.050807698            6 
 3102000   0.75410597   -4.0973234    1915.6944  0.051463959  0.050797256            9 
 3103000   0.75407516   -4.0848372    1923.2607  0.051650572  0.050786718            9 
 3104000   0.75806326   -4.1019923    1916.3595  0.051448654  0.050776246            7 
 3105000   0.77137829   -4.0968412    1919.9115  0.051527417  0.050765854            5 
 3106000   0.75674215   -4.1102156    1916.6543  0.051423437  0.050755447            5 
 3107000   0.75535947   -4.1157345    1914.7784  0.051356572  0.050744992            3 
 3108000   0.72761003   -4.1153435    1917.4499  0.051411678  0.050734564            5 
 3109000   0.75387033   -4.1096161     1915.599  0.051345529  0.050724217            3 
 3110000   0.74119293   -4.1305581    1913.8279  0.051281563  0.050713756            9 
 3111000   0.76210038   -4.1126129    1917.1709  0.051354627   0.05070327            8 
 3112000   0.73985738   -4.1134193     1918.833  0.051382631  0.050692721            9 
 3113000   0.76076042   -4.0959699    1921.1661  0.051428582  0.050682226            3 
 3114000   0.74759578   -4.0954477    1922.2949  0.051442273  0.050671833            6 
 3115000   0.75712334   -4.1031282    1921.6401  0.051408242  0.050661352            6 
 3116000    0.7541071   -4.1112057    1917.9372  0.051292716  0.050650848            4 
 3117000   0.76113591   -4.1054576    1926.3317  0.051500687  0.050640431            2 
 3118000   0.74596627   -4.1191185    1922.3991  0.051379066  0.050629963            7 
 3119000   0.76197346   -4.0815682    1926.9268  0.051483563  0.050619517            5 
 3120000   0.74861292   -4.1105774    1918.9207  0.051253223  0.050609205            6 
 3121000   0.76403309    -4.085637     1923.252  0.051352451  0.050598818            6 
 3122000   0.76106063   -4.1231123    1918.3226  0.051204426  0.050588397            4 
 3123000    0.7401058   -4.1051338    1914.4535  0.051084786  0.050577944            7 
 3124000    0.7465783    -4.116737    1925.9322  0.051374633  0.050567493            9 
 3125000    0.7555864   -4.0971753    1932.0244  0.051520649  0.050557051            5 
 3126000   0.74546185   -4.1042418    1926.4718  0.051356149  0.050546693            8 
 3127000   0.75731868   -4.1031253    1923.4725  0.051259793  0.050536315            8 
 3128000   0.74529212   -4.1324414     1926.937  0.051335704  0.050526015           10 
 3129000   0.74748324   -4.1075559    1927.2513  0.051327668  0.050515691            3 
 3130000    0.7639067   -4.1195267    1924.2992  0.051232674  0.050505336            6 
 3131000   0.75574971   -4.0986339    1924.1868  0.051213318  0.050494914            4 
 3132000    0.7545875   -4.1281433    1925.6385  0.051235594   0.05048454           12 
 3133000   0.75171692   -4.1001279    1925.1576  0.051206447  0.050474109            5 
 3134000    0.7361458   -4.1334037    1927.5858  0.051254675  0.050463694            6 
 3135000    0.7477159   -4.1255917    1932.1879  0.051360658  0.050453405            6 
 3136000   0.75230135   -4.1134365      1930.68  0.051304209  0.050442999            3 
 3137000   0.74778107    -4.142092     1922.791  0.051078285  0.050432672           11 
 3138000   0.75026626   -4.1064562    1932.3418   0.05131564  0.050422329            7 
 3139000   0.73730522   -4.1164928    1921.9907  0.051024495  0.050411962            5 
 3140000   0.75181107    -4.105221    1933.8247  0.051322312  0.050401612            4 
 3141000   0.75083891   -4.1386233    1925.0306  0.051072657  0.050391303            4 
 3142000   0.74888448   -4.1292885    1929.3066  0.051169812   0.05038083           12 
 3143000   0.73739437   -4.1207049    1922.3161  0.050968187  0.050370374            3 
 3144000   0.74207596   -4.1141696    1930.9546  0.051180942  0.050359945            4 
 3145000    0.7402739   -4.1353895    1937.4557  0.051336929  0.050349583            5 
 3146000   0.74436966   -4.1142106    1930.9593  0.051148531  0.050339165            6 
 3147000   0.74682046   -4.1177545    1924.3354  0.050956874  0.050328622            3 
 3148000   0.73588046   -4.1138036    1932.5794   0.05115892  0.050318309            3 
 3149000   0.73097007   -4.1606797    1921.3207  0.050844731  0.050307811            6 
 3150000   0.75861351   -4.0969661    1938.4812  0.051282572  0.050297387            6 
 3151000   0.75729282     -4.10903    1930.5603  0.051056816  0.050287124            6 
 3152000   0.74115434    -4.123724    1928.1441  0.050976737  0.050276733            4 
 3153000   0.73093702   -4.0927255    1938.1105  0.051223979   0.05026639            5 
 3154000   0.73876611   -4.1279215    1930.6796  0.051011403  0.050256061            5 
 3155000    0.7457095   -4.1287405    1925.7248  0.050864364  0.050245643            9 
 3156000    0.7516552   -4.1050322    1927.9581  0.050907217  0.050235233            8 
 3157000   0.73287908   -4.1188957    1929.7423  0.050938187  0.050224746            2 
 3158000   0.72981004   -4.1107125    1931.0171  0.050955698  0.050214384            4 
 3159000   0.74400807   -4.1344111    1928.8782  0.050883143  0.050203888            5 
 3160000   0.77100487   -4.1174497    1928.9772  0.050869653  0.050193377            3 
 3161000   0.74551008   -4.1292037      1933.75  0.050979385  0.050182772            3 
 3162000   0.72735435    -4.109659    1934.2799  0.050977227  0.050172284            4 
 3163000    0.7416604   -4.1282814    1928.5575  0.050810347  0.050161732            5 
 3164000   0.74935197   -4.1289502    1930.2011  0.050837578  0.050151132            6 
 3165000   0.74549832   -4.1144303    1929.3963  0.050800325  0.050140654            5 
 3166000   0.76470755   -4.1026154     1930.127   0.05080351  0.050130165            6 
 3167000   0.74514464   -4.1415088    1929.6014  0.050773639   0.05011961            5 
 3168000   0.75152541   -4.1145591    1926.6928  0.050681102  0.050109066            7 
 3169000   0.74246921     -4.13412     1928.988  0.050725466  0.050098486            3 
 3170000   0.73528082   -4.1185478    1929.4928  0.050722734  0.050087892            4 
 3171000   0.75183774   -4.1088379     1931.434  0.050757753  0.050077342            4 
 3172000   0.74569269   -4.1132408      1934.36  0.050818622  0.050066759            5 
 3173000   0.73305832   -4.1340296    1935.0767  0.050821429  0.050056277            5 
 3174000   0.74260078   -4.1537955    1930.9645  0.050697451  0.050045728           10 
 3175000   0.72514422   -4.1362737    1931.9509  0.050707374  0.050035101            7 
 3176000   0.73404318   -4.1414637    1930.0543  0.050641644  0.050024614            7 
 3177000   0.75704665   -4.1363346    1928.7349  0.050591095  0.050014014           18 
 3178000   0.76277022   -4.1092622    1940.4844  0.050883272  0.050003446            5 
 3179000   0.74965697   -4.1572597    1925.4422  0.050472952  0.049992967            6 
 3180000   0.74585386   -4.1445685    1930.7927  0.050597293  0.049982303            9 
 3181000   0.75504503   -4.1176972    1937.7131  0.050762682   0.04997173            4 
 3182000    0.7647297   -4.1186256    1930.0529  0.050546116  0.049961256            4 
 3183000    0.7566875   -4.1268745    1926.3798  0.050434072  0.049950641            7 
 3184000   0.73942158   -4.1168798    1936.0842  0.050672221  0.049940035            8 
 3185000   0.72086746   -4.1561772    1930.7073  0.050515627  0.049929433            7 
 3186000   0.73662458    -4.128759    1934.0967  0.050588426  0.049918861            5 
 3187000   0.73624482    -4.142074    1927.8371  0.050408877  0.049908268            4 
 3188000   0.74951754   -4.1010473    1935.8324  0.050602061  0.049897706            4 
 3189000    0.7451863   -4.1249082    1931.6577    0.0504771  0.049887157            8 
 3190000   0.74374249    -4.126492    1932.6902   0.05048825  0.049876585            7 
 3191000    0.7280906   -4.1509081    1925.0735  0.050273516  0.049865996            5 
 3192000   0.74954772   -4.1266728    1932.0814  0.050440722  0.049855375            3 
 3193000   0.73574724   -4.1378444    1934.3642  0.050484502  0.049844849            3 
 3194000   0.73931965   -4.1378243    1929.9179   0.05035269   0.04983416            6 
 3195000   0.73494677   -4.1404986    1930.4151  0.050349899  0.049823532            5 
 3196000   0.74961815   -4.1039014    1932.2783  0.050382727  0.049812846            4 
 3197000   0.75274646   -4.1381722    1937.6336  0.050506557  0.049802232           10 
 3198000   0.73713593    -4.133948    1933.2797  0.050377312  0.049791653            8 
 3199000   0.73421726   -4.1127342    1931.2983  0.050309948  0.049781109            5 
 3200000   0.75330194   -4.1168025     1939.531  0.050508619    0.0497704            5 
 3201000   0.73710247   -4.1223863    1934.3017  0.050356705  0.049759699            7 
 3202000    0.7460638   -4.1169785    1937.9699  0.050436444   0.04974905            6 
 3203000   0.74463516   -4.1392549    1939.5049  0.050460634  0.049738309            5 
 3204000   0.74639408   -4.1270421    1931.8906  0.050246842  0.049727536            3 
 3205000   0.73446841   -4.1234303    1939.9402  0.050440462  0.049716948            5 
 3206000   0.74393287   -4.1146072    1933.2707  0.050251369  0.049706382            3 
 3207000   0.75229963   -4.1161091    1935.6651  0.050297919  0.049695725           11 
 3208000   0.72900206   -4.1286237      1937.79  0.050337439  0.049684994            5 
 3209000   0.74820484   -4.1414782     1934.559  0.050237846  0.049674226            7 
 3210000   0.74675839   -4.1479041     1935.617  0.050249663  0.049663382            3 
 3211000   0.75051596   -4.1369458    1934.3627  0.050201462  0.049652608            8 
 3212000   0.72444426     -4.15582    1938.4684  0.050292353  0.049641968            5 
 3213000   0.75838972   -4.1224237    1935.1072  0.050189522  0.049631279            6 
 3214000   0.73683778   -4.1172122    1939.8689  0.050297368   0.04962067            8 
 3215000   0.71685201   -4.1552353    1932.4612  0.050089715  0.049609963            3 
 3216000   0.73735134   -4.1523281     1935.013  0.050140261  0.049599145            8 
 3217000   0.71655417   -4.1718213    1934.2172  0.050104063   0.04958835            8 
 3218000   0.74101043   -4.1524158    1934.0577  0.050084362  0.049577577            2 
 3219000   0.73159959    -4.113781    1935.4492  0.050104826  0.049566807           10 
 3220000   0.72951407    -4.105955    1936.5881  0.050118739  0.049556147            2 
 3221000   0.72874996   -4.0942603    1938.1219  0.050142863   0.04954542            5 
 3222000    0.7387274   -4.1401365    1936.3536  0.050081565  0.049534664            5 
 3223000   0.74610637   -4.1248805    1934.9705  0.050030264  0.049523915            7 
 3224000   0.72530785   -4.1463016    1941.3516  0.050179683  0.049513064            6 
 3225000   0.72986599   -4.1558414    1934.3896  0.049984228  0.049502222            3 
 3226000   0.73331974   -4.1224896    1938.4747  0.050074258  0.049491474            4 
 3227000   0.70907919   -4.1499829    1933.8454  0.049939195  0.049480696            7 
 3228000   0.73408757   -4.1430437    1934.5737  0.049942526  0.049469842            5 
 3229000   0.70130503   -4.1293592    1934.3774  0.049921992  0.049459003            5 
 3230000   0.73412299   -4.1282913     1931.666  0.049836585  0.049448181            8 
 3231000   0.72363211   -4.1405905    1935.5704   0.04992186  0.049437349            4 
 3232000    0.7285261   -4.1348203    1938.0704  0.049970875  0.049426529            4 
 3233000   0.73323688   -4.1558575    1935.2458  0.049882611  0.049415547            8 
 3234000   0.72650717   -4.1722524    1939.7438  0.049983092  0.049404575            8 
 3235000    0.7523578   -4.1502041    1932.1425  0.049771832  0.049393708            7 
 3236000   0.73607479   -4.1483551      1934.25  0.049810724  0.049382802            4 
 3237000   0.74510696   -4.1518894    1938.2879  0.049899288   0.04937196            6 
 3238000   0.71873363   -4.1685076    1933.8325  0.049769211  0.049361065           11 
 3239000   0.74022266   -4.1451713    1937.9081  0.049858703  0.049350161            5 
 3240000   0.74475968   -4.1539509     1938.857   0.04986772  0.049339304            8 
 3241000   0.71863844   -4.1335196    1940.1938  0.049886708  0.049328514            5 
 3242000   0.73866594   -4.1598391    1933.5469  0.049700466  0.049317662            6 
 3243000   0.72562173   -4.1485135    1936.9586  0.049772808  0.049306817           14 
 3244000   0.73300103   -4.1464765    1935.2218  0.049712849  0.049295858            7 
 3245000   0.72424209   -4.1067635    1936.7496  0.049736763  0.049284875            5 
 3246000   0.74369543   -4.1456834    1933.1757   0.04962969  0.049273972            6 
 3247000   0.75496387   -4.1493234    1936.7192  0.049705348  0.049263043            5 
 3248000   0.71554433   -4.1386441    1935.7659  0.049665586  0.049252194            4 
 3249000   0.74112141   -4.1435145    1934.9283  0.049628818  0.049241292            6 
 3250000   0.72897661   -4.1518979    1934.8302   0.04961103  0.049230212            8 
 3251000   0.73613511   -4.1569981    1938.0358  0.049677941  0.049219259            4 
 3252000   0.73370387   -4.1452859    1935.4934  0.049597514  0.049208373           16 
 3253000   0.74152537   -4.1762169    1943.6284  0.049790665  0.049197638            5 
 3254000   0.72636605   -4.1408961    1936.5856     0.049595  0.049186711            7 
 3255000   0.73513908   -4.1294951    1940.7741  0.049686996  0.049175872            3 
 3256000   0.72636265   -4.1530287    1944.7888  0.049774489  0.049165056            3 
 3257000   0.72157694   -4.1445024    1944.5159  0.049752222  0.049154191            5 
 3258000   0.73752256   -4.1393519    1934.9654   0.04949267  0.049143328            8 
 3259000   0.74402969   -4.1612808    1940.4534  0.049617811  0.049132453            4 
 3260000   0.73167611   -4.1513037    1935.0239    0.0494638  0.049121711            5 
 3261000   0.72399279   -4.1351768    1947.0895  0.049756962  0.049110838            2 
 3262000   0.72138335   -4.1424787     1942.603  0.049627094  0.049100014            6 
 3263000   0.73885954   -4.1810715    1934.9562  0.049416596  0.049089167            5 
 3264000    0.7425329   -4.1719659    1932.6581  0.049342782  0.049078294            4 
 3265000   0.72001211   -4.1720011    1941.2422  0.049546765  0.049067434            5 
 3266000   0.72884829   -4.1504778    1939.0981  0.049476886   0.04905655           11 
 3267000   0.73294074   -4.1810754    1932.0035  0.049280774  0.049045657            3 
 3268000   0.72273276   -4.1394448    1945.8907  0.049619817  0.049034769            4 
 3269000   0.72548278   -4.1682661    1944.5557  0.049570606  0.049023882            9 
 3270000   0.71357829   -4.1488866    1935.0697  0.049313702  0.049012971            6 
 3271000   0.72969547   -4.1770451    1942.9818  0.049500199  0.049002077            2 
 3272000   0.71270009   -4.1623883    1942.1364  0.049463539  0.048991273            4 
 3273000   0.72268686   -4.1450441    1942.8841  0.049467463  0.048980493            4 
 3274000   0.72441783   -4.1499786    1941.8462  0.049425937  0.048969774            5 
 3275000   0.73439691   -4.1420609    1948.0003  0.049567439  0.048958999            6 
 3276000   0.71644153   -4.1545672    1943.6152  0.049440762   0.04894825            7 
 3277000   0.73316231   -4.1796695    1947.6625  0.049528597  0.048937418            5 
 3278000   0.73519018   -4.1486436    1946.0277  0.049471926  0.048926645           10 
 3279000   0.72934135   -4.1787641    1942.8926  0.049377163  0.048915812           11 
 3280000   0.72039821   -4.2014398    1944.6729  0.049407341  0.048904866            6 
 3281000   0.72767694   -4.1541992    1943.5893  0.049364758  0.048893975            6 
 3282000   0.73367498   -4.1740149    1937.4078  0.049192763  0.048883031            4 
 3283000   0.71554953    -4.183414    1943.3281  0.049328057  0.048872104            5 
 3284000   0.73354199   -4.1495437    1943.4146   0.04931523  0.048861216            9 
 3285000   0.72278036   -4.1848172    1944.4959  0.049327647  0.048850362            6 
 3286000   0.72012338   -4.1600654    1945.0772  0.049327379  0.048839428            9 
 3287000    0.7283962   -4.1818364    1940.2701    0.0491905  0.048828539            9 
 3288000    0.7147194    -4.163485    1943.9176  0.049267985  0.048817662            3 
 3289000   0.72170155   -4.1416078    1943.3525  0.049238688    0.0488067            4 
 3290000   0.72509492   -4.1494431    1940.0169  0.049139232  0.048795736            3 
 3291000   0.74230711   -4.1572912    1947.7951  0.049321257  0.048784864            4 
 3292000   0.73851069   -4.1753112    1946.4475  0.049272161  0.048773898            3 
 3293000   0.72241099   -4.1752367     1946.471  0.049257795  0.048762981            4 
 3294000   0.74702434   -4.1417388    1942.8211  0.049150503  0.048752064            7 
 3295000   0.73002497    -4.182384    1945.3357  0.049199183  0.048741142            8 
 3296000   0.71426302   -4.1736488    1944.8295  0.049171459  0.048730195            6 
 3297000     0.731607   -4.1769031    1938.7746  0.049003503  0.048719244            7 
 3298000   0.70593276   -4.1597468    1946.0025  0.049171279  0.048708357            7 
 3299000   0.72925165   -4.1640528    1944.9485  0.049129749  0.048697418           12 
 3300000   0.70130552    -4.170341    1942.4293  0.049051245  0.048686514            4 
 3301000   0.72861438   -4.1591903    1952.4731   0.04928994  0.048675575            3 
 3302000   0.72992035    -4.136977    1947.1322  0.049140222   0.04866467            6 
 3303000   0.74445934   -4.1473932    1940.9017  0.048968152  0.048653721            4 
 3304000   0.72297901   -4.1770994    1940.5528  0.048944531  0.048642906            6 
 3305000   0.71603448   -4.1676747    1946.6534  0.049083545  0.048631939            6 
 3306000   0.71855752   -4.1238198     1949.323  0.049135991  0.048621082            9 
 3307000   0.72257549   -4.1507276    1948.6544  0.049104284  0.048610245            5 
 3308000   0.71583614    -4.144387    1949.3566  0.049107128  0.048599398            3 
 3309000   0.71894695   -4.1823332    1948.6802  0.049075255  0.048588599            5 
 3310000    0.7275021   -4.1891392    1954.5121  0.049207252  0.048577756            6 
 3311000   0.71490908   -4.1708601    1951.0668  0.049105679  0.048566955            5 
 3312000   0.73843201   -4.1542648     1948.179  0.049018191  0.048556135            8 
 3313000   0.72016234   -4.1922421    1946.0089  0.048948809  0.048545375            5 
 3314000   0.72506984   -4.1469698    1953.2571  0.049116303  0.048534554            8 
 3315000   0.72521824   -4.1672795    1951.0291  0.049045477  0.048523811            4 
 3316000   0.71244146   -4.1756149    1946.3852  0.048913984  0.048512974            6 
 3317000   0.71505095   -4.1718769    1948.4017  0.048949897   0.04850219            3 
 3318000   0.72383806   -4.1535545    1955.7269   0.04911912  0.048491366            5 
 3319000   0.70592436   -4.1647146    1948.7763  0.048929807  0.048480598            5 
 3320000   0.72066657   -4.1560722    1954.5138  0.049059081  0.048469858            8 
 3321000   0.73281247   -4.1780665    1946.9795  0.048855251  0.048459129            3 
 3322000   0.71862305   -4.1589502    1954.6049   0.04903183  0.048448271            9 
 3323000   0.72380425   -4.1588952    1954.6893  0.049019192  0.048437473            7 
 3324000   0.71654839   -4.1736196    1951.1852  0.048916597  0.048426722            9 
 3325000   0.72650092   -4.1842824    1957.4783  0.049059606   0.04841602            6 
 3326000   0.71793776   -4.1662215    1952.2196  0.048913098  0.048405272            4 
 3327000   0.71576096    -4.167406    1957.1263  0.049021299   0.04839454            8 
 3328000   0.72323357   -4.1683754    1957.6337  0.049019272  0.048383853            5 
 3329000   0.71789565   -4.1717249    1957.1852  0.048993321   0.04837313            8 
 3330000   0.70753304   -4.1601749    1962.8786  0.049121086  0.048362556            6 
 3331000   0.72456156    -4.169756    1959.3522  0.049018117  0.048351904            7 
 3332000   0.70835451   -4.1804013    1953.1179  0.048847485  0.048341267            4 
 3333000   0.73254204   -4.1934186    1957.1691  0.048934121  0.048330527           10 
 3334000   0.71244796   -4.1814695    1948.3742  0.048699614  0.048319846            9 
 3335000   0.72758323   -4.1707738    1961.7693  0.049019723  0.048309176           11 
 3336000   0.70119919   -4.1714164    1959.2535  0.048942183  0.048298549            5 
 3337000   0.69931628   -4.1726518    1952.9567   0.04877027  0.048287886            6 
 3338000   0.71406566   -4.1674984    1956.8688  0.048853326  0.048277218           11 
 3339000   0.71949321   -4.1674448    1958.5094  0.048879639  0.048266638            6 
 3340000   0.70251985    -4.207854     1959.567  0.048891392  0.048255915           14 
 3341000   0.71669923   -4.1748464    1959.6002  0.048877587  0.048245251            5 
 3342000   0.70013071   -4.1804501    1956.2667  0.048779839  0.048234596            8 
 3343000   0.71965845   -4.1523288     1955.438  0.048744592  0.048223927            5 
 3344000   0.71380476   -4.1811278    1958.1693   0.04879808  0.048213405            4 
 3345000   0.70744044   -4.1722172    1962.3736  0.048888232  0.048202933            6 
 3346000     0.723959   -4.1536942    1966.8686   0.04898557  0.048192511            7 
 3347000   0.71526881   -4.1896646    1959.6425  0.048791019  0.048181969            5 
 3348000   0.73294555   -4.1750811    1959.4443  0.048771512  0.048171396            6 
 3349000   0.72634091   -4.1811721      1961.94  0.048819049   0.04816083           15 
 3350000   0.72157877   -4.1833684    1962.2019  0.048810994  0.048150245           13 
 3351000   0.71865571   -4.2049792    1958.9497  0.048715551   0.04813958            6 
 3352000   0.72117608   -4.1631911    1961.1964  0.048756871  0.048128976            6 
 3353000   0.73131068   -4.1908252    1961.0298  0.048738189  0.048118281            8 
 3354000   0.71389433   -4.1865125    1957.4196   0.04863396  0.048107627            7 
 3355000   0.71234665   -4.1841635    1959.4981  0.048671091  0.048096895            4 
 3356000   0.72505227   -4.1732552    1960.5888  0.048683671  0.048086249            7 
 3357000    0.7032182   -4.1743632    1958.4765  0.048616733  0.048075607           14 
 3358000    0.7009135   -4.1540729    1960.1202  0.048643047   0.04806487            5 
 3359000   0.71811387   -4.1792638    1960.6475  0.048641647  0.048054234            6 
 3360000   0.71708325   -4.1438849     1969.593  0.048849034  0.048043713            3 
 3361000   0.71563162   -4.1808936    1961.7007  0.048638816  0.048033144            4 
 3362000   0.72257666   -4.1937339    1955.1664  0.048462383  0.048022447            5 
 3363000   0.71953131   -4.1876595    1963.2897  0.048649265  0.048011732           11 
 3364000   0.71410934   -4.1912897    1962.6583  0.048619161  0.048001105            7 
 3365000   0.73174223   -4.1606302    1964.1748  0.048642269  0.047990486            9 
 3366000   0.72384991   -4.1678309    1964.6147  0.048638709  0.047979846            4 
 3367000   0.70991428   -4.2023947    1961.6609  0.048551155  0.047969171            6 
 3368000   0.72493245   -4.1752165    1962.4989  0.048557474  0.047958553            3 
 3369000    0.7209175    -4.186926    1958.7156   0.04844948  0.047947804            8 
 3370000   0.71084249   -4.1655617    1958.6562  0.048433636  0.047937139            7 
 3371000   0.70269638   -4.1790056    1955.8134  0.048348992  0.047926439            5 
 3372000   0.71988507   -4.1727775     1966.462  0.048597815  0.047915788            4 
 3373000   0.70781082   -4.1781937    1966.6128  0.048587132  0.047905215            6 
 3374000   0.70700923   -4.1989446     1961.937  0.048457246  0.047894601            4 
 3375000    0.7162696    -4.165883    1965.0089  0.048518738  0.047884032            9 
 3376000   0.70289673   -4.2024032    1968.1933  0.048582971  0.047873482           17 
 3377000   0.71588719   -4.1657334    1965.7319  0.048507845  0.047862943            5 
 3378000   0.71572325   -4.1777783    1965.6165  0.048490638  0.047852443           10 
 3379000   0.70409381   -4.1940284    1962.7652  0.048405968  0.047841879            5 
 3380000   0.69827523   -4.1975885    1969.2413  0.048551315  0.047831272            4 
 3381000   0.71373335   -4.2079276     1962.877   0.04838009    0.0478206            8 
 3382000    0.7039467    -4.212969    1968.0331  0.048492832  0.047810085            4 
 3383000   0.69879867   -4.1753583    1969.3292  0.048510425    0.0477995            4 
 3384000   0.71471207   -4.2075522    1963.0057  0.048340368  0.047788899            8 
 3385000   0.70492053    -4.175096    1964.7809  0.048369791   0.04777823           11 
 3386000   0.71316597   -4.1962745    1965.3779  0.048370198   0.04776773            5 
 3387000   0.70911605   -4.1677012    1967.4624  0.048407203   0.04775728            5 
 3388000   0.69553796   -4.1925554    1971.0898  0.048482137  0.047746732            4 
 3389000   0.70973235   -4.1945105    1964.9406  0.048316628   0.04773623            4 
 3390000   0.70546764   -4.1870794    1966.6677   0.04834483  0.047725671            4 
 3391000     0.729933   -4.1608048    1970.3386  0.048420786  0.047715206            8 
 3392000   0.71058103   -4.1938149    1969.0584   0.04837506  0.047704658            4 
 3393000   0.69181415   -4.2203629    1968.1004  0.048337274  0.047694085           10 
 3394000   0.70046299   -4.1891891    1970.5218  0.048382483  0.047683483            8 
 3395000   0.72839228   -4.1754795    1969.5703  0.048344878  0.047672991            6 
 3396000   0.71932567   -4.1768576    1971.8468  0.048386504  0.047662537            4 
 3397000   0.71537715    -4.200214    1968.5506    0.0482914  0.047652124            5 
 3398000   0.71571656   -4.1587446    1966.6037  0.048229442  0.047641631            7 
 3399000   0.71060013   -4.1994336    1969.7166  0.048291571  0.047631126            5 
 3400000   0.70606392   -4.1908855    1969.1751  0.048264095  0.047620559            6 
 3401000   0.69793821   -4.2015001    1971.1924  0.048299334  0.047610098            4 
 3402000   0.69631592    -4.173317    1974.1958  0.048358706  0.047599586            5 
 3403000   0.70605496   -4.2155564    1970.7122  0.048259187   0.04758906            8 
 3404000   0.70131227   -4.1843112    1974.3453  0.048333953  0.047578548            7 
 3405000   0.71804489   -4.1651415     1975.999   0.04836023  0.047568017           10 
 3406000   0.71721185   -4.2096654    1970.6358  0.048214811  0.047557521           12 
 3407000   0.70906644   -4.2059989    1971.0334  0.048210385  0.047547022            6 
 3408000   0.71441612   -4.1696482    1972.9246  0.048242483  0.047536487            4 
 3409000   0.71775096    -4.201479    1971.0537  0.048182597  0.047525904           10 
 3410000   0.70358033   -4.2028559     1972.437  0.048202274  0.047515436            4 
 3411000   0.69965014   -4.1961638    1970.2356  0.048134359  0.047504868            5 
 3412000   0.70220504   -4.2027274    1969.2057  0.048095097  0.047494348           17 
 3413000   0.70492751   -4.2057361    1974.8172  0.048218018    0.0474838            5 
 3414000   0.69218448   -4.1895853    1975.4622   0.04821964  0.047473236            8 
 3415000    0.7001534   -4.2005589    1969.9884  0.048071947  0.047462671            6 
 3416000   0.71112324   -4.1793907    1969.2074  0.048038822  0.047452114            7 
 3417000   0.71038483   -4.1921746    1970.5725  0.048058054  0.047441515            8 
 3418000   0.69545561   -4.2120998    1973.7764  0.048122108  0.047430908            9 
 3419000   0.70828914   -4.2052409    1970.7464  0.048034181  0.047420346            8 
 3420000   0.70861618   -4.2099011    1971.6893  0.048043112  0.047409765            7 
 3421000   0.69656925   -4.2143502    1968.7551  0.047957593  0.047399186            4 
 3422000   0.71097745   -4.2073893    1969.8438  0.047970091  0.047388497            8 
 3423000   0.70339749    -4.197011     1970.387    0.0479693  0.047377924           14 
 3424000   0.72025583   -4.1956263    1967.8953  0.047894648  0.047367336            6 
 3425000   0.70228661   -4.1953211    1972.0408  0.047981528   0.04735674            9 
 3426000   0.70900121   -4.1892214    1974.0094  0.048015407  0.047346198           14 
 3427000   0.68307996   -4.2339086     1971.217  0.047933495  0.047335623            6 
 3428000    0.7274694   -4.2179387    1966.4995  0.047804831  0.047325071           10 
 3429000   0.72349494    -4.194083    1975.0403  0.047998452  0.047314625            5 
 3430000   0.71382975   -4.1957398    1974.8973  0.047980983  0.047304164           13 
 3431000   0.71051343   -4.2085948    1973.3707  0.047929921  0.047293584            6 
 3432000   0.71709978   -4.1887231    1977.5271  0.048016877  0.047283094            6 
 3433000   0.71512661   -4.1943317    1981.7501    0.0481054  0.047272709            9 
 3434000   0.70449272   -4.1923247     1973.107  0.047881649  0.047262278            7 
 3435000   0.70083839   -4.1827433    1970.3059  0.047799754  0.047251773            8 
 3436000   0.69997812   -4.1878033    1974.2093  0.047880514  0.047241219            7 
 3437000   0.69506245   -4.2196746    1979.3195  0.047990483  0.047230774            8 
 3438000   0.70945571    -4.201907    1972.4943   0.04781109  0.047220254            6 
 3439000   0.69759106    -4.195839    1981.0464   0.04800442  0.047209843            8 
 3440000   0.70129991   -4.2084447    1972.9243  0.047793709  0.047199465           21 
 3441000   0.71093966   -4.1969277    1980.0354  0.047952035  0.047189055            5 
 3442000   0.70147027    -4.212863    1979.2891  0.047920035  0.047178605            6 
 3443000   0.71128845   -4.2051032    1974.9152  0.047800252  0.047168161            5 
 3444000    0.6981794   -4.2305557    1974.6908  0.047780942  0.047157681            3 
 3445000    0.7070852   -4.2148572    1982.3354  0.047951993  0.047147233            3 
 3446000   0.70600695   -4.2012566    1983.2057  0.047959124  0.047136818            3 
 3447000   0.69045215   -4.2045183    1982.7774  0.047934856    0.0471264            5 
 3448000    0.7043425   -4.2151821    1980.8694   0.04787484  0.047115998            9 
 3449000   0.69899471   -4.1954794    1976.3524  0.047751821  0.047105541            7 
 3450000   0.69198789     -4.20922    1980.1633  0.047830031  0.047095027            7 
 3451000   0.70128706   -4.2041454    1975.4361  0.047702022  0.047084583            3 
 3452000   0.69292229   -4.1991281     1982.558  0.047860129  0.047074182            7 
 3453000   0.68607631   -4.2223843    1975.2328  0.047669486  0.047063686            7 
 3454000   0.70782882   -4.2009541    1975.9491  0.047672967  0.047053107           14 
 3455000   0.69934772   -4.2132416    1974.2884  0.047619113  0.047042704            6 
 3456000    0.7005518   -4.1858693    1985.2813  0.047870401    0.0470323            4 
 3457000   0.70587693   -4.2369972    1980.4209  0.047739392  0.047021805            9 
 3458000   0.70213934   -4.1969973    1981.6382   0.04775492   0.04701141            6 
 3459000   0.70859237   -4.2101367     1981.001  0.047725763  0.047000964            5 
 3460000   0.69233452   -4.2064635     1987.324  0.047864259  0.046990594            7 
 3461000   0.69956703   -4.2217954    1982.0612  0.047723711  0.046980281            4 
 3462000   0.70578626   -4.2213524    1983.9362   0.04775506  0.046970009            8 
 3463000   0.70570927   -4.1942257    1982.2893  0.047701638  0.046959668            8 
 3464000   0.69533179   -4.2097524    1981.9668  0.047680109  0.046949402            5 
 3465000   0.71464088   -4.1961981    1987.3788  0.047796508  0.046939099            5 
 3466000   0.69954185   -4.2261503    1982.6967  0.047670146  0.046928793           12 
 3467000    0.6975178   -4.2355874    1989.0124  0.047808202  0.046918435            4 
 3468000   0.69203445   -4.1927209    1987.9855  0.047769739  0.046908218            6 
 3469000   0.70996032   -4.2214605    1983.3942  0.047645675  0.046897901            3 
 3470000    0.6935637   -4.2105639    1985.1527  0.047674176  0.046887644           16 
 3471000   0.69086372   -4.1987571    1990.1455   0.04778031   0.04687736            7 
 3472000   0.68950272   -4.2268306    1984.4163   0.04762904  0.046867035            4 
 3473000   0.68564478   -4.2001156    1984.8654  0.047626101  0.046856764            6 
 3474000   0.69397267    -4.227323    1984.3626  0.047600331  0.046846441            8 
 3475000   0.69850464   -4.2116142    1988.6439  0.047689302   0.04683612            9 
 3476000   0.68657288   -4.2035451    1987.9423  0.047658763  0.046825812            7 
 3477000   0.69791926    -4.216744    1984.6376  0.047565852  0.046815532           10 
 3478000    0.6972297   -4.2480767    1977.7175  0.047386368  0.046805169            5 
 3479000   0.69990643   -4.2127867    1989.2774  0.047649644  0.046794832            5 
 3480000   0.67764984   -4.2091792    1981.8532  0.047458171  0.046784591            5 
 3481000     0.686737    -4.213946    1983.6772  0.047488203  0.046774337            7 
 3482000   0.69524811   -4.2316754    1991.6785  0.047666057  0.046764067            4 
 3483000    0.6915004   -4.2251129    1988.2607  0.047570599  0.046753828           14 
 3484000   0.70236314   -4.2098142    1989.9533  0.047597428  0.046743543            4 
 3485000   0.70256756    -4.218665    1987.1114  0.047515816  0.046733305            9 
 3486000    0.6841737   -4.2121307    1990.0708  0.047572929  0.046723117            5 
 3487000   0.70455153   -4.2306337    1982.9497  0.047389106  0.046712819           14 
 3488000   0.70436909   -4.2283189    1993.6421  0.047630976   0.04670255            8 
 3489000   0.69731072   -4.2128077    1990.0047  0.047530445  0.046692334           11 
 3490000   0.68429206   -4.1942097    1989.4365   0.04750326  0.046682101            4 
 3491000   0.68856402    -4.214933      1981.72  0.047305452  0.046671839            6 
 3492000   0.69368418   -4.2320632    1987.0362  0.047418771  0.046661526           10 
 3493000   0.70339322   -4.1949295    1986.3874  0.047389718  0.046651202            7 
 3494000   0.69330598   -4.2144718    1989.1036  0.047440938  0.046640978            9 
 3495000    0.6913936   -4.2002224      1987.04   0.04737816  0.046630819            4 
 3496000   0.69409159   -4.2259649    1989.9612   0.04743424  0.046620616            7 
 3497000   0.69779887   -4.2096866    1988.3803  0.047383003  0.046610408           15 
 3498000   0.70256298   -4.2216724    1988.6424  0.047375701  0.046600181            8 
 3499000   0.70702186     -4.18811    1994.1425  0.047493152  0.046590005            3 
 3500000   0.68885373   -4.2119666    1986.6211  0.047300502  0.046579798            5 
 3501000   0.69355444   -4.2123015     1994.123  0.047465558  0.046569626            5 
 3502000   0.67889699   -4.2401711    1989.7524  0.047348002   0.04655937           11 
 3503000   0.68569205   -4.2278941    1990.0128  0.047340679  0.046549065            5 
 3504000   0.68776193   -4.1981008    1996.1514   0.04747316   0.04653889            4 
 3505000   0.68083664   -4.2359975    1993.0319  0.047385447  0.046528709           13 
 3506000   0.70318723   -4.2300068    1992.1821  0.047351733  0.046518513            3 
 3507000   0.67472739   -4.2276675    1995.0845  0.047407197  0.046508358            8 
 3508000   0.69682325   -4.2355603    1988.8931  0.047246607  0.046498111            6 
 3509000    0.6939208   -4.2288804    1993.4508   0.04734138  0.046487828           15 
 3510000   0.69463617   -4.2151699    1997.1329  0.047415311  0.046477627            5 
 3511000   0.68868393   -4.2282927    1994.0521  0.047328683  0.046467441            4 
 3512000    0.6843333   -4.2397319    1988.6458  0.047186926  0.046457223            6 
 3513000   0.69367131   -4.2153813    1998.6743  0.047411384  0.046446997           11 
 3514000   0.69534047   -4.2309516    1998.5803  0.047395663  0.046436761            8 
 3515000   0.67196572   -4.2298869    1987.5328  0.047120264  0.046426502            7 
 3516000   0.69033836   -4.2353756    1993.3412  0.047244529  0.046416289           14 
 3517000   0.69087832   -4.2193089    1990.7174  0.047168928  0.046406066            7 
 3518000   0.67969585   -4.2370791    1993.9605   0.04723234  0.046395725            7 
 3519000   0.68937809   -4.2263166    1996.7541  0.047285074  0.046385516            6 
 3520000   0.68461147   -4.2295375    1994.0882  0.047208527  0.046375269            7 
 3521000   0.67092903   -4.2150508    1991.8597  0.047142377  0.046365081            8 
 3522000   0.70568679     -4.23867    1991.5779  0.047122324  0.046354806            9 
 3523000   0.68354549   -4.2256325    1989.2428  0.047053713  0.046344485           10 
 3524000    0.6956792   -4.2274833    1990.4319  0.047068479  0.046334111            3 
 3525000   0.68222272   -4.2326094      1994.21  0.047144445  0.046323742            4 
 3526000   0.67774373   -4.2446746    1991.5706  0.047068694  0.046313341            5 
 3527000   0.68327257   -4.2236271    1991.0566  0.047043204   0.04630298            5 
 3528000   0.68962066   -4.2324058    1990.4074  0.047014535  0.046292669           10 
 3529000   0.67919433   -4.2230531    1993.0125   0.04706273  0.046282393           11 
 3530000   0.68794396   -4.2202921    1986.4947  0.046895532   0.04627204            3 
 3531000   0.69454827   -4.2275842    1993.9711  0.047058698  0.046261744            3 
 3532000   0.70282416   -4.2147536     1994.322  0.047053653  0.046251403           13 
 3533000   0.67343808    -4.221238    1992.8542  0.047005713  0.046241193            6 
 3534000   0.67476277   -4.2354624    1990.0142  0.046925444  0.046230923           12 
 3535000   0.67779451    -4.233496    1994.2436  0.047011871  0.046220613            6 
 3536000   0.68964814   -4.2245813    1996.1669  0.047043904  0.046210297           12 
 3537000   0.68104884    -4.239685    1993.5013  0.046967799  0.046200024            6 
 3538000   0.69374307   -4.2360768    1994.2158  0.046971354  0.046189725            9 
 3539000   0.68455078   -4.2254506    1994.3509  0.046961263  0.046179407            9 
 3540000   0.69886634   -4.2248233     1989.611  0.046836417  0.046169043            5 
 3541000   0.68972505   -4.2189059    1993.5742  0.046916459  0.046158641            8 
 3542000   0.69022758   -4.2258323    1989.7892  0.046814164  0.046148259            3 
 3543000   0.69097153   -4.2409754    1993.7964  0.046895201  0.046137894           12 
 3544000   0.68397114   -4.2260208    1991.6946  0.046832547  0.046127532            6 
 3545000     0.690038    -4.237116    1993.2314  0.046855464  0.046117232            5 
 3546000   0.67472305   -4.2461757    1990.3054  0.046773486  0.046106891           12 
 3547000   0.70454501   -4.2360825    1997.2464  0.046923372  0.046096512           10 
 3548000   0.69816719   -4.2252677    1995.5996  0.046871468  0.046086163            2 
 3549000   0.67873303   -4.2497995    1988.8877  0.046700661  0.046075802            9 
 3550000   0.67245054   -4.2528828    1995.2433  0.046836697  0.046065464           12 
 3551000   0.68470148   -4.2372942    1991.3921  0.046733129  0.046055086            7 
 3552000   0.67799674   -4.2502873    1994.0451  0.046782213  0.046044768            8 
 3553000   0.67043664   -4.2336402    1994.4875  0.046779423  0.046034505            7 
 3554000   0.67620223   -4.2390782    1993.7044    0.0467479  0.046024192            6 
 3555000   0.68474253   -4.2234169    1992.6291  0.046709542  0.046013912            6 
 3556000    0.6915833   -4.2636276    1991.8195  0.046677435   0.04600353            5 
 3557000   0.70003656   -4.2618108    1993.2657  0.046698194  0.045993117            7 
 3558000    0.6837347   -4.2469323    1998.8959  0.046816936  0.045982793            4 
 3559000   0.67447159   -4.2192525    1994.9852  0.046712214   0.04597245            8 
 3560000   0.69405098   -4.2570963    1996.9069  0.046744075  0.045962098           16 
 3561000   0.68935834    -4.243613    2001.0796  0.046828597  0.045951766            6 
 3562000   0.68290814   -4.2403555    1993.1749  0.046630519  0.045941504            9 
 3563000   0.68881876   -4.2363208     1999.266  0.046759894  0.045931277            5 
 3564000   0.68318714    -4.259194    1993.5364  0.046612805  0.045920995            5 
 3565000   0.68001089   -4.2526966    2001.3064  0.046781355  0.045910709            4 
 3566000   0.68627904   -4.2323093    2003.1803  0.046812029  0.045900438            4 
 3567000   0.69296529   -4.2390135    1994.9012  0.046605486  0.045890228           10 
 3568000   0.69419001   -4.2300175    1998.8885  0.046685549  0.045879938            4 
 3569000   0.67934186   -4.2500621    1993.7239   0.04655188  0.045869618           18 
 3570000   0.67489359   -4.2349678    1998.9798  0.046661527  0.045859231            5 
 3571000   0.67516965   -4.2580884    1991.1266  0.046465197   0.04584886           11 
 3572000   0.67260769   -4.2572657    1994.2074  0.046524062  0.045838549            5 
 3573000   0.70125585   -4.2350433    1996.8193  0.046571959  0.045828159            8 
 3574000   0.67028175    -4.237448    1996.0043  0.046539925  0.045817787           12 
 3575000   0.68940399   -4.2475536    1992.7962  0.046452125  0.045807481            9 
 3576000   0.68395092   -4.2389239    1995.8462  0.046510212  0.045797105           11 
 3577000   0.67187599   -4.2363901    1998.6126  0.046561659  0.045786802           10 
 3578000   0.69795407   -4.2425228    1999.8274  0.046576938  0.045776564            8 
 3579000   0.67462665   -4.2252734    1996.2719  0.046481138  0.045766254            9 
 3580000   0.65878649    -4.242512    1999.0162  0.046532035  0.045755934            8 
 3581000   0.67632668   -4.2558301    1994.3218  0.046409798  0.045745575            8 
 3582000   0.68147538   -4.2330287    1997.7881  0.046477483  0.045735306            6 
 3583000     0.666187   -4.2582346    2000.0683  0.046517543  0.045724946            7 
 3584000   0.67543842   -4.2286584    1995.6292  0.046401349  0.045714613            5 
 3585000   0.67679397   -4.2678883    1996.1375  0.046400222  0.045704244            5 
 3586000   0.68901506   -4.2582526    2001.7962  0.046518781  0.045693886            4 
 3587000   0.67561053   -4.2410171    1997.5357  0.046406832  0.045683571            8 
 3588000   0.68022911   -4.2449962    1994.4723  0.046322749  0.045673295            6 
 3589000   0.66506545    -4.262404    1992.9357  0.046274165  0.045662978            4 
 3590000   0.69421191   -4.2403548    2002.6903  0.046487704  0.045652666           11 
 3591000   0.68740283   -4.2539882     1999.659  0.046404415  0.045642375            4 
 3592000   0.69413835   -4.2409027    2001.4289  0.046432556  0.045632106            6 
 3593000   0.68404842   -4.2605839    2002.4565  0.046443468  0.045621816            3 
 3594000   0.67754639   -4.2640571    1996.6341   0.04629554  0.045611451           12 
 3595000   0.67174714   -4.2461969    1994.8095  0.046240368  0.045601032            5 
 3596000   0.67570259   -4.2746984    1996.3878  0.046264085  0.045590736            8 
 3597000   0.68460796   -4.2536278    1999.5701  0.046324949  0.045580401           12 
 3598000   0.67292932     -4.25511    1997.6097  0.046266669  0.045570048            4 
 3599000   0.67227784   -4.2533618    2002.3171  0.046362812  0.045559714            6 
 3600000    0.6826789   -4.2584805    1997.3738  0.046235505   0.04554932           25 
 3601000   0.66394629   -4.2546003     1993.258  0.046127419  0.045538976            9 
 3602000   0.67626424   -4.2480425    1998.5435  0.046236894  0.045528739            6 
 3603000   0.67659009   -4.2440386    2004.5365  0.046362673  0.045518558            5 
 3604000   0.67218858   -4.2449597    2001.3045  0.046275075  0.045508259           10 
 3605000   0.68621725   -4.2485291    2004.8668  0.046344587  0.045497938            3 
 3606000   0.67793052   -4.2400156    2004.1638  0.046315488   0.04548773           11 
 3607000   0.67090801   -4.2504521    2001.3337  0.046237263  0.045477478            6 
 3608000   0.66955415   -4.2589443    1999.5789  0.046183919  0.045467139            7 
 3609000   0.66419129   -4.2511599    1997.7861  0.046129724  0.045456874            8 
 3610000   0.67792669   -4.2318583    2004.8125  0.046279145  0.045446616           10 
 3611000   0.67347988   -4.2578322    2000.6326  0.046169865  0.045436446            7 
 3612000   0.68742775   -4.2342978    2003.9756  0.046234211  0.045426174            5 
 3613000   0.66098515   -4.2544022     1998.141  0.046086839  0.045415864            6 
 3614000   0.68668873   -4.2600311     2001.599  0.046153823  0.045405579           10 
 3615000   0.66966002   -4.2628824    2004.8351  0.046215655  0.045395282            5 
 3616000   0.65574832   -4.2333188    1999.7986  0.046086804  0.045384937            9 
 3617000   0.67105295   -4.2764394    2009.1867  0.046290358  0.045374704            5 
 3618000   0.67918079   -4.2561289    2001.5933  0.046102665  0.045364369           10 
 3619000   0.68608191   -4.2297937    1997.7576  0.046001603  0.045354034           11 
 3620000   0.68031055   -4.2556215    2002.1692  0.046090452  0.045343758            4 
 3621000   0.67209023   -4.2812995    1995.8103   0.04593138  0.045333486            9 
 3622000   0.67567912   -4.2785577     2003.707  0.046100382  0.045323185           12 
 3623000   0.68665573    -4.245353    2003.8644  0.046091279  0.045312877           10 
 3624000   0.66297108   -4.2599147    2001.9839  0.046035317  0.045302575            9 
 3625000   0.66693267   -4.2587386    2006.9639  0.046137102  0.045292302            8 
 3626000   0.67314476   -4.2712987    2002.3319  0.046017924  0.045282048           14 
 3627000   0.67214933    -4.252683    2007.3872  0.046121386  0.045271751           12 
 3628000    0.6846708   -4.2466814    2005.6333  0.046068386   0.04526153            7 
 3629000   0.66412892   -4.2544911    2005.5281  0.046053277  0.045251404            8 
 3630000   0.65660064   -4.2597515    2000.4697  0.045924465  0.045241209            4 
 3631000   0.67191956   -4.2659857    2005.0014  0.046015823  0.045231051            6 
 3632000   0.68755996   -4.2477793    2005.2011  0.046007734   0.04522091            9 
 3633000   0.67998698   -4.2841421    2007.0897  0.046038391  0.045210774            6 
 3634000   0.66922434   -4.2362958    2003.0325  0.045932685  0.045200601            6 
 3635000   0.66786411   -4.2732845    2001.1126  0.045876035  0.045190401            5 
 3636000   0.65469627   -4.2704694    2009.3179  0.046051474  0.045180173            5 
 3637000   0.67780296   -4.2642862    2008.6116  0.046022629  0.045169971           10 
 3638000   0.66646683   -4.2575738    2004.2773  0.045910696  0.045159827            7 
 3639000   0.67898839   -4.2627802    2007.2616   0.04596642  0.045149727            9 
 3640000   0.66611502   -4.2584066    2011.5163  0.046051198  0.045139595            5 
 3641000   0.67622343   -4.2757631    2003.8137  0.045862256  0.045129408            5 
 3642000   0.68655709    -4.269747    2011.6022  0.046027874  0.045119223           10 
 3643000   0.67081208   -4.2771427    2008.5789  0.045946082  0.045109092            6 
 3644000   0.67127473   -4.2642856    2005.0561  0.045852912  0.045098952           17 
 3645000   0.66164138   -4.2632652    2006.2025   0.04586654  0.045088815           10 
 3646000   0.68666863   -4.2671562    2010.4718  0.045951541  0.045078656            8 
 3647000   0.67655186   -4.2774316    2010.6477   0.04594296  0.045068462           11 
 3648000   0.66838327   -4.2919187    2010.2795  0.045921954  0.045058342            8 
 3649000   0.68402459   -4.2701947    2006.2187  0.045816632  0.045048208            7 
 3650000    0.6605124   -4.2621941    2005.6519  0.045791139  0.045038113            4 
 3651000   0.67383965   -4.2311975    2010.7395  0.045894721  0.045028042            4 
 3652000   0.67471966   -4.2898504     2005.712  0.045767433  0.045017977            8 
 3653000   0.66417342   -4.2626389    2012.1217  0.045901125  0.045007937            5 
 3654000   0.64610356   -4.2688453    2005.9654  0.045748161  0.044997766            9 
 3655000   0.65699954   -4.2498496    2010.1261  0.045830509  0.044987628            5 
 3656000    0.6653491   -4.2624602    2012.3164  0.045867897  0.044977514           11 
 3657000   0.66602833   -4.2762887    2010.8611  0.045822194  0.044967364            6 
 3658000   0.67645499   -4.2667942    2019.0456  0.045996119   0.04495724            8 
 3659000   0.67315472   -4.2837143    2009.2006  0.045759328   0.04494715           31 
 3660000   0.67705903   -4.2952472    2009.8413  0.045761413  0.044937032            4 
 3661000   0.67628339   -4.2504617    2017.2428  0.045917391  0.044926882           14 
 3662000   0.67778275    -4.272992    2012.1287  0.045788475  0.044916767            8 
 3663000    0.6761352    -4.267671    2009.9327  0.045726015  0.044906659           10 
 3664000   0.65894465   -4.2552126    2015.1606  0.045832437  0.044896586           19 
 3665000   0.66966445   -4.2640718    2011.3193   0.04573259  0.044886557            5 
 3666000   0.69257708   -4.2423806    2016.1026  0.045828847  0.044876447            7 
 3667000   0.66947754    -4.282509    2010.0757  0.045679385  0.044866344            4 
 3668000   0.68332273   -4.2716737    2011.0272  0.045688549  0.044856214           10 
 3669000   0.66311985    -4.278965     2014.671  0.045758858  0.044846107            4 
 3670000   0.66842427   -4.2763725    2009.9794   0.04563986  0.044836031            6 
 3671000   0.66965667   -4.2621476    2010.9094  0.045648538  0.044825973           15 
 3672000   0.66523258   -4.2752315    2007.2447   0.04555294  0.044815863           10 
 3673000   0.64515001    -4.264953    2014.5693  0.045706718  0.044805791            7 
 3674000   0.66472393   -4.2982993    2009.7288  0.045584485  0.044795656            2 
 3675000   0.65254307   -4.2727985    2011.7764  0.045618512  0.044785493            5 
 3676000   0.66018473   -4.2659626    2010.4889  0.045576916  0.044775441           17 
 3677000   0.66249326   -4.2771231    2016.6088  0.045703217  0.044765361            9 
 3678000   0.65645884   -4.2838834    2017.2002  0.045704191  0.044755149           10 
 3679000    0.6586321   -4.2833585    2014.1756  0.045623257  0.044745113           11 
 3680000   0.68068755   -4.2932065    2014.9706  0.045628863  0.044734978           11 
 3681000   0.67433524   -4.2878574    2010.9029  0.045524379  0.044724826            7 
 3682000   0.67332214   -4.2880775    2013.5162  0.045571161  0.044714767            6 
 3683000   0.67730586   -4.2688609    2015.3369  0.045599985  0.044704663            6 
 3684000   0.66707869   -4.2649944    2019.0163  0.045670836  0.044694646            7 
 3685000   0.66696338   -4.2813975    2006.2711   0.04537022  0.044684552            7 
 3686000    0.6626604   -4.3075481    2013.0717  0.045511659  0.044674432           16 
 3687000   0.65204962   -4.2659645    2016.3805  0.045574101  0.044664298            8 
 3688000   0.64324387   -4.2827269    2015.0821  0.045532404  0.044654209            9 
 3689000   0.66354323   -4.2699239    2015.5212  0.045529982  0.044644151            7 
 3690000   0.66198376   -4.2761432    2014.4096  0.045492538  0.044634075           11 
 3691000   0.66271712   -4.2607313    2020.9673  0.045628269  0.044624032           15 
 3692000   0.64349695   -4.2661342    2011.5578  0.045403526  0.044614005            7 
 3693000   0.67006496   -4.2656573    2019.8472  0.045578282  0.044603997           27 
 3694000   0.66823613   -4.3011707    2019.8998  0.045567131  0.044593956            4 
 3695000   0.65052266   -4.2994999    2014.6257  0.045435853  0.044583939            5 
 3696000   0.66663981   -4.2593752    2015.4237  0.045441553  0.044573878            8 
 3697000    0.6705256   -4.2635774    2019.6095  0.045523611  0.044563883            6 
 3698000    0.6650419   -4.3034231    2017.3071  0.045459417  0.044553859            4 
 3699000   0.67578905   -4.2981202    2017.1179  0.045442864  0.044543836            6 
 3700000   0.67551128   -4.2882784     2013.818  0.045356262  0.044533783            5 
 3701000     0.643302   -4.3135922    2014.5768  0.045361093   0.04452374            6 
 3702000   0.66929007   -4.2650856    2017.9891   0.04542565  0.044513669           13 
 3703000   0.64712713   -4.2563719    2014.9673  0.045345379  0.044503691           14 
 3704000   0.65367754   -4.2973482    2019.6827  0.045439225   0.04449374            8 
 3705000     0.649278   -4.2679476    2023.5176  0.045513216  0.044483751           14 
 3706000   0.64764011   -4.2938287    2020.4078  0.045431009  0.044473737           13 
 3707000   0.65357792   -4.2821573    2019.8642  0.045406533  0.044463749           20 
 3708000   0.67383482   -4.2900863    2024.2764  0.045493447  0.044453799            7 
 3709000   0.65278328   -4.2716233    2017.6567   0.04533245  0.044443788           12 
 3710000   0.65596842   -4.2800076    2013.6051  0.045229226  0.044433813           12 
 3711000   0.64999088   -4.2866137    2019.5389  0.045350286  0.044423813            7 
 3712000   0.65503309   -4.2625573    2015.4268  0.045245751  0.044413888           10 
 3713000   0.64507524   -4.2866304     2024.343  0.045433679  0.044403897            6 
 3714000   0.66471161   -4.2832882    2017.5585  0.045269217  0.044393886            8 
 3715000   0.65310427   -4.2880043    2017.6112  0.045258215   0.04438391           10 
 3716000   0.66479674   -4.2764107    2021.7778  0.045339475  0.044373839            6 
 3717000   0.64943001   -4.2696332    2014.4256  0.045162443   0.04436382            6 
 3718000   0.65249037   -4.2953747    2018.5888  0.045243608  0.044353788           16 
 3719000   0.65294005   -4.2925247    2018.1087  0.045220684  0.044343735            7 
 3720000   0.66173027   -4.3102147     2024.396  0.045349373  0.044333732            7 
 3721000   0.63464273    -4.305944    2018.6286  0.045208021  0.044323751            5 
 3722000   0.65369645   -4.2690953    2021.5611  0.045261532  0.044313761            6 
 3723000   0.65638158   -4.2792919     2016.826  0.045143387   0.04430381            5 
 3724000   0.65564775   -4.2823934    2018.0442  0.045158525  0.044293819           17 
 3725000   0.66465532   -4.3041455    2023.2143  0.045262064  0.044283842            5 
 3726000   0.65248123   -4.2625138    2026.2122  0.045316967   0.04427388            6 
 3727000   0.66163825   -4.2881249    2022.9317  0.045231457  0.044263886            4 
 3728000   0.65688538   -4.2817914    2024.2192  0.045248105  0.044253959            7 
 3729000   0.67161271    -4.291009    2020.2623  0.045147544  0.044244033            5 
 3730000   0.65920605   -4.2906926    2025.2883  0.045247728  0.044234037            8 
 3731000   0.65012451   -4.3124174    2015.0066  0.045005955  0.044224091            7 
 3732000   0.66153532   -4.3013192     2022.214  0.045154831  0.044214073            6 
 3733000   0.64795722   -4.2689951    2024.2608  0.045188427  0.044204032            8 
 3734000   0.66005295   -4.2861868    2020.8797  0.045100868  0.044193975           13 
 3735000   0.65167085   -4.2956012    2025.3604  0.045188764  0.044183892            5 
 3736000   0.65722154   -4.3102652    2021.7921  0.045097075  0.044173787            8 
 3737000   0.65319627   -4.2862496    2022.9341  0.045110474  0.044163729           13 
 3738000    0.6525754   -4.2896944    2025.6152  0.045158177  0.044153736            7 
 3739000   0.65945397   -4.2890438     2020.421  0.045030334  0.044143786            3 
 3740000   0.63890983   -4.2977774    2017.9717  0.044963719  0.044133772           17 
 3741000   0.65619284   -4.2782575    2024.4967  0.045097049  0.044123828            7 
 3742000   0.64650657    -4.321528     2021.953   0.04502835   0.04411385            7 
 3743000   0.64665684    -4.263782    2024.9502  0.045083048   0.04410387            5 
 3744000   0.67282006   -4.2924469    2023.7728    0.0450448  0.044093906            5 
 3745000   0.66060329   -4.2720524    2027.3943  0.045113358  0.044083979            6 
 3746000   0.64265962   -4.3167022    2020.0724  0.044938432   0.04407406            8 
 3747000    0.6557444   -4.2891472    2024.2607  0.045019588  0.044064111           11 
 3748000   0.64890462   -4.3059253    2014.9137  0.044799754  0.044054147           11 
 3749000   0.65985121   -4.2891082    2025.1523  0.045015389  0.044044141           10 
 3750000   0.64668716   -4.2873991    2022.2843  0.044939651  0.044034176            5 
 3751000   0.65308594   -4.3074373     2025.289  0.044994424   0.04402418            4 
 3752000   0.64940416   -4.2846428    2023.9679   0.04495309  0.044014274            8 
 3753000   0.64246984    -4.301491    2024.4911  0.044952729  0.044004325            9 
 3754000   0.65503439   -4.3268739    2018.9801  0.044818419  0.043994376           12 
 3755000   0.63813051   -4.2889416    2028.4901  0.045017534  0.043984381           11 
 3756000   0.66081932    -4.293796    2025.9024  0.044948135  0.043974437           11 
 3757000   0.63808694    -4.326111    2020.9981   0.04482739  0.043964499            7 
 3758000   0.65307366   -4.3030827    2024.4436  0.044891866  0.043954485            7 
 3759000   0.64253802   -4.2911244    2025.1239  0.044895005  0.043944569            8 
 3760000   0.64990856   -4.2982093    2028.4698   0.04495722  0.043934695            7 
 3761000   0.65823896    -4.277669    2029.8259  0.044975315  0.043924778           10 
 3762000   0.64397303   -4.3031516    2029.6254  0.044958918  0.043914866            6 
 3763000   0.65323221   -4.3068799    2025.0978  0.044846704  0.043904946            9 
 3764000   0.65065377   -4.3056573    2030.3256  0.044950531  0.043895083           11 
 3765000   0.64095882    -4.301693    2028.8461  0.044905845  0.043885147            7 
 3766000   0.65549441    -4.287864    2025.3786  0.044817193   0.04387529            4 
 3767000   0.64509523   -4.3065463    2026.2652   0.04482491  0.043865399           12 
 3768000   0.64987439   -4.3037469    2020.9431  0.044695309  0.043855449           12 
 3769000   0.63806741   -4.2905711    2024.9489  0.044772019  0.043845481            7 
 3770000   0.65054769   -4.2992143    2026.3426  0.044790951  0.043835561            6 
 3771000   0.63505401   -4.3246631    2026.1698  0.044775254  0.043825646           16 
 3772000   0.63525603   -4.3128407     2027.863   0.04480079   0.04381567           13 
 3773000   0.64138412   -4.3000112    2024.9917  0.044725499  0.043805771           10 
 3774000   0.65317637    -4.322279    2020.4611  0.044613609  0.043795892            5 
 3775000   0.65629529   -4.3037707    2026.8515  0.044742858  0.043785956           10 
 3776000   0.65883823   -4.2985843    2025.1684  0.044693864  0.043775985            6 
 3777000   0.64716986   -4.2953344    2021.8696  0.044609249  0.043766037            8 
 3778000   0.65563572   -4.3281203    2024.5377  0.044656293  0.043756068           11 
 3779000   0.64855779   -4.2987304    2022.2332  0.044593659  0.043746132           10 
 3780000   0.65516718   -4.2932686     2028.023  0.044709503  0.043736202           19 
 3781000   0.64512984   -4.3020629    2019.3702   0.04450697  0.043726328            5 
 3782000   0.64175975   -4.3086769    2027.3487  0.044671002  0.043716415            9 
 3783000   0.66094786   -4.3165475    2031.3489  0.044747311    0.0437065            8 
 3784000   0.64158762   -4.3107877    2028.1281  0.044664555  0.043696601            7 
 3785000   0.63823695   -4.3094762    2027.2976  0.044634469  0.043686777            5 
 3786000   0.64450017   -4.3007029    2033.9748  0.044769651  0.043676853            6 
 3787000   0.64378452   -4.3262716     2028.644  0.044640525  0.043667019            6 
 3788000   0.65663022     -4.34389    2025.4691  0.044558894  0.043657101           23 
 3789000   0.64745491   -4.3196807    2026.4456   0.04456861  0.043647191            5 
 3790000   0.63779503   -4.3033038    2029.0777  0.044614726  0.043637267           10 
 3791000   0.64019035   -4.3147731    2031.9908  0.044666991  0.043627371            4 
 3792000   0.64434963   -4.3096951    2025.9686  0.044522868  0.043617457           10 
 3793000   0.64579739   -4.3138705    2027.3089  0.044540577  0.043607559            4 
 3794000   0.64004177   -4.3048759    2024.0863  0.044458055  0.043597654            9 
 3795000   0.64435286   -4.3078579    2029.0246  0.044554778  0.043587705            5 
 3796000   0.64651941   -4.2909704    2031.8124   0.04460424  0.043577849            7 
 3797000    0.6291967   -4.3129654    2028.7269  0.044524777  0.043567999            9 
 3798000   0.65079331   -4.3358685     2022.475  0.044375877  0.043558107            3 
 3799000   0.66609723     -4.29881    2030.3203  0.044536288  0.043548247            8 
 3800000   0.64620348   -4.3015727    2031.1653  0.044543098  0.043538375            7 
 3801000   0.64640378   -4.2956804    2030.5108   0.04451703  0.043528548            4 
 3802000   0.65865673   -4.3289102    2031.0054  0.044516163  0.043518737           12 
 3803000    0.6461344   -4.3215863    2036.4893  0.044624622  0.043508885            9 
 3804000   0.63377139   -4.3185842    2032.0514  0.044515672  0.043499056           10 
 3805000   0.65417933   -4.3043415    2039.8112   0.04467392  0.043489266            7 
 3806000   0.64002428   -4.3088628    2030.7812  0.044464468  0.043479423            9 
 3807000   0.64561885   -4.3159104    2028.1563  0.044395331  0.043469556            8 
 3808000   0.64830098   -4.3062116    2034.0402  0.044512435  0.043459721            6 
 3809000   0.63152726    -4.322547    2034.6239  0.044513519  0.043449892            8 
 3810000   0.64710825   -4.3288054    2028.3059  0.044363647  0.043440075            8 
 3811000   0.63957769   -4.2914591    2029.9933  0.044388903  0.043430212            5 
 3812000   0.63555362   -4.3245237     2029.987  0.044377121  0.043420393           14 
 3813000   0.61682036   -4.3204874    2035.9655  0.044496142  0.043410603            9 
 3814000   0.63279739   -4.3059415    2037.2929  0.044513479   0.04340078            4 
 3815000   0.65498434   -4.3252026    2031.5369  0.044376078   0.04339096            9 
 3816000   0.64634891   -4.3281851    2031.6312  0.044366509  0.043381167           21 
 3817000    0.6495169   -4.3207727     2027.478  0.044264212  0.043371339           12 
 3818000   0.64635192   -4.2889269    2028.6034  0.044277182   0.04336147            4 
 3819000   0.63520144   -4.3083748    2033.5523  0.044373578    0.0433517            5 
 3820000   0.63768518   -4.3168735    2035.4468  0.044403289  0.043341914            8 
 3821000   0.64471813   -4.3119971    2035.8492  0.044400445  0.043332165            8 
 3822000   0.64449951   -4.3185106    2037.1294  0.044416741  0.043322367           10 
 3823000   0.65241904   -4.3272237    2035.3062   0.04436538  0.043312566            9 
 3824000   0.64803278     -4.31556    2036.5225  0.044380284  0.043302811            4 
 3825000   0.64502484   -4.2940838     2034.065  0.044315142   0.04329304            8 
 3826000   0.65854845   -4.3427125    2034.8962  0.044321664  0.043283242            6 
 3827000   0.64375051   -4.3281504    2032.3874  0.044255453  0.043273483            7 
 3828000   0.62688427   -4.3241637    2033.8896  0.044276593  0.043263672           16 
 3829000   0.64798255   -4.3012394    2041.0352  0.044420545  0.043253977           12 
 3830000   0.61618169   -4.3338302    2036.1979  0.044303696  0.043244258            8 
 3831000   0.63962824   -4.3262419    2037.0435  0.044310525  0.043234527           12 
 3832000   0.63349855   -4.3274031    2037.2562  0.044303588  0.043224796            6 
 3833000   0.64808799   -4.3210169    2039.9349  0.044350266   0.04321507            7 
 3834000   0.64948786   -4.3056184     2036.216  0.044257869  0.043205345            9 
 3835000   0.63368787   -4.3375391    2038.1364  0.044288057  0.043195617            4 
 3836000   0.64537426   -4.3377383    2033.3252  0.044171994  0.043185869            9 
 3837000   0.63915951    -4.322844    2030.6097  0.044101504  0.043176073           13 
 3838000   0.63984454   -4.3076006     2033.923  0.044161955  0.043166352           15 
 3839000   0.63936554   -4.3415363    2033.6904  0.044145403    0.0431566            7 
 3840000   0.63835632   -4.3058353    2035.4819  0.044172783  0.043146795           11 
 3841000   0.63316063   -4.3119185    2031.8996  0.044083562  0.043137018            7 
 3842000   0.64909095   -4.3306073    2038.3318  0.044211603  0.043127287           11 
 3843000   0.63721942   -4.3147535    2037.3284  0.044178342  0.043117533           14 
 3844000   0.63410757   -4.3359088    2032.0636  0.044052714   0.04310771           11 
 3845000   0.63035141   -4.3398898    2038.7364  0.044185878  0.043097939            4 
 3846000   0.63977462   -4.3356768    2039.2086  0.044184621  0.043088165            8 
 3847000    0.6383862   -4.3295702    2035.7326  0.044097838  0.043078417            8 
 3848000   0.63817416    -4.332246    2037.7618  0.044130322  0.043068662           11 
 3849000   0.62891466   -4.3244027    2035.1494  0.044062298  0.043058906            6 
 3850000   0.63459566   -4.3487828    2037.3873  0.044099291  0.043049172            7 
 3851000   0.62350655    -4.320838    2043.1015  0.044211494  0.043039406           10 
 3852000   0.64008903   -4.3331161    2032.9989  0.043981458  0.043029653            7 
 3853000   0.64613531   -4.3247485    2037.1356  0.044059512  0.043019852            7 
 3854000   0.63387398   -4.3394126    2033.1563  0.043962038  0.043010057            4 
 3855000   0.63101633   -4.3316818    2041.4172  0.044129209  0.043000338            6 
 3856000   0.64227649   -4.3301776    2035.8607  0.043997681  0.042990561            5 
 3857000   0.63916664   -4.3060987    2042.4268  0.044128139  0.042980775            7 
 3858000   0.64832731   -4.3324498    2033.8153  0.043930692  0.042970916            6 
 3859000   0.64237961    -4.341706    2032.6726  0.043894631  0.042961095           17 
 3860000   0.62883072   -4.3395477    2037.8746  0.043995566  0.042951355            8 
 3861000   0.62780851    -4.319481    2038.4352   0.04399627  0.042941539            7 
 3862000   0.64139086   -4.3503234    2038.9535  0.043996063  0.042931758            9 
 3863000   0.63904304   -4.3505817    2037.1295  0.043945325  0.042922011            6 
 3864000   0.62545346   -4.3196434     2036.829  0.043927472  0.042912162            9 
 3865000    0.6160127   -4.3360464    2036.7708   0.04391485  0.042902332            9 
 3866000   0.64621129   -4.3404495    2030.7601  0.043773928  0.042892487            7 
 3867000   0.64623832   -4.3348271    2031.1838  0.043771739  0.042882602           20 
 3868000   0.62763403   -4.3251036    2031.8364  0.043774483  0.042872726           16 
 3869000   0.63049517   -4.3260827    2034.9672  0.043830603  0.042862847            9 
 3870000   0.62629702   -4.3304309    2033.4944  0.043787562   0.04285303            9 
 3871000   0.61701459   -4.3409652    2044.1594  0.044005843  0.042843252            7 
 3872000   0.63936788   -4.3344317    2036.4499  0.043828554  0.042833473            7 
 3873000   0.65410448   -4.3243195    2034.8568  0.043782958  0.042823684            6 
 3874000   0.61588297   -4.3292853    2037.6303  0.043831319  0.042813863            9 
 3875000   0.63636832   -4.3404617    2030.4454  0.043665492  0.042804008           24 
 3876000   0.63194679   -4.3142541    2040.7035  0.043874775   0.04279423           11 
 3877000   0.63342058    -4.340064    2034.5209  0.043730567  0.042784417           14 
 3878000   0.62375878   -4.3349948    2043.0381  0.043902315  0.042774588            8 
 3879000   0.63961562   -4.3567228      2036.91  0.043759344  0.042764685            8 
 3880000   0.63525829   -4.3632784    2034.4028  0.043694219  0.042754803           11 
 3881000    0.6147501   -4.3177258    2043.0846  0.043869376  0.042745025            9 
 3882000   0.64930651   -4.3262535    2045.6906  0.043914018  0.042735301            5 
 3883000   0.62956985   -4.3177157    2040.0016  0.043780617  0.042725547            9 
 3884000   0.63087793   -4.3593305    2039.2237  0.043752655  0.042715777            6 
 3885000   0.62798542   -4.3389098    2038.5229  0.043726361  0.042705996           10 
 3886000   0.63780736   -4.3588288    2036.2551  0.043666475  0.042696189           16 
 3887000   0.62739629    -4.343912    2043.4897  0.043810345  0.042686403           12 
 3888000   0.61816027   -4.3399744    2038.2643  0.043687077  0.042676625            9 
 3889000   0.63486184   -4.3242336    2036.8333  0.043645181   0.04266692            8 
 3890000   0.61995431   -4.3316802    2033.7928  0.043568827  0.042657133            4 
 3891000   0.63205877   -4.3582405    2037.5383  0.043637847  0.042647365            5 
 3892000   0.63501203   -4.3492539    2046.0572  0.043809035  0.042637581            5 
 3893000   0.62409728   -4.3383613    2039.7273  0.043662286  0.042627866           13 
 3894000   0.62136869   -4.3521663    2043.1088  0.043723438  0.042618122            4 
 3895000   0.62512501   -4.3598868     2043.852  0.043728112  0.042608377            7 
 3896000   0.63202659   -4.3577628    2037.5072  0.043581177  0.042598572            7 
 3897000   0.63250048   -4.3607626     2034.552  0.043506801  0.042588842           11 
 3898000   0.63781575   -4.3401768    2039.4896  0.043601197  0.042579032           10 
 3899000   0.62292588   -4.3414697    2040.1863  0.043604904  0.042569285            9 
 3900000   0.62751323   -4.3641652    2035.8022  0.043500046  0.042559544           10 
 3901000   0.63902847   -4.3612455    2043.8916  0.043661703  0.042549767            5 
 3902000   0.61157988   -4.3573157    2038.1077  0.043526988  0.042539928            5 
 3903000   0.61688277   -4.3557226    2036.8262  0.043488475  0.042530138           14 
 3904000   0.62987136     -4.34032    2044.2953  0.043636768   0.04252032            9 
 3905000   0.63596293   -4.3621915    2041.5982  0.043568038  0.042510494           16 
 3906000   0.62162749   -4.3463504    2040.1912  0.043526864  0.042500677            9 
 3907000   0.62648873   -4.3578728    2038.3023  0.043475434  0.042490908            5 
 3908000   0.62086709   -4.3612709    2042.7266  0.043558653  0.042481112            4 
 3909000   0.63090486   -4.3433783    2041.6471  0.043524497  0.042471327            5 
 3910000   0.61379965   -4.3255305    2040.4624  0.043488117  0.042461523            8 
 3911000   0.61179683   -4.3553774    2039.0248  0.043446365  0.042451732            6 
 3912000    0.6280615   -4.3509776    2039.7405  0.043450504  0.042441914           14 
 3913000   0.63401811   -4.3419657    2041.4669  0.043476168  0.042432086           13 
 3914000   0.64112187   -4.3563791    2038.0706  0.043392747  0.042422279           10 
 3915000   0.63119094   -4.3396432    2038.2419  0.043385311   0.04241245            6 
 3916000   0.63181686   -4.3850636    2034.3646  0.043291721   0.04240265            6 
 3917000   0.62973417   -4.3464585    2037.8692  0.043355228  0.042392792            3 
 3918000    0.6336499   -4.3342505    2037.5953  0.043338338  0.042382978            7 
 3919000   0.62861941    -4.346102     2039.653  0.043371034  0.042373148            7 
 3920000   0.63680915   -4.3224157    2037.5722  0.043315736  0.042363372            9 
 3921000   0.62031499   -4.3390256    2035.3348  0.043257137  0.042353581            9 
 3922000   0.62867329   -4.3211938    2038.5208  0.043313803  0.042343757           12 
 3923000   0.63050806   -4.3501564    2037.5774  0.043282721  0.042333889            4 
 3924000    0.6200407   -4.3458376    2039.6517  0.043315742  0.042324025            6 
 3925000   0.62384491   -4.3452157    2034.6854  0.043199265  0.042314184            9 
 3926000   0.62235749   -4.3501887    2034.8604  0.043191976  0.042304405           10 
 3927000   0.61863064   -4.3371041    2043.0322  0.043354389  0.042294577           10 
 3928000   0.61124571   -4.3373061    2040.8933  0.043297975  0.042284787            5 
 3929000   0.63742206   -4.3502175    2035.7535  0.043177939  0.042274981           12 
 3930000   0.62778006   -4.3538807    2034.3135  0.043136418  0.042265164            8 
 3931000   0.62553456   -4.3357827    2039.2012  0.043229059  0.042255338            5 
 3932000   0.62848624   -4.3424151    2035.3119  0.043135637  0.042245508           15 
 3933000   0.61317637   -4.3693395    2036.1087  0.043141552  0.042235706           21 
 3934000   0.61649942   -4.3732317    2033.4687  0.043074663  0.042225894            4 
 3935000    0.6344008   -4.3379326    2038.0797  0.043161365  0.042216082           15 
 3936000   0.61704012   -4.3562819    2036.8564  0.043124501  0.042206375           25 
 3937000    0.6293038   -4.3546346    2039.6282  0.043172217   0.04219658            7 
 3938000   0.62052535   -4.3527164    2039.9009  0.043167024  0.042186793            6 
 3939000   0.61303616    -4.359317    2040.1147  0.043160589  0.042176982           17 
 3940000   0.61234958   -4.3573482    2041.2421  0.043173478   0.04216712            9 
 3941000   0.61610154   -4.3411584    2042.8368  0.043196244  0.042157341           13 
 3942000   0.62512843   -4.3340221    2042.2425  0.043172724  0.042147552            9 
 3943000   0.62391101   -4.3580304    2038.5988  0.043084767  0.042137771           13 
 3944000    0.6244747   -4.3660609    2040.3923  0.043111737  0.042128056           13 
 3945000   0.62630918   -4.3400433     2045.058  0.043199367  0.042118311            9 
 3946000   0.60786556   -4.3744287    2042.8711  0.043142234  0.042108575            8 
 3947000   0.61877398   -4.3623922    2041.1745  0.043095485   0.04209881           18 
 3948000   0.61358899    -4.352801    2043.5996  0.043135756  0.042089078            9 
 3949000   0.62529564   -4.3694917      2038.94  0.043026505  0.042079349           13 
 3950000   0.60391737   -4.3410566    2042.9585  0.043100389  0.042069618           18 
 3951000   0.60905909   -4.3597732    2042.7141  0.043084327   0.04205991           10 
 3952000   0.61794858   -4.3809065    2045.4537  0.043131193  0.042050233           14 
 3953000   0.62359733   -4.3311618    2040.8219   0.04302264   0.04204052            8 
 3954000   0.62538499   -4.3350345    2046.1951  0.043125002  0.042030786           14 
 3955000    0.6209674   -4.3686954    2040.2349  0.042988515  0.042021038            7 
 3956000   0.61064695   -4.3607513    2045.4801  0.043088138  0.042011307            8 
 3957000   0.63593569   -4.3406963    2042.2816   0.04300989  0.042001578            4 
 3958000   0.62675013   -4.3722954    2042.2428  0.042998205  0.041991883            8 
 3959000   0.61507732   -4.3612214    2041.2816  0.042967114  0.041982161           12 
 3960000   0.62019788   -4.3644149    2042.4631  0.042981126   0.04197244            5 
 3961000   0.60559198   -4.3669713    2045.9874   0.04304442   0.04196267           14 
 3962000   0.62771092   -4.3833329     2031.089  0.042720195  0.041952886           10 
 3963000   0.61619438   -4.3517145    2040.2531  0.042902118  0.041943093           15 
 3964000   0.61083565   -4.3721185    2039.2697   0.04287062  0.041933323            5 
 3965000    0.6314031   -4.3746863     2037.025  0.042812632  0.041923517            8 
 3966000   0.62260876   -4.3614418    2040.4599   0.04287401  0.041913777            7 
 3967000   0.61807313   -4.3671487    2043.8315  0.042934028  0.041904043            9 
 3968000   0.62396557   -4.3510819    2046.1838  0.042972611  0.041894272           19 
 3969000   0.61097501   -4.3740192    2042.7212  0.042889082  0.041884522           10 
 3970000   0.60719413    -4.356675    2044.6476  0.042918714  0.041874772            6 
 3971000   0.61853814    -4.365965    2045.2508  0.042920566   0.04186503            9 
 3972000   0.62375835   -4.3561482     2046.195   0.04292957  0.041855254           16 
 3973000   0.60374979   -4.3621782    2039.6296  0.042781056  0.041845513            8 
 3974000   0.61466998    -4.388173    2046.7847  0.042920331  0.041835687           11 
 3975000   0.61329878   -4.3719059    2044.4619  0.042860836  0.041825921           22 
 3976000   0.62603715   -4.3847998    2044.1009  0.042842491  0.041816154            5 
 3977000   0.60379794   -4.3846824    2043.4704  0.042818505  0.041806389            6 
 3978000   0.62710291   -4.3757638    2046.8002  0.042877498  0.041796687            4 
 3979000   0.61779381   -4.3500574    2046.3956  0.042858247  0.041786996           12 
 3980000   0.61914412   -4.3836321     2040.894  0.042732285  0.041777283            9 
 3981000   0.61997161   -4.3675412    2045.1747   0.04281116  0.041767555            8 
 3982000   0.62243071    -4.388395    2042.7689  0.042750061  0.041757838            8 
 3983000   0.62522435   -4.3625406    2044.7529  0.042780837  0.041748111           12 
 3984000    0.6059298   -4.3602514    2046.6256   0.04280927  0.041738427            5 
 3985000   0.62733673   -4.3574632    2047.3568  0.042813819  0.041728741            6 
 3986000   0.60962923   -4.3761405    2048.0274  0.042817097  0.041719011           13 
 3987000   0.61950559    -4.367202    2042.7547  0.042696152  0.041709222            7 
 3988000    0.6304509   -4.3920417    2039.2549  0.042612315  0.041699506            7 
 3989000   0.60760549   -4.3611523    2041.9894  0.042658757  0.041689757            3 
 3990000   0.61148578   -4.3646144    2042.7635  0.042664233   0.04168004            8 
 3991000    0.6206122    -4.380177    2045.4707   0.04271007  0.041670376           10 
 3992000   0.60173645   -4.3826168    2046.7083  0.042725208  0.041660714            8 
 3993000   0.60094907   -4.3566636    2049.5461  0.042773732  0.041651035           12 
 3994000   0.60134318   -4.3748955    2046.7675  0.042705047  0.041641371           18 
 3995000   0.63007338   -4.3900833    2040.9842   0.04257372  0.041631742           15 
 3996000   0.61135391   -4.3713805    2047.0963  0.042690531  0.041622033           13 
 3997000   0.61247473   -4.3787911    2040.4251  0.042540762  0.041612325           17 
 3998000   0.60879604   -4.3619981    2047.5558  0.042678752  0.041602652            7 
 3999000   0.60761917   -4.3599207    2047.7124  0.042671344  0.041593003            4 
 4000000   0.62338862        -4.37    2047.5695  0.042657698  0.041583322            5 
 4001000   0.60615483   -4.3710808    2044.0034   0.04257276   0.04157364            9 
 4002000    0.6087638   -4.3804681    2041.0299  0.042500206  0.041563906           15 
 4003000   0.60714719   -4.3721624    2046.8382  0.042610505  0.041554253           21 
 4004000   0.62621481   -4.3607951    2045.0083  0.042561777   0.04154459            9 
 4005000    0.6117988   -4.3696611    2047.1758  0.042596251  0.041534916           10 
 4006000   0.61881586   -4.3785578    2045.5437  0.042551667  0.041525212           10 
 4007000   0.59955027    -4.373455    2049.3453  0.042620108  0.041515512            8 
 4008000   0.61273792   -4.3923113     2043.217  0.042482058  0.041505873            8 
 4009000   0.60403773   -4.3658817    2052.6423  0.042667379  0.041496225            6 
 4010000   0.60554648   -4.3653326     2048.273   0.04256594  0.041486598           13 
 4011000   0.62442963    -4.381961    2049.2574   0.04257578   0.04147699           14 
 4012000   0.61772151   -4.3795884    2047.7853  0.042534591  0.041467398            8 
 4013000   0.60706243   -4.3684204    2055.5223  0.042684656  0.041457834            5 
 4014000   0.60474051   -4.3570718    2052.2022  0.042605095  0.041448235            7 
 4015000   0.59751416   -4.3836342    2050.7845  0.042565057  0.041438641           14 
 4016000   0.61470917   -4.3694224    2047.8509  0.042493586  0.041429059            8 
 4017000   0.60393183   -4.3708884     2046.196  0.042448676  0.041419432            8 
 4018000   0.59978797   -4.3835003     2049.069  0.042497698  0.041409888            9 
 4019000   0.61062651   -4.3872349    2052.6641  0.042561668  0.041400226            6 
 4020000   0.62242126    -4.377789    2052.1023  0.042539433  0.041390612           20 
 4021000   0.60343664   -4.3845107    2048.7295  0.042458956  0.041380974            9 
 4022000   0.61495279    -4.379166    2044.0802  0.042352069  0.041371368           12 
 4023000    0.6070292   -4.3747379    2046.5243  0.042392169  0.041361719           12 
 4024000   0.59655861   -4.4021555    2041.2617   0.04227265   0.04135201           11 
 4025000   0.59795776   -4.3895994    2047.8942  0.042399466  0.041342306           11 
 4026000   0.59717688    -4.394853    2050.1107  0.042434814   0.04133259           13 
 4027000   0.59708218   -4.3661614    2046.4868  0.042349283  0.041322943           11 
 4028000   0.61376846   -4.3734438    2051.4535  0.042441524  0.041313317           12 
 4029000   0.61579916    -4.398935    2046.7872  0.042334475  0.041303607           13 
 4030000   0.60603901   -4.3674681    2051.3477  0.042418272  0.041293932           10 
 4031000   0.61082025   -4.4038875    2046.8033  0.042313802  0.041284262            5 
 4032000   0.60481729   -4.3838425    2047.7745  0.042323381   0.04127457           12 
 4033000   0.60202913   -4.3901149     2047.977  0.042317071  0.041264889           16 
 4034000   0.59985016   -4.3868716    2049.9678  0.042347707  0.041255216            8 
 4035000   0.62004316   -4.3897384     2047.797   0.04229238  0.041245568           10 
 4036000   0.60143064   -4.3905897    2043.2391   0.04218779  0.041235935           11 
 4037000   0.60922786     -4.36489    2048.7684  0.042291479  0.041226282            8 
 4038000   0.60132621   -4.3762278    2052.2664  0.042353195  0.041216715           12 
 4039000   0.61185416   -4.3757658     2045.669  0.042206589  0.041207077           20 
 4040000   0.60264016   -4.3820589    2048.3376  0.042251189  0.041197403           12 
 4041000    0.6047568   -4.3757817    2048.3348  0.042240676   0.04118779           24 
 4042000   0.60678147   -4.3853594     2046.451  0.042191387  0.041178136           14 
 4043000   0.59669169   -4.3809425    2047.1447  0.042195248  0.041168475           20 
 4044000   0.60051226   -4.3822282    2047.7248  0.042196769  0.041158848            7 
 4045000   0.60502793     -4.38671    2044.0449  0.042110526  0.041149203           11 
 4046000    0.6146624   -4.3785784    2054.5138  0.042315739  0.041139555            6 
 4047000   0.60230743   -4.3980112    2042.1623  0.042050949  0.041129866            6 
 4048000   0.60333924   -4.4012702    2046.6364  0.042132667  0.041120174            9 
 4049000   0.62121325   -4.3757303    2045.0632  0.042089881  0.041110488            8 
 4050000   0.59874521   -4.3953074    2048.8121  0.042156628   0.04110082           11 
 4051000   0.60888779   -4.4043176    2045.5245  0.042078592  0.041091118           13 
 4052000   0.61762838   -4.4113428    2048.0361   0.04211986  0.041081474           15 
 4053000   0.59191162   -4.4040497    2053.7309  0.042226559  0.041071825           19 
 4054000   0.59539093   -4.3995968    2052.3938  0.042188657  0.041062187            8 
 4055000   0.60313636   -4.4000456    2051.8808   0.04216771  0.041052552            9 
 4056000   0.60799488   -4.3936485    2052.1683  0.042163221  0.041042909           14 
 4057000   0.60436934   -4.3815374    2046.4398  0.042035162  0.041033325           10 
 4058000   0.59919507   -4.4102114    2051.5337   0.04212941  0.041023712            7 
 4059000    0.5981322   -4.3714135    2049.5282  0.042077856  0.041014052            9 
 4060000   0.60785125   -4.3717467    2054.6904  0.042173449   0.04100445            8 
 4061000   0.59596943   -4.3747751     2056.637  0.042203007   0.04099491           11 
 4062000   0.60614379    -4.386649    2053.6814  0.042131983  0.040985338            7 
 4063000   0.59701368   -4.4016717    2048.2953  0.042011144  0.040975748           20 
 4064000    0.6004123   -4.3784928    2043.6044  0.041904617  0.040966149            4 
 4065000   0.59258975    -4.392976     2050.607  0.042037865  0.040956541            9 
 4066000    0.5985527   -4.3786873    2051.1685  0.042039032   0.04094697            8 
 4067000   0.60133983   -4.4004771    2053.0479  0.042067206  0.040937397           12 
 4068000   0.59424192    -4.384358    2051.6877     0.042029  0.040927806           14 
 4069000   0.58818207   -4.3874717     2052.064  0.042026379  0.040918257            3 
 4070000   0.60313218   -4.4129814    2056.7064  0.042111105  0.040908653            8 
 4071000    0.5992592   -4.4021339    2053.9292  0.042043913  0.040899054            9 
 4072000    0.5839286   -4.4034207    2049.1238  0.041935244  0.040889466           17 
 4073000   0.60508646   -4.4151694    2051.1807  0.041967033  0.040879871            6 
 4074000   0.59555409    -4.387181    2049.6492  0.041925405  0.040870237           12 
 4075000   0.61158923   -4.3724182    2054.1425  0.042007004  0.040860676            7 
 4076000   0.60367641    -4.394838    2053.2409  0.041978266  0.040851162            6 
 4077000   0.60367112   -4.4061304    2049.7056  0.041895708  0.040841606            9 
 4078000   0.60388272   -4.4361814    2046.8119  0.041826301  0.040831979            9 
 4079000   0.58117027   -4.3946889    2053.3248  0.041949106  0.040822406           18 
 4080000   0.59671877    -4.390841    2057.0383  0.042014672  0.040812882           16 
 4081000     0.594348   -4.3874122    2049.1525  0.041843349  0.040803404            6 
 4082000   0.59111594   -4.3917845    2055.8016  0.041968839  0.040793892            6 
 4083000   0.60144116   -4.4061223     2053.491  0.041911402  0.040784367           11 
 4084000   0.59675245    -4.386741     2051.303  0.041856494  0.040774802           13 
 4085000    0.6068124    -4.431236    2049.9632  0.041818915  0.040765201           14 
 4086000   0.60794337   -4.3852019     2053.127  0.041873204  0.040755609           11 
 4087000   0.59310815   -4.3927516    2053.2838  0.041866157  0.040746049            4 
 4088000   0.59925133   -4.4077137    2049.8565  0.041786051  0.040736478            6 
 4089000    0.6013197   -4.4176358    2052.2393  0.041824392  0.040726942            8 
 4090000   0.59776896   -4.4085539    2054.6717  0.041863727  0.040717364            5 
 4091000   0.60723208   -4.3933896    2055.3646  0.041867607  0.040707775           12 
 4092000   0.58831262   -4.3909078     2058.358  0.041918338  0.040698256           10 
 4093000   0.59684283   -4.3774452    2057.5073  0.041890774  0.040688727           10 
 4094000   0.60026238   -4.3998077     2049.477  0.041717086  0.040679145           16 
 4095000   0.60509973    -4.411412    2050.6025  0.041729803  0.040669548           13 
 4096000    0.5881949    -4.414535    2048.1628  0.041669978  0.040659937            9 
 4097000   0.58982447   -4.3993846     2055.343  0.041805854  0.040650327           23 
 4098000   0.60019502   -4.3982944    2048.4319  0.041655115  0.040640704            9 
 4099000   0.60378545   -4.3975948    2056.2471  0.041803835  0.040631105           10 
 4100000   0.60166117   -4.3952115    2054.6781  0.041761749  0.040621545           14 
 4101000   0.59089132   -4.3966048    2053.3956  0.041725507  0.040612001            6 
 4102000   0.58622701   -4.4107709    2046.0821  0.041566757  0.040602387            5 
 4103000   0.60336465   -4.4171118    2051.3471  0.041663561  0.040592768            6 
 4104000   0.59142102   -4.4260289    2049.4797   0.04161549   0.04058318            8 
 4105000   0.59513281   -4.4082268    2056.4104   0.04174605  0.040573547           16 
 4106000   0.60295292   -4.4062665    2051.5511   0.04163726  0.040563912           10 
 4107000   0.59965109   -4.3920035    2044.3422   0.04148085  0.040554278           27 
 4108000   0.59134058   -4.4181757    2050.2468  0.041590531  0.040544627           29 
 4109000    0.5826929   -4.4082729    2056.1957  0.041701058  0.040534993           23 
 4110000     0.592207   -4.4080546    2052.4776  0.041615523   0.04052533           34 
 4111000   0.59257651   -4.4180974    2052.9751  0.041615485  0.040515631           12 
 4112000   0.60961086    -4.414026    2052.4981  0.041595697  0.040506003           12 
 4113000   0.59984582   -4.4189901    2053.1319  0.041598426  0.040496366           25 
 4114000   0.60924573    -4.389853    2050.4984   0.04153497  0.040486728           13 
 4115000   0.58527322   -4.3940569    2049.7833  0.041510394  0.040477138            9 
 4116000   0.59673437   -4.3993524    2050.9856  0.041524653  0.040467493            8 
 4117000   0.59228787   -4.4051226    2047.7207  0.041448479  0.040457886           17 
 4118000    0.5853015   -4.3908928    2052.9151   0.04154353  0.040448282            7 
 4119000   0.60093609   -4.4013431    2050.3318  0.041481181  0.040438659           13 
 4120000   0.59797166   -4.4159711    2050.8416  0.041481424  0.040429008           14 
 4121000   0.57608527   -4.4363155    2051.5306  0.041485291  0.040419289            9 
 4122000   0.57880355    -4.417743    2049.2812  0.041429751  0.040409639           12 
 4123000   0.59304532   -4.4253728    2048.7551  0.041409069  0.040399984           19 
 4124000   0.58333888   -4.4223372    2054.7099  0.041519356  0.040390315           10 
 4125000   0.60080659   -4.4150408    2055.3616  0.041522456  0.040380718           12 
 4126000   0.60985915   -4.4033211    2045.5616  0.041314462   0.04037112           11 
 4127000   0.59053712   -4.4212969    2051.0159  0.041414585  0.040361499           27 
 4128000   0.60083895   -4.4140888    2054.0829  0.041466467  0.040351856           14 
 4129000   0.58540989   -4.4128964    2052.9203  0.041432959  0.040342278           13 
 4130000   0.60533775    -4.423483    2050.4524  0.041373132  0.040332634           17 
 4131000   0.58595527   -4.4103907    2055.4144  0.041463214  0.040322984           14 
 4132000   0.59469718   -4.4237008    2048.1103  0.041305871  0.040313299           15 
 4133000   0.58772167   -4.4010726    2050.4267  0.041342583  0.040303706           11 
 4134000   0.59120327   -4.4174163    2056.9479  0.041464037  0.040294149           13 
 4135000   0.59866701     -4.40111    2055.3152  0.041421105  0.040284532            7 
 4136000   0.59467125   -4.4022481    2051.3253    0.0413307  0.040275009           10 
 4137000   0.58348349   -4.4169405    2044.2772  0.041178737  0.040265431           13 
 4138000   0.58103617   -4.4287982    2053.8359  0.041361284  0.040255821           19 
 4139000   0.60286237   -4.4243708    2053.4273  0.041343065   0.04024626           10 
 4140000   0.58516752     -4.43294    2054.1795  0.041348219  0.040236724           11 
 4141000   0.59515593   -4.4395722     2052.688   0.04130822  0.040227177            9 
 4142000   0.58084435   -4.4027941    2051.0973  0.041266241  0.040217576           11 
 4143000   0.59518672    -4.415803    2055.1764  0.041338329  0.040208063           21 
 4144000   0.59355284   -4.4276145     2051.325  0.041250905  0.040198492            6 
 4145000   0.58160913    -4.425483    2055.9731    0.0413344  0.040188956           23 
 4146000   0.57745797   -4.4335861    2052.2928  0.041250459  0.040179399           10 
 4147000   0.58460472   -4.4168463     2057.698  0.041349127  0.040169879            8 
 4148000   0.58622632   -4.4245561    2059.2624  0.041370587  0.040160331           10 
 4149000   0.58383109   -4.4211271    2053.2755  0.041240369  0.040150783            7 
 4150000    0.5773141   -4.4308448      2053.41  0.041233133  0.040141278           12 
 4151000   0.58606901   -4.4110637    2053.5666  0.041226344  0.040131721            8 
 4152000   0.59761133   -4.4212727    2056.4296  0.041273875  0.040122228           11 
 4153000    0.5923641   -4.4410603    2053.7867  0.041210906  0.040112699            9 
 4154000   0.59655976   -4.4166961    2058.0955  0.041287425  0.040103217            7 
 4155000   0.58954644    -4.422642    2059.9627  0.041314936  0.040093718           10 
 4156000   0.58264956   -4.4417377    2053.9247  0.041183926  0.040084209           10 
 4157000   0.58482305   -4.4182793    2060.3308  0.041302437  0.040074774            8 
 4158000   0.59147059    -4.426319    2055.8981  0.041203666  0.040065295            6 
 4159000   0.57611279   -4.4364559    2059.6105  0.041268144  0.040055818            7 
 4160000   0.58223744   -4.4320902     2053.894  0.041143711  0.040046367            9 
 4161000   0.57946657    -4.412045    2058.6484   0.04122904  0.040036917            6 
 4162000   0.58378073   -4.4500805    2056.5474  0.041177066  0.040027452            9 
 4163000   0.58717458   -4.4282516    2056.9057  0.041174348  0.040018002           12 
 4164000   0.58522549   -4.4423671    2048.1007  0.040988246  0.040008545           14 
 4165000   0.58004313   -4.4304441     2057.125  0.041158963  0.039999083           18 
 4166000   0.59147159   -4.4320586    2061.9073  0.041244745  0.039989655            9 
 4167000   0.58574775   -4.4510485    2056.2064  0.041120838  0.039980218           11 
 4168000   0.57629699   -4.4342951    2056.8668  0.041124177  0.039970753            9 
 4169000   0.58822187    -4.429576     2051.807  0.041013172  0.039961248            6 
 4170000   0.59650215   -4.4518444    2051.3959  0.040995122  0.039951765           17 
 4171000   0.59714695    -4.450583    2056.3454   0.04108418  0.039942265           20 
 4172000   0.58375189   -4.4168993    2054.9023  0.041045508  0.039932768           11 
 4173000   0.57592033   -4.4622447    2053.3629  0.041004931  0.039923251            7 
 4174000   0.57604627   -4.4280806    2059.4914  0.041117461  0.039913767            9 
 4175000   0.58377859   -4.4342782    2055.5553  0.041029048  0.039904334            5 
 4176000   0.58533466   -4.4478189    2058.6492  0.041080962  0.039894897            6 
 4177000   0.58209075   -4.4519529     2054.205  0.040982464  0.039885478           21 
 4178000   0.58070847   -4.4260899    2056.5869  0.041020164  0.039876087           13 
 4179000   0.59030575   -4.4380633    2059.9378  0.041077167  0.039866657           32 
 4180000   0.58689623   -4.4459449    2054.6167  0.040961258  0.039857178           19 
 4181000   0.57005015   -4.4398352     2058.353  0.041025931  0.039847701           12 
 4182000   0.59438485    -4.429773    2061.2036  0.041072923  0.039838274            4 
 4183000   0.58078209   -4.4136366    2054.4869  0.040929295  0.039828889           11 
 4184000   0.58091507   -4.4329573    2061.1221  0.041051667  0.039819494           24 
 4185000   0.58359626   -4.4404959    2058.5282  0.040990208  0.039810078           13 
 4186000   0.58605595   -4.4245781    2062.7179  0.041063822  0.039800711           18 
 4187000   0.58242509   -4.4384612    2058.0918  0.040961941  0.039791307           13 
 4188000   0.56917494    -4.445555    2057.8478  0.040947305  0.039781866            8 
 4189000   0.57443667   -4.4242335    2056.6244  0.040913194  0.039772464            5 
 4190000   0.59006553   -4.4498533    2062.8545  0.041027336  0.039763114            9 
 4191000   0.57789988     -4.45076    2060.7272  0.040975249  0.039753692           16 
 4192000   0.58520125   -4.4437463     2059.558  0.040942231  0.039744266           27 
 4193000   0.59045879   -4.4340056    2057.9744  0.040900995  0.039734856            7 
 4194000   0.58772259    -4.441153    2058.6309  0.040904285  0.039725497           18 
 4195000   0.58092376   -4.4579485    2059.0076  0.040902019  0.039716095           14 
 4196000   0.59887018   -4.4503619    2058.5603  0.040883386  0.039706718           10 
 4197000   0.58776282   -4.4507784    2060.5538  0.040913227  0.039697311           12 
 4198000   0.59108741   -4.4500466    2062.3941  0.040940013  0.039687904            8 
 4199000   0.58207725   -4.4550522    2062.3761  0.040929906  0.039678522           22 
 4200000   0.57831639   -4.4519021    2061.1625  0.040896081   0.03966921            8 
 4201000    0.5822921   -4.4255136    2059.3572  0.040850535  0.039659857           12 
 4202000   0.57819521   -4.4402358    2063.8286   0.04092949  0.039650546           17 
 4203000   0.58443546    -4.451942    2064.5127  0.040933315  0.039641224           11 
 4204000   0.58335097   -4.4365993    2064.9738  0.040932719  0.039631885           31 
 4205000   0.57645526   -4.4465613    2059.5082  0.040814669  0.039622568            9 
 4206000    0.5877281   -4.4470295     2063.344  0.040880963  0.039613236            8 
 4207000   0.57533432   -4.4594982    2060.0035  0.040805077  0.039603886           37 
 4208000   0.58444825   -4.4376438    2063.7743  0.040870056  0.039594511           33 
 4209000   0.57533014   -4.4312405    2064.1382   0.04086755  0.039585168           10 
 4210000   0.57124382   -4.4420616     2059.311  0.040762292  0.039575771           10 
 4211000   0.59518719   -4.4416918    2064.0759  0.040846907  0.039566394           29 
 4212000   0.56507903   -4.4674848    2056.6675  0.040690637  0.039556992           11 
 4213000   0.59416818   -4.4636526    2060.9696  0.040766074  0.039547588            6 
 4214000   0.56352523   -4.4332614    2059.7787  0.040732848  0.039538233           15 
 4215000   0.57010059   -4.4499115    2057.4663  0.040677468  0.039528866            8 
 4216000    0.5827342   -4.4425531    2061.8337  0.040754146  0.039519564           15 
 4217000   0.58109406   -4.4436377     2064.096  0.040789186  0.039510232           11 
 4218000     0.582018   -4.4377376     2063.207  0.040761953  0.039500876           14 
 4219000    0.5704861   -4.4463547    2057.5141  0.040639846  0.039491515           15 
 4220000   0.55827731   -4.4479065      2056.69  0.040613941  0.039482108           20 
 4221000   0.56507515   -4.4566691    2063.0984  0.040730837  0.039472734           28 
 4222000   0.58330608   -4.4522214    2058.0128  0.040620812   0.03946339           11 
 4223000   0.57712743   -4.4691835    2059.2156  0.040634928  0.039454037            8 
 4224000   0.57126134   -4.4374198    2065.3742  0.040746808  0.039444676           12 
 4225000   0.57483069   -4.4428088    2063.4955  0.040700108  0.039435347            6 
 4226000   0.57004219   -4.4638566     2058.017  0.040582447  0.039425974            9 
 4227000   0.58146864   -4.4655653    2061.3828  0.040639201  0.039416625           12 
 4228000   0.57879223   -4.4493991    2059.2772  0.040588088  0.039407277           22 
 4229000   0.58417178   -4.4630915    2059.5482  0.040583829  0.039397874           24 
 4230000   0.58422306   -4.4524593    2063.1091  0.040644387  0.039388496           10 
 4231000   0.57541635   -4.4674874    2062.6867  0.040626462   0.03937915           18 
 4232000   0.58158607   -4.4367804    2061.2961  0.040589478  0.039369818            8 
 4233000   0.57139319   -4.4271316    2061.5713  0.040585308  0.039360497            9 
 4234000    0.5795916    -4.453482    2061.1472  0.040567375  0.039351191            7 
 4235000   0.58300635   -4.4368189    2061.5336    0.0405654  0.039341881            6 
 4236000   0.58063542   -4.4455264    2062.1245  0.040567448  0.039332598            5 
 4237000   0.58799842   -4.4496348     2060.724  0.040530327  0.039323267           13 
 4238000   0.56658853   -4.4443411    2064.4662  0.040594349  0.039313934            7 
 4239000    0.5725055   -4.4336099    2059.1413  0.040480091  0.039304611           13 
 4240000   0.56863035   -4.4399544    2059.9082  0.040485617  0.039295242           17 
 4241000   0.56998733   -4.4643238    2056.7359  0.040413737   0.03928587           10 
 4242000   0.56061494   -4.4504486    2060.1785  0.040471839  0.039276534           14 
 4243000   0.58474539    -4.451029    2061.6811  0.040491811  0.039267188           10 
 4244000   0.57544586   -4.4718647    2058.3246  0.040416365  0.039257801           13 
 4245000   0.57739424   -4.4555805    2060.3059  0.040445739  0.039248409           12 
 4246000   0.57715549   -4.4556016    2057.9167  0.040389321  0.039239034           11 
 4247000    0.5707461   -4.4562155      2060.46  0.040429714  0.039229672           10 
 4248000   0.57505376   -4.4420982    2067.7857  0.040563906  0.039220347           13 
 4249000   0.57048607   -4.4695494    2057.6529   0.04035563   0.03921104           10 
 4250000    0.5726863   -4.4365011    2065.7435  0.040504775  0.039201731           12 
 4251000   0.57888614   -4.4493735    2063.6334  0.040453882  0.039192433           37 
 4252000   0.57599449   -4.4417773    2062.2503  0.040417261  0.039183071           14 
 4253000   0.58510874    -4.463199    2062.5509  0.040413647  0.039173744           20 
 4254000   0.56738891   -4.4508673    2061.2401   0.04037847  0.039164411           10 
 4255000   0.58398087   -4.4590507    2063.5054  0.040413345  0.039155111           11 
 4256000   0.57357921   -4.4406253    2061.2297  0.040359291  0.039145795           10 
 4257000   0.58178148    -4.452459    2060.7793  0.040340993  0.039136465            8 
 4258000   0.56442836    -4.468037    2061.2974  0.040341658  0.039127144           10 
 4259000    0.5634073   -4.4464362    2062.6711  0.040359065  0.039117809           12 
 4260000    0.5633189   -4.4587062    2063.6568  0.040368873  0.039108454            7 
 4261000   0.57052448   -4.4579273    2064.2252  0.040370515  0.039099101           10 
 4262000   0.57365822   -4.4458428    2062.8254  0.040333673  0.039089807           35 
 4263000    0.5724329   -4.4598605    2057.8522  0.040226996  0.039080478           11 
 4264000   0.56145566   -4.4718184    2061.8365   0.04029543  0.039071171           11 
 4265000   0.58921832   -4.4520338    2065.0318  0.040348414  0.039061792            8 
 4266000   0.56373221   -4.4721852    2059.4684  0.040230278  0.039052451           10 
 4267000   0.56564077   -4.4569394    2060.4618  0.040240251  0.039043058           13 
 4268000    0.5680015   -4.4652125    2061.4848  0.040250797    0.0390337           14 
 4269000   0.58319996    -4.466615    2064.6086  0.040302346  0.039024401           24 
 4270000   0.56769869   -4.4444846    2062.5858  0.040253432  0.039015117            5 
 4271000   0.56947519    -4.449132    2065.8423  0.040307545  0.039005872           12 
 4272000   0.55943269   -4.4664469    2058.3509  0.040151976  0.038996584           19 
 4273000   0.56581514   -4.4582525    2063.7358  0.040247597  0.038987246           13 
 4274000   0.57111775   -4.4522991    2065.5104  0.040272782  0.038977947           17 
 4275000      0.57127   -4.4610145     2058.565  0.040127973   0.03896865           13 
 4276000   0.56077678   -4.4537049    2061.3498   0.04017286  0.038959375            6 
 4277000   0.57868286   -4.4678437    2062.5377  0.040186612    0.0389501            8 
 4278000   0.56950094   -4.4704956    2064.1944   0.04020949  0.038940811           15 
 4279000   0.58834472   -4.4810733    2060.0741   0.04011985  0.038931501           15 
 4280000   0.55433281   -4.4779868     2062.658  0.040160787   0.03892214           14 
 4281000   0.56752215   -4.4638463    2065.3292  0.040203403  0.038912831           10 
 4282000   0.55906556   -4.4741464    2060.4059    0.0400982  0.038903524           21 
 4283000   0.57105663   -4.4579048    2061.3101  0.040106431  0.038894251           14 
 4284000   0.55723415   -4.4604299    2059.9669   0.04007094  0.038884942           11 
 4285000   0.56954381   -4.4523179    2065.3601  0.040166474  0.038875656           30 
 4286000   0.56526641     -4.47456    2059.9649  0.040052202  0.038866397            7 
 4287000   0.55515185   -4.4615178    2064.6659  0.040134242  0.038857111           22 
 4288000   0.55798771   -4.4773661    2063.3692  0.040099682  0.038847794           19 
 4289000   0.56912123   -4.4670058    2060.4386  0.040033392  0.038838469           12 
 4290000     0.569013   -4.4592249    2067.8549  0.040168121  0.038829173           37 
 4291000   0.56422047   -4.4658528    2060.6394  0.040018632  0.038819903            9 
 4292000   0.55887285   -4.4688562    2062.8566  0.040052358  0.038810574           13 
 4293000   0.57911205   -4.4824898    2065.7732  0.040099642  0.038801279            9 
 4294000   0.56380412   -4.4656537    2065.7984  0.040090793  0.038791992           17 
 4295000   0.56409176   -4.4848642    2062.1449  0.040010573  0.038782689           12 
 4296000    0.5752865   -4.4765579    2063.2087  0.040021895  0.038773394           19 
 4297000   0.56383258   -4.4753543     2069.913  0.040142599  0.038764105            8 
 4298000   0.55856152   -4.4689031     2063.099  0.040001144  0.038754854           14 
 4299000   0.55019286   -4.4519672    2068.2544  0.040091773  0.038745557           13 
 4300000   0.56233573   -4.4717369    2062.7717  0.039976195   0.03873627           21 
 4301000   0.56259821   -4.4695561    2067.2361    0.0400534  0.038726991           10 
 4302000   0.56095469   -4.4569599    2065.2608  0.040005827  0.038717711           10 
 4303000   0.56463528   -4.4677473    2063.3368  0.039959268  0.038708447           10 
 4304000   0.56157839   -4.4658254    2066.5674  0.040012535  0.038699226           12 
 4305000   0.56168189   -4.4918015    2063.7855   0.03994939  0.038689977            8 
 4306000   0.55686754   -4.4736691    2066.6055  0.039994688   0.03868077            8 
 4307000     0.561194   -4.4704086    2068.5397  0.040022826  0.038671523           14 
 4308000   0.56013303   -4.4589398    2066.1494  0.039967297  0.038662309           17 
 4309000   0.56252228   -4.4846643    2063.5763   0.03990826  0.038653062           14 
 4310000    0.5480413   -4.4708619    2057.6714   0.03978483  0.038643826           14 
 4311000   0.56433237   -4.4790742    2065.7422  0.039931612  0.038634539           11 
 4312000   0.57173209   -4.4809956    2062.6537  0.039862664  0.038625303            9 
 4313000   0.55539424   -4.4726854    2066.1098  0.039920199   0.03861609            6 
 4314000   0.54975996   -4.4595127    2062.0209  0.039831959  0.038606861            7 
 4315000   0.56063804   -4.4911936    2067.0257  0.039919385  0.038597635           16 
 4316000     0.567406   -4.4730237    2064.4839  0.039861058  0.038588406            8 
 4317000   0.56357982   -4.4752334    2061.8251    0.0398005  0.038579215            8 
 4318000   0.56860153    -4.480131    2066.0636  0.039873081  0.038570006           13 
 4319000   0.55147844   -4.4730877    2065.3626  0.039850324  0.038560694           10 
 4320000    0.5662492   -4.4780769    2067.8503  0.039889088  0.038551487           11 
 4321000   0.56460139   -4.4727214       2067.1  0.039865386  0.038542278           10 
 4322000   0.56005492   -4.4644676    2072.3724  0.039957821  0.038533048            8 
 4323000   0.56553035   -4.4722529    2069.1021  0.039885536  0.038523865            6 
 4324000   0.56480925   -4.4715979    2065.9022  0.039814644  0.038514673           25 
 4325000   0.56496083   -4.4861851    2067.0982  0.039828482  0.038505503           16 
 4326000   0.55606862   -4.4847767     2065.378  0.039786137   0.03849627           10 
 4327000   0.55654772   -4.4826773    2066.0021  0.039788963  0.038487024           19 
 4328000   0.56733866   -4.4580905    2064.8469  0.039757527  0.038477807            7 
 4329000   0.55594936   -4.5111612    2063.0595  0.039713935  0.038468549            6 
 4330000   0.57152064   -4.4718645    2062.2434  0.039689057  0.038459284           19 
 4331000   0.55998763   -4.4901638    2067.1678  0.039774645  0.038450025           14 
 4332000   0.56351373   -4.4668084    2064.9952  0.039723668  0.038440813           14 
 4333000   0.55730442   -4.4758121    2063.7034  0.039689657  0.038431584           23 
 4334000   0.56180946   -4.4937882    2064.2204   0.03969044  0.038422351            6 
 4335000    0.5588128   -4.4739785    2062.8916   0.03965574  0.038413091           12 
 4336000   0.55086178   -4.4751354    2065.9442  0.039705262  0.038403809           14 
 4337000   0.56315269   -4.4932377    2060.3276  0.039588187  0.038394556           14 
 4338000   0.55830087   -4.4923434    2065.6385  0.039681084  0.038385315            5 
 4339000   0.55858412    -4.476925    2059.8656  0.039561065  0.038376066            7 
 4340000   0.56144778   -4.4786464    2066.9925  0.039688797  0.038366803           11 
 4341000   0.56669925   -4.4709924    2069.3018  0.039723984  0.038357596           17 
 4342000   0.56970092   -4.5042736    2064.2965  0.039618773  0.038348368           15 
 4343000   0.55959402   -4.4826367    2066.8182  0.039658036  0.038339164            6 
 4344000   0.54753694   -4.4751421    2065.8693  0.039630704  0.038329975           17 
 4345000   0.55742714   -4.4737248    2067.9557  0.039661597  0.038320822           19 
 4346000   0.54420942   -4.4607913    2069.1129   0.03967466  0.038311619            8 
 4347000   0.55737356   -4.4920221     2071.656  0.039714285  0.038302447           10 
 4348000   0.55710758    -4.470473    2067.6928  0.039629194  0.038293252           16 
 4349000   0.56255793   -4.4692473      2071.69  0.039696674  0.038284139           12 
 4350000   0.55213949    -4.476183    2067.7442  0.039611957   0.03827502           22 
 4351000   0.55994693   -4.4919785    2071.6326  0.039677328   0.03826587            8 
 4352000   0.56618606   -4.4918737    2070.2609  0.039641944  0.038256698            8 
 4353000   0.55921215   -4.4820462    2066.5463  0.039561727  0.038247536            8 
 4354000    0.5561177   -4.4911751    2062.0889  0.039467327   0.03823836           10 
 4355000   0.55351641   -4.4979583    2068.8195  0.039587055  0.038229191           11 
 4356000   0.55737006   -4.4957459    2068.1948  0.039566016  0.038220022            6 
 4357000   0.54892094    -4.491142     2060.458   0.03940896  0.038210864            8 
 4358000   0.55946628   -4.5071119    2064.4588  0.039476418  0.038201728           16 
 4359000   0.55785232   -4.4971711     2066.422  0.039504893  0.038192573           14 
 4360000   0.54578863   -4.4831698    2068.0229  0.039526431  0.038183403           16 
 4361000   0.55279742   -4.4915252    2069.2291  0.039540417  0.038174252           13 
 4362000   0.54816683    -4.496556    2065.6309   0.03946261  0.038165084           21 
 4363000   0.56020443   -4.4947246    2063.2946  0.039408943  0.038155908           22 
 4364000   0.55165665   -4.4920815    2068.5186  0.039499668  0.038146687           19 
 4365000   0.53975218   -4.4769397    2063.3178  0.039391329  0.038137503           15 
 4366000   0.55295488   -4.4739097    2063.6247  0.039388164  0.038128306           18 
 4367000   0.55424655   -4.5020528    2064.3919  0.039393786  0.038119072           20 
 4368000   0.56628368   -4.4901088    2068.1357  0.039456191  0.038109876           23 
 4369000   0.55925989   -4.4814106    2063.5254  0.039359225   0.03810068           36 
 4370000   0.55420947   -4.5077993    2065.4846  0.039387578   0.03809143           50 
 4371000   0.55543479   -4.4875556    2062.2653   0.03931719  0.038082203           25 
 4372000   0.55163329   -4.5091466    2059.9068  0.039263244  0.038072962           16 
 4373000   0.55502793   -4.4859947    2068.0284  0.039409032  0.038063744           12 
 4374000   0.56162395    -4.489539    2064.0874  0.039324938  0.038054564           14 
 4375000   0.55343364   -4.4994141    2062.7559  0.039290589  0.038045353           20 
 4376000   0.55358693   -4.4810557    2060.7929  0.039244227  0.038036148           13 
 4377000   0.55828059   -4.4935245     2070.013  0.039410802  0.038026999            7 
 4378000   0.56174881   -4.4803083    2067.2884  0.039349939   0.03801783           10 
 4379000   0.56219712   -4.5088292    2065.5762   0.03930837  0.038008658           28 
 4380000   0.54830783   -4.4939422    2060.9491  0.039211361  0.037999443           41 
 4381000   0.55853156   -4.5146505    2062.6879  0.039235486  0.037990233           18 
 4382000   0.54409399   -4.5118584    2068.2219  0.039331771  0.037981041           22 
 4383000   0.55417288   -4.5031462    2069.9324   0.03935532  0.037971859           12 
 4384000    0.5602458   -4.5054067    2064.5051  0.039243177  0.037962688           11 
 4385000   0.55279842   -4.5087032    2067.1087  0.039283709  0.037953534            8 
 4386000   0.56853622   -4.4943027    2067.9108  0.039289991  0.037944365            7 
 4387000   0.55060908   -4.5119544    2061.6473  0.039162057  0.037935181           19 
 4388000   0.55726506   -4.4960952    2066.1117  0.039237915  0.037925996           12 
 4389000   0.54812222   -4.5039066    2066.5292  0.039236904  0.037916831           13 
 4390000    0.5603719   -4.4999859    2064.7241    0.0391937  0.037907679           13 
 4391000   0.55280422   -4.4970369    2069.0771  0.039267385  0.037898512           23 
 4392000   0.55575912   -4.5213698    2061.0395   0.03910594  0.037889298           15 
 4393000   0.54479674   -4.5014931    2062.8502  0.039131386   0.03788007            6 
 4394000   0.54099123   -4.4993745    2065.0301  0.039163824  0.037870868            7 
 4395000   0.55976979   -4.5088668    2060.8061  0.039074822  0.037861686           14 
 4396000    0.5521431   -4.5086161    2065.2513  0.039150198  0.037852512            6 
 4397000   0.53846008   -4.4986609    2065.2995  0.039142208  0.037843329            6 
 4398000   0.55211133   -4.5005213    2070.9199  0.039239805  0.037834149            8 
 4399000   0.55455463   -4.4853559    2069.7865  0.039209414  0.037824993           22 
 4400000   0.55919853   -4.4969174    2065.8259   0.03912549  0.037815854           15 
 4401000   0.53974599   -4.4925294    2064.2875   0.03908747    0.0378067           24 
 4402000    0.5431898   -4.5009229    2066.2027  0.039114848  0.037797551           22 
 4403000   0.54360722   -4.4931576    2061.2415  0.039012066  0.037788418           21 
 4404000   0.54690165   -4.4998546    2064.8521  0.039071527  0.037779237           11 
 4405000   0.55712089   -4.4820081    2066.0882  0.039086043  0.037770082            6 
 4406000   0.55234888   -4.4857995    2062.0902  0.039001554  0.037760925           15 
 4407000   0.54555233   -4.4996007    2067.0921  0.039087287  0.037751794           16 
 4408000   0.53819368   -4.4971097    2059.7944  0.038940456  0.037742624           30 
 4409000   0.53499051    -4.498112    2060.9871  0.038954167   0.03773345           18 
 4410000   0.54353675   -4.5298472    2059.7283  0.038921548   0.03772429           16 
 4411000   0.54138772   -4.5121195    2062.4427  0.038964004  0.037715103           10 
 4412000   0.54294218   -4.4958633    2071.8361  0.039132595  0.037705943           17 
 4413000   0.54766177   -4.5058243    2060.0065  0.038900341  0.037696795           18 
 4414000   0.55185848   -4.5021854    2066.8177   0.03902012  0.037687634           26 
 4415000    0.5435116   -4.5133139    2063.5691  0.038949964  0.037678466           11 
 4416000   0.55307887   -4.5232148     2065.237  0.038972619  0.037669294           10 
 4417000   0.54563352   -4.4941117     2063.581  0.038932552   0.03766016           13 
 4418000   0.54395413   -4.5157029    2065.3295  0.038956721     0.037651            9 
 4419000   0.54920773   -4.4879505    2066.4238  0.038968541  0.037641861           11 
 4420000   0.55419654   -4.5104603    2063.3714  0.038902176  0.037632719           12 
 4421000   0.54519331   -4.5127966    2065.8961  0.038940965  0.037623538           17 
 4422000   0.53693917   -4.5254977    2059.3248  0.038808321  0.037614311           18 
 4423000   0.54754873   -4.5121093    2064.8658  0.038903945  0.037605029           13 
 4424000   0.53330347   -4.5076669     2063.394  0.038867428   0.03759581            8 
 4425000   0.53706549   -4.5229753    2066.0911  0.038909437    0.0375866           12 
 4426000   0.54702871   -4.5367766    2062.7526  0.038837789  0.037577379           12 
 4427000   0.55101124   -4.5098155    2064.8715  0.038868901  0.037568149            8 
 4428000   0.54580738   -4.5281815    2061.7664  0.038801686  0.037558932            8 
 4429000   0.54017522   -4.4970942    2063.3321  0.038822384  0.037549724           32 
 4430000   0.54361388   -4.4961874    2062.8555  0.038804655  0.037540552           10 
 4431000   0.53814612   -4.5060765    2066.2767   0.03886024  0.037531379           13 
 4432000   0.54026554   -4.5054525    2066.4509  0.038854747  0.037522177            9 
 4433000   0.53536399   -4.5349677    2061.8867  0.038760183  0.037512995           20 
 4434000   0.53751948   -4.5274986    2065.5611  0.038820498  0.037503802           11 
 4435000   0.53816518   -4.5281324    2062.1503  0.038747657  0.037494629           17 
 4436000   0.54405329   -4.5033439    2066.8074  0.038826409   0.03748547           10 
 4437000   0.53859856   -4.4920372    2067.9772   0.03883963  0.037476339           17 
 4438000   0.54005494   -4.4934947    2059.2702  0.038667384  0.037467167           14 
 4439000   0.53176203   -4.5329851    2063.9324  0.038746197  0.037457961           40 
 4440000   0.54053612   -4.5015922    2062.2405  0.038705715   0.03744876           36 
 4441000   0.53538602   -4.5152187    2063.7077   0.03872453  0.037439579           36 
 4442000   0.54967236    -4.515511    2064.3022  0.038726965  0.037430396           40 
 4443000   0.54932702   -4.5065946     2066.073  0.038751463   0.03742122           39 
 4444000   0.54001357   -4.5327179    2063.5046   0.03869458  0.037412042           18 
 4445000    0.5300951   -4.5242599    2064.7208  0.038708676  0.037402909           30 
 4446000   0.52853728   -4.5070352     2064.224  0.038690658   0.03739375           18 
 4447000   0.54106005   -4.5108422    2064.5049  0.038687223  0.037384601           19 
 4448000   0.54627522   -4.5208647    2063.7353  0.038664105   0.03737547            5 
 4449000   0.54458467   -4.5243412    2067.4989  0.038725911  0.037366321            8 
 4450000    0.5419545   -4.5165881    2061.6613  0.038607889   0.03735719           11 
 4451000   0.53668305     -4.51918    2063.9926  0.038642862   0.03734803           10 
 4452000   0.52910919   -4.5167149    2064.5049  0.038643772  0.037338915           18 
 4453000   0.53737597   -4.5164499    2064.9158  0.038642785  0.037329815           10 
 4454000   0.53194627   -4.5078215    2068.0618  0.038692969  0.037320711           15 
 4455000   0.53108458   -4.5346457     2064.037  0.038608997  0.037311603           12 
 4456000   0.55512155   -4.5360097    2064.2252  0.038603853   0.03730243           12 
 4457000   0.54331532   -4.5350954    2064.4044  0.038598541  0.037293255            6 
 4458000   0.53419349   -4.5187177    2064.9797  0.038600637  0.037284127           14 
 4459000   0.53477955   -4.5234413    2067.4884  0.038638865  0.037275006           13 
 4460000   0.54362415   -4.5198373    2064.2726  0.038570115  0.037265904           10 
 4461000   0.53724382    -4.531234    2067.2237  0.038616597   0.03725684           13 
 4462000   0.52657457   -4.5098674    2069.4802  0.038650085  0.037247769            7 
 4463000   0.53968339   -4.5178642    2065.1247  0.038560099  0.037238686            7 
 4464000   0.53592198   -4.5136807     2066.786  0.038582475  0.037229611           17 
 4465000   0.54937875   -4.5140625    2066.7288  0.038572767  0.037220563           11 
 4466000   0.53184723   -4.5279621    2061.4077   0.03846484  0.037211441           24 
 4467000   0.52341323   -4.5210975    2064.1631  0.038507633  0.037202324           13 
 4468000   0.53994605   -4.5267527    2069.3374   0.03859552  0.037193206           14 
 4469000    0.5378056   -4.5286056    2069.6959  0.038593569  0.037184099           15 
 4470000   0.53532668   -4.5381198    2061.8349  0.038438383     0.037175           28 
 4471000   0.53886028   -4.5180894    2070.9464  0.038599613  0.037165866           10 
 4472000   0.54585209   -4.5383429    2061.1205  0.038407881  0.037156745           31 
 4473000   0.53269659   -4.5244912    2064.6043  0.038464199  0.037147625           10 
 4474000   0.53385276   -4.5315434    2067.7969  0.038515066  0.037138511           10 
 4475000   0.54128352    -4.517133     2066.012  0.038473221  0.037129404            7 
 4476000   0.53327739   -4.5213648    2067.3224  0.038489022  0.037120315           12 
 4477000   0.53848461   -4.5235366    2068.6049  0.038504298  0.037111244            9 
 4478000   0.53311626   -4.5292923     2067.347   0.03847229  0.037102138           23 
 4479000   0.53408613   -4.5334434     2060.563  0.038337482  0.037092989           22 
 4480000   0.54848484    -4.534211    2062.4347  0.038363741  0.037083843           14 
 4481000   0.53377683   -4.5483346    2059.1762  0.038294581  0.037074687           10 
 4482000   0.54226254   -4.5412116    2067.5773  0.038442238  0.037065565           13 
 4483000   0.53576708   -4.5322426    2061.9056  0.038328233  0.037056452           25 
 4484000   0.53513731   -4.5290753    2062.4251   0.03832934  0.037047316           24 
 4485000    0.5438902   -4.5235976     2065.328   0.03837473  0.037038187           13 
 4486000   0.54763484    -4.550255    2059.7756  0.038263034  0.037029054           14 
 4487000    0.5452925   -4.5311971     2064.589    0.0383439  0.037019908           10 
 4488000   0.52971605   -4.5265108    2064.1734   0.03832764  0.037010797           11 
 4489000    0.5390966   -4.5452689    2063.1642  0.038300368  0.037001696           14 
 4490000   0.53462536   -4.5415608    2066.3139  0.038350294  0.036992574           14 
 4491000   0.52907653    -4.531217     2068.514   0.03838258  0.036983498           13 
 4492000   0.53835451   -4.5161747     2067.006   0.03834606   0.03697442           19 
 4493000   0.51992543   -4.5443456    2063.9723  0.038281258  0.036965305           14 
 4494000   0.54497745   -4.5515346    2063.9563  0.038272442  0.036956159            9 
 4495000   0.53025088   -4.5456878      2065.16  0.038286244  0.036947007           25 
 4496000   0.53623955   -4.5286641    2059.5338  0.038173447  0.036937854           13 
 4497000    0.5283475   -4.5280701    2060.2294  0.038177849  0.036928725           11 
 4498000   0.53255111   -4.5463899    2064.7258  0.038252664  0.036919581           11 
 4499000   0.53055554   -4.5446945    2070.5836  0.038352664  0.036910486            7 
 4500000   0.52517023   -4.5294832    2068.5279  0.038306073  0.036901385           17 
 4501000   0.52294792   -4.5716836    2063.1812  0.038198572  0.036892277           17 
 4502000   0.51948862   -4.5355969    2061.4593  0.038158213  0.036883187            8 
 4503000   0.52799954   -4.5492433    2066.7542  0.038247727  0.036874146           25 
 4504000   0.53415132   -4.5272479    2063.6946  0.038182627  0.036865049           17 
 4505000   0.52664484   -4.5370829     2064.209  0.038183667  0.036855952           20 
 4506000   0.52391304   -4.5453652    2062.7457   0.03814813  0.036846888           10 
 4507000   0.52991718   -4.5683091    2064.0421  0.038163637  0.036837783            8 
 4508000   0.51688974   -4.5488118    2061.8347  0.038114365  0.036828659            9 
 4509000   0.53511893    -4.555261    2060.9047  0.038088724  0.036819525           18 
 4510000   0.53337393   -4.5381867    2062.0802  0.038101999  0.036810443           15 
 4511000   0.52405893   -4.5273793    2065.7998  0.038162266  0.036801339           18 
 4512000   0.53161556   -4.5450756    2064.6519  0.038132608  0.036792252           12 
 4513000   0.53354976   -4.5503795    2062.1509  0.038077976  0.036783183           14 
 4514000   0.52009311   -4.5357751    2063.3783    0.0380922  0.036774058            5 
 4515000   0.52829559   -4.5330019    2059.0976  0.038004754  0.036764965           13 
 4516000   0.52279317   -4.5516443     2054.666  0.037914563  0.036755876           22 
 4517000   0.52405965   -4.5448649    2058.8599  0.037983542   0.03674677            9 
 4518000   0.53138718   -4.5491265    2067.9136  0.038142128  0.036737704           12 
 4519000    0.5387854   -4.5457777    2066.2738  0.038103448  0.036728658            7 
 4520000    0.5310231    -4.551159    2067.1138  0.038110506  0.036719578            7 
 4521000   0.53488411   -4.5476704    2061.3999  0.037996754  0.036710483           18 
 4522000   0.53146186   -4.5375248    2068.3904  0.038117175  0.036701394           15 
 4523000   0.52991183   -4.5460226    2062.4614   0.03799951  0.036692292           14 
 4524000   0.52967592   -4.5594664    2066.9608   0.03807399  0.036683177           23 
 4525000   0.52889596   -4.5419953    2063.5916  0.038003529  0.036674081           15 
 4526000   0.54267091   -4.5354348    2061.3946   0.03795468  0.036665039           40 
 4527000   0.53808885   -4.5389798    2064.9898  0.038012477  0.036655984           26 
 4528000   0.52070876    -4.534582     2063.059  0.037968547  0.036646924           11 
 4529000   0.52092871   -4.5371692    2066.1074  0.038016254  0.036637878           22 
 4530000   0.53157594   -4.5281718     2066.956  0.038023473  0.036628854           21 
 4531000   0.52998129   -4.5460109    2064.2079  0.037964539  0.036619826           10 
 4532000   0.52023976   -4.5564082    2069.6477  0.038056187  0.036610809           11 
 4533000   0.52936049   -4.5520257    2065.1954  0.037965943  0.036601781           29 
 4534000   0.52091206   -4.5416209    2070.1904  0.038049375   0.03659274           10 
 4535000   0.51676487   -4.5517402    2064.2169  0.037931218    0.0365837           17 
 4536000   0.54330197    -4.542907    2060.4298  0.037853281  0.036574655           37 
 4537000   0.51988245   -4.5435717    2065.6367  0.037940576  0.036565611           22 
 4538000   0.53036496    -4.547925    2063.4514  0.037892085  0.036556597           14 
 4539000   0.53714317   -4.5470527    2061.8537  0.037854405  0.036547568           12 
 4540000   0.51735965   -4.5479428    2060.6147  0.037823324  0.036538502           15 
 4541000   0.52449796   -4.5761045    2065.1537  0.037898292  0.036529448           47 
 4542000    0.5331372   -4.5748174    2064.5968  0.037879729  0.036520382           23 
 4543000   0.52713327   -4.5676315    2062.1116  0.037825806   0.03651129            6 
 4544000   0.52502251   -4.5636981    2066.3406  0.037895038  0.036502182           26 
 4545000    0.5280551   -4.5644832    2067.9001  0.037915293  0.036493119           18 
 4546000   0.52749221   -4.5591232    2068.0732  0.037910127  0.036484056           23 
 4547000   0.52725542   -4.5535942    2063.8659  0.037824681  0.036475008           19 
 4548000   0.52033392   -4.5533215    2065.4354  0.037845123   0.03646594           24 
 4549000   0.53241476   -4.5602061    2064.3926    0.0378177  0.036456894           43 
 4550000   0.52940719   -4.5689757    2064.2415  0.037806621  0.036447866           23 
 4551000   0.52155172   -4.5549391    2068.4055  0.037874561  0.036438854           30 
 4552000   0.51484788   -4.5558731    2063.6243  0.037778711  0.036429818           14 
 4553000    0.5414417   -4.5612538    2062.9939  0.037758876  0.036420803           30 
 4554000   0.52518352   -4.5713207    2067.9512  0.037841296  0.036411785           15 
 4555000   0.52906101   -4.5606493    2061.8034  0.037720517  0.036402751           26 
 4556000   0.51363767   -4.5506905    2063.7038  0.037746996  0.036393699           32 
 4557000   0.51373549   -4.5617006    2059.4194  0.037660366  0.036384601           27 
 4558000   0.51207376   -4.5758448    2061.4239  0.037688751  0.036375507           25 
 4559000    0.5176988   -4.5700408     2063.396  0.037716531  0.036366455           13 
 4560000   0.52942063   -4.5807006    2060.5408  0.037656082  0.036357424           43 
 4561000   0.51925334   -4.5712749    2062.5644  0.037684798  0.036348345           18 
 4562000   0.52813691   -4.5639984     2065.926  0.037737944  0.036339291           16 
 4563000   0.52589718   -4.5508101    2059.9903  0.037621271  0.036330283           24 
 4564000   0.51470251   -4.5708064    2065.2869  0.037709737  0.036321245           31 
 4565000   0.52222288   -4.5741127    2062.2161   0.03764542  0.036312194           30 
 4566000   0.51626194   -4.5694686    2064.9037  0.037686227  0.036303143           57 
 4567000   0.51009478   -4.5759219    2064.0939  0.037663198  0.036294085           16 
 4568000   0.52791838   -4.5428084    2061.5676  0.037608866  0.036285087           29 
 4569000   0.52685556   -4.5535673    2066.4815  0.037690258  0.036276078           30 
 4570000   0.52135878    -4.550435    2064.0746  0.037638121  0.036267075           24 
 4571000   0.52226209    -4.556542    2060.9777  0.037573429  0.036258039           15 
 4572000   0.54033451   -4.5631057    2064.6439  0.037632033   0.03624902           25 
 4573000   0.52324258   -4.5729792    2065.9796  0.037648145  0.036240032           16 
 4574000    0.5168392   -4.5618017    2058.3714  0.037501301  0.036231034           10 
 4575000   0.52293756   -4.5348471     2069.851  0.037702204  0.036222074           17 
 4576000   0.52611256   -4.5494947    2065.3979   0.03761287  0.036213137           22 
 4577000    0.5258839   -4.5804115    2069.3873  0.037677286  0.036204171            8 
 4578000   0.52214111   -4.5349186    2069.1527  0.037664787   0.03619522           11 
 4579000    0.5203368   -4.5541338    2062.9951  0.037544498  0.036186285           20 
 4580000   0.52491891   -4.5626456    2064.1598  0.037557492  0.036177307            8 
 4581000   0.51470431   -4.5510951    2064.4666  0.037554875  0.036168329           11 
 4582000   0.51386587    -4.556152    2070.3482  0.037653647  0.036159356           29 
 4583000   0.51997738   -4.5563949    2072.3686   0.03768217  0.036150387            7 
 4584000   0.52265525   -4.5631704    2066.0892  0.037559795  0.036141425           26 
 4585000   0.51759207   -4.5665505    2061.1833  0.037462438  0.036132449           20 
 4586000   0.52605092   -4.5640278    2065.1756  0.037526814   0.03612348           35 
 4587000   0.52204007    -4.559077    2062.6741  0.037473186  0.036114532           23 
 4588000   0.50649202   -4.5586428    2065.7781  0.037521398  0.036105588            7 
 4589000   0.53062537   -4.5643264     2068.433  0.037561433  0.036096627           17 
 4590000   0.51601656   -4.5690458    2067.2857  0.037532419  0.036087658           13 
 4591000    0.5252548   -4.5628268    2064.4621  0.037472993  0.036078708           23 
 4592000   0.51434442    -4.571681    2067.5414  0.037520714  0.036069766           33 
 4593000   0.50552986   -4.5574204    2067.2936  0.037508049  0.036060808           19 
 4594000   0.51765984   -4.5426165    2067.7953  0.037508984  0.036051892           22 
 4595000   0.51645128   -4.5598247    2065.1845  0.037453472  0.036042953            7 
 4596000   0.50714017   -4.5581462    2072.0491  0.037569791  0.036034014           10 
 4597000   0.51901038   -4.5564531    2068.6825   0.03750059   0.03602508           28 
 4598000   0.52459647   -4.5712212    2064.9037  0.037423946  0.036016145           27 
 4599000   0.50749558   -4.5613601    2060.4416  0.037334956  0.036007207           23 
 4600000   0.53346283   -4.5771274    2062.8741  0.037370908  0.035998246           30 
 4601000   0.51628816   -4.5747094    2068.9319  0.037472503  0.035989284            9 
 4602000   0.50792427   -4.5651871      2062.07  0.037340106  0.035980326           31 
 4603000   0.50944879   -4.5698467     2064.408   0.03737432  0.035971364           21 
 4604000   0.51282496   -4.5716781    2065.6956   0.03738951  0.035962445           12 
 4605000   0.52080506   -4.5801524    2060.9844  0.037296135   0.03595351           18 
 4606000    0.5224668    -4.570258     2068.274  0.037419924  0.035944596           13 
 4607000   0.51368951   -4.5552798    2066.1233  0.037372899  0.035935696           12 
 4608000   0.51058903   -4.5544576    2066.2997  0.037367978  0.035926769           23 
 4609000   0.52265558   -4.5651163    2070.4406   0.03743474   0.03591784           29 
 4610000   0.52302983   -4.5528532    2063.7124  0.037304996  0.035908933           24 
 4611000   0.51434621   -4.5638341    2066.8933  0.037354393  0.035900016           36 
 4612000    0.5147439   -4.5702771    2071.6883  0.037432934   0.03589112           52 
 4613000   0.50770608   -4.5709023    2065.8654   0.03731963  0.035882238           24 
 4614000   0.50183956   -4.5910776    2061.2167   0.03722758  0.035873303           27 
 4615000    0.5222397   -4.5655552    2067.2847  0.037329085  0.035864374           17 
 4616000   0.51211558   -4.5736527    2067.3911  0.037322918   0.03585548           20 
 4617000   0.52603092   -4.5778115    2063.9565  0.037252843  0.035846565           23 
 4618000   0.50949385   -4.5644591    2065.7562  0.037277252  0.035837658           11 
 4619000   0.51440265   -4.5677371    2067.9696  0.037309114  0.035828751           27 
 4620000   0.51607001   -4.5839675      2062.73  0.037206529  0.035819844           25 
 4621000   0.50892223   -4.5686163    2066.4346  0.037265286  0.035810951           18 
 4622000   0.51475562   -4.5754888    2069.7661  0.037317289  0.035802047           30 
 4623000   0.51090362   -4.5903803    2066.3628   0.03724787  0.035793177           40 
 4624000   0.51306885   -4.5851748     2065.338  0.037221345  0.035784343           50 
 4625000   0.51563567   -4.5681086     2071.012  0.037315532   0.03577546           13 
 4626000   0.51146812   -4.5915981    2065.2044  0.037202846  0.035766595           15 
 4627000   0.51730514   -4.5876708     2072.304  0.037322671   0.03575772           33 
 4628000   0.52115051   -4.5620664    2066.4698  0.037209554  0.035748842           17 
 4629000   0.49833375   -4.5700327    2067.2966  0.037216399  0.035739956            8 
 4630000    0.5055731   -4.5778915    2067.9168  0.037219524  0.035731088            8 
 4631000   0.50773062   -4.5777109    2063.8767  0.037138788  0.035722224           11 
 4632000   0.50175978   -4.5822907    2067.2904  0.037192185  0.035713354           23 
 4633000   0.51443216   -4.5784538    2062.3246  0.037094839  0.035704467           13 
 4634000   0.51715339   -4.5877594    2069.2091  0.037210637  0.035695579           10 
 4635000   0.51146792   -4.6087792    2063.8887  0.037106953  0.035686702           18 
 4636000   0.50682631   -4.5899601    2066.6571  0.037148711  0.035677804            9 
 4637000   0.50614244   -4.5859047     2066.974  0.037146395  0.035668959           15 
 4638000    0.5247153    -4.583074    2068.1174   0.03715893  0.035660117           15 
 4639000   0.50638503   -4.5834879    2067.4635  0.037139172  0.035651279            8 
 4640000   0.50941754   -4.5925987    2068.9102  0.037157151  0.035642451           21 
 4641000   0.51732775   -4.5867467    2065.5376  0.037088587    0.0356336           45 
 4642000   0.50116521    -4.598151    2065.0776   0.03707234  0.035624734           33 
 4643000   0.50285707   -4.6004327    2060.4579   0.03698144  0.035615868           10 
 4644000   0.49725669   -4.6001712    2067.0906  0.037092496   0.03560701           28 
 4645000   0.49846111   -4.5903349    2065.2734  0.037051909  0.035598153           17 
 4646000   0.50576178    -4.585827    2062.8965  0.037001301  0.035589312           11 
 4647000   0.50033204   -4.5972672    2067.9473  0.037083913  0.035580473            9 
 4648000    0.5126263   -4.5978745     2064.377  0.037011924  0.035571608           17 
 4649000   0.50387761   -4.5883514    2070.1248   0.03710699  0.035562739            9 
 4650000   0.50022986    -4.582937    2073.0248  0.037150982  0.035553859           10 
 4651000     0.512448   -4.6018559    2068.5581  0.037062963  0.035545017           14 
 4652000   0.50239347   -4.5923455     2070.053  0.037081775  0.035536172           16 
 4653000   0.49848543   -4.5846802    2063.3243  0.036953298  0.035527325           15 
 4654000   0.49943348   -4.5892064     2070.066  0.037066071  0.035518484           23 
 4655000   0.49498907   -4.5804191    2067.5086  0.037012327  0.035509659           24 
 4656000   0.50323752   -4.5992929    2068.1073  0.037015094  0.035500784           66 
 4657000   0.50243945    -4.597872    2064.9192  0.036950096  0.035491932           59 
 4658000   0.50173907    -4.599211    2065.5081  0.036952699   0.03548308           24 
 4659000   0.50769222   -4.6029443    2059.5307  0.036837853  0.035474254           33 
 4660000   0.50730218   -4.6090948    2067.5349  0.036973086  0.035465423           30 
 4661000   0.50069709   -4.6017716     2064.146  0.036904563  0.035456601           42 
 4662000   0.49684857   -4.6006174    2064.7979    0.0369083  0.035447774           18 
 4663000   0.50574868    -4.598719    2066.7013    0.0369344  0.035438925           40 
 4664000   0.51244428   -4.5967415    2060.6824  0.036818939  0.035430089           54 
 4665000    0.5028045   -4.6083192    2069.7498  0.036973023  0.035421267           11 
 4666000   0.50834232   -4.5873244    2070.2392  0.036973839  0.035412481           24 
 4667000   0.51045326   -4.5937591    2070.0712  0.036962918  0.035403688           17 
 4668000   0.50357214   -4.6095261     2065.609  0.036875339  0.035394904            9 
 4669000   0.51042186   -4.5933969     2065.387   0.03686348  0.035386135           20 
 4670000   0.51626932   -4.5943088    2067.3652  0.036890884  0.035377344           33 
 4671000   0.50831524   -4.5841053     2063.233  0.036809267  0.035368512           14 
 4672000   0.49323565    -4.615809    2065.8154  0.036847449  0.035359672           27 
 4673000   0.50459511   -4.5773115    2064.9505   0.03682414  0.035350887           18 
 4674000   0.50948878   -4.5780904    2067.1027  0.036854634  0.035342099           24 
 4675000   0.49198928   -4.6132472    2068.8009  0.036877022  0.035333316           14 
 4676000   0.49800072   -4.6037185    2067.0369  0.036837697  0.035324506           15 
 4677000   0.50713007   -4.6004612    2064.4543  0.036783805  0.035315722           21 
 4678000   0.50198354   -4.5974951    2066.1541  0.036806222  0.035306942           27 
 4679000   0.50458375   -4.5874303    2070.5723  0.036877044  0.035298151           33 
 4680000   0.50417761   -4.5872641    2066.5183  0.036796979  0.035289362           16 
 4681000   0.50704853    -4.611902     2068.226  0.036819519   0.03528057           34 
 4682000   0.50799162   -4.5681573    2069.7251  0.036838337  0.035271792           14 
 4683000   0.50537139   -4.6010677    2066.8943  0.036780096  0.035263033           13 
 4684000   0.50875305   -4.6066756     2068.284  0.036796969  0.035254287           10 
 4685000   0.48841026   -4.5941737    2065.9091   0.03674687  0.035245525           61 
 4686000   0.49996653     -4.58762    2071.0791  0.036830971  0.035236775           15 
 4687000   0.51147018   -4.5962705    2064.5175   0.03670645   0.03522801           17 
 4688000   0.51839224   -4.5833122     2070.219  0.036799968  0.035219271           20 
 4689000   0.51004477   -4.5954199    2069.2618  0.036775108  0.035210529           34 
 4690000   0.50572224   -4.5976466    2071.7452  0.036811394  0.035201783           18 
 4691000   0.49161133    -4.586042    2069.0892  0.036756363  0.035193043           26 
 4692000   0.49825865    -4.581369    2064.2853  0.036663209   0.03518427           37 
 4693000   0.49343351   -4.6029998    2063.7235  0.036645421  0.035175509           27 
 4694000   0.50132668   -4.5946138    2067.6372  0.036707094  0.035166753           29 
 4695000   0.50299727    -4.609441    2067.3562  0.036694289  0.035157995           16 
 4696000   0.50411185   -4.5981486    2069.5022  0.036724556  0.035149251            8 
 4697000   0.50177632   -4.5978416    2068.8276  0.036704769  0.035140517           26 
 4698000   0.50892105   -4.6006229    2069.2164  0.036703853  0.035131782           18 
 4699000   0.50622264   -4.5890822    2067.4288   0.03666434  0.035123065           17 
 4700000   0.48118864   -4.5995451     2064.573  0.036605904  0.035114333           19 
 4701000   0.49838658    -4.610137    2065.3506  0.036611902   0.03510557           33 
 4702000   0.50311169   -4.6056019    2067.2115  0.036637096  0.035096786           45 
 4703000   0.51295706   -4.5942819    2069.6374   0.03667229  0.035088021           39 
 4704000   0.50897697   -4.6102143    2069.9248  0.036669586  0.035079265           20 
 4705000   0.49250332   -4.6017545    2067.7344  0.036622996  0.035070519           46 
 4706000   0.49783107    -4.607403    2068.7612  0.036633397  0.035061765           11 
 4707000   0.50236412   -4.6287761    2063.1495  0.036526264  0.035052991           20 
 4708000   0.49485091   -4.5879491    2064.7827  0.036547413   0.03504421           18 
 4709000   0.48839148   -4.6022131    2070.8226  0.036646539  0.035035474            8 
 4710000   0.49577899   -4.6051017    2069.1656   0.03660944  0.035026751           41 
 4711000   0.49650357   -4.5917258    2069.3336  0.036604642  0.035018071           16 
 4712000   0.49351684   -4.5967391    2064.9185   0.03651879  0.035009362           23 
 4713000   0.50000583   -4.5930248    2066.8307  0.036544852  0.035000627           18 
 4714000   0.49922151   -4.5999827    2068.6359  0.036569013  0.034991902            9 
 4715000   0.49614839   -4.6008639    2066.6702  0.036526515  0.034983201           47 
 4716000   0.49850537   -4.6109016    2064.8153  0.036485992  0.034974479           23 
 4717000   0.50630715   -4.6084259    2068.7873   0.03654843  0.034965763           22 
 4718000   0.49532579   -4.6026359    2064.6026  0.036466768  0.034957039           15 
 4719000   0.49197302    -4.632373    2062.6703  0.036424918  0.034948302           15 
 4720000    0.4995423   -4.6152243    2063.8032  0.036437203  0.034939539           22 
 4721000   0.49114461   -4.6033727    2066.7919  0.036482241  0.034930801           24 
 4722000    0.4949579   -4.6129941    2065.7411   0.03645597  0.034922074           11 
 4723000   0.49142316   -4.5982985    2068.6595  0.036499743  0.034913334           22 
 4724000   0.50051665   -4.6173846    2067.8405   0.03647757  0.034904599           29 
 4725000   0.51028481   -4.6061709    2066.7014  0.036449759   0.03489588           26 
 4726000   0.50451998   -4.5971261    2074.2107  0.036574458  0.034887191           18 
 4727000   0.49274038   -4.6005124    2066.3362    0.0364279  0.034878514           22 
 4728000   0.49939125   -4.6267122    2059.1222  0.036293044  0.034869787           17 
 4729000   0.49380207   -4.6198173    2063.7258  0.036366494  0.034861048           12 
 4730000   0.49125118   -4.6091452    2066.0252  0.036399317  0.034852313           23 
 4731000    0.5012188   -4.5952449    2065.5792  0.036383767  0.034843584           26 
 4732000   0.49754338   -4.6042122    2065.2043  0.036369475  0.034834836           28 
 4733000   0.49903938   -4.6167782     2068.964  0.036427988   0.03482612           20 
 4734000   0.49426648   -4.6099332    2067.0637  0.036386842  0.034817412           24 
 4735000   0.48619713   -4.6187043    2065.9644   0.03635981  0.034808682           42 
 4736000   0.48807609   -4.6010531     2060.908  0.036263162  0.034799962           34 
 4737000   0.48810561   -4.6052711    2069.5562  0.036407646  0.034791269           31 
 4738000   0.49712845    -4.615436    2065.4029  0.036326912  0.034782564           36 
 4739000   0.49835818   -4.5943759    2068.4987  0.036373685  0.034773878           34 
 4740000   0.49154197   -4.6088229    2063.2458  0.036273661  0.034765213           39 
 4741000   0.49346002   -4.6203504    2066.9323  0.036330807  0.034756532           16 
 4742000   0.48651405   -4.6119351     2065.925  0.036305445  0.034747875           28 
 4743000   0.49592507   -4.6220423    2063.5588  0.036256216  0.034739191           23 
 4744000   0.48713656   -4.6076711    2064.6046  0.036266943  0.034730506           31 
 4745000   0.49092136   -4.6203751    2066.5941  0.036294241  0.034721798           26 
 4746000   0.49329064   -4.6060518    2065.6376  0.036269799  0.034713111           42 
 4747000   0.49787768   -4.6212129    2062.5355  0.036207702  0.034704396           12 
 4748000   0.49195973   -4.6251896    2066.6289   0.03627192  0.034695685           26 
 4749000   0.50282805   -4.6075706    2068.2773  0.036293208  0.034686996           13 
 4750000   0.49637216    -4.602105    2067.3607  0.036269486  0.034678306            7 
 4751000   0.49682903   -4.6085988    2069.1444  0.036293138  0.034669665           14 
 4752000   0.48005266   -4.6317709    2067.7961  0.036261857  0.034660989           16 
 4753000   0.49495686   -4.6405875    2062.0522  0.036153521    0.0346523           17 
 4754000   0.48694005   -4.6225166    2066.5264  0.036224345  0.034643635           16 
 4755000   0.49202681   -4.6164129    2066.6653   0.03621916   0.03463497           23 
 4756000   0.50360016   -4.6078286    2066.4933  0.036208532  0.034626323           22 
 4757000   0.48913513   -4.6166221    2067.1119  0.036211756    0.0346177           17 
 4758000   0.48675792     -4.61965    2061.6408  0.036108322  0.034609047           15 
 4759000   0.49397651   -4.6192824    2065.9863  0.036176828  0.034600398           16 
 4760000   0.49404372   -4.6158967    2065.8442   0.03616674  0.034591748           23 
 4761000    0.4907176   -4.6166313    2069.8866  0.036229899  0.034583136           29 
 4762000   0.49690504   -4.6461737    2069.5529  0.036216452  0.034574478           12 
 4763000   0.48474731   -4.6152881    2069.3971  0.036206122  0.034565847           15 
 4764000   0.48916103   -4.6274443    2068.2775  0.036178938  0.034557189           21 
 4765000   0.49023213   -4.6357806    2065.4796  0.036122414  0.034548542           20 
 4766000   0.48710543   -4.6213745    2064.6965  0.036101142  0.034539887           12 
 4767000   0.49363911   -4.6177987    2067.2953  0.036138999  0.034531253           14 
 4768000   0.49113161   -4.6305099    2071.7951  0.036210066  0.034522632           24 
 4769000   0.48790217    -4.607473    2060.9774  0.036013445  0.034514009           23 
 4770000   0.49068701   -4.6315802    2067.5958   0.03612152  0.034505375           14 
 4771000   0.47223213   -4.6198146    2070.4238  0.036163344  0.034496757           13 
 4772000   0.47363496   -4.6308939    2067.0161  0.036096258  0.034488156           10 
 4773000   0.49453302   -4.6260679    2070.7832  0.036154465  0.034479579           45 
 4774000   0.48077587   -4.6280484    2064.7933  0.036042336  0.034470971           23 
 4775000    0.4881111   -4.6357844    2065.0767  0.036039733   0.03446237           17 
 4776000   0.48792367   -4.6195903    2068.3661  0.036089582  0.034453776           32 
 4777000   0.49658359    -4.620746    2069.2917  0.036098173  0.034445185           12 
 4778000    0.4880912   -4.6324734     2063.833  0.035995413  0.034436576           26 
 4779000   0.48000965   -4.6468519    2065.5647  0.036018077   0.03442794           25 
 4780000   0.49008861   -4.6345608    2069.4814  0.036078825  0.034419324           10 
 4781000   0.48541139   -4.6262455    2067.0221  0.036028412  0.034410732           13 
 4782000   0.48223583   -4.6328459    2065.8987  0.036001301  0.034402136           31 
 4783000   0.48505956   -4.6204334    2067.2845  0.036017919  0.034393544           17 
 4784000   0.47910229   -4.6380996    2063.7655  0.035949092  0.034384949           30 
 4785000   0.49815911   -4.6195533    2074.6227  0.036130663  0.034376347           28 
 4786000   0.48494961   -4.6403741    2065.4552   0.03596349  0.034367724           16 
 4787000   0.48751492   -4.6289561    2068.0899  0.036001843  0.034359101           27 
 4788000   0.48368527   -4.6251042    2066.9819  0.035975041  0.034350497           27 
 4789000   0.48943031   -4.6383363    2063.8976  0.035913858  0.034341898           50 
 4790000   0.48749828    -4.640641    2067.1389  0.035962751  0.034333298           61 
 4791000   0.48638834   -4.6292307    2061.5807  0.035858567  0.034324698           31 
 4792000   0.47995471   -4.6315158    2066.6921  0.035939971  0.034316105           25 
 4793000   0.49119745   -4.6373793    2070.4229  0.035997338  0.034307533           23 
 4794000   0.48469757   -4.6173184    2066.5558  0.035922609  0.034298975           30 
 4795000   0.48383888   -4.6241366     2063.159  0.035856082  0.034290422           38 
 4796000   0.47970303     -4.61842    2068.1943  0.035936097  0.034281862           29 
 4797000   0.46929484   -4.6450801    2063.3244  0.035844006  0.034273297           21 
 4798000   0.48019326   -4.6211844    2071.9626  0.035986568  0.034264706           22 
 4799000   0.48792248   -4.6413003    2070.0935  0.035946613  0.034256141           16 
 4800000   0.48345375   -4.6243039    2066.4495  0.035875859  0.034247561           30 
 4801000    0.4806496     -4.64007    2069.6564   0.03592405  0.034238999           32 
 4802000   0.48404018   -4.6265437    2065.3372  0.035841615  0.034230419           20 
 4803000   0.47863156   -4.6261556    2062.8914  0.035791717  0.034221844           38 
 4804000   0.48005595    -4.634762      2065.51   0.03582969  0.034213275           44 
 4805000   0.48553419   -4.6238755    2065.7074  0.035825658  0.034204725           89 
 4806000   0.48492805   -4.6304312    2069.6722   0.03588695  0.034196159          103 
 4807000   0.48474998    -4.642947    2066.9376  0.035832078  0.034187592           69 
 4808000   0.47977014   -4.6422084    2068.5647  0.035852827  0.034179045          126 
 4809000   0.47956653    -4.627169    2063.7674  0.035762242  0.034170495          107 
 4810000   0.48503353   -4.6413276    2066.8381  0.035808006  0.034161907           59 
 4811000   0.49750582   -4.6529014    2060.7967  0.035695917  0.034153306           87 
 4812000    0.4868104   -4.6521075    2064.1892   0.03574725  0.034144717           64 
 4813000   0.47885023   -4.6430289    2068.3992  0.035812716  0.034136153           16 
 4814000   0.48762655   -4.6396326    2064.8566  0.035743952  0.034127589           40 
 4815000   0.47537214   -4.6349947      2064.92  0.035737625  0.034119006           26 
 4816000   0.48494818   -4.6328341    2067.7979  0.035780002  0.034110428           67 
 4817000   0.49157821    -4.636624    2071.5076  0.035836751  0.034101879           25 
 4818000   0.48624093   -4.6450074    2069.6783  0.035797674  0.034093347           16 
 4819000   0.48514651   -4.6323803    2065.5625  0.035719071  0.034084796           40 
 4820000   0.48351633   -4.6492159    2069.1617  0.035773889   0.03407623           10 
 4821000   0.47997496   -4.6348581    2063.2579  0.035664418    0.0340677           34 
 4822000   0.47036028   -4.6419799    2066.7633  0.035717601  0.034059164           20 
 4823000   0.47777172   -4.6549283    2065.1088  0.035681609  0.034050626           40 
 4824000   0.48697519   -4.6384022    2068.0421  0.035724884  0.034042117           23 
 4825000   0.47325455   -4.6506657    2067.4112  0.035706583  0.034033623           22 
 4826000   0.47780836   -4.6319737    2066.1557  0.035677506  0.034025129           36 
 4827000   0.47886274   -4.6427776    2069.7186  0.035731624  0.034016605           30 
 4828000   0.47538017    -4.627769    2072.1119  0.035765532  0.034008126           36 
 4829000   0.48266527   -4.6315048      2072.19  0.035759474  0.033999635           26 
 4830000    0.4818544   -4.6398409    2071.6309  0.035742423  0.033991134           43 
 4831000   0.47320105   -4.6403071    2063.5841  0.035596221  0.033982607           70 
 4832000   0.47253186   -4.6353044    2067.6314  0.035658655  0.033974096           65 
 4833000   0.48640344   -4.6409182    2064.9503  0.035605047  0.033965572           53 
 4834000    0.4758442   -4.6369681    2064.8626   0.03559617  0.033957054           61 
 4835000   0.48575305   -4.6441728    2061.8763  0.035537337  0.033948559           45 
 4836000   0.46647739   -4.6508291    2065.1911   0.03558711  0.033940034           53 
 4837000   0.47075264   -4.6433865    2068.5997  0.035638475  0.033931521           28 
 4838000   0.47898639   -4.6409297    2067.1247  0.035605703  0.033923028           62 
 4839000   0.47878354   -4.6298649    2068.6792  0.035625116  0.033914539           29 
 4840000   0.47372002   -4.6321848    2070.3238  0.035646071  0.033906047           38 
 4841000   0.48242464   -4.6506372    2068.4209  0.035605951  0.033897571           23 
 4842000   0.47308749   -4.6449878    2066.8714  0.035571929  0.033889057           40 
 4843000    0.4739244   -4.6416371    2066.9913  0.035566647  0.033880558           25 
 4844000   0.47981781    -4.635545    2063.2811  0.035495477   0.03387207           41 
 4845000    0.4830125   -4.6424262    2065.5091  0.035526472  0.033863572           19 
 4846000    0.4672488   -4.6564238     2069.952  0.035595543  0.033855101           43 
 4847000   0.46558811   -4.6474503    2065.3205  0.035508571  0.033846648           53 
 4848000    0.4820132   -4.6403145    2066.0077  0.035513059  0.033838166           23 
 4849000   0.47811334   -4.6438808    2067.0826  0.035524208  0.033829707           25 
 4850000   0.48132412   -4.6446073    2066.5448  0.035507642  0.033821214           30 
 4851000   0.46900313   -4.6578982    2065.0934   0.03547539  0.033812713           29 
 4852000   0.47625529   -4.6467619    2068.5973  0.035528258  0.033804214           12 
 4853000     0.472956   -4.6474349    2071.8743  0.035577208  0.033795714           20 
 4854000   0.48206641   -4.6486843    2067.0264   0.03548665  0.033787223           17 
 4855000   0.48045533   -4.6513415    2066.8434  0.035476199  0.033778754           12 
 4856000   0.48560326    -4.634446    2066.7431  0.035467173  0.033770273           13 
 4857000   0.48671773   -4.6529424    2067.7092  0.035476447  0.033761806           11 
 4858000   0.49247211   -4.6484292    2074.2101  0.035580659  0.033753358           12 
 4859000   0.47760106   -4.6510361    2067.5499  0.035459111  0.033744884           50 
 4860000    0.4708613   -4.6597105    2063.1112  0.035375707  0.033736403           26 
 4861000   0.47674431   -4.6500473    2066.0946  0.035419574  0.033727915           29 
 4862000   0.47610788   -4.6406829    2067.4907  0.035436218  0.033719426           26 
 4863000   0.46451644   -4.6558329    2066.2274  0.035407282   0.03371095           24 
 4864000   0.46518692   -4.6472207    2069.0759  0.035448806  0.033702479           28 
 4865000   0.47228326   -4.6523286    2066.5452  0.035398171  0.033693986           20 
 4866000   0.48164325   -4.6478793    2065.0165  0.035364716  0.033685517           19 
 4867000   0.46687715    -4.653047    2064.4937  0.035348498   0.03367703           46 
 4868000   0.46768122   -4.6468888     2064.318   0.03533823  0.033668519           34 
 4869000   0.46903193    -4.645899    2063.6122  0.035318891  0.033660034           33 
 4870000   0.47933694   -4.6556559    2065.6184  0.035345968  0.033651545           40 
 4871000   0.47256812    -4.659831    2065.4106  0.035335157  0.033643053           33 
 4872000   0.47270761   -4.6740506    2064.4244  0.035311035   0.03363455           51 
 4873000   0.46379407   -4.6619119     2060.838  0.035242459  0.033626018           35 
 4874000    0.4660737    -4.663928    2066.6795  0.035335103  0.033617514           24 
 4875000   0.46981389   -4.6643555    2064.2676  0.035286626  0.033609009           44 
 4876000   0.47238065   -4.6342317    2065.1158  0.035293885  0.033600544           22 
 4877000    0.4738475    -4.648616    2069.3295  0.035358648    0.0335921           51 
 4878000   0.46207693   -4.6678949    2061.7313  0.035221595  0.033583653           68 
 4879000   0.46394997   -4.6714786    2067.8812  0.035319416  0.033575205           63 
 4880000    0.4678609   -4.6501905    2063.8872  0.035243976  0.033566758           20 
 4881000   0.47182571   -4.6524309    2065.0563  0.035256715   0.03355831           34 
 4882000   0.46493389    -4.665079    2062.8953  0.035212605  0.033549866           30 
 4883000   0.47580892   -4.6689304    2063.5827  0.035217126    0.0335414           39 
 4884000   0.46022242   -4.6822553    2066.6298  0.035261906  0.033532964           46 
 4885000   0.46099242   -4.6615797    2064.4086  0.035216796  0.033524547           78 
 4886000   0.46854065   -4.6707885    2065.7875  0.035233107  0.033516096           30 
 4887000    0.4731152   -4.6588886    2063.0599  0.035179386  0.033507658           23 
 4888000   0.46740357   -4.6654791    2069.3591   0.03527958  0.033499224           20 
 4889000   0.47268454   -4.6718749    2062.8155  0.035160829  0.033490791           62 
 4890000    0.4656024   -4.6793403    2063.7566  0.035169677  0.033482351           37 
 4891000    0.4662896   -4.6641996    2065.2643  0.035188174  0.033473888           19 
 4892000   0.47198999   -4.6586454    2067.4167  0.035217647  0.033465421           27 
 4893000   0.47298342   -4.6753759    2064.4836  0.035160494  0.033456975           32 
 4894000   0.46812782   -4.6704804    2064.8792  0.035160046  0.033448554           58 
 4895000   0.47656278   -4.6675162    2064.4074  0.035144831  0.033440139           33 
 4896000   0.46444892   -4.6644014    2066.7655   0.03517779  0.033431728           20 
 4897000   0.47635279   -4.6684468    2066.4941  0.035165987  0.033423303           32 
 4898000    0.4560188   -4.6745214    2064.8594  0.035130996   0.03341482           24 
 4899000   0.47422181   -4.6655284    2066.4177  0.035150331  0.033406352           22 
 4900000    0.4773177    -4.668396    2064.5737  0.035111797  0.033397882           19 
 4901000   0.47161419   -4.6832254    2062.6643  0.035072168  0.033389423           23 
 4902000   0.46414156   -4.6755847    2061.4855  0.035044973  0.033380953           36 
 4903000   0.46211273   -4.6671555    2059.2518  0.034999861  0.033372475           32 
 4904000   0.46290626   -4.6757778    2062.0707  0.035040624  0.033364003           35 
 4905000   0.46213299    -4.680128    2060.2483   0.03500252  0.033355541           32 
 4906000   0.47250708   -4.6824272    2060.0392  0.034991834  0.033347083           38 
 4907000    0.4673443   -4.6709265    2063.2689  0.035039551  0.033338623           16 
 4908000   0.47721337   -4.6580658    2063.8812  0.035042808  0.033330164           16 
 4909000   0.47086711   -4.6562829    2057.6026  0.034929086   0.03332172           18 
 4910000   0.46290814   -4.6814626     2064.412  0.035037542  0.033313285           25 
 4911000   0.47614398   -4.6842603    2065.9387  0.035056314  0.033304854           24 
 4912000   0.46915147   -4.6586534    2061.9285  0.034981143  0.033296419           19 
 4913000   0.45939628   -4.6792691    2065.9991  0.035043068   0.03328799           33 
 4914000   0.46394773   -4.6609074    2063.2678  0.034989618  0.033279529           33 
 4915000   0.46711016   -4.6811276    2061.6241   0.03495463  0.033271083           24 
 4916000   0.46538868   -4.6773839    2068.2247  0.035059409  0.033262648           23 
 4917000   0.47236428   -4.6686806    2066.4425  0.035022075  0.033254248           33 
 4918000   0.46346956   -4.6785189    2067.7556  0.035037204  0.033245827           17 
 4919000   0.47020312    -4.664138    2061.2727  0.034920253  0.033237429           33 
 4920000   0.46309582   -4.6814271    2064.4425  0.034966844  0.033229019           39 
 4921000   0.46376152   -4.6741325    2065.6715  0.034980551  0.033220636           47 
 4922000   0.47392786   -4.6757081    2062.0031  0.034911335  0.033212216           41 
 4923000   0.47295454   -4.6865002    2062.8864  0.034919195  0.033203805           40 
 4924000   0.46972205   -4.6769709    2059.7348  0.034858767  0.033195371           18 
 4925000    0.4548746   -4.6799352    2062.7306  0.034902379  0.033186934           24 
 4926000   0.46304322   -4.6715328    2069.2892  0.035006246  0.033178523           16 
 4927000   0.45157761   -4.6702085    2066.2174  0.034947185  0.033170134           55 
 4928000   0.46312499   -4.6737336    2064.7845  0.034915864  0.033161744           70 
 4929000   0.46486114   -4.6975608    2067.3806  0.034952671   0.03315335           33 
 4930000   0.45951005   -4.6803904    2060.3597  0.034826905  0.033144927           50 
 4931000    0.4695088   -4.6735711    2063.9261  0.034880114  0.033136548           17 
 4932000   0.46495977   -4.6852211    2060.5466   0.03481594  0.033128155           60 
 4933000   0.46330052   -4.6780644     2064.171   0.03487011  0.033119776           65 
 4934000   0.46307584    -4.674304    2066.3531  0.034899897   0.03311137           44 
 4935000   0.45662158   -4.6691822    2063.8192  0.034850037  0.033102974           32 
 4936000   0.46455441   -4.6822052    2063.0069  0.034829262  0.033094587           28 
 4937000   0.47247916   -4.6767725     2064.556  0.034848357  0.033086188           21 
 4938000   0.46015226   -4.6801306    2062.7856  0.034811422  0.033077786           44 
 4939000   0.46144549   -4.7027451    2064.8569  0.034839322  0.033069402           32 
 4940000    0.4699314   -4.6702271    2061.8455   0.03478147  0.033061001           26 
 4941000   0.46167028   -4.6871284    2058.9457  0.034725522  0.033052603           50 
 4942000   0.46732093   -4.6835329    2061.4187  0.034760196  0.033044206           29 
 4943000   0.45558789   -4.6792754    2066.8126  0.034844099  0.033035826           36 
 4944000    0.4648261   -4.6927626    2061.0163  0.034739353  0.033027465           26 
 4945000   0.45177317   -4.6773219    2062.3108  0.034754143  0.033019098           51 
 4946000   0.45532686   -4.6756185    2064.8187   0.03478937  0.033010748           30 
 4947000   0.45810882   -4.6765265    2065.9046   0.03480063  0.033002391           26 
 4948000   0.46071455   -4.7025036    2065.5119  0.034786984  0.032994023           56 
 4949000   0.45178331   -4.7040467     2064.438   0.03476187  0.032985632           49 
 4950000   0.47136672   -4.6564652    2064.7848  0.034760687  0.032977255           59 
 4951000   0.47082615   -4.6589682    2067.6391  0.034801708    0.0329689           53 
 4952000   0.45207349   -4.6990199    2060.4526  0.034673744  0.032960516           45 
 4953000   0.45228116   -4.6798767    2061.6808  0.034687408  0.032952115          103 
 4954000   0.44677903    -4.689299    2065.2615  0.034740639  0.032943728           62 
 4955000   0.45501804   -4.6901896    2060.3458  0.034650956  0.032935354           73 
 4956000   0.46223982   -4.6911885    2061.6498  0.034665889  0.032926978           68 
 4957000   0.44750454   -4.6944569    2061.1923  0.034651205  0.032918596           47 
 4958000   0.45848938   -4.6824055    2057.5675  0.034583292  0.032910231           34 
 4959000   0.45486754   -4.7028079    2060.3938  0.034623812   0.03290185           78 
 4960000   0.45344336   -4.6938212    2060.6036  0.034620357  0.032893472           98 
 4961000   0.46021293   -4.6764234    2059.4026  0.034593203  0.032885104           83 
 4962000   0.46247981   -4.7022248    2057.0292  0.034546373  0.032876751          121 
 4963000   0.44912268   -4.6967785    2061.4274  0.034613262  0.032868386           99 
 4964000    0.4531438   -4.6758461    2063.2513  0.034636908  0.032860027           64 
 4965000   0.45612202   -4.6821277    2062.2997  0.034613959  0.032851668          107 
 4966000   0.44470947    -4.685884     2064.955  0.034651548    0.0328433          102 
 4967000   0.45220744   -4.6838314    2061.3004  0.034583256  0.032834944          120 
 4968000   0.45818498   -4.7060225    2062.8595  0.034602447  0.032826593          108 
 4969000   0.45961626   -4.6836941    2062.7791  0.034594136  0.032818247          135 
 4970000   0.45653109   -4.6949571    2067.3306  0.034663491  0.032809912           85 
 4971000   0.46198051   -4.6892486    2061.9905  0.034566997  0.032801569           67 
 4972000    0.4519573   -4.6962185    2062.8435  0.034574342  0.032793224           77 
 4973000   0.45750134    -4.696491    2065.2158  0.034607142  0.032784921           30 
 4974000   0.45043581   -4.6907034     2059.876  0.034510722   0.03277659           91 
 4975000   0.45229745   -4.6910166    2065.2145  0.034593208  0.032768246           41 
 4976000   0.45161313   -4.7024645    2061.0676  0.034516808  0.032759895           64 
 4977000   0.45017781    -4.704365    2065.2839  0.034580468  0.032751552           54 
 4978000   0.45998875    -4.700144    2058.6713  0.034462826  0.032743191           52 
 4979000   0.45445352   -4.7114429    2058.3883  0.034451166  0.032734832           76 
 4980000   0.45571333   -4.7194155    2061.3645  0.034494052  0.032726472          108 
 4981000    0.4582092     -4.70567    2060.9098   0.03447952  0.032718135           60 
 4982000   0.45168786   -4.6972419    2061.6146  0.034484387  0.032709792           57 
 4983000   0.44953049   -4.7191783    2063.1598  0.034503308  0.032701446           70 
 4984000   0.46421902   -4.7060443    2060.1531  0.034446112   0.03269311           51 
 4985000   0.45731635   -4.7207744    2054.7893  0.034349537   0.03268475           50 
 4986000   0.45045607   -4.7115559    2059.9441  0.034428802  0.032676398           55 
 4987000   0.45094117   -4.6896089    2062.9937  0.034472857  0.032668044           61 
 4988000    0.4618924   -4.7137431     2059.791   0.03441244  0.032659676           48 
 4989000    0.4608389   -4.7250696    2061.6885  0.034437238  0.032651312          230 
 4990000   0.45528297    -4.722129    2060.2403  0.034406151  0.032642954           74 
 4991000   0.46465052   -4.7082981    2060.3762  0.034401526  0.032634591           69 
 4992000   0.45948449   -4.6992453    2059.0579  0.034372629  0.032626247          106 
 4993000   0.46057372   -4.7157422    2060.8424  0.034395527  0.032617883          111 
 4994000    0.4588908   -4.7128503    2055.9254  0.034306591  0.032609519          119 
 4995000   0.45477648   -4.7170074    2059.4782  0.034358996  0.032601174          140 
 4996000   0.45408171   -4.7132137    2061.2445   0.03438158  0.032592831           70 
 4997000      0.44532   -4.7139448    2054.3586  0.034259866  0.032584473           75 
 4998000   0.45282589   -4.7066061    2054.9721   0.03426324  0.032576129           77 
 4999000   0.44490205    -4.708163    2061.5331  0.034365759  0.032567782           56 
 5000000   0.46041567   -4.7252004    2060.4355  0.034340592  0.032559444           79 
 5001000   0.44745634   -4.7168688    2059.7392  0.034322122  0.032551121           71 
 5002000   0.45240392   -4.7065142    2058.3763  0.034292554  0.032542795           32 
 5003000   0.45854933    -4.695219    2060.9002   0.03432774   0.03253447           59 
 5004000    0.4584652   -4.7173699    2060.3501  0.034311719  0.032526148          109 
 5005000   0.44523382   -4.7050411    2060.5972  0.034308978  0.032517808           80 
 5006000   0.45345703   -4.7184763    2061.3773  0.034315111  0.032509511           52 
 5007000   0.45506558   -4.7029467     2058.656  0.034262966  0.032501172           36 
 5008000   0.44694567   -4.7050725    2061.1879  0.034298255  0.032492851           38 
 5009000   0.44350822   -4.7265761    2059.1291  0.034257155  0.032484529           22 
 5010000   0.44011137   -4.7267508    2057.8123  0.034228414  0.032476208          112 
 5011000   0.45086658    -4.716354    2059.8279  0.034255104  0.032467878           67 
 5012000   0.45632236   -4.7081092    2056.6683  0.034195735  0.032459583           62 
Loop time of 12356.1 on 48 procs for 5000000 steps with 4000 atoms

Performance: 69924.831 tau/day, 404.658 timesteps/s
99.4% CPU use with 48 MPI tasks x no OpenMP threads

MPI task timing breakdown:
Section |  min time  |  avg time  |  max time  |%varavg| %total
---------------------------------------------------------------
Pair    | 846.76     | 894.48     | 954.32     | 103.2 |  7.24
Neigh   | 83.472     | 86.618     | 90.156     |  18.2 |  0.70
Comm    | 794.91     | 854.59     | 910.27     | 109.0 |  6.92
Output  | 14.329     | 14.334     | 14.428     |   0.4 |  0.12
Modify  | 10368      | 10397      | 10416      |  10.6 | 84.14
Other   |            | 109.3      |            |       |  0.88

Nlocal:        83.3333 ave          89 max          75 min
Histogram: 1 2 4 4 4 6 7 14 1 5
Nghost:        2263.40 ave        2286 max        2240 min
Histogram: 2 3 5 8 3 10 6 5 5 1
Neighs:        15250.6 ave       16781 max       13400 min
Histogram: 1 2 5 4 7 7 10 8 2 2
FullNghs:      30500.5 ave       33112 max       27081 min
Histogram: 1 2 3 7 5 7 8 8 3 4

Total # of neighbors = 1464024
Ave neighs/atom = 366.00600
Neighbor list builds = 270356
Dangerous builds = 0

#clear
#
#next RN
#
#jump SELF
Total wall time: 3:25:59
