
units lj                  # Use reduced LJ style units
atom_style atomic         # Uncharged point particles
atom_modify map hash      # Needed for indexing of clusters etc
                          # Used to be able to find where atoms are in relation to each other.

lattice fcc 1.0 spacing 1 1 1
Lattice spacing in x,y,z = 1.5874011 1.5874011 1.5874011
region box block 0 10 0 10 0 10 units lattice
create_box 2 box
Created orthogonal box = (0.0000000 0.0000000 0.0000000) to (15.874011 15.874011 15.874011)
  3 by 4 by 4 MPI processor grid
create_atoms 1 box
Created 4000 atoms
  using lattice units in orthogonal box = (0.0000000 0.0000000 0.0000000) to (15.874011 15.874011 15.874011)
  create_atoms CPU = 0.002 seconds
set type 1 type/fraction 2 0.99 78393
Setting atom values ...
  3965 settings made for type/fraction
mass 1 1.0
mass 2 1.0
pair_style lj/cut  3.5
pair_modify tail  yes
pair_coeff 1  1  1.0  1.0   # Intearaction between 1 and 1 set with epsilon = 1 and sigma = 1
pair_coeff 1  2  1.5  0.8
pair_coeff 2  2  0.5  0.88

write_data data.0
System init for write_data ...
Neighbor list info ...
  update every 1 steps, delay 10 steps, check yes
  max neighbors/atom: 2000, page size: 100000
  master list distance cutoff = 3.8
  ghost atom cutoff = 3.8
  binsize = 1.9, bins = 9 9 9
  1 neighbor lists, perpetual/occasional/extra = 1 0 0
  (1) pair lj/cut, perpetual
      attributes: half, newton on
      pair build: half/bin/atomonly/newton
      stencil: half/bin/3d
      bin: standard
WARNING: Not all mixed pair coeffs generated from mixing. Use write_data with 'pair ij' option to store all pair coeffs. (../write_data.cpp:312)


#############################
#   M E L T   S Y S T E M   #
#############################

velocity all create 2.4 2750902 mom yes dist gaussian # Assign velocities
                                                    # Temperature 2.4, random number seed, zero linear momentum
                                                                                # Gaussian distribution

timestep 0.002   # simulation timestep
thermo 1000       # output thermodynamic data every 1000 steps bf 100

# Define a fix  in this case with index 1 applied to all
# particles in the simulation. This fix is for simulations
# in the anisotropic NPT ensemble. Note that we use the MTK
# correction.
fix 1 all npt temp 2.4 2.4 0.1 iso 5.68 5.68 0.5 mtk yes tchain 5 pchain 5 # Use NPT ensemble
                                                                         # Set temperature and pressure and damping
                                                                         # Numbers of thermostats in chain and in barostat
run 10000          # run for 10000 steps
Per MPI rank memory allocation (min/avg/max) = 3.642 | 3.644 | 3.648 Mbytes
Step Temp E_pair E_mol TotEng Press Volume 
       0          2.4   -2.7429598            0   0.85614022   -1.7792645         4000 
    1000    2.3847366   -1.4516047            0     2.124606    5.8889267    4232.6384 
    2000    2.4170175   -1.5015384            0    2.1230814    5.7046782    4234.1376 
    3000    2.3929662   -1.5446223            0    2.0439297    5.6888983    4198.7623 
    4000    2.4397217   -1.5006194            0    2.1580482    5.8363601    4221.3296 
    5000     2.365938   -1.5097421            0    2.0382776    5.6478786    4243.4877 
    6000    2.4360782    -1.492224            0    2.1609798    6.0030614    4181.7088 
    7000    2.3791036   -1.4960971            0    2.0716661    5.6695925    4239.4969 
    8000    2.4701248   -1.4822862            0    2.2219748    5.9166213    4222.8104 
    9000     2.400532   -1.5230519            0    2.0768459    5.4817488    4268.2238 
   10000    2.3765742   -1.4802181            0    2.0837519     5.856761    4221.2388 
Loop time of 2.3459 on 48 procs for 10000 steps with 4000 atoms

Performance: 736604.836 tau/day, 4262.759 timesteps/s
99.6% CPU use with 48 MPI tasks x no OpenMP threads

MPI task timing breakdown:
Section |  min time  |  avg time  |  max time  |%varavg| %total
---------------------------------------------------------------
Pair    | 1.0389     | 1.0861     | 1.1688     |   2.4 | 46.30
Neigh   | 0.20192    | 0.20854    | 0.2171     |   0.6 |  8.89
Comm    | 0.71924    | 0.80073    | 0.85648    |   3.1 | 34.13
Output  | 0.00024355 | 0.00024918 | 0.00031001 |   0.0 |  0.01
Modify  | 0.21732    | 0.23561    | 0.25835    |   2.6 | 10.04
Other   |            | 0.01467    |            |       |  0.63

Nlocal:        83.3333 ave          93 max          72 min
Histogram: 2 2 4 3 11 6 10 2 4 4
Nghost:        1581.75 ave        1610 max        1554 min
Histogram: 3 1 5 5 9 11 6 4 3 1
Neighs:        9021.48 ave       10410 max        7471 min
Histogram: 2 1 4 8 7 7 6 9 3 1

Total # of neighbors = 433031
Ave neighs/atom = 108.25775
Neighbor list builds = 908
Dangerous builds = 209

# Equilibrate just above the melting temperature to avoid step fn in T

fix 1 all npt temp 1.25 1.25 0.1 iso 5.68 5.68 0.5 mtk yes tchain 5 pchain 5
run 2000
Per MPI rank memory allocation (min/avg/max) = 3.643 | 3.645 | 3.649 Mbytes
Step Temp E_pair E_mol TotEng Press Volume 
   10000    2.3765742   -1.4802181            0    2.0837519     5.856761    4221.2388 
   11000    1.2337454   -2.3109937            0  -0.46083818    5.6534746    3329.1486 
   12000    1.2384336   -2.2881149            0  -0.43092896    5.9491672    3310.5252 
Loop time of 0.576849 on 48 procs for 2000 steps with 4000 atoms

Performance: 599117.114 tau/day, 3467.113 timesteps/s
99.7% CPU use with 48 MPI tasks x no OpenMP threads

MPI task timing breakdown:
Section |  min time  |  avg time  |  max time  |%varavg| %total
---------------------------------------------------------------
Pair    | 0.24891    | 0.27094    | 0.32515    |   2.2 | 46.97
Neigh   | 0.037887   | 0.039851   | 0.047327   |   0.7 |  6.91
Comm    | 0.15915    | 0.21908    | 0.24268    |   2.8 | 37.98
Output  | 4.8601e-05 | 5.0194e-05 | 6.4496e-05 |   0.0 |  0.01
Modify  | 0.038015   | 0.04243    | 0.048301   |   1.6 |  7.36
Other   |            | 0.004502   |            |       |  0.78

Nlocal:        83.3333 ave          89 max          77 min
Histogram: 3 2 3 3 9 9 7 4 5 3
Nghost:        1859.65 ave        1879 max        1837 min
Histogram: 2 3 3 5 7 11 4 3 7 3
Neighs:        11533.2 ave       12463 max       10082 min
Histogram: 2 0 3 8 1 9 7 5 6 7

Total # of neighbors = 553595
Ave neighs/atom = 138.39875
Neighbor list builds = 144
Dangerous builds = 9

#############################
# L I N E A R  Q U E N C H  #
#############################

# Define solid atoms. This closely follows ten Wolde  Ruiz-Montero and Frenkel  Faraday Discuss  1996  104  93-110
# Compute components of the per-atom q6 vector
compute q6 all orientorder/atom degrees 1 6 components 6 nnn NULL cutoff 1.3 # compute the Q6 parameter.
                                                                             # Use all neighbours within 1.3 unit cell.

# get number of connections
compute coord_number all coord/atom orientorder q6 0.5

# An atom is solid if it has 8 or more connections (of a possible 14)
variable is_solid atom c_coord_number>=8
group solid dynamic all var is_solid    # Must be dynamic to update
dynamic group solid defined

# do clustering
compute cluster solid cluster/atom 1.3 # Create a cluster where all atoms within are solid and max 1.3 units from another member

# define chunks one chunk per cluster
compute clus_chunks solid chunk/atom c_cluster nchunk every compress yes  # Says which atoms are in which chunk

# count the size of each chunk
compute size_chunks solid property/chunk clus_chunks count


# Find the maximum entry in the vector of chunk sizes
variable max_n equal max(c_size_chunks)


# Thermo style which includes this variable
# thermo_style custom step temp pe vol v_max_n

thermo ${N}  # Print the thermo information every 100 steps
thermo 1000  

# Reset the npt fix at a lower temperature (below freezing)
fix 1  all npt temp  ${temp} ${temp}  0.1  iso  5.68  5.68  0.5  mtk yes tchain  5  pchain  5
fix 1  all npt temp  0.45 ${temp}  0.1  iso  5.68  5.68  0.5  mtk yes tchain  5  pchain  5
fix 1  all npt temp  0.45 0.45  0.1  iso  5.68  5.68  0.5  mtk yes tchain  5  pchain  5

dump dmp2 all dcd ${N} traj.dcd
dump dmp2 all dcd 1000 traj.dcd


compute msd all msd com yes
variable twopoint equal c_msd[4]/6/(step*dt+1.0e-6)
fix 9 all vector 10 c_msd[4]
variable fit equal slope(f_9)/6/(10*dt)
thermo_style custom step temp pe c_msd[4] v_twopoint v_fit v_max_n

fix 1 all npt temp 1.25 ${temp} 0.1 iso 5.68 5.68 0.5 mtk yes tchain 5 pchain 5
fix 1 all npt temp 1.25 0.45 0.1 iso 5.68 5.68 0.5 mtk yes tchain 5 pchain 5
run 5000000 # 5000000  # Run for this many steps
Neighbor list info ...
  update every 1 steps, delay 10 steps, check yes
  max neighbors/atom: 2000, page size: 100000
  master list distance cutoff = 3.8
  ghost atom cutoff = 3.8
  binsize = 1.9, bins = 8 8 8
  4 neighbor lists, perpetual/occasional/extra = 1 3 0
  (1) pair lj/cut, perpetual
      attributes: half, newton on
      pair build: half/bin/atomonly/newton
      stencil: half/bin/3d
      bin: standard
  (2) compute orientorder/atom, occasional
      attributes: full, newton on
      pair build: full/bin/atomonly
      stencil: full/bin/3d
      bin: standard
  (3) compute coord/atom, occasional
      attributes: full, newton on
      pair build: full/bin/atomonly
      stencil: full/bin/3d
      bin: standard
  (4) compute cluster/atom, occasional
      attributes: full, newton on
      pair build: full/bin/atomonly
      stencil: full/bin/3d
      bin: standard
Per MPI rank memory allocation (min/avg/max) = 9.809 | 9.816 | 9.820 Mbytes
Step Temp PotEng c_msd[4] v_twopoint v_fit v_max_n 
   12000    1.2384336   -2.2881149 5.9702965e-30 4.1460391e-32 8.3333333e+20            3 
   13000    1.2351376   -2.3198934    1.1944027 0.0076564272    0.1014623            3 
   14000    1.2433877   -2.3220827    2.5064253  0.014919198   0.10625171            1 
   15000    1.2841381   -2.3039268    3.8766455  0.021536919   0.10845607            1 
   16000    1.2420487   -2.3410897    5.2485174  0.027336027   0.11142847            2 
   17000    1.2573744   -2.3073163    6.5736266  0.032223659   0.11218468            2 
   18000    1.2500039   -2.3275059    7.8083926  0.036149965    0.1113631            3 
   19000    1.2536312   -2.3358744    9.2040791  0.040368767    0.1110001            2 
   20000    1.2529084   -2.2950842    10.519768  0.043832364   0.11075363            3 
   21000    1.2578296   -2.3408832    11.814566  0.046883196   0.11066751            1 
   22000    1.2426009   -2.2950996     13.27976   0.05030212   0.11068844            3 
   23000    1.2494962   -2.3309746    14.807368  0.053649884   0.11135944            1 
   24000    1.2662636    -2.314826    15.984709   0.05550246   0.11175229            1 
   25000    1.2490907   -2.3357051    17.399753  0.057999175   0.11214227            1 
   26000    1.2673843   -2.3274241    18.534323  0.059404879   0.11231233            2 
   27000    1.2559874   -2.3134778    19.798166  0.061105451   0.11213772            1 
   28000    1.2474625   -2.3278587    21.142374  0.062923731   0.11175736            1 
   29000    1.2433719   -2.3185018    22.354181  0.064236151   0.11131291            2 
   30000    1.2571707   -2.3231246    23.551138  0.065419827   0.11087609            1 
   31000    1.2475452   -2.2688342    25.046681  0.067329787   0.11050204            2 
   32000    1.2576065   -2.3307885    26.184566  0.068188972   0.11026314            2 
   33000    1.2706413   -2.2902662    27.748359  0.070071612   0.11013988            3 
   34000    1.2507357   -2.3066518    29.072216   0.07125543   0.11011916            1 
   35000    1.2443167   -2.3287749    30.444517  0.072486944    0.1102184            1 
   36000    1.2557082   -2.3398179    31.982111  0.074032664   0.11040627            3 
   37000    1.2672495    -2.297111    33.129219  0.074615357   0.11051707            3 
   38000      1.24897   -2.3128024    34.751462  0.076209346   0.11065987            1 
   39000    1.2448484   -2.3033431    35.836573  0.076573874   0.11083285            1 
   40000    1.2504845   -2.3095732    37.404204  0.077925424   0.11098271            1 
   41000    1.2289557   -2.3355131    38.337075  0.077920883    0.1109502            2 
   42000    1.2448609   -2.3140901    39.488541  0.078350278   0.11080641            2 
   43000    1.2469913   -2.3048926    40.501634  0.078491537   0.11053933            1 
   44000    1.2263682   -2.3086974    41.652277  0.078886887   0.11020878            5 
   45000    1.2344728   -2.3479428    43.132879  0.079875701   0.10995024            2 
   46000    1.2235033   -2.3396201    44.243064  0.080150477   0.10972972            2 
   47000    1.2314898   -2.3000708    45.567724  0.080793835   0.10950294            1 
   48000    1.2336882   -2.3349934    46.900073  0.081423738   0.10928735            1 
   49000    1.2473692   -2.2846202     48.22145  0.082009268   0.10910942            1 
   50000    1.2491454   -2.3053345    49.070194  0.081783656   0.10892131            2 
   51000    1.2551348   -2.3197912    50.622892  0.082717142   0.10876683            1 
   52000    1.2354942   -2.3169448     52.12217  0.083529118   0.10865637            2 
   53000    1.2341925    -2.304879    53.293476  0.083794772   0.10853033            2 
   54000    1.2340113   -2.3177296    54.775111  0.084529491   0.10845921            3 
   55000    1.2393777   -2.3007366     56.06744  0.084950665   0.10839128            2 
   56000     1.233515   -2.3204676    57.142245  0.085033101   0.10834432            1 
   57000    1.1958634    -2.309483     58.54209   0.08558785   0.10828791            1 
   58000    1.2283194   -2.3571848    59.939128  0.086119436    0.1082627            3 
   59000    1.2252459   -2.3322993     61.34645  0.086647528   0.10827435            2 
   60000    1.2353923   -2.3198814      62.5993  0.086943472   0.10826118            1 
   61000    1.2695485   -2.3328481    64.086377  0.087549694   0.10830233            2 
   62000    1.2391107   -2.3243461    65.685562  0.088287045   0.10838183            1 
   63000    1.2080973   -2.3320458    67.207907  0.088899347   0.10846406            2 
   64000    1.2265219   -2.2932864    68.931788  0.089754932   0.10859601            1 
   65000     1.236668   -2.3176737     70.16372  0.089953487   0.10873342            1 
   66000    1.2512134   -2.3178382    71.819442  0.090681113   0.10890313            1 
   67000    1.2217014   -2.3539705    73.239196  0.091093526   0.10909843            2 
   68000    1.2399511   -2.3507882    74.453562   0.09124211    0.1092977            1 
   69000    1.2493913   -2.3321258    76.087474  0.091893083   0.10946532            1 
   70000    1.2623663   -2.3360256    77.439363  0.092189717   0.10965671            1 
   71000    1.2542982   -2.3239046    78.927126  0.092637471   0.10983387            2 
   72000    1.2285903   -2.3325962    80.083972  0.092689782   0.10999306            1 
   73000    1.2022488   -2.2981692    81.235766  0.092734893   0.11009477            1 
   74000    1.2006894   -2.3442665    82.877658  0.093330696   0.11021291            1 
   75000    1.2233288   -2.3083837    84.364732  0.093738591    0.1103228            1 
   76000    1.2133304   -2.3382048    85.414949  0.093656742   0.11042546            1 
   77000    1.2272599     -2.31773    86.938142  0.094088898   0.11053521            1 
   78000    1.2743486   -2.3302275    87.739106  0.093738361   0.11061488            2 
   79000    1.2345174   -2.3258743    89.140286  0.094029837   0.11067618            2 
   80000    1.2645442   -2.3306216     90.13143  0.093886906   0.11071807            1 
   81000    1.2138545   -2.3059871    91.604986  0.094243812   0.11074731            1 
   82000    1.2468705    -2.341549    92.462666  0.093966124   0.11077001            1 
   83000    1.2408528   -2.3550149    93.757777  0.094134313   0.11079032            1 
   84000     1.239491   -2.3214427    95.567654   0.09480918   0.11080863            1 
   85000    1.2515147   -2.3202698    96.528404  0.094635689   0.11083863            3 
   86000    1.2456575    -2.332098    98.314522  0.095266009   0.11085098            1 
   87000    1.2578911   -2.3507746    99.386726  0.095198012   0.11087629            3 
   88000    1.2165083   -2.3353819    101.10024  0.095738866    0.1109027            1 
   89000    1.2260409   -2.3211311    102.04277  0.095545663   0.11092519            1 
   90000    1.2535078   -2.3314722    103.91817  0.096220532   0.11094075            1 
   91000    1.2454162   -2.3181857    104.47751  0.095675379   0.11094066            1 
   92000    1.2602667   -2.3371882    106.38921  0.096367041   0.11095035            1 
   93000    1.2201447   -2.3186311    107.77533  0.096572877   0.11097252            1 
   94000    1.2434298   -2.3552328    109.64794  0.097205624   0.11100332            2 
   95000    1.2613297   -2.3321436    110.67223  0.097080902   0.11105697            1 
   96000    1.2346658    -2.306748    112.37004  0.097543437   0.11109957            2 
   97000    1.2629605   -2.3220702    113.30921  0.097344679    0.1111248            1 
   98000    1.2344516   -2.3676082    114.76177  0.097586539   0.11117955            4 
   99000    1.2561399   -2.3198661    116.55938  0.098113957   0.11123305            2 
  100000    1.2147249   -2.3206868    117.91091   0.09825909   0.11130437            1 
  101000    1.2229606   -2.3563316    119.25213  0.098392844   0.11137763            2 
  102000    1.2402621   -2.3014591    121.16491  0.098990939    0.1114322            2 
  103000    1.2634202   -2.2993728    122.12562  0.098807134   0.11150873            1 
  104000    1.2534559   -2.3376401    123.18094  0.098702679   0.11155184            1 
  105000    1.2424872   -2.3168157    125.66095  0.099730911   0.11160677            1 
  106000    1.2658231   -2.3313978    125.75805  0.098866395   0.11163292            1 
  107000    1.2090528   -2.3438734    127.09492  0.098983582   0.11164843            3 
  108000     1.245699   -2.3600501     128.0213  0.098781867   0.11166316            2 
  109000    1.2324183   -2.3494935    129.48934  0.098997963   0.11166523            2 
  110000    1.2451212   -2.3103322    130.82864  0.099112608   0.11166896            2 
  111000    1.2191868   -2.3485483    131.47444  0.098704531   0.11165601            1 
  112000    1.2403672   -2.2883125    133.87908  0.099612409   0.11165852            1 
  113000    1.2266508   -2.3227802    134.78371  0.099398013    0.1116572            3 
  114000    1.2386788   -2.3355331     136.0811  0.099474491   0.11164746            1 
  115000    1.2319258   -2.3469321    137.07767  0.099331645   0.11162548            1 
  116000    1.2244282   -2.3233313     138.4854  0.099486638   0.11161665            2 
  117000    1.2630372   -2.3339177    139.70245  0.099503167   0.11161134            1 
  118000    1.2251271   -2.3320143    140.96512   0.09955164   0.11158059            2 
  119000    1.2204387   -2.3366073    141.81276  0.099308652   0.11155913            1 
  120000    1.2217429   -2.3276058    143.88107  0.099917409   0.11153949            1 
  121000    1.2417194   -2.3192777    145.18797  0.099991717   0.11153748            1 
  122000    1.2502242   -2.3445598     146.9067    0.1003461   0.11153817            3 
  123000    1.2254981   -2.3114892    148.06035   0.10031189   0.11152069            1 
  124000    1.2340382   -2.3146973    149.34055   0.10036327   0.11151013            3 
  125000    1.2648331   -2.2990665    150.44436   0.10029624   0.11149641            1 
  126000    1.2079353   -2.3404757    150.57069  0.099583791   0.11146587            1 
  127000    1.2534837   -2.3307516    152.45816   0.10003816   0.11141481            2 
  128000    1.2518314   -2.3487736    153.56427  0.099976741   0.11138015            1 
  129000    1.2165026   -2.3326887    154.24992  0.099644648   0.11134888            2 
  130000    1.2339807   -2.3503222    155.98368  0.099989538   0.11131089            1 
  131000    1.2329399   -2.3403702    157.67755   0.10030378   0.11128781            2 
  132000    1.2338152   -2.3399952    158.76377   0.10022965   0.11126068            2 
  133000    1.2295658   -2.3301062    158.84947  0.099529741   0.11122746            2 
  134000    1.2308602   -2.3372117    161.42372   0.10038788   0.11118973            2 
  135000    1.2272528   -2.3293764    162.80953   0.10049971   0.11115931            1 
  136000    1.2358307   -2.2963406     163.9557   0.10046305   0.11112914            1 
  137000    1.2369743    -2.345774    165.51996   0.10068124   0.11108713            1 
  138000    1.2256714   -2.3222655    166.22436   0.10037703   0.11104441            1 
  139000    1.2159235   -2.3612768    167.56316   0.10045753   0.11100049            2 
  140000    1.2424277   -2.3274682    168.17326   0.10010313   0.11095241            2 
  141000    1.2376312   -2.3306668    170.59348   0.10082357   0.11092323            2 
  142000    1.2473603   -2.3425945     171.9671   0.10091966   0.11088983            1 
  143000    1.2122777   -2.3397947    172.93822   0.10077985   0.11086978            5 
  144000    1.2190383   -2.3491233    174.56341   0.10102049   0.11084751            2 
  145000    1.2412303    -2.357743    175.50336     0.100864   0.11082122            1 
  146000    1.2448103   -2.3520375    176.84328   0.10093794   0.11078876            2 
  147000    1.2487847    -2.364658    178.44545   0.10115955    0.1107605            1 
  148000    1.2492225    -2.346661    179.96048    0.1013291   0.11073469            2 
  149000    1.2355549    -2.337465     181.8779   0.10172142   0.11071048            8 
  150000    1.2147203   -2.3438963    183.75511   0.10208617   0.11068982            2 
  151000     1.259076   -2.3541363    184.04605   0.10157067   0.11067282            2 
  152000    1.2499766   -2.3006783     185.0468   0.10145109   0.11065238            1 
  153000    1.2446001   -2.3430823    185.92323   0.10126538   0.11063206            1 
  154000    1.2051321    -2.351353    187.54237   0.10148397   0.11060718            1 
  155000    1.2184044   -2.3291597    189.63817     0.101956   0.11058269            2 
  156000    1.2362034   -2.3438924    191.11836   0.10209314   0.11056967            1 
  157000     1.234918   -2.3530176    192.74632   0.10230696   0.11056448            1 
  158000     1.242586   -2.3327751    192.89941   0.10174019   0.11055936            2 
  159000    1.2549095   -2.3278142    194.93045   0.10216481   0.11056108            1 
  160000    1.2153585   -2.3343241    195.64742    0.1018997   0.11056049            1 
  161000    1.2458435    -2.346126      196.924   0.10192753    0.1105448            1 
  162000    1.2179711   -2.3212199    198.21024      0.10196   0.11053029            1 
  163000    1.2456273   -2.3324628    198.85363   0.10166341   0.11050168            2 
  164000    1.2123751   -2.3370049     200.3689   0.10181347    0.1104781            1 
  165000      1.19628   -2.3231003    202.27308   0.10215812    0.1104543            1 
  166000    1.1917765   -2.3286296    202.85472    0.1018347   0.11043143            2 
  167000    1.2137696   -2.3522298    203.73083   0.10166209   0.11040317            2 
  168000    1.2621811   -2.3189179    205.09972   0.10173597   0.11036598            1 
  169000    1.2283131   -2.3467259     206.7366   0.10194112   0.11032831       -1e+20 
  170000    1.2133397   -2.3408044    208.68117   0.10229469   0.11030208            2 
  171000    1.2121819   -2.3440752    209.01563   0.10185947   0.11027282            1 
  172000    1.2053731   -2.3903099    209.65221   0.10157568   0.11024126            1 
  173000    1.2218774   -2.3858323    211.73852    0.1019935   0.11021359            3 
  174000    1.2034358    -2.342986    212.76934   0.10190103   0.11018255            3 
  175000    1.2413278   -2.3523384    214.06278   0.10193466   0.11014741            1 
  176000    1.1990163   -2.3510386    216.01544   0.10228004   0.11010975            2 
  177000    1.2226724   -2.3480701    216.38852   0.10187783   0.11008313            2 
  178000    1.1946006   -2.3277181    217.33955   0.10175072   0.11005676            2 
  179000    1.2141523   -2.3503461    219.74163   0.10230057   0.11002892            2 
  180000    1.2188832   -2.3530825    219.79703   0.10175788   0.11000604            4 
  181000    1.2068927   -2.3527498    221.35546    0.1019132   0.10997464            1 
  182000    1.2157717   -2.3513676    221.52745   0.10143198   0.10993754            1 
  183000    1.2277921   -2.3661112    222.58101   0.10135747   0.10990034            2 
  184000    1.2280712   -2.3504918    225.54252   0.10214788   0.10986511            1 
  185000    1.2447986   -2.3643358     226.2685   0.10192275   0.10982655            1 
  186000    1.2166505   -2.3176016    227.18515   0.10178546   0.10978266            3 
  187000    1.2023678   -2.3373855    227.52736   0.10139365   0.10972964            1 
  188000    1.2210334   -2.3702447    228.19154   0.10114873   0.10967904            1 
  189000    1.1967294   -2.3384877    230.38972   0.10158277   0.10962694       -1e+20 
  190000    1.2271537   -2.3589815    229.75198   0.10076841   0.10957619            2 
  191000    1.2071679     -2.33411    232.60097   0.10148384   0.10951953            1 
  192000    1.2203373   -2.3441004    233.56262   0.10137266   0.10947068            1 
  193000    1.2360608    -2.373531    234.61359   0.10130121    0.1094293            1 
  194000    1.2187503    -2.323636    235.85424   0.10131196   0.10937764            1 
  195000    1.2194574   -2.3406214    238.95043   0.10211557   0.10932738            1 
  196000    1.2239267   -2.3686687    239.79747   0.10195471   0.10928747            1 
  197000    1.1911792   -2.3422919    240.14455   0.10158399    0.1092454            1 
  198000    1.2689079   -2.3425364    243.16857   0.10234368    0.1092014            1 
  199000    1.2362435    -2.349402    242.87556   0.10170668   0.10916448            1 
  200000    1.1665607    -2.348068    243.13821   0.10130759   0.10911646            1 
  201000    1.1811579    -2.329388    244.49403   0.10136568   0.10906625            1 
  202000    1.2405258   -2.3392165    246.17205   0.10155612   0.10902337            1 
  203000    1.2208618   -2.3728924    247.26286   0.10150364   0.10898254            2 
  204000     1.238218   -2.3586327     248.5041   0.10151311   0.10893867            1 
  205000     1.272871   -2.3734666    250.01103    0.1016305   0.10889604            1 
  206000    1.2666758   -2.3586001    251.33609   0.10167318    0.1088534            2 
  207000    1.2355683   -2.3351777     253.2055   0.10193458   0.10881056            1 
  208000    1.2223112   -2.3569604    253.90075   0.10172306   0.10876973            2 
  209000    1.2136456   -2.3606723    254.77766   0.10158599   0.10872463            2 
  210000    1.2108718   -2.3124838      255.817   0.10151468   0.10868154            2 
  211000    1.2237018    -2.374636    256.60175    0.1013435   0.10863753            3 
  212000    1.2247588   -2.3719996    257.95711   0.10139824   0.10858274            2 
  213000     1.224659   -2.3475754    258.43798   0.10111032   0.10852936            1 
  214000    1.2136724    -2.323398    260.17069   0.10131257    0.1084794            1 
  215000    1.2373615   -2.3388529    260.62158   0.10101612   0.10842795            1 
  216000    1.2214461   -2.3540168    262.27441   0.10118611   0.10837435            1 
  217000    1.2193051     -2.32293     263.0332   0.10101121   0.10832512            1 
  218000    1.1889015   -2.3643133      266.081   0.10171292   0.10827531            1 
  219000    1.2042445   -2.3352578    266.23289   0.10130627   0.10822859            1 
  220000    1.2185451    -2.344282    266.17042   0.10082213   0.10818264            1 
  221000     1.218279   -2.3804083    266.71429     0.100571   0.10812881            1 
  222000    1.2156691   -2.3343914    269.50081   0.10116397    0.1080747            1 
  223000    1.1953739   -2.3630204    271.73877   0.10154663   0.10802561            1 
  224000    1.2221622   -2.3719932    270.82305   0.10075262    0.1079765            2 
  225000    1.2161931   -2.3673846    273.40915   0.10126265   0.10793304            1 
  226000    1.2235721    -2.355265    274.78261   0.10132102   0.10789085            1 
  227000    1.2168342   -2.3707791    275.68293   0.10120519   0.10785115            1 
  228000    1.2279176   -2.3618376    277.87911     0.101564   0.10781261            1 
  229000    1.2127947   -2.3331503     279.6954   0.10178144   0.10777714            1 
  230000    1.2016188   -2.3712428    280.10151   0.10148605   0.10774729            4 
  231000    1.1970075   -2.3349487    282.79863   0.10201971   0.10771997            1 
  232000    1.2040992   -2.3437676    282.82862   0.10159074    0.1076942            1 
  233000    1.2422018   -2.3685282    282.82832   0.10115462   0.10765739            2 
  234000    1.2187832   -2.3850269    286.31612   0.10196443   0.10762498            1 
  235000    1.2179338    -2.361408    286.67157   0.10165659   0.10759446            1 
  236000    1.1884959   -2.3426252    287.96229    0.1016816    0.1075648            1 
  237000    1.1903299   -2.3442354    291.05648   0.10234053    0.1075383            1 
  238000    1.1905135    -2.353615    290.24177   0.10162527   0.10751332            2 
  239000    1.2029957   -2.3538896    292.08925   0.10184423   0.10748672            1 
  240000    1.2072675   -2.3509431    293.78543   0.10200883   0.10746555            1 
  241000      1.20987   -2.3756814     295.5578   0.10219841    0.1074446            2 
  242000     1.217346   -2.3524002    296.24017   0.10201108   0.10742554       -1e+20 
  243000    1.2056908   -2.3568285    297.99464   0.10219295   0.10740685            4 
  244000    1.2207689   -2.3676545    299.35266   0.10223793   0.10738367            1 
  245000     1.205683    -2.353959    299.49222    0.1018681    0.1073612            1 
  246000    1.1940798   -2.3578436    302.43676   0.10245148    0.1073344            1 
  247000    1.2135779   -2.3284245    303.61908   0.10243559   0.10730494            1 
  248000    1.1994005   -2.3466545    302.91757   0.10178682   0.10727601            3 
  249000     1.165768   -2.3705498    304.52715   0.10191672   0.10725175            1 
  250000    1.2221562   -2.3226051    306.87988   0.10229329     0.107228            1 
  251000    1.2614496   -2.3238125    307.87538   0.10221626   0.10720726            2 
  252000    1.2493843   -2.3730603    307.50601    0.1016885   0.10718774            1 
  253000    1.2165873   -2.3966549       308.42   0.10158762   0.10715952            1 
  254000    1.2073579   -2.3572041    311.05276   0.10205143   0.10713435            1 
  255000    1.1828804   -2.3736085    312.42757   0.10210051   0.10710458            2 
  256000    1.2079142   -2.3632811     311.9424   0.10154375    0.1070764            4 
  257000     1.214968   -2.3755999    312.67325   0.10138562   0.10704796            1 
  258000    1.2064014   -2.3773878    315.37383   0.10186493   0.10701981            1 
  259000    1.2254192   -2.3494677     315.6713   0.10156734   0.10699174            3 
  260000    1.2125742   -2.3588371    317.20121   0.10166705   0.10696324            1 
  261000    1.2250213   -2.3165363    318.82272   0.10179525   0.10693811            2 
  262000    1.2075449   -2.3714853     319.9581   0.10176784   0.10691533            1 
  263000     1.220733   -2.3716681    321.82966   0.10197391   0.10689521            1 
  264000    1.2103568   -2.3905567    322.67038   0.10185303   0.10687473            1 
  265000    1.2127384   -2.3534348    325.09798   0.10223207   0.10685176            1 
  266000    1.2082012   -2.3597434    326.68396    0.1023446   0.10682859            1 
  267000    1.2067526   -2.3395285    325.38572   0.10155609   0.10680744            2 
  268000    1.2040293   -2.3556477    328.78635   0.10223456   0.10678233            2 
  269000    1.1975163   -2.3136842    328.69544   0.10182634   0.10676361            3 
  270000    1.2198589   -2.3184592    329.04609   0.10155743   0.10674061       -1e+20 
  271000     1.179913   -2.3312642    332.33023   0.10219257    0.1067219            1 
  272000    1.2208648   -2.3770307    331.45794   0.10154961   0.10670105            1 
  273000    1.2341058   -2.3633184     334.9409   0.10224081   0.10667726            1 
  274000    1.2140295   -2.3446895    336.37335   0.10230333   0.10665624            1 
  275000    1.2047119   -2.3284465    338.84101   0.10267909   0.10663615            3 
  276000    1.2106981     -2.36296    337.28553   0.10183742   0.10662014            1 
  277000    1.1892218   -2.3655415    339.04771   0.10199991   0.10659967            3 
  278000    1.2393327   -2.3491372    340.47769   0.10206166   0.10657657            2 
  279000    1.2020825   -2.3478932    341.83397   0.10210095   0.10655819            2 
  280000    1.2084293   -2.3581037    343.91668   0.10235615   0.10654492            2 
  281000    1.1992157   -2.4204764    345.68651   0.10251676   0.10653549            2 
  282000    1.2179272   -2.3503207    345.59641    0.1021266   0.10652399            2 
  283000    1.2029532   -2.3908079    346.13571   0.10192453    0.1065078            2 
  284000    1.1942816   -2.3328974     349.0691   0.10242638   0.10649271            2 
  285000    1.2039672    -2.355477    348.30125   0.10184247   0.10647643            2 
  286000     1.216669   -2.3508106    350.49595   0.10212586   0.10645413            1 
  287000    1.1902591   -2.3591631    351.44894   0.10204673   0.10643503            3 
  288000    1.1857938   -2.3422811    353.23882   0.10221031   0.10641423            3 
  289000    1.1912205   -2.3872892    353.67966   0.10198375   0.10639366            1 
  290000    1.2239103   -2.3587381    352.80969   0.10138209   0.10637251            3 
  291000     1.181713   -2.3792472    356.63662   0.10212962   0.10634725            2 
  292000    1.2116033   -2.3522296    357.90502   0.10214184   0.10632655            1 
  293000    1.1943472   -2.3571598    358.71283   0.10202299   0.10630374            1 
  294000    1.1829348   -2.3526108    360.24635   0.10211064   0.10628379            2 
  295000    1.2141719   -2.3376922    361.82203   0.10220961   0.10626452            2 
  296000    1.2185987     -2.37989    362.00312   0.10191529   0.10624678            2 
  297000    1.2034852   -2.3794025    362.60167   0.10174009    0.1062253            1 
  298000     1.237214   -2.3647753    365.31466   0.10215734   0.10620414            1 
  299000    1.2049571   -2.3806227    366.60772   0.10217606   0.10618342            1 
  300000     1.196758   -2.3484109    366.33909   0.10176086   0.10616187            3 
  301000    1.1894937   -2.3433873     368.7587   0.10209266   0.10614089            1 
  302000    1.2068928   -2.3872124    370.39699   0.10220667   0.10612037            1 
  303000    1.2142589   -2.3805361    371.11171   0.10206593   0.10609833            1 
  304000    1.2101242   -2.3627362    373.37454   0.10235048   0.10608181            1 
  305000    1.1848333   -2.3780812    372.20681   0.10169585    0.1060598            1 
  306000    1.2076164   -2.3928707    372.89548   0.10155106   0.10603722            1 
  307000     1.205906   -2.3607601    374.52301   0.10166205   0.10601375       -1e+20 
  308000     1.194693   -2.3930766    378.06234   0.10228959    0.1059952            1 
  309000    1.2163352   -2.3802222    377.34149   0.10176416   0.10597867            2 
  310000    1.1844675   -2.3955007    379.53395   0.10202526   0.10596433            2 
  311000    1.1872108   -2.3695054    381.93534   0.10234066   0.10595199            4 
  312000    1.1833185   -2.3879247    383.10869   0.10232604   0.10594082            1 
  313000    1.1782338   -2.3708029    384.65687   0.10241131   0.10593013            1 
  314000    1.1843115   -2.3595161    385.60933   0.10233793   0.10591987            1 
  315000     1.191505   -2.3780043    388.47928   0.10277229    0.1059119            1 
  316000    1.1933054     -2.38528    388.02378   0.10232695   0.10590441            8 
  317000    1.2323543   -2.3698001    391.30167   0.10286584    0.1058962            3 
  318000    1.2044226   -2.3683496    390.45308   0.10231999   0.10588612            3 
  319000    1.1900321   -2.3368646    392.07812   0.10242375   0.10587363            2 
  320000    1.1927108   -2.3645967    392.60819   0.10224172   0.10585954            1 
  321000    1.1841996   -2.3724422     393.0369    0.1020345   0.10584194            1 
  322000    1.1794586   -2.3369626    395.12738   0.10225864   0.10582358            2 
  323000    1.1985596   -2.3301191    396.71611   0.10235194     0.105806            1 
  324000    1.1921824   -2.3693705    397.62684   0.10227028   0.10578636            2 
  325000    1.1892476   -2.3757868    400.36298   0.10265718   0.10577259            3 
  326000    1.2077923   -2.3700325    398.06442   0.10175471   0.10575661            1 
  327000    1.1868965   -2.3569552    400.72247   0.10212092   0.10574041            1 
  328000    1.2198225   -2.3758892    400.14485   0.10166282   0.10572619            4 
  329000     1.189983   -2.3425278    403.27297   0.10214614   0.10570965            4 
  330000    1.1713867   -2.3582327    404.54958   0.10215898    0.1056938            1 
  331000    1.2231274   -2.3794462    405.67906   0.10213471   0.10567718            2 
  332000    1.2311073   -2.3747679     406.3909   0.10200575   0.10566148            1 
  333000     1.206687   -2.3904865    410.81756    0.1028072   0.10565238            2 
  334000    1.1924721   -2.3615068    409.21352   0.10209918   0.10563978            1 
  335000    1.1925668   -2.3768664    412.39066   0.10258474   0.10562629            2 
  336000    1.1643427   -2.3420072    413.59232   0.10257746   0.10561392            1 
  337000    1.1862594   -2.3597939    414.56025   0.10251243   0.10560263            1 
  338000    1.2118233    -2.380632    414.37331   0.10216305   0.10558917            1 
  339000    1.2123117   -2.3933878    417.89358   0.10272703    0.1055792            1 
  340000    1.2038849   -2.3858097    418.04828   0.10246281   0.10556712            2 
  341000      1.16919   -2.3624023    417.89803   0.10212562   0.10555699            3 
  342000    1.2027891   -2.3363476    420.12575   0.10236982    0.1055427            1 
  343000    1.1777062   -2.3924281    420.06783    0.1020573   0.10552906            3 
  344000    1.1906966   -2.3799256    421.82964   0.10218741   0.10551247            4 
  345000    1.1845802   -2.3541807    422.43168   0.10203664   0.10549919            2 
  346000    1.1863475   -2.3995824    422.41926   0.10173874   0.10547972            1 
  347000    1.1920205   -2.3841363    425.55553   0.10219874   0.10546326            1 
  348000    1.2077387   -2.3694569    424.88601   0.10174474    0.1054503            2 
  349000    1.1807736   -2.3570072    426.63659    0.1018712   0.10543407            2 
  350000    1.2002843   -2.3449758    428.13867   0.10193778   0.10541904            2 
  351000    1.1964149   -2.3807627    430.53576   0.10221647    0.1054028            1 
  352000    1.1810959   -2.3925454    430.02185   0.10180442   0.10538961            3 
  353000    1.1862423   -2.3806237    432.09922   0.10200643   0.10537233            1 
  354000    1.1949073   -2.3589877    435.73465   0.10257407    0.1053578            2 
  355000    1.1881811   -2.3484511    434.38428   0.10196814   0.10534199            3 
  356000    1.1822502   -2.3927109    435.92428    0.1020422   0.10532687            1 
  357000    1.2052219   -2.3723551    436.61257   0.10191703   0.10530938            4 
  358000     1.175833   -2.3438583    437.98735   0.10195236   0.10528657            2 
  359000    1.1912898   -2.3793546    439.91194   0.10211512   0.10526591            1 
  360000    1.2210203   -2.3906906     438.8888   0.10159463   0.10524407            3 
  361000    1.1736227   -2.3744237    439.79307   0.10152195   0.10521956            2 
  362000    1.2182704   -2.3930044    442.77013   0.10192683   0.10520106            1 
  363000    1.1876798   -2.3565201     442.1459   0.10150273   0.10518218            3 
  364000    1.1741625   -2.3752527    443.91341   0.10162853   0.10516065            1 
  365000    1.1885963   -2.4165326    442.85806   0.10110915   0.10513722            1 
  366000    1.1950174   -2.3523062    446.75202   0.10171949   0.10511402            3 
  367000    1.1705608    -2.349252    446.88176   0.10147179      0.10509            2 
  368000    1.1825309   -2.3994321    449.24638   0.10173152   0.10506638            1 
  369000    1.2030197   -2.3331336    450.57252   0.10175531   0.10504323            2 
  370000    1.1892583   -2.3784914    448.19153   0.10094404   0.10502172            1 
  371000    1.1825567   -2.3678802    450.82849   0.10126426   0.10499733            1 
  372000    1.1917613   -2.3874999    452.01628   0.10125813   0.10497524            1 
  373000    1.1839734   -2.3859535    453.28165   0.10126936   0.10494843            1 
  374000    1.1889569   -2.3617818     454.4955   0.10126905   0.10491942            1 
  375000    1.1817289   -2.3702462    455.08347   0.10112966   0.10488981            1 
  376000    1.2127781   -2.3820531    454.73559    0.1007836   0.10486211            1 
  377000     1.197438    -2.371727    459.77833   0.10163093   0.10483466            1 
  378000    1.1844062   -2.3665863    457.88745    0.1009452   0.10480475            1 
  379000    1.1841747   -2.3692834    458.01976   0.10070795   0.10477587            2 
  380000    1.1751578   -2.3991968    458.07089   0.10045414   0.10474847            1 
  381000    1.2319369   -2.3926563    461.17962   0.10087043   0.10471731            2 
  382000    1.2303307   -2.3952946    460.56946   0.10047327   0.10468597            2 
  383000    1.2014389   -2.4049819    463.57562   0.10086502   0.10465629            2 
  384000    1.1736559   -2.3801329    466.24298    0.1011812   0.10462891            4 
  385000     1.197627   -2.4017814    465.50284   0.10075819   0.10460114            2 
  386000    1.1974809   -2.3747016    465.97494   0.10059908   0.10457416            1 
  387000    1.2017493   -2.3647184    467.94309   0.10076294    0.1045454            1 
  388000    1.1861545   -2.3707904    470.15561   0.10097844   0.10451646            1 
  389000    1.2080961   -2.3729247    469.33967   0.10054406   0.10448424            1 
  390000    1.1974543   -2.3939835    473.28174   0.10112858   0.10445405            1 
  391000    1.1759806   -2.3888475    472.44653   0.10069193   0.10442568            1 
  392000    1.1814572   -2.3693074     475.0343   0.10098518   0.10440237            1 
  393000    1.1647822   -2.3896891    475.01045   0.10072317   0.10437905            2 
  394000       1.1823   -2.3654899    476.67399   0.10081937   0.10435437            2 
  395000    1.1678346   -2.3922789    477.82984   0.10080798   0.10432707            1 
  396000    1.1993579   -2.3469457    478.96841   0.10079302   0.10430045            3 
  397000    1.1625821    -2.387193    478.39485   0.10041873   0.10427111            2 
  398000    1.2037073    -2.389863    478.23931   0.10013386   0.10424312            2 
  399000    1.1873132   -2.3713003    480.95618   0.10045033   0.10421327            2 
  400000    1.1884106   -2.3670686    484.61573   0.10096161   0.10418468            2 
  401000    1.1787195   -2.3953775    483.74015   0.10052788   0.10415529            2 
  402000    1.2013358   -2.3713095    484.71057   0.10047897    0.1041275            2 
  403000    1.1762971   -2.3767703    487.82599   0.10087386   0.10409991            3 
  404000     1.172987   -2.3942212    488.49909   0.10076301   0.10407586            2 
  405000    1.1910161   -2.4015288    488.93189   0.10060327   0.10405432            1 
  406000    1.1893059   -2.3508677    491.12384   0.10080539   0.10403216            2 
  407000    1.1848225   -2.3615464    494.25177   0.10119815   0.10400972            2 
  408000    1.1667033    -2.393591    495.12972   0.10112944   0.10398718            1 
  409000    1.2012343   -2.3797685    495.44478   0.10094637   0.10396774            5 
  410000     1.187499    -2.366353    495.30853   0.10067247   0.10394861            1 
  411000     1.180454   -2.3883977    499.71189   0.10132033   0.10393025            2 
  412000     1.205505   -2.3756752    498.86169   0.10090245   0.10391212            2 
  413000    1.1945669   -2.3853252    499.03407   0.10069291    0.1038945            1 
  414000    1.1957059   -2.3793319    503.61261    0.1013713   0.10387628            2 
  415000    1.1912557   -2.3668107    504.11976   0.10122887   0.10386069            2 
  416000    1.1828765   -2.3779704    503.46337   0.10085404   0.10384358            1 
  417000    1.1837302   -2.4012996    505.04436   0.10092813   0.10382685            1 
  418000    1.1975477    -2.412275    508.56269    0.1013881   0.10381508            1 
  419000    1.1967447   -2.3828432    505.72564   0.10058187     0.103803            2 
  420000    1.1978809   -2.3692704    510.83874   0.10135689   0.10378685            3 
  421000    1.1886442   -2.3485774    511.48689   0.10124444   0.10377123            2 
  422000    1.1871951   -2.3794996    513.37801   0.10137796   0.10375595       -1e+20 
  423000    1.1728776   -2.3878511    514.19179   0.10129862   0.10373983            1 
  424000    1.1920267    -2.377425    513.67538   0.10095821   0.10372227            2 
  425000    1.2024226   -2.3860305    516.34474   0.10124407   0.10370514            1 
  426000    1.2044855   -2.3736018    516.91046   0.10111707   0.10368816            1 
  427000    1.1821678   -2.3798398    519.21866   0.10133073   0.10367188            2 
  428000    1.1706878   -2.3932621    518.44787    0.1009439   0.10365399            1 
  429000    1.1599707   -2.3836454    520.62835   0.10113216   0.10363638            2 
  430000    1.1744229   -2.4033934    520.73748   0.10091812    0.1036176            2 
  431000     1.197146   -2.4069442    519.99269   0.10053996   0.10360073            4 
  432000    1.2039611   -2.3734713    521.51451   0.10060079   0.10358372            1 
  433000    1.1911495   -2.3785835    525.84535   0.10120195   0.10356641            2 
  434000    1.1899384   -2.3715826    525.72766   0.10094617   0.10354883            1 
  435000    1.2037328   -2.4065994    523.53755   0.10029455   0.10353009            1 
  436000    1.1784627    -2.378375    527.28603   0.10078097   0.10350725            1 
  437000     1.193915   -2.3930237     526.5521   0.10041039    0.1034845            2 
  438000    1.1460528   -2.4217967    528.87908   0.10062387   0.10346236            1 
  439000    1.1672915    -2.348025    531.22781   0.10084051   0.10343836            1 
  440000    1.1811327   -2.4017211    529.42506    0.1002699   0.10341393            1 
  441000    1.1595671   -2.3928736    531.29014   0.10039496     0.103388            2 
  442000    1.1813955   -2.3705488     530.2538  0.099972436   0.10336088            3 
  443000    1.1830555   -2.3755416    532.00695   0.10007655   0.10333504            1 
  444000    1.1756187   -2.3982274    535.36071   0.10048061   0.10330657            3 
  445000     1.187163   -2.4055009    534.95154   0.10017819   0.10327752            1 
  446000    1.1596335   -2.3714728    535.45122   0.10004694   0.10325017            1 
  447000    1.1939043   -2.4041105    535.35459  0.099805107    0.1032224            2 
  448000     1.191801   -2.3874922    535.16693  0.099547421   0.10319653            2 
  449000    1.2015007   -2.4010962    537.79853  0.099814129   0.10316795            2 
  450000    1.1542461   -2.3638358     538.9301  0.099801871   0.10314103            1 
  451000    1.1630739   -2.3806319     540.0164  0.099781301   0.10311313            3 
  452000    1.1726523   -2.3973091    543.32117   0.10016983   0.10308608            3 
  453000    1.1697432   -2.3631355    542.71217  0.099836676   0.10306073            3 
  454000     1.194573   -2.4213023    543.69218  0.099796655   0.10303345            3 
  455000    1.1997088   -2.3732578    547.35065   0.10024737   0.10300937            2 
  456000    1.1625431   -2.3890916     548.6639   0.10026753   0.10298504            2 
  457000    1.1795363   -2.3540486    549.42103   0.10018618   0.10296086            1 
  458000    1.1950265   -2.3880293    551.04639   0.10026317   0.10293787            1 
  459000    1.1818629    -2.380983    553.25531   0.10044577   0.10291446            1 
  460000    1.1715656   -2.3966262    553.58979   0.10028801   0.10289195            2 
  461000    1.1909874   -2.3993868    554.00286   0.10014513    0.1028701            1 
  462000    1.1664532   -2.4095888    554.50957   0.10001976    0.1028487            2 
  463000    1.1689859   -2.3897337    558.75034   0.10056702   0.10282927            2 
  464000    1.1774971   -2.3820004    556.89171   0.10001647   0.10280998            1 
  465000    1.1739666   -2.3821777    560.93385   0.10052578   0.10278962            3 
  466000    1.1729641   -2.3821189    558.89607  0.099945649   0.10277022            1 
  467000    1.1825498   -2.3825552    560.40257   0.10000046   0.10275244            2 
  468000    1.2144605   -2.3807959    562.97278   0.10024444    0.1027374            1 
  469000     1.179321    -2.390933    563.34567   0.10009696   0.10272039            1 
  470000    1.1808569   -2.3813762    566.33208   0.10041349   0.10270194            2 
  471000    1.1499872    -2.390552    568.95817   0.10066493   0.10268646            2 
  472000    1.1733498   -2.3749177    570.01234   0.10063777   0.10267128            1 
  473000    1.1926388   -2.3936609    570.31885   0.10047901   0.10265745            1 
  474000    1.1672674   -2.4048728    574.38348   0.10098162    0.1026452            2 
  475000    1.1704616   -2.4231838    574.40406   0.10077264   0.10263381            1 
  476000    1.1833358   -2.4098862    570.47628  0.099873297   0.10262131            1 
  477000    1.1789983   -2.4155842    574.59803     0.100384    0.1026057            2 
  478000    1.2057273   -2.4269668    575.72288    0.1003701   0.10259298            1 
  479000    1.1809966   -2.3618603    580.11586   0.10092482   0.10257974            1 
  480000    1.1822145   -2.3837029    578.65702   0.10046129   0.10256675            1 
  481000    1.1935905   -2.4007426    579.77853   0.10044673   0.10255395            2 
  482000    1.1700042   -2.4113884    580.59641   0.10037974   0.10254059            1 
  483000    1.1890357   -2.3621793     583.8806   0.10073854   0.10253053            2 
  484000    1.1982079    -2.414796    585.09076   0.10073877   0.10251921            1 
  485000    1.1756381   -2.4106788    583.51476   0.10026027   0.10250655            1 
  486000    1.1828255   -2.3942676    586.99371    0.1006505    0.1024951            2 
  487000    1.1858571   -2.4041863    588.09223    0.1006318   0.10248281            2 
  488000    1.1792061   -2.4082622    584.87789  0.099876688   0.10246747            2 
  489000    1.1844783   -2.3873559    591.53515   0.10080694   0.10245208            1 
  490000    1.1963132   -2.3727264    586.10075  0.099676998   0.10243763            1 
  491000    1.1808879   -2.3952326    589.07267   0.09997839   0.10242259            1 
  492000     1.164263   -2.3838201    591.84815   0.10024528   0.10240794            1 
  493000      1.17522   -2.4273477    592.75443   0.10019514   0.10239213            1 
  494000    1.2157368   -2.3908922    596.04116   0.10054676   0.10237772            2 
  495000    1.1681161   -2.3983304    595.37303   0.10023115   0.10236128            3 
  496000    1.1747919   -2.4156881    595.85964   0.10011083   0.10234375            2 
  497000    1.1851001   -2.3927668    598.20505   0.10030266    0.1023278            1 
  498000    1.1659983   -2.4232927    597.17101  0.099928215   0.10230991            1 
  499000    1.1619855   -2.3779661     599.8149   0.10016949   0.10229582            3 
  500000    1.1434016   -2.3911874    600.28025   0.10004671    0.1022787            1 
  501000    1.1404047    -2.428941    603.15924   0.10032589    0.1022629            1 
  502000    1.1854397   -2.3987889     603.0291   0.10010443   0.10224391            2 
  503000    1.1647621   -2.4034744    601.40008  0.099635534   0.10222543            1 
  504000    1.1577918   -2.3876728    605.12316   0.10005343   0.10220794            1 
  505000    1.1705902   -2.4059923    606.33642   0.10005551    0.1021895            1 
  506000    1.1620453   -2.3868752    602.03227  0.099148925   0.10217076            2 
  507000    1.1906332   -2.3866016    607.39346  0.099834559     0.102151            2 
  508000     1.189257   -2.3999596    607.42926  0.099643907   0.10213067            2 
  509000    1.1594908   -2.3957299    610.42537  0.099938666   0.10211068       -1e+20 
  510000    1.1417169   -2.3865106    613.91193   0.10031241   0.10209156            1 
  511000    1.1817844    -2.383666    614.60633   0.10022934   0.10207419            4 
  512000    1.1745846   -2.4308661    613.70157  0.099886323   0.10205419            1 
  513000    1.1597469   -2.3852461    612.97334  0.099573317   0.10203485            1 
  514000    1.1767462   -2.3725535    613.86716  0.099524507   0.10201419            2 
  515000    1.1683172    -2.390068    614.04993   0.09936083   0.10199341            1 
  516000    1.2019881   -2.3724598    618.93467  0.099957149    0.1019756            4 
  517000    1.1447275   -2.4116432    619.96966  0.099930635   0.10195762            1 
  518000      1.17128   -2.4059043    618.93866  0.099571857   0.10193832            2 
  519000    1.1955761   -2.3879484     622.0881  0.099885694   0.10192043            2 
  520000     1.185164   -2.3703468    622.69736  0.099791244   0.10190388            1 
  521000    1.1668829    -2.422012    621.14917  0.099352074   0.10188722            1 
  522000    1.1621225   -2.3982744    623.86661  0.099595564    0.1018688            2 
  523000    1.1674208   -2.3851218    625.13353  0.099606999    0.1018507            1 
  524000    1.1832316   -2.4159843    627.65173  0.099817387   0.10183101            1 
  525000    1.1562371    -2.411297    624.12125  0.099066865   0.10181338            4 
  526000    1.1750542   -2.3926112     629.6809  0.099759331   0.10179635            1 
  527000     1.156593   -2.4173349    631.77728  0.099901531   0.10178102            1 
  528000    1.1832322   -2.4020125    635.31332   0.10027041   0.10176504            1 
  529000    1.1747492   -2.3960898    636.60413    0.1002842   0.10174948            2 
  530000    1.1483588    -2.388829    633.82946   0.09965872   0.10173356            1 
  531000    1.1811088   -2.4079101    633.73359  0.099455993   0.10171681            1 
  532000    1.1324036   -2.4110092    637.25663  0.099820901   0.10170132            1 
  533000    1.1600503   -2.4209936    637.55496  0.099680262   0.10168404            1 
  534000     1.165872   -2.4255842    637.81122  0.099533587   0.10166498            2 
  535000    1.1795714   -2.3795587    639.74449  0.099648675   0.10164719            2 
  536000    1.1669719   -2.4313224    639.69858  0.099455625   0.10163137            2 
  537000    1.1522997   -2.3654019    644.10879  0.099954809   0.10161596            2 
  538000    1.1792868   -2.3856672    642.85614   0.09957499   0.10160158            3 
  539000    1.1715083   -2.4189648    645.40709  0.099784646   0.10158718            2 
  540000    1.1582411   -2.3738088     651.3945   0.10052384   0.10157155            2 
  541000    1.1683822   -2.4206592    645.42275  0.099418169   0.10155695            1 
  542000    1.1550156   -2.3819356    649.62057  0.099880161   0.10154079            2 
  543000    1.1481786   -2.4237255    647.99373  0.099446551   0.10152542            3 
  544000    1.1628746   -2.4162943    650.90565  0.099709811   0.10151122            3 
  545000     1.156342   -2.4201582    651.31626  0.099589642   0.10149535            1 
  546000    1.1843534   -2.4240939    651.16564  0.099384255   0.10147889            3 
  547000    1.1636262   -2.4252902    651.89671  0.099313941   0.10146315            2 
  548000    1.1607063   -2.4010025    649.54509  0.098775104   0.10144534            2 
  549000     1.153483   -2.4201994    651.92494  0.098956426   0.10142508            1 
  550000    1.1955189   -2.4044259    654.22394   0.09912484    0.1014057            2 
  551000    1.1788859   -2.3864855    657.12894  0.099384293   0.10138456            1 
  552000    1.1746512   -2.3978868    657.57622  0.099271772   0.10136644            2 
  553000    1.1665238    -2.408386    658.35027  0.099208902   0.10134778            1 
  554000    1.1815397    -2.381605    657.02557  0.098830561   0.10132868            1 
  555000    1.1848277   -2.4236266     658.5602  0.098882913    0.1013091            2 
  556000     1.159875   -2.3811471     660.0562  0.098929286   0.10129035            2 
  557000     1.186784   -2.4282251    663.96301  0.099336178   0.10127137            1 
  558000    1.1637323   -2.4097922     662.3472  0.098916846   0.10125097            1 
  559000    1.1575877   -2.4351965    661.97995  0.098685145    0.1012288            2 
  560000    1.1675355   -2.4094999    665.00953  0.098959752    0.1012076            1 
  561000    1.1339681   -2.4064874    667.72843   0.09918723   0.10118526            1 
  562000    1.1373525   -2.4150282     665.5445  0.098686906   0.10116333            1 
  563000    1.1539231   -2.3932297    667.80341  0.098845975   0.10114325            2 
  564000    1.1416669   -2.3931635    669.07098  0.098858005   0.10112351            2 
  565000     1.169157   -2.4051073    669.07613  0.098683795   0.10110266            1 
  566000    1.1407156   -2.4426793    669.22262   0.09853101   0.10108265            5 
  567000    1.1690935   -2.4158178    671.55441  0.098699943   0.10106012            1 
  568000     1.187775   -2.3850843    675.86203  0.099158162   0.10104054            3 
  569000     1.155164   -2.4173255      675.974  0.099000293   0.10102058            2 
  570000    1.1653468   -2.3817715    675.08027  0.098695946   0.10100049            2 
  571000     1.149339   -2.3717167    677.82423   0.09892356   0.10097933            2 
  572000    1.1746734   -2.4211735    679.19161  0.098949827   0.10095805            1 
  573000    1.1685673   -2.3810046    677.52956  0.098535422   0.10093367            2 
  574000    1.1407911   -2.4497073    676.11708  0.098158694   0.10090896            1 
  575000    1.1419319   -2.3508382    679.60136  0.098492951   0.10088448            2 
  576000    1.1689917   -2.4308078    678.66141  0.098185968   0.10086102            2 
  577000    1.1630321   -2.3822979    680.13335  0.098228387   0.10083857            2 
  578000    1.1582772   -2.4097801    683.83267  0.098591791   0.10081465            1 
  579000     1.153305   -2.3927201     686.9079  0.098864119   0.10079177            1 
  580000     1.154789    -2.400635    681.18959  0.097872067   0.10076653            2 
  581000     1.154524   -2.4201836    683.91039   0.09809386   0.10074216            1 
  582000    1.1591454   -2.4050257    684.78192  0.098050103   0.10071661            1 
  583000    1.1646308   -2.4065843    683.59742  0.097712609    0.1006916            1 
  584000    1.1435754   -2.4037231     688.7119    0.0982751   0.10066575            2 
  585000    1.1371992   -2.4107823    690.47981  0.098358948   0.10064125            2 
  586000     1.171754   -2.3959759    689.03155  0.097985146   0.10061537            1 
  587000    1.1469281   -2.4091334    690.86337  0.098078275   0.10058952            1 
  588000    1.1644224   -2.4062239    692.68738   0.09816998   0.10056516            2 
  589000    1.1746611   -2.4153179    691.93978  0.097897535   0.10054147            2 
  590000     1.160448   -2.4163511    691.43866  0.097660827   0.10051507            2 
  591000    1.1806651   -2.4028941    695.57497  0.098078818    0.1004909            1 
  592000    1.1774851   -2.3942334    695.79775  0.097944503    0.1004656            1 
  593000    1.1731662   -2.3893871    701.21121  0.098540079   0.10044213            2 
  594000    1.1495712   -2.4093959    699.35876  0.098114304   0.10041821            2 
  595000    1.1419067    -2.419122    698.28272  0.097798701   0.10039409            6 
  596000    1.1141343   -2.3933005    700.63424    0.0979634   0.10036912            2 
  597000    1.1610261   -2.4103024    704.56777  0.098348376   0.10034603            1 
  598000    1.1545738   -2.4202194    700.23102  0.097579573   0.10032193            2 
  599000    1.1371549   -2.4061411    704.43906  0.098002095   0.10030013            2 
  600000    1.1530882   -2.4282888    706.47561  0.098121612   0.10027809            2 
  601000    1.1444483   -2.4342402    704.06065  0.097623496   0.10025534            2 
  602000    1.1743833   -2.4172441    706.99871  0.097868039   0.10023066            2 
  603000     1.175549   -2.3912071    707.27668  0.097744152   0.10020676            2 
  604000    1.1695362   -2.4264884    709.53205  0.097893495   0.10018408            3 
  605000    1.1771197   -2.4174104    710.28207  0.097834996   0.10016115            1 
  606000    1.1459101   -2.3970098    713.65237  0.098137014   0.10013982            1 
  607000    1.1686016   -2.4199307    714.07228  0.098032987    0.1001183            1 
  608000    1.1315593   -2.4096854    713.86244  0.097842988   0.10009682            2 
  609000    1.1317651   -2.4385227     715.3514  0.097886069   0.10007489            1 
  610000    1.1530985   -2.3982787    715.23666  0.097709926    0.1000547            2 
  611000    1.1532069    -2.431642    716.88276  0.097774517   0.10003356            1 
  612000    1.1493274   -2.4390037    715.87255  0.097477199    0.1000124            1 
  613000    1.1695238   -2.3978399    720.09227  0.097891826  0.099990985            1 
  614000    1.1495206   -2.4057416    722.25939  0.098026518  0.099969181            2 
  615000    1.1643676   -2.4024316    722.03418   0.09783661  0.099948161            2 
  616000    1.1570031   -2.4366672    724.93233   0.09806985  0.099928535            1 
  617000    1.1440636   -2.4064729     725.0562  0.097927633  0.099906425            2 
  618000     1.146389   -2.4261294    730.07897  0.098446464     0.099886            2 
  619000    1.1621852   -2.4183941    730.75894  0.098378963   0.09986625            3 
  620000    1.1513434   -2.3938001    728.22186  0.097879283  0.099845148            1 
  621000    1.1484668    -2.398739    734.31922  0.098539884  0.099824931            1 
  622000    1.1756652   -2.4131299    732.54965   0.09814438  0.099806272            1 
  623000    1.1711676   -2.4256214      735.399  0.098367978  0.099787339            1 
  624000    1.1587039   -2.3625785    735.54688  0.098230085  0.099768625            2 
  625000    1.1426931   -2.4250644    735.61561  0.098082082  0.099750558            4 
  626000    1.1478924   -2.4134555    733.13617  0.097595336  0.099731713            1 
  627000    1.1271788   -2.3972975    739.04266  0.098224702  0.099711638            1 
  628000    1.1564343   -2.4356052     738.5257  0.097999694  0.099692863            2 
  629000      1.13388   -2.4436665    739.42989  0.097963685  0.099674423            1 
  630000    1.1670385   -2.4202174    742.65705  0.098235059  0.099657071            1 
  631000    1.1510793   -2.4072456    741.09331  0.097872861  0.099639898            1 
  632000    1.1710734   -2.4343108    742.21715  0.097866186  0.099623865            4 
  633000    1.1432479   -2.4206515    747.39033  0.098392618  0.099608184            1 
  634000    1.1627955   -2.4562536    746.46683  0.098116039  0.099594253            1 
  635000    1.1686108   -2.4090327    749.68067  0.098383289  0.099579321            1 
  636000    1.1424135   -2.4146345    748.60228  0.098087301  0.099564851            1 
  637000    1.1839429   -2.3940114    751.92863  0.098368476  0.099549377            2 
  638000    1.1227791   -2.4121082     747.9524  0.097694932  0.099533222            2 
  639000    1.1397816   -2.4436319    751.93994  0.098062069  0.099516426            4 
  640000    1.1504417   -2.4058012    749.64953  0.097610616  0.099499974       -1e+20 
  641000    1.1178859    -2.430735    753.71267  0.097986567  0.099484759            2 
  642000    1.1657262   -2.4236423    757.87742  0.098374535  0.099470204            1 
  643000    1.1497616   -2.4302104    754.44954  0.097777286  0.099454995            1 
  644000    1.1310352   -2.4198164    756.90853   0.09794365   0.09944011            2 
  645000    1.1264638   -2.3941551    763.94905  0.098701428  0.099426022            3 
  646000    1.1322207   -2.4176839    760.02149  0.098041988  0.099412751            4 
  647000    1.1352354   -2.4211416    763.44287  0.098331127  0.099397829            1 
  648000    1.1481069   -2.4431887    763.16371  0.098143482  0.099383236            1 
  649000    1.1520039   -2.4256384    763.63568  0.098052861  0.099368909            3 
  650000     1.157243   -2.4043739    761.59544  0.097640441  0.099353049            2 
  651000    1.1425946   -2.4117187    766.80384  0.098157173  0.099337918            1 
  652000    1.1312822   -2.4306418    767.60706  0.098109287  0.099323743            1 
  653000     1.135484   -2.4224831    766.61562  0.097832519  0.099309936            1 
  654000    1.1469912   -2.4114221     771.1669  0.098262857  0.099295671            2 
  655000    1.1454888   -2.3990086    766.74726  0.097550542  0.099281289            2 
  656000    1.1454615   -2.4275261    769.92231  0.097805171  0.099266723            2 
  657000    1.1528751   -2.4285847    772.71827  0.098010942  0.099252175            1 
  658000        1.148   -2.4068626    773.82413  0.098002042  0.099235962            1 
  659000    1.1571942   -2.4165588    775.09469  0.098013997  0.099218504            1 
  660000    1.1507043   -2.3935546     778.1867  0.098255897    0.0992023            1 
  661000    1.1534538   -2.4252528    773.92376  0.097569814  0.099186291            2 
  662000    1.1685106   -2.4338513     776.5691  0.097755426  0.099170807            5 
  663000     1.160118    -2.449353    775.44225  0.097466346  0.099152652            1 
  664000    1.1564745   -2.4312314    777.84082  0.097620585  0.099136298            3 
  665000    1.1227165   -2.3961867    780.28362  0.097779902  0.099120652            2 
  666000    1.1487305   -2.4097752    782.60552  0.097923614  0.099104114            2 
  667000    1.1510477   -2.4360462    782.19294  0.097725255  0.099088371            1 
  668000    1.1335776   -2.4334334    786.51503  0.098118143  0.099072024            1 
  669000    1.1690667   -2.4302263    785.17649  0.097804744  0.099057282            2 
  670000    1.1433334   -2.4099241    785.51736  0.097701164  0.099043999            2 
  671000    1.1580851   -2.4138228    787.36827  0.097785429  0.099028516            1 
  672000    1.1424065   -2.4142979    789.04604  0.097847971  0.099012417            2 
  673000    1.1540412   -2.4351623    786.78381  0.097422463  0.098996431            4 
  674000    1.1489244      -2.4263    791.66777  0.097881771  0.098981784            1 
  675000    1.1585712   -2.4298346    792.74066  0.097869217  0.098966475            2 
  676000    1.1146657    -2.418115    793.82097  0.097857615  0.098953207            2 
  677000    1.1370357   -2.4040643    794.34277  0.097777298   0.09894056            2 
  678000    1.1582064    -2.443148    792.47791  0.097403872    0.0989254            3 
  679000    1.1190777    -2.408369    796.72243  0.097781349  0.098909565            1 
  680000    1.1479542   -2.4492897    795.97105  0.097545471  0.098895152            1 
  681000    1.1678675   -2.4134943    798.15518  0.097669504  0.098881401            1 
  682000    1.1235269   -2.4286775    801.90081   0.09798397  0.098867348            1 
  683000     1.127329   -2.4506753    800.08848  0.097619385  0.098852425            2 
  684000    1.1345482    -2.433149    802.05425  0.097716161  0.098838934            2 
  685000    1.1514321    -2.435585    798.45173  0.097135247  0.098824133            2 
  686000    1.1434477   -2.4345058    803.15139  0.097564552  0.098809122            2 
  687000    1.1685132   -2.4072647    800.27797  0.097073989   0.09879368            2 
  688000    1.1363335    -2.444923    802.18362  0.097163714  0.098778187            2 
  689000    1.1433566   -2.4577054    804.93122   0.09735501  0.098762776            5 
  690000    1.1467309   -2.4266033    805.73299  0.097310747  0.098749551            2 
  691000    1.1312322   -2.4316177    812.39781  0.097973687  0.098734352            1 
  692000    1.1389808   -2.4347221    812.00437  0.097784726  0.098720742            3 
  693000    1.1089103   -2.4330407    815.18894  0.098026568  0.098707356            1 
  694000    1.1368075   -2.4206565    812.97408  0.097619366  0.098693793            2 
  695000     1.123148   -2.4209344    813.96459  0.097597673  0.098681066            3 
  696000    1.1416329   -2.4263487    817.19244  0.097843922  0.098668126            1 
  697000    1.1470139   -2.4498081    818.35352  0.097842362  0.098654434            1 
  698000    1.1384249   -2.4256151    819.85696  0.097881681   0.09863963            2 
  699000    1.1601525   -2.4197536    819.42161  0.097689748  0.098626566            1 
  700000    1.1327982   -2.4411655     819.0671  0.097507987  0.098613818            2 
  701000    1.1424428    -2.444755    822.69847  0.097800579  0.098601429            2 
  702000    1.1467132   -2.4149605    822.92359  0.097687986  0.098588143            2 
  703000    1.1357533    -2.392233    824.16798  0.097696536  0.098576375            2 
  704000    1.1488345   -2.4126546    827.06455  0.097900633  0.098564739            3 
  705000    1.1264585     -2.40047    829.69362  0.098072532  0.098553556            3 
  706000    1.1568656   -2.4219052    829.74133   0.09793925  0.098541853            1 
  707000    1.1096433   -2.4486915    829.43356  0.097764446  0.098529561            2 
  708000    1.1260573    -2.425312    828.35241  0.097499107  0.098517894            1 
  709000    1.1506426   -2.4287659    831.26022  0.097703363  0.098506343            1 
  710000    1.1328918   -2.4086476    830.84773   0.09751734  0.098493426            2 
  711000    1.1227943   -2.4299576    833.81221  0.097727638  0.098479477            2 
  712000    1.1415268   -2.4157577    833.27471  0.097527471  0.098466166            3 
  713000    1.1527457   -2.4473748    832.25764  0.097271814   0.09845305            2 
  714000    1.1381338   -2.4356782     835.3386  0.097495167  0.098439644            2 
  715000    1.1569115   -2.4286819    835.20051  0.097342716  0.098424689            2 
  716000    1.1656077   -2.3834666    834.77308  0.097157015  0.098410457            2 
  717000    1.1453381   -2.4124089    838.21742   0.09742183  0.098397042            3 
  718000    1.1144155   -2.4270232    836.65319  0.097104595  0.098384416            1 
  719000    1.1218054   -2.4405832    840.92337  0.097464461  0.098372149            1 
  720000    1.1251114   -2.4121127    840.07903  0.097231369  0.098358315            2 
  721000    1.1295263   -2.4470949     839.6883  0.097051352  0.098344168            1 
  722000    1.1556673   -2.4356431    844.24925  0.097443357  0.098329841            2 
  723000     1.140648   -2.4098939    844.88568  0.097381937   0.09831695            2 
  724000    1.1414726    -2.440933     844.2878  0.097178615  0.098302432            2 
  725000    1.1382123   -2.4496357    847.30423  0.097391291  0.098289155            2 
  726000     1.135388   -2.4146446     846.9493  0.097216402  0.098275025            3 
  727000    1.1393379   -2.4435454    849.78381   0.09740759  0.098261617            1 
  728000    1.1309131   -2.4547066    847.57552  0.097021007  0.098247709            2 
  729000     1.155454   -2.4486948    847.07847  0.096831101  0.098231331            2 
  730000    1.1418894   -2.4342137    851.65069  0.097220398  0.098218021            3 
  731000    1.1237581    -2.422545    855.86997  0.097568396   0.09820391            1 
  732000    1.1178443   -2.4388437    846.25759    0.0963408  0.098189749            2 
  733000    1.1222782   -2.4387299    850.39694  0.096679961  0.098174817            1 
  734000    1.1174708   -2.4522235    854.75551  0.097043086  0.098159978            2 
  735000    1.1498922   -2.4268914     861.2671  0.097649331  0.098145847            2 
  736000    1.1218447   -2.4332666    856.65262  0.096994182  0.098133835            1 
  737000    1.1350264   -2.4325847    863.99484  0.097692768  0.098120675            3 
  738000    1.1216754    -2.425446    858.75429  0.096968641  0.098107436            3 
  739000    1.1425716   -2.3993199    862.27444  0.097234376  0.098093756            2 
  740000    1.1588029   -2.4585766    861.29639  0.096992836  0.098080914            2 
  741000    1.1385924   -2.4394038    864.78452  0.097254219  0.098067509            2 
  742000    1.1085887   -2.4456281    865.35743  0.097187492  0.098054717            2 
  743000    1.1192839   -2.4024756     868.7406  0.097436137  0.098041822            5 
  744000     1.152775   -2.4509842    864.75897  0.096859204  0.098028967            3 
  745000    1.1467004   -2.4517788    868.71987  0.097172245  0.098016634            2 
  746000    1.1486087   -2.4612854    869.23445  0.097099469  0.098004254            3 
  747000    1.1349281   -2.4468683    869.98544  0.097053262  0.097993234            5 
  748000    1.1572642   -2.4478462    874.61079  0.097438814  0.097982359            1 
  749000    1.1331402    -2.453956    873.51406    0.0971867  0.097970687            2 
  750000    1.1313235    -2.427256    878.16928  0.097574365  0.097960003            2 
  751000    1.1221339     -2.41242    878.28003  0.097456728  0.097948864            1 
  752000     1.128853   -2.4143384    880.56458  0.097580294  0.097937585            2 
  753000    1.1466541   -2.4504734    882.48065  0.097662754  0.097927787            1 
  754000    1.1605059   -2.4238229    880.06376   0.09726611  0.097917883            2 
  755000    1.1370852   -2.4293401    884.91909  0.097673188  0.097908092            1 
  756000    1.1207359    -2.446254    877.71445  0.096749829  0.097896787            1 
  757000    1.1626637   -2.4446024    883.67177  0.097277826  0.097887567            1 
  758000    1.1343367   -2.4368952    885.32577   0.09733133  0.097877961            1 
  759000    1.1163026   -2.4355691    885.34013   0.09720467  0.097868134            1 
  760000     1.128896   -2.4680626    889.99899  0.097587608  0.097857683            2 
  761000    1.1124074   -2.4469582    888.56249  0.097302068  0.097848371            1 
  762000    1.1428132   -2.4282988    886.83446  0.096985396  0.097838983            5 
  763000    1.1319296   -2.4560474    891.21572  0.097336798  0.097828474            2 
  764000    1.1269545   -2.4112054    890.93034  0.097178265  0.097816834            2 
  765000    1.1484723   -2.4282857    892.82065  0.097257151  0.097806831            3 
  766000    1.1399499   -2.4468961    894.76927  0.097342175  0.097796138            2 
  767000    1.1267298   -2.4188858    893.41456  0.097068075  0.097784142            1 
  768000    1.1262461   -2.4503789    892.63654  0.096857264   0.09777198            1 
  769000    1.1366062   -2.4309679    893.77586  0.096854774  0.097760249            4 
  770000    1.1113637    -2.431212    898.03861  0.097190326  0.097749917            4 
  771000     1.113036   -2.4401623    897.99913  0.097060002  0.097737792            1 
  772000    1.1572182   -2.4837918    895.28849  0.096641676  0.097725463            2 
  773000    1.1263057   -2.4644232    898.66075  0.096880201  0.097713898            1 
  774000    1.1023925   -2.4130161    904.10673  0.097341379  0.097703093            1 
  775000    1.1131469   -2.4407644    898.07023  0.096566691  0.097691335            1 
  776000    1.1363185   -2.4251688    904.15636  0.097095829  0.097678906            2 
  777000    1.1331686   -2.4314136    900.62921   0.09659258  0.097667835            1 
  778000    1.1515126   -2.4471041    906.60869    0.0971089  0.097656185            2 
  779000    1.1390869   -2.4329305    904.05017  0.096710544  0.097644511            1 
  780000    1.1451782   -2.4653463    909.58668  0.097178064   0.09763263            2 
  781000    1.1055918   -2.4371073     906.1168  0.096683398  0.097619577            2 
  782000    1.1339299   -2.4811917     902.9409  0.096221324  0.097607373            3 
  783000    1.1262673   -2.4701847     909.9789  0.096847477  0.097595266            2 
  784000    1.1324451   -2.4265506    914.33692  0.097187173  0.097583293            6 
  785000    1.1109189   -2.4604911    908.57388  0.096451579  0.097569947            3 
  786000    1.1453018   -2.4251933    911.67156   0.09665729  0.097557527            2 
  787000    1.1337926   -2.4633391    909.67393  0.096322949  0.097544713            2 
  788000    1.1483086   -2.4560383    913.81204  0.096638329  0.097531217            1 
  789000    1.1076942   -2.4231748    916.21099  0.096769222  0.097518935            3 
  790000    1.1219865   -2.4341062     916.1192  0.096637046  0.097504379            1 
  791000    1.1306903   -2.4447766    916.19076  0.096522414  0.097491146            1 
  792000    1.1305137     -2.46233    918.42143  0.096635252  0.097477246            1 
  793000    1.1284145   -2.4344088    919.23398  0.096598778  0.097463258            2 
  794000    1.1272495   -2.4397306    915.89827  0.096127023  0.097449704            1 
  795000    1.1159326   -2.4457888    924.29146  0.096885897  0.097437479            2 
  796000    1.1478666   -2.4366711    927.35989  0.097085416  0.097425619            1 
  797000     1.123201   -2.4609972    920.53653   0.09625016   0.09741426            2 
  798000    1.1400775   -2.4738024    925.56127  0.096654267  0.097401237            1 
  799000    1.1259235   -2.4417864    929.27433   0.09692056  0.097390752            2 
  800000    1.1166542   -2.4558705    924.18168  0.096268925  0.097378087            2 
  801000     1.111412   -2.4436419    928.20989   0.09656782  0.097365297            2 
  802000    1.1497368   -2.4445469    928.72135  0.096500556  0.097353432            2 
  803000    1.1136542   -2.4564115    930.44107  0.096558849  0.097341086            2 
  804000     1.121407   -2.4257211    932.34929  0.096636535  0.097329261            2 
  805000    1.1262728   -2.4253066    937.58512  0.097058501  0.097317375            2 
  806000    1.1319669   -2.4582321    932.32375  0.096394102  0.097305399            2 
  807000    1.1336962   -2.4168757    935.67032  0.096620231  0.097292281            2 
  808000    1.1123598   -2.4217774    936.60667  0.096597222   0.09727949            1 
  809000    1.1182177    -2.429061    937.12664   0.09653138   0.09726557            3 
  810000    1.1373577   -2.4375631    935.32672  0.096227029  0.097251847            1 
  811000    1.1114131   -2.4651872    935.21688   0.09609709  0.097239371            1 
  812000    1.1269217    -2.440433    940.75551  0.096547158  0.097226231            3 
  813000    1.1266787   -2.4899749    938.63696  0.096211251  0.097212251            3 
  814000     1.143412   -2.4636855     938.8446  0.096114312  0.097199735            3 
  815000    1.1075378   -2.4839448     936.9864   0.09580638  0.097185678            4 
  816000    1.1242051   -2.4218697     944.7426  0.096481066  0.097172763            7 
  817000    1.1263418   -2.4569404    943.31894  0.096217762  0.097159626            2 
  818000    1.1018394   -2.4578727    943.28179  0.096096352   0.09714663            1 
  819000    1.1302587   -2.4547413    944.30937  0.096083574  0.097134222            2 
  820000    1.1210728   -2.4399534    950.27755  0.096572921  0.097120735            1 
  821000    1.1273263    -2.434554    947.68487   0.09619213  0.097108314            2 
  822000    1.1222702   -2.4456168    950.46206  0.096356656    0.0970953            1 
  823000     1.123486   -2.4485969    949.21785  0.096113594  0.097083384            1 
  824000     1.120285   -2.4708631    949.69498  0.096045204  0.097071435            3 
  825000    1.1348361   -2.4442006    949.22701  0.095881516  0.097057927            4 
  826000    1.1507699    -2.458021    952.35147  0.096080657  0.097046001            2 
  827000    1.1090887   -2.4619467      953.045  0.096034361  0.097033124            2 
  828000    1.1500142   -2.4733159    956.70439  0.096286673  0.097021154            2 
  829000    1.1128658   -2.4496074    955.82534  0.096082161  0.097008281            2 
  830000    1.1082252   -2.4624109     957.3159  0.096116054  0.096994886            1 
  831000    1.1290493   -2.4525983    962.63477  0.096533772  0.096982749            1 
  832000    1.1268119   -2.4494406    960.26924  0.096180814  0.096969122            6 
  833000    1.0969998   -2.4317486     962.0409  0.096242587   0.09695519            1 
  834000    1.1152887   -2.4508708    961.90409  0.096113518  0.096941367            2 
  835000    1.0999136   -2.4489157    958.20292  0.095629034  0.096926553            2 
  836000    1.1263081    -2.471323    959.37041  0.095631022  0.096911624            1 
  837000    1.1221023    -2.436988    966.56983  0.096233556  0.096897234            2 
  838000    1.1167005   -2.4375857    964.91562  0.095954218  0.096884048            2 
  839000     1.106342    -2.472456    963.36995  0.095686328  0.096870105            2 
  840000    1.1144831   -2.4802265    962.54714  0.095490788  0.096854967            2 
  841000    1.1130626   -2.4646405    964.62722  0.095583355  0.096839696            2 
  842000    1.1204898   -2.4510753    962.25822  0.095235374  0.096824299            2 
  843000    1.1192378   -2.4340881    965.91978   0.09548436  0.096808945            1 
  844000    1.1145663   -2.4892488     965.0637    0.0952867  0.096792729            2 
  845000    1.0984783    -2.475469    968.61392  0.095524055  0.096775787            1 
  846000    1.1109757   -2.4685256    969.04245  0.095453354  0.096759974            2 
  847000    1.1316372   -2.4594164    972.93182  0.095723319  0.096744527            2 
  848000    1.1337494   -2.4412584    972.28248  0.095546627   0.09672892            3 
  849000    1.1048929   -2.4288807    974.93687  0.095694628  0.096713151            2 
  850000    1.1279052   -2.4731683    972.52668  0.095345753  0.096699145            2 
  851000     1.108727   -2.4436777    975.62715  0.095537323  0.096683727            2 
  852000     1.130906   -2.4321472    978.76367  0.095731971  0.096667512            1 
  853000    1.0939866   -2.4551895    978.75955  0.095619338  0.096651466            1 
  854000    1.1062217   -2.4284323    977.00172  0.095335843  0.096636428            3 
  855000    1.1102222    -2.453767    978.34583  0.095355344  0.096621253            2 
  856000    1.1289944   -2.4417598    981.07674  0.095509807  0.096605453            3 
  857000    1.0933874   -2.4642118    983.42487  0.095626689   0.09658951            1 
  858000    1.1124345   -2.4487477    982.03101  0.095379857  0.096573873            1 
  859000    1.1104954   -2.4707988    989.89846  0.096032059  0.096557936            1 
  860000    1.1147146   -2.4515993    982.61126  0.095214269  0.096542417            2 
  861000    1.1178865   -2.5126258    983.17288  0.095158041  0.096526396            2 
  862000    1.1125994   -2.4448565    983.49644  0.095078929  0.096510662            1 
  863000    1.1259109   -2.4627964    990.11097  0.095607471  0.096495515            2 
  864000    1.1213072   -2.4160354    989.45696  0.095433735  0.096480579            3 
  865000    1.1251767   -2.4617225    988.10142  0.095192815  0.096465378            1 
  866000    1.1069489   -2.4554545    990.20697  0.095285505  0.096450139            2 
  867000    1.0999174   -2.4592461    993.36633  0.095479271  0.096435383            3 
  868000     1.131974    -2.466508    994.86129  0.095512797  0.096420496            2 
  869000    1.1108405   -2.4450507    988.90641  0.094831839  0.096406531            2 
  870000    1.1252463   -2.4606044    997.83846  0.095578396  0.096391511            3 
  871000    1.1309815   -2.4728376     994.4737  0.095146737  0.096375916            1 
  872000    1.1056081   -2.4510762    997.37735  0.095315114  0.096359575            1 
  873000    1.0918705   -2.4250522    999.80879  0.095438028  0.096344946            2 
  874000    1.1073447   -2.4674414    1003.8661  0.095715685   0.09633049            2 
  875000    1.1083707   -2.4761633    996.57026  0.094911453  0.096314208            1 
  876000    1.1120385   -2.4550626    1001.4475  0.095267075  0.096298488            3 
  877000    1.0970103    -2.481546    1002.3424  0.095243481  0.096282293            1 
  878000    1.1019245   -2.4463187    1004.8317   0.09537127  0.096266299            1 
  879000    1.1303065   -2.4667465    1002.4706  0.095038927  0.096250308            3 
  880000    1.1191382   -2.4434689    1004.6431  0.095136657  0.096234215            1 
  881000    1.1061067   -2.4802783    1003.5498  0.094925254  0.096218361            1 
  882000    1.1171192   -2.4645414    1002.2088   0.09469093  0.096201685            2 
  883000    1.0906499    -2.468399    1004.1659   0.09476839  0.096184908            3 
  884000    1.1073924   -2.4612476    1004.5122  0.094693833  0.096167709            1 
  885000    1.1006357   -2.4576233    1007.1956  0.094839508  0.096150642            1 
  886000    1.1150743    -2.445546    1007.1665  0.094729733  0.096133454            1 
  887000    1.1204071   -2.4567247     1010.089  0.094897496  0.096116558            1 
  888000     1.122237   -2.4525769    1007.7607  0.094572139  0.096099785            1 
  889000    1.1345497   -2.4666256      1008.83  0.094565996  0.096081734            1 
  890000    1.0771007    -2.478881    1010.5927   0.09462478  0.096063849            1 
  891000    1.1385823   -2.4302379    1010.0834   0.09447095  0.096047254            2 
  892000    1.1226092   -2.4665647    1013.4532  0.094679861  0.096029349            1 
  893000    1.1073113   -2.4614759    1021.1645  0.095293443  0.096012346            2 
  894000    1.1326076   -2.4619708    1009.8873  0.094135652  0.095993866            2 
  895000    1.1124715   -2.4701217    1011.7392  0.094202909  0.095976003            1 
  896000    1.1097508   -2.4673731    1015.7304  0.094468971  0.095958526            1 
  897000    1.0912681   -2.4762733    1019.7278  0.094735024  0.095941397            3 
  898000    1.0826606   -2.4807989    1021.4054  0.094785212  0.095924585            1 
  899000    1.1224663   -2.4797369    1016.8227  0.094254978  0.095906958            2 
  900000     1.117486   -2.4655238    1022.5699  0.094682398  0.095889826            1 
  901000    1.1281838   -2.4363628    1026.7776  0.094966479  0.095872047            2 
  902000    1.1192391   -2.4831389    1021.9036  0.094410905  0.095853204            3 
  903000    1.1176407   -2.4814648    1024.6856   0.09456309  0.095835399            3 
  904000    1.0908339    -2.474012    1018.6557  0.093902628  0.095817173            2 
  905000    1.1192846   -2.4628408    1030.7072  0.094908579  0.095798655            2 
  906000     1.107349    -2.472264    1026.6129  0.094427239  0.095780998            1 
  907000    1.0984643   -2.4245971    1028.8442  0.094528131  0.095764017            1 
  908000    1.0985298   -2.4610911    1022.1687  0.093811375  0.095745473            1 
  909000    1.0985056   -2.4684261    1032.3426  0.094640865  0.095726943            2 
  910000    1.1095541   -2.4332774    1028.8676  0.094218641  0.095708816            1 
  911000     1.113233   -2.4732353    1030.2234  0.094239242  0.095690398            3 
  912000    1.1160131   -2.4464345    1037.1355  0.094767499  0.095671573            2 
  913000    1.0880078    -2.477954    1032.1382  0.094207579  0.095653719            2 
  914000    1.1283271   -2.4445222    1036.8462  0.094533752  0.095635513            1 
  915000    1.1041191   -2.4483621    1034.8632   0.09424984  0.095616941            2 
  916000    1.1209156   -2.4760311    1032.3271   0.09391622  0.095599193            2 
  917000    1.0948223   -2.4947525    1038.7673  0.094399066  0.095581848            5 
  918000    1.1069874   -2.4836009    1038.4021   0.09426308   0.09556354            1 
  919000    1.1214171   -2.4660024    1036.2529   0.09396562  0.095545413            1 
  920000    1.1077337   -2.4589799    1039.6017  0.094166823  0.095528279            3 
  921000    1.1244206   -2.4717175     1036.382  0.093773251  0.095509801            1 
  922000    1.0967732   -2.4252783     1042.208  0.094198122  0.095492626            1 
  923000    1.1085797   -2.4768692    1042.3745  0.094111095  0.095474332            2 
  924000    1.0949524   -2.5057742    1042.4662  0.094017511  0.095455838            1 
  925000    1.1031341    -2.456688    1046.3316  0.094264109   0.09543802            3 
  926000    1.1216832   -2.4552705    1050.4751  0.094535197  0.095421821            2 
  927000     1.123413   -2.4587804    1047.8873  0.094200586  0.095404654            1 
  928000    1.1229628   -2.4561978    1052.2039  0.094486704  0.095388931            2 
  929000    1.0899615   -2.4914674    1049.2072  0.094116178  0.095372419            1 
  930000    1.1349591   -2.4548651    1056.9222  0.094706288   0.09535615            2 
  931000     1.090279   -2.4442191    1052.8503  0.094240091  0.095340543            1 
  932000    1.1065326   -2.4985294    1054.3039  0.094268948  0.095325516            2 
  933000    1.1234026   -2.4723112    1054.4535  0.094181273   0.09530918            1 
  934000     1.101659   -2.4578517    1056.8058  0.094290312  0.095292985            2 
  935000    1.1162855   -2.4855865    1051.8895  0.093751291  0.095276482            2 
  936000    1.0860573   -2.4539988    1059.8211  0.094357288  0.095260495            1 
  937000    1.1159104   -2.4635689    1057.2009  0.094023557  0.095243931            2 
  938000    1.1052569   -2.4686261    1060.0833  0.094179394  0.095227216            2 
  939000    1.1194067    -2.485917    1057.8324  0.093879338  0.095210545            1 
  940000    1.1022973   -2.4849579    1060.8149  0.094043877  0.095193891            2 
  941000    1.0853503   -2.4809088    1063.1018  0.094146457  0.095177428            4 
  942000    1.0759813   -2.4602975    1060.7403  0.093837608  0.095161958            3 
  943000    1.0950993   -2.4637584    1064.9765   0.09411245  0.095145929            1 
  944000    1.1110619   -2.4722932     1066.989  0.094190416  0.095129902            1 
  945000    1.1046834   -2.4903061    1067.1201  0.094102303  0.095114007            3 
  946000     1.097331   -2.4573351    1066.8482  0.093978875  0.095097427            1 
  947000    1.1054725   -2.4757291    1066.7728  0.093872999  0.095080577            2 
  948000    1.1125068   -2.4535643    1067.6878  0.093854411  0.095062656            2 
  949000    1.0879355   -2.4621039    1075.2471  0.094419306  0.095046579            3 
  950000    1.0920315    -2.465895    1069.5897  0.093823662  0.095030448            1 
  951000    1.0972051   -2.4840063    1070.4612  0.093801366  0.095013647            2 
  952000    1.0898741   -2.4739143     1070.197  0.093679709  0.094996688            1 
  953000    1.1311075   -2.4536064    1078.3072  0.094290592  0.094980129            1 
  954000     1.118519   -2.4800568    1073.9551   0.09381159  0.094963252            2 
  955000    1.1002504   -2.4734652    1072.9116  0.093622307  0.094946411            2 
  956000    1.0973656   -2.4543822    1080.7889  0.094211024  0.094929897            2 
  957000    1.1093524   -2.4776169    1070.1651  0.093187484  0.094913143            3 
  958000    1.1121223   -2.4882101    1077.5114  0.093729242    0.0948961            3 
  959000    1.0915095   -2.4848426    1082.1627  0.094035688  0.094879379            1 
  960000    1.0890352   -2.4506582    1084.2202  0.094116336  0.094862641            1 
  961000    1.0938736   -2.4663392    1080.3047  0.093678867  0.094846693            1 
  962000    1.0941486   -2.4935616    1080.6117  0.093608079  0.094829651            2 
  963000    1.0902211   -2.4726324     1080.998  0.093544306  0.094813723            2 
  964000    1.0754343   -2.4738231    1084.8688  0.093781879  0.094797221            1 
  965000    1.0831245   -2.4599805    1085.5324  0.093742004  0.094781167            1 
  966000    1.1131063   -2.4525642    1082.3736  0.093372463  0.094764663            6 
  967000    1.0900496   -2.4821394     1087.232  0.093694589  0.094747414            2 
  968000    1.0932022   -2.4848462    1083.7496  0.093297999  0.094730308            5 
  969000    1.0830576   -2.4768994    1085.0095  0.093310069  0.094712692            1 
  970000    1.0868194   -2.4897572    1083.7678  0.093107201  0.094695631            2 
  971000    1.1122494   -2.5075991    1085.9087   0.09319505  0.094677976            2 
  972000     1.068157   -2.4635317    1091.5155  0.093579865   0.09466134            1 
  973000    1.0865559    -2.490915    1091.2065  0.093457223  0.094644337            2 
  974000    1.0884022   -2.4958054    1091.7549  0.093408187  0.094627658            2 
  975000    1.0952481   -2.4960011    1090.4773  0.093203192  0.094610443            1 
  976000    1.1109492   -2.4881262    1091.1241  0.093162919  0.094593009            1 
  977000    1.1147841   -2.4879744    1092.9889  0.093226618  0.094576414            3 
  978000    1.1141283   -2.4862086     1097.467  0.093512867  0.094559852            4 
  979000    1.0938967   -2.4787296    1096.0951  0.093300572  0.094542676            1 
  980000    1.0959725   -2.4572055     1098.921  0.093445659  0.094525033            1 
  981000    1.1165286   -2.4767778    1098.3935  0.093305602  0.094507093            1 
  982000    1.0970782   -2.5131315    1097.7044  0.093152109  0.094490077            2 
  983000    1.0741673   -2.4863702     1097.676  0.093054934  0.094472735            1 
  984000    1.0688885   -2.4500322    1104.2669  0.093518539   0.09445536            1 
  985000    1.0909119   -2.4959749    1097.9824  0.092891911  0.094438312            2 
  986000    1.0765789   -2.4870818    1103.8254  0.093291529   0.09442057            1 
  987000    1.0740004   -2.4694497    1101.8206  0.093027741  0.094402866            1 
  988000    1.0733025   -2.4746647    1105.4554  0.093240169  0.094385124            3 
  989000    1.0788079   -2.4725558    1100.9525  0.092766475  0.094367301            2 
  990000    1.1004814   -2.4850448    1105.9557  0.093093912  0.094349893            2 
  991000    1.0986996   -2.5131943    1107.0543  0.093092356  0.094331836            1 
  992000    1.0831702   -2.4681169    1105.6403  0.092879734  0.094314839            1 
  993000     1.103773   -2.4911561    1110.0071  0.093152657  0.094296789            1 
  994000    1.0913962   -2.4906055    1112.3838  0.093258203  0.094278614            2 
  995000    1.0778621   -2.4914334    1112.3155  0.093158749  0.094260307            8 
  996000    1.0830196   -2.4718724    1110.0002  0.092871505   0.09424309            1 
  997000    1.0732063   -2.5123133    1116.0166  0.093281228  0.094226062            1 
  998000    1.0858601   -2.4528695    1116.7416    0.0932483  0.094209262            1 
  999000    1.0942308   -2.4617693    1117.2257  0.093195334  0.094192844            1 
 1000000    1.1050747   -2.5050793    1116.6716  0.093055968  0.094176239            3 
 1001000    1.0934286   -2.4438217    1124.2618  0.093594886  0.094160901            1 
 1002000    1.0948241   -2.4912292    1111.5437  0.092443756  0.094144578            1 
 1003000    1.1264077   -2.4985843    1121.0872    0.0931445  0.094127901            3 
 1004000     1.074618   -2.4748178    1126.1589  0.093472685  0.094111762            3 
 1005000    1.0897463    -2.495506    1118.1228  0.092713336  0.094094946            2 
 1006000    1.0888376   -2.4950934    1120.6968   0.09283439  0.094078488            2 
 1007000    1.0763014   -2.4667627    1120.1365  0.092695841  0.094060928            2 
 1008000    1.0858922    -2.459067    1123.9411  0.092918414  0.094043449            2 
 1009000     1.077962   -2.4783515    1127.7888  0.093144101  0.094026017            2 
 1010000    1.0542094   -2.4763816    1129.7099  0.093210388  0.094008986            2 
 1011000    1.1046816   -2.5076913    1124.2109  0.092664926  0.093991223            3 
 1012000    1.1128053   -2.4600698    1128.4402  0.092921622  0.093974174            2 
 1013000    1.0917036   -2.4761658    1132.0389   0.09312594  0.093957044            2 
 1014000    1.0596448   -2.4841185    1127.8971  0.092693711  0.093940166            2 
 1015000    1.0973858   -2.5054329    1133.6457   0.09307436  0.093923107            4 
 1016000    1.0944751   -2.5063396    1127.9599  0.092516393  0.093906168            2 
 1017000    1.0914557   -2.4864347    1134.2206  0.092938433   0.09388995            3 
 1018000    1.1056604   -2.4726388    1138.4294  0.093191669   0.09387329            4 
 1019000    1.0824763   -2.4714961    1140.7458  0.093289643  0.093858034            1 
 1020000    1.1174212   -2.4996501    1136.7622  0.092872732  0.093841227            3 
 1021000    1.1051807   -2.5054469         1138  0.092882796  0.093825175            3 
 1022000    1.0984842   -2.4848037    1137.7754  0.092773598  0.093808707            3 
 1023000    1.0905882   -2.4792234    1141.3852  0.092976962  0.093791057            1 
 1024000    1.1046871   -2.5014993      1136.82  0.092514644    0.0937743            2 
 1025000    1.0778987    -2.477998    1142.3237  0.092871848  0.093758159            3 
 1026000    1.1017806   -2.4900716    1140.9726  0.092671593  0.093740877            1 
 1027000    1.0788639   -2.4858657    1140.8507  0.092571466  0.093723564            3 
 1028000    1.0803528   -2.4744101     1142.346  0.092602626   0.09370653            1 
 1029000    1.0903766   -2.4766989    1143.4127   0.09259902  0.093689969            1 
 1030000     1.104426   -2.4667341    1146.1837   0.09273331  0.093673932            4 
 1031000    1.0672047    -2.494747    1145.6663  0.092601547  0.093657472            2 
 1032000     1.096278   -2.4765764    1150.2322  0.092880506  0.093641416            2 
 1033000    1.0865265   -2.4851248    1151.1491  0.092864561  0.093624989            3 
 1034000    1.1062862   -2.4770779    1151.5557  0.092807516  0.093609453            1 
 1035000    1.0828662   -2.4873887    1149.4958  0.092551996  0.093593281            3 
 1036000    1.0648933   -2.4688272    1151.6491  0.092635865   0.09357794            1 
 1037000    1.0767006   -2.4646142    1154.1743  0.092749459  0.093562544            2 
 1038000    1.0811206   -2.5011643    1151.7088  0.092462172  0.093546336            2 
 1039000    1.0768402   -2.4824911    1155.3422  0.092664599  0.093530734            1 
 1040000     1.080761   -2.4856595    1153.4218  0.092421622  0.093514478            2 
 1041000    1.1178132   -2.4692424    1157.7226  0.092677118  0.093497735            1 
 1042000    1.1018261   -2.4840927    1157.2556  0.092550835  0.093480876            1 
 1043000    1.0959907   -2.4832356    1155.4459  0.092317504  0.093464023            2 
 1044000    1.0780512   -2.4882548    1159.3035  0.092536994  0.093447687            1 
 1045000    1.0702325   -2.5143736    1155.3999   0.09213715  0.093432076            1 
 1046000    1.0705397   -2.4808469     1158.046  0.092259879  0.093415216            2 
 1047000    1.0981896   -2.4795818    1160.2807  0.092349624  0.093399755            2 
 1048000     1.078469   -2.4977219    1163.5591  0.092522194  0.093383361            2 
 1049000    1.0989055   -2.4794342    1161.8609  0.092299088  0.093367097            1 
 1050000    1.0837877   -2.5129185    1166.3988   0.09257133  0.093351019            2 
 1051000    1.0731686   -2.4861629    1166.4034   0.09248362  0.093335505            2 
 1052000    1.0623162   -2.4898632    1171.7188  0.092816761  0.093319633            3 
 1053000    1.0859594   -2.4781537    1169.0478  0.092517235  0.093304135            2 
 1054000    1.0872825   -2.4874723    1163.6172  0.092000097   0.09328794            4 
 1055000    1.0687017    -2.485868    1166.5196  0.092142147   0.09327193            1 
 1056000    1.0638476   -2.4756708    1170.9756  0.092406531  0.093255332            2 
 1057000     1.113618   -2.5008813    1167.9078   0.09207725  0.093237727            3 
 1058000    1.0641806    -2.485564    1168.2163  0.092014515  0.093219838            1 
 1059000    1.0911965   -2.4803784    1167.1245  0.091841714  0.093202217            1 
 1060000     1.097071   -2.5069557    1167.3741  0.091774694  0.093184428            2 
 1061000    1.0626708   -2.4942357    1172.4613  0.092087758  0.093166459            1 
 1062000    1.0955936   -2.4909415     1174.618  0.092170273   0.09314872            1 
 1063000    1.0861492   -2.4770937    1170.9561  0.091796493  0.093130848            1 
 1064000    1.0720216   -2.4824314    1173.8394  0.091936041  0.093113779            3 
 1065000    1.0947843   -2.5104291    1176.1258  0.092028619  0.093096666            2 
 1066000    1.0556914   -2.4884836    1177.0838  0.092017185  0.093079511            2 
 1067000    1.1058341   -2.5020295    1172.1738  0.091547467  0.093061565            2 
 1068000    1.0651311   -2.4979722    1175.1926  0.091697297   0.09304347            2 
 1069000    1.1058212   -2.4876827    1179.2365  0.091926765  0.093026207            1 
 1070000    1.0724543   -2.4810506    1176.2875  0.091611179  0.093007582            3 
 1071000    1.0802568   -2.4967559     1184.447  0.092160522  0.092990426            2 
 1072000    1.0775818   -2.5005195    1180.6781   0.09178157  0.092972664            1 
 1073000    1.0752092   -2.4967191    1184.8601  0.092020822  0.092955534            1 
 1074000    1.0868869   -2.4963828    1180.4997  0.091596814  0.092938479            1 
 1075000    1.0517412   -2.5067726    1185.1186  0.091869662  0.092921477            1 
 1076000    1.0934278   -2.4773855    1188.9236  0.092078961  0.092905004            1 
 1077000    1.0847073   -2.4892333    1193.4984  0.092347443  0.092888275            1 
 1078000    1.0548625   -2.5157833    1185.3491  0.091631811  0.092871422            1 
 1079000    1.0707432   -2.4876611    1190.0679  0.091911332  0.092855109            1 
 1080000    1.0837536   -2.5077109    1189.0535  0.091747954  0.092839376            2 
 1081000    1.0637347   -2.4678579    1195.1672  0.092134384   0.09282327            1 
 1082000    1.0704436   -2.4809208    1193.9758  0.091957472  0.092806839            2 
 1083000     1.075297   -2.4850331    1193.3764   0.09182644  0.092789734            1 
 1084000     1.081692   -2.4985547    1192.7528  0.091693792  0.092773125            1 
 1085000    1.0640814    -2.498862    1193.0635  0.091633142  0.092756814            1 
 1086000     1.076952   -2.4920484    1195.2772  0.091718631  0.092740489            2 
 1087000    1.0819709   -2.5141077    1194.0664  0.091541426  0.092723675            3 
 1088000    1.0536789   -2.5412182    1198.2211  0.091775513  0.092706948            2 
 1089000    1.0709612   -2.4810567    1195.6096    0.0914914  0.092690467            3 
 1090000    1.0738017   -2.5136723    1199.2666  0.091687052  0.092673997            2 
 1091000    1.0694615   -2.4878468    1203.6061  0.091934475  0.092657894            2 
 1092000    1.0654482    -2.469312     1204.637  0.091928951  0.092641553            3 
 1093000    1.0654538   -2.4680841    1206.8608  0.092014393  0.092625409            2 
 1094000    1.0616216    -2.495012    1210.4793  0.092205915  0.092609825            1 
 1095000    1.0713761   -2.4965399    1204.7633  0.091686708  0.092593381            1 
 1096000      1.04861   -2.5120243    1208.1342  0.091859355  0.092578361            1 
 1097000    1.0500364   -2.5021651    1206.6744  0.091664719  0.092563233            1 
 1098000    1.0812534   -2.5004919    1207.6136  0.091652516  0.092547848            2 
 1099000    1.0811806   -2.4935345    1207.4883  0.091559621  0.092532082            1 
 1100000    1.0559672   -2.5029478    1211.7178  0.091796802  0.092516408            1 
 1101000     1.079659   -2.4839233    1211.6241  0.091706336  0.092502266            4 
 1102000    1.0430122   -2.4613909    1212.6156  0.091698093  0.092486866            2 
 1103000    1.0854838   -2.5073593    1209.7185   0.09139608  0.092472246            1 
 1104000    1.0584596   -2.4919273    1217.0272  0.091864973  0.092456259            2 
 1105000    1.0867779   -2.4998265    1216.2424  0.091722651  0.092439886            3 
 1106000    1.0900113   -2.5187395    1213.7169  0.091449437  0.092424224            3 
 1107000    1.0775853   -2.4876969    1213.2797  0.091333912  0.092407635            2 
 1108000    1.0648395   -2.5143214    1210.3039  0.091027673  0.092391017            2 
 1109000    1.0783782   -2.5208799    1214.3384  0.091248754  0.092374276            2 
 1110000    1.0736918   -2.4805245    1215.6953  0.091268416  0.092357588            1 
 1111000    1.0750895   -2.5331043    1213.6487  0.091032754  0.092340503            3 
 1112000    1.0815776   -2.4793824    1217.5272   0.09124155  0.092323931            1 
 1113000    1.0885395   -2.4995159    1219.8702  0.091334997  0.092307698            1 
 1114000    1.0629872   -2.4856891    1220.5906  0.091306897  0.092290931            2 
 1115000    1.0752455   -2.5106179    1219.8949  0.091173011  0.092273509            3 
 1116000    1.0558431   -2.5035724    1223.5656  0.091365409  0.092256695            2 
 1117000    1.0552695   -2.4822498    1223.8531  0.091305066  0.092240136            4 
 1118000    1.0892281   -2.4725357    1225.5658  0.091351061  0.092223881            3 
 1119000    1.0945699   -2.4871168    1229.0329  0.091527625  0.092207428            1 
 1120000     1.063404   -2.5030186    1222.2252  0.090939374  0.092190289            2 
 1121000    1.0594209   -2.5194684    1226.6076  0.091184032  0.092173396            1 
 1122000    1.0617597   -2.5010781    1228.9236  0.091274774  0.092157732            2 
 1123000    1.0465638   -2.4991696    1231.4396  0.091380204  0.092141783            1 
 1124000    1.0704621   -2.4933912    1230.3982  0.091221694  0.092126655            1 
 1125000    1.0554471   -2.5204078    1234.0369  0.091410144  0.092111581            2 
 1126000     1.099286   -2.5322497    1236.9552  0.091544938  0.092096401            3 
 1127000    1.0674244   -2.4849989    1240.2181  0.091704974  0.092081208            2 
 1128000    1.0949484   -2.4716421    1238.0996   0.09146717  0.092066348            1 
 1129000    1.0914405   -2.5287498    1233.8798  0.091074683  0.092051499            1 
 1130000    1.0424297    -2.498233    1238.2963  0.091319786   0.09203603            4 
 1131000    1.0770407   -2.5072351     1240.669  0.091413867  0.092020321            1 
 1132000    1.0737019   -2.5122174    1240.2512  0.091302358  0.092005097            2 
 1133000    1.0847062   -2.4936128    1234.8006  0.090820876  0.091989571            2 
 1134000    1.0735636   -2.5038287    1240.8402   0.09118461  0.091973155            3 
 1135000    1.0894993   -2.4703208    1246.1044  0.091490777  0.091956431            1 
 1136000    1.1043281     -2.52786    1240.7032  0.091014025  0.091940619            2 
 1137000    1.0684584   -2.4860749    1249.5196  0.091580152  0.091924673            2 
 1138000    1.0655812   -2.5095559    1241.5849  0.090918638  0.091909072            3 
 1139000    1.0667544   -2.5095394    1251.5152  0.091565346  0.091893869            1 
 1140000    1.0587811   -2.4980122    1245.8806  0.091073143  0.091877828            1 
 1141000    1.0589952   -2.5027911    1251.8652  0.091430413   0.09186261            1 
 1142000    1.0720857   -2.5314224    1249.7082  0.091192948  0.091847029            2 
 1143000    1.0522218   -2.5106568    1246.3566  0.090868812  0.091831691            1 
 1144000    1.0790366   -2.4814743    1257.8498  0.091626585  0.091816576            4 
 1145000    1.0879393   -2.5061636    1250.6876  0.091025297  0.091801148            2 
 1146000    1.0828443    -2.510246    1254.0709  0.091191889  0.091785824            2 
 1147000    1.0576977   -2.4842604    1255.0527  0.091183718  0.091770023            1 
 1148000     1.076997   -2.5179247    1252.1709  0.090895099  0.091753349            1 
 1149000    1.0531299   -2.4947268     1258.094  0.091245579  0.091736653            1 
 1150000    1.0311486   -2.5148678    1253.8441  0.090858271   0.09172143            2 
 1151000    1.0610105   -2.5128543    1252.1478  0.090656517  0.091705106            2 
 1152000    1.0684179   -2.5316278    1253.8059  0.090697765   0.09168892            2 
 1153000    1.0534123   -2.5137855    1263.7334  0.091336618  0.091672383            1 
 1154000    1.0593221   -2.5059557    1258.3497  0.090868694  0.091656812            3 
 1155000    1.0785979   -2.5006616    1260.6261  0.090954264  0.091641174            3 
 1156000    1.0348714   -2.5344157    1254.8268  0.090457529  0.091625675            4 
 1157000    1.0941871   -2.4749079    1267.7608  0.091310918  0.091610196            1 
 1158000     1.091691   -2.5197457    1260.2427  0.090691042  0.091595445            3 
 1159000    1.0697778    -2.517305    1265.9533  0.091023391  0.091580687            2 
 1160000    1.0489272   -2.5076175    1266.4778  0.090982604  0.091565639            2 
 1161000    1.0586448   -2.5043804    1270.5684  0.091197849  0.091550811            2 
 1162000    1.0428743   -2.5084167    1269.0171  0.091008109   0.09153568            2 
 1163000    1.0666881   -2.5159416     1270.548  0.091039551  0.091521271            1 
 1164000    1.0627623   -2.4932042    1266.9994  0.090707291  0.091506718            2 
 1165000    1.0806392   -2.4876347     1272.426  0.091017595  0.091492388            1 
 1166000    1.0507227   -2.5091175    1270.6687  0.090813944  0.091477414            2 
 1167000     1.064854     -2.49713    1276.4575  0.091149494  0.091462607            2 
 1168000    1.0663892   -2.5104368    1277.7877   0.09116636  0.091448539            2 
 1169000    1.0690252   -2.5017831    1273.4423  0.090778607  0.091434417            4 
 1170000    1.0663176   -2.5182332    1277.1514  0.090965196  0.091419661            1 
 1171000    1.0596882   -2.5338745    1275.0331  0.090736772  0.091405238            2 
 1172000    1.0714878   -2.5014977    1272.4188  0.090473461  0.091390497            2 
 1173000    1.0223693   -2.5167532    1281.4126  0.091035276  0.091375641            1 
 1174000    1.0955762   -2.5327904    1280.1848  0.090870584  0.091361223            3 
 1175000    1.0456789   -2.4924741     1278.777  0.090693402  0.091346176            4 
 1176000    1.0669902   -2.5021246    1281.7269   0.09082532  0.091331602            2 
 1177000    1.0726194   -2.5053662     1282.979  0.090836806  0.091317109            1 
 1178000    1.0609325   -2.5377814    1282.7949  0.090746665  0.091302327            3 
 1179000    1.0598206   -2.5073647    1277.2809  0.090279961  0.091288373            2 
 1180000    1.0475827   -2.5262019    1285.6854  0.090796993  0.091273964            2 
 1181000    1.0605105   -2.5308238    1284.0211  0.090602677   0.09126017            6 
 1182000     1.063543   -2.5135524    1289.9755  0.090945817  0.091245795            2 
 1183000    1.0768442   -2.5089821    1290.1954  0.090884435  0.091231735            2 
 1184000    1.0729334   -2.5031782    1293.0358  0.091007588  0.091217741            4 
 1185000    1.0793181   -2.5043461    1289.7756  0.090701518  0.091203783            1 
 1186000    1.0529164   -2.4785494    1300.3116  0.091365348  0.091190094            2 
 1187000    1.0998271   -2.5043886    1291.8798  0.090696422  0.091175628            1 
 1188000     1.070455   -2.5148104    1294.6929  0.090817405  0.091161413            2 
 1189000    1.0576013   -2.5082238    1295.7035   0.09081185  0.091147774            2 
 1190000    1.0700945   -2.5205429    1296.9624  0.090823694  0.091133522            4 
 1191000    1.0509292   -2.5121091    1296.2021  0.090694239  0.091119311            2 
 1192000    1.0520843   -2.4907459    1298.8665  0.090804425    0.0911051            1 
 1193000    1.0674119   -2.5061382    1303.2672  0.091035705  0.091091667            1 
 1194000    1.0450798    -2.515378    1298.5922  0.090633178   0.09107799            3 
 1195000    1.0536429   -2.5104643    1299.7635  0.090639017  0.091063934            2 
 1196000    1.0629041   -2.4955512    1303.1668  0.090800362  0.091049759            1 
 1197000     1.064355   -2.5312445    1301.5536  0.090612194  0.091035739            4 
 1198000    1.0479883   -2.5176143    1302.8579  0.090627287  0.091022213            4 
 1199000    1.0736322   -2.5267786    1304.6106  0.090673521  0.091007714            2 
 1200000    1.0592997   -2.4979779    1309.8873  0.090964397  0.090993669            3 
 1201000    1.0433303   -2.5008207    1308.9976  0.090826923  0.090979564            2 
 1202000    1.0616324   -2.5053477    1300.8602    0.0901872  0.090965319            1 
 1203000    1.0505514   -2.5029041     1308.965  0.090673663  0.090951166            2 
 1204000    1.0551864   -2.5135633    1307.8943  0.090524245  0.090937301            1 
 1205000    1.0575571    -2.520616    1301.9682  0.090039294  0.090923252            2 
 1206000    1.0530957   -2.5218026    1309.0141    0.0904515  0.090908871            5 
 1207000    1.0616221   -2.5064934    1317.2889  0.090947864  0.090894992            1 
 1208000    1.0636901   -2.5113214     1313.284  0.090596301  0.090881286            2 
 1209000    1.0519883   -2.5113161    1313.8454  0.090560061  0.090866931            1 
 1210000    1.0517767   -2.5409655    1313.8165  0.090483227  0.090852892            2 
 1211000    1.0843914   -2.5016833    1317.1677  0.090639121  0.090839331            3 
 1212000    1.0457612   -2.5270724    1315.6553  0.090460351  0.090825211            3 
 1213000    1.0496152   -2.4909225    1316.6511  0.090454181  0.090811292            2 
 1214000    1.0572259   -2.5196793    1322.3716  0.090772351  0.090797635            3 
 1215000    1.0492788   -2.5185742    1318.9241   0.09046119  0.090783824            3 
 1216000    1.0689508   -2.5334991    1326.1042  0.090878853   0.09077016            2 
 1217000    1.0681123   -2.4860594     1316.887  0.090173037  0.090756244            2 
 1218000    1.0519561    -2.531501     1322.635  0.090492266   0.09074184            2 
 1219000    1.0484935   -2.5127568    1322.0921  0.090380917  0.090728139            1 
 1220000    1.0544061   -2.5198827    1320.7231  0.090213325  0.090713892            2 
 1221000    1.0359457   -2.5126365    1321.8988   0.09021968  0.090699626            1 
 1222000    1.0790649   -2.5303891      1324.02  0.090290507  0.090685196            2 
 1223000    1.0295287   -2.5143218    1327.1744  0.090431618  0.090670722            2 
 1224000    1.0627769   -2.4884422    1327.6648  0.090391123  0.090657087            2 
 1225000    1.0713377   -2.5083046    1330.9318  0.090539577  0.090643552            3 
 1226000    1.0556343   -2.5175503    1328.0654  0.090270895  0.090630174            2 
 1227000    1.0490786   -2.5024634    1327.9717  0.090190957  0.090616982            3 
 1228000    1.0567201   -2.5241241    1330.2572  0.090272611  0.090603036            5 
 1229000    1.0608897   -2.5235857    1334.1648  0.090464116  0.090589375            3 
 1230000    1.0907839   -2.5149367    1335.5927  0.090487311  0.090575815            2 
 1231000    1.0684036   -2.5387166    1338.2027  0.090590489  0.090562704            1 
 1232000    1.0583007   -2.4982762    1343.2013  0.090855069  0.090549578            1 
 1233000    1.0576144   -2.5087321    1337.0518  0.090365758  0.090536759            1 
 1234000    1.0940064   -2.5336933    1340.5402  0.090528109  0.090524034            1 
 1235000    1.0614872   -2.5012472    1341.2187  0.090500585  0.090511016            2 
 1236000    1.0789659   -2.5258111    1334.5064   0.08997481  0.090497316            3 
 1237000    1.0602966   -2.5107817    1341.9664  0.090404634  0.090484896            1 
 1238000    1.0633587   -2.5024616    1346.0392  0.090605761  0.090472318            3 
 1239000    1.0280792   -2.5318227    1342.3738  0.090286107  0.090459251            1 
 1240000     1.096426   -2.5116791    1341.4575  0.090151715  0.090446302            2 
 1241000    1.0381666   -2.4993813    1345.3145  0.090338064  0.090433267            4 
 1242000    1.0473062    -2.523314    1343.2566  0.090127257  0.090419979            1 
 1243000    1.0590115   -2.5453628    1347.8401  0.090362036  0.090406481            2 
 1244000    1.0535192    -2.535087    1343.7079  0.090012584  0.090393517            1 
 1245000    1.0498362    -2.536844    1346.2539  0.090110701  0.090379548            2 
 1246000    1.0390288   -2.4964278    1343.4424  0.089850348  0.090364728            4 
 1247000    1.0572327    -2.512924    1344.6624  0.089859824  0.090350036            1 
 1248000    1.0670787   -2.5171316    1350.8279  0.090199512  0.090335999            3 
 1249000    1.0443806   -2.5304381     1342.312  0.089559115  0.090321832            1 
 1250000    1.0496541   -2.5679723    1343.0693   0.08953795  0.090307607            2 
 1251000    1.0580626   -2.5361684    1344.9176    0.0895895  0.090293118            1 
 1252000    1.0625261   -2.5174138    1347.5809  0.089695216   0.09027827            3 
 1253000    1.0639575   -2.5106876    1358.0309  0.090318629  0.090264041            2 
 1254000    1.0625881    -2.543054    1350.7372  0.089761911  0.090250483            1 
 1255000     1.040189   -2.4927159    1357.6885  0.090151957  0.090236729            3 
 1256000    1.0559477   -2.5129543    1358.5033  0.090134241  0.090223715            2 
 1257000    1.0434406   -2.5207148    1359.5347  0.090130917  0.090209617            1 
 1258000    1.0681585   -2.5234358    1360.3794  0.090115223  0.090196134            5 
 1259000    1.0495814   -2.5144756    1356.3848   0.08977924  0.090182204            2 
 1260000    1.0374058   -2.5231901    1358.3665  0.089839051  0.090168391            2 
 1261000    1.0430382   -2.5292061    1353.3395  0.089435599  0.090154372            2 
 1262000     1.035616   -2.5205849    1360.1253  0.089812814  0.090139941            2 
 1263000    1.0427411   -2.5103826    1368.8036  0.090314305  0.090126163            3 
 1264000    1.0413337   -2.5409744    1358.7632  0.089580905  0.090112577            1 
 1265000    1.0554129   -2.5228816    1362.4146  0.089750633  0.090098728            3 
 1266000    1.0164055   -2.5472735    1363.6223  0.089759233  0.090084854            2 
 1267000    1.0535763    -2.529349    1365.0522  0.089782436  0.090070879            4 
 1268000    1.0555663   -2.5129442    1366.3404  0.089796295  0.090056829            1 
 1269000    1.0432984   -2.5140717    1368.8918  0.089893081  0.090042679            3 
 1270000    1.0433511   -2.5098851    1368.6879  0.089808918   0.09002859            1 
 1271000    1.0586527   -2.5353095    1366.2312  0.089577183  0.090014928            2 
 1272000    1.0517532   -2.5396343    1368.3858  0.089647914  0.090000715            1 
 1273000    1.0325693   -2.5092483    1367.6234  0.089527588  0.089986483            3 
 1274000    1.0349028   -2.5081639    1370.5872   0.08965118  0.089972501            3 
 1275000    1.0360638   -2.5205532    1371.8568  0.089663845  0.089958464            2 
 1276000    1.0455139   -2.5191081    1374.4423  0.089762426  0.089943813            2 
 1277000    1.0200108   -2.5590036    1373.9622  0.089660805  0.089929839            1 
 1278000    1.0411824   -2.5450047    1369.8284  0.089321102  0.089915997            3 
 1279000    1.0456764   -2.5418349    1372.2012  0.089405861  0.089902182            2 
 1280000    1.0443585   -2.5511253    1374.2452  0.089469088  0.089888354            2 
 1281000    1.0515369   -2.5264977     1372.783  0.089304125  0.089873734            1 
 1282000    1.0380203   -2.5230875    1373.7322  0.089296167  0.089859671            2 
 1283000    1.0408443   -2.5232425    1380.5201  0.089667452   0.08984626            1 
 1284000    1.0620283   -2.5283126    1381.5777  0.089666255  0.089832366            1 
 1285000    1.0500325   -2.5251026    1384.3698   0.08977755  0.089818878            3 
 1286000     1.036316   -2.5412708    1387.9209  0.089937848  0.089804762            1 
 1287000    1.0170941   -2.5415618      1387.13  0.089816757   0.08979117            3 
 1288000    1.0646577   -2.5246462    1385.5459  0.089644532  0.089777923            5 
 1289000    1.0523827   -2.5206814    1385.6732  0.089583219  0.089764349            2 
 1290000    1.0321821   -2.5325292    1385.2823  0.089488521  0.089750532            2 
 1291000    1.0498301   -2.5420706      1387.98  0.089593338  0.089736631            3 
 1292000    1.0316892   -2.5087232    1381.7053  0.089119278  0.089722697            2 
 1293000    1.0382599   -2.5503214    1394.0688  0.089847176  0.089708839            2 
 1294000    1.0515794   -2.5414887    1388.9024  0.089445027  0.089694343            1 
 1295000    1.0100581   -2.5576577    1388.9118  0.089376564  0.089679524            3 
 1296000    1.0574654   -2.5202647    1394.9323  0.089694722  0.089665013            3 
 1297000    1.0260413   -2.5175168     1390.765  0.089357811  0.089650627            2 
 1298000    1.0076469   -2.5162004    1395.8869  0.089617801  0.089636766            4 
 1299000    1.0513012   -2.5161133    1392.2509   0.08931556  0.089622583            2 
 1300000    1.0522263   -2.5335896    1385.3803  0.088806428  0.089607919            3 
 1301000     1.042956   -2.5584506    1387.6973  0.088886582  0.089593697            3 
 1302000    1.0378865   -2.5320454    1397.5443  0.089448561  0.089579005            2 
 1303000    1.0506013   -2.5383619    1397.4295  0.089372572  0.089564554            3 
 1304000     1.048129   -2.5052418    1399.2243  0.089418731  0.089550136            3 
 1305000    1.0304747   -2.5278144    1395.4725  0.089110633  0.089535277            1 
 1306000    1.0418676   -2.5257898    1391.1529  0.088766777  0.089521413            2 
 1307000    1.0579256   -2.5491185    1397.3225  0.089092226  0.089506432            3 
 1308000    1.0639928   -2.5360095    1394.2553  0.088828704  0.089491588            3 
 1309000    1.0384337   -2.5315559    1402.7717  0.089303012  0.089477627            2 
 1310000    1.0195021   -2.5279143    1402.9987   0.08924928  0.089463257            4 
 1311000      1.05099   -2.5104179    1404.5469  0.089279617  0.089449063            1 
 1312000      1.04504   -2.5413784    1400.4621  0.088952117  0.089434847            3 
 1313000    1.0455313   -2.5183761    1401.1942  0.088930832  0.089419973            3 
 1314000    1.0290856   -2.5343305    1404.6977  0.089085344  0.089405715            3 
 1315000    1.0343199   -2.5195029    1400.7082   0.08876478   0.08939064            1 
 1316000    1.0528788   -2.5447797    1404.9212  0.088964109  0.089376117            3 
 1317000    1.0256581   -2.5152299    1402.4876  0.088742573  0.089361535            3 
 1318000    1.0683143   -2.5290733    1411.9684  0.089274681  0.089347864            2 
 1319000    1.0338674    -2.539101    1404.2058  0.088716567  0.089333555            2 
 1320000    1.0761054   -2.5274504    1407.1865  0.088837529  0.089319383            2 
 1321000    1.0322139   -2.5225689    1410.2924  0.088966213  0.089305007            2 
 1322000    1.0336248   -2.4977421    1412.0034  0.089006772  0.089290531            3 
 1323000    1.0129997   -2.5476286    1410.5018  0.088844913  0.089275785            2 
 1324000    1.0364008   -2.5233359    1411.7943  0.088859156  0.089261179            1 
 1325000    1.0399492   -2.5301917    1410.4671  0.088708623  0.089246725            3 
 1326000    1.0328999   -2.5341846    1415.9871  0.088988634  0.089232825            3 
 1327000    1.0468417   -2.5504991    1411.7896  0.088657973  0.089218518            3 
 1328000    1.0304671   -2.5445193     1414.325  0.088750316  0.089203736            1 
 1329000    1.0584175   -2.5174359    1418.7001  0.088957871   0.08919007            4 
 1330000    1.0400573   -2.5231179    1425.2161  0.089299252  0.089176229            4 
 1331000    1.0561192   -2.5416715    1417.5194  0.088750278  0.089162234            6 
 1332000    1.0300536    -2.525158      1422.94  0.089022773  0.089148682            2 
 1333000    1.0321509   -2.5213118    1420.2756  0.088789424  0.089134884            1 
 1334000    1.0623783   -2.5348844    1422.0872  0.088836033  0.089121474            2 
 1335000    1.0492749   -2.5319271    1419.5845  0.088613262  0.089107782            1 
 1336000    1.0205471   -2.5440344    1426.2132  0.088960405  0.089094098            3 
 1337000    1.0289661   -2.5388387    1426.9328  0.088938719  0.089080531            2 
 1338000     1.034562    -2.551173    1432.0805  0.089192857  0.089067188            3 
 1339000    1.0636138   -2.5230433    1428.9551  0.088931733  0.089053846            3 
 1340000      1.03294   -2.5703381    1425.0116  0.088620122  0.089040492            2 
 1341000    1.0330872   -2.5335217    1430.9846  0.088925216  0.089027339            3 
 1342000    1.0336047   -2.5458969    1429.7085  0.088779712   0.08901423            2 
 1343000    1.0223878   -2.5319774    1431.1158  0.088800933  0.089001008            1 
 1344000    1.0186594   -2.5289697    1436.0908  0.089043329  0.088987761            1 
 1345000    1.0393403   -2.5240934    1431.4861  0.088691828  0.088975128            2 
 1346000    1.0327998   -2.5404774    1439.4888  0.089121395  0.088962531            4 
 1347000    1.0314731   -2.5576688    1430.1181  0.088475508  0.088950059            5 
 1348000    1.0344183   -2.5161075    1435.1727  0.088722351  0.088937409            2 
 1349000    1.0352969   -2.5477583    1437.7708  0.088817076  0.088924309            4 
 1350000     1.056124   -2.5577387    1436.0161  0.088642969  0.088910916            1 
 1351000    1.0289735   -2.5533656    1439.4175  0.088787167  0.088897384            1 
 1352000    1.0401735   -2.5556629      1430.15  0.088150273  0.088883939            3 
 1353000    1.0500483   -2.5391072    1441.7106  0.088797154   0.08887068            3 
 1354000    1.0396086   -2.5097106    1439.0814  0.088569755  0.088858072            1 
 1355000    1.0135504   -2.5501181    1439.8269  0.088550239  0.088845015            3 
 1356000     1.046812   -2.5349146    1447.1023   0.08893205  0.088831699            2 
 1357000    1.0466465   -2.5483139    1434.7509  0.088108011  0.088818699            2 
 1358000    1.0334135   -2.5393976    1447.1439  0.088803624   0.08880497            3 
 1359000    1.0471827   -2.5582718    1447.5754  0.088764743  0.088791557            2 
 1360000    1.0228622   -2.5641318    1448.3184     0.088745  0.088778449            2 
 1361000     1.037331   -2.5562634    1445.8954  0.088531433  0.088765297            3 
 1362000    1.0247783     -2.54885     1454.182  0.088973447  0.088752436            1 
 1363000    1.0369436   -2.5397554    1452.9731  0.088834258  0.088739656            1 
 1364000    1.0371038   -2.5378499    1448.5935  0.088501556  0.088727018            3 
 1365000    1.0470019   -2.5454445    1456.4853  0.088918518   0.08871521            1 
 1366000    1.0367307    -2.543941    1452.0472  0.088582674  0.088702719            1 
 1367000    1.0309586    -2.548984    1448.6367  0.088309964   0.08869065            1 
 1368000    1.0405491     -2.54951    1453.9413  0.088568547  0.088677748            3 
 1369000    1.0273526   -2.5165119    1457.2916  0.088707791  0.088665213            3 
 1370000    1.0164843   -2.5605862    1462.5817  0.088964823  0.088652512            2 
 1371000     1.026707   -2.5458985    1459.5941  0.088718337  0.088640203            1 
 1372000    1.0418626   -2.5377974    1465.5547  0.089015714   0.08862786            2 
 1373000    1.0161352   -2.5433284      1459.08  0.088557901  0.088615437            1 
 1374000    1.0646159    -2.550443       1462.2  0.088682677  0.088602877            4 
 1375000    1.0349192   -2.5603312    1462.0032  0.088606255  0.088589894            3 
 1376000    1.0349216   -2.5278659       1461.6  0.088517444   0.08857652            2 
 1377000    1.0340737   -2.5408817    1459.6891  0.088337514  0.088563107            4 
 1378000     1.029715   -2.5325243    1465.8187  0.088644091  0.088550299            5 
 1379000    1.0287355   -2.5734318    1460.9072  0.088283005  0.088537569            3 
 1380000    1.0320103    -2.543486    1467.8035  0.088635479  0.088524095            1 
 1381000    1.0222206   -2.5466477    1457.8837   0.08797271   0.08851097            3 
 1382000    1.0537902   -2.5559838    1468.3109  0.088537803  0.088498071            2 
 1383000    1.0300989   -2.5005177    1466.5444  0.088367339    0.0884851            3 
 1384000    1.0040874   -2.5452394    1466.7065  0.088313253  0.088472012            2 
 1385000    1.0351889    -2.552439    1464.1894  0.088098037  0.088458411            2 
 1386000    1.0405814   -2.5308203    1476.1426   0.08875316  0.088445308            2 
 1387000    1.0307071   -2.5396208    1466.3605  0.088101447  0.088432188            2 
 1388000    1.0394817   -2.5494632    1470.9443  0.088313179  0.088419358            4 
 1389000    1.0300963   -2.5681061    1471.6734  0.088293338  0.088406403            3 
 1390000    1.0308241    -2.544344    1475.8845  0.088482281  0.088393552            3 
 1391000    1.0042773   -2.5639078    1467.8293  0.087936096  0.088380305            1 
 1392000    1.0431791   -2.5729617     1473.174  0.088192887  0.088366484            4 
 1393000    1.0182172   -2.5402812    1471.5369  0.088031642  0.088353124            2 
 1394000    1.0241855   -2.5597904     1470.544  0.087909135  0.088339567            3 
 1395000    1.0443956   -2.5648504    1472.7205  0.087976133  0.088325887            1 
 1396000    1.0201413   -2.5768565    1471.5822  0.087845165  0.088312049            2 
 1397000    1.0374901   -2.5587306    1475.2908  0.088003508  0.088297852            1 
 1398000    1.0002047   -2.5450125    1471.3113  0.087703342  0.088283543            2 
 1399000    1.0207098   -2.5345595    1472.5111  0.087712124  0.088269437            2 
 1400000    1.0429601   -2.5500417    1478.3038  0.087994272  0.088255496            3 
 1401000    1.0221778   -2.5499215    1481.0139  0.088092664  0.088241592            2 
 1402000    1.0072527   -2.5508224    1475.4106  0.087696779  0.088227564            3 
 1403000    1.0169904   -2.5461027     1479.099  0.087853352  0.088213317            3 
 1404000    1.0324687   -2.5782306    1484.4549  0.088108672  0.088199409            4 
 1405000    1.0169087   -2.5456715    1483.4327  0.087985331  0.088185482            3 
 1406000    1.0308205   -2.5521337    1484.0406  0.087958787  0.088171242            1 
 1407000    1.0274017   -2.5390063    1476.7705  0.087465678  0.088156925            2 
 1408000    1.0102813   -2.5618684    1475.5857  0.087333435  0.088142209            3 
 1409000    1.0274633   -2.5413066    1484.3523  0.087789938  0.088127555            2 
 1410000    1.0325256   -2.5222675    1480.9606  0.087527221  0.088112961            4 
 1411000    1.0376435   -2.5421865    1489.2906  0.087957158  0.088098485            4 
 1412000    1.0234122   -2.5651205    1487.6001  0.087795096  0.088084054            1 
 1413000    1.0180412   -2.5351673    1484.0053  0.087520951  0.088069414            3 
 1414000    1.0012406   -2.5309215    1486.0836   0.08758154  0.088054837            2 
 1415000     1.053595   -2.5431252    1484.9022  0.087450072  0.088040038            3 
 1416000    1.0311641   -2.5677942    1490.7402  0.087731887  0.088025849            1 
 1417000    1.0438425   -2.5463567    1491.5785  0.087719272   0.08801148            3 
 1418000    1.0116951   -2.5503351    1491.2186  0.087636259  0.087996973            3 
 1419000    1.0357167   -2.5717702    1488.2505  0.087400192  0.087982289            2 
 1420000    1.0263864   -2.5700757    1494.9344  0.087730892  0.087968241            6 
 1421000    1.0160754   -2.5577178    1491.4483  0.087464711  0.087953965            2 
 1422000    1.0384486   -2.5488273     1498.019   0.08778827  0.087940383            3 
 1423000   0.98384136   -2.5622938    1494.9818  0.087548712  0.087926342            3 
 1424000   0.99681626   -2.5455616    1505.2735  0.088089509  0.087913089            1 
 1425000    1.0197247   -2.5878842       1500.5  0.087748535  0.087899464            3 
 1426000    1.0209374   -2.5579286    1499.9153  0.087652833  0.087885677            1 
 1427000    1.0055241   -2.5533382    1503.5228   0.08780208  0.087872801            3 
 1428000    1.0083871   -2.5197858    1504.1344  0.087776281  0.087859371            2 
 1429000     1.033368   -2.5578807    1500.5642  0.087506658  0.087846215            2 
 1430000    1.0341626   -2.5354174    1502.1549  0.087538165  0.087832312            3 
 1431000    1.0359543   -2.5523782    1507.0303  0.087760908  0.087818845            2 
 1432000    1.0099584   -2.5424732    1505.1149  0.087588156   0.08780546            2 
 1433000    1.0269718   -2.5548519    1505.2315  0.087533814  0.087792429            2 
 1434000    1.0358582   -2.5569782    1504.0983  0.087406922  0.087779152            3 
 1435000    1.0364811   -2.5536123    1507.8611  0.087564526  0.087766021            4 
 1436000     1.002232   -2.5578282    1500.9035  0.087099784  0.087752868            2 
 1437000    1.0185016    -2.578556    1511.3945  0.087647559  0.087739394            2 
 1438000    1.0196204   -2.5573193    1513.6664  0.087718269  0.087726115            2 
 1439000    1.0185786   -2.5599694    1508.9621  0.087384878  0.087712899            3 
 1440000    1.0256689   -2.5438969    1512.2988  0.087517291  0.087699418            1 
 1441000    1.0165574   -2.5786337    1511.8842  0.087432582  0.087686306            5 
 1442000    1.0364558   -2.5354273    1518.5368  0.087756402  0.087673365            1 
 1443000    1.0123131   -2.5823829    1514.9677  0.087489474  0.087659797            2 
 1444000    1.0602279   -2.5652884    1520.5462  0.087750818  0.087645983            1 
 1445000   0.99348128   -2.5735051    1518.7199  0.087584767  0.087632955            2 
 1446000    1.0149196   -2.5651874    1523.6283  0.087807069  0.087619633            2 
 1447000    1.0277994   -2.5456907    1520.3956  0.087560217  0.087606537            2 
 1448000    1.0281866   -2.5628425    1527.6833   0.08791916  0.087593414            1 
 1449000    1.0076869   -2.6055363    1518.4693  0.087328578  0.087580073            1 
 1450000    1.0168049   -2.5585487    1521.7224  0.087455311  0.087566755            3 
 1451000    1.0184829   -2.5289837    1522.5799  0.087444285  0.087553028            2 
 1452000    1.0178919    -2.570146    1524.5406  0.087496591  0.087540088            5 
 1453000    1.0103896   -2.5607755    1517.9556  0.087058707  0.087526979            2 
 1454000    0.9872008    -2.569283    1527.4503  0.087543002  0.087513859            1 
 1455000    1.0200572   -2.5582731    1522.4158  0.087194491  0.087501072            4 
 1456000    1.0365839    -2.559379    1525.3716  0.087303777  0.087488226            2 
 1457000    1.0383543   -2.5750019    1526.9742  0.087335517  0.087475877            3 
 1458000   0.99982279   -2.5806554    1530.2322   0.08746183  0.087462935            2 
 1459000   0.99164762    -2.574646    1533.7181  0.087600985  0.087449954            1 
 1460000    1.0229384   -2.5580637    1533.6125  0.087534962  0.087437117            2 
 1461000    1.0257719   -2.5346616    1527.9501  0.087152071  0.087424374            3 
 1462000    0.9970037    -2.579119     1532.958  0.087377908  0.087411413            2 
 1463000    1.0296655   -2.5508359    1540.8251  0.087766299  0.087398888            2 
 1464000     1.035766   -2.5470798    1539.0796  0.087606991  0.087386062            2 
 1465000    1.0226394   -2.5629577      1535.93  0.087368032  0.087373754            4 
 1466000    1.0251136   -2.5688022    1542.5463  0.087684532   0.08736184            1 
 1467000    1.0245816   -2.5457654     1536.578  0.087285733   0.08734953            3 
 1468000    1.0196947   -2.5741041    1537.9866   0.08730623  0.087336787            4 
 1469000       1.0072   -2.5658932    1547.3231  0.087776444  0.087324059            1 
 1470000    1.0254803    -2.569947    1538.9193  0.087240324  0.087311472            3 
 1471000    1.0071219   -2.5673198    1545.0369  0.087527584  0.087299743            2 
 1472000    1.0275706   -2.5376819    1543.9415  0.087406107  0.087287777            4 
 1473000    1.0101129   -2.5487589    1548.2316   0.08758948  0.087276378            1 
 1474000    1.0313005   -2.5898702    1553.0531  0.087802637  0.087264865            2 
 1475000    1.0125883    -2.580136    1541.0614  0.087065615  0.087253484            2 
 1476000    1.0144065   -2.5660131    1547.4953  0.087369879  0.087242116            1 
 1477000    1.0203112    -2.585753     1551.134  0.087516021  0.087230387            2 
 1478000    1.0155021   -2.5755599    1545.5547  0.087142238  0.087218495            3 
 1479000    1.0319062   -2.5738945     1556.237  0.087685204  0.087207005            2 
 1480000    1.0105437   -2.5564234    1548.3238  0.087180396  0.087195178            2 
 1481000    1.0048981   -2.5695392    1554.4303  0.087465131  0.087183917            1 
 1482000    1.0196658   -2.5679731    1554.5296  0.087411697  0.087171924            2 
 1483000    1.0159391   -2.5743392    1556.1365  0.087443049  0.087160368            2 
 1484000    1.0512713   -2.5683665    1549.3637    0.0870038  0.087148167            3 
 1485000    1.0284491   -2.5824133    1559.1836  0.087496277  0.087136571            4 
 1486000    1.0221631   -2.5494584    1561.3832  0.087560746  0.087124352            3 
 1487000    1.0061891   -2.5689606    1553.7588  0.087074582  0.087112439            2 
 1488000    1.0270208   -2.5711826    1546.9155   0.08663281  0.087099689            1 
 1489000    0.9922883   -2.5576136    1557.0292  0.087140653  0.087086948            2 
 1490000    1.0200074   -2.5753795    1552.5893  0.086833851  0.087074319            2 
 1491000    1.0399053   -2.5894173     1556.555  0.086997262  0.087061393            1 
 1492000     1.011183   -2.5529168    1554.8901  0.086845961  0.087047873            3 
 1493000    1.0154984   -2.5646144    1556.6791  0.086887647  0.087034835            2 
 1494000    1.0139928   -2.5661859    1554.3489  0.086699513  0.087021802            1 
 1495000   0.99251693   -2.5922813    1556.8211  0.086779324  0.087008269            1 
 1496000    1.0259228   -2.5476342    1559.6604  0.086879476  0.086995573            2 
 1497000    1.0184606   -2.5675681    1567.1653  0.087239216  0.086982337            2 
 1498000    1.0020884   -2.5891307    1561.5914  0.086870906  0.086969508            1 
 1499000     1.018824   -2.5620894    1564.8187   0.08699237  0.086956143            6 
 1500000    1.0123354     -2.57294    1564.1651   0.08689806  0.086943217            2 
 1501000   0.98011109    -2.577987     1561.315  0.086681932  0.086930114            7 
 1502000    1.0226462   -2.5833315    1562.6999   0.08670106  0.086917343            1 
 1503000    1.0086916   -2.5592393    1559.9692  0.086491972  0.086904147            1 
 1504000    1.0398886   -2.5733969    1568.5521  0.086910023  0.086891268            2 
 1505000    1.0161827   -2.5730532    1571.7046  0.087026832  0.086878583            1 
 1506000    1.0228363   -2.6036093    1564.6794   0.08658031  0.086865134            2 
 1507000    1.0149003   -2.5654451    1571.6753  0.086909718  0.086851969            5 
 1508000    1.0075332   -2.5947533    1571.8474  0.086861596    0.0868393            2 
 1509000    1.0175016   -2.5628612    1575.8645  0.087025874  0.086826455            1 
 1510000    1.0175596   -2.5603529    1567.0778   0.08648332   0.08681348            2 
 1511000    1.0197855   -2.5765861    1570.5488  0.086617517  0.086800192            1 
 1512000     1.018567   -2.5699603    1567.4281  0.086388235  0.086787135            2 
 1513000    1.0059896   -2.5724343    1574.2575  0.086707285  0.086772924            2 
 1514000    1.0081741    -2.529678    1572.9077  0.086575719  0.086759166            2 
 1515000    1.0160753   -2.6162186    1570.5343  0.086388025  0.086745351            1 
 1516000    1.0112281   -2.6062634    1569.1725  0.086256185  0.086730742            3 
 1517000    1.0303927   -2.5725622    1576.4784  0.086600659  0.086717141            1 
 1518000    1.0096949   -2.5571798    1576.8384  0.086563373  0.086702852            1 
 1519000   0.99899181   -2.5685092    1572.6561  0.086276941  0.086688886            2 
 1520000    1.0160373     -2.57385    1573.0369  0.086241056   0.08667462            1 
 1521000    1.0022428   -2.5723174    1569.8457  0.086009519  0.086660437            2 
 1522000    1.0214909   -2.5707168    1572.5997  0.086103793  0.086646062            2 
 1523000    0.9781873   -2.5854092    1574.5901  0.086156166  0.086631576            2 
 1524000    1.0051179   -2.5824698    1578.4698  0.086311781  0.086617012            2 
 1525000    1.0284155   -2.5596641     1575.413   0.08608814  0.086602805            2 
 1526000   0.99218898     -2.57526    1584.5945  0.086533121  0.086588573            1 
 1527000    1.0159119   -2.5763709    1577.3747  0.086082444  0.086574657            2 
 1528000   0.99892548   -2.5583188    1585.5104  0.086469807  0.086560643            1 
 1529000   0.98934029    -2.583619     1580.666  0.086149224  0.086546291            2 
 1530000   0.99397999   -2.5536732    1584.1832   0.08628449  0.086532221            3 
 1531000   0.99308821   -2.5648554    1590.3623  0.086564463  0.086518228            2 
 1532000    0.9776431   -2.5530642    1584.5286  0.086190631  0.086503519            2 
 1533000    1.0055753   -2.5490248    1589.4414   0.08640147  0.086489466            2 
 1534000   0.99378147   -2.5894953    1584.0478   0.08605214  0.086475582            9 
 1535000    1.0126553    -2.558853    1588.8334  0.086255887  0.086461696            4 
 1536000     1.001993   -2.5370604    1589.9044  0.086257834  0.086448431            1 
 1537000    1.0139124   -2.5992859    1588.5757  0.086129674  0.086435179            2 
 1538000   0.99307395   -2.5790227    1596.6346  0.086510328  0.086421625            1 
 1539000   0.98276572   -2.5564172    1595.7004  0.086403528  0.086408011            3 
 1540000    1.0427804   -2.5416127    1589.6481  0.086019921  0.086394936            1 
 1541000   0.99331089   -2.5541077    1596.8264  0.086352281  0.086381884            2 
 1542000    1.0172315   -2.5836115    1601.3636  0.086541481  0.086368547            6 
 1543000    1.0157301   -2.5971517    1595.1666  0.086150711  0.086355515            5 
 1544000    1.0051877   -2.5747587    1599.4481  0.086325999  0.086342566            2 
 1545000    1.0126606   -2.5585279    1600.7268  0.086339094   0.08632915            3 
 1546000   0.99958904   -2.5993425    1600.8085  0.086287651  0.086316115            2 
 1547000    1.0315379   -2.5856671    1592.2405  0.085770334  0.086302164            2 
 1548000   0.99235274   -2.5880848    1603.7108  0.086332407  0.086288502            1 
 1549000    1.0021299   -2.5809366    1604.7411  0.086332099    0.0862748            2 
 1550000    1.0278581   -2.5843186    1597.1811  0.085869953  0.086261123            5 
 1551000    1.0129165   -2.5738733    1598.4914  0.085884987  0.086247391            2 
 1552000    0.9810761    -2.585263    1608.9187  0.086389533  0.086233691            4 
 1553000   0.98821538   -2.5826345    1599.0928  0.085806652  0.086220269            4 
 1554000   0.99678892   -2.5605515    1601.9729  0.085905882  0.086206693            1 
 1555000   0.99682704   -2.5816584    1604.9978  0.086012741  0.086193414            5 
 1556000    1.0073466   -2.5962976    1600.9925  0.085742957  0.086180033            3 
 1557000    1.0214874   -2.5926798    1603.1668   0.08580426   0.08616712            2 
 1558000    1.0016973    -2.554273    1610.9061  0.086163139  0.086153879            3 
 1559000     1.007656    -2.588125      1609.85  0.086051422  0.086140251            2 
 1560000   0.98246905   -2.6000356    1604.0979  0.085688992  0.086126354            1 
 1561000   0.99064186   -2.5765046    1608.9734  0.085894372  0.086112757            2 
 1562000    1.0059678    -2.571983    1612.7438  0.086040533  0.086098668            1 
 1563000    1.0106735   -2.5945173    1606.5644  0.085656024  0.086084457            5 
 1564000    1.0026288   -2.5856755     1605.187  0.085527867  0.086070884            2 
 1565000    1.0197956   -2.5740511     1616.163  0.086057669  0.086057227            1 
 1566000    1.0144471   -2.5928847    1615.4446  0.085964485  0.086043534            1 
 1567000   0.98795186   -2.6063087    1610.7961  0.085662415  0.086029685            2 
 1568000    1.0072248   -2.5709232    1609.6814  0.085548545  0.086015687            2 
 1569000   0.98793761   -2.5948807    1609.8599  0.085503499  0.086001891            3 
 1570000    1.0045972   -2.5549851    1617.7835  0.085869614  0.085988153            3 
 1571000   0.97677715    -2.577934    1612.9748  0.085559875  0.085974472            3 
 1572000    1.0323923   -2.5679963    1615.2968   0.08562854  0.085961117            1 
 1573000    1.0081911   -2.5766524    1620.2552  0.085836788  0.085947629            1 
 1574000   0.99633012   -2.5631245     1619.207  0.085726756  0.085934502            1 
 1575000    1.0051759   -2.5748361    1621.9763  0.085818854  0.085921231            2 
 1576000    1.0050529   -2.5897454    1625.4749  0.085949391  0.085907403            3 
 1577000     1.024304   -2.6060092      1619.03  0.085554321  0.085893929            2 
 1578000   0.99522949   -2.5536177    1622.3683  0.085676399  0.085880574            2 
 1579000    1.0106179   -2.5892586    1620.5345  0.085525361  0.085867305            4 
 1580000   0.99206697   -2.5902568    1618.8777  0.085383845  0.085853642            1 
 1581000   0.97874688   -2.6091576    1616.8715  0.085224091  0.085839836            3 
 1582000    1.0085671   -2.5792015    1623.9697  0.085544129  0.085825706            2 
 1583000   0.99114811   -2.5714062    1627.8572  0.085694735   0.08581213            6 
 1584000    0.9820027   -2.6110029    1618.1017  0.085127405  0.085798183            3 
 1585000   0.99812875    -2.589528    1619.4339  0.085143736  0.085784312            4 
 1586000    1.0042718    -2.571729    1625.5732  0.085412634  0.085770223            3 
 1587000   0.99827151   -2.5829943     1622.228  0.085183156  0.085756301            2 
 1588000    1.0095733   -2.5777131    1624.7587  0.085262319  0.085742217            1 
 1589000   0.98808592   -2.5819042    1627.9755  0.085377361  0.085728002            2 
 1590000     1.004355   -2.5653801    1621.7517  0.084997468  0.085714107            2 
 1591000    1.0123424   -2.5956316    1626.8587  0.085211541  0.085699939            3 
 1592000     1.018273   -2.5777354    1635.0962  0.085589204  0.085686246            2 
 1593000    1.0041585   -2.5869428    1637.1708  0.085644007  0.085673046            3 
 1594000   0.98657528   -2.6039675    1634.3573   0.08544319  0.085659989            2 
 1595000    0.9835524   -2.6145065    1634.7803   0.08541172  0.085646844            2 
 1596000   0.98525733    -2.557158    1641.8022  0.085724846  0.085633635            2 
 1597000    1.0125811   -2.5730163    1641.2905  0.085644466  0.085620705            2 
 1598000    1.0015537   -2.6094793    1641.6377  0.085608976  0.085607361            3 
 1599000    1.0178752   -2.5813866    1641.7321  0.085560356  0.085594303            2 
 1600000    1.0094203   -2.5861712    1642.9783  0.085571787  0.085581332            1 
 1601000   0.99509977    -2.570701     1645.909  0.085670884  0.085568101            7 
 1602000    1.0132173   -2.5870499    1647.5368  0.085702081  0.085555402            3 
 1603000     1.002564   -2.5915612    1648.0838  0.085677051  0.085542325            3 
 1604000    1.0004012   -2.5880714    1647.5782  0.085597371  0.085529319            2 
 1605000   0.98302637   -2.5927923    1645.1464  0.085417778   0.08551635            1 
 1606000    1.0053213   -2.5902269    1647.3433  0.085478586  0.085503752            5 
 1607000   0.99319334   -2.5724724    1642.9663  0.085198416  0.085490573            2 
 1608000   0.98862846   -2.5817712    1646.4218  0.085324515  0.085477844            1 
 1609000    1.0087164   -2.5944846    1646.2789   0.08526408  0.085464621            3 
 1610000   0.97316542   -2.5701259    1651.1234  0.085461876  0.085451157            2 
 1611000    1.0055099    -2.571226    1643.0874  0.084993143  0.085437787            2 
 1612000   0.98899282   -2.6057847    1648.1694  0.085203135   0.08542457            2 
 1613000   0.99245736   -2.5871695    1655.7307  0.085540956   0.08541102            2 
 1614000    1.0004783    -2.562265    1649.9263  0.085188264  0.085398149            2 
 1615000    0.9784308   -2.5867117    1650.6283  0.085171737  0.085385117            3 
 1616000   0.99281971   -2.5699844    1654.9077   0.08533971  0.085371632            2 
 1617000    1.0150348     -2.57348    1654.1916  0.085250033  0.085358497            3 
 1618000    0.9900061   -2.5632815    1655.5893  0.085269331  0.085345195            2 
 1619000   0.97874719   -2.6206762    1655.6595  0.085220274  0.085332173            1 
 1620000   0.99189157    -2.592874     1656.903  0.085231636  0.085319055            1 
 1621000   0.99647817   -2.5977876    1656.3102   0.08514858  0.085306307            2 
 1622000   0.98871639   -2.5882947    1659.2646  0.085247872  0.085293412            3 
 1623000   0.99758402   -2.5876104    1664.8172  0.085480446  0.085280394            6 
 1624000   0.98697662   -2.5967189    1664.7576  0.085424756  0.085268076            2 
 1625000   0.99416459   -2.6285014    1663.2067  0.085292653  0.085255471            2 
 1626000   0.98639909   -2.6034826    1662.8794  0.085223422  0.085242856            7 
 1627000      1.00608   -2.5844702    1666.4419  0.085353508   0.08523013            2 
 1628000   0.98847745   -2.5745036    1666.7666  0.085317701  0.085217883            2 
 1629000   0.98164486   -2.5858307    1672.4665  0.085556913  0.085205721            2 
 1630000    1.0089696   -2.5968155    1666.5446  0.085201664  0.085193268            2 
 1631000   0.99404484   -2.5688625    1664.9833  0.085069654  0.085180658            3 
 1632000   0.97529214   -2.5885518    1670.5956  0.085304103  0.085168224            3 
 1633000   0.99089435   -2.5810867    1671.1275  0.085279011  0.085155574            2 
 1634000     1.007538   -2.5678947    1674.9073  0.085419586  0.085143096            2 
 1635000   0.99522436   -2.5875639    1670.2676  0.085130867  0.085130706            5 
 1636000   0.98329582   -2.6239121    1671.0029  0.085116284  0.085118078            2 
 1637000    1.0113554   -2.6028695    1679.9852  0.085521544  0.085105759            1 
 1638000   0.96264098   -2.5835172    1677.3298  0.085334239  0.085093262            4 
 1639000    1.0019859   -2.5799488    1678.3091  0.085331964  0.085081122            2 
 1640000   0.96370522   -2.6055168    1677.4555  0.085236562  0.085069311            2 
 1641000    1.0012044   -2.5990737    1674.4082  0.085029868  0.085057051            3 
 1642000   0.99503205   -2.6016564    1675.2304  0.085019814  0.085044926            2 
 1643000   0.98390888   -2.5957562    1677.8527  0.085101071  0.085032456            3 
 1644000    1.0033045   -2.5858737    1676.5339  0.084982458  0.085019868            1 
 1645000     1.000182   -2.6057713    1679.5011  0.085081109  0.085007181            1 
 1646000    0.9842952   -2.5889957    1678.8176  0.084994816  0.084994655            3 
 1647000   0.99374502   -2.6054781    1692.3304  0.085626918  0.084982282            3 
 1648000   0.99531978   -2.6070172    1684.0344  0.085155462  0.084969881            6 
 1649000    1.0182867   -2.5938794    1689.8188  0.085396139  0.084957304            3 
 1650000   0.98780432   -2.5995893     1683.406  0.085020503  0.084945482            3 
 1651000    1.0088357   -2.6124151      1687.18  0.085159498  0.084933423            2 
 1652000   0.99151575   -2.6102803    1688.5397  0.085176541  0.084921402            2 
 1653000   0.98406764   -2.6061813    1687.5567  0.085075454  0.084909532            4 
 1654000    1.0063408   -2.5815049    1693.9245  0.085344845  0.084897351            3 
 1655000   0.99233261   -2.6017442    1696.4767  0.085421786  0.084885705            2 
 1656000   0.97125875   -2.6223744    1690.4144  0.085065137  0.084873754            2 
 1657000   0.99287438   -2.6172184    1691.7458   0.08508076  0.084861898            3 
 1658000   0.98335628   -2.5942271    1696.9464  0.085290834  0.084850002            2 
 1659000   0.97761302   -2.6027034    1695.0143   0.08514237  0.084838383            2 
 1660000   0.98075977   -2.5771742    1697.1364  0.085197611  0.084826941            3 
 1661000     1.002343   -2.5957949    1691.7581  0.084876483  0.084815368            2 
 1662000   0.97712567   -2.5658316    1698.6042  0.085168683   0.08480375            3 
 1663000   0.99245365   -2.6183171    1701.2426   0.08524968  0.084791993            2 
 1664000   0.96373599   -2.6138335    1702.3127  0.085252039   0.08478069            4 
 1665000   0.99504264     -2.58645    1696.2471  0.084897253  0.084769812            3 
 1666000   0.96311523   -2.5942566    1702.3575  0.085151934  0.084758405            3 
 1667000    1.0093381   -2.5977139    1698.1939  0.084892714  0.084747026            2 
 1668000   0.97054653   -2.5932249    1701.8685  0.085025403  0.084736071            3 
 1669000   0.98654005   -2.5931959    1701.2172  0.084941943  0.084724531            2 
 1670000   0.97531442   -2.5966413     1707.571  0.085208136  0.084713149            3 
 1671000   0.96941235   -2.5625648    1710.3411  0.085295289  0.084702001            2 
 1672000   0.99021427   -2.6173504    1699.1708  0.084687542  0.084690371            3 
 1673000   0.96980537   -2.6196839    1700.1787  0.084687122  0.084678711            3 
 1674000   0.99086573   -2.5811586     1711.395  0.085194894  0.084666954            2 
 1675000   0.98908485   -2.6214289    1710.5803  0.085103497  0.084655618            2 
 1676000   0.98327735   -2.6052375     1704.787  0.084764669   0.08464383            2 
 1677000   0.99336824   -2.6081918    1709.5462  0.084950614  0.084632298            5 
 1678000   0.95877873   -2.6273178    1713.6799   0.08510528  0.084620646            4 
 1679000   0.99691591   -2.5939133     1715.578  0.085148799  0.084609348            3 
 1680000   0.98766697   -2.6197092    1705.9177  0.084618932  0.084598171            2 
 1681000   0.97803763   -2.6080194    1713.6528  0.084952052  0.084586553            2 
 1682000    0.9876826   -2.6058965    1712.6479  0.084851759  0.084575541            4 
 1683000   0.97645603    -2.609642    1716.3195  0.084983138  0.084564349            5 
 1684000     0.977573    -2.640709    1717.0563  0.084969135  0.084552732            3 
 1685000    1.0015585   -2.5890736    1721.6243  0.085144625  0.084541182            3 
 1686000    0.9669132   -2.6126386    1716.4983  0.084840762  0.084529676            1 
 1687000   0.98405297   -2.6148928    1722.7138  0.085097502   0.08451861            3 
 1688000   0.97293993   -2.5670594    1720.6255   0.08494399   0.08450731            2 
 1689000   0.97606883   -2.6304431     1716.744  0.084702191  0.084495872            3 
 1690000   0.99220202   -2.5964876    1718.1533  0.084721564  0.084484361            4 
 1691000   0.96447638   -2.5890911    1720.2766    0.0847761  0.084472644            1 
 1692000   0.97331468   -2.6190604    1720.0012  0.084712429  0.084460907            6 
 1693000    0.9772725   -2.5981698    1724.6133  0.084889415  0.084449666            1 
 1694000     1.003626   -2.6092562    1715.2419   0.08437829  0.084437929            2 
 1695000   0.97978599   -2.5900816     1728.774  0.084993804   0.08442668            1 
 1696000   0.96638381   -2.6016228    1728.1415  0.084912615  0.084415859            3 
 1697000   0.97648382   -2.6162374    1718.0066  0.084364891  0.084404404            3 
 1698000   0.98805164   -2.6120873    1729.6277  0.084885536  0.084393171            4 
 1699000   0.95319769   -2.5965601    1727.0775  0.084710491  0.084381625            3 
 1700000   0.95873341   -2.6288566    1724.8695  0.084552425  0.084370273            1 
 1701000   0.98798736   -2.5954753    1728.5504  0.084683051  0.084358777            1 
 1702000   0.97249836   -2.5825151     1730.992  0.084752841  0.084347023            2 
 1703000   0.97724229   -2.5722983    1731.3894  0.084722519  0.084335755            2 
 1704000   0.97041446   -2.6343658    1732.9142  0.084747369  0.084324265            3 
 1705000   0.97720022   -2.6176427    1735.6279  0.084830298  0.084313099            2 
 1706000   0.98182516    -2.623739    1727.3805  0.084377711  0.084301602            2 
 1707000   0.97950062   -2.5792495    1729.6904  0.084441046  0.084289898            1 
 1708000   0.98449537   -2.6091338    1736.2377   0.08471105  0.084278654            4 
 1709000   0.96464399   -2.5929976    1732.7521   0.08449152  0.084266888            5 
 1710000   0.99187183   -2.6145308    1740.4795   0.08481869  0.084255224            4 
 1711000   0.98570469   -2.5751676    1743.6572  0.084923883  0.084244229            2 
 1712000   0.97004155   -2.6023598    1742.4353  0.084814802  0.084232877            2 
 1713000   0.98710647    -2.579932    1739.8343  0.084638757  0.084221641            4 
 1714000   0.97980569   -2.6116783    1738.2481  0.084512258  0.084210442            6 
 1715000   0.97979129   -2.6074801    1739.7493  0.084535921  0.084199132            3 
 1716000   0.98359513   -2.6202362    1747.1197  0.084844586  0.084188061            2 
 1717000   0.97351059   -2.5981983    1746.2099  0.084751015  0.084176671            3 
 1718000   0.97840472   -2.5981507     1740.958  0.084446933  0.084165209            3 
 1719000   0.96522844   -2.5936905    1747.2706  0.084703829  0.084154038            2 
 1720000   0.96200229   -2.6185256    1740.5647  0.084329685  0.084142472            2 
 1721000   0.97070287   -2.5974285    1748.7245  0.084675795  0.084130857            4 
 1722000   0.97437521    -2.612209    1749.6747  0.084672607  0.084119363            2 
 1723000   0.97906496   -2.6076925    1746.9905  0.084493642  0.084107808            3 
 1724000    0.9681541   -2.6218342    1744.4681  0.084322702  0.084096128            2 
 1725000   0.98688979   -2.6075253    1745.3425  0.084316062  0.084084647            2 
 1726000    0.9894038   -2.6077604    1744.4162  0.084222488  0.084073138            2 
 1727000   0.99538761   -2.6064488    1757.6159  0.084810651  0.084061587            5 
 1728000   0.96630093   -2.5932904    1749.2605  0.084358626  0.084050459            3 
 1729000   0.99819332   -2.6282738    1756.4174  0.084654779  0.084039033            1 
 1730000   0.97631479   -2.6198092    1753.9527  0.084487122  0.084027841            3 
 1731000    0.9905242   -2.6280476    1754.3939  0.084459556  0.084016495            3 
 1732000   0.95823841   -2.5817802    1755.8165  0.084479239  0.084006022            2 
 1733000    0.9577982   -2.6109379    1755.3857  0.084409774  0.083995141            4 
 1734000   0.97227544    -2.638925    1752.8571  0.084239575  0.083984023            2 
 1735000   0.98935666   -2.6150866    1761.6764   0.08461462   0.08397282            1 
 1736000   0.98506666   -2.6081437     1765.246  0.084737233  0.083962041            2 
 1737000   0.98545878   -2.6248632    1759.3692  0.084406507  0.083951122            2 
 1738000   0.99572823   -2.6129307    1758.6787  0.084324834  0.083940318            3 
 1739000   0.97110918   -2.6258069    1765.1709  0.084587449  0.083929466            1 
 1740000   0.95997524   -2.6017132    1764.5972  0.084511358    0.0839181            3 
 1741000   0.97511803   -2.6195865    1763.9399  0.084431359  0.083907125            3 
 1742000   0.97908391   -2.6382491    1759.0551  0.084149213  0.083895966            2 
 1743000   0.98222628   -2.6288191    1765.4243  0.084405447  0.083884479            3 
 1744000   0.94925542   -2.6321038    1765.5511  0.084363108  0.083873055            2 
 1745000   0.99452986   -2.6124823    1768.0011  0.084431763  0.083861979            2 
 1746000   0.98283451   -2.6168972    1767.1916   0.08434477  0.083851085            3 
 1747000   0.97817894    -2.634705    1766.4862  0.084262841  0.083839749            3 
 1748000   0.94728938   -2.6013414    1773.4265  0.084545506  0.083828611            2 
 1749000   0.95856596   -2.6363984    1764.5533   0.08407439  0.083817694            3 
 1750000   0.96430996   -2.6062512    1773.5883  0.084456585  0.083806565            2 
 1751000   0.98813798   -2.6167065    1770.7007  0.084270924  0.083795768            1 
 1752000   0.97597248   -2.6258189     1771.541  0.084262795  0.083785297            2 
 1753000   0.97367871   -2.6041363    1778.4119  0.084541354   0.08377483            3 
 1754000   0.97310387   -2.6179221    1779.3026  0.084535471  0.083763787            4 
 1755000   0.98309417   -2.6232076    1769.5198   0.08402278  0.083753135            4 
 1756000    0.9552413   -2.6152753    1781.2156  0.084529973  0.083742521            3 
 1757000   0.95340352    -2.628951    1774.3274  0.084155161  0.083731443            4 
 1758000   0.96772762   -2.6203382    1776.3905  0.084205088  0.083720575            2 
 1759000   0.96685354   -2.6268409    1775.7957  0.084129034  0.083710075            3 
 1760000   0.97991038   -2.6397225    1780.1228  0.084286119  0.083699296            2 
 1761000   0.97509516   -2.5886265    1785.4567  0.084490663  0.083688728            2 
 1762000   0.96658767   -2.6259101    1789.0623  0.084613236  0.083678164            1 
 1763000   0.97176853   -2.6001394    1782.4789  0.084254061  0.083667458            1 
 1764000   0.95719909   -2.5999559    1784.2043  0.084287808  0.083656653            2 
 1765000   0.96177345   -2.6115708    1785.3306  0.084293231  0.083645787            1 
 1766000   0.96491991   -2.6248807     1785.367  0.084247215  0.083635526            2 
 1767000   0.97184172   -2.6247833    1794.5731  0.084633708  0.083624645            2 
 1768000    0.9563993   -2.5874844    1788.5802  0.084303367  0.083614308            4 
 1769000   0.94518158   -2.6086304    1784.2082  0.084049754  0.083603729            2 
 1770000   0.97974636   -2.6271553    1791.1051  0.084326981  0.083593167            2 
 1771000   0.94823007   -2.6486416    1785.4028  0.084011049  0.083582511            3 
 1772000   0.97456833   -2.6259458    1785.4805  0.083967292  0.083571638            1 
 1773000   0.95923725   -2.6175472    1783.5348  0.083828484   0.08356071            2 
 1774000   0.96463512   -2.6098231    1790.1504  0.084091994  0.083549869            2 
 1775000   0.97875388   -2.6104335    1787.8318  0.083935765  0.083538779            2 
 1776000   0.95537678   -2.6003791    1794.4005  0.084196721  0.083527831            2 
 1777000    0.9795055   -2.6230038    1793.2193  0.084093945  0.083517019            2 
 1778000   0.95064823   -2.6032903    1791.3954  0.083961165  0.083506078            4 
 1779000    0.9775065   -2.5893846    1795.6883   0.08411506  0.083495109            4 
 1780000   0.98384232   -2.6290589    1792.1084  0.083900204  0.083484392            2 
 1781000   0.96791764   -2.6391914    1787.7737  0.083650276  0.083473416            3 
 1782000   0.96209853   -2.6382414    1797.7039  0.084067708    0.0834623            1 
 1783000   0.97382721   -2.6446532     1789.693  0.083646147  0.083451005            2 
 1784000    0.9624147   -2.6241492    1787.3079  0.083487851  0.083439568            2 
 1785000   0.97761248   -2.6167253    1792.4038  0.083678984  0.083428103            2 
 1786000   0.95361311   -2.6294009    1793.3071  0.083674275  0.083417146            3 
 1787000   0.97385082   -2.6377987    1787.7803  0.083369722  0.083405459            2 
 1788000   0.95856013   -2.6468136    1796.5938  0.083733866  0.083393956            2 
 1789000   0.94971646   -2.6242634    1793.1431  0.083526325  0.083382493            4 
 1790000   0.94965733    -2.624864    1800.0958  0.083803343  0.083370821            1 
 1791000   0.97159765   -2.6486866    1801.7271  0.083832452  0.083359746            2 
 1792000    0.9740312   -2.6016128    1797.2907  0.083579365  0.083347982            3 
 1793000   0.96886039   -2.6105233    1805.0026  0.083891179  0.083336873            1 
 1794000   0.96915991   -2.6361835    1796.3553  0.083442738  0.083325677            2 
 1795000   0.96672635    -2.613363    1801.4423  0.083632418  0.083314293            2 
 1796000   0.97091053   -2.6087074    1808.6249  0.083919123   0.08330336            2 
 1797000   0.96367104   -2.6356949    1809.3635  0.083906673  0.083292485            3 
 1798000   0.96098774     -2.65636    1797.4634  0.083308463  0.083281302            2 
 1799000   0.96742001    -2.613439    1806.6861   0.08368937  0.083270309            2 
 1800000   0.96866917   -2.6534225    1808.1257  0.083709523  0.083259298            2 
 1801000   0.96315482   -2.6409568    1813.7834   0.08392483  0.083248379            2 
 1802000   0.95436643    -2.606716    1814.5077  0.083911751  0.083237655            5 
 1803000   0.96665179   -2.6248832       1805.1  0.083430394  0.083226924            1 
 1804000   0.97165755   -2.6203167    1813.9257  0.083791839  0.083216447            4 
 1805000   0.96513641   -2.5958349    1812.9715  0.083701362  0.083205761            4 
 1806000   0.95516883   -2.6222982    1819.3459  0.083949148  0.083195061            3 
 1807000   0.94784878   -2.6308937    1817.6846  0.083826075  0.083184133            6 
 1808000   0.96462886   -2.6154512    1821.8358  0.083971047  0.083173448            1 
 1809000   0.96444818   -2.6262165    1820.3653  0.083856889  0.083162942            3 
 1810000   0.97452377   -2.6273289    1819.0553  0.083750244  0.083152133            3 
 1811000   0.94876849   -2.6129501    1819.0761  0.083704957   0.08314101            5 
 1812000   0.97111038   -2.6160953    1822.5412  0.083818118  0.083130031            2 
 1813000    0.9706846   -2.6171068    1817.6909  0.083548948  0.083119308            2 
 1814000   0.94719958   -2.6131771    1822.9383  0.083743951  0.083108148            2 
 1815000    0.9622959   -2.6165609    1825.9538  0.083836262  0.083096832            2 
 1816000   0.96389325   -2.6169478    1817.8896  0.083420045   0.08308591            2 
 1817000   0.95961266   -2.6087206    1823.4955  0.083631237  0.083074584            3 
 1818000   0.93733962   -2.6271986    1827.7223  0.083778985  0.083063514            2 
 1819000   0.95705729   -2.6089557    1817.4998  0.083264607  0.083052297            2 
 1820000   0.94514626   -2.6094563    1817.2686  0.083208267   0.08304081            1 
 1821000   0.98542948   -2.6181626    1830.1821   0.08375353  0.083029878            1 
 1822000   0.95425119   -2.6171831    1822.1416  0.083339812   0.08301877            2 
 1823000   0.95286094   -2.6476288    1829.1681   0.08361529  0.083007449            2 
 1824000   0.96585907   -2.6383679    1813.5554  0.082856148  0.082995935            3 
 1825000   0.98377725   -2.6518358    1830.8152  0.083598866  0.082984496            4 
 1826000   0.95365036   -2.6341719    1823.2067  0.083205855  0.082973134            2 
 1827000   0.96693515   -2.6189692    1822.1403   0.08311167   0.08296181            2 
 1828000   0.95853637   -2.6307905    1833.1846  0.083569685   0.08295037            5 
 1829000   0.93316337   -2.6282508     1828.753  0.083322081  0.082939147            2 
 1830000   0.97240299   -2.6119356    1833.0388   0.08347171  0.082927909            2 
 1831000   0.97646355   -2.6380433    1827.7585  0.083185803  0.082917231            5 
 1832000   0.96653568   -2.6417587    1831.5891  0.083314643  0.082906426            4 
 1833000   0.96305424   -2.6144088    1838.3091    0.0835747  0.082895393            2 
 1834000   0.96130273    -2.654148    1837.4964  0.083492203  0.082884588            1 
 1835000   0.96424196   -2.6621502    1835.0281   0.08333461  0.082873642            2 
 1836000   0.95851052   -2.6023867    1847.4861  0.083854672  0.082862474            2 
 1837000    0.9699193   -2.6258396    1832.9722  0.083150616  0.082851668            2 
 1838000   0.96030451   -2.6183029     1834.677   0.08318267  0.082840972            3 
 1839000   0.93816962    -2.629303    1839.1795  0.083341469  0.082830155            2 
 1840000   0.96416787    -2.626385    1835.2923   0.08312012  0.082819161            3 
 1841000    0.9649904    -2.620529    1851.1915  0.083794652  0.082808513            2 
 1842000   0.95885658   -2.6169469    1841.7292  0.083321084  0.082797737            4 
 1843000   0.96586702   -2.6668396    1837.9836  0.083106512  0.082787072            2 
 1844000   0.95978672   -2.6424326    1838.3225  0.083076756  0.082776254            2 
 1845000   0.94821909   -2.6435767    1848.2813   0.08348154   0.08276593            2 
 1846000   0.96333438   -2.6412476    1844.0947  0.083247324  0.082755328            1 
 1847000   0.96306005   -2.6402265    1850.3516  0.083484554  0.082745291            1 
 1848000   0.95318316   -2.6354172     1849.903  0.083419146   0.08273529            1 
 1849000   0.94649095   -2.6542508    1848.8393  0.083326091  0.082724916            3 
 1850000   0.96357272   -2.6594951    1852.2733  0.083435733  0.082714389            3 
 1851000   0.94884285   -2.6369194    1852.3994  0.083396333  0.082704005            2 
 1852000   0.95664702   -2.6625897    1848.0876  0.083157288  0.082693537            3 
 1853000   0.92938051   -2.6194074    1857.3233  0.083527762  0.082682899            3 
 1854000   0.95008143   -2.6540178    1851.3672  0.083214993  0.082672339            3 
 1855000   0.95651315    -2.624094    1851.9539  0.083196491  0.082661627            2 
 1856000   0.95448601   -2.6189501    1856.4556  0.083353788  0.082650972            5 
 1857000   0.96080782   -2.6001626    1859.6629  0.083452832  0.082640782            3 
 1858000   0.95834559   -2.6358297    1857.2632  0.083300289  0.082630362            2 
 1859000   0.93795264   -2.6190534    1867.3348  0.083706956  0.082620125            3 
 1860000   0.94635668   -2.6512072    1863.4007  0.083485693  0.082609958            3 
 1861000   0.93837414   -2.6600913    1853.3295  0.082989858  0.082599621            5 
 1862000   0.96144226   -2.6430243    1859.7066  0.083230691  0.082589493            3 
 1863000    0.9749386   -2.6225366    1860.0922  0.083203267  0.082579428            2 
 1864000   0.97372588   -2.6206994    1864.6339  0.083361673  0.082569307            2 
 1865000   0.94198873   -2.6046241    1868.3048  0.083480999  0.082559326            2 
 1866000   0.96968973   -2.6333215    1864.9304  0.083285568  0.082549264            2 
 1867000    0.9582269   -2.6235721    1868.6153  0.083405433  0.082538979            2 
 1868000   0.95900157   -2.6286395     1869.906  0.083418363  0.082528928            2 
 1869000   0.95037309   -2.6319921    1868.8061  0.083324686  0.082518378            3 
 1870000   0.96793631   -2.6470589    1870.2532  0.083344618  0.082508284            3 
 1871000   0.94953516   -2.6574034    1869.4743   0.08326538  0.082498121            4 
 1872000   0.94310517   -2.6337627    1864.2213  0.082987061  0.082487673            4 
 1873000   0.94372421   -2.6413649    1866.7119  0.083053562   0.08247731            2 
 1874000   0.94942491   -2.6385583    1870.8144  0.083191677  0.082466909            8 
 1875000   0.95232949   -2.6279697    1868.6624  0.083051662  0.082456646            2 
 1876000    0.9439841   -2.6325696    1868.6116  0.083005134  0.082446207            3 
 1877000   0.95018033   -2.6543229    1874.7487   0.08323338  0.082435912            3 
 1878000   0.96107748    -2.625243    1871.6986  0.083053718  0.082425363            2 
 1879000   0.93215885   -2.6273158    1873.4965  0.083089253  0.082415131            2 
 1880000    0.9469737   -2.6652567    1874.4544  0.083087517  0.082405011            2 
 1881000   0.95351569   -2.6394716    1869.4844  0.082823161  0.082394439            2 
 1882000   0.94600412   -2.6349351    1880.4166  0.083263222  0.082383752            3 
 1883000    0.9533423   -2.6430561    1872.7629  0.082880285  0.082373064            2 
 1884000   0.92839595   -2.6464866    1875.2609  0.082946784  0.082362407            3 
 1885000   0.96586659   -2.6285147    1872.6081  0.082785506  0.082352021            4 
 1886000   0.97666181    -2.634923    1886.8423  0.083370551  0.082341489            2 
 1887000   0.94573825   -2.6354465    1872.6146   0.08269805  0.082331161            1 
 1888000   0.92608965   -2.6485452    1882.1864  0.083076729  0.082320469            4 
 1889000   0.95048149   -2.6543388    1884.1774  0.083120585  0.082310235            2 
 1890000    0.9517571   -2.6470536    1877.0108  0.082760617  0.082300047            4 
 1891000      0.94332   -2.6552084    1874.2282  0.082594227  0.082289555            3 
 1892000    0.9251278   -2.6216789     1880.209  0.082813999  0.082279124            3 
 1893000   0.94514277    -2.630528    1884.3379  0.082952013   0.08226836            7 
 1894000   0.92376567   -2.6246895    1880.7885  0.082752045  0.082257826            4 
 1895000   0.97566899   -2.6481634    1880.5267  0.082696864  0.082247358            2 
 1896000   0.95231904    -2.655881    1884.4493  0.082825655   0.08223675            2 
 1897000   0.92719262   -2.6298379    1889.0821   0.08298551  0.082225965            3 
 1898000   0.94871377   -2.6606642    1879.6383  0.082527148  0.082215427            1 
 1899000   0.93747264   -2.6607401    1882.3225  0.082601477  0.082204564            5 
 1900000   0.94329939   -2.6546945    1882.7143  0.082575189  0.082193784            4 
 1901000    0.9491631   -2.6459656    1885.7136   0.08266323  0.082182652            4 
 1902000   0.95799795   -2.6594809    1889.0865  0.082767548  0.082171943            3 
 1903000   0.93312868    -2.663718    1890.2544  0.082775199  0.082161406            3 
 1904000   0.95958554   -2.6547083    1889.0406  0.082678599  0.082150746            1 
 1905000   0.93172452   -2.6257527     1889.495  0.082655073  0.082140143            2 
 1906000   0.94856534   -2.6222201    1890.0268   0.08263496  0.082129802            1 
 1907000   0.92836953    -2.659925    1890.6259  0.082617809  0.082119255            2 
 1908000   0.96121573   -2.6717913    1895.9342  0.082806351  0.082108952            2 
 1909000   0.96003471   -2.6644322    1900.3525  0.082955845  0.082098449            4 
 1910000   0.96654573   -2.6389623    1898.4108  0.082827695  0.082088156            2 
 1911000   0.94650955    -2.666048      1902.52  0.082963546  0.082077881            3 
 1912000   0.96743253   -2.6454395    1900.5253  0.082833214  0.082067657            2 
 1913000   0.92820371   -2.6540091    1897.5982  0.082662408  0.082057251            3 
 1914000   0.95721053   -2.6367882    1901.3711  0.082783487  0.082046855            4 
 1915000   0.94992034    -2.616339    1907.2062  0.082994176  0.082036652            3 
 1916000   0.95431668   -2.6326196    1898.8916  0.082589232  0.082026602            1 
 1917000   0.94007023   -2.6481771    1902.2567  0.082692433  0.082015904            2 
 1918000   0.91931937   -2.6195438     1900.817  0.082586764   0.08200535            2 
 1919000   0.95679012   -2.6440402    1896.3192  0.082348409  0.081994763            1 
 1920000   0.95266673   -2.6757857    1897.4855   0.08235614  0.081983978            2 
 1921000   0.93719094   -2.6658662    1900.4375  0.082441327  0.081973522            3 
 1922000   0.94794612   -2.6645531    1913.3244  0.082957181  0.081963388            3 
 1923000   0.97129707   -2.6373607    1909.3639  0.082742411   0.08195298            2 
 1924000   0.95008256   -2.6421534    1907.4596  0.082616928  0.081942737            5 
 1925000   0.93074259   -2.6797092    1909.2521  0.082651604  0.081932615            6 
 1926000   0.93591794   -2.6338457    1908.8079  0.082589473  0.081922557            3 
 1927000   0.92018434   -2.6436766    1911.4945  0.082662798  0.081912269            3 
 1928000   0.93985308    -2.663672    1912.0392  0.082643466  0.081902096            5 
 1929000   0.92991531   -2.6673688    1916.4254  0.082790108  0.081892009            2 
 1930000   0.94052617   -2.6483195    1911.7296  0.082544455  0.081881817            1 
 1931000   0.96483131   -2.6189851    1913.5264  0.082579249  0.081871554            3 
 1932000    0.9286268   -2.6563971    1906.4288  0.082230364  0.081861223            4 
 1933000   0.94870139   -2.6488833    1905.2731     0.082138  0.081850646            2 
 1934000   0.92921285   -2.6318465    1914.4024  0.082488902  0.081840294            2 
 1935000   0.94604606     -2.64272    1914.2541  0.082439884  0.081830127            3 
 1936000   0.94713997   -2.6575241    1920.0075  0.082644949  0.081819918            5 
 1937000   0.93825876    -2.669786    1913.3211  0.082314623  0.081809561            2 
 1938000   0.92845787   -2.6365502    1915.7851  0.082378101  0.081798545            1 
 1939000   0.95134646   -2.6769382    1922.5787  0.082627586  0.081788116            3 
 1940000   0.96155806   -2.6502701    1919.3976  0.082448352  0.081777502            4 
 1941000   0.93539123   -2.6391662    1917.7092  0.082333384  0.081767153            2 
 1942000   0.95331864   -2.6503533    1914.7664   0.08216471  0.081756263            1 
 1943000   0.92292697   -2.6683754    1919.5521  0.082327678  0.081745509            4 
 1944000   0.93101848   -2.6285594    1919.8799  0.082299377  0.081735123            3 
 1945000   0.94222076   -2.6476928    1918.3646  0.082192142  0.081724519            2 
 1946000   0.92597134   -2.6438189    1919.9501  0.082217802  0.081713891            1 
 1947000   0.96707891   -2.6493177    1916.7952  0.082040543  0.081703422            2 
 1948000   0.94643308   -2.6353112    1920.4929   0.08215661  0.081692893            1 
 1949000   0.95228932   -2.6415059    1930.7319  0.082552247  0.081682543            3 
 1950000   0.92307516   -2.6435818    1920.3993  0.082068346  0.081671703            2 
 1951000   0.95259907   -2.6473074    1925.7876  0.082256433  0.081660956            3 
 1952000   0.94225784    -2.674135    1922.4044  0.082069861    0.0816501            3 
 1953000   0.92901528   -2.6483626    1932.9106  0.082476131  0.081639541            3 
 1954000   0.92660255   -2.6467291    1923.6553  0.082039204  0.081628635            4 
 1955000   0.95155454   -2.6334639    1931.7245  0.082341196   0.08161799            3 
 1956000   0.94044136    -2.640041     1929.569  0.082207267  0.081607302            2 
 1957000   0.91856593   -2.6589431    1932.2442  0.082279179  0.081596781            3 
 1958000   0.92802868   -2.6567754    1921.7743   0.08179155  0.081585882            5 
 1959000   0.92847997   -2.6484843    1926.5871  0.081954529  0.081575016            3 
 1960000   0.95383066   -2.6494076    1930.5279  0.082080267  0.081564322            3 
 1961000   0.93207579   -2.6569931    1933.1375  0.082149305  0.081553644            2 
 1962000   0.93700814   -2.6518002    1937.6212  0.082297876  0.081543126            3 
 1963000   0.92598096   -2.6390321    1934.7812  0.082135388  0.081532405            4 
 1964000   0.93516967   -2.6445287    1929.3717  0.081864041  0.081521548            2 
 1965000   0.93441893   -2.6476764    1934.4815   0.08203908  0.081510514            2 
 1966000    0.9389044    -2.659282    1938.0809  0.082149919  0.081500074            2 
 1967000   0.93836578   -2.6633507    1932.4055  0.081867712  0.081489148            2 
 1968000   0.93697035   -2.6683955    1929.3073  0.081694923  0.081478178            4 
 1969000   0.93560661   -2.6535458     1936.662  0.081964702  0.081466785            2 
 1970000    0.9111463   -2.6428781    1939.4191  0.082039726  0.081455835            3 
 1971000   0.92099199   -2.6416764    1947.1533  0.082325102  0.081444975            1 
 1972000   0.93909504   -2.6954701    1930.5028  0.081579731  0.081434029            2 
 1973000   0.94967063   -2.6772735    1932.2283  0.081611266  0.081423247            4 
 1974000   0.93645939    -2.658438    1942.7826  0.082015476  0.081412516            1 
 1975000   0.94002522   -2.6455641    1933.8792  0.081598277  0.081401454            4 
 1976000   0.93239248   -2.6620987    1938.0956  0.081734799  0.081390295            2 
 1977000   0.92895731    -2.641216    1946.4219  0.082044424  0.081379358            1 
 1978000   0.94105348   -2.6620898    1941.4516  0.081793545  0.081368211            1 
 1979000   0.92764905   -2.6563192    1945.5201  0.081923533  0.081357184            2 
 1980000    0.9322942    -2.659736    1942.5393  0.081756703  0.081346422            4 
 1981000   0.91454725   -2.6738418    1947.4482  0.081921935  0.081335502            3 
 1982000   0.92606954   -2.6730167    1945.6249  0.081803938  0.081324483            1 
 1983000   0.93128291   -2.6638314       1942.9  0.081648176  0.081313286            8 
 1984000   0.91979473   -2.6639481    1943.1433   0.08161724  0.081302077            1 
 1985000   0.95111501   -2.6568904    1946.4509  0.081714981  0.081291206            1 
 1986000   0.94247782   -2.6773955    1943.5168  0.081550723  0.081280172            3 
 1987000   0.94605031   -2.6491228    1954.5812  0.081973713  0.081269171            2 
 1988000   0.93762233    -2.684786    1950.5184  0.081762174  0.081258203            2 
 1989000   0.93795324   -2.6684516    1949.4708  0.081677176  0.081246948            3 
 1990000   0.93220868   -2.6616469     1959.142  0.082041123  0.081235768            1 
 1991000   0.94404401   -2.6559908    1950.8038  0.081650922  0.081224607            2 
 1992000   0.92892985    -2.664536    1952.9565  0.081699988  0.081213498            2 
 1993000   0.92381915    -2.682264    1956.7234  0.081816501   0.08120224            4 
 1994000   0.92723814   -2.6504652    1945.3136  0.081298628  0.081191444            4 
 1995000   0.91410833   -2.6461622    1956.5411  0.081726862  0.081180193            4 
 1996000   0.93896881    -2.663937    1950.6216  0.081438776  0.081169145            1 
 1997000   0.94908812   -2.6329917    1954.2133  0.081547875  0.081157756            2 
 1998000   0.94243391   -2.6887192    1954.3287  0.081511876  0.081146782            4 
 1999000   0.93596265   -2.6692581    1957.6748  0.081610589  0.081135459            3 
 2000000   0.93352219   -2.6655516    1953.1469   0.08138112  0.081124505            7 
 2001000   0.93471369   -2.6677817    1964.5902  0.081817015  0.081113471            2 
 2002000   0.94793619   -2.6578395    1957.4263  0.081477949  0.081102756            2 
 2003000   0.94977614   -2.6614544    1954.8168  0.081328708  0.081091889            2 
 2004000   0.92632781   -2.6550002     1956.214  0.081346226  0.081080496            1 
 2005000   0.90801361   -2.6730732    1962.3304  0.081559868  0.081069277            7 
 2006000   0.94407305   -2.6441371    1961.4246  0.081481579  0.081058239            2 
 2007000   0.94000472   -2.6888432    1960.5995  0.081406724   0.08104729            1 
 2008000   0.93012156   -2.6615765    1960.3299  0.081354991  0.081036399            2 
 2009000     0.929617   -2.6580964    1968.6676  0.081660344  0.081025438            2 
 2010000   0.91935908   -2.6452965    1971.5779  0.081740376  0.081014284            2 
 2011000   0.93755034   -2.6764846    1961.2155  0.081270325  0.081003108            2 
 2012000   0.91983693   -2.6401894    1969.4277  0.081570068  0.080991873            2 
 2013000   0.93274933   -2.6514113      1971.02  0.081595461  0.080980869            2 
 2014000   0.94182787   -2.6708084     1966.451  0.081365896  0.080970122            1 
 2015000    0.9415119   -2.6647898    1973.6513  0.081623297  0.080959305            2 
 2016000   0.94729736   -2.6720484    1974.2506  0.081607583  0.080948471            1 
 2017000   0.91396655   -2.6647238    1973.1108  0.081520031  0.080937519            2 
 2018000   0.91409836   -2.6872225     1971.749  0.081423399  0.080926629            3 
 2019000   0.92686649   -2.6703586    1967.6915  0.081215599  0.080915567            2 
 2020000   0.92657523   -2.6620907     1972.171   0.08136019  0.080904618            2 
 2021000   0.92398709   -2.6922827    1974.7222   0.08142513  0.080893697            2 
 2022000   0.91644509   -2.6626437    1973.6186  0.081339376  0.080882723            4 
 2023000   0.92819175   -2.6779262    1975.9617  0.081395689  0.080871985            2 
 2024000   0.90332708    -2.670664    1976.5726  0.081380624  0.080861377            3 
 2025000   0.93699144   -2.6717169    1973.9193  0.081231246  0.080850799            4 
 2026000   0.91707248   -2.6744339    1981.2092  0.081490999  0.080840083            2 
 2027000    0.9323787   -2.6945095    1970.5508  0.081012612  0.080829141            2 
 2028000   0.91213726   -2.6828181    1981.4622  0.081421032  0.080818412            3 
 2029000   0.93486279   -2.6685291    1976.7318  0.081186618  0.080807617            4 
 2030000   0.92941999   -2.6616822    1966.4821  0.080725866  0.080796694            3 
 2031000   0.90363865   -2.6822766    1980.5258  0.081262341  0.080785825            1 
 2032000   0.91627219   -2.6739243    1978.9553  0.081157945  0.080774864            3 
 2033000   0.94028467   -2.6654305    1979.5377  0.081141896  0.080763862            3 
 2034000   0.92232923   -2.6528956     1982.016   0.08120354  0.080752871            2 
 2035000   0.91629098   -2.6471177    1981.4721  0.081141364  0.080741696            2 
 2036000   0.92070921   -2.6670111      1975.38  0.080852161  0.080730802            5 
 2037000   0.93739126   -2.6504564     1995.958  0.081654312  0.080719648            4 
 2038000   0.95152424   -2.6746209    1980.8184   0.08099519  0.080708738            3 
 2039000   0.91675963   -2.6654846    1977.1714  0.080806418  0.080697859            2 
 2040000   0.91523338   -2.6681816    1984.9221   0.08108342  0.080686922            3 
 2041000   0.93177592   -2.6593811    1982.8076  0.080957358  0.080676498            3 
 2042000    0.9093123   -2.6707596    1981.8527  0.080878744   0.08066575            2 
 2043000   0.92238095   -2.6703069    1992.3434  0.081267066  0.080654845            3 
 2044000   0.91506737   -2.6530623    1987.8677  0.081044833  0.080643757            3 
 2045000   0.93950511   -2.6629362    1991.5715  0.081156131  0.080632894            3 
 2046000   0.94116404   -2.6759644    1987.7882  0.080962372  0.080621889            5 
 2047000   0.92062607   -2.6554691     1995.529  0.081237951  0.080611117            1 
 2048000   0.91992156   -2.6710673    1991.1597  0.081020494  0.080600102            2 
 2049000   0.92471708   -2.6779117    1988.8397    0.0808866  0.080589135            2 
 2050000   0.93995164   -2.6723033    1998.2083  0.081227981  0.080578436            2 
 2051000   0.94201062   -2.6822831    2000.7733  0.081292592  0.080567413            2 
 2052000   0.92598759   -2.6893771    1994.7664  0.081009031  0.080556499            4 
 2053000   0.93244809   -2.6658125    1998.0584  0.081103199  0.080545731            3 
 2054000   0.91885303   -2.6690973    2000.7923  0.081174633  0.080535373            4 
 2055000   0.91580147   -2.6598467    1993.7748   0.08085056  0.080524502            7 
 2056000   0.91272797   -2.6787937    1996.0121  0.080901918  0.080513808            6 
 2057000   0.92312712   -2.6677608    2007.0226  0.081308646  0.080503112            4 
 2058000   0.91845011   -2.6843358    2004.8434  0.081180895  0.080492496            2 
 2059000   0.92589558   -2.6607154    2010.3376  0.081363834  0.080482037            2 
 2060000   0.93038183   -2.6890521    2003.8112  0.081060323  0.080471772            1 
 2061000   0.91234512   -2.6818225    2006.7173  0.081138498  0.080460869            4 
 2062000   0.91575775   -2.6677807    2006.0524  0.081072277  0.080450194            2 
 2063000   0.93956801   -2.6603862    2010.3182  0.081205293  0.080439747            3 
 2064000   0.91569027   -2.6763326    2002.3076  0.080842524  0.080428881            2 
 2065000   0.89465935   -2.6899878    2005.4887  0.080931746   0.08041843            3 
 2066000   0.92370243   -2.7020077    2001.2655  0.080722228  0.080407593            4 
 2067000   0.92779992   -2.6605318    2014.1197  0.081201405  0.080396777            4 
 2068000   0.93189033   -2.6765459    2004.0956  0.080758203  0.080386139            2 
 2069000   0.92837787   -2.6837831    2010.2238  0.080965998    0.0803755            2 
 2070000   0.90214799   -2.7072743    2004.9697  0.080715368  0.080364686            2 
 2071000   0.90460492   -2.6792399    2005.5254  0.080698754  0.080353603            2 
 2072000   0.93063402   -2.6624392    2007.8688  0.080754053  0.080342367            2 
 2073000   0.92853901   -2.6848937    2012.6812  0.080908555  0.080331443            1 
 2074000   0.89926924   -2.6809376    2006.8103  0.080633651  0.080320158            4 
 2075000   0.93812053   -2.6780832    2003.6466  0.080467736  0.080309226            1 
 2076000   0.92152768   -2.6695067    2009.9579  0.080682316  0.080298118            3 
 2077000   0.92248533    -2.667623    2007.6215  0.080549733  0.080286856            2 
 2078000   0.91840966     -2.66935     2007.838  0.080519652  0.080275498            7 
 2079000   0.91713823   -2.6765169    2012.7321  0.080677092   0.08026385            5 
 2080000   0.89660468   -2.6518674    2007.5286   0.08042983  0.080252161            4 
 2081000   0.93326979   -2.6769737    2014.6834  0.080677697  0.080240425            2 
 2082000   0.91474411   -2.6825487     2005.907  0.080287664  0.080228948            2 
 2083000   0.90426389   -2.6875085    2008.2433  0.080342585  0.080217201            3 
 2084000   0.89273476    -2.673523    2012.3284  0.080467388  0.080205592            2 
 2085000   0.91362203   -2.6814787    2011.3672  0.080390377  0.080193757            2 
 2086000   0.92899592   -2.6778551    2010.4182  0.080313925  0.080182122            2 
 2087000   0.89610213    -2.679469    2023.7665  0.080808438  0.080170544            2 
 2088000   0.93036234   -2.6652562    2009.6866  0.080207799  0.080158697            1 
 2089000   0.91520568   -2.6712824    2009.4136  0.080158511  0.080146953            6 
 2090000   0.93686605   -2.6975697    2007.2494  0.080033868  0.080134983            3 
 2091000   0.90274808   -2.6922156    2017.2267  0.080393219  0.080123357            3 
 2092000   0.92125726   -2.6485086    2016.0985  0.080309853  0.080111581            3 
 2093000    0.9240023   -2.6858596    2022.5403  0.080527961    0.0801001            2 
 2094000   0.91874092   -2.6566674    2020.8895   0.08042381  0.080088449            7 
 2095000     0.913135   -2.6714544    2016.5802   0.08021401  0.080076712            2 
 2096000   0.88828433   -2.6861749    2023.1212    0.0804358  0.080064904            2 
 2097000   0.92679235   -2.6682451    2017.7032  0.080182132  0.080053112            3 
 2098000   0.91627089    -2.709906    2019.8492  0.080229154   0.08004131            3 
 2099000   0.91305335   -2.6975643     2012.245  0.079889033   0.08002949            3 
 2100000   0.91759313    -2.670403    2020.8881  0.080193974  0.080017711            2 
 2101000   0.91302119   -2.6849944    2019.1717  0.080087722   0.08000582            5 
 2102000   0.90178627   -2.6802951    2019.9176  0.080079193   0.07999419            3 
 2103000   0.91344864    -2.672841     2022.272  0.080134411  0.079982278            5 
 2104000   0.90459307    -2.691876    2023.9459  0.080162623  0.079970478            2 
 2105000   0.90487671   -2.6925094    2029.7323  0.080353613  0.079958839            4 
 2106000   0.93869016   -2.7017297    2027.9411  0.080244585  0.079947242            2 
 2107000   0.88792879   -2.6879989    2023.6758  0.080037803   0.07993555            3 
 2108000   0.88684244   -2.6753538     2023.944  0.080010437   0.07992372            4 
 2109000   0.91717702   -2.6866895    2026.8175   0.08008604  0.079911914            3 
 2110000   0.90526993   -2.6899734     2029.456   0.08015229  0.079900469            3 
 2111000   0.90546383   -2.6837511    2031.6309  0.080200177  0.079888906            6 
 2112000   0.92547501   -2.6876359    2022.5473  0.079803794  0.079877128            5 
 2113000    0.9074371   -2.6884836    2019.9701  0.079664383   0.07986568            3 
 2114000   0.90760713   -2.6904168    2029.2271  0.079991608  0.079853882            4 
 2115000   0.91367886   -2.6780381    2036.0239  0.080221589  0.079841863            2 
 2116000    0.9098736   -2.6712718    2030.8143  0.079978511  0.079830383            5 
 2117000   0.90121719   -2.6993549    2035.1947  0.080113159  0.079818567            3 
 2118000   0.91882084   -2.6836548    2036.0846  0.080110349  0.079806952            2 
 2119000   0.89782337   -2.6907332     2027.671  0.079741661  0.079795353            4 
 2120000   0.90738816   -2.6809192    2028.5347  0.079737999  0.079783514            2 
 2121000   0.90392782   -2.6975027    2036.5904   0.08001691  0.079771951            2 
 2122000   0.92569894   -2.6883331    2034.5374  0.079898578  0.079760049            1 
 2123000   0.90772992   -2.6809242     2039.137  0.080041489  0.079748267            2 
 2124000   0.93171376   -2.6770542    2031.7451  0.079713792  0.079736253            4 
 2125000   0.90767188   -2.6941339    2034.9147  0.079800576  0.079724401            3 
 2126000   0.91422595   -2.6687034    2032.1841   0.07965601    0.0797125            2 
 2127000   0.90392478   -2.7071305    2035.0742  0.079731791  0.079700148            2 
 2128000   0.89223478   -2.6900082    2041.7935  0.079957454  0.079687907            3 
 2129000   0.93950033   -2.6725855    2037.5871  0.079755248  0.079675829            2 
 2130000   0.92075225   -2.7007134    2036.9557  0.079693101  0.079663666            4 
 2131000   0.92532655   -2.7056947    2043.8616  0.079925764  0.079651658            2 
 2132000    0.9161353   -2.6742923    2042.5926  0.079838671   0.07963967            1 
 2133000   0.92416055   -2.6942419     2038.049  0.079623732  0.079627717            2 
 2134000   0.92242113   -2.6742422     2040.707  0.079690214  0.079615748            6 
 2135000    0.8995186   -2.7119304    2035.1602  0.079436387  0.079603431            2 
 2136000   0.93124101   -2.6929664    2046.7643  0.079851917  0.079591372            2 
 2137000   0.91208937   -2.6897226    2045.0796  0.079748855  0.079579086            5 
 2138000   0.90189915    -2.670456    2037.2843  0.079407715  0.079566963            2 
 2139000   0.92234758   -2.6822375    2041.4776  0.079533957  0.079554569            3 
 2140000   0.91367035    -2.698032    2040.9869  0.079477682  0.079542377            2 
 2141000   0.91913969   -2.6853728     2040.116  0.079406664  0.079530285            7 
 2142000   0.90845761   -2.6737155    2045.6641  0.079585439  0.079518378            4 
 2143000   0.89630922   -2.6964752    2043.0103  0.079445105  0.079506559            4 
 2144000   0.89618594   -2.6853327    2049.3681  0.079655164  0.079494518            4 
 2145000   0.90649565   -2.6745527    2049.8971   0.07963858  0.079482187            3 
 2146000   0.92560571   -2.6879688    2038.4667  0.079157609  0.079470336            3 
 2147000   0.91101054   -2.6947347    2052.3308  0.079658857  0.079458149            2 
 2148000   0.91764294   -2.7013013    2057.3396  0.079816093  0.079446229            4 
 2149000   0.89026019   -2.7101034    2052.1933  0.079579388  0.079434432            5 
 2150000   0.93387915   -2.6643623    2057.1114     0.079733  0.079422535            2 
 2151000   0.91054856   -2.6991959    2054.3271  0.079588062  0.079410391            3 
 2152000   0.91129231   -2.6836521    2053.0908  0.079503205  0.079398254            2 
 2153000   0.90171794   -2.6924633    2058.0474   0.07965813  0.079386046            3 
 2154000   0.90272248   -2.6896154    2051.2912  0.079359765  0.079373996            3 
 2155000    0.8792559     -2.71764    2049.1026  0.079238305  0.079361773            3 
 2156000   0.90202991   -2.6825388    2056.0443  0.079469863  0.079349754            4 
 2157000   0.89010974    -2.699247    2052.2498  0.079286426  0.079337696            3 
 2158000   0.90836469   -2.6946964    2052.3767  0.079254582  0.079325352            4 
 2159000   0.90357071    -2.682255    2058.6497  0.079459999  0.079313141            6 
 2160000   0.93578084   -2.7063185    2046.9792  0.078972962  0.079300745            3 
 2161000   0.91954101   -2.7169494    2052.4446  0.079147177  0.079288463            2 
 2162000   0.90433996   -2.6826118     2055.319   0.07922136  0.079275993            3 
 2163000     0.918824   -2.6891573    2051.0901   0.07902181  0.079263917            3 
 2164000   0.89503789   -2.6829897    2067.5229  0.079618104  0.079251889            1 
 2165000   0.90458364   -2.7026223    2061.3082  0.079342117  0.079239838            3 
 2166000   0.89517484   -2.6954714    2064.9369  0.079445093  0.079227955            1 
 2167000   0.91675485   -2.7080279    2061.1161  0.079261502  0.079215991            3 
 2168000   0.91856496   -2.6853757    2065.8136  0.079405505  0.079204036            1 
 2169000   0.90800341   -2.6716385    2066.9532   0.07941268  0.079192125            2 
 2170000   0.91157429   -2.7219468    2060.7968  0.079139661  0.079180197            2 
 2171000   0.90429999   -2.7045483    2059.4348  0.079050927  0.079168322            2 
 2172000   0.90224633   -2.7095102    2061.2983  0.079086032   0.07915653            2 
 2173000   0.87606139   -2.7155312    2062.4724  0.079094661  0.079144542            2 
 2174000   0.90957747   -2.6900333    2068.5662  0.079291868  0.079132609            2 
 2175000   0.87517013   -2.7019096    2067.4716   0.07921347   0.07912078            4 
 2176000    0.9180603   -2.6698909    2068.6665   0.07922283  0.079108865            6 
 2177000   0.89847964   -2.6975844    2066.5877  0.079106862  0.079096947            5 
 2178000   0.88985354   -2.6906073    2063.7901  0.078963502  0.079085069            3 
 2179000   0.90425751   -2.7088077     2071.934  0.079238718  0.079073551            3 
 2180000   0.90506718   -2.7234581    2069.3006  0.079101703  0.079061727            4 
 2181000   0.90095182   -2.6891776    2073.8006  0.079237374  0.079049924            3 
 2182000   0.90550337   -2.7001088    2074.4393  0.079225453  0.079038287            2 
 2183000   0.93585363    -2.723955    2077.0924   0.07929044  0.079026629            4 
 2184000   0.90975987   -2.6593968    2070.6729  0.079009194  0.079014904            3 
 2185000   0.90081896   -2.6998634    2075.0926  0.079141594   0.07900311            1 
 2186000   0.90459577   -2.6913193    2075.5776  0.079123878  0.078991342            4 
 2187000   0.89962242   -2.6855023    2078.7535  0.079208714  0.078979711            3 
 2188000   0.90209515   -2.6840081    2081.0643  0.079260522  0.078967725            3 
 2189000   0.91140971   -2.7162086     2074.524  0.078975333  0.078955537            2 
 2190000   0.91893846   -2.6892436    2077.3226   0.07904576  0.078943413            2 
 2191000   0.90985551   -2.7002162    2071.7714  0.078798549  0.078931416            4 
 2192000   0.90131224   -2.6917101    2078.2682  0.079009588  0.078919418            2 
 2193000   0.90199811   -2.7038686    2078.4829  0.078981717   0.07890745            2 
 2194000   0.90492126   -2.7018439    2077.7827  0.078919122  0.078895613            2 
 2195000   0.92154969   -2.7072131    2080.8627  0.079000104  0.078883874            8 
 2196000   0.94118751   -2.6985668    2075.2535  0.078751271  0.078871892            3 
 2197000   0.91405966   -2.7285185    2070.5982  0.078538847  0.078859678            2 
 2198000   0.89542734   -2.6901855    2081.6165  0.078920858  0.078847431            2 
 2199000   0.88894794   -2.7069319    2080.2873  0.078834596  0.078835374            3 
 2200000   0.90930317    -2.697325    2083.4655  0.078919149  0.078823336            3 
 2201000   0.89483368   -2.7204982    2083.0577   0.07886785  0.078810971            4 
 2202000   0.89333644    -2.688348    2085.4706  0.078923349  0.078798643            2 
 2203000   0.88219942   -2.6967621      2085.53  0.078889771  0.078786502            2 
 2204000   0.90302326   -2.6806808    2082.6206  0.078743973   0.07877438            2 
 2205000   0.88027318   -2.7123062    2079.7155  0.078598471  0.078761923            2 
 2206000   0.88783045   -2.7117883    2082.4989  0.078667983  0.078749681            3 
 2207000   0.89666292   -2.7050284    2072.5826  0.078257913  0.078737004            4 
 2208000   0.90057129   -2.7156096    2085.4082  0.078706529  0.078724484            2 
 2209000   0.88560391   -2.7265266    2078.3732  0.078405507  0.078711754            2 
 2210000   0.91825304   -2.7180276    2079.7592  0.078422294  0.078699209            2 
 2211000   0.90927789   -2.6920893     2087.459   0.07867703  0.078686814            6 
 2212000   0.90014379    -2.689763    2083.3339  0.078486058  0.078674463            1 
 2213000   0.89222846   -2.7183964    2090.6561  0.078726317  0.078662121            3 
 2214000   0.90657907   -2.7128107    2087.9191  0.078587741  0.078649738            2 
 2215000   0.90397923    -2.717971     2085.475  0.078460308  0.078637305            4 
 2216000   0.91033539   -2.6947612    2083.8212  0.078362709  0.078624667            4 
 2217000   0.90150944   -2.7385815     2092.146   0.07864028  0.078612033            3 
 2218000   0.89457908   -2.7120069    2082.5732  0.078245162   0.07859979            5 
 2219000   0.90838576   -2.6888037    2091.2685  0.078536446  0.078587187            2 
 2220000   0.90280658   -2.6787256    2097.3623  0.078729814  0.078574757            7 
 2221000   0.91015477   -2.7121055    2087.6554   0.07833016  0.078562215            5 
 2222000   0.88303316   -2.7001535    2089.5953  0.078367661  0.078549748            4 
 2223000   0.89395976   -2.7126093    2088.7227  0.078299695  0.078537048            2 
 2224000   0.89552381   -2.7139696    2083.9859  0.078087003  0.078524279            2 
 2225000   0.92435824   -2.7210884    2086.7747  0.078156355  0.078511573            2 
 2226000   0.87888836   -2.7078053    2098.2999  0.078552706  0.078498913            2 
 2227000   0.89504796   -2.7163191    2089.9722  0.078205814  0.078485976            3 
 2228000   0.89470603   -2.7269754    2088.6352  0.078120706  0.078473123            4 
 2229000   0.89089136   -2.6857829    2102.6064  0.078607987  0.078460329            4 
 2230000   0.91146939   -2.7057669     2091.466  0.078156427  0.078447486            5 
 2231000   0.90254682   -2.7256833    2093.6259  0.078202073  0.078434727            3 
 2232000   0.90649852   -2.7082253    2100.6398  0.078428906  0.078421683            4 
 2233000   0.90456499    -2.705023    2095.4975  0.078201878  0.078408882            2 
 2234000   0.87923788   -2.7145889    2097.7688  0.078251598  0.078395967            4 
 2235000   0.87590279   -2.7081835    2097.7322  0.078215219  0.078382894            3 
 2236000   0.88258146   -2.7009821    2095.1061  0.078082369  0.078369821            2 
 2237000   0.88868436   -2.6981372    2100.6491  0.078253952  0.078356624            3 
 2238000   0.89415354   -2.6937334    2098.4883  0.078138529  0.078343535            2 
 2239000   0.89884292   -2.7022464    2096.2713  0.078021113  0.078330186            4 
 2240000   0.89678145   -2.7278863    2093.1491   0.07787013  0.078316858            3 
 2241000   0.88809983   -2.7191522    2096.6021  0.077963784  0.078303434            2 
 2242000   0.90316565   -2.7447134    2099.3967  0.078032885  0.078290089            2 
 2243000   0.90455611   -2.7247101    2094.6168  0.077820509  0.078276602            7 
 2244000   0.89564574   -2.6864936    2092.0062  0.077688881   0.07826319            3 
 2245000   0.88392604   -2.7007719    2097.0176  0.077840297  0.078250032            1 
 2246000   0.90908558   -2.6788053    2100.5639  0.077937218  0.078236822            3 
 2247000   0.88348652   -2.7169607    2102.3364  0.077968269  0.078223827            3 
 2248000   0.88422967   -2.7029506    2099.3881  0.077824292  0.078210738            2 
 2249000   0.88239753   -2.7086811    2105.8773  0.078030135  0.078197538            5 
 2250000   0.89422513   -2.7240611    2105.1337  0.077967915  0.078184673            4 
 2251000   0.89470753   -2.7151815    2097.8842  0.077664898  0.078171261            4 
 2252000   0.91838256    -2.711943    2106.5404  0.077950726   0.07815812            3 
 2253000   0.89703646   -2.6743438    2107.1683  0.077939352  0.078144973            6 
 2254000   0.87849631   -2.6975003    2102.6843  0.077738993  0.078132007            3 
 2255000   0.87745255   -2.7014866    2106.5811  0.077848525  0.078118915            1 
 2256000   0.88677118   -2.7007439    2107.9725  0.077865415  0.078105992            3 
 2257000   0.90213311   -2.7119238    2110.5975  0.077927837   0.07809286            3 
 2258000    0.8771695   -2.7295755     2103.048  0.077614705  0.078079822            3 
 2259000   0.89705085   -2.7003287    2112.0375  0.077911965  0.078066891            3 
 2260000   0.88875911   -2.7262406    2102.9682  0.077543074   0.07805388            6 
 2261000   0.89008017   -2.7039144     2104.162  0.077552779   0.07804075            4 
 2262000   0.89517503   -2.7202534    2115.3917  0.077932202  0.078027527            4 
 2263000   0.89924636   -2.7185679    2111.6315  0.077759297  0.078014468            3 
 2264000   0.87521376   -2.7182278    2112.0093   0.07773886  0.078001218            3 
 2265000   0.89390738   -2.7290364    2107.6126  0.077542772  0.077988081            1 
 2266000   0.87464115   -2.6951466    2114.3504  0.077756339  0.077975067            3 
 2267000   0.87377597   -2.7108333    2108.2952  0.077499457  0.077962275            1 
 2268000   0.88022349   -2.7296893    2111.4044  0.077579528   0.07794919            2 
 2269000   0.90085342   -2.7032682     2116.165  0.077720177  0.077936143            2 
 2270000   0.90121349   -2.7381308    2107.7297  0.077376273  0.077922871            5 
 2271000   0.89674082   -2.7421226    2112.2056  0.077506443  0.077909694            3 
 2272000   0.89812333   -2.7143929    2116.8275  0.077641852  0.077896339            6 
 2273000   0.87527781   -2.7090066    2119.4729  0.077704681  0.077883119            3 
 2274000   0.89674943   -2.7127409    2110.3419  0.077335895  0.077869984            3 
 2275000   0.86074683    -2.721192    2118.0131  0.077582899  0.077856728            1 
 2276000   0.88628742   -2.7336515    2119.0273  0.077585943  0.077843701            3 
 2277000   0.87863539   -2.7410974    2112.3221  0.077306474  0.077830762            2 
 2278000   0.89173823   -2.7008885      2120.92  0.077587064  0.077817665            4 
 2279000   0.89631363   -2.6921063    2122.0459   0.07759419  0.077804724            3 
 2280000   0.90498655   -2.7140261    2113.6287  0.077252511  0.077791793            3 
 2281000   0.88847142   -2.7138696    2123.2687  0.077570829  0.077778377            3 
 2282000    0.8980119   -2.7210481    2114.8355  0.077228874  0.077765126           10 
 2283000   0.88801011    -2.692841    2121.0636  0.077422383  0.077752013            4 
 2284000   0.87091187   -2.7112019    2127.7146  0.077631151  0.077738988            2 
 2285000   0.87734889   -2.7095635    2119.0104  0.077279739  0.077725761            3 
 2286000   0.89224343   -2.7352831    2127.1463  0.077542515  0.077712681            4 
 2287000   0.87245132   -2.6980303    2125.5581  0.077450739   0.07769951            3 
 2288000   0.89793945   -2.7153814    2124.8271  0.077390264  0.077686319            2 
 2289000    0.8711959   -2.7083094    2135.1895  0.077733708  0.077673324            3 
 2290000   0.89664587   -2.7481416    2118.0443  0.077075848  0.077660242            3 
 2291000   0.89330138   -2.7117044    2125.1237  0.077299714  0.077647153            4 
 2292000   0.91119826   -2.7233512    2125.4214  0.077276809  0.077634185            2 
 2293000    0.8573068   -2.7174919    2120.1966  0.077053227  0.077620827            5 
 2294000   0.89514414   -2.7549388    2117.8611  0.076934798    0.0776073            2 
 2295000   0.87690498   -2.7087978    2140.3801  0.077718958  0.077593942            4 
 2296000    0.8770308   -2.7405169    2122.4219  0.077033315  0.077580619            3 
 2297000   0.89364135   -2.7360103    2126.3518  0.077142351  0.077567191            6 
 2298000   0.87411472   -2.7236081    2130.0553  0.077243085  0.077553866            3 
 2299000   0.88238582   -2.7291132    2127.1198   0.07710308  0.077540207            4 
 2300000   0.88788558   -2.7136841    2134.7309  0.077345322  0.077526735            4 
 2301000   0.88136083   -2.7226881    2125.6496  0.076982818  0.077513387            3 
 2302000   0.88969663     -2.74553    2124.9413  0.076923738  0.077499541            3 
 2303000   0.90493021   -2.7355662    2126.7797  0.076956858  0.077486031            2 
 2304000   0.90360601   -2.7108304     2133.644  0.077171729  0.077472381            2 
 2305000   0.87084071   -2.7350124    2129.6915  0.076995353  0.077458782            2 
 2306000   0.88810884   -2.7368636    2119.3447  0.076588057  0.077445379            3 
 2307000   0.90449739   -2.7159206    2137.3212  0.077204205  0.077431835            2 
 2308000   0.87495053   -2.7048173    2138.3149  0.077206634  0.077418354            3 
 2309000   0.89684579   -2.7313244    2129.0438  0.076838596  0.077404663            4 
 2310000   0.87729326   -2.7205609       2129.6  0.076825398  0.077390987            1 
 2311000    0.8764608   -2.7108877    2136.3794  0.077036616   0.07737758            7 
 2312000   0.87953562   -2.7177232    2137.9135  0.077058588  0.077364002            2 
 2313000   0.86868678   -2.7268974    2136.2247  0.076964428  0.077350538            4 
 2314000   0.88315484   -2.6963283    2134.6129  0.076873123  0.077336955            2 
 2315000   0.86940417   -2.7538041    2135.1596  0.076859597  0.077323464            2 
 2316000   0.87896766   -2.7448645    2128.8333  0.076598781  0.077309925            5 
 2317000   0.87371173   -2.7185347    2135.9985  0.076823426  0.077296296            3 
 2318000   0.87150599   -2.7428424    2131.8759  0.076642071  0.077282557            3 
 2319000   0.86910088   -2.7273409    2137.2177  0.076800982  0.077269025            5 
 2320000   0.89003608   -2.7259354    2133.9325  0.076649874  0.077255389            3 
 2321000   0.88206285   -2.7298646    2139.8565  0.076829546  0.077242088            2 
 2322000   0.89860724   -2.7292333    2140.8562  0.076832335  0.077228846            3 
 2323000    0.8721687   -2.7216836    2142.9414  0.076874064  0.077215501            3 
 2324000   0.87513044   -2.7385977    2137.8705  0.076659155  0.077201947            5 
 2325000   0.89005379   -2.7318697    2146.2774  0.076927504  0.077188625            3 
 2326000   0.89806684   -2.7249195    2152.0488  0.077101205  0.077175269            4 
 2327000   0.87192768   -2.7037297    2147.0631  0.076889526  0.077161723            5 
 2328000   0.87480802   -2.7089807    2135.3982   0.07643894  0.077148356            2 
 2329000   0.86799827   -2.7393181    2142.5701  0.076662733  0.077134953            3 
 2330000   0.86556735   -2.7460735    2141.5819  0.076594488  0.077121645            2 
 2331000   0.88290096   -2.7096629    2146.0197  0.076720281  0.077108109            4 
 2332000   0.86974007   -2.7066797    2139.7495   0.07646332  0.077094707            3 
 2333000   0.88147782   -2.7076921    2150.3265  0.076808349  0.077081288            2 
 2334000   0.89111623   -2.7335495    2144.9107  0.076582074  0.077068074            4 
 2335000   0.88223567   -2.7191736    2152.6503  0.076825493  0.077054745            3 
 2336000   0.86935892   -2.7169272    2151.8953  0.076765672  0.077041363            3 
 2337000   0.87352619   -2.7471087    2149.7293  0.076655588  0.077028082            2 
 2338000   0.89531316   -2.7460022     2152.302    0.0767145  0.077014838            3 
 2339000   0.87074861   -2.6976515    2161.3455  0.077003902  0.077001454            4 
 2340000   0.90596973   -2.7397781    2152.2968  0.076648745  0.076988368            3 
 2341000   0.88659079    -2.712844     2161.136  0.076930655   0.07697498            2 
 2342000   0.88029259   -2.7425365    2142.8678  0.076247786  0.076961663            3 
 2343000   0.89100922   -2.6927651    2152.0051  0.076540229  0.076948397            4 
 2344000   0.87711302   -2.7305071    2148.7798   0.07639291  0.076934981            2 
 2345000   0.86718165    -2.719454    2151.0737   0.07644185  0.076921618            3 
 2346000   0.88019057   -2.7379969    2153.1487  0.076482973  0.076908464            6 
 2347000   0.88450906   -2.7136255    2153.2616  0.076454397  0.076894969            2 
 2348000   0.86911817   -2.7333035    2156.4838  0.076536195  0.076881776            3 
 2349000   0.88939432    -2.745538     2152.913  0.076376935  0.076868537            4 
 2350000   0.87961681   -2.7323999    2161.8144  0.076660086  0.076855389            5 
 2351000   0.88744764   -2.7377866    2157.7754  0.076484311  0.076842239            4 
 2352000   0.86265829   -2.7379931    2148.5745  0.076125799  0.076828782            2 
 2353000   0.86675494   -2.7300079    2155.6546  0.076344191  0.076815553            3 
 2354000   0.86985389   -2.7112765    2164.7962  0.076635381  0.076802393            5 
 2355000   0.88335534   -2.7370636    2157.1341  0.076331707  0.076788988            5 
 2356000   0.88030691   -2.7241505    2155.6794  0.076247858  0.076775615            2 
 2357000   0.86980809   -2.7444695    2154.7763  0.076183576  0.076762125            3 
 2358000   0.87812418   -2.7453483    2163.3836  0.076455458  0.076748736            5 
 2359000   0.88712454   -2.7337016    2156.1146  0.076166263  0.076735531            4 
 2360000   0.87229116   -2.7125714    2163.9073  0.076409155  0.076722391            1 
 2361000   0.87754911    -2.753044    2156.4374  0.076113136  0.076709349            4 
 2362000   0.87271168   -2.7426241    2157.8326  0.076130136  0.076695877            4 
 2363000   0.88353061   -2.7162491    2163.7659  0.076307162  0.076682712            4 
 2364000   0.87539028   -2.7277914    2169.7486  0.076485778  0.076669542            5 
 2365000   0.89352477   -2.7257237     2168.889   0.07642315  0.076656507            3 
 2366000   0.85138808   -2.7442506    2166.9936  0.076324091  0.076643338            2 
 2367000    0.8649804   -2.7292032    2168.6025  0.076348489  0.076630117            7 
 2368000   0.87017717   -2.7646337     2165.768  0.076216498  0.076617084            5 
 2369000    0.8864415    -2.735977    2166.9212  0.076224893  0.076603919            2 
 2370000   0.85939462   -2.7195103    2165.3396  0.076137118  0.076590702            2 
 2371000   0.87985875   -2.7469166    2163.7317  0.076048492  0.076577533            1 
 2372000    0.8609769   -2.7464533     2182.128   0.07666273   0.07656443            2 
 2373000   0.85269648   -2.7395946    2174.6537  0.076367947  0.076551191            5 
 2374000   0.87047837   -2.7310883    2178.3478  0.076465453  0.076538226            3 
 2375000    0.8771086    -2.735311    2171.6204  0.076197207  0.076525012            2 
 2376000   0.87216354   -2.7186732       2170.4  0.076122336  0.076511859            4 
 2377000   0.87612929   -2.7478492    2172.3905  0.076160094  0.076498707            5 
 2378000   0.88040028   -2.7353637    2167.7403  0.075965107  0.076485456            2 
 2379000   0.87280702   -2.7253666     2170.135  0.076017058  0.076471839            3 
 2380000   0.84684325   -2.7398983     2171.578  0.076035646  0.076458588            5 
 2381000   0.86679549   -2.7257209    2166.1359   0.07581324   0.07644519            3 
 2382000   0.86932533    -2.742379    2178.6809  0.076220294  0.076431855            5 
 2383000    0.8611689   -2.7443454    2169.7186  0.075874898  0.076418509            5 
 2384000   0.88282921   -2.7350194    2176.3099  0.076073472  0.076405216            2 
 2385000   0.87655434   -2.7128962    2174.5053  0.075978522  0.076391989            2 
 2386000   0.88290002   -2.7267779    2171.7839  0.075851632  0.076378723            2 
 2387000   0.87616505   -2.7455614    2175.7416  0.075958022  0.076365306            3 
 2388000   0.88368133   -2.7545547    2171.8838  0.075791591  0.076351722            2 
 2389000   0.84879068   -2.7410202     2169.978  0.075693386  0.076338175            3 
 2390000   0.87041783   -2.7647906    2173.3676  0.075779901    0.0763243            5 
 2391000   0.86106396   -2.7315725    2172.3728  0.075713536  0.076310893            4 
 2392000   0.86398574   -2.7377422    2181.4759  0.075999021  0.076297403            2 
 2393000   0.88038393    -2.718851    2181.4459  0.075966216  0.076283842            2 
 2394000   0.86498397   -2.7348524    2177.6518  0.075802417  0.076270638            2 
 2395000   0.86495154   -2.7332838    2174.4582  0.075659645  0.076257297            2 
 2396000   0.84546365   -2.7549876      2176.47  0.075698039  0.076243982            6 
 2397000   0.87875917   -2.7500572    2184.2787  0.075937932  0.076230435            7 
 2398000   0.86410912   -2.7476292     2184.873  0.075926917  0.076217131            4 
 2399000    0.8929949   -2.7244484    2185.8779  0.075930176  0.076204056            2 
 2400000   0.88233657   -2.7337901    2184.6109  0.075854545  0.076190938            4 
 2401000   0.86855762   -2.7373568     2183.563  0.075786583  0.076177711            4 
 2402000   0.85911938   -2.7347159    2193.7491  0.076108419  0.076164637            2 
 2403000   0.86674064     -2.71609    2185.8052  0.075801263  0.076151342            4 
 2404000   0.85223252   -2.7440627    2194.4389  0.076069012  0.076138342            3 
 2405000   0.87453685   -2.7069436    2192.2971  0.075963172  0.076125222            3 
 2406000   0.86976373   -2.7358871    2187.3068  0.075758755  0.076112162            3 
 2407000     0.894569   -2.7324064    2181.2185  0.075516495  0.076098723            4 
 2408000   0.86207062   -2.7304449    2190.0445  0.075790575  0.076085438            3 
 2409000    0.8809813   -2.7433507    2186.2086  0.075626423   0.07607205            4 
 2410000   0.86210869   -2.7445831    2188.4276  0.075671769  0.076058449            3 
 2411000   0.87668591   -2.7369175    2192.8502  0.075793247  0.076045159            3 
 2412000   0.87657634   -2.7476656    2194.4949  0.075818645  0.076031761            4 
 2413000   0.85676476   -2.7328458    2193.1665   0.07574135  0.076018272            1 
 2414000   0.86033863   -2.7382254    2201.8413  0.076009433  0.076005061            2 
 2415000   0.88320196   -2.7493176    2187.1592  0.075471331  0.075991756            3 
 2416000   0.86982641   -2.7442401    2192.5012  0.075624352  0.075978701            4 
 2417000   0.86633202   -2.7696537    2193.0441  0.075611782  0.075965502            3 
 2418000   0.87876565   -2.7587248    2194.0677  0.075615787  0.075952187            4 
 2419000   0.87068996   -2.7442895    2191.4207   0.07549334  0.075939043            2 
 2420000   0.86730624   -2.7399097    2198.0957  0.075692002  0.075925839            4 
 2421000   0.84717543   -2.7370003    2198.8867  0.075687962  0.075912695            2 
 2422000   0.87763354   -2.7510688    2194.7422  0.075514113   0.07589952            2 
 2423000   0.87002778   -2.7459052    2200.2498  0.075672368  0.075886504            3 
 2424000   0.89135963   -2.7448252    2204.8809  0.075800361  0.075873587            2 
 2425000   0.84673135   -2.7257058    2202.1953  0.075676813  0.075860636            3 
 2426000   0.87646436   -2.7660123    2201.0248  0.075605413  0.075847362            2 
 2427000   0.86786631   -2.7603353    2197.8247  0.075464382  0.075834231            3 
 2428000   0.87582504   -2.7633608    2201.2706  0.075551571  0.075821274            3 
 2429000    0.8622257    -2.775691    2200.5925  0.075497204    0.0758082            2 
 2430000   0.86234982   -2.7322353    2195.8945  0.075305025  0.075795011            3 
 2431000   0.85661609   -2.7421211    2211.8959  0.075822566  0.075781933            3 
 2432000   0.83681673    -2.768621    2194.5032  0.075195423  0.075768689            8 
 2433000   0.87427487   -2.7532249    2206.0869  0.075561274  0.075755464            1 
 2434000   0.87123522   -2.7401881     2202.877  0.075420331  0.075742303            2 
 2435000   0.85618547   -2.7596591    2207.1101  0.075534228  0.075729273            2 
 2436000   0.87220828   -2.7550201    2207.7105  0.075523759  0.075716079            2 
 2437000   0.85443971   -2.7418801    2208.7471  0.075528215  0.075703058            9 
 2438000   0.86369445   -2.7071808    2216.0535  0.075746974  0.075689975            3 
 2439000   0.85440681   -2.7806187    2195.9361  0.075028567   0.07567673            5 
 2440000   0.85483078   -2.7350779    2210.1683   0.07548389  0.075663598            2 
 2441000   0.86215606   -2.7561287    2212.3945  0.075528967  0.075650398            4 
 2442000   0.87329083   -2.7407782    2210.8896  0.075446683  0.075637348            2 
 2443000   0.85000715   -2.7511458    2199.2135  0.075017518  0.075624237            3 
 2444000   0.86063283   -2.7804767    2201.1542  0.075052993  0.075610969            2 
 2445000   0.86594304    -2.728531    2206.4629  0.075203236    0.0755977            3 
 2446000     0.862871   -2.7668656    2212.2713  0.075370376  0.075584566            3 
 2447000   0.87090132   -2.7533165    2214.5542   0.07541732  0.075571455            2 
 2448000   0.86670736   -2.7564848    2204.8222  0.075055221  0.075558217            2 
 2449000    0.8629571   -2.7478587     2209.328  0.075177896  0.075544977            3 
 2450000   0.87804848   -2.7555777    2222.2871  0.075587997  0.075532065            2 
 2451000   0.85975361   -2.7426484    2213.2042  0.075248341  0.075518949            2 
 2452000   0.87432797   -2.7656558    2215.6306  0.075300116  0.075505902            3 
 2453000   0.84449698   -2.7446605    2208.7333  0.075035103   0.07549266            2 
 2454000   0.84524881   -2.7572945    2216.5961  0.075271532  0.075479572            2 
 2455000   0.85613391   -2.7527509    2217.4016  0.075268213  0.075466136            3 
 2456000   0.86384487   -2.7554451    2213.0577  0.075090175  0.075452951            3 
 2457000   0.84464283    -2.757271    2215.6565  0.075147757  0.075439608            1 
 2458000   0.84317247   -2.7413533     2213.805  0.075054415  0.075426428            3 
 2459000   0.86861883   -2.7596418    2215.4321  0.075079034  0.075413154            4 
 2460000   0.83215671   -2.7577725    2208.8638  0.074826009   0.07539986            5 
 2461000   0.87358101   -2.7404336    2210.8456  0.074862713  0.075386542            2 
 2462000   0.84250162   -2.7637516    2220.0873  0.075145117  0.075373371            2 
 2463000   0.85800886   -2.7368917    2215.4026  0.074956104  0.075360282            1 
 2464000   0.85371224   -2.7594326    2219.6128  0.075068074  0.075347078            3 
 2465000   0.87381743   -2.7312369     2218.973  0.075015992   0.07533408            3 
 2466000   0.83258614   -2.7367419    2219.5859  0.075006281  0.075320832            3 
 2467000   0.85293743   -2.7572099    2216.5167  0.074872204  0.075307578            4 
 2468000   0.86380579    -2.763852    2215.6552  0.074812776  0.075294349            5 
 2469000   0.87316582   -2.7563022    2215.9662  0.074792973  0.075281141            5 
 2470000   0.85087982   -2.7699472    2221.1331  0.074937014  0.075268168            3 
 2471000   0.87132401   -2.7538882    2217.1082  0.074770951  0.075254814            4 
 2472000   0.86341251   -2.7593403    2218.9332  0.074802226  0.075241538            2 
 2473000   0.84424109   -2.7586618    2220.7741  0.074834009   0.07522829            2 
 2474000   0.86619153   -2.7466789    2224.3373  0.074923784  0.075215172            3 
 2475000   0.87514223   -2.7586369    2223.5023  0.074865397   0.07520195            3 
 2476000   0.83881833   -2.7560652    2229.6909  0.075043448  0.075189059            7 
 2477000   0.86625954    -2.754788    2221.6782   0.07474358  0.075176141            4 
 2478000   0.87176401    -2.749386    2232.7756  0.075086614  0.075163232            6 
 2479000   0.84826559   -2.7547332    2229.0018  0.074929469  0.075150439            3 
 2480000   0.85370834   -2.7503928     2227.889   0.07486186  0.075137495            3 
 2481000   0.84841703   -2.7756995    2224.2684  0.074710077  0.075124275            2 
 2482000   0.85132954   -2.7811426     2232.324  0.074950445  0.075111125            8 
 2483000   0.87727346    -2.774412    2223.8241  0.074634989  0.075097888            4 
 2484000   0.85075016    -2.764641    2232.2347  0.074887099  0.075084762            3 
 2485000   0.86786464   -2.7484662    2231.1429  0.074820353  0.075071626            2 
 2486000   0.86214744   -2.7567635    2236.2469  0.074961346  0.075058479            2 
 2487000   0.86691227   -2.7554739    2227.5308   0.07463915  0.075045268            4 
 2488000   0.85036021   -2.7614891    2222.8539  0.074452502  0.075032116            3 
 2489000   0.86271276   -2.7551308    2228.4842  0.074611096  0.075018755            4 
 2490000   0.86273742   -2.7571416    2233.4722  0.074748064  0.075005435            2 
 2491000    0.8522061   -2.7551342    2229.4804  0.074584519  0.074992264            3 
 2492000   0.84432083   -2.7623874    2236.0663  0.074774823  0.074979024            3 
 2493000   0.83835835   -2.7524644    2233.5631  0.074661156  0.074965773            8 
 2494000   0.85925069   -2.7674185    2232.8415  0.074607108  0.074952646            3 
 2495000   0.84351999   -2.7560101    2237.0246  0.074716919  0.074939612            3 
 2496000   0.86776192   -2.7798034    2230.2889  0.074462104  0.074926423            4 
 2497000   0.84906016    -2.778924    2229.0617  0.074391326  0.074913242            6 
 2498000   0.85011721   -2.7469969    2229.2691  0.074368466  0.074900228            4 
 2499000   0.86206028   -2.7618663    2232.4456   0.07444463  0.074886861            5 
 2500000   0.85411271   -2.7718388    2239.1049   0.07463683  0.074873594            3 
 2501000   0.85550168   -2.7501548     2238.767  0.074595729  0.074860507            3 
 2502000   0.84848453   -2.7822387     2234.339  0.074418432  0.074847176            6 
 2503000   0.85297422   -2.7319946    2239.8191   0.07457115  0.074833935            4 
 2504000    0.8484962   -2.7588426    2230.5452  0.074232734  0.074820771            5 
 2505000   0.85816128   -2.7429147    2235.7136  0.074375035  0.074807468            3 
 2506000    0.8697962   -2.7930798    2234.7265  0.074312532  0.074794169            3 
 2507000   0.86136315   -2.7537938    2239.4196   0.07443889  0.074780788            1 
 2508000   0.86040748   -2.7807211    2231.8394  0.074157342  0.074767242            3 
 2509000   0.84566766    -2.754301    2231.6772    0.0741224    0.0747537            3 
 2510000   0.84712462   -2.7808017    2242.4782  0.074451468  0.074740312            3 
 2511000   0.84897433   -2.7517937    2235.3883  0.074186523  0.074726909            9 
 2512000   0.84218521   -2.7513378     2241.387   0.07435599  0.074713227            2 
 2513000   0.84230403   -2.7851139    2228.8171  0.073909572  0.074699659            3 
 2514000   0.83899043   -2.7725616     2243.877  0.074379374   0.07468601            2 
 2515000   0.84352532   -2.7720136    2238.9263  0.074185763  0.074672321            5 
 2516000   0.84694047   -2.7749506    2238.8532  0.074153854  0.074658564            4 
 2517000   0.85750088   -2.7716489    2246.5736  0.074380003  0.074645047            5 
 2518000   0.84204925   -2.7522512    2240.7427  0.074157488  0.074631519            6 
 2519000   0.83865222   -2.7586206    2248.7133  0.074391733  0.074617936            3 
 2520000    0.8282286   -2.7616526    2243.1535  0.074178356  0.074604435            2 
 2521000   0.84788722   -2.7942307    2239.8622  0.074040135  0.074590754            8 
 2522000   0.86152796   -2.7601511    2241.4524  0.074063322  0.074576863            2 
 2523000   0.83626087   -2.7594706    2239.3564  0.073964738  0.074562886            3 
 2524000    0.8517625    -2.751016    2235.9083   0.07382159  0.074548983            4 
 2525000   0.84017386   -2.7838809     2240.243  0.073935413  0.074535166            3 
 2526000   0.85536933   -2.7805032     2238.548  0.073850224  0.074521269            4 
 2527000   0.85765116   -2.7700671    2254.1753  0.074336345  0.074507471            6 
 2528000   0.84608275   -2.7762472    2240.4278  0.073853764  0.074493491            3 
 2529000   0.82086756   -2.7509502    2253.9515  0.074270182  0.074479729            4 
 2530000   0.84819363   -2.7653917    2241.4158  0.073827924   0.07446597            3 
 2531000   0.83024763   -2.7608439    2241.6936  0.073807902  0.074452171            3 
 2532000   0.83046669   -2.7786349    2240.0071  0.073723246  0.074438161            2 
 2533000   0.84822052    -2.757162    2247.1582  0.073929407  0.074424121            7 
 2534000   0.83436535   -2.7592746    2243.6831  0.073785949   0.07441036            3 
 2535000   0.85508708   -2.7557438    2246.5327  0.073850517  0.074396466            2 
 2536000   0.86805858    -2.765135    2239.9527  0.073605174  0.074382511            3 
 2537000   0.85280969     -2.79616    2238.3581  0.073523784  0.074368669            2 
 2538000   0.85586841   -2.7868462    2244.7381  0.073704298  0.074354604            5 
 2539000   0.86711576   -2.8013436     2251.656  0.073902324  0.074340851            2 
 2540000   0.84837661   -2.7697719    2243.7261  0.073613061  0.074327165            6 
 2541000   0.84125303   -2.7804012    2244.8346  0.073620444  0.074313409            1 
 2542000   0.83566782   -2.7725303    2244.7812  0.073589733   0.07429949            3 
 2543000   0.82082186    -2.793928    2244.9564  0.073566537  0.074285752            6 
 2544000   0.84936648   -2.7910633    2251.2772  0.073744667  0.074271948            3 
 2545000   0.84845793   -2.7771644    2250.1587  0.073679066  0.074258141            2 
 2546000   0.82514137   -2.7611143    2260.7072  0.073995391  0.074244375            3 
 2547000   0.85762053   -2.7887458    2252.0395  0.073682748  0.074230431            2 
 2548000   0.83529497   -2.7558263    2246.5507  0.073474317   0.07421653            7 
 2549000   0.82888112   -2.7519901    2260.4993  0.073901506  0.074202644            2 
 2550000   0.85476971   -2.7726309    2261.0866   0.07389172  0.074188853            4 
 2551000    0.8417566   -2.7750928    2251.3967  0.073546215   0.07417517            2 
 2552000   0.83036624   -2.7528592    2243.5263  0.073260395  0.074161336            2 
 2553000   0.85525084   -2.7878227    2255.6253  0.073626626  0.074147383            3 
 2554000   0.83099258   -2.7914773    2243.9786  0.073217782  0.074133423            3 
 2555000   0.84615373   -2.7750401    2250.6344   0.07340621  0.074119448            3 
 2556000   0.86161885   -2.8104858    2251.8135  0.073415933  0.074105469            3 
 2557000   0.85681931    -2.769389    2260.0208  0.073654699  0.074091737            4 
 2558000   0.85542744   -2.7675606    2253.4356  0.073411374  0.074077839            2 
 2559000   0.83842055    -2.760476    2267.3757  0.073836644   0.07406418            3 
 2560000   0.84985029   -2.7797944    2256.8092  0.073463842  0.074050638            6 
 2561000   0.83033352   -2.7775211    2261.6926  0.073594057  0.074036839            6 
 2562000   0.85009829   -2.7306559      2261.89  0.073571753  0.074023247            2 
 2563000   0.84171736   -2.7854718    2258.9084  0.073446106  0.074009661            2 
 2564000   0.84813182    -2.782242    2260.2992  0.073462662  0.073995756            6 
 2565000   0.84034585   -2.7688177    2266.0983  0.073622426  0.073982236            6 
 2566000   0.85658934   -2.7821348    2265.3533  0.073569542  0.073968783            2 
 2567000   0.83755222   -2.7793984    2267.0901  0.073597262  0.073955376            3 
 2568000   0.85057201   -2.7908803    2265.6342   0.07352136   0.07394188            3 
 2569000    0.8316864   -2.7456545    2274.1161  0.073767877  0.073928455            2 
 2570000   0.84255753   -2.7814825    2275.5516   0.07378572  0.073915083            2 
 2571000   0.83723708   -2.7873735    2265.8903   0.07344387  0.073901551            3 
 2572000   0.83658979   -2.7575701    2274.1649  0.073683415  0.073888041            3 
 2573000   0.83053802   -2.7888049    2262.2401   0.07326856  0.073874605            4 
 2574000   0.82099108   -2.7545445    2272.4052  0.073569192  0.073861044            2 
 2575000   0.84417437   -2.7589281    2267.3399  0.073376696   0.07384758           10 
 2576000   0.81893134   -2.7788912     2271.237  0.073474283  0.073833974            2 
 2577000     0.863262   -2.7903008    2264.5709  0.073230206  0.073820392            3 
 2578000   0.83406763   -2.7927735    2265.3057  0.073225552  0.073806813            2 
 2579000   0.84733077   -2.8020753    2270.6653  0.073370339  0.073793257            2 
 2580000   0.83795573    -2.780084    2268.7268   0.07327929  0.073779677            1 
 2581000   0.82766628   -2.7889017    2282.7556   0.07370385   0.07376618            5 
 2582000   0.82316166   -2.7685718    2277.5609  0.073507645  0.073752823            2 
 2583000   0.84790356   -2.7849237    2270.7224  0.073258563  0.073739417            4 
 2584000   0.84921506   -2.7654676    2276.8266  0.073427072  0.073726081            4 
 2585000   0.84166687   -2.7720656    2278.3292  0.073447106  0.073712824            3 
 2586000   0.83963218   -2.7947614    2272.5503  0.073232478  0.073699586            4 
 2587000   0.84405851   -2.7949283    2275.1916  0.073289254  0.073686127            4 
 2588000   0.85312924   -2.7776282    2277.0753  0.073321588  0.073672677            6 
 2589000   0.84532188   -2.7840744     2278.281  0.073332078  0.073659363            7 
 2590000   0.84042092   -2.7995268    2275.7928  0.073223706  0.073645986            3 
 2591000   0.84760654   -2.7929198    2280.8462  0.073357975  0.073632403            5 
 2592000   0.84425494   -2.7716539    2274.8968    0.0731384  0.073618773            6 
 2593000   0.84190986    -2.773258    2280.0204  0.073274857  0.073605244            5 
 2594000     0.836116   -2.7991756    2276.3232  0.073127832  0.073591688            3 
 2595000    0.8484838   -2.7733161    2281.7359  0.073273472  0.073578127            3 
 2596000   0.84153738   -2.7968345    2280.2882  0.073198775  0.073564623            2 
 2597000   0.85587215   -2.7857537    2275.6373  0.073021348   0.07355107            2 
 2598000   0.84090757   -2.7700742    2280.5535  0.073150934  0.073537572            2 
 2599000   0.85210738   -2.8016803    2284.9047  0.073262303  0.073524069            1 
 2600000   0.81555186   -2.7817672    2279.3271  0.073055355  0.073510451            4 
 2601000   0.84142332   -2.7607275    2280.6121  0.073068439  0.073497118            3 
 2602000   0.84580877   -2.8024041    2276.0123   0.07289304  0.073483621            4 
 2603000   0.84597279   -2.7942181    2289.9543  0.073311381  0.073470014            4 
 2604000   0.83021088   -2.7903706    2287.1021  0.073191951  0.073456575            2 
 2605000   0.84485534   -2.7814445    2276.8166  0.072834825  0.073443258            6 
 2606000    0.8446438   -2.7717178    2292.3216  0.073302685  0.073429862            3 
 2607000   0.84816101   -2.7512711     2299.256  0.073496229   0.07341652            2 
 2608000   0.83078573   -2.7753733    2295.2502  0.073340051  0.073403431            6 
 2609000   0.84109274   -2.7581082    2292.4825  0.073223538  0.073390129            3 
 2610000   0.82159021   -2.7839514     2281.448  0.072843167  0.073376681            5 
 2611000   0.83829981   -2.7602324    2287.6016  0.073011668  0.073363282            2 
 2612000   0.84717704   -2.7866338    2284.3779  0.072880868  0.073349944            3 
 2613000    0.8357458   -2.7639944    2297.4962  0.073271343  0.073336747            4 
 2614000   0.84517906   -2.7815687    2289.5625  0.072990388  0.073323601            7 
 2615000   0.84496137   -2.7976462    2288.1302  0.072916834  0.073310248            4 
 2616000   0.82398031   -2.7792611    2293.0072  0.073044317  0.073297013            5 
 2617000   0.83716967   -2.7937277    2287.9596  0.072855673  0.073283797            3 
 2618000   0.81930325   -2.7948093    2300.8464  0.073238044  0.073270752            1 
 2619000   0.81981745   -2.7662719    2296.4527  0.073070277  0.073257884            3 
 2620000   0.84219103   -2.7753605    2295.7589  0.073020322  0.073244914            5 
 2621000   0.84678986   -2.8077446    2293.0085  0.072905014  0.073231772            3 
 2622000    0.8264421   -2.7696541    2289.9222   0.07277912   0.07321853            2 
 2623000   0.83060767    -2.783298    2301.2809  0.073112242  0.073205221            5 
 2624000   0.84101739   -2.7966452    2294.8253  0.072879362  0.073192096            3 
 2625000   0.82289441    -2.780158    2308.3268  0.073280217  0.073179076            5 
 2626000   0.82426742   -2.7876573    2300.8183  0.073014036   0.07316608            3 
 2627000   0.82427868   -2.8181975    2291.3708  0.072686549  0.073152794            5 
 2628000   0.82682726   -2.7675933    2297.5126  0.072853645  0.073139702            3 
 2629000   0.82983819   -2.7739934    2303.6845  0.073021571  0.073126537            3 
 2630000   0.85501266   -2.7538456    2311.1801  0.073231309  0.073113607            3 
 2631000   0.82829279   -2.7926447    2297.9875  0.072785617  0.073100658            4 
 2632000   0.84667878   -2.7616264    2305.5598  0.072997713  0.073087536            4 
 2633000    0.8163949   -2.8117172    2304.6034   0.07293972  0.073074379            3 
 2634000   0.83694574   -2.7770424    2301.0175   0.07279858  0.073061197            6 
 2635000   0.82252569    -2.806278    2305.4522  0.072911202   0.07304804            1 
 2636000   0.82311697   -2.7988458    2297.9413  0.072646095  0.073034771            2 
 2637000   0.81695044   -2.7991119    2306.2272  0.072880395  0.073021602            3 
 2638000   0.81145073    -2.810762    2310.8932  0.073000165  0.073008565            3 
 2639000   0.82484673   -2.7928486    2303.7656   0.07274743  0.072995498            3 
 2640000   0.83722601   -2.8064815    2307.1135  0.072825552  0.072982561            4 
 2641000   0.83839874   -2.7925673    2305.1796  0.072736955  0.072969576            3 
 2642000   0.81431138   -2.7765291    2311.0436  0.072894386  0.072956455            2 
 2643000   0.82795832   -2.7691142    2304.9008  0.072673125   0.07294337            3 
 2644000   0.83977181   -2.7902175    2315.7273  0.072986865  0.072930461            3 
 2645000   0.83090742   -2.7867095    2311.9354  0.072839804   0.07291746            2 
 2646000   0.82697493   -2.8027756     2309.139  0.072724207  0.072904257           13 
 2647000   0.84376808   -2.8044139    2305.7866  0.072591192  0.072890983            4 
 2648000   0.82754245   -2.7986991    2307.6117  0.072621214  0.072877993            3 
 2649000   0.83876981   -2.7801827    2310.6082  0.072688063  0.072864866            2 
 2650000   0.81614829   -2.8157962     2315.212   0.07280541  0.072851829            4 
 2651000   0.82903242   -2.7910226    2310.4058  0.072626863  0.072838722            2 
 2652000   0.81661114    -2.804478    2316.3183  0.072785265  0.072825524            3 
 2653000   0.81518942   -2.7994124    2320.9037  0.072901863  0.072812527            4 
 2654000   0.83484509   -2.7867225    2316.6841  0.072741902  0.072799429            3 
 2655000   0.82747919   -2.8013676    2302.7609  0.072277493  0.072786089            5 
 2656000   0.81005616   -2.7957299     2316.021  0.072666321  0.072772915            2 
 2657000   0.83889899   -2.7917701    2313.1528  0.072549015   0.07275978            3 
 2658000   0.81524161   -2.7911943    2316.5322  0.072627673   0.07274669            2 
 2659000   0.84149865   -2.7937882    2321.3035   0.07274989  0.072733609            5 
 2660000   0.82394853   -2.8091186    2307.7234    0.0722971   0.07272045            2 
 2661000   0.83980332   -2.8062456    2313.6213  0.072454633  0.072707277            4 
 2662000   0.81002002   -2.8040508    2320.2439  0.072634734  0.072694227            5 
 2663000   0.82174976      -2.7985    2319.4413  0.072582343  0.072681274            3 
 2664000   0.81973813   -2.8004903    2320.7561  0.072596224   0.07266819            3 
 2665000   0.82427674   -2.7924274    2324.1633  0.072675525  0.072655147            2 
 2666000    0.8112776    -2.784973    2317.0857  0.072427035  0.072642017            5 
 2667000   0.81512357   -2.8003422    2314.5305  0.072320037  0.072628945            4 
 2668000   0.81553377   -2.8090759    2315.1663  0.072312791  0.072615856            2 
 2669000    0.8177023   -2.8108361    2311.4243  0.072168861  0.072602781            6 
 2670000   0.81837776   -2.7921541    2326.4861  0.072611925  0.072589876            3 
 2671000   0.83520548   -2.7769971    2323.9047  0.072504202  0.072576713            5 
 2672000   0.82894191   -2.8076183    2320.0455   0.07235671  0.072563697            3 
 2673000   0.81916473   -2.8018459    2321.1498  0.072364066    0.0725507            3 
 2674000   0.80230597   -2.8073171    2324.0593  0.072427678  0.072537637            3 
 2675000   0.81591758   -2.7761916    2322.0456  0.072337868  0.072524819            8 
 2676000   0.81227458   -2.8139248    2325.2613  0.072410978  0.072511643            2 
 2677000   0.81594738   -2.7751014    2320.4203  0.072233232   0.07249863            7 
 2678000   0.80633838   -2.7950222    2319.8981  0.072190007  0.072485621            3 
 2679000   0.82901793   -2.8013697     2325.164  0.072326864  0.072472723            3 
 2680000   0.80682891   -2.8344152    2318.1794  0.072082692   0.07245956            6 
 2681000   0.80147046   -2.8060203    2326.1796  0.072304477  0.072446191            3 
 2682000   0.82923212   -2.8212431    2318.7296  0.072046034  0.072432961            4 
 2683000    0.7973901   -2.7991248    2319.3378  0.072038072  0.072419714            2 
 2684000   0.83313604   -2.7771568    2325.3155  0.072196831  0.072406556            2 
 2685000   0.82355936   -2.7815269    2330.9777  0.072345676  0.072393598            2 
 2686000   0.83787766   -2.7688988    2336.6861  0.072495846  0.072380653            1 
 2687000   0.83499417   -2.8209033       2320.3  0.071960675  0.072367593            4 
 2688000   0.82822576   -2.7892453    2324.1533  0.072053364  0.072354431            2 
 2689000   0.81435627   -2.7871435     2328.922  0.072174353  0.072341325            2 
 2690000   0.83944959   -2.7985627    2322.9274  0.071961814   0.07232811            4 
 2691000   0.82735576   -2.8050282    2331.7999  0.072209832  0.072315148            1 
 2692000   0.82875867   -2.8130131    2330.8466  0.072153499  0.072301867            2 
 2693000   0.81853736   -2.8038711    2324.7833  0.071939081  0.072288541            6 
 2694000   0.81125843   -2.8138193    2329.9747  0.072072961  0.072275262            5 
 2695000     0.829928   -2.8012493    2318.7834  0.071700167  0.072262169            3 
 2696000    0.8194522   -2.8159712    2325.9405  0.071894798  0.072248834            4 
 2697000   0.81436115   -2.8170454    2329.8678  0.071989487  0.072235679            3 
 2698000   0.81215816   -2.8150511    2327.1202  0.071877941  0.072222333            3 
 2699000   0.83518025   -2.7938403    2325.7122  0.071807836  0.072209081            3 
 2700000   0.82872805   -2.8285982    2331.5091  0.071960158   0.07219584            3 
 2701000   0.82391968   -2.8119025    2325.2637  0.071740826  0.072182559            6 
 2702000   0.82484855   -2.7975279    2329.4445  0.071843219  0.072169149            5 
 2703000   0.80953464   -2.7871158    2328.6967  0.071793585  0.072155691            4 
 2704000   0.81715607   -2.8020785    2330.7294  0.071829678  0.072142356            4 
 2705000    0.8137172   -2.7893385    2330.2664  0.071788861  0.072129095            5 
 2706000   0.81411618   -2.8054511    2330.4742  0.071768729  0.072115717            3 
 2707000     0.848071   -2.8081328    2335.4958  0.071896804  0.072102228            5 
 2708000   0.82612561   -2.7964412    2326.1667   0.07158317  0.072088755            3 
 2709000   0.81236956   -2.7969962    2323.9436  0.071488359  0.072075384            3 
 2710000   0.80729029   -2.8044261    2326.6367  0.071544795  0.072062038            7 
 2711000   0.82181971   -2.8061314    2336.2227  0.071813068  0.072048559            4 
 2712000   0.81657434   -2.8117867    2338.7178  0.071863257  0.072035237            4 
 2713000   0.82278111   -2.8463209     2327.673  0.071497511  0.072021846            3 
 2714000   0.83015612   -2.8079565    2329.6448  0.071531712  0.072008482            4 
 2715000   0.80125709   -2.8098484     2333.761  0.071631705  0.071995144            2 
 2716000   0.80375969   -2.8005855    2333.9469  0.071611035  0.071981843            3 
 2717000   0.81867764   -2.7978341    2329.5601  0.071450131  0.071968553            4 
 2718000   0.82419281   -2.8075281    2343.4326  0.071849173  0.071955292            3 
 2719000    0.8150108   -2.7873278    2339.7799  0.071710797  0.071941965            4 
 2720000   0.83364617   -2.8088997      2335.78  0.071561888  0.071928837            3 
 2721000   0.84346561   -2.8103642    2333.7454  0.071473275  0.071915676            6 
 2722000   0.82339802   -2.7787408    2343.2944  0.071739357  0.071902553            2 
 2723000   0.81636008    -2.793901    2342.0278  0.071674251  0.071889348            2 
 2724000   0.80716624   -2.8256126    2338.9017  0.071552304  0.071876168            1 
 2725000   0.81528932   -2.8084871    2346.4078   0.07175559   0.07186304            2 
 2726000   0.79774888   -2.8219986    2339.3973  0.071514957   0.07184989            3 
 2727000   0.80512919   -2.8045105    2332.1924  0.071268561  0.071836526            3 
 2728000   0.81320933   -2.8166283    2335.8074  0.071352866  0.071823094            3 
 2729000   0.81146174   -2.8043613    2351.0343  0.071791692  0.071809662            2 
 2730000   0.80620476   -2.8053524    2342.2381   0.07149689  0.071796322            6 
 2731000   0.81629979   -2.8377313    2336.1227  0.071284106  0.071782948            4 
 2732000   0.81866314   -2.8207043    2339.6759  0.071366395  0.071769551            2 
 2733000   0.81385535   -2.8378536    2342.1787  0.071416596   0.07175621            6 
 2734000   0.81914656   -2.8195012    2329.7278  0.071010967  0.071742721            3 
 2735000   0.81067785   -2.8137524    2344.4555  0.071433745  0.071729296            3 
 2736000   0.83690665   -2.8049134    2341.9032  0.071329897  0.071716149            7 
 2737000   0.80360322   -2.7871898    2349.6077  0.071538415  0.071702679            3 
 2738000   0.82526913   -2.8039374    2343.2669    0.0713193  0.071689328            3 
 2739000   0.79887861   -2.8270278    2349.6406  0.071487179  0.071675875            3 
 2740000    0.8207702   -2.8135695    2342.8772  0.071255388  0.071662553            2 
 2741000   0.80770922   -2.8412082    2341.4293  0.071185375  0.071649102            5 
 2742000   0.81060274   -2.8386085    2342.6606  0.071196835  0.071635626            3 
 2743000   0.79197919   -2.8105628     2346.063  0.071274245  0.071622216            2 
 2744000   0.80302421   -2.8243063    2342.3904  0.071136734  0.071608885            4 
 2745000   0.82600722   -2.8377618    2344.5159  0.071175345  0.071595557            3 
 2746000    0.8082719   -2.8352919    2340.8948  0.071039537   0.07158229            3 
 2747000   0.80126076   -2.8231557    2358.4035  0.071544823   0.07156918            4 
 2748000   0.80699514   -2.8300094    2344.7625  0.071105122  0.071555721            2 
 2749000   0.82237161   -2.8261962     2350.595  0.071256062  0.071542626            6 
 2750000   0.80569093   -2.8319625    2356.5515  0.071410652  0.071529552            3 
 2751000   0.81661171   -2.8280383    2355.9496   0.07136646  0.071516355            3 
 2752000    0.8391369   -2.7973649    2363.1301  0.071557962  0.071503451            3 
 2753000   0.81223258    -2.816991    2348.0768  0.071076305  0.071490454            3 
 2754000   0.80830324   -2.8146257    2352.1002  0.071172241  0.071477346            2 
 2755000   0.82067503   -2.8141181    2353.0407  0.071174855  0.071464117            4 
 2756000   0.81763337   -2.8333804    2346.1874  0.070941805  0.071450826            3 
 2757000   0.80762322   -2.8231625    2345.7079  0.070901582  0.071437519            3 
 2758000   0.80068755   -2.7999868    2353.1503  0.071100746  0.071424242            3 
 2759000   0.79616274   -2.8101704    2353.5702   0.07108766  0.071410914            3 
 2760000   0.83516441   -2.8374202    2359.4271  0.071238741  0.071397563            5 
 2761000   0.82220997   -2.8345717    2350.0108  0.070928733  0.071384102            2 
 2762000   0.81285293   -2.8384618    2344.6616  0.070741661  0.071370834            6 
 2763000   0.80308046   -2.8439881    2350.2017   0.07088315  0.071357501            2 
 2764000   0.80321112   -2.8053311    2363.9534  0.071272111  0.071344282            3 
 2765000   0.80301485   -2.8218372    2354.8057  0.070970635  0.071331194            3 
 2766000   0.81768845   -2.8348033    2355.4602  0.070964696  0.071317943            5 
 2767000   0.80923941    -2.825931     2354.512  0.070910493  0.071304747            8 
 2768000   0.78497673   -2.8109622     2357.674  0.070980071  0.071291391            4 
 2769000   0.82506024    -2.792002    2365.2104  0.071181244  0.071278204            4 
 2770000   0.81195898   -2.7977161    2365.7297  0.071171169  0.071265048            2 
 2771000   0.81245174   -2.8253264    2361.2248  0.071010008  0.071251745            2 
 2772000   0.82056041   -2.8043937    2366.7487  0.071150454  0.071238552            4 
 2773000   0.80934318   -2.8199891    2369.0975  0.071195382  0.071225303            2 
 2774000   0.81809282   -2.8241873    2367.2584  0.071114467  0.071212179            3 
 2775000   0.82377615   -2.8330508    2361.1626  0.070905783  0.071198831            3 
 2776000   0.79095227   -2.8289954    2364.4326  0.070978405  0.071185697            6 
 2777000   0.81537726   -2.8254393    2361.5308  0.070865767  0.071172296            3 
 2778000   0.80780829   -2.8083119    2373.5736  0.071201513  0.071159204            4 
 2779000   0.81590497    -2.813865    2355.3853  0.070630482   0.07114618            4 
 2780000   0.82178473   -2.8357639    2369.8172  0.071037685  0.071133041            2 
 2781000   0.80275352   -2.8120425    2376.9029  0.071224467  0.071119971            4 
 2782000   0.81871292   -2.8171669    2370.9837  0.071021559  0.071106947            2 
 2783000   0.81373154   -2.8175186    2367.4435  0.070890032  0.071093811            2 
 2784000   0.84358556   -2.8319203    2361.0264  0.070672486  0.071080647            5 
 2785000   0.81491473   -2.8184827     2366.136  0.070800001  0.071067412            2 
 2786000   0.81755949    -2.816337    2365.6698  0.070760642  0.071054304            4 
 2787000   0.80236724    -2.823405    2370.9623  0.070893501   0.07104115            7 
 2788000    0.8010452   -2.8337264    2373.5439   0.07094524  0.071028067            7 
 2789000   0.80850853   -2.8006104    2381.7511  0.071165025  0.071014932            3 
 2790000   0.80631873   -2.8248989    2371.5007  0.070833354  0.071001959            4 
 2791000   0.79788747   -2.8395274    2366.8463  0.070669005  0.070988864            4 
 2792000   0.81695188   -2.8083704    2374.8616  0.070882928  0.070975688            2 
 2793000   0.81641626   -2.8221923    2365.4947  0.070578072  0.070962676            2 
 2794000   0.82172508   -2.8401782    2368.1587  0.070632268  0.070949567            6 
 2795000   0.80415843   -2.8364727    2368.9781  0.070631427  0.070936329            2 
 2796000   0.80632532   -2.7948858    2368.9563  0.070605518  0.070923123            1 
 2797000   0.80418522   -2.8129324     2373.748  0.070723036  0.070910074            4 
 2798000   0.79523666   -2.8435236    2379.4127  0.070866472  0.070896854            2 
 2799000   0.81773259   -2.8118163    2375.6355  0.070728698  0.070883845            3 
 2800000   0.81439918   -2.8286369    2380.4473  0.070846646  0.070870653            5 
 2801000   0.79589301   -2.8302936    2372.3347  0.070579991  0.070857438            5 
 2802000   0.80259735   -2.8178675    2375.0628  0.070635939   0.07084427            3 
 2803000   0.83662896   -2.8133512     2369.225  0.070437179   0.07083103            4 
 2804000   0.81615253   -2.8043394    2381.7006  0.070782828   0.07081795            4 
 2805000   0.79547533   -2.8219242    2377.8474  0.070643119  0.070804814            5 
 2806000   0.78701948   -2.8388514    2368.6464  0.070344691  0.070791563            3 
 2807000   0.80492055     -2.83904    2366.0086  0.070241319  0.070778235            3 
 2808000   0.79580914   -2.8160256    2378.5247  0.070587745  0.070765069            6 
 2809000   0.81663399   -2.8302786    2373.2129  0.070405033  0.070751934            3 
 2810000   0.79258866   -2.8465706    2374.5643  0.070420056  0.070738814            3 
 2811000   0.78304777   -2.8340699    2383.1348  0.070649081  0.070725676            4 
 2812000   0.81253585   -2.8520321     2381.406  0.070572723  0.070712445            2 
 2813000   0.78386766   -2.8296565    2384.7049  0.070645365  0.070699405            2 
 2814000   0.80953397   -2.8261436    2378.7822  0.070444866  0.070686301            2 
 2815000   0.78075059   -2.8215865    2372.3358  0.070229005   0.07067321            5 
 2816000   0.79915073   -2.8243831    2381.1838  0.070465904  0.070660004           10 
 2817000    0.7950561   -2.8451304    2377.2855  0.070325567  0.070646847            4 
 2818000   0.79711191    -2.842532    2376.7964   0.07028615  0.070633652            6 
 2819000   0.79608079   -2.7992609    2385.1488  0.070508122  0.070620539            2 
 2820000   0.80984582   -2.8522348    2388.5662  0.070584108  0.070607552            7 
 2821000   0.79747286   -2.8407491    2381.5884   0.07035296  0.070594543            3 
 2822000   0.80085507   -2.8278582    2379.0892  0.070254227  0.070581473            5 
 2823000   0.79960495   -2.8132577    2388.0162  0.070492861  0.070568536            4 
 2824000   0.79872703   -2.8186905    2389.9248   0.07052422  0.070555578            3 
 2825000   0.79587877   -2.8412862    2392.2066  0.070566565  0.070542645            2 
 2826000   0.81142979   -2.8576415    2378.5657  0.070139353  0.070529484            2 
 2827000   0.80591814   -2.8401451    2385.9742  0.070332928  0.070516504            5 
 2828000     0.790094   -2.8239139    2388.5477  0.070383891  0.070503591            3 
 2829000   0.80346512   -2.8193297    2390.1679  0.070406736  0.070490821            6 
 2830000   0.80347109    -2.842867     2382.392  0.070152887  0.070477889           11 
 2831000   0.80835931   -2.8274495    2389.0059  0.070322793  0.070464947            2 
 2832000   0.79780126   -2.8297063    2397.7865  0.070556334   0.07045214            5 
 2833000   0.79866702   -2.8417168    2393.5516  0.070406859  0.070439255            3 
 2834000   0.79324901   -2.8351176    2394.9828    0.0704241  0.070426283            6 
 2835000   0.79524829   -2.8236228    2393.9518  0.070368954  0.070413225            7 
 2836000   0.80695595   -2.8443647    2388.4663  0.070182956   0.07040048            5 
 2837000   0.79443631   -2.8392107    2391.7571   0.07025488  0.070387618            3 
 2838000   0.78128347   -2.8096153    2386.2727  0.070069085  0.070374731            3 
 2839000   0.80974448   -2.8370788    2389.3272  0.070134063  0.070361886            2 
 2840000   0.81121377   -2.8104198    2391.8199  0.070182508  0.070348987            5 
 2841000   0.80649374    -2.832668    2405.1929  0.070550068  0.070336018           12 
 2842000    0.7931497   -2.8156019    2387.5723   0.07000857  0.070322877            7 
 2843000   0.78636959   -2.8447561    2399.3449  0.070329022  0.070309838            4 
 2844000   0.78223872   -2.8251672    2397.1076  0.070238736   0.07029684            3 
 2845000   0.81278433   -2.8232078    2400.4451  0.070311806  0.070283959            2 
 2846000   0.80903682   -2.8413838    2390.9903  0.070010257   0.07027108            6 
 2847000   0.79595049   -2.8187193    2404.3332   0.07037622  0.070258213            4 
 2848000   0.78443914   -2.8299136    2395.2894  0.070086885  0.070245581            4 
 2849000    0.7845839   -2.8487982    2394.2617  0.070032225  0.070232866            5 
 2850000   0.78501788   -2.8366548    2397.5023  0.070102407  0.070219925            1 
 2851000   0.79354812    -2.849229    2395.3841  0.070015902  0.070207068            7 
 2852000   0.81502808   -2.8226517    2407.3561  0.070341168  0.070194151            3 
 2853000   0.80038592   -2.8306414    2394.6882  0.069946495  0.070181478            5 
 2854000   0.79373475   -2.8495327    2402.4357  0.070148203  0.070168633            3 
 2855000   0.80342913   -2.8452905    2395.4292  0.069919124  0.070155777            4 
 2856000   0.78243451   -2.8452994    2388.2474   0.06968509  0.070142634            4 
 2857000   0.81791437   -2.8413976    2400.3866  0.070014776  0.070129638            3 
 2858000   0.79656064   -2.8280215    2406.5141  0.070168943  0.070116656            8 
 2859000   0.80383611   -2.8498866    2398.4843  0.069910351  0.070103514            5 
 2860000   0.79264996   -2.8611223    2395.7811  0.069807142  0.070090288            6 
 2861000   0.79693399   -2.8476544    2392.7358  0.069694039  0.070076931            3 
 2862000   0.77619405   -2.8216424    2397.7648  0.069816119  0.070063772            3 
 2863000   0.78490138    -2.885804    2385.1592  0.069424821  0.070050627            5 
 2864000   0.79894429   -2.8363366    2402.3547  0.069900915  0.070037469            4 
 2865000   0.77355725   -2.8499992    2404.0027  0.069924452  0.070024249            2 
 2866000   0.77376645   -2.8267418    2401.1261  0.069816414  0.070010949            3 
 2867000   0.80472793    -2.828637    2408.4327  0.070004438  0.069997785            7 
 2868000   0.80143734   -2.8282671    2407.0253  0.069939136  0.069984897            9 
 2869000   0.78025236   -2.8517912    2398.8552  0.069677448  0.069972023            4 
 2870000   0.77222526   -2.8297371    2409.7758  0.069970261   0.06995904            4 
 2871000   0.78452981   -2.8452371     2395.591  0.069534163  0.069946126            3 
 2872000   0.82396381    -2.849626    2393.5073  0.069449493  0.069933082            3 
 2873000   0.78929726   -2.8372403    2397.7459  0.069548261  0.069920104            2 
 2874000   0.79593808   -2.8409697    2409.9047  0.069876614  0.069907109            6 
 2875000   0.80002439   -2.8403504    2402.0974  0.069626012  0.069894036            3 
 2876000   0.79391368   -2.8739264    2403.6366  0.069646401  0.069881008            3 
 2877000   0.79544591    -2.842304    2400.7153  0.069537577  0.069867877            3 
 2878000   0.80280755     -2.86771    2408.8405  0.069748681  0.069854624            3 
 2879000   0.76123812   -2.8550897    2407.4657  0.069684662  0.069841548            6 
 2880000    0.7834307   -2.8420986    2411.5571  0.069778851  0.069828398            2 
 2881000   0.80606034   -2.8405468    2405.2878   0.06957329  0.069815454            1 
 2882000   0.79504686    -2.847163    2406.2451  0.069576832   0.06980218            2 
 2883000   0.78407298   -2.8313077    2404.5538  0.069503809  0.069789017            4 
 2884000   0.79006526     -2.82944    2409.4084  0.069619985  0.069775831            5 
 2885000   0.79259549   -2.8384717    2416.2469  0.069793384  0.069762683            3 
 2886000   0.80742138   -2.8574278    2405.9094  0.069470703  0.069749458            4 
 2887000    0.7882269   -2.8315401    2410.4092  0.069576528  0.069736401            7 
 2888000   0.78819189   -2.8106799    2411.1743  0.069574511  0.069723202            2 
 2889000   0.79961849   -2.8530635    2404.9572  0.069371097  0.069710226            6 
 2890000   0.76813854   -2.8488218    2403.7111  0.069311163  0.069697094            5 
 2891000   0.78884646   -2.8200692    2416.0961  0.069644186  0.069683963            2 
 2892000   0.79356967   -2.8499299    2412.0619  0.069503859  0.069670882            4 
 2893000   0.78068589   -2.8316426    2411.3834   0.06946029  0.069657767            5 
 2894000   0.78793788   -2.8506939    2411.5864  0.069442132  0.069644518            9 
 2895000   0.76589644    -2.848551    2417.1969  0.069579646  0.069631369            4 
 2896000   0.79597842   -2.8361499     2412.971  0.069434018  0.069618294            3 
 2897000   0.79102254   -2.8364642    2410.9143   0.06935089  0.069605317            7 
 2898000   0.78365811   -2.8440779    2411.9766  0.069357505  0.069592234            5 
 2899000    0.7818662   -2.8644328    2409.2348  0.069254765  0.069579072            5 
 2900000   0.78300246   -2.8451341    2415.7477  0.069418038  0.069566143            4 
 2901000    0.7866478   -2.8614594    2416.8084  0.069424577  0.069553251            2 
 2902000   0.79410802    -2.849902    2415.9111  0.069374888  0.069540407            3 
 2903000   0.79446246   -2.8420069    2423.5015  0.069568881  0.069527485            5 
 2904000   0.80490667   -2.8483181    2421.5565   0.06948911  0.069514628            4 
 2905000    0.7865965   -2.8389787    2424.4454  0.069548061  0.069501831            4 
 2906000   0.80921396   -2.8563018    2411.9899  0.069166951  0.069489035            3 
 2907000   0.77781781   -2.8384765    2427.0795  0.069575722   0.06947631            3 
 2908000   0.79577179   -2.8619465     2421.575  0.069394057  0.069463577            3 
 2909000   0.78894456   -2.8424541    2421.5708   0.06937008  0.069450664            5 
 2910000   0.78177666   -2.8459663    2419.7381  0.069293761  0.069438016            3 
 2911000   0.78974801    -2.839995    2429.6492  0.069553683  0.069425398            2 
 2912000   0.76430366   -2.8517299    2428.8661  0.069507385  0.069412738            5 
 2913000   0.79606392   -2.8630056    2427.4795  0.069443857  0.069400056            3 
 2914000   0.77958228   -2.8553598    2423.4917  0.069305984   0.06938725            3 
 2915000   0.79346906   -2.8731747    2426.0972  0.069356695    0.0693747            3 
 2916000   0.78130511   -2.8531648    2422.5247  0.069230814  0.069361985            3 
 2917000   0.78613519   -2.8268437    2432.5027  0.069492135  0.069349303            4 
 2918000    0.7923542   -2.8446148    2425.8774  0.069279114  0.069336676            5 
 2919000   0.78356965   -2.8616429    2432.8926  0.069455653  0.069323969            3 
 2920000   0.78952902   -2.8343321    2429.4809  0.069334501  0.069311162            5 
 2921000   0.77595864   -2.8636149     2420.426  0.069052438  0.069298279            5 
 2922000   0.77893501    -2.866874     2430.978  0.069329741  0.069285265            7 
 2923000   0.77948301   -2.8746363    2426.3137  0.069173043  0.069272419            5 
 2924000   0.77634312   -2.8384818     2430.189  0.069259833  0.069259565            3 
 2925000   0.76463441   -2.8585396    2434.6783  0.069364053   0.06924685            3 
 2926000   0.79140901    -2.843715    2428.2663  0.069157733  0.069234016            1 
 2927000    0.7717649   -2.8567795    2431.5467  0.069227499  0.069221311            5 
 2928000   0.78839793   -2.8374027     2424.952  0.069016165  0.069208391            2 
 2929000   0.76813952   -2.8282814     2431.324  0.069173892  0.069195779            2 
 2930000   0.77282357   -2.8586725    2428.5978  0.069072747   0.06918286            3 
 2931000   0.77850442   -2.8588045    2425.2664  0.068954463  0.069169855            6 
 2932000   0.78818524   -2.8573495    2429.8883  0.069062309  0.069157032            4 
 2933000    0.7961079   -2.8518581     2433.372  0.069137743  0.069144008            5 
 2934000    0.7899745   -2.8502528    2434.3412  0.069141706  0.069131178            3 
 2935000    0.7637093   -2.8476865    2431.9444  0.069050097  0.069118563            8 
 2936000   0.77774599   -2.8685512    2427.3722  0.068896804  0.069105849            5 
 2937000   0.77913809   -2.8755042    2429.7876   0.06894188  0.069092955            4 
 2938000   0.77275952   -2.8616926    2428.4892  0.068881585  0.069080144            3 
 2939000   0.76450327   -2.8464252    2431.6923  0.068948971  0.069067183            6 
 2940000   0.76876753   -2.8427587    2436.6891  0.069067151  0.069054317            3 
 2941000   0.79183297   -2.8328353    2427.7411  0.068790124  0.069041451            4 
 2942000   0.77546589   -2.8492975    2440.0532  0.069115488  0.069028804            2 
 2943000   0.78708772   -2.8638014     2440.952  0.069117454  0.069016111            6 
 2944000   0.78509416   -2.8658883    2438.1168  0.069013723  0.069003416            5 
 2945000   0.77565096   -2.8568216     2445.006  0.069185228  0.068990638            4 
 2946000   0.76945011   -2.8594036    2432.8849  0.068818876  0.068977858            3 
 2947000   0.76202822   -2.8672798    2435.5866   0.06887192  0.068965036            3 
 2948000   0.77572641   -2.8765542    2434.7211  0.068824094  0.068952168            3 
 2949000   0.78088785   -2.8438056    2442.9112  0.069032192  0.068939363            2 
 2950000   0.77506792   -2.8414296    2442.3861  0.068993957   0.06892662            5 
 2951000   0.76434485   -2.8498632    2443.3565  0.068997981  0.068913708            1 
 2952000     0.768841   -2.8377692    2439.0402   0.06885276  0.068900966            2 
 2953000   0.77435814   -2.8507766    2446.6292  0.069043606  0.068888279            6 
 2954000   0.77071626   -2.8401056    2448.8519  0.069082937  0.068875664            3 
 2955000   0.77358862   -2.8669771     2441.676  0.068857191   0.06886289            4 
 2956000   0.79436729   -2.8791536    2439.9814  0.068786125  0.068850042            2 
 2957000    0.7792395   -2.8462877    2437.9175  0.068704697  0.068837356            5 
 2958000   0.75987459   -2.8520828    2446.1475  0.068913328  0.068824598            3 
 2959000    0.7751012   -2.8542304    2450.1805  0.069003619  0.068811852            2 
 2960000   0.77568497   -2.8681328    2441.6902  0.068741279  0.068799093            4 
 2961000   0.77943034   -2.8612556    2447.9725   0.06889487  0.068786461            2 
 2962000   0.78246985   -2.8651811    2441.8245  0.068698641  0.068773714            3 
 2963000   0.76778182   -2.8721819    2439.3154  0.068604889  0.068760858            7 
 2964000   0.77694949   -2.8459467    2446.3228  0.068778756    0.0687481            7 
 2965000   0.79023247   -2.8906273    2439.0113  0.068550066  0.068735109            3 
 2966000   0.77706547   -2.8601813    2444.8978   0.06869234  0.068722235            4 
 2967000   0.77222635   -2.8733197    2443.2623  0.068623252   0.06870937            3 
 2968000   0.78397652   -2.8589052    2455.1221  0.068933122  0.068696642            3 
 2969000   0.77396488   -2.8801982    2444.3931  0.068608766  0.068683809            4 
 2970000   0.77593909   -2.8702956    2438.7706  0.068427906    0.0686709            4 
 2971000   0.75599005   -2.8617063    2447.3231  0.068644764  0.068658004            3 
 2972000   0.78101179    -2.862613    2444.2983  0.068536853  0.068645152            4 
 2973000   0.78056981   -2.8718974    2447.4063  0.068600916  0.068632228            4 
 2974000   0.77342909   -2.8587153    2448.9671  0.068621584  0.068619303            3 
 2975000   0.76791088   -2.8614209     2439.075  0.068321429  0.068606501            8 
 2976000   0.78348543   -2.8718851     2447.677  0.068539343   0.06859357            6 
 2977000   0.78342127   -2.8629438    2453.4753  0.068678627  0.068580807            4 
 2978000   0.77964466   -2.8651868    2451.1759  0.068591222  0.068568115            8 
 2979000   0.76664268   -2.8833864    2449.3363  0.068516738  0.068555379            7 
 2980000   0.76542906   -2.8399148    2455.5936  0.068668726  0.068542594            5 
 2981000   0.78437062   -2.8675545    2454.3272  0.068610288  0.068529908            3 
 2982000   0.78528048   -2.8744175    2441.9697  0.068241944  0.068517042            3 
 2983000   0.78763619   -2.9043205    2448.7265  0.068407826   0.06850428            4 
 2984000   0.77348543   -2.8736028    2451.9668  0.068475392  0.068491404            6 
 2985000    0.7738389    -2.853652    2449.7059  0.068389332  0.068478653            4 
 2986000   0.76918089   -2.8434616    2446.9383  0.068289191  0.068465814            6 
 2987000   0.78567722   -2.8569545    2453.1278  0.068439007  0.068453074            6 
 2988000   0.79065092   -2.8724274    2451.8857  0.068381463   0.06844033            4 
 2989000   0.76645713   -2.8639373    2458.5934  0.068545594  0.068427742            4 
 2990000    0.7726637   -2.8607998    2461.7203  0.068609819  0.068414976            6 
 2991000   0.78550348   -2.8678545    2460.7396  0.068559558  0.068402427            4 
 2992000   0.76293916   -2.8822322    2450.9761  0.068264709  0.068389594            4 
 2993000   0.77918775   -2.8655112    2446.6204  0.068120627  0.068376801            3 
 2994000   0.78651081   -2.8533619    2453.8309  0.068298567  0.068364145            4 
 2995000   0.77690581   -2.8478912    2460.1673  0.068452068  0.068351285            3 
 2996000   0.75007002   -2.8646691    2456.7954  0.068335431   0.06833847            4 
 2997000   0.78225956   -2.8616703    2458.5622  0.068361755  0.068325535            7 
 2998000   0.75974836   -2.8782106    2454.6982  0.068231549  0.068312712            3 
 2999000   0.79227224    -2.838078    2467.9817  0.068577908  0.068300027            4 
 3000000   0.79306953   -2.8755152    2452.8402   0.06813445   0.06828727            6 
 3001000   0.76496673   -2.8729765    2462.5346  0.068380946  0.068274597            2 
 3002000   0.77054964   -2.8673777    2456.6842  0.068195763  0.068261794            9 
 3003000    0.7689721   -2.8830768    2461.9413   0.06831894  0.068248996            4 
 3004000   0.76738281   -2.8792822    2454.1293  0.068079485  0.068236247            3 
 3005000   0.77115414   -2.8867093     2452.468  0.068010759  0.068223406           10 
 3006000    0.7426902   -2.8866964    2462.0881  0.068254826  0.068210607            3 
 3007000   0.76237121   -2.8835448    2455.0644  0.068037479  0.068197791            5 
 3008000    0.7721837   -2.8727362    2451.2175  0.067908287  0.068184876            6 
 3009000    0.7945986   -2.8786631    2456.1984  0.068023663  0.068171938            5 
 3010000   0.77599391   -2.8606743    2462.8892    0.0681863  0.068158993            2 
 3011000   0.76163818   -2.8382942    2474.1628  0.068475668  0.068146258            3 
 3012000    0.7628391   -2.8781206    2452.6205   0.06785692  0.068133426            3 
 3013000    0.7486704   -2.8725283    2464.2475  0.068155976  0.068120536            3 
 3014000   0.76923047   -2.8730068    2465.6739  0.068172803  0.068107656            4 
 3015000   0.75772857   -2.8515529    2460.9047  0.068018373   0.06809471            7 
 3016000   0.78416184   -2.8856804    2467.9915  0.068191629  0.068081794            4 
 3017000   0.76958295   -2.8625321     2461.456  0.067988509  0.068068941            3 
 3018000   0.77011721   -2.8779675    2466.6214  0.068108611  0.068056103            1 
 3019000   0.77812233   -2.8567814    2466.4915  0.068082464  0.068043377            4 
 3020000   0.74855479   -2.8641537     2461.813  0.067930823  0.068030688            2 
 3021000   0.77075294   -2.8743637    2471.7623  0.068182785  0.068018094            7 
 3022000   0.77745758   -2.8573006    2467.6052  0.068045588  0.068005349            3 
 3023000   0.76602801   -2.8836416    2469.6424  0.068079237  0.067992713            2 
 3024000   0.77823403   -2.8612684    2456.9462  0.067706851  0.067979974           12 
 3025000   0.77146834   -2.8821394    2464.7809  0.067900301  0.067967221            3 
 3026000    0.7772011   -2.8829278    2463.9003   0.06785361  0.067954653            2 
 3027000   0.76984589   -2.9063844    2465.1558  0.067865759  0.067941918            3 
 3028000   0.76670652   -2.8817957    2463.2102  0.067789801  0.067929176            2 
 3029000   0.78335443   -2.8909861    2465.5024  0.067830482  0.067916447            3 
 3030000   0.78938852   -2.8771366    2478.6939  0.068170899  0.067903992            4 
 3031000    0.7776402   -2.8751956    2473.1096  0.067994876  0.067891308            2 
 3032000   0.76424948   -2.8670099     2462.286  0.067674968  0.067878452            4 
 3033000   0.76432988   -2.8636413    2465.9675  0.067753806  0.067865627            2 
 3034000   0.76678691   -2.8736286    2466.8754  0.067756412  0.067852828            5 
 3035000   0.78107136   -2.8688658    2465.5645  0.067698093  0.067840019            5 
 3036000   0.76846697   -2.8632198    2461.4024  0.067561551  0.067827009            3 
 3037000   0.76654541   -2.8806699    2462.5288  0.067570213  0.067813964            3 
 3038000   0.75469397    -2.903532    2464.5426  0.067603211  0.067800888            7 
 3039000   0.77472741   -2.8947097    2463.6838  0.067557414  0.067787854            3 
 3040000   0.76437575   -2.8881142    2470.6031  0.067724866  0.067774768            5 
 3041000   0.77893509   -2.8806559    2466.0045  0.067576579  0.067761678            5 
 3042000   0.77410971   -2.8762761     2473.912  0.067770983  0.067748698            2 
 3043000   0.75064007   -2.8719693    2471.1521  0.067673132  0.067735678            5 
 3044000   0.77037677   -2.9067279    2469.3954  0.067602807  0.067722751            5 
 3045000   0.78522941   -2.8640756    2473.1846  0.067684307  0.067709793            8 
 3046000    0.7749776    -2.910039    2463.0686  0.067385332   0.06769671           11 
 3047000   0.77273817   -2.8786501    2467.1112  0.067473778  0.067683619            3 
 3048000   0.75466391   -2.8748041    2463.5605  0.067354562  0.067670696            3 
 3049000   0.76619389   -2.9017604    2462.6354  0.067307189  0.067657521            5 
 3050000   0.76223191   -2.8756586    2466.6906  0.067395918  0.067644461            6 
 3051000   0.77667477   -2.8826474    2479.9958   0.06773724  0.067631322            7 
 3052000   0.75722864   -2.9021343    2472.5658  0.067512171  0.067618176            4 
 3053000   0.76122583   -2.8801358    2469.2112  0.067398494  0.067605109            3 
 3054000   0.75558352   -2.8698977    2472.3017  0.067460753  0.067592173            7 
 3055000   0.76043532   -2.8760438    2475.3874  0.067522844  0.067579137            5 
 3056000    0.7719332   -2.8479494    2465.8692  0.067241197  0.067566058            6 
 3057000   0.76751265   -2.8780007    2467.0853  0.067252353  0.067552938            3 
 3058000   0.76310111   -2.9111975     2464.918  0.067171299  0.067539926            7 
 3059000   0.76160916   -2.8852261    2475.3229  0.067432793  0.067526822            3 
 3060000   0.76782312   -2.8888468     2475.918  0.067426961  0.067513799            5 
 3061000   0.76399113   -2.8888959    2468.1387  0.067193147  0.067500655            1 
 3062000   0.75667641   -2.8992688     2471.371  0.067259171  0.067487538            7 
 3063000   0.75452532   -2.8940858    2478.7299  0.067437422   0.06747451            8 
 3064000    0.7769591    -2.895779     2473.977  0.067286146  0.067461509            4 
 3065000    0.7561605   -2.8990899    2474.7254  0.067284541  0.067448471            6 
 3066000   0.77567468   -2.8889052    2475.9103  0.067294802   0.06743546            4 
 3067000   0.75927314   -2.8675248    2476.2259  0.067281433  0.067422459           10 
 3068000   0.76401939   -2.8689018    2476.2158  0.067259231  0.067409559            3 
 3069000   0.74214358   -2.8801362    2474.8376  0.067199893  0.067396512            7 
 3070000   0.75857705   -2.8872277    2469.9456  0.067045212  0.067383586            4 
 3071000   0.73807906   -2.9098786    2484.5104  0.067418605  0.067370618            4 
 3072000   0.77847528   -2.8967246     2480.192  0.067279515  0.067357737            6 
 3073000   0.76457346   -2.8861934    2488.2836  0.067477047  0.067344799            3 
 3074000   0.76475705   -2.9034557    2481.6005  0.067273924  0.067332038            4 
 3075000   0.76473463   -2.9385015    2475.1847  0.067078177  0.067319125            7 
 3076000   0.77832158   -2.9038788    2483.5513  0.067283033   0.06730615            5 
 3077000   0.74449069   -2.9035882    2476.0906  0.067059111  0.067293337            5 
 3078000   0.75521183   -2.9003733    2477.7358  0.067081866   0.06728043            3 
 3079000   0.74693187   -2.8982994    2484.9182  0.067254471  0.067267627            5 
 3080000   0.76305793   -2.9105104     2477.006   0.06701856  0.067254676            3 
 3081000   0.77491784   -2.9027544    2486.8398  0.067262787  0.067241776            6 
 3082000   0.75227065   -2.8855776    2484.9361  0.067189491  0.067228915            5 
 3083000   0.74930891    -2.872851    2488.5275  0.067264772  0.067216073            3 
 3084000   0.77690215   -2.8909844    2490.9834  0.067309321   0.06720329            6 
 3085000   0.74803387   -2.8922498     2484.146   0.06710281   0.06719043            3 
 3086000   0.75403554   -2.8907706    2487.0154   0.06715855  0.067177527            6 
 3087000   0.75906313   -2.8863772    2485.8621  0.067105662  0.067164684            7 
 3088000   0.74118216   -2.8842079    2491.8112  0.067244474   0.06715189            4 
 3089000   0.75624675   -2.8820549    2477.4351  0.066834873  0.067139155            4 
 3090000   0.75812751   -2.8824897    2493.7691  0.067253751  0.067126264            5 
 3091000   0.75401477   -2.9009085    2491.4912  0.067170581  0.067113526            5 
 3092000   0.77175394   -2.8858298    2489.8903   0.06710571   0.06710055            5 
 3093000   0.75602228   -2.8982002    2489.9796   0.06708642  0.067087672            2 
 3094000   0.75193749   -2.8580529    2502.2672  0.067395692  0.067074887            3 
 3095000   0.75769563   -2.8950543    2485.0977  0.066911623   0.06706212            4 
 3096000   0.76000785   -2.9020243    2485.6244  0.066904188  0.067049339            7 
 3097000   0.75035467   -2.8939327    2486.8509  0.066915588  0.067036529            4 
 3098000   0.77510523   -2.8964285    2491.9723  0.067031748  0.067023813            3 
 3099000   0.73970063   -2.9048474    2485.5071  0.066836267  0.067010985            2 
 3100000   0.76721765   -2.8773349    2492.7541  0.067009518  0.066998149            3 
 3101000   0.74758756   -2.8779773    2495.9215  0.067073026  0.066985499            5 
 3102000   0.76964856   -2.8963353     2488.293  0.066846469  0.066972699            2 
 3103000   0.75993099   -2.8967442    2500.5304  0.067153573  0.066960081            5 
 3104000   0.76506818   -2.9061449    2489.1621  0.066826733  0.066947271            5 
 3105000   0.74988587   -2.8984528    2492.6702  0.066899362  0.066934505            6 
 3106000   0.75275916   -2.8925329    2491.6202   0.06684965  0.066921851            8 
 3107000   0.75296025   -2.9050864    2493.4323  0.066876739  0.066909066            9 
 3108000   0.75296866   -2.9029358    2486.6579  0.066673581   0.06689635            3 
 3109000   0.75421028   -2.9052367    2501.1121  0.067039564   0.06688367            7 
 3110000   0.75631637   -2.8767746    2495.7315  0.066873835  0.066871121            3 
 3111000    0.7595076   -2.8852643     2498.827  0.066935256  0.066858409            4 
 3112000   0.78407591   -2.8888339    2491.2572  0.066711044  0.066845786            7 
 3113000   0.76240394   -2.9067738    2501.9266  0.066975227  0.066833106            4 
 3114000   0.75323303    -2.917159    2500.0762  0.066904203  0.066820475            3 
 3115000   0.76015077   -2.8847932    2492.1444  0.066670531  0.066807842            3 
 3116000   0.75426656   -2.8945712    2500.6193  0.066875783  0.066795245            4 
 3117000   0.74386256   -2.8948716    2500.7431  0.066857638  0.066782545            4 
 3118000   0.73304369   -2.8881899    2495.8524  0.066705485  0.066769893            4 
 3119000   0.76364457   -2.9121828    2496.3754  0.066698072  0.066757203            2 
 3120000   0.75400565   -2.9056181     2502.809   0.06684853  0.066744436            3 
 3121000   0.74223398   -2.8773889     2497.088  0.066674356  0.066731733            4 
 3122000   0.75395222   -2.8774245    2498.2448  0.066683878  0.066719004            3 
 3123000   0.76747452   -2.9037607    2498.0397  0.066657054  0.066706319            2 
 3124000   0.76075711   -2.9111234    2505.3595  0.066830973  0.066693597            4 
 3125000   0.75799117   -2.9081006    2500.8229   0.06668861  0.066680844            9 
 3126000   0.75220165   -2.9005361    2504.3098  0.066760232  0.066668129            5 
 3127000   0.76877994    -2.886462    2507.7192  0.066829742   0.06665559            3 
 3128000   0.75668569   -2.9097064    2509.8063   0.06686398  0.066643108            5 
 3129000   0.75774731   -2.8815492    2500.8666  0.066604523  0.066630333            5 
 3130000    0.7600202    -2.893374    2502.9526  0.066638779  0.066617629            2 
 3131000   0.77122593   -2.8739263    2501.0086  0.066565757  0.066604959            4 
 3132000   0.73945645   -2.8964292    2505.8487  0.066673285  0.066592412            2 
 3133000   0.74984149   -2.9007392    2506.3101  0.066664275  0.066579795            3 
 3134000   0.75757761   -2.8898748    2499.2897  0.066456332    0.0665671            7 
 3135000   0.75214834   -2.9004457    2512.3968   0.06678354  0.066554385            5 
 3136000   0.76333305   -2.8865021    2505.9806  0.066591746  0.066541811            4 
 3137000   0.74703452   -2.9050169    2509.9014  0.066674674  0.066529354            5 
 3138000   0.74790163   -2.8938958    2509.5186  0.066643261  0.066516811            5 
 3139000   0.74630088    -2.901866     2501.382  0.066406021  0.066504177            2 
 3140000   0.75743183   -2.9053358    2513.2525  0.066699907  0.066491564            5 
 3141000   0.74400603   -2.8658719    2511.2349  0.066625142  0.066479129            4 
 3142000   0.75136639   -2.8891683    2500.7884  0.066326872  0.066466499            6 
 3143000   0.73718759    -2.900123    2512.8389  0.066625276  0.066453934           13 
 3144000   0.74204713   -2.9060844    2507.4588  0.066461481  0.066441247            6 
 3145000   0.74071365   -2.9061566    2514.9755  0.066639519  0.066428577            6 
 3146000    0.7490014   -2.8986014     2512.742  0.066559177  0.066416056            5 
 3147000   0.75400133   -2.9100818    2516.4382  0.066635902  0.066403583            4 
 3148000   0.75255827   -2.9176906    2506.7255  0.066357622  0.066391018            5 
 3149000   0.74719216   -2.9166549    2504.3724  0.066274279   0.06637838            3 
 3150000   0.73727955    -2.887493     2521.778  0.066713704  0.066365735            2 
 3151000   0.74556538   -2.9107143    2509.5168  0.066368263  0.066353082            9 
 3152000   0.74876292   -2.9139562    2514.2969  0.066473585  0.066340287            6 
 3153000   0.74522519   -2.9163961    2513.8754  0.066441362  0.066327706            7 
 3154000   0.74350463   -2.9173023     2506.892  0.066235786  0.066314982            4 
 3155000   0.74450626   -2.8938214     2514.924  0.066426942  0.066302305            3 
 3156000   0.73252433   -2.9116534    2509.7644  0.066269655  0.066289678            4 
 3157000    0.7516476   -2.8950445    2516.9448  0.066438201  0.066277014            4 
 3158000   0.74081455   -2.8937421    2523.3184  0.066585348  0.066264434            6 
 3159000     0.759545   -2.9164944    2509.5762  0.066201757  0.066251841            3 
 3160000   0.74413602   -2.9283801    2506.7253  0.066105624  0.066239128            4 
 3161000   0.76387472   -2.8909597    2514.9863  0.066302497  0.066226411           11 
 3162000   0.75134134   -2.9046627    2511.8135  0.066197911  0.066213687            5 
 3163000   0.72971225   -2.8989575    2514.5988  0.066250364  0.066201043            3 
 3164000   0.76136831    -2.906934    2514.5319  0.066227663  0.066188396            2 
 3165000   0.74978051   -2.9000499    2514.6827  0.066210708  0.066175715            3 
 3166000   0.75685649    -2.900625    2516.6038  0.066240361  0.066163045            5 
 3167000   0.74309632   -2.9002408    2518.1907  0.066261202  0.066150382            6 
 3168000   0.75059002   -2.9040787    2516.9115  0.066206638    0.0661378            7 
 3169000   0.73979369   -2.9030934     2512.508  0.066069948  0.066125185            9 
 3170000   0.74481733    -2.901111    2522.1431  0.066302395  0.066112563            3 
 3171000   0.76141128   -2.9193574    2517.1627  0.066150603   0.06609988            3 
 3172000   0.73297228   -2.8889631    2516.1917  0.066104238  0.066087185            3 
 3173000   0.73517293   -2.9225223     2516.286   0.06608588  0.066074414            4 
 3174000   0.76018155   -2.9125069    2524.0032  0.066267675  0.066061708            9 
 3175000   0.74293092   -2.8792326     2529.951  0.066402913  0.066049241            3 
 3176000   0.73331789   -2.9085313    2521.2629  0.066154042  0.066036872            3 
 3177000    0.7592759   -2.9054581    2519.2479  0.066080366  0.066024372            4 
 3178000   0.72227399   -2.9196528    2523.4032  0.066168533  0.066011851            4 
 3179000   0.76332644   -2.9201664    2520.6547   0.06607567  0.065999292            5 
 3180000   0.75845255   -2.9132874    2522.3318  0.066098842  0.065986821            5 
 3181000   0.73982728   -2.9017248    2519.8142  0.066012108  0.065974262            4 
 3182000   0.73520275   -2.9127906    2524.3125   0.06610917  0.065961622            3 
 3183000   0.74673783    -2.936853    2517.5742  0.065911987  0.065948936            4 
 3184000     0.738437   -2.9269565    2531.6088  0.066258607  0.065936265            8 
 3185000   0.74643398   -2.9169211    2521.4797  0.065972782  0.065923704            4 
 3186000   0.74187032   -2.9158421     2522.569  0.065980567  0.065911032            5 
 3187000   0.74345243   -2.9137066    2519.3289   0.06587514   0.06589831            3 
 3188000   0.74868203   -2.9110417    2523.4603   0.06596247  0.065885629           12 
 3189000   0.73032564   -2.9139748    2523.6648   0.06594713   0.06587296            5 
 3190000    0.7162796   -2.9147499    2519.7936  0.065825328  0.065860445            4 
 3191000   0.74747838   -2.9275004    2521.0996  0.065838807  0.065847837            3 
 3192000   0.71448044   -2.9228785    2530.2333  0.066056633  0.065835141           14 
 3193000   0.73397376   -2.9146504    2520.3996  0.065779299  0.065822524            5 
 3194000   0.73388383   -2.8967931    2521.4868   0.06578707  0.065809754            4 
 3195000   0.73975332   -2.9210781    2520.7536  0.065747356  0.065797135            4 
 3196000   0.73231642   -2.9108593    2528.2165  0.065921373   0.06578446            3 
 3197000   0.73378996   -2.9225324    2523.4112  0.065775497  0.065771844            4 
 3198000   0.73971946   -2.9293074    2527.2023  0.065853719  0.065759234            5 
 3199000   0.74020934   -2.8987268    2517.3157  0.065575587  0.065746577            4 
 3200000   0.75124108   -2.9262301    2529.2976  0.065867125  0.065734043            5 
 3201000   0.73898911   -2.9176536    2524.7948  0.065729323  0.065721437           12 
 3202000   0.73828356    -2.902737    2530.3485  0.065853333  0.065708932            6 
 3203000   0.74042988   -2.9050531    2526.2132  0.065725185  0.065696351            4 
 3204000   0.74060847   -2.8976121    2527.3987  0.065735504  0.065683905            3 
 3205000   0.71971945   -2.9056737    2526.3092  0.065686667   0.06567135            4 
 3206000   0.75554344   -2.8990605    2536.6458  0.065934856  0.065658816            3 
 3207000   0.73537334   -2.9088633     2522.423   0.06554472  0.065646214           11 
 3208000   0.73972143   -2.9232676    2526.1557  0.065621252  0.065633641            3 
 3209000   0.76565707   -2.9317286    2530.9125  0.065724331  0.065621092            3 
 3210000   0.73422127   -2.9127968    2528.8962  0.065651512  0.065608509            4 
 3211000   0.74307586   -2.9037364    2524.7622  0.065523777  0.065596008            3 
 3212000   0.74054093   -2.9194442    2530.9881  0.065664904  0.065583574            4 
 3213000   0.74407571   -2.9267943    2528.7042  0.065585232  0.065571019            7 
 3214000   0.74519914   -2.9244141    2533.3722  0.065685858  0.065558452            3 
 3215000   0.75798575   -2.9322576    2525.7751  0.065468511   0.06554604            3 
 3216000   0.73764018   -2.9315583    2540.3108  0.065824804  0.065533473            4 
 3217000    0.7445094   -2.9465795     2531.081  0.065565252  0.065521122            3 
 3218000   0.72534996   -2.8916855      2542.58  0.065842655  0.065508698            5 
 3219000   0.73349889   -2.9285372    2531.9934  0.065548136  0.065496363            6 
 3220000   0.74747753   -2.9052028    2531.9666  0.065527087   0.06548392            6 
 3221000   0.74855948   -2.9029318    2545.1312  0.065847336  0.065471454            4 
 3222000   0.72914032   -2.9060163    2544.4334   0.06580885  0.065458994            3 
 3223000   0.72776323   -2.9158017    2535.0845  0.065546709  0.065446547            4 
 3224000    0.7483418   -2.9300798     2536.017   0.06555048  0.065434078            4 
 3225000   0.74340024   -2.9415115    2547.4438   0.06582542  0.065421752            3 
 3226000   0.74049359   -2.9372515    2537.8106  0.065556175  0.065409247            4 
 3227000   0.73761285   -2.9213087    2544.7119  0.065714076  0.065396797            3 
 3228000   0.71773039   -2.9117781     2544.167  0.065679651    0.0653845            8 
 3229000   0.71331182   -2.9101219    2541.4227  0.065588488  0.065372226            9 
 3230000   0.72293204   -2.9211932    2544.1835   0.06563941  0.065359843            9 
 3231000    0.7107205   -2.9028013    2542.4978  0.065575616    0.0653475            9 
 3232000   0.75149761   -2.9386195    2531.8311  0.065280298    0.0653351            5 
 3233000   0.72371705   -2.9190624    2536.4409  0.065378927  0.065322711            5 
 3234000   0.70967457   -2.9238925    2540.9332   0.06547447  0.065310448            4 
 3235000    0.7397597   -2.9121897    2545.5094  0.065572113   0.06529811            4 
 3236000    0.7480354   -2.9216801    2535.0925  0.065283594  0.065285614            4 
 3237000   0.74106946   -2.9299273    2542.5303  0.065454904  0.065273301            3 
 3238000   0.75109235   -2.9319814    2531.9471  0.065162319  0.065260919            2 
 3239000   0.73515842   -2.9269087    2543.3379  0.065435266  0.065248561           18 
 3240000   0.74241263   -2.9241738    2540.9121  0.065352677  0.065236186            5 
 3241000   0.72661169   -2.9317662    2541.8153  0.065355736  0.065223893            4 
 3242000     0.727063   -2.9330928    2546.5922  0.065458365  0.065211639            2 
 3243000   0.72938828   -2.9424429    2547.0808  0.065450735  0.065199324            6 
 3244000   0.73024656   -2.9040129    2553.2726  0.065589617  0.065187085            7 
 3245000   0.75206892   -2.9106787    2548.5628  0.065448453  0.065174879            8 
 3246000   0.71579208   -2.9313015    2549.5555  0.065453778  0.065162641            7 
 3247000   0.74032287   -2.9418203    2541.4474  0.065225525  0.065150284            5 
 3248000   0.71345447    -2.937312    2552.5116  0.065489316  0.065137955            4 
 3249000   0.71753176   -2.9254428    2558.3727  0.065619491  0.065125631            5 
 3250000   0.72566528   -2.9276549     2547.092   0.06531005  0.065113408            2 
 3251000   0.74911767   -2.9109264    2546.7864  0.065282127  0.065101131            5 
 3252000   0.73935007   -2.9111519    2550.9755  0.065369401  0.065088861            4 
 3253000   0.73567382   -2.9210813    2546.4645  0.065233747  0.065076615            4 
 3254000    0.7350022   -2.9370566     2554.554  0.065420867  0.065064339            5 
 3255000   0.70707677   -2.8935636    2561.3339  0.065574345    0.0650521            5 
 3256000   0.72889724   -2.9268486    2547.7065  0.065205429  0.065039914            2 
 3257000   0.73539754   -2.9091444    2549.9726  0.065243387   0.06502764            3 
 3258000   0.73261288   -2.9453678    2551.7583  0.065269037  0.065015376            4 
 3259000   0.72642906   -2.9292213    2547.9643  0.065151997  0.065003116            3 
 3260000   0.72203538   -2.9372181    2539.3362  0.064911457  0.064990835            6 
 3261000   0.72998106   -2.9390022    2544.7894  0.065030905   0.06497854            4 
 3262000   0.73466517   -2.9305521    2549.2726  0.065125501  0.064966243            3 
 3263000     0.734889   -2.9316279    2548.9003  0.065096033  0.064954034            5 
 3264000   0.74741001   -2.9612545    2548.3006  0.065060778   0.06494166            4 
 3265000   0.74496584   -2.9228015    2562.1477  0.065394276  0.064929297            4 
 3266000   0.72906613   -2.9227538    2543.4811  0.064897967  0.064917023            4 
 3267000   0.72933164   -2.9403701    2551.9757  0.065094779  0.064904747            6 
 3268000    0.7369148   -2.9471765    2550.6623  0.065041369   0.06489233            8 
 3269000   0.71801973   -2.9137273    2547.5153  0.064941249   0.06488003            3 
 3270000   0.72210382   -2.9289857    2556.3296  0.065146015  0.064867849            2 
 3271000   0.73698386   -2.9218811    2553.1971  0.065046294  0.064855758            5 
 3272000   0.70909159   -2.9277238    2552.6699  0.065012986   0.06484349            7 
 3273000   0.73357185   -2.9131471    2560.9326  0.065203498  0.064831235            4 
 3274000   0.75431586   -2.9140801    2554.5882  0.065022098  0.064819068            5 
 3275000   0.70983021    -2.937247     2547.727  0.064827658  0.064806851           12 
 3276000   0.71921908   -2.9427529    2560.0352  0.065120961  0.064794656            4 
 3277000   0.73531977   -2.9359303    2555.1797  0.064977613  0.064782506            5 
 3278000   0.73670868   -2.9403994      2565.97  0.065232104  0.064770375            3 
 3279000   0.72025667   -2.9284366    2559.7187  0.065053336  0.064758029            4 
 3280000   0.72812483   -2.9173587    2558.8123  0.065010474  0.064745699            5 
 3281000   0.72266973   -2.9404611    2557.1334  0.064948018  0.064733406            5 
 3282000   0.70798442   -2.9123172    2557.3026  0.064932525  0.064721051            2 
 3283000   0.71227533   -2.9351518    2559.8195  0.064976635  0.064708684            4 
 3284000   0.73816897   -2.9335709    2554.1579  0.064813182  0.064696286            4 
 3285000   0.73575118   -2.9066989    2561.8037  0.064987409    0.0646841            8 
 3286000   0.72066286   -2.9359105    2552.5225  0.064732261  0.064671701            4 
 3287000   0.71522408   -2.9255368    2555.8923     0.064798  0.064659361            6 
 3288000   0.73342218   -2.9448305    2556.8385  0.064802274  0.064646912            7 
 3289000   0.72649696   -2.9366159    2555.2429  0.064742144  0.064634558            4 
 3290000   0.71828541   -2.9499429     2561.033  0.064869124  0.064622057            3 
 3291000   0.73231441   -2.9449896    2561.4329  0.064859539  0.064609672            4 
 3292000   0.72952729   -2.9113573    2566.5859   0.06497028  0.064597345           14 
 3293000   0.71984553   -2.9078814    2554.6188  0.064647707  0.064584907            4 
 3294000     0.721466    -2.921934    2558.8511  0.064735152  0.064572398            3 
 3295000   0.70935881   -2.9248305    2554.8494  0.064614299  0.064560004            4 
 3296000   0.73199607   -2.9515107    2564.7131  0.064844082  0.064547621            6 
 3297000   0.73682867   -2.9458431     2553.077  0.064530307   0.06453515            5 
 3298000   0.72138568   -2.9400344    2556.8746  0.064606697  0.064522651            6 
 3299000   0.72772177   -2.9375155    2562.9481   0.06474053  0.064510145            5 
 3300000   0.71516598   -2.9416787    2561.4793  0.064683821  0.064497682            2 
 3301000   0.72025627   -2.9311096    2554.0837  0.064477524  0.064485176            4 
 3302000   0.73550181    -2.962274    2560.1396  0.064610831  0.064472676            7 
 3303000     0.711681   -2.9464706    2559.6361  0.064578568  0.064460168            9 
 3304000   0.71523731   -2.9233164    2564.1006  0.064671625  0.064447704            2 
 3305000   0.71875347   -2.9677453    2557.9293  0.064496452  0.064434965            4 
 3306000   0.74090658   -2.9275553    2562.6947  0.064597064  0.064422369            4 
 3307000   0.71144563   -2.9376937    2562.5051  0.064572752  0.064409739            6 
 3308000   0.70952187   -2.9458297    2564.0581  0.064592354  0.064397053            6 
 3309000   0.73346053   -2.9233944    2555.5471  0.064358494  0.064384404            4 
 3310000   0.72826023   -2.9357487    2558.9324   0.06442428  0.064371743            6 
 3311000   0.71976809   -2.9484837    2555.3276  0.064314093  0.064359071            5 
 3312000    0.7132209   -2.9448358    2562.4312  0.064473411  0.064346427            4 
 3313000   0.72666428   -2.9514692    2556.7942  0.064312159  0.064333851            6 
 3314000   0.70904196   -2.9368319    2553.2143  0.064202734  0.064321285            4 
 3315000   0.71079516   -2.9392818    2558.5499  0.064317494  0.064308777            3 
 3316000   0.71778042   -2.9303954      2568.57  0.064549909  0.064296193            8 
 3317000   0.72179805   -2.9252382    2558.1147   0.06426778  0.064283605            2 
 3318000    0.7172171   -2.9539664    2568.3204  0.064504731  0.064271098            3 
 3319000   0.71801935   -2.9709584    2555.8332  0.064171767  0.064258614            7 
 3320000   0.70487872     -2.95441    2568.2414  0.064463892  0.064246038            3 
 3321000   0.71640209   -2.9446685    2560.1562  0.064241598  0.064233484           11 
 3322000   0.71532067   -2.9442835    2566.0002   0.06436886  0.064220912            2 
 3323000   0.71189639   -2.9418811    2558.8459  0.064170075  0.064208362           12 
 3324000   0.71171007   -2.9366811    2559.1121  0.064157443  0.064195836            5 
 3325000   0.71253431   -2.9258405    2565.1375  0.064289161  0.064183389            4 
 3326000   0.71740933   -2.9227618    2561.0716  0.064167959  0.064170892            5 
 3327000   0.71856326   -2.9365766    2568.8622  0.064343808  0.064158367            3 
 3328000   0.72216381   -2.9462474    2558.9747  0.064076891  0.064145793            4 
 3329000   0.72575435   -2.9330175    2574.8517  0.064455085  0.064133245            3 
 3330000   0.73027922   -2.9289215    2560.7978  0.064084029  0.064120776            7 
 3331000   0.72031921   -2.9449073    2570.8219  0.064315568  0.064108264            7 
 3332000   0.71521899   -2.9324028    2569.3955  0.064260591  0.064095668            5 
 3333000   0.72841063   -2.9427119    2568.9898  0.064231168  0.064083118            7 
 3334000   0.71112928   -2.9399192    2565.7724  0.064131483  0.064070572            8 
 3335000   0.72408668    -2.945775      2562.19  0.064022737  0.064057988            3 
 3336000   0.72318954   -2.9608004     2574.644  0.064314649  0.064045477            3 
 3337000   0.71334026   -2.9370064    2565.8211  0.064075045  0.064033033            8 
 3338000   0.70849596   -2.9425438    2574.3785  0.064269484  0.064020397            5 
 3339000   0.72951997   -2.9540448    2574.8786  0.064262717  0.064007868            9 
 3340000   0.69375761   -2.8983145    2567.1175  0.064049839  0.063995317            3 
 3341000   0.72179122   -2.9279103    2573.6811  0.064194381  0.063982851            5 
 3342000   0.70772473   -2.9361602    2567.1294  0.064011805  0.063970361            2 
 3343000   0.73868926   -2.9508127    2572.4775  0.064125972  0.063957765            4 
 3344000   0.70299722   -2.9709799    2565.3689  0.063929647  0.063945174            8 
 3345000   0.72377919   -2.9483305    2571.6159  0.064066166  0.063932527            2 
 3346000   0.71723997    -2.927712    2570.8598  0.064028188   0.06391993            3 
 3347000   0.71128195   -2.9447644    2575.4371  0.064123024  0.063907345            2 
 3348000   0.71160337   -2.9541263    2569.2368  0.063949542    0.0638947            7 
 3349000   0.70343836   -2.9293007    2568.3993  0.063909609  0.063882126            8 
 3350000   0.73070615   -2.9309083     2576.039  0.064080573  0.063869651            5 
 3351000   0.71227488   -2.9348144    2577.2515  0.064091602  0.063857144            9 
 3352000   0.72271083   -2.9383887    2568.2443  0.063848557  0.063844503            5 
 3353000   0.70680984    -2.937962    2569.6646  0.063864813  0.063831857            4 
 3354000   0.70960245   -2.9638865    2569.4987  0.063841649  0.063819373            7 
 3355000   0.71830571   -2.9329372    2581.0716  0.064110075  0.063806883            6 
 3356000   0.71359838   -2.9663637    2567.4484  0.063752691  0.063794302            8 
 3357000   0.71005462   -2.9473736    2577.1783  0.063975233  0.063781675            4 
 3358000   0.71725465   -2.9168169    2576.1785   0.06393137  0.063769193            4 
 3359000   0.69901812   -2.9493876    2564.4125  0.063620436   0.06375658           13 
 3360000   0.70940334   -2.9516422    2574.5108  0.063851955  0.063744053           12 
 3361000   0.71389386   -2.9569923    2572.4064  0.063780779  0.063731527            4 
 3362000   0.71408253    -2.972317    2574.2618  0.063807799   0.06371897            7 
 3363000    0.7226084   -2.9577796    2566.4779  0.063595944  0.063706314            8 
 3364000   0.69136855   -2.9663687    2580.0218  0.063912548  0.063693825            4 
 3365000   0.72513474   -2.9483325    2584.0108  0.063992344  0.063681439            7 
 3366000   0.71091403   -2.9319019    2579.1561  0.063853143  0.063668958            5 
 3367000   0.70880697   -2.9580056    2580.0005  0.063855076  0.063656612            5 
 3368000   0.71523417   -2.9620546    2570.7366  0.063606904  0.063644124            3 
 3369000   0.69826074   -2.9493154    2576.8255  0.063738635  0.063631627            4 
 3370000   0.71147075   -2.9494021    2585.0204  0.063922363  0.063619189            7 
 3371000   0.70282411   -2.9471405     2580.909  0.063801766  0.063606828            2 
 3372000   0.70212319   -2.9577289    2573.1933  0.063592162   0.06359442            5 
 3373000   0.70984251   -2.9313273    2581.9532  0.063789731   0.06358214            7 
 3374000    0.6965676   -2.9663004    2570.7803   0.06349487  0.063569685            3 
 3375000   0.71927815   -2.9483079    2581.7512  0.063746943  0.063557199            4 
 3376000   0.70912294    -2.939267    2579.4739  0.063671847  0.063544839            4 
 3377000   0.70591524   -2.9478813    2590.2206  0.063918186  0.063532538            3 
 3378000   0.71325379   -2.9555394    2581.3271  0.063679867   0.06352022            5 
 3379000   0.71742309   -2.9550387    2583.6903  0.063719304  0.063507857            3 
 3380000   0.71062288   -2.9266698    2579.2409  0.063590752  0.063495499            2 
 3381000   0.71340324   -2.9553558    2586.6367  0.063754231  0.063483279            7 
 3382000   0.70344879   -2.9534497    2577.0421  0.063498967  0.063470925           10 
 3383000   0.71423462   -2.9487146    2585.8659  0.063697553  0.063458414            7 
 3384000   0.71529118   -2.9575785    2591.9181  0.063827769  0.063446082            3 
 3385000   0.70092348   -2.9562798    2588.6434  0.063728297  0.063433631            4 
 3386000   0.70099175   -2.9504265    2593.8542  0.063837718  0.063421169            7 
 3387000   0.70681646   -2.9640726    2583.0464  0.063552958  0.063408887            7 
 3388000   0.70227132   -2.9603972    2588.0975  0.063658438  0.063396349            5 
 3389000   0.70442526   -2.9515197    2580.1531  0.063444307  0.063383897            6 
 3390000   0.70755784   -2.9431276    2584.1611  0.063524118  0.063371536            7 
 3391000   0.70974128   -2.9605349    2588.2562  0.063606021  0.063359116            3 
 3392000    0.7111257   -2.9562341    2588.7975  0.063600567  0.063346733            8 
 3393000   0.71037884   -2.9519663    2593.7698  0.063703945  0.063334263            2 
 3394000   0.72450811   -2.9654899    2588.1647  0.063547551  0.063321813            5 
 3395000   0.71759579   -2.9542257    2583.8448  0.063422799  0.063309357            5 
 3396000   0.69862389   -2.9609818    2592.2739  0.063610962  0.063296983            4 
 3397000   0.71315053   -2.9378082    2587.5801  0.063477091  0.063284609            6 
 3398000   0.70319893   -2.9351145    2587.3606  0.063453027  0.063272216            6 
 3399000   0.70572799   -2.9594881    2581.1488  0.063282063  0.063259788           10 
 3400000   0.70225027   -2.9664701    2582.5923   0.06329883  0.063247339            5 
 3401000   0.72008879   -2.9464647    2583.4381  0.063300943  0.063234867            5 
 3402000   0.70041118   -2.9748952    2590.0203   0.06344357  0.063222474            4 
 3403000    0.6977492   -2.9654064     2590.253  0.063430625   0.06321009            2 
 3404000   0.72070637   -2.9532696     2593.272  0.063485898  0.063197801            3 
 3405000   0.68484828   -2.9660672    2581.1057  0.063169498   0.06318537            4 
 3406000   0.70986625   -2.9479784    2596.4235  0.063525726  0.063173065            5 
 3407000   0.70536586    -2.976631    2589.4083  0.063335494  0.063160762            6 
 3408000   0.71025748   -2.9515797    2587.8615  0.063279086  0.063148348            5 
 3409000    0.6965446   -2.9517695    2591.3782  0.063346491  0.063136028            6 
 3410000   0.71366164   -2.9791825    2584.7114   0.06316499  0.063123531            6 
 3411000   0.70889336   -2.9652071    2594.8028  0.063393014  0.063111065            5 
 3412000   0.70509941   -2.9559359    2580.3772  0.063022109  0.063098638            4 
 3413000   0.69813642   -2.9722678    2591.4555  0.063274135   0.06308622            6 
 3414000   0.73899773   -2.9711031    2586.1849  0.063126949  0.063073714            6 
 3415000   0.70290168    -2.961332    2586.2839  0.063110881  0.063061234            7 
 3416000   0.70128252   -2.9472292     2593.736  0.063274201  0.063048717            2 
 3417000   0.70173802   -2.9697445    2587.2585  0.063097711  0.063036306            5 
 3418000   0.69927999   -2.9717557    2589.1845  0.063126206   0.06302389            6 
 3419000   0.69624318   -2.9867436    2599.8044  0.063366588  0.063011387            7 
 3420000   0.68786317   -2.9621816    2586.0683   0.06301336   0.06299892           10 
 3421000   0.70000359   -2.9599773    2589.3932  0.063075934  0.062986438            5 
 3422000   0.70003939   -2.9881953     2592.521   0.06313367  0.062973995            5 
 3423000   0.69861333   -2.9658555    2590.8579  0.063074737  0.062961457            5 
 3424000   0.70683655   -2.9476286    2590.0861  0.063037531  0.062948871            8 
 3425000   0.70170853   -2.9753881    2591.4698  0.063052793  0.062936394            8 
 3426000   0.72408408   -2.9666157    2587.7077  0.062942881  0.062923898            4 
 3427000   0.70605733   -2.9374601    2593.5714  0.063067099   0.06291145            6 
 3428000   0.70654959   -2.9538116      2594.06  0.063060579  0.062898963           10 
 3429000   0.70286249   -2.9615419    2590.3958  0.062953141  0.062886526            8 
 3430000   0.70035998   -2.9831134    2587.4955  0.062864322  0.062874035            3 
 3431000    0.7002078    -2.988452     2594.752  0.063022248  0.062861489            3 
 3432000   0.69261958   -2.9669319    2593.6797  0.062977848  0.062848982            6 
 3433000   0.69216627   -2.9640763    2597.3213  0.063047901  0.062836441            5 
 3434000   0.69319267   -2.9664243    2598.5421  0.063059166  0.062823976            3 
 3435000   0.69991987   -2.9855851     2586.064  0.062738089   0.06281129            6 
 3436000   0.73216833    -2.990486    2598.0549  0.063010646  0.062798815            7 
 3437000   0.70512943   -2.9829337    2594.3029  0.062901341  0.062786324            6 
 3438000   0.70607502    -3.005734    2586.9388  0.062704548  0.062773728            5 
 3439000    0.6942675   -2.9667895    2589.6212  0.062751314  0.062761249           10 
 3440000   0.71627471   -2.9595335    2594.1443  0.062842642  0.062748747            3 
 3441000   0.70147719   -2.9544932    2602.7123  0.063031878  0.062736322            5 
 3442000   0.69591358   -2.9494316    2594.4066  0.062812478  0.062723881            8 
 3443000   0.70935237   -2.9734257    2595.5664  0.062822305  0.062711401            8 
 3444000   0.71246899   -2.9919618    2601.6315  0.062950821  0.062698887            5 
 3445000   0.70423009   -2.9869422    2595.8046  0.062791596  0.062686411           12 
 3446000   0.69452275   -3.0027486    2598.4196  0.062836613  0.062673922            3 
 3447000   0.69937177    -2.996545    2597.3282  0.062791999  0.062661373            6 
 3448000    0.7088585   -2.9567675    2593.3371  0.062677328  0.062648901            7 
 3449000   0.69253264   -2.9922642    2604.8465   0.06293724   0.06263641            5 
 3450000    0.7128078   -2.9452475    2597.5328  0.062742339  0.062624075            4 
 3451000   0.70379172   -2.9719716    2607.5196  0.062965315  0.062611693            6 
 3452000   0.69819971   -2.9676939    2602.1369  0.062817133  0.062599281            5 
 3453000   0.70081799   -2.9686029    2603.8265  0.062839716  0.062586874           12 
 3454000   0.69259676   -2.9639214    2599.9989  0.062729175  0.062574367           19 
 3455000   0.69868096   -2.9747273    2594.9519  0.062589289  0.062561817            4 
 3456000   0.70986151   -2.9781385    2599.9915  0.062692697  0.062549359            6 
 3457000   0.68373575   -2.9686936    2606.5147  0.062831807  0.062536831            5 
 3458000    0.6933233   -2.9711368    2597.1476  0.062587903  0.062524307            4 
 3459000   0.68873859   -2.9641049    2602.2457   0.06269263  0.062511866            6 
 3460000   0.69883899   -2.9779444      2597.98  0.062571773  0.062499397            4 
 3461000   0.71180511   -2.9416369    2604.1241  0.062701629  0.062486969            2 
 3462000   0.70028982   -2.9596723    2598.2377  0.062541827  0.062474464            6 
 3463000   0.68338127   -2.9844319    2604.5063  0.062674614  0.062461947            5 
 3464000   0.70163183   -2.9833812    2597.9123  0.062497891  0.062449362            4 
 3465000   0.69796644   -2.9924862     2593.583  0.062375732  0.062436752            7 
 3466000   0.69384151   -2.9778168     2611.341  0.062784694  0.062424177            5 
 3467000    0.6818755   -2.9748676    2592.9815  0.062325292  0.062411609            5 
 3468000   0.70770054   -2.9613764    2598.5308  0.062440668  0.062399027            7 
 3469000   0.70061856   -2.9772022    2592.1798  0.062270102  0.062386436            6 
 3470000   0.70764279   -2.9774063    2612.8067   0.06274752  0.062373801            6 
 3471000   0.70530537   -2.9743274    2596.6846  0.062342374  0.062361138            8 
 3472000   0.69135641   -2.9892866    2600.0354  0.062404843  0.062348439            3 
 3473000    0.6887004   -2.9882767    2598.8467  0.062358352  0.062335718            7 
 3474000   0.69783941   -2.9838433    2594.2758  0.062230756  0.062323079            8 
 3475000   0.69981416    -2.972456    2595.2142  0.062235354  0.062310435            3 
 3476000   0.68542393   -2.9665769    2606.5656  0.062489586  0.062297841            3 
 3477000   0.69548104   -2.9557674    2603.9422  0.062408739  0.062285179            6 
 3478000   0.68937748   -2.9860219    2598.6148  0.062263149  0.062272502            4 
 3479000   0.69626375   -2.9672048     2592.519  0.062099237  0.062259822            3 
 3480000   0.68831691   -2.9936563     2600.594  0.062274761  0.062247214            4 
 3481000   0.70831304   -2.9865678    2596.8749  0.062167836  0.062234523            5 
 3482000   0.68962155   -2.9873444    2607.1042  0.062394797  0.062221877            4 
 3483000   0.67984374   -2.9594116    2597.4439  0.062145754   0.06220919            8 
 3484000     0.697188   -2.9851838    2601.5408  0.062225909  0.062196477            9 
 3485000   0.68532725   -2.9730395    2602.5572  0.062232357  0.062183752            5 
 3486000   0.69100715   -2.9938454    2603.9072  0.062246779  0.062170977            7 
 3487000   0.71112652   -2.9751772    2609.6574  0.062366347  0.062158385            8 
 3488000   0.69119615   -2.9792374    2605.7024  0.062253975  0.062145807            9 
 3489000   0.69928403   -2.9611716    2602.7743  0.062166195   0.06213322           15 
 3490000   0.68398576   -2.9649028    2601.2579  0.062112175  0.062120519            5 
 3491000   0.68963719   -2.9771106    2598.4516  0.062027395  0.062107751            3 
 3492000   0.70355754   -2.9680811    2606.1928  0.062194368  0.062095094            4 
 3493000   0.69566148   -2.9780921    2599.4632  0.062016014  0.062082418            3 
 3494000   0.69880441   -2.9964232    2592.4506  0.061831011  0.062069744            7 
 3495000   0.69448974   -2.9650725    2600.0583  0.061994714  0.062057192            6 
 3496000   0.70726799   -2.9880851     2608.079  0.062168169  0.062044597            3 
 3497000   0.67701156   -2.9511291    2609.6197  0.062187106  0.062031941            5 
 3498000   0.71253754   -2.9814769     2603.919   0.06203352  0.062019323            4 
 3499000   0.67758821   -2.9787661    2599.7168  0.061915708   0.06200671            8 
 3500000   0.67862145   -2.9803686    2604.0797  0.062001897  0.061994034            8 
 3501000    0.6836761   -2.9741516    2613.2537  0.062202554  0.061981514            4 
 3502000   0.68646487   -2.9905208    2598.6999  0.061838472  0.061968879            3 
 3503000    0.7015028    -3.009669    2611.2984  0.062120524  0.061956233            7 
 3504000   0.68574431   -2.9623345    2607.4118  0.062010365  0.061943693            6 
 3505000   0.69592435   -3.0003107    2602.9789  0.061887279   0.06193105            4 
 3506000    0.6976575   -2.9753193    2617.2821  0.062209595  0.061918399            6 
 3507000   0.68563538   -3.0000916    2601.8248  0.061824561  0.061905766            3 
 3508000   0.69221403   -2.9877686    2607.2725  0.061936347  0.061893126            3 
 3509000   0.68168846   -2.9818239    2615.7418   0.06211983  0.061880613            6 
 3510000   0.70370572   -2.9872144    2613.8813   0.06205796  0.061868031            8 
 3511000   0.67670695   -2.9721267    2603.1529  0.061785648   0.06185545            4 
 3512000   0.68620594   -3.0030649    2609.3263  0.061914539  0.061842674            4 
 3513000   0.69720147   -2.9933133    2611.0437  0.061937652  0.061830012            3 
 3514000   0.69137325   -2.9802378    2603.5049  0.061741246  0.061817314            4 
 3515000   0.69226446    -2.987584     2604.682  0.061751588  0.061804687            5 
 3516000   0.68716959   -2.9985972    2602.7803  0.061688953  0.061791922            2 
 3517000   0.68923023   -2.9623811    2611.8596  0.061886541   0.06177924            7 
 3518000   0.69510956    -2.980612     2613.559  0.061909206  0.061766663            4 
 3519000    0.6753538   -3.0023459    2605.8842  0.061709865  0.061753997            5 
 3520000   0.69291063   -2.9750382    2618.2311  0.061984637  0.061741293            3 
 3521000   0.68208042   -2.9760591    2606.7343  0.061694933  0.061728727            4 
 3522000   0.69233147    -2.972676    2616.3399  0.061904691  0.061716105            5 
 3523000   0.69264284    -2.974248    2607.7257   0.06168336  0.061703426            5 
 3524000   0.68365867   -2.9708899    2606.7299  0.061642307   0.06169069            6 
 3525000   0.69188579   -2.9741674    2617.5509  0.061880635  0.061678035            6 
 3526000   0.69065688   -2.9738377    2615.4763  0.061814056   0.06166541            7 
 3527000   0.69504725   -2.9948911    2603.4478  0.061512328  0.061652813            4 
 3528000     0.689841   -2.9940788    2616.2941   0.06179833  0.061640186            6 
 3529000    0.6891152   -3.0012912    2603.1266  0.061469883  0.061627607            6 
 3530000   0.66536263   -2.9871385    2608.6644  0.061583202  0.061614994            6 
 3531000   0.67130796   -2.9969007    2614.5519  0.061704707  0.061602339            6 
 3532000   0.68323469   -2.9941938     2613.872  0.061671198   0.06158969            5 
 3533000   0.67166757   -2.9948905    2619.6264   0.06178947   0.06157702            6 
 3534000   0.69701271   -2.9952658    2612.9036   0.06161346  0.061564294            5 
 3535000   0.69490505   -2.9746899    2614.8987  0.061643063  0.061551666            5 
 3536000   0.69054446   -2.9897308    2619.0885   0.06172437  0.061539145            8 
 3537000    0.6788205   -2.9722852    2628.1294  0.061919927  0.061526606            4 
 3538000   0.68616646   -2.9908595    2614.6159  0.061584132  0.061514063            8 
 3539000   0.69165673   -2.9978356    2612.0759  0.061506922  0.061501373            7 
 3540000   0.68768142   -2.9999136    2617.4271  0.061615517  0.061488759            5 
 3541000   0.68170959   -3.0005172    2609.9073  0.061421144  0.061476284            6 
 3542000   0.68263004   -3.0032822    2618.2813   0.06160082  0.061463721            4 
 3543000    0.6899684   -3.0128186    2605.5694  0.061284442  0.061451027            6 
 3544000   0.67771692   -2.9969632    2611.1124  0.061397488  0.061438304            6 
 3545000   0.68118066   -2.9789823    2607.3181  0.061290976  0.061425689            4 
 3546000   0.69526332   -2.9858746    2616.0496  0.061478888  0.061413065            3 
 3547000   0.67909162   -2.9731546    2623.2864  0.061631577  0.061400475            4 
 3548000   0.69962906   -2.9840497    2608.1093  0.061257735  0.061387891            2 
 3549000   0.68704874   -2.9940376    2616.0498  0.061426924  0.061375265           10 
 3550000    0.6804905   -2.9997322    2614.7461  0.061379016  0.061362689            6 
 3551000    0.6781171   -3.0011506    2616.2877  0.061397909  0.061350064            7 
 3552000   0.69162093   -2.9946841    2613.7276  0.061320562  0.061337356            7 
 3553000    0.6792529   -3.0092052    2621.3011  0.061480934  0.061324735            3 
 3554000   0.69247866   -2.9951311    2618.4392  0.061396529  0.061312041            8 
 3555000   0.66756941   -2.9925915    2619.1626  0.061396217  0.061299381            4 
 3556000   0.68960628   -2.9827367    2622.9903  0.061468652  0.061286699            3 
 3557000   0.68111367   -3.0165175     2621.868  0.061425077  0.061274027            4 
 3558000   0.68551046   -3.0075114    2624.5256  0.061470058   0.06126127            4 
 3559000    0.6802912   -2.9884596    2613.2974  0.061189879  0.061248614           14 
 3560000    0.6801036   -2.9872018    2620.8018  0.061348358  0.061235908            4 
 3561000   0.68586199   -2.9879897    2614.1807  0.061176184  0.061223225            6 
 3562000   0.68879695   -3.0035706    2618.8039   0.06126717  0.061210423            5 
 3563000    0.6740406   -3.0307378    2610.6216  0.061058601  0.061197752            6 
 3564000   0.68197594   -2.9931054    2626.9879  0.061424147  0.061185058            5 
 3565000     0.705285   -2.9790835    2622.3452  0.061298393  0.061172345            5 
 3566000   0.67694877   -3.0089225    2620.3235  0.061233957  0.061159751            8 
 3567000   0.69439197   -2.9700544    2624.9448  0.061324755  0.061147165            8 
 3568000   0.67884022    -3.008424    2622.3975  0.061248074    0.0611345            3 
 3569000   0.66577789   -2.9768451    2620.8755  0.061195374  0.061121934            5 
 3570000   0.67140552   -3.0295363    2608.0398  0.060878613  0.061109158            4 
 3571000   0.68260479   -3.0039111    2621.4128  0.061173639  0.061096422            7 
 3572000    0.6708632   -2.9808932    2620.8497  0.061143377  0.061083739            4 
 3573000   0.66708269   -3.0101469    2614.9796  0.060989355  0.061070991            8 
 3574000   0.66896099   -3.0087612     2613.748  0.060943575   0.06105825            7 
 3575000   0.67674869   -3.0034588    2618.5958  0.061039529  0.061045436            6 
 3576000   0.67926304   -2.9875439    2618.4441  0.061018924  0.061032663            5 
 3577000   0.68514183   -3.0095453    2618.8602  0.061011561   0.06101984            5 
 3578000   0.67842753   -2.9986583    2619.4189  0.061007521  0.061007039            3 
 3579000   0.68627296   -3.0076182       2623.7  0.061090156  0.060994331            6 
 3580000   0.69299863   -2.9864821    2624.3087  0.061087261  0.060981594            4 
 3581000   0.68270708   -2.9967903    2619.2992  0.060953626  0.060968946            4 
 3582000   0.68433234   -3.0094615    2617.2906   0.06088988  0.060956268           10 
 3583000   0.67438628   -2.9832919    2619.3724  0.060921304  0.060943631            3 
 3584000   0.66956707   -3.0141074    2623.4784  0.060999777  0.060930932            6 
 3585000   0.68864678   -3.0081898    2619.9524    0.0609008  0.060918196            6 
 3586000   0.68698187   -3.0092671    2626.4992  0.061035955  0.060905588            5 
 3587000   0.67409614   -2.9936596    2620.8352  0.060887352  0.060892837            7 
 3588000   0.66107393   -3.0078919    2615.2014  0.060739534   0.06088019            5 
 3589000   0.66668568   -3.0051248    2625.2922  0.060956911  0.060867573            6 
 3590000   0.67126179   -3.0011672    2630.8436  0.061068793  0.060854947            3 
 3591000   0.68942036   -2.9991861    2627.8906   0.06098326  0.060842434            5 
 3592000   0.68811903   -3.0070632    2628.0268  0.060969442  0.060829848            5 
 3593000    0.6765945   -3.0099704    2617.8237   0.06071583   0.06081709            5 
 3594000   0.67778795   -3.0190016    2621.1002  0.060774908  0.060804471            5 
 3595000   0.66386158    -3.013268    2619.5498  0.060722063  0.060791856           10 
 3596000   0.68560058   -2.9914028    2620.9178  0.060736879  0.060779152            6 
 3597000   0.68486757   -2.9891665    2624.7066   0.06080777    0.0607666            7 
 3598000   0.66002833   -2.9974125    2628.1178  0.060869878  0.060753993            3 
 3599000   0.67493046   -3.0104422    2623.7723  0.060752346   0.06074137           14 
 3600000   0.68050766   -3.0095824    2622.9003  0.060715285  0.060728715            8 
 3601000   0.68022061   -3.0005414    2618.3869  0.060593975  0.060716124            7 
 3602000   0.67765405   -3.0171607    2624.4774   0.06071806  0.060703467            2 
 3603000   0.68432032   -2.9876509    2623.2263  0.060672271  0.060690872            5 
 3604000    0.6603716   -3.0190297    2628.1211  0.060768615  0.060678259            6 
 3605000   0.69964192   -3.0177729    2627.5777  0.060739199  0.060665762            3 
 3606000   0.65157638   -3.0207142     2618.668  0.060516455  0.060653054            4 
 3607000   0.66368645    -3.004707    2632.5833  0.060821164  0.060640452            7 
 3608000   0.68156437   -3.0140543    2622.4885   0.06057115  0.060627794            3 
 3609000   0.65915395   -3.0103873    2628.9488  0.060703538  0.060615166            5 
 3610000   0.67987169    -3.025401    2626.7239  0.060635362  0.060602637            6 
 3611000   0.68901215   -3.0397173    2630.8327  0.060713393  0.060590083            3 
 3612000   0.67184227   -3.0104916    2629.8495    0.0606739  0.060577439            6 
 3613000   0.68881756   -3.0236956    2620.7449  0.060447109  0.060564882            9 
 3614000   0.66587492   -3.0039771    2629.9576  0.060642816  0.060552288            7 
 3615000   0.67707604   -3.0138135     2633.046  0.060697233  0.060539747           12 
 3616000   0.68397694    -3.021954     2623.658  0.060464094  0.060527111            4 
 3617000   0.67227573   -3.0048698    2637.2833  0.060761296  0.060514555            3 
 3618000   0.67740761   -3.0313413    2633.9639  0.060668045  0.060501999            5 
 3619000   0.67848131   -3.0085747    2630.1253  0.060562893  0.060489404            6 
 3620000   0.67621792   -3.0089714    2625.2091  0.060432989  0.060476801            9 
 3621000   0.66722055   -3.0198278    2628.6237  0.060494883  0.060464234            6 
 3622000    0.6706932   -2.9986189    2635.7056  0.060641119  0.060451674            4 
 3623000   0.66182432   -3.0286676    2631.3241  0.060523602    0.0604392            7 
 3624000   0.66684606   -3.0147032    2627.4941   0.06041883  0.060426609            6 
 3625000   0.66856394   -3.0256608    2639.5038  0.060678247  0.060414107            2 
 3626000   0.67586235   -3.0216408    2632.6411  0.060503793  0.060401594            4 
 3627000   0.67173966   -3.0138316    2639.6993  0.060649281   0.06038912            4 
 3628000   0.68204795   -3.0194299    2635.6641  0.060539877  0.060376735            4 
 3629000   0.67687338   -3.0123908    2635.2027    0.0605126  0.060364311            3 
 3630000   0.66919895   -3.0246197    2641.9802   0.06065152  0.060351891            7 
 3631000   0.67018056   -3.0411179     2637.237  0.060525957  0.060339379            9 
 3632000    0.6733963   -3.0356391    2636.5582  0.060493718  0.060326891            5 
 3633000   0.67693827   -3.0019773    2627.0536  0.060259052  0.060314446            7 
 3634000   0.66874469   -2.9826521    2643.6027  0.060621966  0.060302066            5 
 3635000   0.66878065   -3.0366424    2637.4443  0.060464107  0.060289587            4 
 3636000    0.6577031   -3.0294302    2639.0077  0.060483307  0.060277094            3 
 3637000   0.67273093   -3.0062041    2637.9944   0.06044346  0.060264521            6 
 3638000   0.68008004   -3.0246928    2637.9736  0.060426369  0.060252075            4 
 3639000    0.6857186   -3.0114936    2636.7411  0.060381541  0.060239637            7 
 3640000   0.65900653   -3.0218721    2637.8363  0.060390024  0.060227173            5 
 3641000   0.66740021    -3.022409    2644.6969  0.060530461  0.060214624            4 
 3642000   0.68372509    -3.026682    2643.1566  0.060478596  0.060202162            5 
 3643000    0.6739109   -3.0196642    2639.1671  0.060370735  0.060189673            6 
 3644000   0.66414147    -3.018768    2639.6332  0.060364829  0.060177206            3 
 3645000   0.68856338   -3.0141577    2631.5275  0.060162951  0.060164709            3 
 3646000   0.66483269   -3.0190263    2633.9825  0.060202562   0.06015221            7 
 3647000   0.67528815   -3.0200519    2636.9252  0.060253296  0.060139787            7 
 3648000   0.67656817   -3.0119047    2641.9109   0.06035067    0.0601273            9 
 3649000   0.66358263   -3.0231088    2632.0274  0.060108417  0.060114753            8 
 3650000   0.66283943   -2.9955104    2643.5414  0.060354827  0.060102282            6 
 3651000   0.67194996   -3.0042627    2640.3282  0.060264956  0.060089861            7 
 3652000   0.67001826   -3.0144895    2651.4575  0.060502406  0.060077415            5 
 3653000   0.67287151   -3.0295294    2633.3269  0.060072244  0.060064962           13 
 3654000   0.65115446   -3.0166144    2639.3334  0.060192788  0.060052447            3 
 3655000   0.66352174   -3.0236981    2642.2796  0.060243494  0.060040097            3 
 3656000   0.65736853   -3.0289441    2635.2776  0.060067415  0.060027618            6 
 3657000   0.66033677   -3.0327466    2649.5924  0.060377186  0.060015143            8 
 3658000   0.66113922   -2.9974173    2640.1633  0.060145873  0.060002812           11 
 3659000   0.66528947   -2.9984866     2654.393  0.060453515  0.059990499            3 
 3660000   0.65173374   -3.0175249    2646.9994  0.060268656  0.059978156            4 
 3661000   0.66636897    -3.017244    2645.1236  0.060209497  0.059965837            3 
 3662000    0.6652835   -3.0352045    2643.1597  0.060148365  0.059953549            7 
 3663000   0.66924355   -3.0031567    2645.1031  0.060176155  0.059941229            7 
 3664000   0.66630037   -3.0232915    2642.9924  0.060111728  0.059928945            5 
 3665000   0.68042819   -3.0238083    2642.8885  0.060092962  0.059916591            8 
 3666000   0.66502477   -3.0166572    2637.1899  0.059947034  0.059904118            4 
 3667000   0.67387391   -3.0301741    2641.2107  0.060022059  0.059891752            5 
 3668000   0.68255224    -3.025384    2641.1091  0.060003387  0.059879361            7 
 3669000   0.67104737   -2.9982752    2646.2801  0.060104482  0.059867041            7 
 3670000   0.66398679    -3.049412    2648.4061  0.060136379  0.059854673            4 
 3671000   0.65866446   -3.0193007    2643.2149  0.060002153  0.059842332            4 
 3672000   0.66924757   -3.0314256    2653.0898  0.060209917   0.05983003            5 
 3673000   0.65227107   -3.0199121    2645.0115  0.060010243  0.059817649            3 
 3674000   0.67344423   -3.0449738    2642.0962  0.059927786  0.059805207            9 
 3675000   0.67302979   -3.0294127    2654.2856  0.060187881  0.059792754            6 
 3676000   0.66238665   -3.0339014    2645.5828   0.05997422    0.0597804            6 
 3677000   0.65841117   -3.0128365    2643.3942  0.059908309  0.059768034            4 
 3678000   0.65746458   -3.0269805     2645.714   0.05994458  0.059755654            5 
 3679000   0.64899832   -2.9988441    2648.2115  0.059984857  0.059743249            4 
 3680000   0.66584005   -3.0175006     2655.517   0.06013399  0.059730847            4 
 3681000   0.66520792   -3.0229908    2644.6734  0.059872167  0.059718423            3 
 3682000    0.6648749   -3.0246194    2649.8992  0.059974181  0.059705965            7 
 3683000   0.67836502   -3.0254962    2648.3409  0.059922637  0.059693545            3 
 3684000   0.67795641   -3.0522552    2651.2687    0.0599726   0.05968114            4 
 3685000   0.66145969   -3.0491156    2648.3049    0.0598893  0.059668847            9 
 3686000   0.65718745   -3.0201732    2654.5061   0.06001325  0.059656555            4 
 3687000   0.64925288   -3.0094927    2651.9606   0.05993944  0.059644332            5 
 3688000   0.65470109   -3.0372082    2652.7987  0.059942125   0.05963209            4 
 3689000   0.65735133   -3.0445761    2654.4947  0.059964189  0.059619759            6 
 3690000   0.67507641   -3.0208021    2649.1499  0.059827234  0.059607512            4 
 3691000   0.66202261   -3.0455966    2644.5589  0.059707373   0.05959515            4 
 3692000   0.66021572   -3.0416001    2652.4308  0.059868879  0.059582815            8 
 3693000    0.6646032   -3.0183038    2652.5428  0.059855195  0.059570574            5 
 3694000   0.66876416   -3.0065949    2651.3387  0.059811827  0.059558454            5 
 3695000   0.65417778   -3.0431442    2653.4117  0.059842393  0.059546294            5 
 3696000   0.66319652    -3.010321    2651.3264  0.059779185  0.059533994            5 
 3697000   0.66262419     -3.04278    2651.2481   0.05976125   0.05952178            7 
 3698000   0.65226703   -3.0276394     2656.834  0.059870966    0.0595095           10 
 3699000   0.66756477   -3.0299226    2659.3254  0.059910908  0.059497278            8 
 3700000   0.66003208   -3.0260109    2657.8843   0.05986226  0.059485194            8 
 3701000   0.64315101   -3.0368303    2666.9724  0.060050716  0.059473043            9 
 3702000    0.6528946   -3.0576346    2661.8802  0.059919867  0.059460944            9 
 3703000   0.66542142    -3.033475    2655.7778  0.059766356  0.059448832            3 
 3704000   0.65625568   -3.0295425    2656.9302  0.059776147  0.059436686            5 
 3705000   0.65592575   -3.0271769    2655.3375   0.05972419  0.059424571            6 
 3706000   0.65914577   -3.0220521    2663.8989  0.059900587  0.059412541            4 
 3707000   0.65771841   -3.0160795    2667.3124  0.059961165    0.0594005            6 
 3708000    0.6608193   -3.0370701    2663.0971  0.059850258  0.059388381            6 
 3709000   0.64667345   -3.0456836    2670.2299  0.059994381  0.059376276            3 
 3710000   0.66582418   -3.0385092    2655.5203  0.059647806  0.059364123            8 
 3711000   0.65000404   -3.0356843    2662.8628  0.059796613  0.059352083            4 
 3712000   0.66757245   -3.0326295    2654.3857  0.059590196  0.059340174            4 
 3713000   0.64859224   -3.0339879    2657.7633  0.059649953  0.059328082            6 
 3714000   0.66003731   -3.0170933    2668.1254  0.059866394  0.059316086            4 
 3715000    0.6667506   -3.0323886    2664.3056  0.059764594   0.05930415            9 
 3716000   0.66134909   -3.0599291     2664.345  0.059749394  0.059292141            3 
 3717000   0.66531595   -3.0228646    2660.7159  0.059651956  0.059280117            4 
 3718000   0.66141347   -3.0408922    2658.5344  0.059587018  0.059268167           10 
 3719000   0.67382145   -3.0311068    2656.5217  0.059525897  0.059256184            4 
 3720000   0.66475485   -3.0402992    2663.0897  0.059657027  0.059244208            5 
 3721000   0.64575769   -3.0322036    2667.2915  0.059735096  0.059232234            7 
 3722000   0.66240193   -3.0291755    2666.6613  0.059704937  0.059220155            3 
 3723000   0.66781999   -3.0424764    2662.5803  0.059597552  0.059208122            4 
 3724000   0.66513052   -3.0413362    2664.1449  0.059616562  0.059196082            6 
 3725000   0.65497545   -3.0367441    2664.7125  0.059613254  0.059184054            3 
 3726000   0.65261811   -3.0448545     2661.071  0.059515812  0.059172073            5 
 3727000   0.66300647   -3.0405334    2658.6277  0.059445213  0.059159995            8 
 3728000   0.65627893   -3.0541537    2661.8431  0.059501143  0.059147912            8 
 3729000   0.65932044   -3.0506572    2667.9639  0.059621969  0.059135695            7 
 3730000   0.65894122   -3.0325809    2664.4563  0.059527622  0.059123577            7 
 3731000   0.66612105   -3.0658611     2664.895  0.059521465  0.059111477            9 
 3732000   0.66256983   -3.0383167    2661.7338  0.059434927  0.059099403            3 
 3733000   0.67461663   -3.0433505    2662.6708  0.059439923  0.059087416            8 
 3734000   0.64820861   -3.0516623    2661.4524  0.059396813  0.059075318            5 
 3735000   0.64685193   -3.0363249      2660.53  0.059360331   0.05906318            6 
 3736000   0.64797243   -3.0365748    2661.2991  0.059361597   0.05905112            4 
 3737000   0.65146965   -3.0193835    2665.9322  0.059449029   0.05903907            4 
 3738000   0.65241525   -3.0338291    2665.2221  0.059417292   0.05902707            8 
 3739000   0.64923569   -3.0383183    2666.7177  0.059434735  0.059014989            3 
 3740000    0.6607838   -3.0309531    2663.8671  0.059355327  0.059002957            5 
 3741000   0.63081298   -3.0324149    2673.5157   0.05955439  0.058990939            8 
 3742000   0.65018174    -3.058271    2669.2385  0.059443224  0.058979008           11 
 3743000   0.66143478   -3.0247452    2666.1495  0.059358569  0.058967079            5 
 3744000   0.63926674   -3.0331762    2671.0696  0.059452225    0.0589552            4 
 3745000   0.64578014   -3.0412916    2674.2909   0.05950803  0.058943353            5 
 3746000   0.65841583   -3.0098721    2670.4833   0.05940744  0.058931574            7 
 3747000   0.65294649   -3.0325093    2683.7056  0.059685652   0.05891987            6 
 3748000   0.65050673   -3.0328913    2672.4128  0.059418641  0.058908088            3 
 3749000   0.65034102    -3.051204     2666.767  0.059277296  0.058896282            8 
 3750000   0.64862474   -3.0291739    2674.7346  0.059438548   0.05888446            5 
 3751000    0.6517627   -3.0468632     2672.215  0.059366725  0.058872715           14 
 3752000   0.66681022   -3.0369975     2680.902  0.059543843  0.058860915            9 
 3753000   0.64600682   -3.0452578    2679.4291  0.059495272  0.058849129           10 
 3754000   0.64378516   -3.0570942    2673.7707  0.059353816  0.058837262            4 
 3755000   0.63607848   -3.0392518    2676.7858  0.059404922  0.058825445            7 
 3756000   0.65945094    -3.043921    2672.8336   0.05930142  0.058813642            5 
 3757000   0.65625978   -3.0371273    2684.6994   0.05954883  0.058801877            7 
 3758000   0.64319193   -3.0448688    2678.4634  0.059394699  0.058790102            7 
 3759000   0.65221347   -3.0374584    2667.9691  0.059146251  0.058778236            3 
 3760000   0.65174605   -3.0391749    2678.7942  0.059370439  0.058766471           10 
 3761000   0.64842732   -3.0364739    2679.2067  0.059363792  0.058754711            4 
 3762000   0.64499276   -3.0495018    2677.1083  0.059301531  0.058742853            8 
 3763000   0.63884386   -3.0411813    2683.9938  0.059438255   0.05873107            5 
 3764000   0.66102386   -3.0458007    2672.5548  0.059169208  0.058719348            3 
 3765000   0.65078267   -3.0397814    2683.1929  0.059388953  0.058707614            8 
 3766000   0.63744863   -3.0476711    2677.2235  0.059241094  0.058695862            3 
 3767000   0.65794431   -3.0524572    2680.9559  0.059307936  0.058684083           13 
 3768000   0.64665481   -3.0493666    2682.3155  0.059322265  0.058672317            8 
 3769000   0.65321236   -3.0471535    2681.9853  0.059299223  0.058660614            4 
 3770000   0.64802884   -3.0359133    2680.5504  0.059251777  0.058648923            3 
 3771000   0.63799398   -3.0608746    2678.2842  0.059185984  0.058637174           14 
 3772000   0.64747625   -3.0391197     2688.015  0.059385274  0.058625382            4 
 3773000   0.64110435    -3.040853    2681.1085  0.059216992  0.058613728           15 
 3774000   0.65048568   -3.0468521    2681.8241  0.059217102  0.058601968            8 
 3775000   0.64054922   -3.0359147    2680.3468  0.059168803   0.05859006            2 
 3776000   0.65308505   -3.0499214    2680.4031  0.059154376  0.058578187            5 
 3777000    0.6368434   -3.0401207    2677.5142  0.059074976    0.0585664           11 
 3778000   0.64830398   -3.0485325    2676.7962  0.059043502  0.058554513            3 
 3779000   0.65020175   -3.0347538     2681.708  0.059136192  0.058542696            5 
 3780000   0.66102234   -3.0436391    2682.3775  0.059135306  0.058530962            7 
 3781000   0.65209181   -3.0394604     2683.215  0.059138125  0.058519188            7 
 3782000   0.65371833   -3.0417883    2681.4391  0.059083357  0.058507342            7 
 3783000   0.64860844   -3.0492332    2682.2009   0.05908452  0.058495537            8 
 3784000   0.64686574   -3.0365314    2684.4694  0.059118865  0.058483682            6 
 3785000   0.63522085   -3.0738312    2681.1453   0.05903006  0.058471807            5 
 3786000   0.64256781   -3.0604404    2679.0555  0.058968469   0.05845988           10 
 3787000   0.64991605   -3.0699688     2680.106  0.058976015  0.058447955           10 
 3788000   0.65292909   -3.0498529    2674.2124  0.058830789   0.05843607            7 
 3789000   0.64676515   -3.0293703    2679.4149  0.058929685  0.058424167           10 
 3790000     0.644496   -3.0690647    2684.6006  0.059028158  0.058412381           11 
 3791000   0.61797002   -3.0642721    2680.5113  0.058922696  0.058400597            7 
 3792000   0.63834073   -3.0735092    2671.9173  0.058718296  0.058388709            7 
 3793000   0.65004245   -3.0688178    2683.3072  0.058953053  0.058376781            4 
 3794000   0.63633724   -3.0539356    2686.1122  0.058999127  0.058364989            4 
 3795000   0.64710006   -3.0643609    2680.2427  0.058854694  0.058353021            7 
 3796000   0.63631106   -3.0630657     2673.885  0.058699618  0.058341148            4 
 3797000   0.65359111   -3.0614136    2682.7456  0.058878623  0.058329379            9 
 3798000   0.64623763   -3.0617429     2682.898  0.058866466   0.05831755            4 
 3799000    0.6503367   -3.0399027    2687.6774  0.058955808  0.058305861            5 
 3800000    0.6375712   -3.0677268    2683.9647  0.058858875  0.058294087            6 
 3801000   0.65867537    -3.046785    2683.6724  0.058836981  0.058282323            8 
 3802000   0.65578724     -3.07119    2686.0508  0.058873636  0.058270522            8 
 3803000   0.64656834   -3.0558267    2693.6367  0.059024382  0.058258812            3 
 3804000   0.63640684   -3.0407497     2687.183  0.058867485  0.058247067           15 
 3805000   0.63813629   -3.0516579    2686.5184   0.05883746  0.058235319            7 
 3806000   0.64287583   -3.0688215    2688.5186  0.058865795  0.058223582            6 
 3807000   0.63150491    -3.079876    2681.8678  0.058704751  0.058211771           17 
 3808000   0.63534377   -3.0602136    2678.1076  0.058607047  0.058199908            5 
 3809000   0.64071476   -3.0573616    2678.1001  0.058591497  0.058188084            9 
 3810000   0.63439723   -3.0767699    2687.7627   0.05878746  0.058176331            4 
 3811000   0.64993413   -3.0485512    2693.6377    0.0589005  0.058164524            8 
 3812000   0.63314511   -3.0553686    2686.7086  0.058733574  0.058152731            5 
 3813000   0.64011309   -3.0739897    2681.6708   0.05860807  0.058140909            7 
 3814000   0.65046361   -3.0591243    2677.2077  0.058495186  0.058129214            7 
 3815000   0.65909459   -3.0595495    2697.4466  0.058921944  0.058117496            4 
 3816000   0.64240829   -3.0602747    2686.2072  0.058661059  0.058105815           13 
 3817000   0.63809148   -3.0741482    2678.9709  0.058487707  0.058093982            4 
 3818000   0.64314777   -3.0739589    2683.7084  0.058575791  0.058082224            6 
 3819000    0.6183784   -3.0365384    2685.4041  0.058597453  0.058070518            5 
 3820000   0.64951388   -3.0805291    2689.6009  0.058673666  0.058058777            9 
 3821000   0.65173848    -3.047443    2687.6321  0.058615374  0.058047011            9 
 3822000   0.63912635   -3.0775899    2684.3957  0.058529472  0.058035281            6 
 3823000   0.65506443    -3.067514    2686.7304  0.058565054  0.058023433            3 
 3824000   0.63852437   -3.0690765     2685.493  0.058522773   0.05801163            4 
 3825000   0.64050283   -3.0475972     2688.452  0.058571939  0.057999751           11 
 3826000   0.63648645   -3.0793592    2693.6542  0.058669938  0.057987932            4 
 3827000   0.64330659   -3.0494299    2689.3591  0.058561082  0.057976113            6 
 3828000   0.64115568   -3.0624872     2686.742   0.05848881  0.057964296            7 
 3829000   0.63411956   -3.0587617    2684.7639  0.058430484  0.057952454            6 
 3830000   0.63673119   -3.0470439    2690.1608  0.058532654  0.057940619            4 
 3831000   0.65587359   -3.0567838    2690.2437  0.058519179  0.057928821            4 
 3832000   0.63662567   -3.0666233    2687.0367  0.058434166  0.057917083            5 
 3833000   0.63970096   -3.0692412    2683.5573  0.058343275  0.057905281            8 
 3834000   0.64156831   -3.0587977    2681.8902  0.058291823  0.057893424            7 
 3835000   0.63324659   -3.0664844    2689.5835  0.058443796  0.057881535            6 
 3836000   0.61393723   -3.0704434    2676.3794  0.058141714  0.057869658            5 
 3837000   0.63499173   -3.0765855    2691.2532  0.058449597  0.057857716           11 
 3838000   0.63545317   -3.0661713    2690.4733  0.058417433  0.057845856            6 
 3839000   0.63862365   -3.0690885    2685.0727  0.058284984     0.057834            6 
 3840000   0.63516155   -3.0690502    2684.4413  0.058256104  0.057822129            6 
 3841000   0.64281101   -3.0817962    2688.5912  0.058330973  0.057810231           10 
 3842000   0.63907361   -3.0709969    2693.3003  0.058417931  0.057798385            4 
 3843000   0.62634953   -3.0371031     2694.277  0.058423909  0.057786551            7 
 3844000   0.62666477   -3.0806843    2680.0437  0.058100149  0.057774741            5 
 3845000   0.64860861   -3.0496265    2688.4888  0.058268071  0.057762901            3 
 3846000   0.63315928   -3.0743354    2689.3592  0.058271779  0.057751052            7 
 3847000    0.6425455   -3.0765841    2682.1331  0.058100101  0.057739117            9 
 3848000   0.64077934   -3.0527335    2688.1443  0.058215184  0.057727287            6 
 3849000   0.63571442   -3.0693622    2682.9497  0.058087593  0.057715476           11 
 3850000   0.64620483   -3.0643979    2691.2921  0.058253075  0.057703611            4 
 3851000   0.62507477   -3.0897945    2691.6963  0.058246696  0.057691767           11 
 3852000   0.64407113   -3.0779178    2686.3919  0.058116819  0.057679891            7 
 3853000   0.63151573   -3.0471469    2693.7994  0.058261947  0.057668051           17 
 3854000   0.62556939   -3.0522794     2692.465  0.058217977  0.057656302            3 
 3855000    0.6475903   -3.0707604    2692.0369  0.058193621  0.057644484           13 
 3856000   0.62626925   -3.0701672    2690.0547  0.058135691  0.057632646            9 
 3857000   0.62733046   -3.0657122    2693.5779   0.05819674  0.057620792            7 
 3858000   0.63921783   -3.0645818    2692.5183  0.058158766  0.057608938            6 
 3859000   0.63799505   -3.0623711    2694.7795  0.058192527  0.057597116            3 
 3860000   0.64608455   -3.0739953    2704.6213  0.058389924  0.057585283            9 
 3861000   0.63144306   -3.0700856    2689.9259  0.058057626  0.057573417            5 
 3862000   0.62909533   -3.0726833    2686.8516  0.057976256    0.0575616            8 
 3863000   0.62568117   -3.0869391    2696.1019  0.058160797   0.05754975            4 
 3864000   0.61800066   -3.0646818    2693.5764  0.058091278  0.057537937            4 
 3865000   0.64648193    -3.067496     2687.296  0.057940837   0.05752611            5 
 3866000   0.62918903   -3.0821449    2696.8194   0.05813113  0.057514337            6 
 3867000   0.64361146   -3.0595433    2700.7885  0.058201632  0.057502575            7 
 3868000   0.63489492   -3.0576664    2697.9247  0.058124886  0.057490848           10 
 3869000   0.64557571   -3.0707638    2696.0926  0.058070402  0.057479119            6 
 3870000   0.63621475   -3.0567339    2684.3506  0.057802554  0.057467415           12 
 3871000   0.63332277   -3.0787969    2686.0345  0.057823872  0.057455605            8 
 3872000   0.63924965   -3.0337488    2695.5299  0.058013299  0.057443889           13 
 3873000   0.64456142   -3.0694272    2697.1163  0.058032453  0.057432204            7 
 3874000   0.62246209   -3.0922811    2691.4747  0.057896117   0.05742045            8 
 3875000   0.63498859   -3.0815558    2692.3997  0.057901068  0.057408632           11 
 3876000   0.63435482   -3.0915345    2699.4697  0.058038134  0.057396842            5 
 3877000   0.65418429   -3.0703407    2693.4994  0.057894836  0.057385039           11 
 3878000   0.63253641   -3.0748128    2690.1126  0.057807131  0.057373109            8 
 3879000   0.62381169   -3.0748404    2694.9431  0.057896003  0.057361206           12 
 3880000    0.6190623   -3.0605449     2697.093  0.057927255  0.057349355            4 
 3881000   0.62293546    -3.075415    2693.1151  0.057826915  0.057337476            5 
 3882000   0.62399858   -3.0742018    2695.4097  0.057861277  0.057325648            5 
 3883000   0.63178872    -3.080562    2698.6427  0.057915759  0.057313783            7 
 3884000   0.61143209   -3.0743275    2698.7866  0.057903936  0.057301951           13 
 3885000   0.63483711    -3.067188    2693.7448  0.057780885  0.057290178            6 
 3886000   0.63631922   -3.0787949    2689.7723  0.057680826  0.057278341           12 
 3887000   0.63705501   -3.0765472    2696.6589  0.057813629  0.057266507           27 
 3888000   0.62800518   -3.0864821    2691.7879  0.057694356  0.057254645            6 
 3889000   0.62232314   -3.0814876    2693.1347   0.05770838  0.057242816            8 
 3890000    0.6337559   -3.0705686    2689.3079  0.057611565   0.05723101            6 
 3891000   0.63383025   -3.0738292    2700.4744  0.057835911  0.057219073            7 
 3892000   0.61957961   -3.0733979    2694.7089  0.057697605  0.057207212            4 
 3893000   0.64263826   -3.0866888    2694.4458  0.057677151  0.057195262            5 
 3894000   0.62603074   -3.0657816    2692.6829  0.057624612  0.057183367            4 
 3895000   0.62025716   -3.0603676    2696.2418   0.05768596  0.057171534           10 
 3896000   0.63344597   -3.0445592    2697.4024  0.057695979  0.057159711            7 
 3897000   0.64288938   -3.0942919    2691.1578  0.057547638  0.057147808            7 
 3898000   0.61670253    -3.083098    2689.1252  0.057489422  0.057135902            8 
 3899000    0.6365869   -3.0779782    2700.4363  0.057716429   0.05712398            7 
 3900000   0.62914182   -3.0751694    2695.5564  0.057597359   0.05711208           10 
 3901000    0.6343713   -3.0863763    2696.3739  0.057600057  0.057100172            9 
 3902000   0.61822016   -3.0774841    2694.2093  0.057539068  0.057088211            6 
 3903000   0.64479381   -3.0803393    2689.6531  0.057427046  0.057076404            9 
 3904000   0.63239095   -3.0676887    2696.9752  0.057568629  0.057064475           14 
 3905000   0.60661151    -3.069937    2688.2303   0.05736727  0.057052598            7 
 3906000   0.62485356   -3.0651325    2699.3647  0.057590133   0.05704069            8 
 3907000   0.62761634    -3.083605    2693.8611  0.057458005  0.057028781            6 
 3908000   0.63868434   -3.0860005    2695.1326  0.057470415  0.057016843            7 
 3909000   0.62275514   -3.0785043    2695.8058  0.057470066  0.057005029            6 
 3910000   0.60218938   -3.0928937    2700.3765  0.057552782  0.056993173            8 
 3911000   0.62977495   -3.0636219    2689.5545  0.057307476   0.05698121            5 
 3912000   0.63027884   -3.0678714    2704.7222   0.05761593  0.056969305            5 
 3913000   0.62817538   -3.0751612    2699.3746   0.05748732  0.056957443            5 
 3914000   0.63995323   -3.0971748    2689.8714  0.057270299  0.056945452           11 
 3915000   0.62288948   -3.0853641    2692.8917  0.057319959  0.056933484            5 
 3916000   0.62572665   -3.0853028    2701.4647  0.057487757  0.056921586            2 
 3917000   0.62697562   -3.0738359    2694.9142   0.05733372  0.056909658            5 
 3918000   0.62428715   -3.0882399     2701.241  0.057453654  0.056897762           10 
 3919000   0.62576339   -3.0769835    2690.5657  0.057211994  0.056885813            9 
 3920000   0.61733937   -3.0790776    2691.2442  0.057211825  0.056873819            6 
 3921000   0.61944744    -3.104097    2691.7481  0.057207942  0.056861794            9 
 3922000   0.61107607   -3.0779567    2693.0451  0.057220915  0.056849757            5 
 3923000   0.60769869   -3.0826554    2692.2295  0.057189003  0.056837791            6 
 3924000   0.61977493   -3.0814501    2697.0243  0.057276254  0.056825786            9 
 3925000   0.62290005   -3.0846535    2697.8008  0.057278148  0.056813881            5 
 3926000   0.62986088   -3.0719927    2693.2581  0.057167135  0.056801942           13 
 3927000   0.62168694   -3.0752352    2693.7083  0.057162133  0.056789953            6 
 3928000   0.63801839   -3.0676722    2703.2518  0.057350048  0.056778033            9 
 3929000   0.61939797   -3.0712929    2695.7552  0.057176448  0.056766137            8 
 3930000   0.62592032   -3.0652136    2698.8858  0.057228282  0.056754211            6 
 3931000   0.62242628   -3.0863499     2699.126  0.057218815  0.056742336           14 
 3932000   0.62086829    -3.090137    2694.1133  0.057098028  0.056730365            5 
 3933000   0.62813362   -3.0903764    2704.4925  0.057303427   0.05671844            9 
 3934000   0.62804302   -3.0859854    2691.8903   0.05702191  0.056706488            6 
 3935000   0.62042703   -3.0757526    2700.2192  0.057183803   0.05669466            6 
 3936000   0.62273221   -3.0727889    2698.4465  0.057131744  0.056682701            8 
 3937000    0.6283896   -3.0924534    2695.3107  0.057050858  0.056670723            9 
 3938000   0.60986401   -3.0819586    2701.9004  0.057175817  0.056658748            7 
 3939000   0.63487046   -3.0915965    2695.6108   0.05702824  0.056646792            4 
 3940000   0.61598264   -3.0907388    2699.7899  0.057102155  0.056634829            2 
 3941000   0.61537772   -3.0632149    2694.0443  0.056966174  0.056622949            7 
 3942000   0.60981562   -3.0896387    2693.6957  0.056944354  0.056611011            8 
 3943000   0.62355994   -3.1010718    2699.9319   0.05706171  0.056599126            5 
 3944000    0.6159014   -3.1157008    2701.4892  0.057080146  0.056587253            7 
 3945000   0.61666367   -3.1034398    2702.1459  0.057079551  0.056575358            7 
 3946000   0.62440004   -3.0531133    2709.0904  0.057211741  0.056563526            6 
 3947000   0.62076989   -3.1156559    2701.4688  0.057036332  0.056551683            6 
 3948000   0.61855778   -3.1067531     2705.142  0.057099417  0.056539783            7 
 3949000   0.61781656   -3.0941108    2705.7663  0.057098133  0.056527913           13 
 3950000   0.61822989   -3.0771945    2704.8624  0.057064608  0.056516048            4 
 3951000   0.62871934    -3.084675    2709.6279  0.057150677   0.05650419            7 
 3952000   0.63062705   -3.0892133    2694.8105   0.05682377  0.056492364           13 
 3953000   0.62285097   -3.0854012    2707.3253   0.05707322  0.056480421            5 
 3954000   0.62547969   -3.0947976     2697.501  0.056851733   0.05646856            5 
 3955000   0.61813608   -3.0896633    2696.3843  0.056813829   0.05645671            7 
 3956000   0.62442187   -3.1081759    2710.0953   0.05708829  0.056444793            9 
 3957000    0.6030746   -3.0939633    2713.0853  0.057136831  0.056432855            4 
 3958000   0.62803373   -3.1022973    2703.0479  0.056911064  0.056421025            6 
 3959000   0.61872914    -3.099128     2703.858  0.056913741  0.056409236            4 
 3960000   0.62478847   -3.0999562    2701.2093   0.05684363  0.056397358            8 
 3961000   0.62156165     -3.10882    2714.4009   0.05710681  0.056385513            5 
 3962000   0.61795326   -3.1052033    2703.4749  0.056862587  0.056373698            6 
 3963000    0.6189177   -3.0768679    2706.4299  0.056910378  0.056361911            7 
 3964000    0.6034562   -3.0979289    2707.7075  0.056922878  0.056350098            9 
 3965000   0.62345533    -3.105471    2699.9368  0.056745204  0.056338365            4 
 3966000   0.62462613   -3.0973967    2704.9208  0.056835618  0.056326573            7 
 3967000   0.62160127   -3.1082584    2704.7592  0.056817898  0.056314817           10 
 3968000   0.62728983   -3.0948605    2713.9101  0.056995761  0.056303109            5 
 3969000    0.6233886   -3.0828836    2709.4523  0.056887803  0.056291363           13 
 3970000   0.62337184   -3.0932198    2710.2759  0.056890763  0.056279552           11 
 3971000   0.62646629   -3.1106648    2706.3284  0.056793595  0.056267714            6 
 3972000   0.61261749   -3.1028796    2704.0837  0.056732203  0.056255929           20 
 3973000   0.62366526   -3.1136422    2705.6578  0.056750939  0.056244206            6 
 3974000   0.61018624   -3.0805385    2706.5344  0.056755042  0.056232474            9 
 3975000    0.6035911   -3.1096946    2708.6793   0.05678573   0.05622074            6 
 3976000   0.61024368   -3.0934794    2713.9235  0.056881361  0.056208966           15 
 3977000   0.60112504   -3.0921931    2702.9574  0.056637276  0.056197212           11 
 3978000   0.60987552   -3.0977949    2705.6052  0.056678507  0.056185427           12 
 3979000   0.62397424    -3.094617    2700.9884  0.056567571  0.056173593            6 
 3980000   0.61585753   -3.0912785    2711.5493  0.056774484   0.05616181           14 
 3981000   0.60467254   -3.1004994    2707.0214  0.056665439  0.056150077            4 
 3982000   0.61366117   -3.1186143    2703.1623  0.056570449  0.056138325           16 
 3983000   0.60669902   -3.1172302    2706.6092  0.056628362  0.056126536            8 
 3984000   0.60911778   -3.1042537    2709.2264  0.056668892  0.056114697           12 
 3985000   0.61822629   -3.1050965    2707.7248  0.056623271  0.056102848            8 
 3986000   0.61842702   -3.1142341    2705.1076  0.056554348   0.05609105            6 
 3987000   0.61910471   -3.1107918    2711.0485  0.056664336  0.056079235            3 
 3988000   0.61637007   -3.0926309    2710.6836  0.056642503  0.056067418            4 
 3989000   0.61844813   -3.0999622    2710.2259   0.05661874  0.056055573            4 
 3990000   0.61133753   -3.1149498    2699.3484  0.056377369  0.056043781            6 
 3991000   0.61024435    -3.093305    2705.1948  0.056485316  0.056031867            4 
 3992000   0.61366337   -3.1008892    2712.1003  0.056615321  0.056020044            9 
 3993000    0.6241377   -3.0939488    2706.5507  0.056485322  0.056008249            3 
 3994000   0.60901287   -3.0932875    2709.4019  0.056530668  0.055996421            7 
 3995000   0.63525458   -3.1075151     2709.877  0.056526429  0.055984665            7 
 3996000   0.61421219    -3.104335    2706.2336  0.056436304  0.055972881            7 
 3997000    0.6140498   -3.1120069    2706.7184  0.056432291  0.055961057            8 
 3998000   0.61473718   -3.0989344    2710.4108   0.05649514   0.05594918            9 
 3999000   0.61999432   -3.1011944    2706.2787  0.056394904  0.055937355            6 
 4000000   0.61452018   -3.1110179    2705.2333  0.056359026  0.055925408            8 
 4001000   0.61242002   -3.1103465    2708.9296  0.056421928  0.055913482            5 
 4002000   0.61860866   -3.0969691     2705.617  0.056338852  0.055901671            6 
 4003000   0.60994349   -3.1045716    2704.8359  0.056308517  0.055889806           11 
 4004000   0.62529774   -3.1286821    2709.7245  0.056396198  0.055878013            7 
 4005000    0.6205978   -3.0896738    2709.2597  0.056372445  0.055866193           11 
 4006000   0.60839871   -3.0952616    2703.1611  0.056231509  0.055854346            6 
 4007000    0.6223766   -3.1062223     2712.102  0.056403419  0.055842545           16 
 4008000   0.60663194   -3.0976169    2712.8816  0.056405555    0.0558307            8 
 4009000   0.60879008   -3.1072398    2704.4717  0.056216673  0.055818878           10 
 4010000    0.6065534   -3.1053919    2718.7249  0.056498855  0.055807074            8 
 4011000   0.61738301   -3.1098904    2714.6744  0.056400616  0.055795263            7 
 4012000   0.61590417   -3.0884848    2710.7559  0.056305165  0.055783494            5 
 4013000    0.6243768   -3.1109227    2714.5673  0.056370282  0.055771699            5 
 4014000   0.61292864   -3.1142197    2707.5972  0.056211535  0.055759855            5 
 4015000   0.60301777   -3.1233262    2707.3337  0.056192066  0.055748022            8 
 4016000   0.59494994   -3.1215622    2716.5475  0.056369263  0.055736186            7 
 4017000   0.61103611   -3.1237983    2713.9152  0.056300623  0.055724316            5 
 4018000    0.6043348   -3.0971362    2712.8885  0.056265317  0.055712502            9 
 4019000    0.6235162   -3.1241672    2712.8766   0.05625107  0.055700661           15 
 4020000   0.61046926   -3.0894569    2717.2528  0.056327793  0.055688877            6 
 4021000   0.61060112   -3.0981837     2720.234  0.056375569  0.055677171            3 
 4022000   0.60456855   -3.1117349    2711.3784  0.056178071  0.055665379           13 
 4023000   0.60136285   -3.1183787    2713.0728  0.056199205  0.055653505            7 
 4024000   0.61209373   -3.1179174    2716.2579  0.056251198  0.055641699            6 
 4025000    0.6237678   -3.1207929    2713.9475  0.056189389   0.05562983            5 
 4026000   0.60725966   -3.1100496    2710.4236  0.056102492  0.055618052           14 
 4027000   0.60693867   -3.1124178    2708.1925  0.056042392  0.055606168            6 
 4028000   0.61100813   -3.1218485    2709.7602  0.056060911  0.055594361           10 
 4029000   0.60246783    -3.106907    2714.3574  0.056142082  0.055582549            8 
 4030000   0.59292592     -3.11515    2710.2932   0.05604411  0.055570729            6 
 4031000   0.60241574    -3.105102    2703.2982  0.055885598  0.055558934            7 
 4032000   0.60264718   -3.1069024    2713.9648  0.056092197  0.055547116            9 
 4033000   0.60767597   -3.1067405      2711.05  0.056018059  0.055535371            4 
 4034000   0.61695064   -3.1019812     2715.348  0.056092961  0.055523694           10 
 4035000   0.60620357   -3.1308368    2706.3873  0.055893996  0.055511886           10 
 4036000    0.6074213   -3.1095736    2712.1362  0.055998849   0.05550009            5 
 4037000   0.59497718    -3.100554    2717.2217  0.056089953  0.055488396            9 
 4038000    0.6200751   -3.1023196    2712.1349  0.055971085   0.05547658            7 
 4039000   0.61236861   -3.1130309    2714.2824  0.056001534  0.055464762            7 
 4040000   0.59906364   -3.1125563    2711.6948  0.055934299  0.055452921            5 
 4041000     0.604718   -3.1201597    2709.0081  0.055865052  0.055441094            5 
 4042000   0.61061166   -3.1124177    2712.3391  0.055919905  0.055429275           13 
 4043000   0.60614559   -3.1063238    2714.5645  0.055951944  0.055417452            4 
 4044000   0.60915954   -3.1267426     2714.708  0.055941064  0.055405694            6 
 4045000   0.60136575   -3.1214786    2709.8732  0.055827631  0.055393864            7 
 4046000   0.61317821   -3.1258184    2704.3554  0.055700185   0.05538205           13 
 4047000   0.60143416   -3.1281398    2721.9457  0.056048631  0.055370251            5 
 4048000   0.60027382   -3.1216993     2721.372  0.056022974  0.055358396           15 
 4049000    0.6015862   -3.1117686    2713.9745  0.055856888  0.055346626            5 
 4050000   0.58239962   -3.1011589    2709.6204  0.055753505  0.055334833            3 
 4051000    0.6119562   -3.1183272    2712.4003  0.055796928  0.055322907            9 
 4052000    0.5987726   -3.1219038    2716.5915  0.055869354  0.055311126            3 
 4053000   0.61789579   -3.1143341    2709.6472  0.055712789  0.055299261            8 
 4054000   0.60192673   -3.1278325    2710.3037  0.055712541  0.055287344           11 
 4055000   0.60371598   -3.1120791    2716.0932  0.055817781  0.055275538            5 
 4056000   0.60253478   -3.1405251    2720.8969  0.055902715  0.055263696            7 
 4057000   0.60454282   -3.1096793    2726.0611  0.055995012   0.05525185            8 
 4058000   0.60585364   -3.1172573    2714.3411  0.055740536  0.055240074            6 
 4059000   0.59425455   -3.1222978    2714.1608    0.0557231  0.055228339            8 
 4060000   0.61576093   -3.1086567    2716.4267  0.055755885  0.055216604           12 
 4061000   0.60450998   -3.1119069    2712.6238  0.055664118  0.055204776           16 
 4062000   0.58918788   -3.1141646    2713.0667    0.0556595  0.055192946            7 
 4063000   0.60673102   -3.1189864    2708.1979  0.055545941  0.055181114            7 
 4064000    0.6022469     -3.11785    2716.7823  0.055708298  0.055169198           16 
 4065000   0.60454622   -3.1185608    2718.3537  0.055726808  0.055157445            6 
 4066000   0.59404885   -3.1104166    2713.7761  0.055619285  0.055145672           11 
 4067000   0.59565508   -3.1121828    2719.9159  0.055731413  0.055133851            9 
 4068000   0.59532391   -3.1129439    2712.7812  0.055571558  0.055121957            8 
 4069000   0.60651995   -3.1118034     2720.284  0.055711559  0.055110192            8 
 4070000   0.59909034   -3.1330521    2710.8125  0.055503941  0.055098332            6 
 4071000   0.60630924   -3.1176071    2720.3589  0.055685722  0.055086519            6 
 4072000   0.59898572   -3.1132053    2719.6924  0.055658406  0.055074717            7 
 4073000   0.60253045   -3.1235893    2724.9997   0.05575333  0.055062938           12 
 4074000   0.61123905    -3.135088    2713.8127  0.055510814  0.055051101            8 
 4075000   0.60159566   -3.1344669    2716.7129  0.055556502  0.055039206           11 
 4076000   0.60915591   -3.1188837    2722.3635  0.055658397  0.055027415            8 
 4077000   0.59950742   -3.1276281    2711.2895  0.055418393  0.055015632           12 
 4078000   0.60710679   -3.1308465    2728.7254  0.055761104  0.055003827            5 
 4079000   0.60446077   -3.1369532    2719.3859  0.055556629   0.05499193            8 
 4080000   0.59604325   -3.1278231    2717.6484  0.055507524  0.054980075           12 
 4081000   0.59643232   -3.0953436    2717.3513  0.055487857  0.054968167            6 
 4082000   0.59337134   -3.1123208    2719.0302  0.055508537  0.054956282            5 
 4083000   0.60279641   -3.1277574    2715.8984  0.055431023  0.054944384            8 
 4084000   0.59688527   -3.1041939    2712.5946  0.055350037  0.054932519            4 
 4085000   0.58220832   -3.1266278    2714.2619  0.055370501  0.054920579           17 
 4086000   0.59514712   -3.1208638    2717.5102  0.055423198  0.054908694            6 
 4087000   0.59821526   -3.1072516    2717.8979  0.055417541  0.054896821           15 
 4088000   0.59434472   -3.1225309    2716.4514  0.055374498  0.054884955            8 
 4089000   0.58956328   -3.1301576     2710.464  0.055238934  0.054873084            9 
 4090000   0.59271965   -3.1300687    2713.3742  0.055284723  0.054861214            7 
 4091000   0.59192229   -3.1304779    2716.0387  0.055325486  0.054849307           10 
 4092000   0.59483088   -3.1255248    2709.7097  0.055183074  0.054837388            6 
 4093000   0.58835608   -3.1341549    2709.5659  0.055166665  0.054825463            7 
 4094000   0.59246439    -3.124467    2713.5421  0.055234125  0.054813421            5 
 4095000   0.59173285   -3.1293329      2722.67   0.05540639  0.054801562           10 
 4096000   0.60450045    -3.122176    2717.4042  0.055285731  0.054789699            8 
 4097000   0.60607044   -3.1232016    2707.8354  0.055077605  0.054777841            9 
 4098000   0.59311891   -3.1359227    2712.4284  0.055157565  0.054765853            8 
 4099000   0.58059953   -3.1321729    2707.9391  0.055052841  0.054753936           20 
 4100000   0.60469026   -3.1304737    2724.6068  0.055378187  0.054742032           12 
 4101000   0.60360034   -3.1259635    2716.6794  0.055203597  0.054730194            7 
 4102000   0.59331208    -3.124884    2717.3149  0.055203049  0.054718291            9 
 4103000   0.60803797   -3.1313903    2715.4478  0.055151674   0.05470634            8 
 4104000   0.60345606   -3.1080645    2718.9827  0.055210012   0.05469438            6 
 4105000     0.585737   -3.1412371    2712.0632  0.055056095  0.054682464            8 
 4106000   0.58618561   -3.1332262    2714.9623  0.055101524  0.054670544            9 
 4107000   0.60155168   -3.1408303    2716.9807  0.055129062  0.054658651            5 
 4108000   0.59532669   -3.1257926    2712.4019  0.055022758  0.054646758           11 
 4109000    0.5905949   -3.1237749    2715.9415  0.055081153  0.054634853            9 
 4110000   0.59531479   -3.1445953    2715.8652  0.055066204  0.054622935            9 
 4111000     0.591963   -3.1287054    2713.3392  0.055001605  0.054610984           11 
 4112000   0.58188783   -3.1184258     2719.783  0.055118818  0.054599031           12 
 4113000   0.59786692   -3.1170961    2717.2643  0.055054386  0.054587131            6 
 4114000   0.60652864   -3.1411253     2710.965  0.054913406  0.054575203            9 
 4115000   0.58351336   -3.1440385    2719.5772  0.055074468  0.054563284            9 
 4116000   0.58865483   -3.1519192    2716.7833   0.05500452  0.054551377           13 
 4117000   0.59030839    -3.150968    2709.9616   0.05485308  0.054539442           13 
 4118000   0.59967482    -3.146824    2720.9727  0.055062584  0.054527517            8 
 4119000   0.58687037   -3.1391134    2721.2144  0.055054108  0.054515612            4 
 4120000   0.59411224   -3.1179714    2724.9277  0.055115852  0.054503776           10 
 4121000   0.58274985   -3.1289177    2729.3499    0.0551919  0.054491928            7 
 4122000   0.58377854   -3.1372649    2712.8978  0.054845905  0.054480102            6 
 4123000     0.603323   -3.1215067      2724.57  0.055068519  0.054468299            7 
 4124000   0.60392197   -3.1072716    2724.8193  0.055060203  0.054456525           23 
 4125000   0.58558055   -3.0949022    2720.6845  0.054963323  0.054444816           11 
 4126000     0.586884   -3.1373439    2716.9139  0.054873847  0.054432979            4 
 4127000   0.59572294   -3.1347297    2721.6682   0.05495655  0.054421121            5 
 4128000   0.58867448   -3.1551671    2713.3886  0.054776093  0.054409221            6 
 4129000   0.58654511   -3.1191229    2724.3279  0.054983609  0.054397363           12 
 4130000   0.59783104   -3.1424784    2719.2065  0.054866959   0.05438553            8 
 4131000   0.58149054   -3.1358585    2730.2578  0.055076612  0.054373689            4 
 4132000   0.57836595   -3.1310785    2726.8375  0.054994302  0.054361914            6 
 4133000   0.59453981   -3.1587531    2719.4139  0.054831315  0.054350115           10 
 4134000   0.57889478   -3.1230032    2726.1777  0.054954397  0.054338277            6 
 4135000   0.58842671   -3.1379727    2722.7638  0.054872306  0.054326528            9 
 4136000   0.57931939   -3.1236875    2719.2233  0.054787704   0.05431478            8 
 4137000   0.58525228    -3.120611    2721.4059  0.054818426  0.054303057           10 
 4138000   0.59061452   -3.1403658    2717.5392  0.054727307  0.054291319            5 
 4139000    0.5924118   -3.1380929    2723.4126  0.054832338  0.054279508           13 
 4140000   0.58528966   -3.1214117    2728.5117  0.054921733  0.054267674           12 
 4141000   0.59542195   -3.1400129    2719.1477   0.05472003  0.054255903           13 
 4142000   0.59285277   -3.1327728    2717.1005  0.054665631  0.054244082            7 
 4143000   0.58796417   -3.1328827    2718.3661  0.054677892  0.054232245            9 
 4144000   0.59466334   -3.1456462    2714.5342  0.054587641  0.054220354            4 
 4145000   0.59615574   -3.1425955    2725.9107   0.05480319  0.054208491            5 
 4146000   0.60400935   -3.1671808    2716.4078  0.054598967   0.05419659           10 
 4147000    0.5760389   -3.1627162    2716.0643  0.054578899  0.054184725            8 
 4148000   0.57620968   -3.1571581    2721.0725  0.054666356   0.05417285           12 
 4149000   0.58378556   -3.1390858    2720.5634  0.054642954  0.054160982           20 
 4150000   0.59078463   -3.1321157      2719.39  0.054606224  0.054149123            8 
 4151000   0.58446535   -3.1438063    2727.0724  0.054747298  0.054137268            8 
 4152000   0.58592123   -3.1196263    2728.8252  0.054769292  0.054125458            4 
 4153000   0.58174291   -3.1435669    2724.8708  0.054676756  0.054113643           13 
 4154000   0.59130554   -3.1388115    2717.3942  0.054513605  0.054101801            5 
 4155000    0.5957161   -3.1382329    2723.8357  0.054629678  0.054090026           19 
 4156000   0.59436368   -3.1512748    2727.3109  0.054686215  0.054078229            4 
 4157000    0.5890481   -3.1421557    2721.5583   0.05455774  0.054066377            5 
 4158000   0.59300598   -3.1485135    2721.5288  0.054544028  0.054054573           10 
 4159000   0.59831911   -3.1471782    2723.2442  0.054565284   0.05404275           18 
 4160000    0.5865097   -3.1500986    2725.6559  0.054600479   0.05403091           13 
 4161000   0.58029466   -3.1501308    2724.0833  0.054555861  0.054019024            5 
 4162000   0.58987212   -3.1450504    2721.2455  0.054485934  0.054007214           14 
 4163000    0.5741854     -3.15781    2731.6965  0.054682051  0.053995309           10 
 4164000   0.59210201   -3.1471139    2716.9454  0.054373707  0.053983419            7 
 4165000   0.58551338   -3.1395721    2720.4094  0.054429961  0.053971604            7 
 4166000   0.58193121   -3.1547148    2718.5787  0.054380275  0.053959706            4 
 4167000   0.58437232   -3.1217216    2725.7643  0.054510925  0.053947906           12 
 4168000   0.58044191    -3.145393    2726.6539  0.054515633  0.053936098            3 
 4169000   0.58374005   -3.1383148    2713.0659  0.054230948  0.053924204            7 
 4170000   0.60298215   -3.1368946    2725.8765  0.054473952  0.053912272           13 
 4171000   0.57130467   -3.1473703    2719.0472  0.054324447  0.053900346            5 
 4172000   0.58972541   -3.1392323    2724.1627  0.054413605  0.053888469            6 
 4173000   0.58255564   -3.1484224    2720.4866  0.054327155  0.053876622            6 
 4174000   0.58328881   -3.1406222    2720.8835  0.054322063  0.053864775           15 
 4175000   0.58788145   -3.1601087     2716.382  0.054219201   0.05385289           13 
 4176000   0.58508655   -3.1382818     2721.714  0.054312619  0.053840992           10 
 4177000   0.57453229   -3.1470059     2719.598  0.054257402  0.053829153           10 
 4178000   0.58151805   -3.1451944    2719.0776  0.054234036  0.053817272            5 
 4179000   0.59415821   -3.1547685    2731.9175  0.054477098  0.053805426            6 
 4180000   0.57888373    -3.157067    2724.9021  0.054324204  0.053793642            7 
 4181000   0.59613322   -3.1456054    2724.1999  0.054297216  0.053781835            5 
 4182000   0.57996802   -3.1546481    2719.2722  0.054186039  0.053770062           12 
 4183000   0.56856405   -3.1610201     2728.488  0.054356682   0.05375826            5 
 4184000   0.58581692   -3.1382199    2736.4878  0.054503024   0.05374641            5 
 4185000    0.5909494    -3.152154    2723.6256  0.054233882  0.053734592           17 
 4186000   0.59961416    -3.141212    2727.8118  0.054304264   0.05372282            6 
 4187000   0.58012549   -3.1545569    2725.5338  0.054245957  0.053710987            7 
 4188000   0.57883145   -3.1644125    2721.0978  0.054144736  0.053699131           14 
 4189000   0.57881234   -3.1756227     2727.789   0.05426492  0.053687292            6 
 4190000    0.5802696   -3.1503703    2722.8339  0.054153419  0.053675492           10 
 4191000   0.58242061   -3.1519549    2726.4457  0.054212313  0.053663773           10 
 4192000   0.57492862   -3.1472196    2731.3459  0.054296793  0.053651986            7 
 4193000   0.58466804   -3.1564001     2720.838  0.054075006  0.053640218            7 
 4194000   0.56586735   -3.1758634    2721.6881  0.054079004  0.053628378           17 
 4195000   0.58353048   -3.1355758    2727.7803  0.054187133  0.053616542           11 
 4196000   0.58501831   -3.1483171    2724.3571  0.054106234  0.053604795            7 
 4197000   0.57678749   -3.1519239    2726.0775  0.054127502  0.053592966           12 
 4198000   0.56775227   -3.1715588    2722.6245  0.054046063  0.053581188            8 
 4199000   0.57611468   -3.1197473    2731.1927  0.054203236  0.053569412            7 
 4200000   0.57893523   -3.1649545     2730.266  0.054171945  0.053557657            5 
 4201000   0.59533287   -3.1591408    2728.6056  0.054126112  0.053545933            7 
 4202000   0.57891477   -3.1408447    2728.7086  0.054115274  0.053534208           12 
 4203000   0.58871857    -3.162254    2726.3198  0.054055036  0.053522493            9 
 4204000   0.59365933   -3.1455749    2730.5267  0.054125568  0.053510773            6 
 4205000    0.5705677   -3.1707988    2734.4793  0.054191028  0.053499018            9 
 4206000   0.57733997   -3.1607055    2734.7407  0.054183323  0.053487254           10 
 4207000   0.57121281   -3.1648752    2727.3431  0.054023911  0.053475564           12 
 4208000   0.57776317   -3.1414492    2734.5341  0.054153479  0.053463909            8 
 4209000   0.58355668   -3.1626694    2733.2006  0.054114212  0.053452228            8 
 4210000   0.57598043   -3.1514733    2722.4249  0.053888062  0.053440587            5 
 4211000   0.58245578   -3.1441768    2731.0704  0.054046355  0.053428842            4 
 4212000   0.56770762   -3.1469779    2732.4007  0.054059842  0.053417171            5 
 4213000   0.56622078   -3.1553877    2728.0588  0.053961128  0.053405483            6 
 4214000   0.56993203   -3.1532301    2729.7633  0.053982031  0.053393772           15 
 4215000   0.56875204   -3.1489725     2731.717  0.054007849  0.053382116           13 
 4216000    0.5768234   -3.1786356    2720.8146  0.053779543   0.05337041            7 
 4217000   0.58990105   -3.1620195    2732.4414   0.05399655   0.05335866            7 
 4218000   0.57193101   -3.1687241    2720.2038  0.053741975  0.053346882            6 
 4219000   0.59117061   -3.1510839    2727.2563  0.053868536  0.053335057            8 
 4220000    0.5646536   -3.1534173    2726.1994  0.053834901  0.053323271            3 
 4221000   0.56649668   -3.1545754    2733.6891  0.053970012  0.053311522            8 
 4222000   0.56753069   -3.1574822    2729.3562  0.053871708  0.053299769           10 
 4223000   0.57543751   -3.1696563    2731.8082  0.053907337  0.053287995            8 
 4224000   0.57214828    -3.138195    2733.9593  0.053937012  0.053276305            5 
 4225000    0.5674877   -3.1682266    2730.4443  0.053854918  0.053264621            5 
 4226000   0.58226758   -3.1653369    2735.2614  0.053937163   0.05325289            9 
 4227000   0.58270608   -3.1448024    2728.8824  0.053798643  0.053241238           18 
 4228000   0.57192107   -3.1564971    2735.6474  0.053919256  0.053229574            6 
 4229000   0.58927106   -3.1726624    2728.2102  0.053759956  0.053217911           13 
 4230000   0.57891597   -3.1818968    2723.4772  0.053654004  0.053206153            7 
 4231000   0.57939864   -3.1784619     2726.777  0.053706315  0.053194357            7 
 4232000   0.58071384   -3.1484673    2734.9193  0.053853956  0.053182649            7 
 4233000   0.57298998   -3.1773993    2730.1013  0.053746383  0.053170897            8 
 4234000   0.56709683   -3.1508022    2738.4282  0.053897579  0.053159217           16 
 4235000   0.57293686   -3.1623418    2723.5265  0.053591626  0.053147531            6 
 4236000   0.58692639   -3.1537688    2733.7365  0.053779833  0.053135824            8 
 4237000   0.57534493   -3.1472545    2731.7402  0.053727877  0.053124196            6 
 4238000   0.57033189   -3.1648636    2730.9771  0.053700194  0.053112519            6 
 4239000   0.56238882    -3.173317     2740.665  0.053877979  0.053100942            8 
 4240000   0.58000809   -3.1730304    2738.8477  0.053829553  0.053089284            5 
 4241000   0.57614627   -3.1571566    2727.4324  0.053592557  0.053077669            5 
 4242000   0.58108897   -3.1804471     2728.166  0.053594335  0.053066055            5 
 4243000   0.56062091    -3.180446    2730.0033  0.053617788  0.053054364            9 
 4244000   0.56873887   -3.1596543    2730.2854  0.053610693  0.053042706            6 
 4245000   0.57307552   -3.1612712    2739.8445  0.053785718  0.053031069            6 
 4246000   0.57148374    -3.162832    2732.5786  0.053630448  0.053019381            6 
 4247000   0.56148046   -3.1641978     2730.388  0.053574837  0.053007802           10 
 4248000   0.56499292   -3.1511542    2735.9625  0.053671581  0.052996193            9 
 4249000    0.5662022   -3.1553972    2734.2889  0.053626126  0.052984668            8 
 4250000    0.5761139    -3.150538    2737.2499  0.053671566  0.052973143            6 
 4251000   0.57813312   -3.1594739    2733.3473  0.053582438  0.052961495            9 
 4252000   0.57581072   -3.1521107    2732.0064  0.053543556  0.052949892           12 
 4253000    0.5667083   -3.1744276     2730.751  0.053506368  0.052938271            8 
 4254000   0.57567219   -3.1687697    2736.6524  0.053609396  0.052926618            8 
 4255000   0.56039904   -3.1592061    2737.7266  0.053617834  0.052914986           14 
 4256000   0.58464947   -3.1774824    2736.8065   0.05358722  0.052903395           10 
 4257000   0.57685567   -3.1779513    2727.8145  0.053398609  0.052891791            9 
 4258000   0.56634503   -3.1634754    2735.3228  0.053533012  0.052880145            9 
 4259000    0.5714282   -3.1709728    2741.9979   0.05365105  0.052868554           10 
 4260000   0.57298569   -3.1539817    2735.5581  0.053512482  0.052856964           13 
 4261000   0.56085715   -3.1535129    2741.7642  0.053621298  0.052845451           18 
 4262000     0.569386   -3.1744635    2738.5706  0.053546273  0.052833849           12 
 4263000   0.56175008   -3.1799089    2736.5795   0.05349479  0.052822245           11 
 4264000   0.56679821   -3.1724015    2732.8612  0.053409577  0.052810615            6 
 4265000    0.5678137   -3.1651381    2738.9829  0.053516665  0.052799061            5 
 4266000   0.57458526   -3.1855352    2733.7086  0.053401091  0.052787518           18 
 4267000   0.56530797   -3.1780557    2742.9031  0.053568141  0.052775938            4 
 4268000   0.57361608   -3.1684966    2734.3943  0.053389454  0.052764349            8 
 4269000   0.56891533    -3.178441    2732.8702  0.053347198  0.052752788            9 
 4270000   0.57248251   -3.1842414    2746.7991   0.05360654  0.052741196           18 
 4271000   0.56592723   -3.1744392    2738.2733  0.053427637  0.052729655           11 
 4272000   0.56806583   -3.1621612    2735.5957  0.053362899  0.052718142            8 
 4273000   0.55736135   -3.1646642    2745.3792  0.053541212  0.052706704           22 
 4274000   0.56666933   -3.1739426    2746.1607  0.053543922  0.052695186           12 
 4275000   0.57544021   -3.1742178    2739.2768  0.053397208  0.052683704            6 
 4276000   0.56640518   -3.1772228    2736.3547  0.053327774  0.052672199           20 
 4277000    0.5706125   -3.1879348    2744.9369   0.05348252  0.052660676            7 
 4278000   0.56961761   -3.1750705    2743.8684  0.053449205  0.052649129            6 
 4279000   0.57172474   -3.1654577    2733.7171  0.053239018  0.052637559           10 
 4280000   0.56011147   -3.1855139    2740.5041  0.053358725  0.052626025            8 
 4281000   0.56766274   -3.1815975    2745.6211  0.053445868  0.052614496            6 
 4282000   0.56660701   -3.1990057     2736.787  0.053261462   0.05260296            9 
 4283000   0.56923766   -3.1779398     2737.047  0.053254086  0.052591406           12 
 4284000   0.56879355   -3.1610234    2748.5449  0.053465314  0.052579882            5 
 4285000    0.5613215   -3.1707742     2741.164  0.053309297  0.052568395            6 
 4286000   0.56467952   -3.1721528    2741.5157  0.053303697   0.05255683            5 
 4287000   0.57485691   -3.1832721    2739.6001  0.053254026  0.052545279            7 
 4288000   0.56723508   -3.1750885    2732.3472  0.053100653   0.05253376           10 
 4289000   0.55422697   -3.1907074    2738.7151  0.053211997  0.052522181            7 
 4290000   0.56488305   -3.1784187    2740.1006  0.053226507  0.052510597           15 
 4291000   0.55540437   -3.1792209    2738.0056  0.053173417  0.052499017           19 
 4292000   0.55060331   -3.1855699    2737.0134  0.053141764  0.052487413            8 
 4293000   0.56382294   -3.1789369    2742.1287  0.053228681  0.052475837           12 
 4294000   0.56005747   -3.1905001    2736.9464  0.053115712  0.052464268           11 
 4295000   0.56351517   -3.1796909     2731.543  0.052998506  0.052452654            6 
 4296000   0.56113671   -3.1799663     2743.553  0.053219137  0.052441036            7 
 4297000   0.57800848   -3.1917581    2729.0655  0.052925791  0.052429466           11 
 4298000   0.56138756   -3.1747978    2740.6042  0.053137199  0.052417845            5 
 4299000   0.57254202   -3.1826149    2735.2078  0.053020234  0.052406257           12 
 4300000   0.55018292   -3.1860184    2725.8341  0.052826243   0.05239461            6 
 4301000   0.56747265   -3.1658048    2743.1163  0.053148809  0.052383039            5 
 4302000   0.56558475   -3.1816899    2737.6789  0.053031127  0.052371398           19 
 4303000   0.56383559   -3.1943864    2728.5144  0.052841321  0.052359753           10 
 4304000   0.56385647   -3.1768582    2734.4177  0.052943341   0.05234813            7 
 4305000   0.55157924   -3.1737124    2741.6171  0.053070405  0.052336568           17 
 4306000   0.56752963   -3.2133916    2743.9486    0.0531032  0.052324973           13 
 4307000   0.55548825   -3.1828078    2735.8849  0.052934852  0.052313388           11 
 4308000   0.56466607   -3.1824554    2736.8316  0.052940877  0.052301781            7 
 4309000   0.56020502   -3.1864486    2736.5898  0.052923915  0.052290146            8 
 4310000   0.54931174   -3.1952048    2736.9704  0.052918994  0.052278527            7 
 4311000   0.56399164   -3.2012285    2736.9612  0.052906542  0.052266902           21 
 4312000   0.54908872   -3.1893412    2733.2982  0.052823482  0.052255273           10 
 4313000   0.56709124   -3.1973228     2734.822  0.052840675  0.052243658           18 
 4314000   0.56209098   -3.1983911    2739.2581  0.052914119  0.052232077            8 
 4315000   0.58059451   -3.1925565    2737.9294  0.052876195   0.05222049           10 
 4316000   0.55979807   -3.1949962    2740.2966   0.05290965  0.052208988            4 
 4317000   0.56398147   -3.1796199    2732.5298  0.052747467  0.052197397            6 
 4318000   0.56609153   -3.1956553    2744.4564  0.052965424   0.05218587           14 
 4319000   0.54360875   -3.1743654    2745.3393  0.052970196  0.052174289            6 
 4320000   0.55744841   -3.1798312    2737.6606  0.052809811  0.052162755           11 
 4321000    0.5487052   -3.1860718    2743.0025  0.052900611  0.052151129           12 
 4322000   0.57201515   -3.1857701    2738.2393  0.052796531  0.052139605            9 
 4323000   0.55613159   -3.1950619    2739.7031  0.052812536  0.052128028           16 
 4324000   0.56019857   -3.1914411    2742.1841  0.052848136  0.052116517           13 
 4325000   0.55353172   -3.1759303    2740.7929  0.052809112  0.052104952           10 
 4326000   0.56226422   -3.1993299    2735.3519  0.052692093  0.052093394            5 
 4327000   0.55275946    -3.173763    2739.5635  0.052761026  0.052081815            7 
 4328000   0.56034188   -3.1807196     2737.772  0.052714341  0.052070213            6 
 4329000   0.56677489    -3.192074     2739.897   0.05274307  0.052058647            8 
 4330000   0.55729861   -3.1997377    2742.5865   0.05278265  0.052047123           13 
 4331000   0.56280464   -3.1901052    2746.9573  0.052854562  0.052035592            6 
 4332000   0.55373035   -3.1934103    2734.7397  0.052607334  0.052024082            3 
 4333000     0.572563   -3.1958128    2738.3445  0.052664522  0.052012495           24 
 4334000   0.56890237   -3.1904297    2745.8965  0.052797579  0.052000913            7 
 4335000   0.55572118   -3.1855252    2735.4729  0.052585024  0.051989456            6 
 4336000   0.55952438   -3.1799009    2754.1116  0.052931112  0.051977942            4 
 4337000   0.55656367   -3.1803411    2742.4494  0.052694824  0.051966434           10 
 4338000   0.55637932   -3.1980257     2739.287  0.052621927  0.051954922           10 
 4339000   0.56809886   -3.1849988    2745.1447  0.052722299  0.051943429           13 
 4340000   0.56032217    -3.190103      2743.43  0.052677227  0.051931949           24 
 4341000   0.56308071   -3.1994449      2747.07  0.052734969   0.05192043            5 
 4342000   0.56698006   -3.1889346    2741.2921  0.052611932  0.051908919            7 
 4343000   0.55681017   -3.1847761    2745.2681   0.05267611  0.051897416           11 
 4344000   0.56737227   -3.1815019    2737.1449  0.052508152  0.051885951           18 
 4345000   0.55808415   -3.1912336    2744.0038  0.052627615  0.051874464            4 
 4346000   0.56843286   -3.1630157    2746.8149  0.052669407  0.051863034           11 
 4347000   0.56269611   -3.2016852    2743.5336  0.052594388  0.051851549           13 
 4348000   0.55184906   -3.1766622    2733.7312  0.052394418  0.051840024           13 
 4349000   0.54521612   -3.1978837     2740.794  0.052517704  0.051828554           11 
 4350000   0.56135884   -3.1844852    2740.1316  0.052492943  0.051817016           11 
 4351000   0.55713885   -3.1916804    2742.5264  0.052526746  0.051805536           11 
 4352000   0.56892414   -3.2001133    2748.1781  0.052622896  0.051794085           21 
 4353000   0.57214106   -3.1888013    2738.0278   0.05241649  0.051782638            7 
 4354000   0.55804512   -3.2009087    2749.2912  0.052620027  0.051771188            9 
 4355000   0.55301952   -3.1993414    2735.0556  0.052335546  0.051759724            9 
 4356000   0.54841971   -3.1806604    2738.1907  0.052383508  0.051748233           18 
 4357000   0.55800411   -3.1968229    2747.7025   0.05255341  0.051736787           15 
 4358000   0.54058858   -3.2008884    2739.8278  0.052390771  0.051725297            8 
 4359000   0.55744703   -3.2065206    2745.3909  0.052485106  0.051713846           10 
 4360000   0.55045577   -3.2040848    2749.6592  0.052554649  0.051702389           10 
 4361000   0.55271821    -3.200272    2739.7559  0.052353358  0.051690941           17 
 4362000   0.54675426   -3.2209593    2742.2025  0.052388096  0.051679441           11 
 4363000   0.56200366   -3.1938239    2753.8052  0.052597701  0.051667959            7 
 4364000   0.55320805   -3.2045711    2749.7195  0.052507628  0.051656514           12 
 4365000   0.55006423   -3.2022258    2738.1197  0.052274144  0.051645081            8 
 4366000   0.54483635   -3.1916169    2748.2419  0.052455374  0.051633584            5 
 4367000   0.54508919   -3.1953357    2748.8088   0.05245418  0.051622148           10 
 4368000   0.54939575   -3.2117221    2738.2172  0.052240102  0.051610656            4 
 4369000   0.55319547   -3.2053616    2737.7725  0.052219664  0.051599125           10 
 4370000   0.54998649   -3.2068533    2735.7567  0.052169273  0.051587549           13 
 4371000   0.54954168   -3.1964654    2738.3565  0.052206903  0.051576059            6 
 4372000   0.54856138    -3.228878     2747.401  0.052367357  0.051564578            9 
 4373000   0.54195524   -3.2094616    2735.0606  0.052120219  0.051553076            8 
 4374000    0.5544863   -3.2044878    2749.0299  0.052374445  0.051541558           19 
 4375000   0.55052432   -3.1905895    2743.0239  0.052248074  0.051530082           10 
 4376000   0.56315346   -3.1964108    2742.6147  0.052228342  0.051518599            8 
 4377000    0.5407307    -3.210806    2742.8386  0.052220672  0.051507083           29 
 4378000   0.55116997   -3.1891292    2748.9655  0.052325368  0.051495579           21 
 4379000   0.56953651   -3.1868038    2743.1311  0.052202388  0.051484123           17 
 4380000   0.55091064   -3.1828064    2741.5126  0.052159677  0.051472725           11 
 4381000   0.53949982   -3.2132415    2742.6486  0.052169378  0.051461244            9 
 4382000   0.55048168   -3.2150336    2736.6747  0.052043867  0.051449732           13 
 4383000   0.54262525   -3.2189255    2742.2872  0.052138702   0.05143819           15 
 4384000    0.5409346   -3.2143775    2742.5692  0.052132171  0.051426678           14 
 4385000   0.54271769   -3.2075153    2746.8832  0.052202266   0.05141525           13 
 4386000   0.55100685   -3.2077379    2750.8881  0.052266457  0.051403835            5 
 4387000   0.54398639   -3.2137799    2739.2947  0.052034319  0.051392309           13 
 4388000   0.55144659   -3.1890687    2742.6456  0.052086098  0.051380796           23 
 4389000   0.55099925    -3.209084    2751.1468  0.052235642  0.051369278            8 
 4390000   0.53320358    -3.201382    2742.9179  0.052067537  0.051357742            8 
 4391000   0.55022281   -3.2070352    2743.7924  0.052072277  0.051346221           12 
 4392000   0.55629809   -3.2133428    2752.7492  0.052230365  0.051334742           18 
 4393000   0.54538352   -3.2091198    2742.7849  0.052029458  0.051323265            8 
 4394000   0.55428637    -3.231601    2748.9935  0.052135365  0.051311791            9 
 4395000   0.54759388   -3.2084175    2741.4742  0.051980928  0.051300256           17 
 4396000   0.55039709    -3.177955    2745.4503  0.052044478  0.051288783           10 
 4397000   0.54581004   -3.2184193    2745.4156  0.052031985  0.051277296           18 
 4398000   0.54726404   -3.2150603    2746.4891  0.052040494  0.051265765            7 
 4399000   0.53611491    -3.214449    2742.9131  0.051960922   0.05125426            9 
 4400000   0.54262733   -3.2038212    2747.2086  0.052030466  0.051242764           11 
 4401000   0.55275204   -3.2050254    2740.7634  0.051896603  0.051231334           17 
 4402000   0.54896037   -3.2146492    2748.6486  0.052034088  0.051219906           15 
 4403000    0.5437774   -3.2107422    2744.7955  0.051949343  0.051208466            7 
 4404000   0.54548989   -3.2037709    2741.8017  0.051880899  0.051196958           10 
 4405000   0.54736295   -3.2029317     2748.143  0.051989084  0.051185462            8 
 4406000   0.54212008    -3.220813    2750.1245  0.052014763  0.051173969            7 
 4407000   0.55001001   -3.2233376     2741.218  0.051834543  0.051162528           25 
 4408000   0.55002786   -3.2309194    2744.7111  0.051888821  0.051151034           11 
 4409000     0.555219   -3.2148874    2746.3521   0.05190807  0.051139593           17 
 4410000   0.55121832   -3.2243285    2747.7761  0.051923206   0.05112813           10 
 4411000   0.54888153   -3.2159486    2743.3384  0.051827597  0.051116643            9 
 4412000   0.54173443   -3.2185427    2747.1628  0.051888086  0.051105135           17 
 4413000   0.54546868   -3.2084324    2743.5556  0.051808211  0.051093672            9 
 4414000   0.55207926   -3.2301713    2742.9362  0.051784779  0.051082233           10 
 4415000   0.54475311   -3.2092124    2737.0754  0.051662427  0.051070737           12 
 4416000   0.53732663   -3.1889024    2743.8398  0.051778377  0.051059242           10 
 4417000   0.53810998   -3.2111356    2749.1114  0.051866112  0.051047829           12 
 4418000    0.5539987   -3.2157753    2743.0421  0.051739891  0.051036404           14 
 4419000   0.55541079   -3.2119388    2747.3445  0.051809317  0.051024951            9 
 4420000   0.55931514   -3.1947128    2749.3238  0.051834914  0.051013546            3 
 4421000   0.53967755   -3.2167942    2748.3562  0.051804949  0.051002133            9 
 4422000   0.54268467   -3.2261502     2747.122  0.051769976   0.05099075            7 
 4423000   0.53815832   -3.2135381    2745.3334  0.051724572  0.050979359            8 
 4424000   0.55390158   -3.2079529    2743.9201  0.051686258  0.050967952            6 
 4425000    0.5572845   -3.2090141    2747.2608  0.051737491  0.050956545           22 
 4426000   0.54341071   -3.2155811    2746.3391  0.051708448  0.050945145            7 
 4427000   0.55656203   -3.2177388    2751.9738  0.051802835  0.050933746            7 
 4428000   0.54784607   -3.2135711    2755.5831  0.051859062  0.050922405           10 
 4429000   0.54808149   -3.2090109     2752.819  0.051795346  0.050911048           12 
 4430000   0.54183673   -3.2030647    2747.7143  0.051687629  0.050899622            7 
 4431000   0.54704092   -3.2179748    2748.1349  0.051683873  0.050888242           12 
 4432000   0.53891548   -3.2126804    2742.5315  0.051566853  0.050876808           12 
 4433000   0.55156029   -3.2285907    2737.2826  0.051456549  0.050865365           15 
 4434000    0.5432849   -3.2195211    2749.1939  0.051668808   0.05085392           13 
 4435000   0.55334226   -3.2153588     2753.558  0.051739159  0.050842524            7 
 4436000   0.54105737   -3.2114521    2748.7454  0.051637087  0.050831151            9 
 4437000   0.54321704   -3.2095578    2750.9665  0.051667164  0.050819791            4 
 4438000   0.54638844    -3.216293    2745.9898  0.051562074  0.050808418            5 
 4439000   0.54314106   -3.2166376    2746.4029  0.051558213  0.050797029           12 
 4440000   0.55177464   -3.2197952    2749.5431  0.051605539   0.05078568           11 
 4441000   0.54617685   -3.2307081     2757.369  0.051740768  0.050774282           15 
 4442000   0.53157429   -3.2161291    2748.5524  0.051563718  0.050762887           20 
 4443000   0.54273026    -3.212383    2749.6149  0.051572041  0.050751529           15 
 4444000   0.52693328   -3.2477692    2746.3309  0.051498855  0.050740093            7 
 4445000   0.53691613   -3.2146094    2754.5002  0.051640423  0.050728635           12 
 4446000   0.53968935   -3.2142708    2757.9349  0.051693186  0.050717282           12 
 4447000   0.53019549   -3.2235354     2748.217  0.051499456  0.050705939           13 
 4448000   0.54536373    -3.218424    2742.7535  0.051385519  0.050694516           13 
 4449000   0.54421913   -3.2435098    2746.9828  0.051453188  0.050683148           18 
 4450000   0.54083189   -3.2163527    2748.3734  0.051467667  0.050671739           10 
 4451000   0.53444373     -3.20969    2748.7403  0.051462973  0.050660331           12 
 4452000   0.54571139   -3.2315189    2748.7968  0.051452472  0.050648931           11 
 4453000   0.53759404   -3.2072523     2750.994  0.051482035  0.050637499           10 
 4454000   0.53114037   -3.2199132    2748.2597  0.051419318  0.050626163           13 
 4455000   0.54170861   -3.2193228    2745.6866  0.051359644   0.05061479           13 
 4456000    0.5428753   -3.2028874    2752.6219  0.051477819  0.050603434           13 
 4457000   0.54053663   -3.2039085    2741.7595  0.051263173  0.050592069           16 
 4458000   0.53448841   -3.2217297    2746.7497  0.051344954  0.050580696           17 
 4459000   0.53804886   -3.2356953    2747.8475  0.051353956  0.050569307           13 
 4460000   0.54504905   -3.2470649    2750.4113  0.051390346  0.050557814           32 
 4461000    0.5289651    -3.211296    2746.8681  0.051312637  0.050546361           15 
 4462000   0.54300199   -3.2164017    2751.5836  0.051389206  0.050535016           12 
 4463000   0.53472536   -3.2341609    2750.0466  0.051348991  0.050523641           11 
 4464000   0.53086236   -3.2360326       2749.3  0.051323552  0.050512187            4 
 4465000   0.53303995   -3.2355559    2751.6888  0.051356641  0.050500712            7 
 4466000   0.53054412   -3.2219653    2748.6479  0.051288399  0.050489258            5 
 4467000   0.55931303   -3.2209306    2746.4714  0.051236314  0.050477796            7 
 4468000   0.53615613   -3.2151766    2750.3273  0.051296765  0.050466379            7 
 4469000   0.51877665   -3.2354159    2747.5346   0.05123321  0.050454939            8 
 4470000   0.54342035   -3.2212646    2740.5307  0.051091175   0.05044344            8 
 4471000   0.54326602   -3.2133802    2745.3341  0.051169279  0.050431967           15 
 4472000   0.54417074   -3.2242167    2737.5311  0.051012431   0.05042051           11 
 4473000   0.54100932   -3.2107614    2745.3314  0.051146349  0.050409066            7 
 4474000   0.53391352   -3.2249369    2746.1327  0.051149841  0.050397569            9 
 4475000   0.53564208   -3.2375741    2739.6351  0.051017414  0.050386064           14 
 4476000   0.53698216   -3.2241291    2735.1822  0.050923113   0.05037456           16 
 4477000   0.53881064   -3.2257753    2750.1923   0.05119113   0.05036308            6 
 4478000   0.51713028   -3.2290154    2743.4761  0.051054713  0.050351593           16 
 4479000   0.53048661   -3.2502002    2751.7524  0.051197299  0.050340075            8 
 4480000   0.53469263   -3.2209432     2740.893  0.050983873  0.050328611           11 
 4481000   0.53275748   -3.2247118    2746.5035  0.051076834  0.050317142           15 
 4482000   0.53719691   -3.2267438    2741.5819  0.050973931  0.050305623           12 
 4483000    0.5401314   -3.2167705    2753.9776  0.051192981  0.050294205            8 
 4484000     0.527414   -3.2181051    2745.9427  0.051032238  0.050282778           14 
 4485000   0.53197383   -3.2133279     2744.447   0.05099307  0.050271276           10 
 4486000   0.53244829   -3.2456441    2744.9982  0.050991941  0.050259761           12 
 4487000   0.54345951   -3.2250342    2747.4737  0.051026553  0.050248316           27 
 4488000    0.5215263   -3.2295908    2751.3027   0.05108628  0.050236876            6 
 4489000   0.53022256   -3.2075961    2745.8759  0.050974157  0.050225436            9 
 4490000   0.52963991   -3.2079399    2744.5228  0.050937691  0.050213944           24 
 4491000   0.54022938   -3.2514677    2741.8534  0.050876817  0.050202509           14 
 4492000   0.53527509   -3.2401499    2747.0558  0.050962004  0.050191022           20 
 4493000   0.54582327   -3.2214009    2749.2769  0.050991855  0.050179567            8 
 4494000   0.54246255   -3.2437369    2742.3253  0.050851603  0.050168111           17 
 4495000   0.53752028   -3.2396039    2750.6171  0.050994014  0.050156629           12 
 4496000   0.53493125   -3.2440653    2740.7449   0.05079969  0.050145205           11 
 4497000   0.53940717   -3.2198135    2744.9275  0.050865901  0.050133759            9 
 4498000   0.53170015    -3.233508    2741.3777  0.050788827  0.050122275           16 
 4499000    0.5257595   -3.2467557    2742.6703  0.050801479  0.050110811           12 
 4500000   0.53647194   -3.2422868    2750.3454  0.050932322   0.05009937           11 
 4501000   0.53692957   -3.2359132    2738.7747  0.050706781  0.050087853            8 
 4502000   0.53814071   -3.2437105    2747.9765  0.050865847  0.050076408            7 
 4503000   0.53064625   -3.2441992    2742.7164  0.050757206  0.050064914            6 
 4504000   0.53047216   -3.2341827    2734.3601  0.050591328   0.05005348           12 
 4505000   0.51772486   -3.2331715     2741.542  0.050712949  0.050041973           17 
 4506000   0.53721842   -3.2461484    2736.9795  0.050617316   0.05003048            8 
 4507000   0.52169113   -3.2273883    2742.3485  0.050705357  0.050018979           10 
 4508000   0.53897684    -3.231901    2742.9665  0.050705533  0.050007498           11 
 4509000   0.52076591   -3.2516493    2736.0274  0.050566041  0.049995943            8 
 4510000   0.52973708   -3.2375296     2749.306  0.050800186  0.049984445            7 
 4511000    0.5403238   -3.2473762    2745.2123  0.050713299  0.049972971            7 
 4512000    0.5299916   -3.2578174    2738.0603  0.050569968   0.04996146           11 
 4513000   0.51678999   -3.2480504    2742.2119  0.050635422  0.049949926           18 
 4514000   0.53215253   -3.2526164     2744.322  0.050663159  0.049938396           35 
 4515000   0.52841221   -3.2230565    2740.2728  0.050577203  0.049926882           12 
 4516000   0.52985644   -3.2435195    2744.2222  0.050638879  0.049915374            6 
 4517000    0.5337235   -3.2470865     2736.159  0.050478913  0.049903862           19 
 4518000    0.5370484   -3.2455289    2738.9842   0.05051985  0.049892342            9 
 4519000   0.52468641   -3.2417619    2736.7221  0.050466957  0.049880819           13 
 4520000   0.52354172   -3.2466523     2740.835  0.050531619  0.049869318           17 
 4521000   0.52230576   -3.2528275    2739.0585  0.050487697  0.049857772           12 
 4522000   0.51652842   -3.2614332    2737.0637   0.05043977   0.04984617           13 
 4523000   0.54599116   -3.2377831    2752.2641  0.050708677  0.049834625           24 
 4524000   0.53483183   -3.2408675    2739.0335  0.050453756  0.049823138            6 
 4525000   0.52418939   -3.2411144    2739.4012  0.050449378  0.049811609           30 
 4526000   0.52182093     -3.23162     2742.652  0.050498086  0.049800117            5 
 4527000    0.5256321   -3.2320518     2743.181  0.050496668  0.049788651           16 
 4528000   0.52578369   -3.2427677    2741.9688  0.050463206  0.049777182            9 
 4529000   0.52592122   -3.2422352    2742.2259  0.050456794  0.049765679           25 
 4530000   0.52500598   -3.2499385    2739.0185  0.050386654  0.049754157           25 
 4531000   0.52175651   -3.2411711    2737.6633  0.050350609  0.049742671            7 
 4532000    0.5221869   -3.2525435    2742.9436  0.050436591  0.049731124           14 
 4533000   0.52578627   -3.2411892    2740.0447  0.050372172  0.049719644           25 
 4534000   0.52838116    -3.236466    2740.2802  0.050365391   0.04970814            8 
 4535000   0.53451567   -3.2363232    2736.8246  0.050290787   0.04969665           11 
 4536000   0.52705702   -3.2590698    2741.5163  0.050365893  0.049685152           12 
 4537000   0.52543891   -3.2467189    2739.0837  0.050310111  0.049673665            7 
 4538000   0.52973188   -3.2633858    2735.7912  0.050238563  0.049662183            8 
 4539000   0.52323206   -3.2647623    2745.4448   0.05040473  0.049650681            6 
 4540000   0.53373186   -3.2447814    2750.5839  0.050487957  0.049639239           14 
 4541000     0.523071   -3.2331048    2752.1831  0.050506186  0.049627795           13 
 4542000   0.52701216   -3.2413229    2749.6777  0.050449098  0.049616337           15 
 4543000   0.52651951   -3.2411653    2737.3728  0.050212283   0.04960493           26 
 4544000   0.52564682   -3.2602105    2741.0395  0.050268477  0.049593442            6 
 4545000   0.52192429   -3.2769228    2746.4149  0.050355976  0.049581967            8 
 4546000   0.52088801   -3.2550105    2743.7711  0.050296435   0.04957045           13 
 4547000   0.52095478   -3.2407002    2737.1609  0.050164227  0.049558931            7 
 4548000   0.52568754   -3.2434233     2740.374   0.05021207  0.049547461           10 
 4549000   0.52098277   -3.2413765    2746.3091  0.050309759  0.049535978           16 
 4550000   0.52176891   -3.2446729      2746.87  0.050308973  0.049524541           37 
 4551000   0.51993474   -3.2419429     2743.714   0.05024013  0.049513078           13 
 4552000   0.51805059    -3.246889    2739.4129  0.050150353  0.049501617            7 
 4553000   0.52761137   -3.2589012      2743.64  0.050216708  0.049490167            5 
 4554000   0.51545423   -3.2648357    2743.5478  0.050203994  0.049478695            8 
 4555000   0.52334786   -3.2582379    2738.3022  0.050097004  0.049467231           20 
 4556000   0.51249071    -3.252903    2747.4004  0.050252422  0.049455793           25 
 4557000   0.52214146   -3.2600127    2742.1007  0.050144478  0.049444302           21 
 4558000   0.51933217   -3.2543871    2745.5426  0.050196406  0.049432814            7 
 4559000    0.5179921   -3.2628318    2739.5401  0.050075677  0.049421281           12 
 4560000    0.5308592   -3.2603267    2744.0942   0.05014792  0.049409783            8 
 4561000   0.52925785   -3.2547312    2737.6192  0.050018622  0.049398323           11 
 4562000   0.52597911   -3.2428189    2738.1676  0.050017676  0.049386863           21 
 4563000   0.50992093   -3.2603783    2742.7868  0.050091073  0.049375428           15 
 4564000   0.53046095   -3.2629537    2744.0506  0.050103174  0.049363925            6 
 4565000   0.52049506   -3.2389301    2741.2825  0.050041666  0.049352493           11 
 4566000   0.53036388   -3.2507691    2747.0153  0.050135336  0.049341057           16 
 4567000   0.51670676   -3.2605223    2742.5474  0.050042832  0.049329604            8 
 4568000   0.52142327   -3.2415244    2743.0239  0.050040571  0.049318186            5 
 4569000   0.52551768   -3.2622689    2746.6601  0.050095939  0.049306772           12 
 4570000   0.53532904   -3.2568506    2747.6827  0.050103624  0.049295379           10 
 4571000   0.52862736   -3.2574049     2744.422  0.050033216  0.049283937            8 
 4572000   0.52030934   -3.2583276    2741.6154  0.049971117  0.049272479           10 
 4573000   0.52069467   -3.2598834     2743.032  0.049986005  0.049261016           22 
 4574000   0.52181963   -3.2329475    2735.3645  0.049835383  0.049249587            9 
 4575000    0.5199561   -3.2508422    2745.6463  0.050011772   0.04923824            6 
 4576000    0.5120529   -3.2449195     2745.738  0.050002513  0.049226842           13 
 4577000   0.52164763   -3.2503331     2739.145  0.049871551   0.04921544           11 
 4578000   0.52722784   -3.2617676    2745.2512  0.049971808  0.049204063           12 
 4579000   0.53128927   -3.2472693    2740.8014  0.049879912  0.049192705            8 
 4580000   0.51073784   -3.2746438    2744.2445  0.049931668  0.049181274            5 
 4581000   0.51807503   -3.2664161    2742.5678  0.049890268  0.049169893            9 
 4582000   0.50261289   -3.2542076    2748.0671  0.049979396   0.04915852           11 
 4583000    0.5117606   -3.2710432    2743.6507  0.049888186  0.049147112            9 
 4584000   0.51205039   -3.2619537    2752.1706  0.050032187  0.049135735           13 
 4585000   0.52301227   -3.2487096    2749.3141  0.049969359  0.049124383           23 
 4586000   0.52429932   -3.2694415    2747.8157  0.049931235  0.049113038           16 
 4587000   0.52426024   -3.2543233     2746.175  0.049890543  0.049101683           11 
 4588000   0.51481101   -3.2699369     2743.103   0.04982387  0.049090338           35 
 4589000   0.53829649   -3.2553959    2745.9228  0.049864218   0.04907898           13 
 4590000   0.53238184    -3.258775    2748.3321  0.049897096  0.049067645           12 
 4591000   0.51841057   -3.2478566    2737.1918  0.049684015  0.049056317           13 
 4592000   0.52358768   -3.2729367    2741.0471   0.04974316  0.049044954            7 
 4593000   0.51711522   -3.2531445    2744.6388  0.049797495  0.049033595            8 
 4594000   0.52019497   -3.2377223     2746.522  0.049820816  0.049022283           16 
 4595000   0.51919779   -3.2596014    2747.8048  0.049833238  0.049010885           21 
 4596000   0.51409342   -3.2614428    2740.8603   0.04969648  0.048999481           20 
 4597000   0.51809932   -3.2743077    2744.3652  0.049749207  0.048988174           12 
 4598000   0.51907584   -3.2528434     2747.025  0.049786591  0.048976849           12 
 4599000   0.51902794   -3.2641253    2744.8487  0.049736332  0.048965511           10 
 4600000   0.51162227   -3.2356222    2747.7724  0.049778485  0.048954201            8 
 4601000   0.52510977   -3.2510693    2749.9238  0.049806633  0.048942929            6 
 4602000   0.51789841   -3.2625315    2744.3177  0.049694294  0.048931666           11 
 4603000   0.51939892   -3.2467855    2752.6758  0.049834815  0.048920412           16 
 4604000   0.52509633   -3.2571614     2755.526  0.049875578  0.048909165           12 
 4605000   0.51194449   -3.2653636    2749.2895  0.049751892   0.04889787           19 
 4606000   0.52212525   -3.2530634    2746.9899  0.049699484  0.048886566           16 
 4607000   0.51910248   -3.2618382    2752.7316  0.049792554  0.048875257            8 
 4608000   0.51610588   -3.2591398    2752.2133  0.049772376  0.048863954           10 
 4609000   0.51262087   -3.2415141    2753.1683  0.049778844  0.048852693           13 
 4610000   0.50819251   -3.2513422     2750.974   0.04972838  0.048841407           14 
 4611000   0.50791198   -3.2829213    2748.1821  0.049667137  0.048830103           11 
 4612000   0.51092869    -3.261567    2745.1211  0.049601062  0.048818779           21 
 4613000   0.50745244   -3.2564154    2747.9775  0.049641909  0.048807483           10 
 4614000   0.52425852   -3.2740458    2742.1205  0.049525366  0.048796171           16 
 4615000   0.51407461   -3.2597945    2746.0411  0.049585429  0.048784817            9 
 4616000   0.51358544   -3.2712209    2750.2623  0.049650894  0.048773473            9 
 4617000   0.50797482   -3.2556038    2747.3931  0.049588353  0.048762191           12 
 4618000   0.51168365   -3.2653368    2747.8643  0.049586117  0.048750904           12 
 4619000   0.50924176   -3.2814048    2746.6597  0.049553649  0.048739567            7 
 4620000    0.5139022   -3.2894479     2740.517  0.049432124  0.048728227           12 
 4621000   0.51103382   -3.2569135    2748.7694  0.049570249  0.048716885           21 
 4622000   0.52087159   -3.2714647     2749.222  0.049567683  0.048705631           25 
 4623000   0.50519195   -3.2508272     2746.412  0.049506309  0.048694354           24 
 4624000   0.51758686   -3.2599113    2746.7508  0.049501708   0.04868305           15 
 4625000   0.51057057   -3.2772523    2744.0542  0.049442419  0.048671727           13 
 4626000   0.52074033   -3.2747983    2743.9281  0.049429458  0.048660444           20 
 4627000   0.51017382   -3.2603417    2746.9468  0.049473143  0.048649115           19 
 4628000   0.52158289   -3.2723736    2753.0696  0.049572702  0.048637819           22 
 4629000   0.51141444   -3.2675539    2744.8936  0.049414806  0.048626534           10 
 4630000   0.51211503   -3.2527188    2752.5331  0.049541633   0.04861523           10 
 4631000   0.51837395   -3.2806637    2746.0314  0.049413939  0.048603925           14 
 4632000    0.5011258   -3.2716075     2754.859  0.049562087  0.048592578           11 
 4633000   0.50254739   -3.2604851    2749.2109  0.049449796  0.048581261           16 
 4634000   0.51848845   -3.2617181    2751.9269  0.049487967  0.048569976           23 
 4635000   0.51022164   -3.2717118    2747.1699  0.049391763   0.04855867           11 
 4636000   0.51102921   -3.2623122    2747.1531  0.049380808  0.048547339           33 
 4637000   0.50760135   -3.2574798    2751.7367  0.049452531  0.048536015            9 
 4638000   0.50746941   -3.2784122    2747.8623  0.049372256  0.048524704           12 
 4639000   0.50717752   -3.2574342    2747.5356  0.049355744  0.048513386            7 
 4640000   0.50990695   -3.2596933    2743.7807  0.049277671  0.048502046           15 
 4641000   0.52009522   -3.2577272    2743.0753  0.049254386  0.048490672           10 
 4642000   0.51068499   -3.2619366    2745.8542  0.049293662  0.048479324           13 
 4643000   0.51911505   -3.2677483    2744.8103  0.049264309  0.048468015           18 
 4644000   0.51076677    -3.276854    2745.2001  0.049260697    0.0484567            9 
 4645000   0.52527266   -3.2862821    2747.4506  0.049290466  0.048445365           11 
 4646000   0.50621924   -3.2917099    2748.3374  0.049295763  0.048433998            9 
 4647000   0.50520383   -3.2646222    2743.8482  0.049204651  0.048422631           21 
 4648000   0.50156199   -3.2663399    2742.8578  0.049176308  0.048411293           19 
 4649000   0.51294339   -3.2820138    2749.8095  0.049290341  0.048399971           19 
 4650000   0.50510459   -3.2928967    2744.7877  0.049189744  0.048388606           21 
 4651000   0.50415512      -3.2727    2746.7644  0.049214584  0.048377245           12 
 4652000   0.50568691   -3.2707692     2743.853  0.049151853  0.048365862           18 
 4653000   0.50865841   -3.2815796    2746.9574  0.049196887  0.048354538           10 
 4654000    0.5105056    -3.291009    2737.3187  0.049013728  0.048343209            9 
 4655000   0.51442395   -3.2918375    2745.5135  0.049149902  0.048331884            9 
 4656000   0.51223276   -3.2683686    2744.3439  0.049118412  0.048320542           15 
 4657000   0.51015957   -3.2623154    2743.7937  0.049098019  0.048309196           21 
 4658000   0.50329413   -3.2918242    2742.2558  0.049059965  0.048297853           30 
 4659000   0.50739535   -3.2897761     2742.484  0.049053516  0.048286428           27 
 4660000   0.50730368   -3.2843627     2740.984  0.049016166  0.048275073           21 
 4661000   0.49886911   -3.2875818    2740.0395  0.048988763  0.048263717            8 
 4662000   0.50299628   -3.2964273    2746.5643  0.049094886  0.048252354           28 
 4663000   0.50493575   -3.2827333    2740.5089   0.04897614  0.048240989            9 
 4664000   0.49749391   -3.2869929    2740.7075  0.048969188   0.04822964           15 
 4665000   0.50804331   -3.2801828    2742.1757  0.048984918   0.04821832           23 
 4666000   0.49956752   -3.2769025    2739.5478  0.048927486  0.048207012           12 
 4667000   0.49385271   -3.2582249    2748.2164  0.049071788  0.048195737            9 
 4668000     0.500874   -3.2854943    2739.4272  0.048904369   0.04818446           14 
 4669000   0.50528505   -3.2737167    2750.1482  0.049085247  0.048173227           16 
 4670000   0.49543433    -3.275414    2743.8454  0.048962267   0.04816198           12 
 4671000   0.51297919   -3.2883978    2746.2724  0.048995082  0.048150702           21 
 4672000   0.51590377   -3.2676642    2744.2778   0.04894902  0.048139425           13 
 4673000   0.50022714   -3.2769417    2741.4351  0.048887851  0.048128133           12 
 4674000   0.50308105   -3.2753425    2744.4922  0.048931897  0.048116861           11 
 4675000     0.512252   -3.2849454    2743.9533  0.048911823   0.04810559            8 
 4676000    0.5090401   -3.2841358    2742.1685  0.048869555  0.048094272           11 
 4677000   0.51613301   -3.2842149    2748.8507  0.048978168  0.048083002           10 
 4678000   0.50158079   -3.2879203    2743.6715  0.048875437  0.048071692           34 
 4679000   0.48976395   -3.2769901    2744.8164  0.048885381  0.048060396           18 
 4680000   0.49417363   -3.3020362    2744.9096  0.048876596  0.048049146           32 
 4681000   0.51024407   -3.2583632    2753.3912  0.049017147  0.048037866            8 
 4682000   0.49964856   -3.2651283    2756.9073   0.04906926  0.048026636           21 
 4683000   0.50635113   -3.2830199     2749.147  0.048920688  0.048015363           15 
 4684000   0.48793027   -3.2914786    2748.5112  0.048898932   0.04800408           19 
 4685000   0.50779901   -3.2633137    2743.9007  0.048806487  0.047992797           11 
 4686000   0.50783166    -3.281286    2748.7715  0.048882692  0.047981583           14 
 4687000    0.4941128   -3.2848604    2743.5631  0.048779657  0.047970299           11 
 4688000   0.51486868   -3.2857854    2748.9781  0.048865509  0.047959048           20 
 4689000   0.49181241   -3.2791699    2748.1698  0.048840722  0.047947759           10 
 4690000   0.48979109   -3.2765903    2746.8039  0.048806039  0.047936503            9 
 4691000   0.49279314   -3.2927425    2747.5091  0.048808163  0.047925211           11 
 4692000   0.49826364   -3.2842643    2745.0245  0.048753632  0.047913944           10 
 4693000   0.49538024   -3.2791317    2745.2893  0.048747945   0.04790269           11 
 4694000   0.51960604   -3.2847019    2750.1821  0.048824424  0.047891445           11 
 4695000   0.50198236    -3.273321    2743.8448   0.04870154  0.047880193           24 
 4696000   0.49928815   -3.2874564    2739.8339  0.048619994  0.047868915           41 
 4697000   0.49770922   -3.2877138    2739.4241  0.048602373  0.047857587           11 
 4698000   0.49248803   -3.2847096    2745.3335  0.048696848  0.047846277           34 
 4699000   0.49985067   -3.3058018    2738.6389   0.04856776  0.047834958           18 
 4700000    0.4988505   -3.2942961    2746.2459  0.048692304  0.047823686           11 
 4701000   0.50479102   -3.2946686    2751.2123  0.048769984  0.047812396           17 
 4702000   0.49769034   -3.2824265    2744.0664  0.048632964  0.047801102            7 
 4703000   0.50925423   -3.2874716    2749.7498  0.048723329   0.04778983           19 
 4704000   0.49817316   -3.2865805     2748.284  0.048687003  0.047778556           15 
 4705000   0.49543951   -3.2929083    2743.9706  0.048600259  0.047767291            7 
 4706000   0.50668151   -3.2891386    2744.9782  0.048607774  0.047756038           11 
 4707000   0.49431994   -3.2902641    2745.9327  0.048614346  0.047744762           17 
 4708000    0.4944186   -3.2962606    2746.7531  0.048618542   0.04773347           54 
 4709000    0.4947875   -3.2884183    2740.0114  0.048488912  0.047722199           46 
 4710000   0.50027163   -3.2930301    2744.1464  0.048551776  0.047710961           15 
 4711000   0.50514147   -3.3009273     2745.031  0.048557118  0.047699691            7 
 4712000   0.49721229    -3.290515    2745.9501  0.048563068  0.047688395           30 
 4713000   0.49386393   -3.2900977    2741.9477  0.048481995  0.047677111           15 
 4714000   0.49976982   -3.3035094    2748.3018  0.048584037  0.047665826           19 
 4715000   0.49131038   -3.2846062    2741.8957  0.048460511  0.047654565           24 
 4716000   0.50044244   -3.2893305    2743.6022   0.04848039  0.047643285           14 
 4717000    0.5098736   -3.3115688    2742.8829  0.048457404  0.047632011           22 
 4718000   0.49648678   -3.2950055    2745.6526  0.048496054  0.047620774           14 
 4719000   0.50309481   -3.2921505    2745.9187  0.048490476  0.047609512           21 
 4720000    0.5050441   -3.3033266    2745.9392  0.048480565  0.047598263           27 
 4721000   0.49164772   -3.3046425     2749.586  0.048534668  0.047587034           32 
 4722000    0.4938619   -3.2848059    2751.4896  0.048557984  0.047575784           12 
 4723000   0.49845267   -3.3150097    2742.5837  0.048390565  0.047564506           22 
 4724000   0.50137017   -3.2880837    2740.8966  0.048350562   0.04755326           26 
 4725000   0.49375088   -3.2860103    2746.4054  0.048437485  0.047542015           25 
 4726000   0.48790969   -3.3024401    2744.6961  0.048397096  0.047530768           24 
 4727000    0.5000796   -3.2973387    2748.5555  0.048454896  0.047519544           24 
 4728000    0.4986594   -3.2925566    2742.8335  0.048343794  0.047508281           15 
 4729000   0.49185137   -3.3058956    2743.6217  0.048347461  0.047497042            6 
 4730000    0.5013405   -3.3051505    2746.4797  0.048387591  0.047485805           14 
 4731000   0.49197764   -3.3081742    2748.3882  0.048410981  0.047474564           19 
 4732000   0.50611668   -3.3068208     2743.183  0.048309084  0.047463323            9 
 4733000   0.48725982   -3.3000953    2740.4224  0.048250272  0.047452095           19 
 4734000   0.49050482   -3.2979758    2747.7721  0.048369458  0.047440843           27 
 4735000   0.50192728   -3.3169763    2745.5365  0.048319896  0.047429604           14 
 4736000   0.49243615    -3.303693     2744.044  0.048283433  0.047418379           17 
 4737000   0.48666824   -3.2909713    2738.0966  0.048168613  0.047407182            9 
 4738000   0.49615583   -3.2909024    2746.3149  0.048302992  0.047395972           13 
 4739000   0.48936429   -3.2925564    2744.7227  0.048264802  0.047384807           12 
 4740000   0.50578562   -3.2925324    2748.4859  0.048320779  0.047373677           23 
 4741000   0.49689853   -3.3076428    2741.4846  0.048187524   0.04736252           15 
 4742000   0.48621704   -3.3039106    2742.9264  0.048202699  0.047351372           11 
 4743000   0.49170991   -3.3166459     2746.487  0.048255095  0.047340212           11 
 4744000   0.48378768   -3.3134913    2745.5484  0.048228435  0.047329012           15 
 4745000   0.50092398    -3.304506    2742.1062  0.048157819  0.047317817           31 
 4746000    0.4941623   -3.2906661    2747.5025  0.048242424  0.047306625           12 
 4747000   0.47835431    -3.310236     2747.025  0.048223879  0.047295443           11 
 4748000   0.48500317   -3.2989957    2749.1573  0.048251147  0.047284245           11 
 4749000   0.49820456   -3.3035601    2744.9123  0.048166496  0.047273074           10 
 4750000   0.49518499   -3.2922015    2744.4669  0.048148542  0.047261899            9 
 4751000   0.49193168   -3.3002791    2751.3393  0.048258951  0.047250768            9 
 4752000   0.49700919   -3.2905985    2753.9429  0.048294453  0.047239636           13 
 4753000   0.49180897   -3.2870221    2745.2221  0.048131392  0.047228475           13 
 4754000   0.48781171   -3.2968916     2742.483  0.048073253  0.047217283           39 
 4755000   0.48547611   -3.3102269    2743.3416  0.048078191  0.047206074           50 
 4756000   0.49021934   -3.3054015    2748.7803  0.048163378  0.047194853           25 
 4757000   0.48882107   -3.2887328    2748.5753  0.048149661  0.047183677           15 
 4758000   0.49221769   -3.2977894    2749.4725  0.048155257  0.047172528           14 
 4759000   0.48862295   -3.2921454    2744.6823  0.048061258  0.047161415           12 
 4760000   0.49268419   -3.3124935    2748.2631   0.04811385  0.047150269           12 
 4761000   0.49188979   -3.3019871    2742.5524  0.048003787  0.047139086           10 
 4762000   0.49107307   -3.2975625    2741.6942  0.047978689  0.047127931            7 
 4763000   0.48722862    -3.314584    2747.8636  0.048076556  0.047116749           13 
 4764000   0.47602327   -3.2936368    2744.6059  0.048009479  0.047105625            6 
 4765000    0.4783071   -3.3134715    2747.3752  0.048047835  0.047094456           16 
 4766000   0.50345583   -3.3003172    2745.4238  0.048003634   0.04708329           15 
 4767000   0.50445475   -3.3142653     2748.682   0.04805052  0.047072133           15 
 4768000   0.49093738   -3.3225121    2742.8367  0.047938282  0.047061011           18 
 4769000    0.4856166   -3.2996392    2741.2913  0.047901225  0.047049867           27 
 4770000   0.49896982   -3.3072753    2741.5555  0.047895799  0.047038727           18 
 4771000   0.47738281   -3.3117079    2748.0455  0.047999118  0.047027589           11 
 4772000   0.49014394   -3.3167426    2745.1913  0.047939216   0.04701645           18 
 4773000   0.47877435   -3.3256898    2744.6917  0.047920449  0.047005271           10 
 4774000   0.48577728   -3.3233789    2743.7358  0.047893726  0.046994097           18 
 4775000   0.48642818   -3.3118831    2742.9259  0.047869563  0.046982897           12 
 4776000    0.4806673   -3.3202948     2748.389  0.047954862  0.046971733           11 
 4777000   0.48104902   -3.3157554       2745.3  0.047890936  0.046960573           11 
 4778000   0.48097355   -3.3041491    2743.5421  0.047850254    0.0469494            9 
 4779000   0.48220084   -3.3234531    2745.2484  0.047869993  0.046938254           12 
 4780000   0.48248835   -3.3100088    2737.3363  0.047722041  0.046927092           25 
 4781000   0.47935432   -3.3064707    2742.4743  0.047801615  0.046915935           13 
 4782000    0.4804706   -3.3091319    2743.0128  0.047801004  0.046904766            9 
 4783000   0.48241969    -3.308698    2736.8331  0.047683342  0.046893609           25 
 4784000    0.4844755   -3.3070927    2749.6405  0.047896469  0.046882447           22 
 4785000   0.48381749   -3.3159526    2748.2529  0.047862294  0.046871275           12 
 4786000   0.48681065   -3.3104097    2744.8681  0.047793357  0.046860107           15 
 4787000   0.48644686   -3.3280936    2737.6002  0.047656852  0.046848907           17 
 4788000   0.48414689    -3.325078    2747.8393  0.047825105  0.046837709           12 
 4789000    0.4879829   -3.3075068    2745.0047  0.047765796  0.046826532            7 
 4790000   0.48902847   -3.3183116    2748.3109  0.047813341  0.046815389           26 
 4791000   0.48691781   -3.3139123    2747.7366  0.047793373   0.04680428            8 
 4792000   0.48503145   -3.3243792    2742.4158   0.04769087  0.046793153           28 
 4793000   0.49690949   -3.3194106    2744.9216  0.047724487     0.046782           29 
 4794000   0.47609264   -3.3318757    2741.2397  0.047650529  0.046770848           26 
 4795000   0.49157247   -3.3192562    2745.6539  0.047717308    0.0467597           47 
 4796000   0.49033559   -3.3183235    2745.7805  0.047709558  0.046748518           15 
 4797000   0.48231021   -3.3267812    2745.4237  0.047693415   0.04673734           15 
 4798000   0.48516551   -3.3163455    2744.4159  0.047665971  0.046726198           22 
 4799000   0.48317947   -3.2995868    2746.6162  0.047694246  0.046715097           16 
 4800000   0.47403437   -3.3079028    2744.2001  0.047642363  0.046703968           13 
 4801000   0.47728804   -3.3204798    2746.5591  0.047673386  0.046692864           11 
 4802000   0.48125298   -3.3231805    2740.5294   0.04755882  0.046681756           18 
 4803000   0.47243801   -3.3301414    2741.1018  0.047558848  0.046670609           17 
 4804000   0.49114087   -3.3256045    2740.2544   0.04753425  0.046659487           13 
 4805000   0.48889311   -3.3131352    2741.9051  0.047552984  0.046648352           15 
 4806000   0.48035505   -3.3165366    2754.4548  0.047760695   0.04663727           11 
 4807000    0.4759184   -3.3155653    2744.6404  0.047580619   0.04662617           22 
 4808000   0.48850104   -3.3217605    2746.8594  0.047609183   0.04661507           29 
 4809000   0.48993711   -3.2958278    2742.0638  0.047516182     0.046604           27 
 4810000   0.47505476    -3.303217    2750.4835  0.047652174    0.0465929           17 
 4811000   0.47768075   -3.3233942    2743.8349  0.047527107  0.046581834           10 
 4812000   0.48751729   -3.3414835    2743.8043    0.0475167  0.046570752           23 
 4813000   0.47740622    -3.322829    2740.2681  0.047445601  0.046559654            9 
 4814000   0.48332683   -3.3126957    2736.6744  0.047373536  0.046548519           15 
 4815000   0.47236921   -3.3110679    2747.5088  0.047551208   0.04653739           14 
 4816000   0.49049163    -3.316381    2741.5237  0.047437772  0.046526306           35 
 4817000   0.48237249   -3.3191347    2744.4114  0.047477881  0.046515243           13 
 4818000   0.47876777   -3.3108955    2747.4736  0.047520991  0.046504121           13 
 4819000   0.48603714   -3.3120611    2742.5119  0.047425329  0.046493035           17 
 4820000   0.48519158   -3.3075432    2748.3755  0.047516866   0.04648198           42 
 4821000   0.48644357   -3.3088168    2744.4565  0.047439267  0.046470899           10 
 4822000   0.47906016   -3.3242594    2741.4909  0.047378178  0.046459787           21 
 4823000   0.48374772   -3.3177525     2739.979  0.047342232  0.046448667           14 
 4824000   0.46828634   -3.3030787    2740.4198  0.047340032  0.046437569           21 
 4825000   0.47840955   -3.3234758    2746.0505   0.04742747  0.046426491           24 
 4826000   0.49132643   -3.3223556     2743.652  0.047376226  0.046415385           35 
 4827000   0.48244714   -3.3288671    2738.6402  0.047279888  0.046404261           12 
 4828000   0.47134379   -3.3460439    2739.9432  0.047292585  0.046393101           23 
 4829000    0.4710226   -3.3237756    2740.9819  0.047300717  0.046381961           24 
 4830000   0.48356936   -3.3500268    2741.5362  0.047300487  0.046370825           36 
 4831000   0.48367327   -3.3237875    2738.0898  0.047231246  0.046359665           29 
 4832000   0.47168797   -3.3338411    2738.0818  0.047221334  0.046348554           29 
 4833000   0.47420724   -3.3263643     2737.758   0.04720598  0.046337416           45 
 4834000   0.48457861   -3.3037355    2741.3564  0.047258247  0.046326308           19 
 4835000   0.46302853   -3.3352372    2736.8886  0.047171468  0.046315211           23 
 4836000   0.47870033   -3.3203144    2741.0526  0.047233467  0.046304136           13 
 4837000   0.48015961   -3.3436573    2741.7875  0.047236364   0.04629306           64 
 4838000   0.48063745   -3.3128837    2735.0573  0.047110675  0.046281942           14 
 4839000   0.48624636   -3.3218647    2746.9429  0.047305623  0.046270853           20 
 4840000   0.47816993   -3.3294345    2741.5566   0.04720311  0.046259765           10 
 4841000   0.47428421   -3.3270386    2745.3217  0.047258172  0.046248621           52 
 4842000   0.48374855   -3.3250507    2741.2295  0.047177983  0.046237545           45 
 4843000   0.46664419   -3.3193978    2740.2533  0.047151443   0.04622644           30 
 4844000   0.47765048   -3.3415249    2733.8771  0.047032017  0.046215317           21 
 4845000    0.4690874   -3.3419255    2736.9022   0.04707434  0.046204182           31 
 4846000   0.48426092   -3.3369608    2744.3266  0.047192299   0.04619303           16 
 4847000   0.47908174   -3.3293394     2745.453   0.04720193  0.046181907            8 
 4848000   0.46770882    -3.322437    2745.8517  0.047199046  0.046170828           34 
 4849000   0.47406679    -3.333145    2742.5157  0.047131981  0.046159783           14 
 4850000   0.47897737    -3.307734    2745.0948  0.047166577  0.046148722           16 
 4851000   0.47785234   -3.3322475    2737.5878  0.047027895  0.046137618           20 
 4852000    0.4741308   -3.3408133    2740.4323  0.047067057   0.04612649           38 
 4853000   0.47336418   -3.3326906    2740.9879  0.047066898  0.046115365           50 
 4854000   0.48916314   -3.3401665    2735.9003  0.046969857  0.046104237           60 
 4855000   0.47745727   -3.3298504    2746.4423  0.047141131  0.046093153           18 
 4856000   0.48258965    -3.348683    2737.5454  0.046978745  0.046082053           54 
 4857000   0.47149353   -3.3402748     2742.663  0.047056877  0.046070983           20 
 4858000   0.48082875   -3.3270129    2746.2166  0.047108148  0.046059964           17 
 4859000   0.47155865   -3.3408262    2741.9973  0.047026091  0.046048942           21 
 4860000   0.47861511   -3.3314456    2739.4949  0.046973506  0.046037833           21 
 4861000   0.48218851   -3.3297477    2735.2966  0.046891871   0.04602676           16 
 4862000   0.47689466    -3.340873    2740.0899  0.046964382  0.046015651           29 
 4863000   0.47683645   -3.3494774    2741.2552  0.046974693  0.046004536           23 
 4864000   0.46498235   -3.3460342    2738.8072  0.046923096  0.045993429           25 
 4865000   0.47911315   -3.3287699    2740.1579  0.046936587  0.045982369           18 
 4866000   0.47248468   -3.3362438    2745.9195  0.047025611  0.045971318            9 
 4867000   0.47122576    -3.338126    2741.6127  0.046942207  0.045960244           24 
 4868000   0.47553582   -3.3329796    2742.5444  0.046948513  0.045949155           14 
 4869000     0.480867   -3.3440592    2733.8453  0.046789986  0.045938067           23 
 4870000   0.47419661   -3.3406036    2737.4139  0.046841443  0.045926954           14 
 4871000   0.46224854   -3.3387353      2743.87  0.046942277  0.045915873           18 
 4872000    0.4591549   -3.3220988    2741.0086  0.046883699  0.045904843           15 
 4873000    0.4601345   -3.3213083    2743.5249  0.046917109  0.045893816           22 
 4874000   0.48072053   -3.3259206    2743.5527  0.046907959  0.045882756           16 
 4875000   0.47024546   -3.3322411    2741.5442  0.046864004  0.045871724           24 
 4876000   0.46706919   -3.3157683    2742.4026  0.046869062  0.045860655           12 
 4877000   0.47130034   -3.3365786    2736.4193  0.046757216  0.045849619           49 
 4878000   0.46722382   -3.3561796    2738.3962  0.046781403  0.045838583           42 
 4879000   0.46948448   -3.3313064    2744.1716  0.046870458  0.045827534           17 
 4880000   0.47104752   -3.3594931    2743.0814  0.046842236  0.045816487           25 
 4881000    0.4758811   -3.3503317    2740.8912  0.046795247  0.045805463           38 
 4882000   0.47218653   -3.3279563    2743.1466   0.04682416  0.045794405           32 
 4883000   0.47357761   -3.3570043     2742.223  0.046798808  0.045783375           25 
 4884000   0.46638745   -3.3375131    2742.8446  0.046799833  0.045772331           17 
 4885000     0.467419   -3.3358612    2741.4119  0.046765812  0.045761316           18 
 4886000   0.46691374   -3.3412504    2743.9164  0.046798956   0.04575028           29 
 4887000   0.46912171   -3.3351682    2736.9602  0.046670763  0.045739266           14 
 4888000   0.46200153   -3.3364307     2744.696  0.046793099  0.045728261           17 
 4889000   0.46965829   -3.3375242    2738.5268  0.046678373  0.045717232           33 
 4890000   0.46721032   -3.3346507    2738.1788  0.046662897  0.045706229           23 
 4891000   0.46592125   -3.3303204    2746.3684  0.046792891  0.045695262           22 
 4892000   0.48438702   -3.3358903    2743.5906  0.046736008  0.045684308           14 
 4893000   0.47324601   -3.3392511    2746.4795  0.046775658  0.045673339           27 
 4894000   0.47698255   -3.3328529    2741.9674  0.046689269  0.045662317           11 
 4895000   0.48283678   -3.3287974    2740.5802  0.046656115  0.045651322           12 
 4896000   0.47169713   -3.3506496    2737.6775  0.046597179  0.045640342           17 
 4897000    0.4608583   -3.3422951     2746.051  0.046730157  0.045629377           24 
 4898000   0.47835178   -3.3384116    2746.7516  0.046732538  0.045618479           19 
 4899000   0.46596255   -3.3248292    2747.8456  0.046741607  0.045607537           13 
 4900000   0.47124903   -3.3502609     2738.952  0.046580816  0.045596587           15 
 4901000   0.45918851   -3.3437727    2735.5001  0.046512617  0.045585603           30 
 4902000   0.47278702   -3.3363941    2742.9833  0.046630343  0.045574619           34 
 4903000   0.45433359   -3.3487796    2747.8007  0.046702711  0.045563624           25 
 4904000   0.46187121   -3.3438566    2742.6184  0.046605125  0.045552664            7 
 4905000   0.46784344   -3.3411129    2741.4391  0.046575588  0.045541743           17 
 4906000   0.46739845   -3.3366924    2744.0556  0.046610537  0.045530853           12 
 4907000   0.45139897   -3.3386146    2740.4772  0.046540268  0.045519936           36 
 4908000   0.46713796   -3.3503043    2745.9141    0.0466231  0.045508995           20 
 4909000   0.46098009   -3.3600185    2742.0842  0.046548587   0.04549806           32 
 4910000   0.46795386   -3.3524383     2740.426  0.046510963  0.045487107           16 
 4911000   0.46529873   -3.3628558    2750.0095  0.046664112  0.045476148           11 
 4912000   0.47119397   -3.3465208    2741.7184  0.046513952  0.045465196           21 
 4913000   0.46718382     -3.34338    2741.7726  0.046505403  0.045454258           15 
 4914000   0.45402801   -3.3401043    2745.7649  0.046563642  0.045443333           31 
 4915000   0.46947841   -3.3492585    2744.2415   0.04652834  0.045432426           14 
 4916000   0.46277337   -3.3417512    2748.5041  0.046591132  0.045421468           30 
 4917000   0.47063195   -3.3555608    2743.1482  0.046490885  0.045410503           34 
 4918000   0.47387247   -3.3578111    2744.0726  0.046497096  0.045399568           33 
 4919000   0.46344355   -3.3546755    2744.1092  0.046488264  0.045388627           14 
 4920000   0.47424134   -3.3589406    2744.4502  0.046484589  0.045377696           17 
 4921000   0.45864554   -3.3599206    2745.1891  0.046487657   0.04536678           19 
 4922000   0.46616774   -3.3340188    2743.6885  0.046452806  0.045355852           15 
 4923000   0.45829315    -3.326752     2744.475  0.046456683   0.04534499           34 
 4924000   0.46008112   -3.3533307    2745.4116    0.0464631  0.045334124           13 
 4925000   0.47141316   -3.3280739    2742.1363  0.046398245  0.045323215           31 
 4926000   0.46558862   -3.3402068    2746.4547   0.04646188  0.045312299           12 
 4927000    0.4739474   -3.3681549    2741.2109  0.046363759  0.045301352           27 
 4928000   0.47088751   -3.3618175    2746.6241  0.046445888  0.045290389           25 
 4929000   0.46408263    -3.368343     2745.664  0.046420234  0.045279467           43 
 4930000   0.46702519   -3.3570702    2741.9071  0.046347314  0.045268552           34 
 4931000   0.46277839   -3.3506579    2742.8134   0.04635323  0.045257691           19 
 4932000   0.47296799   -3.3429375    2742.4039  0.046336913  0.045246818           42 
 4933000    0.4711605   -3.3550402    2740.7529   0.04629963  0.045235946           31 
 4934000   0.46437874   -3.3484929    2743.9591  0.046344398  0.045225047           36 
 4935000   0.46095515   -3.3536406    2744.2157   0.04633934  0.045214121           18 
 4936000    0.4728333   -3.3662757     2740.929  0.046274463  0.045203201           13 
 4937000   0.45464117    -3.360174    2746.2436  0.046354797  0.045192338           16 
 4938000   0.45889975   -3.3594044    2742.6082  0.046284059  0.045181432           27 
 4939000    0.4667551   -3.3759255    2741.7148  0.046259615  0.045170529           37 
 4940000   0.45172719   -3.3644646    2740.9533  0.046237404  0.045159606           40 
 4941000   0.45854558    -3.344394    2742.3463  0.046251539  0.045148703           18 
 4942000   0.46645247   -3.3563142      2742.44  0.046243761  0.045137828           32 
 4943000   0.45996266   -3.3585689     2740.592   0.04620325  0.045126892           16 
 4944000   0.46156561   -3.3484162    2742.3545  0.046223613  0.045116009           12 
 4945000    0.4636797    -3.362289     2732.663  0.046050944  0.045105111           36 
 4946000   0.45834381   -3.3597793    2739.3468  0.046154247  0.045094202           38 
 4947000   0.45342646   -3.3478744    2741.6303  0.046183381  0.045083304           46 
 4948000   0.44929387   -3.3477566    2734.4504  0.046053125  0.045072386           26 
 4949000   0.46084312     -3.34955    2737.8564  0.046101172  0.045061457           28 
 4950000   0.46412231   -3.3633888    2738.5718  0.046103902  0.045050561           26 
 4951000   0.46696267   -3.3646254    2742.8683  0.046166907  0.045039677           16 
 4952000   0.46663788   -3.3615545    2742.1154  0.046144915  0.045028798           32 
 4953000   0.45652668   -3.3709937    2740.7664  0.046112901  0.045017891           31 
 4954000   0.47164262   -3.3536192    2731.3057   0.04594445  0.045007014           15 
 4955000   0.45405917   -3.3596652    2745.1233  0.046167562  0.044996131           12 
 4956000   0.45927967   -3.3711623    2743.4015  0.046129295  0.044985276           16 
 4957000   0.46211029   -3.3531856    2743.0662  0.046114353  0.044974402           24 
 4958000    0.4687891   -3.3787007    2741.9054  0.046085542  0.044963493           24 
 4959000   0.46825473   -3.3629121    2736.6235  0.045987488  0.044952563           19 
 4960000   0.46229461   -3.3436535    2747.2371  0.046156538  0.044941655           15 
 4961000    0.4535489   -3.3443744     2736.783  0.045971629  0.044930761           18 
 4962000   0.45824466   -3.3663595    2738.1086  0.045984626  0.044919856            7 
 4963000   0.46255307   -3.3662985    2732.5048  0.045881269  0.044908954           71 
 4964000   0.45735773   -3.3592164      2737.35  0.045953365  0.044898036           42 
 4965000   0.44795618   -3.3700948    2738.3439   0.04596079  0.044887124           58 
 4966000   0.44942303   -3.3630481    2741.9992  0.046012875  0.044876275           73 
 4967000   0.45941576   -3.3742221    2743.0417  0.046021101  0.044865405           42 
 4968000   0.45072759   -3.3610218    2742.0268  0.045994813  0.044854508           39 
 4969000   0.45797581   -3.3627989    2736.9806  0.045900928  0.044843615           77 
 4970000   0.44973192   -3.3751542    2738.9631  0.045924935  0.044832698           29 
 4971000   0.45299489   -3.3665527    2740.9891   0.04594966  0.044821814           33 
 4972000   0.44999778   -3.3724127    2745.2974  0.046012627  0.044810905           35 
 4973000   0.46288745    -3.367817    2738.9481  0.045896979  0.044800019           43 
 4974000   0.45007353   -3.3628555    2737.1692  0.045857947  0.044789134           22 
 4975000   0.45502639   -3.3737919    2743.3918  0.045952962  0.044778217           46 
 4976000   0.45756942   -3.3604221    2744.1119  0.045955786  0.044767383           45 
 4977000    0.4522828   -3.3563085    2741.5837  0.045904221  0.044756554           22 
 4978000    0.4541785   -3.3682744    2740.7522   0.04588108  0.044745673           83 
 4979000   0.46106824   -3.3798375    2745.3547  0.045948897  0.044734792          106 
 4980000   0.45710018   -3.3728951    2737.9195  0.045815252  0.044723938           20 
 4981000   0.45578199   -3.3701313    2738.6285  0.045817917  0.044713109           36 
 4982000   0.45182507   -3.3623443    2737.6447  0.045792264  0.044702266           16 
 4983000   0.45664945    -3.366019    2738.9257  0.045804497   0.04469143           38 
 4984000   0.45791813   -3.3731903    2743.2548   0.04586769  0.044680569           36 
 4985000    0.4526601   -3.3878787    2736.7196  0.045749241   0.04466969           64 
 4986000   0.45396343   -3.3744608    2740.9387  0.045810581  0.044658817           28 
 4987000   0.45495071   -3.3700817    2745.8503  0.045883469  0.044647985           38 
 4988000   0.45605616    -3.359846    2743.5376  0.045835633  0.044637147           32 
 4989000   0.45098418   -3.3614172    2741.0549  0.045784975  0.044626326           24 
 4990000   0.44819396   -3.3632466    2743.0603   0.04580929  0.044615498           14 
 4991000   0.45486354   -3.3702767    2749.2546  0.045903537  0.044604706           15 
 4992000   0.44317097   -3.3810313    2741.3344  0.045762126  0.044593902           23 
 4993000    0.4417437    -3.372421    2743.8053  0.045794201  0.044583085           18 
 4994000   0.45255411   -3.3662952    2744.9771  0.045804584  0.044572279           15 
 4995000   0.46262047    -3.368302    2739.7884  0.045708849  0.044561476           14 
 4996000   0.44547245   -3.3771794    2738.3685  0.045676017  0.044550654           30 
 4997000   0.44498076   -3.3835381    2742.9739  0.045743679  0.044539811           28 
 4998000   0.45121127   -3.3765783    2743.0013  0.045734982  0.044529005           27 
 4999000   0.45795818   -3.3604379    2747.1602  0.045795163  0.044518213           24 
 5000000   0.44839931   -3.3748995    2739.6082  0.045660137  0.044507366           21 
 5001000   0.46613471   -3.3777503    2741.3081  0.045679333  0.044496548           33 
 5002000   0.46231537   -3.3712609    2742.6514   0.04569258  0.044485734           39 
 5003000   0.44654674   -3.3741769    2737.6589  0.045600287  0.044474912           17 
 5004000   0.44821805   -3.3527764    2735.9623  0.045562921  0.044464145           18 
 5005000   0.46234798    -3.368846    2747.7492   0.04575007  0.044453404           12 
 5006000   0.45827828   -3.3709108    2737.1844  0.045565061   0.04444263           19 
 5007000   0.45024394   -3.3787922    2738.2757  0.045574125  0.044431857           22 
 5008000   0.43739154   -3.3805593    2741.2923   0.04561522  0.044421057           15 
 5009000   0.45382227   -3.3782366    2740.2073  0.045588063  0.044410278           21 
 5010000   0.45535984   -3.3878596    2732.4603  0.045450105  0.044399496           30 
 5011000   0.44834341   -3.3789298    2739.9546  0.045565666  0.044388698           47 
 5012000     0.451533     -3.38399    2735.3072  0.045479303  0.044377878           37 
Loop time of 12159.1 on 48 procs for 5000000 steps with 4000 atoms

Performance: 71058.178 tau/day, 411.216 timesteps/s
99.4% CPU use with 48 MPI tasks x no OpenMP threads

MPI task timing breakdown:
Section |  min time  |  avg time  |  max time  |%varavg| %total
---------------------------------------------------------------
Pair    | 785.8      | 842.75     | 893.85     |  89.8 |  6.93
Neigh   | 81.27      | 84.061     | 86.764     |  15.5 |  0.69
Comm    | 771.62     | 824.13     | 878.52     |  97.8 |  6.78
Output  | 14.426     | 14.431     | 14.51      |   0.3 |  0.12
Modify  | 10263      | 10282      | 10307      |  12.9 | 84.57
Other   |            | 111.2      |            |       |  0.91

Nlocal:        83.3333 ave          89 max          77 min
Histogram: 2 2 1 7 7 13 5 4 3 4
Nghost:        2168.19 ave        2181 max        2154 min
Histogram: 3 3 7 4 5 4 4 11 4 3
Neighs:        14324.7 ave       16097 max       12832 min
Histogram: 2 4 3 12 9 6 5 3 2 2
FullNghs:      28630.6 ave       31060 max       26000 min
Histogram: 1 1 3 7 16 5 6 3 1 5

Total # of neighbors = 1374269
Ave neighs/atom = 343.56725
Neighbor list builds = 271691
Dangerous builds = 5

#clear
#
#next RN
#
#jump SELF
Total wall time: 3:22:42
