
units lj                  # Use reduced LJ style units
atom_style atomic         # Uncharged point particles
atom_modify map hash      # Needed for indexing of clusters etc
                          # Used to be able to find where atoms are in relation to each other.

lattice fcc 1.0 spacing 1 1 1
Lattice spacing in x,y,z = 1.5874011 1.5874011 1.5874011
region box block 0 10 0 10 0 10 units lattice
create_box 2 box
Created orthogonal box = (0.0000000 0.0000000 0.0000000) to (15.874011 15.874011 15.874011)
  3 by 4 by 4 MPI processor grid
create_atoms 1 box
Created 4000 atoms
  using lattice units in orthogonal box = (0.0000000 0.0000000 0.0000000) to (15.874011 15.874011 15.874011)
  create_atoms CPU = 0.003 seconds
set type 1 type/fraction 2 0.6 78393
Setting atom values ...
  2421 settings made for type/fraction
mass 1 1.0
mass 2 1.0
pair_style lj/cut  3.5
pair_modify tail  yes
pair_coeff 1  1  1.0  1.0   # Intearaction between 1 and 1 set with epsilon = 1 and sigma = 1
pair_coeff 1  2  1.5  0.8
pair_coeff 2  2  0.5  0.88

write_data data.0
System init for write_data ...
Neighbor list info ...
  update every 1 steps, delay 10 steps, check yes
  max neighbors/atom: 2000, page size: 100000
  master list distance cutoff = 3.8
  ghost atom cutoff = 3.8
  binsize = 1.9, bins = 9 9 9
  1 neighbor lists, perpetual/occasional/extra = 1 0 0
  (1) pair lj/cut, perpetual
      attributes: half, newton on
      pair build: half/bin/atomonly/newton
      stencil: half/bin/3d
      bin: standard
WARNING: Not all mixed pair coeffs generated from mixing. Use write_data with 'pair ij' option to store all pair coeffs. (../write_data.cpp:312)


#############################
#   M E L T   S Y S T E M   #
#############################

velocity all create 2.4 5833274 mom yes dist gaussian # Assign velocities
                                                    # Temperature 2.4, random number seed, zero linear momentum
                                                                                # Gaussian distribution

timestep 0.002   # simulation timestep
thermo 1000       # output thermodynamic data every 1000 steps bf 100

# Define a fix  in this case with index 1 applied to all
# particles in the simulation. This fix is for simulations
# in the anisotropic NPT ensemble. Note that we use the MTK
# correction.
fix 1 all npt temp 2.4 2.4 0.1 iso 5.68 5.68 0.5 mtk yes tchain 5 pchain 5 # Use NPT ensemble
                                                                         # Set temperature and pressure and damping
                                                                         # Numbers of thermostats in chain and in barostat
run 10000          # run for 10000 steps
Per MPI rank memory allocation (min/avg/max) = 3.642 | 3.644 | 3.648 Mbytes
Step Temp E_pair E_mol TotEng Press Volume 
       0          2.4   -4.7127585            0   -1.1136585   -4.0555291         4000 
    1000    2.3509838   -4.3987999            0  -0.87320583    5.8630833    3624.5828 
    2000    2.3423697   -4.4808238            0  -0.96814759     5.874393     3580.191 
    3000    2.4355811   -4.4119294            0  -0.75947111    5.9282045    3625.1836 
    4000    2.4528891   -4.4913746            0  -0.81296074    5.7306157    3597.2038 
    5000    2.3875828   -4.5228414            0   -0.9423625     5.863494    3565.6609 
    6000     2.385256   -4.4706013            0  -0.89361172    5.3898773    3629.0297 
    7000    2.4080131   -4.4648327            0  -0.85371615    5.7686094    3602.4626 
    8000    2.3854723   -4.5018043            0   -0.9244904    5.3821659    3614.2095 
    9000     2.400176   -4.4498616            0  -0.85049758    5.7325963    3617.8062 
   10000     2.405774    -4.450357            0  -0.84259824    5.8462256    3599.4667 
Loop time of 2.66394 on 48 procs for 10000 steps with 4000 atoms

Performance: 648663.180 tau/day, 3753.838 timesteps/s
99.6% CPU use with 48 MPI tasks x no OpenMP threads

MPI task timing breakdown:
Section |  min time  |  avg time  |  max time  |%varavg| %total
---------------------------------------------------------------
Pair    | 1.2435     | 1.2751     | 1.3712     |   2.3 | 47.87
Neigh   | 0.22091    | 0.22576    | 0.23831    |   0.6 |  8.47
Comm    | 0.81623    | 0.89764    | 0.94619    |   2.9 | 33.70
Output  | 0.00027655 | 0.00028158 | 0.00035361 |   0.0 |  0.01
Modify  | 0.22204    | 0.24967    | 0.28703    |   3.1 |  9.37
Other   |            | 0.01546    |            |       |  0.58

Nlocal:        83.3333 ave          90 max          75 min
Histogram: 5 1 4 1 8 2 12 3 7 5
Nghost:        1760.38 ave        1791 max        1738 min
Histogram: 4 2 3 17 5 8 6 1 1 1
Neighs:        10573.5 ave       11720 max        9271 min
Histogram: 1 7 2 3 10 7 6 3 5 4

Total # of neighbors = 507529
Ave neighs/atom = 126.88225
Neighbor list builds = 911
Dangerous builds = 238

# Equilibrate just above the melting temperature to avoid step fn in T

fix 1 all npt temp 1.25 1.25 0.1 iso 5.68 5.68 0.5 mtk yes tchain 5 pchain 5
run 2000
Per MPI rank memory allocation (min/avg/max) = 3.644 | 3.646 | 3.650 Mbytes
Step Temp E_pair E_mol TotEng Press Volume 
   10000     2.405774    -4.450357            0  -0.84259824    5.8462256    3599.4667 
   11000    1.2376698   -6.4893983            0   -4.6333577    5.8891892     2772.242 
   12000    1.2705681   -6.5584834            0   -4.6531077    5.6562261    2763.4079 
Loop time of 0.656971 on 48 procs for 2000 steps with 4000 atoms

Performance: 526050.752 tau/day, 3044.275 timesteps/s
99.6% CPU use with 48 MPI tasks x no OpenMP threads

MPI task timing breakdown:
Section |  min time  |  avg time  |  max time  |%varavg| %total
---------------------------------------------------------------
Pair    | 0.3015     | 0.325      | 0.34373    |   1.5 | 49.47
Neigh   | 0.041566   | 0.043533   | 0.044954   |   0.4 |  6.63
Comm    | 0.21953    | 0.23742    | 0.26488    |   2.0 | 36.14
Output  | 5.5277e-05 | 5.7492e-05 | 7.4209e-05 |   0.0 |  0.01
Modify  | 0.042897   | 0.045961   | 0.048852   |   1.0 |  7.00
Other   |            | 0.004999   |            |       |  0.76

Nlocal:        83.3333 ave          91 max          74 min
Histogram: 2 2 4 2 10 6 8 7 4 3
Nghost:        2113.04 ave        2130 max        2095 min
Histogram: 1 0 7 7 6 8 12 3 2 2
Neighs:        13825.7 ave       15615 max       11856 min
Histogram: 3 2 2 4 11 10 6 6 0 4

Total # of neighbors = 663633
Ave neighs/atom = 165.90825
Neighbor list builds = 142
Dangerous builds = 13

#############################
# L I N E A R  Q U E N C H  #
#############################

# Define solid atoms. This closely follows ten Wolde  Ruiz-Montero and Frenkel  Faraday Discuss  1996  104  93-110
# Compute components of the per-atom q6 vector
compute q6 all orientorder/atom degrees 1 6 components 6 nnn NULL cutoff 1.3 # compute the Q6 parameter.
                                                                             # Use all neighbours within 1.3 unit cell.

# get number of connections
compute coord_number all coord/atom orientorder q6 0.5

# An atom is solid if it has 8 or more connections (of a possible 14)
variable is_solid atom c_coord_number>=8
group solid dynamic all var is_solid    # Must be dynamic to update
dynamic group solid defined

# do clustering
compute cluster solid cluster/atom 1.3 # Create a cluster where all atoms within are solid and max 1.3 units from another member

# define chunks one chunk per cluster
compute clus_chunks solid chunk/atom c_cluster nchunk every compress yes  # Says which atoms are in which chunk

# count the size of each chunk
compute size_chunks solid property/chunk clus_chunks count


# Find the maximum entry in the vector of chunk sizes
variable max_n equal max(c_size_chunks)


# Thermo style which includes this variable
# thermo_style custom step temp pe vol v_max_n

thermo ${N}  # Print the thermo information every 100 steps
thermo 1000  

# Reset the npt fix at a lower temperature (below freezing)
fix 1  all npt temp  ${temp} ${temp}  0.1  iso  5.68  5.68  0.5  mtk yes tchain  5  pchain  5
fix 1  all npt temp  0.45 ${temp}  0.1  iso  5.68  5.68  0.5  mtk yes tchain  5  pchain  5
fix 1  all npt temp  0.45 0.45  0.1  iso  5.68  5.68  0.5  mtk yes tchain  5  pchain  5

dump dmp2 all dcd ${N} traj.dcd
dump dmp2 all dcd 1000 traj.dcd


compute msd all msd com yes
variable twopoint equal c_msd[4]/6/(step*dt+1.0e-6)
fix 9 all vector 10 c_msd[4]
variable fit equal slope(f_9)/6/(10*dt)
thermo_style custom step temp pe c_msd[4] v_twopoint v_fit v_max_n

fix 1 all npt temp 1.25 ${temp} 0.1 iso 5.68 5.68 0.5 mtk yes tchain 5 pchain 5
fix 1 all npt temp 1.25 0.45 0.1 iso 5.68 5.68 0.5 mtk yes tchain 5 pchain 5
run 5000000 # 5000000  # Run for this many steps
Neighbor list info ...
  update every 1 steps, delay 10 steps, check yes
  max neighbors/atom: 2000, page size: 100000
  master list distance cutoff = 3.8
  ghost atom cutoff = 3.8
  binsize = 1.9, bins = 8 8 8
  4 neighbor lists, perpetual/occasional/extra = 1 3 0
  (1) pair lj/cut, perpetual
      attributes: half, newton on
      pair build: half/bin/atomonly/newton
      stencil: half/bin/3d
      bin: standard
  (2) compute orientorder/atom, occasional
      attributes: full, newton on
      pair build: full/bin/atomonly
      stencil: full/bin/3d
      bin: standard
  (3) compute coord/atom, occasional
      attributes: full, newton on
      pair build: full/bin/atomonly
      stencil: full/bin/3d
      bin: standard
  (4) compute cluster/atom, occasional
      attributes: full, newton on
      pair build: full/bin/atomonly
      stencil: full/bin/3d
      bin: standard
Per MPI rank memory allocation (min/avg/max) = 9.847 | 9.851 | 9.856 Mbytes
Step Temp PotEng c_msd[4] v_twopoint v_fit v_max_n 
   12000    1.2705681   -6.5584834 1.673174e-30 1.1619263e-32 8.3333333e+20            2 
   13000    1.2525744   -6.5608684   0.51250852 0.0032853109  0.041558644            1 
   14000    1.2518045   -6.5552619    0.9896492 0.0058907688  0.040277702            3 
   15000    1.2510914   -6.6218179    1.3955693 0.0077531624  0.038622343            3 
   16000    1.2709217   -6.6663335    1.8296932 0.0095296518   0.03742713            4 
   17000    1.2445165   -6.6174219    2.2903496  0.011227204  0.037224656            2 
   18000    1.2491136    -6.620256     2.711927  0.012555217  0.037005015            3 
   19000    1.2659253   -6.6451361    3.1460302  0.013798378   0.03683153            1 
   20000    1.2427921   -6.6127079    3.6523299  0.015218041  0.037097329            3 
   21000    1.2529941   -6.6427214    4.0637194   0.01612587  0.037257942            1 
   22000    1.2277719   -6.6253405    4.4954201  0.017028106  0.037162507            3 
   23000     1.262122   -6.5840876    4.9957775  0.018100643  0.037110945            6 
   24000    1.2610825    -6.554912     5.455945  0.018944253   0.03723194            3 
   25000    1.2478238    -6.574221    5.9546602  0.019848867  0.037365384            2 
   26000    1.2599946   -6.5595732    6.4569591  0.020695381  0.037594702            1 
   27000    1.2450818     -6.59174    7.0285935  0.021693189  0.037871144            2 
   28000    1.2364928   -6.6234568    7.4475461  0.022165316  0.038130534            2 
   29000    1.2617891   -6.6251409    7.8515759  0.022561999  0.038282784            2 
   30000    1.2269949   -6.5636532    8.4448307  0.023457863  0.038409026            3 
   31000    1.2483234   -6.6181286     8.811622  0.023687156  0.038576097            2 
   32000     1.246301   -6.6393127    9.2714798  0.024144478  0.038632289            3 
   33000    1.2786949   -6.5929527    9.8275285  0.024816991  0.038700399            1 
   34000    1.2461752   -6.6549866    10.264006  0.025156877  0.038804263            2 
   35000    1.2339017    -6.561389    10.822393  0.025767603  0.038883601            3 
   36000    1.2468749   -6.6628731    11.207611  0.025943543  0.038927559            2 
   37000    1.2465651   -6.5739405    11.821647   0.02662533  0.039004617            2 
   38000     1.265964   -6.6510069    12.246575  0.026856525  0.039120443            4 
   39000     1.265128   -6.6035696    12.710194  0.027158534  0.039197709            3 
   40000    1.2190516   -6.6313155    13.034887  0.027156014  0.039211897            3 
   41000    1.2648704   -6.6778292    13.484746   0.02740802    0.0391879            3 
   42000    1.2642612   -6.6368039    13.984464  0.027746952  0.039166692            2 
   43000    1.2453185   -6.6059151    14.315473  0.027743165  0.039098514            1 
   44000    1.2492962   -6.6600959    14.660675   0.02776643  0.038974836            2 
   45000    1.2509292    -6.592039    15.035432  0.027843392  0.038839396            2 
   46000    1.2404638   -6.6177625    15.456583  0.028001056  0.038679578            2 
   47000    1.2563498   -6.6133045    15.744635  0.027916019  0.038515028            2 
   48000    1.2323855   -6.6651524    15.975057  0.027734474  0.038331508            2 
   49000    1.2410982   -6.6668082    16.335203  0.027780957  0.038105897            3 
   50000    1.2293794   -6.6306813    16.853252  0.028088754  0.037911993            2 
   51000     1.230707   -6.5908229    17.306338   0.02827833  0.037728526            3 
   52000    1.2397622   -6.6225212    17.610704  0.028222282  0.037568801            4 
   53000    1.2171254   -6.6077301    18.024296  0.028340088  0.037401657            2 
   54000    1.2283364   -6.6696121    18.335379  0.028295338   0.03722546            2 
   55000    1.2354999   -6.6857102    18.778062  0.028451608  0.037065597            3 
   56000     1.240337    -6.617711    19.223226  0.028605992  0.036927003            3 
   57000     1.260245   -6.6047084    19.732027  0.028847992  0.036806899            2 
   58000      1.25398   -6.6205678    20.194142  0.029014572  0.036702494            3 
   59000    1.2735082   -6.6425101    20.586846  0.029077465  0.036619434            2 
   60000    1.2371778   -6.6736167    21.003003  0.029170837  0.036550051            2 
   61000    1.2530414   -6.6467498    21.481023   0.02934566  0.036488567            1 
   62000    1.2165842   -6.6138018     21.95481  0.029509153  0.036431403            2 
   63000    1.2529523   -6.6155827    22.590682  0.029881854  0.036398304            2 
   64000    1.2084082   -6.5852623    23.161611  0.030158347  0.036388739            1 
   65000    1.2280436    -6.618494    23.509301   0.03014013   0.03639488            2 
   66000    1.2756712   -6.5854669    23.992614  0.030293705  0.036399693            1 
   67000    1.2210303   -6.5943569    24.306339  0.030231765  0.036389369            2 
   68000     1.242933   -6.6183725    24.862415  0.030468645  0.036386247            3 
   69000    1.2565355   -6.6364774    25.227004  0.030467396  0.036381151            2 
   70000    1.2590069   -6.5997721    25.796118  0.030709664  0.036385094            3 
   71000    1.2508825   -6.6448683    25.946491  0.030453628  0.036379057            2 
   72000    1.2268224   -6.6451122    26.381961  0.030534676  0.036364123            3 
   73000    1.2315736   -6.6055587    26.963063  0.030779752  0.036354049            1 
   74000    1.2459308   -6.5952596    27.218224  0.030651152  0.036339933            7 
   75000    1.2469879   -6.5784527    27.785649  0.030872943  0.036329611            3 
   76000    1.2130391   -6.6025224    28.427218  0.031170195  0.036331599            5 
   77000    1.2484016   -6.6456512    28.635965  0.030991303  0.036335461            3 
   78000    1.2507775   -6.7137187    29.018667  0.031002849  0.036328615            2 
   79000    1.2206964   -6.7176566    29.406927  0.031019965  0.036322851            2 
   80000    1.2482558   -6.6902033    29.775584  0.031016233  0.036310653            2 
   81000    1.2506805   -6.6610499    30.317408  0.031190749  0.036295922            2 
   82000    1.2397083   -6.6277912    30.706033  0.031205318   0.03627695            1 
   83000    1.2079164   -6.6314118    31.035526  0.031160167  0.036254298            5 
   84000    1.2374976   -6.6128376     31.49853  0.031248541  0.036235259            1 
   85000    1.2257807   -6.6069664    31.963861  0.031337119  0.036218273            2 
   86000    1.2292694   -6.6750156    32.153427  0.031156421   0.03618713            2 
   87000    1.2082184   -6.6382622    32.590375  0.031216834   0.03615223            2 
   88000    1.2247831   -6.6787357    32.903122  0.031158259  0.036113686            3 
   89000    1.2209215   -6.6393704     33.37084  0.031246105  0.036078192            3 
   90000    1.2426087   -6.6692561    33.688345  0.031192912  0.036042421            2 
   91000    1.2281076   -6.6236761    34.118242  0.031243811  0.035999952            4 
   92000    1.2868707   -6.6222787    34.678853  0.031412004   0.03596438            2 
   93000    1.2346869   -6.6304528    35.054711  0.031411031   0.03593521            3 
   94000    1.2261389   -6.6430013    35.501956  0.031473365  0.035911078            5 
   95000    1.2551001   -6.6702105    36.010124  0.031587828  0.035890012            1 
   96000    1.2112557   -6.6137244    36.512824  0.031695159  0.035868411            3 
   97000     1.229989   -6.6814855    36.553467  0.031403322  0.035841585            4 
   98000    1.2375621   -6.6597923     37.00564  0.031467381  0.035808155            3 
   99000    1.2455987   -6.6769529    37.366032  0.031452889  0.035769405            3 
  100000    1.2160339   -6.6412326    38.063283  0.031719403  0.035745887            1 
  101000    1.2517845   -6.6542396    38.412615  0.031693577  0.035723701            3 
  102000    1.2486519   -6.6212834    39.003669  0.031865742  0.035709246            3 
  103000    1.2426662   -6.6391032    39.223102  0.031733901  0.035696758            4 
  104000    1.2150214   -6.6353547    39.767647  0.031865102  0.035684713            1 
  105000    1.2277592   -6.6141654    39.999306  0.031745481   0.03566949            2 
  106000    1.2003146   -6.6146557    40.512505  0.031849454  0.035646007            3 
  107000    1.2542794   -6.6522438     40.75495  0.031740615  0.035624279            2 
  108000    1.2222123   -6.6007895    41.196904  0.031787734  0.035598596            5 
  109000    1.2250871   -6.6687261    41.550087  0.031766122  0.035574379            1 
  110000    1.2332948   -6.6201525     42.35738  0.032088924  0.035562541            5 
  111000    1.2181459   -6.6384065    42.822206  0.032148803  0.035553564            3 
  112000    1.2391188   -6.6871789    43.194721  0.032138929  0.035549433            2 
  113000    1.2491492    -6.631473    43.763706  0.032274119  0.035544797            1 
  114000    1.2530542   -6.6913188    43.985739  0.032153318  0.035541731            2 
  115000    1.2344132   -6.6410085    44.560042  0.032289885  0.035538493            2 
  116000    1.2185465   -6.6694519    44.944247  0.032287533  0.035529443            1 
  117000    1.2175117   -6.6911752    45.303537  0.032267476  0.035523626            2 
  118000    1.2274915   -6.6831386    45.715751  0.032285135  0.035523891            4 
  119000    1.2253163   -6.6701405    45.956094  0.032182139  0.035517939            2 
  120000    1.2238806   -6.6635295    46.708586  0.032436518  0.035510941            1 
  121000    1.2310105    -6.666673    46.943282  0.032330084   0.03550533            1 
  122000    1.2201115   -6.6544783    47.337783  0.032334551  0.035500861            5 
  123000    1.2384262   -6.6250112    47.751997  0.032352302  0.035499499            2 
  124000    1.2442515    -6.644634    48.379678  0.032513224  0.035495365            2 
  125000    1.2371663   -6.6779022    48.880179  0.032586786  0.035499704            3 
  126000    1.2520747   -6.6927317    49.350934  0.032639506  0.035506325            1 
  127000    1.2099688   -6.6219039    49.842941  0.032705342  0.035512761            1 
  128000    1.2355637   -6.6720704    49.916826  0.032497933  0.035512846            2 
  129000    1.2426121   -6.6696723    50.216492  0.032439594  0.035508385            5 
  130000    1.2221592   -6.6157177    50.944816  0.032656933  0.035507683            2 
  131000    1.2474831   -6.6611757    51.286152  0.032624778  0.035503098            6 
  132000    1.2452646   -6.6553645    51.837651   0.03272579  0.035499023            4 
  133000    1.2045827   -6.6657692    52.177154  0.032692453  0.035495492            3 
  134000    1.2562111   -6.6966496    52.450007  0.032618163  0.035493051            3 
  135000    1.2423273   -6.6428746    52.813214   0.03260075  0.035485205            3 
  136000     1.217503   -6.6448817    52.971101  0.032457783  0.035474342            9 
  137000    1.2380746   -6.6758211    53.378057  0.032468404  0.035461302            2 
  138000    1.1867391   -6.6318081    53.902319  0.032549709  0.035447272            2 
  139000    1.2390893   -6.6436925     54.25986  0.032529892  0.035434968            2 
  140000    1.2214605   -6.6214967    54.632283  0.032519216  0.035422772            4 
  141000    1.2154271   -6.6712027    54.910236  0.032452858  0.035408508            2 
  142000    1.2311737   -6.6777174    55.133618   0.03235541   0.03539217            3 
  143000     1.230944    -6.615646    55.911831  0.032582652   0.03537348            4 
  144000    1.2219091   -6.6591268    55.975551  0.032393258  0.035351515            4 
  145000    1.2221036   -6.6476335    56.549236  0.032499561  0.035333433            4 
  146000    1.2368296   -6.6631025    56.797968  0.032418931  0.035314725            1 
  147000    1.2707942   -6.6838935     57.21206   0.03243314  0.035295096            5 
  148000    1.2006597   -6.6463849    57.558905  0.032409293  0.035273973            4 
  149000    1.2171522   -6.6695241    57.943097  0.032406653   0.03525659            4 
  150000    1.2424294   -6.6567435    58.497067  0.032498371  0.035239214            2 
  151000    1.2234295   -6.6316417    59.241963   0.03269424  0.035229398            2 
  152000    1.2233791   -6.6950057    59.803244  0.032786866  0.035219952            2 
  153000    1.2317676    -6.612984    60.143133  0.032757697  0.035213431            1 
  154000    1.2447533   -6.6792902    60.385063    0.0326759  0.035203918            3 
  155000    1.2225889   -6.6669017    60.692793  0.032630534  0.035197314            4 
  156000     1.180927   -6.6505928    61.458847   0.03283058  0.035189895            2 
  157000    1.2170793   -6.6782966     61.91603  0.032864135  0.035182249            3 
  158000    1.2053983   -6.7003402    62.000551  0.032700713  0.035175693            4 
  159000    1.2295469   -6.6470071    62.569575  0.032793278  0.035170028            4 
  160000    1.2162135   -6.6540709    63.188113  0.032910475   0.03516164            4 
  161000    1.1956715   -6.6876496    63.235542  0.032730612  0.035155216            2 
  162000     1.208096   -6.6370673    63.916496  0.032878856  0.035150515            2 
  163000    1.2218298   -6.6313348    64.115969  0.032779125  0.035144216            3 
  164000    1.2310751   -6.6656948    64.596983   0.03282367   0.03513719            1 
  165000    1.2023728   -6.6846883    64.797694  0.032726108  0.035129894            1 
  166000     1.222009   -6.7518523    64.853975  0.032557216  0.035120836            2 
  167000     1.213508   -6.7108021     65.44283  0.032656103  0.035108706            4 
  168000    1.2188851   -6.7088954    66.114267  0.032794775  0.035102081            2 
  169000    1.1955548   -6.6968753    66.788652   0.03293326   0.03510046            5 
  170000    1.2430837   -6.6612109    67.539311  0.033107505  0.035100524            2 
  171000    1.2345005   -6.6816887    68.017421  0.033146891  0.035104057            3 
  172000    1.2082647   -6.6563917     68.52444  0.033199825   0.03510849            2 
  173000    1.2177271   -6.6477985    69.068928  0.033270197  0.035113608            1 
  174000    1.2051185   -6.6632919     69.05998  0.033074703  0.035114698            5 
  175000    1.1965673   -6.6621017    69.391358  0.033043504   0.03511214            2 
  176000    1.2213701   -6.6712084    69.668558  0.032987007   0.03510921            4 
  177000     1.232773   -6.6720362    70.102625  0.033005002   0.03510602            1 
  178000    1.1971457   -6.7179919    70.598342  0.033051658  0.035101215            3 
  179000      1.19917   -6.6802596    70.935529  0.033023989  0.035095338            4 
  180000    1.2183357   -6.7188149    71.692039  0.033190759  0.035092085            3 
  181000    1.2351558   -6.7097202    72.057059  0.033175441  0.035090559            1 
  182000    1.2182418   -6.6711349    72.689427  0.033282705  0.035092855            2 
  183000    1.2301288   -6.6420326    73.040342  0.033260629  0.035096933            6 
  184000    1.2531254   -6.6645169    73.849302  0.033446242  0.035103335            3 
  185000    1.2100273   -6.7008633    74.108446  0.033382183  0.035112018            4 
  186000    1.2108868   -6.6647563     74.66069   0.03345013  0.035120507            3 
  187000    1.2242095   -6.6989188    75.022732   0.03343259  0.035128077            2 
  188000    1.2293021   -6.7147404    75.656381   0.03353563   0.03513703            3 
  189000     1.225686   -6.7144732    76.004631  0.033511742  0.035145398            3 
  190000     1.217608   -6.6639274    76.484042  0.033545633  0.035154933            2 
  191000     1.224604   -6.6556565    76.809331  0.033511924  0.035161957            2 
  192000    1.2436814     -6.73537    76.682534   0.03328235  0.035167177            4 
  193000    1.2078821   -6.6575988    77.539779  0.033480043  0.035171969            4 
  194000    1.2364702    -6.709773    78.135558  0.033563384  0.035178935            4 
  195000    1.2277167   -6.6814586     78.29751  0.033460474   0.03518259            2 
  196000    1.2327404   -6.6981141    78.457214  0.033357659  0.035185187            1 
  197000    1.2275615   -6.6492449     79.14704  0.033480135  0.035188734            7 
  198000    1.2417656    -6.688569     79.92013  0.033636418  0.035193923            4 
  199000    1.2336497   -6.6586555    79.938731  0.033475181  0.035198509            3 
  200000    1.2027072   -6.7174026    80.606281   0.03358595  0.035205018            5 
  201000    1.2320327   -6.7257939    80.871709  0.033528901  0.035209028            6 
  202000    1.1993299   -6.6717354     81.66797  0.033691407  0.035216388            1 
  203000    1.2357623   -6.6703797    82.194025   0.03374139  0.035224135            2 
  204000    1.2573677   -6.6405625    82.767649  0.033810314  0.035232346            2 
  205000    1.2350037   -6.6383599    83.027579  0.033751048  0.035241158            1 
  206000    1.2390929   -6.7232383    83.303344  0.033698764  0.035248404            3 
  207000    1.1915342   -6.7159962    83.447355  0.033593943   0.03525293            6 
  208000    1.2007421   -6.7220122    83.919764    0.0336217  0.035257766            4 
  209000    1.2148858   -6.7061335    84.388052  0.033647549  0.035260586            3 
  210000    1.2376051    -6.662682    84.862914  0.033675759  0.035264229            1 
  211000    1.2122166   -6.6988369    85.330186  0.033700705  0.035266365            2 
  212000    1.2103309   -6.7059606    85.657627  0.033670451  0.035271587            2 
  213000    1.2294656   -6.6910186    86.153136  0.033706235  0.035274887            2 
  214000    1.2037189   -6.6982765    86.660811  0.033746422  0.035279971            3 
  215000    1.2287789   -6.7368078    87.152626  0.033780088  0.035287443            3 
  216000    1.2294275   -6.7239702    87.685443   0.03382926  0.035296468            1 
  217000    1.2280409   -6.7288953     88.10346  0.033833894  0.035302927            2 
  218000    1.2166483   -6.6914938    88.707006  0.033909406  0.035310472            4 
  219000    1.2016739   -6.6950478    89.484952  0.034050591  0.035321046            3 
  220000    1.1761077   -6.7197586    89.362257   0.03384934  0.035328909            2 
  221000    1.1992908   -6.7468788    89.693675  0.033821144  0.035335511            3 
  222000    1.2345432   -6.6880086     90.74959  0.034065161  0.035343233            3 
  223000    1.2073902   -6.6834618    90.946953  0.033986156  0.035351918            2 
  224000    1.2285094   -6.6953287    91.517186  0.034046572  0.035359607            3 
  225000    1.1985116   -6.7027925    91.883684  0.034030994  0.035365639            2 
  226000     1.233471    -6.670258    92.671542  0.034170922  0.035376117            2 
  227000    1.2469039   -6.6808121    92.873799   0.03409464  0.035383036            5 
  228000    1.2071031   -6.7108216    92.905231   0.03395659  0.035389897            3 
  229000    1.2118591   -6.7169545    92.752659  0.033752787  0.035393474            2 
  230000    1.1897759   -6.7330945    93.447473   0.03385778  0.035397898            3 
  231000    1.1942085   -6.6565722    94.476645  0.034082484  0.035402984            3 
  232000     1.224497   -6.7088034    94.645097  0.033996084  0.035409829            4 
  233000      1.20385   -6.6965151    95.291933  0.034081521  0.035417965            1 
  234000    1.2044675   -6.6856991    96.010185  0.034191661  0.035426677            2 
  235000    1.2099172   -6.7220078    96.425027  0.034193272  0.035434182            2 
  236000    1.2115385   -6.7237739    96.629049  0.034120427  0.035442265            1 
  237000    1.2417636    -6.720045    97.074477  0.034133079  0.035448922            4 
  238000    1.2130562   -6.6968305    97.562677  0.034160601  0.035455519            3 
  239000    1.2303025   -6.6973105    98.346257  0.034290885  0.035463726            6 
  240000    1.1933376   -6.6834293    98.931144  0.034351092  0.035472541            7 
  241000    1.2263315   -6.6940964    98.836934   0.03417598   0.03548044            6 
  242000    1.2171499   -6.7517087    99.007446  0.034093473  0.035488635            3 
  243000    1.2272757   -6.7044536      99.7144   0.03419561  0.035495229            2 
  244000    1.2176758   -6.7051388    99.818442  0.034090998  0.035501072            2 
  245000    1.2007747   -6.7688179    100.00542  0.034015449  0.035506836           10 
  246000     1.202744   -6.7332713    100.63409  0.034090138  0.035511179            1 
  247000    1.2383592   -6.7419268     100.5971  0.033939643  0.035515466            2 
  248000    1.1850232   -6.7054016     101.5359  0.034118247  0.035519392            2 
  249000    1.2482417   -6.6823012    102.03076  0.034146842  0.035523689            3 
  250000    1.2229447   -6.7227678    102.24698  0.034082325  0.035526553            2 
  251000    1.1952101    -6.682256    102.68568  0.034092191  0.035529451            3 
  252000    1.2355228   -6.6847646    102.95498   0.03404596  0.035531306            1 
  253000    1.2098472   -6.6666838    103.88527   0.03421781  0.035531936            2 
  254000    1.2293659   -6.7027319    103.93107   0.03409812  0.035531992            3 
  255000    1.1797072   -6.6809599     104.2706  0.034075359  0.035533157            3 
  256000    1.1962565   -6.7184245    104.69331  0.034079854   0.03553422            1 
  257000    1.2226941   -6.6736647    105.41807  0.034182252   0.03553603            3 
  258000    1.2172462   -6.6640029    106.09664  0.034268942  0.035538361            2 
  259000    1.1984497   -6.6790536    106.27125  0.034192809  0.035540895            3 
  260000    1.2129196   -6.6991962    106.57768  0.034159513  0.035541979            2 
  261000    1.1753837   -6.6991977    107.04868  0.034179018  0.035542111            3 
  262000      1.21569   -6.7145221    107.30737  0.034130844  0.035542928            3 
  263000    1.2113441   -6.6703431    107.87414  0.034180653   0.03554399            3 
  264000    1.2320028    -6.694628    108.36373  0.034205722  0.035544627            7 
  265000    1.2180456   -6.7222184    108.89984  0.034245232  0.035547334            3 
  266000    1.2251614   -6.7155083    109.25931  0.034229106  0.035548258            2 
  267000    1.2219345   -6.6917523    109.85306  0.034286224  0.035548169            2 
  268000    1.2297518   -6.7416975    109.54531  0.034062595  0.035547546            4 
  269000    1.2435521   -6.7663021    109.59104  0.033950135  0.035545268            2 
  270000    1.1949281   -6.6759377    110.17319  0.034004072  0.035541683            3 
  271000    1.2286017   -6.7035717    110.68401  0.034035675  0.035537514            2 
  272000    1.1980033   -6.7671284    111.11108  0.034041385  0.035534029            3 
  273000    1.1949386   -6.6925276    111.81467  0.034131463  0.035531786            6 
  274000    1.2086954   -6.7270489    111.91119  0.034036251  0.035529795            1 
  275000    1.2033168   -6.7123207    111.68948  0.033845296  0.035526912            3 
  276000     1.193201   -6.7464177    111.97217  0.033808023  0.035520903            1 
  277000    1.2108055   -6.7121198    112.43126  0.033824087  0.035514455            1 
  278000    1.1965631   -6.7117555    113.08148  0.033897327  0.035507992            3 
  279000    1.2154569   -6.7533226    112.98396  0.033746703  0.035500171            1 
  280000     1.228924   -6.7324052    113.46981  0.033770778  0.035491418            2 
  281000    1.1829789   -6.7140428    113.96107  0.033796284  0.035482329            2 
  282000    1.2278958   -6.7327235    114.20874  0.033749629  0.035472198            2 
  283000    1.2275553    -6.705261    114.15143  0.033613496  0.035462547            2 
  284000    1.1981779   -6.7591071    114.43613  0.033578677   0.03545178            2 
  285000     1.189573   -6.7365544    114.85801  0.033584213  0.035439629            3 
  286000    1.2108723   -6.7214493    115.81119  0.033744519  0.035430014            1 
  287000    1.2186892   -6.7387018    115.48513  0.033532266  0.035418451            2 
  288000    1.2035775   -6.7633483    116.12012  0.033599571  0.035405824            4 
  289000    1.1918631   -6.7366236    116.72968  0.033659078  0.035394908            3 
  290000    1.2056238   -6.6932897    117.44656  0.033749012  0.035384113            3 
  291000    1.1743079   -6.6882172    117.61344  0.033680824   0.03537278            4 
  292000    1.1818903   -6.7636727    117.60425  0.033562857  0.035361855            3 
  293000    1.2119669   -6.7478862    118.24011  0.033629155  0.035350044            3 
  294000     1.216808   -6.6708424     118.7795   0.03366766  0.035339649            3 
  295000    1.1981951   -6.7252034    119.07704  0.033637582  0.035329863            4 
  296000    1.1984916   -6.7181076     119.3281  0.033594624  0.035321107            5 
  297000     1.192074    -6.708619    120.32854  0.033762217  0.035312676            3 
  298000    1.2071191   -6.6863438    120.77592  0.033774027  0.035304171            3 
  299000    1.1969254   -6.7561801    120.63698  0.033622347  0.035294297            4 
  300000    1.2190979   -6.7572214    120.87431  0.033576199  0.035284508            2 
  301000    1.1759092   -6.6950795    121.74596   0.03370597  0.035276495            1 
  302000    1.1929063   -6.7310813    121.72696  0.033589117  0.035266413            4 
  303000     1.212815   -6.6973664    122.62507  0.033725267  0.035257305            1 
  304000    1.2147772   -6.7050195    123.08354  0.033740006  0.035248831            2 
  305000     1.206628   -6.7314644    123.36024  0.033704983  0.035239992            6 
  306000    1.2084928   -6.7570413    123.81344  0.033718257   0.03523257            3 
  307000    1.2013868   -6.6868257    124.24068  0.033724397  0.035224624            2 
  308000    1.2051179   -6.7209919     124.7899    0.0337635  0.035217674            2 
  309000    1.2348871   -6.7267149    125.27761  0.033785762  0.035210394            7 
  310000    1.2084441   -6.7489431    125.28491  0.033678738   0.03520323            4 
  311000    1.2012011   -6.7569204    125.51379  0.033631776  0.035194459            3 
  312000    1.1816089   -6.7234265     126.2695  0.033725828  0.035186723            3 
  313000    1.2139098   -6.7482023    126.67493   0.03372602  0.035179055            2 
  314000    1.2288121   -6.7414397    126.83733  0.033661712  0.035171218            2 
  315000    1.1995505   -6.7408364    126.50763  0.033467628  0.035162804            1 
  316000    1.2108806   -6.7605545    127.30977  0.033573251  0.035153423            1 
  317000    1.2198767   -6.7442104    127.89917  0.033622285  0.035142632            2 
  318000     1.220086   -6.7271238    128.42137  0.033653398  0.035134084            3 
  319000    1.2144228   -6.7807934    128.79846   0.03364641  0.035125844            6 
  320000    1.2138105   -6.7761218    128.71585  0.033519752  0.035115941            3 
  321000    1.2031339    -6.748637    129.80192  0.033697279  0.035105563            4 
  322000    1.1949223   -6.7616381    129.87458  0.033611433  0.035096799            2 
  323000    1.2039978   -6.7687873    130.15586  0.033579942  0.035087551            3 
  324000    1.2178385   -6.7483426    130.68045  0.033611226   0.03507801            2 
  325000    1.2048585   -6.7153355    130.94373  0.033575315  0.035068797            1 
  326000    1.2038563   -6.7502207    130.99877  0.033486394  0.035058496            1 
  327000    1.2174182   -6.7252229    131.30538  0.033462125    0.0350476            3 
  328000    1.2325454   -6.7490006    131.83658  0.033495065   0.03503662            1 
  329000    1.1950065   -6.7508048     131.7503  0.033371404  0.035025248            3 
  330000    1.1810334   -6.7469088    132.47968  0.033454464  0.035014121            5 
  331000    1.1822087    -6.761311    132.92971  0.033466693    0.0350023            3 
  332000    1.2168883   -6.7593337    132.99168  0.033381447  0.034989841            2 
  333000    1.2223902   -6.7303576    133.10422  0.033309363  0.034977236            3 
  334000    1.1861496   -6.7794953    133.41353  0.033286809   0.03496397            1 
  335000    1.1852945   -6.7352511    134.41156  0.033435712  0.034951292            2 
  336000    1.2175135   -6.7532581    134.41125  0.033336123  0.034938652            2 
  337000    1.1787097   -6.7802636    134.49749  0.033258529  0.034924878            2 
  338000    1.2080917   -6.7465724    135.10171  0.033309101  0.034911414            3 
  339000       1.1788   -6.7365682    135.47608  0.033302871  0.034897812            2 
  340000    1.1799804   -6.7188279    135.85988   0.03329899  0.034885211            2 
  341000    1.2210989   -6.7365469    136.31914  0.033313574  0.034873441            3 
  342000    1.2307096   -6.7582899    136.76378  0.033324508  0.034861136            3 
  343000    1.2014098   -6.7722018    136.67132  0.033204887  0.034848092            3 
  344000    1.1988662   -6.6936242    137.41799  0.033289241  0.034835129            3 
  345000    1.2083278   -6.7362516    137.60269  0.033237366   0.03482325            5 
  346000    1.2125772   -6.7202603    138.23017  0.033292429  0.034810489            3 
  347000     1.197102   -6.7791076    138.14167  0.033175233  0.034797523            2 
  348000    1.1927297   -6.7625091    138.74371  0.033224068  0.034784464            2 
  349000    1.1892967   -6.7467625    140.07091  0.033445775  0.034773937            2 
  350000    1.1745711   -6.7804293    139.97504   0.03332739  0.034764057            4 
  351000    1.1767658    -6.723787    140.73051  0.033411801  0.034753253            3 
  352000    1.1914382   -6.7284969    140.88463   0.03335337  0.034741799            1 
  353000    1.1930765   -6.7700866    140.46758  0.033160429  0.034730688            2 
  354000    1.1864683   -6.7506739    141.07175   0.03320898  0.034718837            1 
  355000    1.2004819   -6.7603856    141.66255  0.033254119  0.034707879            2 
  356000    1.1795642   -6.7618761     141.9368  0.033224907  0.034696746            3 
  357000    1.1893997   -6.7292397    142.71148  0.033312671  0.034686163            2 
  358000    1.1840889   -6.7640725    143.41388  0.033383119  0.034676794            3 
  359000    1.1723344   -6.7567916    143.53218   0.03331759  0.034666162            2 
  360000     1.197825    -6.789563    143.75204  0.033275934  0.034655737            2 
  361000     1.177126   -6.7662023      143.642  0.033158357  0.034644476            3 
  362000    1.2180533   -6.7837829    144.05116  0.033160948  0.034633495            3 
  363000    1.1949437   -6.7342565    144.87686   0.03325915  0.034623149            3 
  364000    1.1749259   -6.7379097    145.85906  0.033392643  0.034613522            3 
  365000    1.2022844   -6.7408413    145.59131  0.033240026  0.034605201            3 
  366000    1.1713639   -6.7348256    146.90821  0.033449045  0.034596026            2 
  367000    1.1752983   -6.7424937    147.45952  0.033483088  0.034588292            2 
  368000    1.1970522    -6.766444    147.30988  0.033358217  0.034582035            3 
  369000    1.2107735   -6.7531827    148.20981  0.033471051  0.034575663            3 
  370000    1.1650078   -6.7615929    148.38912  0.033420973  0.034568938            4 
  371000    1.1956681    -6.734034    149.61096  0.033605337  0.034562908            2 
  372000    1.1802959   -6.7332928    149.66963  0.033528142  0.034557114            3 
  373000    1.1935713   -6.7537772    149.42555  0.033383725  0.034551349            3 
  374000    1.1891741   -6.7423202    150.25706  0.033479736  0.034544387            1 
  375000    1.2360647   -6.7446531    150.32495  0.033405543  0.034538427            2 
  376000    1.2140367   -6.7279221    151.13508   0.03349625  0.034532601            2 
  377000     1.192262   -6.7156349    151.01781  0.033381479  0.034526769            1 
  378000     1.198139    -6.802652    151.41972  0.033381772  0.034520486            2 
  379000    1.1865636   -6.7293177    152.25498  0.033477347  0.034513104            4 
  380000    1.1852975   -6.7339624    152.44934  0.033431874  0.034505844            1 
  381000    1.1878101   -6.7849063    151.91923  0.033228179  0.034498033            4 
  382000    1.1760009   -6.7773914    153.07922  0.033394245  0.034490497            3 
  383000    1.1886844   -6.7991455    153.33186  0.033362023    0.0344824            1 
  384000     1.187393   -6.7572739    153.30788  0.033269939  0.034474108            5 
  385000    1.1785667   -6.7734294    154.09868  0.033354692  0.034465854            3 
  386000    1.1724609   -6.7343354    154.25853  0.033302791   0.03445784            2 
  387000    1.1844051    -6.738379    154.77416   0.03332777  0.034449053            3 
  388000    1.1981716   -6.8175751    154.58573  0.033201401  0.034439884            2 
  389000    1.1744349   -6.7235728    155.91894  0.033401658  0.034431305            2 
  390000    1.2163309   -6.7660087      156.043  0.033342522  0.034423473            5 
  391000    1.2009767   -6.7345948    156.81206  0.033421154  0.034415325            2 
  392000    1.1626448   -6.7492552    156.30191  0.033227447   0.03440801            3 
  393000    1.1746737   -6.7784404    157.42198  0.033380402  0.034400327            4 
  394000    1.1732215   -6.7443671    157.58636  0.033330449  0.034393948            3 
  395000    1.1987003   -6.7365616    158.38582  0.033414731  0.034387987            3 
  396000    1.1757263   -6.7608935    158.59975  0.033375367  0.034381367            4 
  397000    1.1890929   -6.7812098    158.61245  0.033293964  0.034373704            2 
  398000    1.2013747   -6.7482148    159.59551  0.033416146  0.034367179            6 
  399000    1.2158199   -6.7573212    159.01638  0.033211442  0.034360067            3 
  400000    1.1866237   -6.7772552    159.54611  0.033238773  0.034352486            3 
  401000    1.1690405   -6.7501095    160.47797  0.033349537  0.034345055            2 
  402000    1.1896163   -6.7742379    160.52611  0.033276558  0.034338141            3 
  403000    1.1792702    -6.782038    161.31176  0.033356443  0.034331228            1 
  404000    1.1512407   -6.8161597    161.84975  0.033384849  0.034324757            3 
  405000    1.1895708   -6.7588904    162.03986  0.033341535  0.034317988            1 
  406000    1.1738986   -6.8053063    162.23635  0.033299742  0.034311317            3 
  407000    1.2101987   -6.8002771    162.00639  0.033170842  0.034303149            2 
  408000    1.2060976   -6.7757946    162.16422  0.033121777  0.034294682            5 
  409000     1.201829   -6.7654694    162.95665  0.033202251  0.034285752            6 
  410000    1.1834304   -6.7984459     163.6928  0.033270894  0.034277906            3 
  411000    1.1845124   -6.7640928    163.40256  0.033131095  0.034269308            3 
  412000    1.1766717   -6.7616522    164.28981   0.03323014  0.034260665            4 
  413000     1.151457   -6.7946881    163.63042   0.03301663  0.034252506            3 
  414000    1.2057153   -6.8117649    164.40694  0.033093184   0.03424366            3 
  415000    1.1612491   -6.7621883    165.48453  0.033229824   0.03423446            3 
  416000    1.2087081   -6.8057182    164.74086  0.033000974  0.034225774            7 
  417000    1.1795469   -6.7695561    165.45679  0.033064906  0.034216369            5 
  418000    1.1906768   -6.7763779    165.50177   0.03299477  0.034206649            3 
  419000    1.1796854   -6.7452376    166.14084  0.033043126  0.034195739            2 
  420000    1.1791437   -6.7480087    166.36832  0.033009587  0.034185212            3 
  421000    1.1778516   -6.7886836    166.07029  0.032872188   0.03417331            1 
  422000    1.2255424    -6.768366    166.53458  0.032885975  0.034161005            1 
  423000     1.203846   -6.7818389    166.51764  0.032804893  0.034148297            2 
  424000    1.1889806   -6.7820739    166.69186  0.032761764  0.034135892            1 
  425000        1.196   -6.7877435    167.26021  0.032796119   0.03412331            2 
  426000    1.1702699   -6.7668259    168.34013  0.032930386  0.034111532            3 
  427000    1.1470722   -6.7701218    168.10403  0.032807189   0.03409909            4 
  428000    1.1994349    -6.805024     168.1461  0.032738727  0.034086271            1 
  429000    1.1690993   -6.8240057    168.17833  0.032668674  0.034073079            3 
  430000    1.1764758   -6.7788229    169.41167  0.032831718  0.034061116            1 
  431000    1.1888997   -6.7723941     170.1021  0.032889037  0.034048607            3 
  432000     1.155208   -6.8050549    169.98963  0.032791209  0.034036799            3 
  433000     1.190886   -6.7802247    170.03151  0.032723539  0.034025382            4 
  434000     1.213367   -6.7842547    170.59573  0.032756476  0.034014458            3 
  435000    1.1696631   -6.7772032    170.93136  0.032745472   0.03400315            1 
  436000    1.1852325   -6.7514687    171.31002  0.032742741  0.033991433            3 
  437000    1.1733195   -6.6989602    172.16048  0.032829992  0.033979402            2 
  438000    1.2016876   -6.7406977    172.49044  0.032817816  0.033968266            6 
  439000    1.1783001   -6.8070996    172.43936  0.032733364  0.033957852            2 
  440000    1.1912488   -6.7833098     173.0569  0.032775927  0.033946806            3 
  441000    1.1861902    -6.785857    173.85271  0.032851985  0.033935797            2 
  442000    1.1780492   -6.8213824      173.227  0.032659691  0.033924756            4 
  443000    1.1894141   -6.7727032    174.03811  0.032738546  0.033914228            5 
  444000    1.1850631   -6.7522815    174.90002  0.032826581  0.033904058            5 
  445000    1.1755037   -6.7656536    175.51537  0.032868047   0.03389378            3 
  446000    1.1831261   -6.8199173    175.37414  0.032767963  0.033883744            4 
  447000    1.1908356   -6.8290369      175.309  0.032682513  0.033873033            5 
  448000    1.1820526   -6.7858251    176.49589  0.032830337  0.033863212            2 
  449000    1.1869597   -6.7848913    176.68037  0.032791458  0.033853376            3 
  450000    1.1533566   -6.7427261    177.37971  0.032848094  0.033844359            1 
  451000    1.1659484   -6.7961382    177.28565   0.03275788  0.033834703            2 
  452000    1.1666141   -6.7411457    178.73309  0.032952266  0.033825296            3 
  453000    1.1659633   -6.7824044    178.42979   0.03282373  0.033815332            3 
  454000    1.1898255   -6.7471806    178.02371  0.032676893  0.033805472            2 
  455000    1.2144321   -6.7729955     178.3173  0.032658846  0.033793914            3 
  456000    1.1803162   -6.7929369    178.24691  0.032574363  0.033782597            4 
  457000    1.1973972   -6.8370276    178.26976   0.03250725  0.033771137            3 
  458000    1.1769145   -6.7830211    179.42266  0.032646045  0.033759637            3 
  459000    1.1676957   -6.8576311    179.34113  0.032560118  0.033748022            3 
  460000    1.1929913   -6.7617525    180.64199  0.032724998  0.033736837            6 
  461000    1.1948195    -6.829702    180.16288  0.032567404  0.033725092            3 
  462000    1.1770753   -6.7733003     180.1878  0.032501407  0.033713725            3 
  463000    1.1418654   -6.7926377    180.57566  0.032501018  0.033702719            1 
  464000    1.1662372   -6.8498033     180.6756  0.032448923  0.033691224            1 
  465000     1.170349   -6.7906514    181.33816  0.032497879  0.033679151            5 
  466000    1.1689116   -6.7789659    181.66906  0.032487313  0.033667418            3 
  467000    1.1938272   -6.7839749     181.7002  0.032423305   0.03365554            3 
  468000    1.1566942   -6.8390957    181.72111  0.032357747  0.033642839            2 
  469000    1.1798661   -6.8116539     182.3832  0.032406397  0.033630439            2 
  470000    1.1876305   -6.8341794    182.91827  0.032432317  0.033618021            3 
  471000    1.1614034   -6.8100263    182.92087  0.032363919  0.033605452            5 
  472000     1.198384   -6.7591453    184.46565  0.032568089  0.033593323            3 
  473000     1.160455    -6.808889    184.18637  0.032450029  0.033582086            4 
  474000    1.1598439   -6.7873968    184.81904  0.032492799  0.033571441            3 
  475000     1.180188   -6.8315402    184.74386  0.032411203  0.033560193            3 
  476000    1.1727904   -6.7776186    185.68477  0.032507838   0.03354899            7 
  477000    1.1857021   -6.7967208    186.06356  0.032505863  0.033538317            2 
  478000    1.1770806   -6.7861441    186.63923   0.03253822  0.033527044            3 
  479000     1.166862   -6.7696208    186.67791  0.032477019  0.033516567            5 
  480000    1.1792546    -6.802607    187.56312  0.032563041  0.033506573            5 
  481000    1.1828976   -6.7631211    188.03669  0.032577389  0.033496126            3 
  482000    1.2048497    -6.799276    188.06478  0.032514658  0.033485929            3 
  483000    1.1882539   -6.8311017    188.32873   0.03249288  0.033475485            7 
  484000    1.1909948   -6.8325519    187.66436  0.032311357  0.033464581            5 
  485000    1.1836809   -6.7946969    188.78657  0.032437554  0.033453482            3 
  486000    1.1563177   -6.7856652    189.86552  0.032555816  0.033442668            3 
  487000    1.1785285   -6.7889295    190.03585  0.032518112  0.033433094            2 
  488000    1.1915427   -6.8024092    190.69915  0.032564746  0.033423344            2 
  489000    1.1796983   -6.8327775    190.77758  0.032511516  0.033414883            2 
  490000    1.1794569   -6.8158055    191.05357  0.032492103  0.033406691            2 
  491000    1.1607147   -6.7773352    191.21279  0.032452952  0.033398231            3 
  492000    1.2042236   -6.8361263    192.04173  0.032527393  0.033389759            5 
  493000    1.1824111   -6.7793428    192.76731  0.032584061  0.033381598            3 
  494000     1.150784   -6.7984326    192.46847   0.03246769  0.033372906            5 
  495000    1.1821902   -6.7947985    192.69748  0.032440654  0.033363579            3 
  496000    1.1979648   -6.8483284    192.15351  0.032283856  0.033354509            2 
  497000    1.1594532   -6.8467662     192.9879  0.032358802  0.033344321            4 
  498000    1.1452586   -6.7819802    194.04868  0.032471332  0.033335014            2 
  499000    1.1837666    -6.855265    193.45655  0.032307374  0.033325355            1 
  500000    1.1917228   -6.8455094    193.58608  0.032264347   0.03331479            3 
  501000    1.1875728   -6.8204251    194.80979  0.032403491  0.033304885            3 
  502000    1.1774976   -6.8056077    194.51203  0.032289514  0.033294595            2 
  503000    1.1766597   -6.8165792    195.27993   0.03235254  0.033284127            3 
  504000    1.1586247   -6.7726517    195.99614  0.032406769  0.033273899            2 
  505000    1.1635141   -6.8292563    195.31595  0.032230355  0.033263735            2 
  506000    1.1592045   -6.8215363    194.97344  0.032110251  0.033252463            4 
  507000    1.2112486   -6.8101728    196.37949  0.032278022  0.033241395            2 
  508000     1.153908   -6.8152481    196.64582  0.032258173  0.033230779            5 
  509000    1.1707423    -6.763775    198.35156   0.03247406  0.033220348            2 
  510000    1.1731921    -6.827076    197.01242  0.032191572  0.033210329            3 
  511000    1.1540359   -6.8250278    197.41094  0.032193565   0.03319948            1 
  512000    1.1631604   -6.8421298    198.21405  0.032261402  0.033189071            5 
  513000    1.1757357   -6.8598945    198.11927  0.032183117  0.033178104            1 
  514000    1.1739857   -6.7998899    199.34863  0.032319816  0.033167534            3 
  515000    1.1900554   -6.7537644    199.67229  0.032309432  0.033157911            3 
  516000    1.1509215   -6.8118594    200.23489  0.032337676  0.033147802            2 
  517000    1.1248934   -6.8431845    199.82053  0.032208338  0.033137797            8 
  518000    1.1645192   -6.8005624    200.10964  0.032192671  0.033128047            3 
  519000    1.1826647   -6.8169873     200.2497  0.032153131  0.033118656            4 
  520000    1.1496665   -6.8236019    201.34147  0.032266261  0.033108306            4 
  521000    1.1553883    -6.834602    200.94283  0.032140569  0.033098294            2 
  522000    1.1827966   -6.8271073    201.73669  0.032205729  0.033088535            5 
  523000    1.1801864    -6.820182    201.72435  0.032142185  0.033078649            7 
  524000    1.1414738   -6.7939407    201.80708  0.032094001   0.03306817            4 
  525000    1.1653163   -6.7915698      203.242  0.032260636  0.033058644            3 
  526000    1.1879454   -6.8065708    203.97064   0.03231474  0.033049493            3 
  527000    1.1553444   -6.8162582    204.06287  0.032268005  0.033040357            3 
  528000    1.1640146   -6.8408273    203.82603  0.032169512  0.033031165            5 
  529000    1.1323532   -6.8412288    204.68713  0.032244349  0.033021574            3 
  530000    1.1750816   -6.8049247    205.23011  0.032268886  0.033012377            2 
  531000    1.1509892   -6.8473987    204.18868  0.032044676  0.033002938            3 
  532000    1.1604098   -6.8176892    205.29212  0.032157287  0.032993188            4 
  533000    1.1420316   -6.8501233    205.09553  0.032066217  0.032983411            4 
  534000    1.1580665   -6.8155688    205.99142  0.032145977  0.032973305            3 
  535000    1.1470235   -6.8568902    205.57357  0.032020806  0.032963353            2 
  536000    1.1635578   -6.7713626    206.65945  0.032129889  0.032953218            3 
  537000    1.1748722   -6.7991157    206.31993   0.03201737  0.032942452            3 
  538000    1.1798099   -6.8401612    206.46426  0.031980214  0.032931134            2 
  539000    1.1653296   -6.8385273    206.86528  0.031982882  0.032919849            5 
  540000     1.174561   -6.8402128    206.67015  0.031893542  0.032909061            4 
  541000    1.1621252   -6.8189885     208.6387  0.032137816  0.032898303            3 
  542000    1.1632208   -6.8058087    208.53339   0.03206233  0.032888489            2 
  543000     1.168413   -6.8619358    208.20358  0.031952667  0.032878782            2 
  544000    1.1488739   -6.9017855    207.20829  0.031741466  0.032868185            2 
  545000    1.1887528   -6.8475743    208.53069  0.031885427  0.032857651            7 
  546000    1.1535923   -6.8770075    209.64329  0.031996839  0.032847225            2 
  547000    1.1552466   -6.8074779    209.34802  0.031893361  0.032836564            4 
  548000    1.1637984   -6.8355657    210.83335  0.032061032  0.032826271            2 
  549000    1.1360424   -6.8224203     210.4721  0.031947799   0.03281581            2 
  550000    1.1667984   -6.8330503    210.67739  0.031920816  0.032805636            3 
  551000    1.1880679   -6.8377667    211.33645   0.03196256  0.032794657            2 
  552000    1.1247228   -6.8307475    211.70331  0.031960041  0.032784061            6 
  553000    1.1806326     -6.80922    211.35944  0.031850427  0.032773181            3 
  554000    1.1634648   -6.8841229    211.51774  0.031816747  0.032762081            2 
  555000    1.1501817   -6.8342597    211.77132  0.031797495  0.032751237            2 
  556000    1.1402078   -6.8162908    212.50855  0.031850801   0.03274036            3 
  557000    1.1806836    -6.883839    211.56152  0.031651933   0.03272937            4 
  558000    1.1543859   -6.8948286    211.69872  0.031615699  0.032717226            5 
  559000     1.160343   -6.8294216    212.28095  0.031645938  0.032705602            2 
  560000    1.1502994   -6.8780365    213.23841  0.031731906  0.032693684            6 
  561000    1.1612757   -6.8540985    213.81193  0.031760536  0.032681927            4 
  562000    1.1848855   -6.8702375    213.49554  0.031657109  0.032669905            3 
  563000    1.1634514   -6.8685301    214.05233  0.031683293  0.032658724            1 
  564000    1.1406452   -6.8646193    214.51466  0.031695428  0.032647443            1 
  565000    1.1633621   -6.8168083    215.55732  0.031793115  0.032635907            5 
  566000    1.1692667   -6.8562479    215.29459  0.031698261  0.032624901            3 
  567000    1.1570956   -6.8562318    215.32897  0.031647409  0.032613205            2 
  568000    1.1632767   -6.8535909    215.60049  0.031631528  0.032601445            2 
  569000    1.1390221    -6.853851      215.926  0.031623608  0.032589564            3 
  570000    1.1519543   -6.8033247    216.93106  0.031715068  0.032578287            3 
  571000    1.1666858   -6.8327778    217.18538   0.03169664  0.032566876            5 
  572000    1.1579892   -6.8737472    216.84185  0.031591178  0.032555351            2 
  573000    1.1520912   -6.8139416    217.89494  0.031689199  0.032543636            3 
  574000     1.168385   -6.8455153    217.61868  0.031593885  0.032531988            3 
  575000     1.157686   -6.8195102    218.10017  0.031608721   0.03251997            2 
  576000    1.1585979   -6.8553877    217.58673  0.031479561  0.032508013            3 
  577000    1.1933844    -6.834658    218.52144      0.03156  0.032496508            3 
  578000    1.1845823    -6.863173    217.81487  0.031403528  0.032485194            5 
  579000    1.1617446    -6.819014    219.94224  0.031655476  0.032473103            3 
  580000    1.1451032   -6.8517626    219.73102  0.031570548  0.032461778            4 
  581000    1.1493645   -6.8186357     219.9997  0.031554748   0.03245053            2 
  582000    1.1755985   -6.8385627    219.58775  0.031441545   0.03243878            4 
  583000    1.1600999   -6.7753935    221.23685  0.031623335  0.032427451            3 
  584000    1.1834062   -6.8066812    221.12986  0.031553918  0.032415493            7 
  585000    1.1405779   -6.9058216    220.23716  0.031372815  0.032403124            2 
  586000    1.1524055   -6.8139623    221.65174  0.031520441   0.03239112            1 
  587000    1.1739211   -6.8014158    222.00786  0.031517299  0.032379686            4 
  588000    1.1549371    -6.829411    222.19252  0.031489869  0.032368471            2 
  589000    1.1715009   -6.8424015    222.35419   0.03145928  0.032356891            4 
  590000    1.1694927   -6.8311215    222.24815  0.031390982  0.032345291            2 
  591000    1.1474371    -6.859097    222.87716  0.031426559  0.032333675            2 
  592000    1.1242712    -6.913304     222.1138   0.03126602  0.032321566            3 
  593000    1.1408517   -6.8461972    224.46569  0.031543801  0.032310101            3 
  594000    1.1350308   -6.8337422    224.30189  0.031467718  0.032299076            3 
  595000    1.1670266   -6.8519016    224.38573  0.031426573  0.032288223            2 
  596000     1.162171   -6.8579968    225.02354  0.031463023  0.032276886            2 
  597000    1.1487365   -6.8432228    224.97406  0.031403414  0.032265745            2 
  598000    1.1351886   -6.8960527    225.18681  0.031380547  0.032255206            2 
  599000    1.1556701   -6.8414561    226.02729  0.031445087  0.032244207            5 
  600000    1.1743861   -6.8593349    225.44545  0.031311868  0.032232931            4 
  601000    1.1445588   -6.8438741    226.32294  0.031381439  0.032221898            5 
  602000    1.1538194   -6.8738035    226.34111  0.031331826  0.032211106            2 
  603000    1.1601864   -6.8802019     227.0175  0.031373341  0.032200682            2 
  604000     1.167463   -6.8546536    227.62663   0.03140544  0.032189769            5 
  605000    1.1637777   -6.8409488    228.65893   0.03149572  0.032179044            2 
  606000    1.1617936   -6.8705562    228.64119  0.031441307  0.032168254            3 
  607000    1.1600234   -6.8271603    228.57366  0.031380239  0.032158055            4 
  608000     1.168775   -6.8860903     228.0893   0.03126224  0.032147575            3 
  609000    1.1399823   -6.8061436    229.53307  0.031408466  0.032136398            3 
  610000    1.1490697     -6.86412    228.76103  0.031251506  0.032125778            2 
  611000    1.1244203   -6.8988325    228.28049  0.031134819   0.03211448            4 
  612000    1.1734529   -6.8582643    229.64799  0.031270151  0.032103167            1 
  613000    1.1212143   -6.8524099    229.97158  0.031263129  0.032091668            4 
  614000    1.1386681   -6.8635386    229.94572  0.031208703  0.032080709            8 
  615000    1.1797062   -6.8333325    230.59564  0.031246022  0.032069248            3 
  616000    1.1426523   -6.8308046    230.78592  0.031221039  0.032057899            1 
  617000    1.1238719   -6.8531693    230.61506   0.03114736   0.03204638            2 
  618000    1.1637524   -6.8791314    230.35572   0.03106199  0.032034411            3 
  619000    1.1626533    -6.841224     230.8346   0.03107628  0.032022233            4 
  620000    1.1389763   -6.8284468    231.30088  0.031088828  0.032010543            2 
  621000     1.138069   -6.8530059    231.27794  0.031035687  0.031998774            3 
  622000    1.1488449   -6.8408283    231.89125  0.031067959  0.031986456            3 
  623000    1.1424455   -6.8476159     232.2489  0.031065931  0.031974612            2 
  624000    1.1519417   -6.8650726    232.40005  0.031036332  0.031962696            2 
  625000     1.134977   -6.8689173    234.00633  0.031200844  0.031951414            3 
  626000    1.1655813   -6.8325294    233.53734   0.03108857  0.031940287            3 
  627000    1.1665004   -6.9255429    233.68533  0.031058656  0.031928601            7 
  628000    1.1352653    -6.852365    234.17226  0.031073814  0.031917314            5 
  629000    1.1341719   -6.8416552    235.23927  0.031165775  0.031906732            2 
  630000    1.1256409   -6.8692974       234.91  0.031072752  0.031896217            5 
  631000    1.1473171   -6.8424632    236.15604  0.031188067  0.031885668            3 
  632000    1.1544507   -6.8371776    236.40296  0.031171277  0.031875196            3 
  633000    1.1463292   -6.8646583    236.69383  0.031160325  0.031865059            3 
  634000    1.1412612   -6.8697978     236.8293  0.031128982  0.031854999            3 
  635000    1.1448265    -6.875156    236.88076  0.031086714  0.031844834            2 
  636000    1.1415579   -6.8930848     237.4551   0.03111309  0.031834291            6 
  637000     1.127503   -6.8057261    238.63913  0.031219143  0.031824097            2 
  638000    1.1797696   -6.8710261    237.94891  0.031080056  0.031813868            3 
  639000    1.1588724   -6.8655889    238.59413  0.031115561  0.031803386            6 
  640000    1.1544487   -6.9130574    238.70795  0.031081764  0.031793041            3 
  641000    1.1445364   -6.9030193     239.3274  0.031113806  0.031783043            4 
  642000    1.1616211   -6.9166901    240.01064  0.031154029  0.031773025            3 
  643000    1.1445862   -6.8859439    240.15785  0.031124656  0.031763809            4 
  644000    1.1245204   -6.8634967    241.03162  0.031189392  0.031754699            3 
  645000    1.1614188   -6.8789973    240.11251  0.031022288  0.031745081            3 
  646000    1.1618158   -6.8771057    240.60967  0.031038399  0.031736031            4 
  647000     1.171474   -6.7955948    243.51778   0.03136499  0.031727436            3 
  648000    1.1390999   -6.8708426    242.73647   0.03121611    0.0317191            2 
  649000    1.1352464   -6.8987562     241.9881  0.031071919  0.031710193            1 
  650000    1.1436071   -6.8785376    242.85519  0.031135281  0.031701101            2 
  651000     1.121599   -6.8874148    243.10285  0.031119157  0.031691765            3 
  652000    1.1569636   -6.8733203    242.98999  0.031057003  0.031682314            3 
  653000    1.1283518   -6.8605628    243.64885  0.031093524  0.031672921            2 
  654000    1.1587947    -6.841583     244.1436  0.031109021  0.031664331            4 
  655000    1.1613339   -6.8945995    243.46169   0.03097477  0.031654958            2 
  656000    1.1434081   -6.8710118    244.35739  0.031041335  0.031645583            5 
  657000    1.1609029   -6.8711635    244.56922  0.031020957  0.031635903            3 
  658000    1.1423466   -6.8769177    245.60601  0.031105118  0.031626317            4 
  659000    1.1426175   -6.8633851    244.68648  0.030941639  0.031616687            3 
  660000    1.1558353   -6.8764228    245.59129  0.031009001  0.031607529            3 
  661000    1.1298634   -6.8647838    246.34888    0.0310576  0.031598379            5 
  662000     1.149046   -6.8820725    246.16107  0.030987042  0.031588895            3 
  663000    1.1539542   -6.9164735    246.19134  0.030944111  0.031579886            1 
  664000    1.1146645   -6.8487871     247.0351  0.031003401  0.031570587            2 
  665000    1.1693581   -6.8751388    246.91594  0.030941847  0.031561155            4 
  666000    1.1456062   -6.9382352    246.70754  0.030869312  0.031551637            2 
  667000    1.1124386   -6.8897426    247.43532  0.030913957  0.031542025            3 
  668000    1.1581461   -6.8954451    247.44992  0.030869501  0.031532279            2 
  669000    1.1431907   -6.8296867    249.70439  0.031104184  0.031522816            2 
  670000     1.156916    -6.852949    249.80783  0.031070625  0.031513988            2 
  671000    1.1637271   -6.8702976    248.36001  0.030844512   0.03150503            3 
  672000     1.179801   -6.8836772    249.73144   0.03096868  0.031496095            3 
  673000    1.1264934   -6.8953116    249.21045  0.030858154  0.031486691            3 
  674000    1.1477063    -6.907469    248.92907   0.03077758  0.031477025            5 
  675000    1.1504362   -6.8762153     250.5071  0.030926803  0.031467315           10 
  676000     1.131257   -6.8986576    250.01835  0.030820803  0.031457716            1 
  677000    1.1378874   -6.8931995    250.02421  0.030775998  0.031448022            5 
  678000    1.1473607   -6.8640391    250.07979  0.030737438  0.031438153            5 
  679000    1.1251252   -6.8762554    250.91474  0.030794641   0.03142806            3 
  680000     1.150639   -6.8619919    251.38753  0.030807296  0.031418062            3 
  681000    1.1271038   -6.8867595    251.75179  0.030806631  0.031408263            3 
  682000    1.1357628   -6.8789576    251.91664  0.030781603  0.031398434            3 
  683000    1.1743575   -6.8951582    252.75182  0.030838436  0.031389024            2 
  684000    1.1434368   -6.9008526    253.35047  0.030866285  0.031379218            2 
  685000    1.1366238   -6.9170275     252.5406  0.030722701  0.031369621            2 
  686000    1.1574717   -6.8907817    252.90907  0.030722676  0.031359675            3 
  687000    1.1297546   -6.8937503    253.79184  0.030785037  0.031349494            5 
  688000    1.1271176   -6.8599735    253.97717  0.030762739   0.03133952            4 
  689000    1.1367367   -6.8685305    253.71716  0.030686643  0.031329787            2 
  690000    1.1360778   -6.9008983    254.53133  0.030740499   0.03132004            4 
  691000    1.1207184   -6.9258515    254.15019  0.030650047  0.031310109            3 
  692000    1.1517214   -6.8553602    254.75032  0.030678025  0.031300193            3 
  693000    1.1211868   -6.9034769      254.911  0.030653079  0.031290143            2 
  694000    1.1551548   -6.8751424     255.5045  0.030680175  0.031279846            1 
  695000    1.1388747   -6.9225616    255.60731  0.030648358   0.03126972            2 
  696000    1.1787013   -6.8904358    255.79596  0.030626911   0.03125968            2 
  697000    1.1147162   -6.8991007     257.0417  0.030731911  0.031250239            2 
  698000    1.1443362   -6.8471893    258.61736  0.030875998  0.031240795            3 
  699000    1.1333218   -6.9240831    256.53198  0.030583212  0.031231357            2 
  700000    1.1558585   -6.9047216    257.64206  0.030671673  0.031221311            2 
  701000    1.1599831   -6.9114398    257.38118  0.030596907   0.03121146            6 
  702000    1.1449212   -6.8896279    258.17466  0.030647514  0.031201633            2 
  703000    1.1399954   -6.8799614    258.88856  0.030688544  0.031192406            6 
  704000    1.1052293   -6.9006246    259.17106  0.030678392  0.031182822            2 
  705000    1.1557248   -6.8734291    259.70676  0.030698199  0.031173341            5 
  706000    1.1530379   -6.9087796    259.36179  0.030613998  0.031163768            4 
  707000     1.143435   -6.9343655    259.72689   0.03061373  0.031154045            5 
  708000    1.1318535   -6.9311889    260.30472  0.030638503  0.031144479            3 
  709000    1.1287906   -6.9323229    260.48689  0.030616701  0.031134861            3 
  710000     1.151565   -6.8957864    260.43488  0.030567474  0.031125073            3 
  711000    1.1274157   -6.9030658    260.54636  0.030537548  0.031115096            3 
  712000    1.1359826   -6.8736794    260.57775  0.030498332   0.03110532            2 
  713000    1.1498138    -6.911741    261.53183  0.030567068  0.031095508            6 
  714000    1.1458771   -6.9113847    260.76228   0.03043444   0.03108544            4 
  715000     1.137603   -6.9349297    261.11321  0.030432775  0.031075322            3 
  716000     1.139569   -6.9429772     261.9898  0.030492296  0.031065056            3 
  717000     1.145754   -6.9325647    261.92348  0.030442059  0.031054768            3 
  718000    1.1325415   -6.9561155    261.78635  0.030383745  0.031044149            1 
  719000     1.152847   -6.9107109    262.66821  0.030443696  0.031034083            8 
  720000    1.1497384   -6.9025293    262.70529  0.030405705  0.031024262            2 
  721000    1.1727086   -6.9113336    263.80957  0.030491167  0.031014056            2 
  722000    1.1298765   -6.9250321    264.27713    0.0305029  0.031004518            3 
  723000    1.1247606   -6.9125871    263.87741   0.03041464  0.030995345            3 
  724000    1.1669434   -6.9368193    264.82586  0.030481798  0.030985963            3 
  725000     1.118556   -6.8905414    265.76773  0.030548015  0.030977171            4 
  726000     1.147761   -6.9055976    264.94553  0.030411562  0.030968114            4 
  727000    1.1389301   -6.9092239    265.90636  0.030479867  0.030959291            2 
  728000    1.1948985   -6.8891689     267.4609  0.030615945  0.030950798            4 
  729000    1.1563106   -6.9367664    266.54142   0.03046884  0.030942339           11 
  730000    1.1326092   -6.9354946    266.80215  0.030456867  0.030933635            3 
  731000    1.1356789    -6.885061    267.48196    0.0304927  0.030924475            8 
  732000    1.1018479   -6.9834241     267.3378  0.030434631  0.030915886            5 
  733000    1.1369149    -6.936251    268.08839  0.030478444  0.030907128            3 
  734000    1.1496693   -6.9667101    268.19162  0.030448639  0.030898455            5 
  735000    1.1519604   -6.9153747    269.11829  0.030512278   0.03089056            4 
  736000    1.1318605   -6.9240412    269.36034  0.030498227  0.030882041            2 
  737000    1.1165874   -6.9177678     269.6467  0.030489224  0.030873479            5 
  738000    1.1431684   -6.9001111    270.84704   0.03058345  0.030865548            2 
  739000    1.1354645   -6.9416079    270.16424  0.030465069  0.030857649            3 
  740000    1.1183246   -6.8890622    270.61819  0.030475022  0.030848955            4 
  741000    1.1461472   -6.8658339    271.69203  0.030554659  0.030840478            3 
  742000     1.132432   -6.9292625    270.71851  0.030404146  0.030832236            3 
  743000    1.1324931   -6.8763668    271.96805  0.030503371  0.030823966            6 
  744000    1.1193617    -6.904465    271.63423  0.030424981   0.03081567            2 
  745000    1.1552778   -6.9247105    272.01396  0.030426617  0.030807382            7 
  746000    1.1304686   -6.9164832    272.27626  0.030415132   0.03079937            3 
  747000    1.1280714   -6.9409816    272.73275   0.03042534  0.030791137            3 
  748000     1.116784   -6.8889903    273.89596  0.030514256  0.030783006            3 
  749000    1.1326089   -6.9269912    273.47658  0.030426856  0.030774811            1 
  750000    1.1563156   -6.8910817    274.30921  0.030478801  0.030766517            3 
  751000    1.1213932   -6.9754751    272.82511  0.030273537  0.030758155            5 
  752000    1.1731106   -6.8924965    274.55519  0.030424999   0.03074985            2 
  753000      1.13781   -6.9256173    274.75111  0.030406276  0.030742131            2 
  754000    1.1312322   -6.8817205    275.00856  0.030394403  0.030734093            2 
  755000     1.129583   -6.9206997    275.24767  0.030380538  0.030725773            2 
  756000    1.1222096   -6.9215724    276.21376  0.030446843  0.030717699            5 
  757000    1.1191637   -6.9281047    275.05099  0.030278621  0.030709532            3 
  758000    1.1485131   -6.9647746    274.86217  0.030217916   0.03070073            3 
  759000     1.125347   -6.8752678    275.96941  0.030299672  0.030692307            8 
  760000    1.1401108   -6.9035014    277.05634  0.030378985  0.030683597            2 
  761000     1.130947   -6.9178939    277.19804  0.030354581   0.03067512            3 
  762000    1.1364095   -6.9234645    277.01522  0.030294753  0.030666541            2 
  763000    1.1444171   -6.8912673     277.4994   0.03030793   0.03065797            3 
  764000    1.1525708   -6.9399238    277.00996  0.030214873   0.03064945            1 
  765000    1.1133399   -6.9001699    278.39367  0.030326108  0.030640834            6 
  766000    1.1393672   -6.9325067    278.23589  0.030269353  0.030632116            8 
  767000    1.1592528   -6.9587036    277.21022  0.030118451  0.030623627            3 
  768000    1.1342709   -6.9137913    278.21524  0.030188285   0.03061506            3 
  769000    1.1260419   -6.9237355    279.24226  0.030260323   0.03060659            1 
  770000    1.1218362   -6.9064401    279.29768  0.030227021  0.030598624            3 
  771000    1.1055821    -6.905693     279.5206  0.030211911  0.030590432            7 
  772000     1.127958   -6.9230866    279.70737  0.030192937  0.030581708            2 
  773000    1.1201717   -6.8946849    279.89575  0.030174186  0.030573152            4 
  774000    1.1341934   -6.9206901    280.74603  0.030226748  0.030564518            5 
  775000    1.1275554    -6.936526    280.38608  0.030149041  0.030555868            4 
  776000    1.1279151   -6.9520811    280.48588  0.030120907  0.030547462            1 
  777000    1.1438887   -6.9251288    281.00764  0.030138099  0.030539013            2 
  778000    1.1215088   -6.8910502    282.75083  0.030286079   0.03053051            5 
  779000    1.1395711   -6.9205432    281.26191  0.030087924   0.03052199            3 
  780000    1.1345933   -6.9240498     282.6341  0.030195951  0.030513692            3 
  781000    1.1535744   -6.9189718    283.07942  0.030204804  0.030505562            2 
  782000    1.1445021   -6.9331579    282.82978  0.030139576  0.030497119            9 
  783000    1.1533528   -6.9281517    282.36175  0.030051272  0.030489216            2 
  784000    1.1129791   -6.8948113    284.09428  0.030197096  0.030481246            5 
  785000    1.1463505   -6.8834049    285.11219  0.030266687  0.030473551            3 
  786000    1.1152811   -6.9449621    284.42574  0.030155401  0.030465662            3 
  787000    1.1198099   -6.9698911    284.55235   0.03013049  0.030457483            3 
  788000     1.119131   -6.9101938    285.61359  0.030204483   0.03044981            2 
  789000    1.1319344   -6.9280494    286.10144  0.030217727  0.030442337            2 
  790000    1.1175326   -6.9316075    285.23143  0.030087703  0.030434472            8 
  791000    1.1603799   -6.9558877    286.37086  0.030169707  0.030426606            5 
  792000     1.105232   -6.8941106    287.65086  0.030266294  0.030418838            2 
  793000    1.1411852   -6.9545606    286.26266  0.030082247  0.030411469            5 
  794000    1.1345637   -6.9485011    286.98972  0.030120668  0.030403825            3 
  795000    1.1364032   -6.9172554    287.25578  0.030110669  0.030396003            3 
  796000    1.1132654   -6.9485413     287.1514  0.030061914  0.030388181            2 
  797000    1.1307908   -6.9459294    287.89756  0.030102213  0.030380489            3 
  798000      1.13609   -6.9603332    287.96074  0.030071089  0.030372557            3 
  799000    1.1318748   -6.9295902     288.6288  0.030103129  0.030364472            4 
  800000     1.109821   -6.9562833    287.67549  0.029966196  0.030356544            3 
  801000    1.1228776   -6.9657661    288.12064  0.029975097  0.030348619            3 
  802000    1.1326481   -6.9291886    289.26643  0.030056778  0.030340694            4 
  803000    1.0934772   -6.9383756    290.50634  0.030148021  0.030332651            3 
  804000     1.131866   -6.9349608    291.22606  0.030185122  0.030324902            2 
  805000    1.1174827   -6.9078274    290.44194  0.030066454  0.030317067            6 
  806000    1.1327153   -6.9216513    290.51055  0.030036243  0.030309197            3 
  807000    1.1326595   -6.9653917    290.60334  0.030008606  0.030301384            6 
  808000    1.1239792    -6.974066    290.94361  0.030006561  0.030293367            2 
  809000    1.1116822   -6.9309953    291.69363  0.030046727  0.030285476            5 
  810000    1.1074985   -6.9543126    291.39913  0.029979334  0.030277372            3 
  811000    1.1283022   -6.9617444    291.68624   0.02997187  0.030268901            3 
  812000    1.1112844   -6.9440003    292.05062  0.029972354  0.030260815            6 
  813000    1.1186803   -6.9872061    291.34543  0.029863205  0.030252538            2 
  814000    1.1189695   -6.9425935    291.77624  0.029870623   0.03024401            3 
  815000    1.1269227   -6.9356972    291.89375  0.029845987  0.030235527            5 
  816000    1.1320163   -6.9762906    291.74123  0.029793835  0.030226928            5 
  817000    1.1265931   -6.9106109    292.42164  0.029826768  0.030218258            3 
  818000    1.1250221   -6.9214243    292.75665  0.029824435  0.030209316            2 
  819000    1.1162207   -6.9326407    292.19602  0.029730975  0.030200526            3 
  820000     1.145391    -6.958003     293.1788  0.029794594   0.03019176            3 
  821000    1.1330717   -6.9406629    294.24084  0.029866102  0.030182633            5 
  822000    1.0883014   -6.9075148    293.74063  0.029779058  0.030173809            3 
  823000    1.1217149   -6.9894309    292.75353  0.029642925   0.03016444            6 
  824000    1.1187524   -6.9635089    294.92432  0.029826488  0.030155549            9 
  825000    1.1147836   -6.9389531    294.68281   0.02976594  0.030146443            3 
  826000    1.1207934   -6.9691523    294.47491  0.029708929  0.030137588            3 
  827000    1.1201807   -6.9260099    293.62282  0.029587144  0.030128101            2 
  828000    1.0991627   -6.9878395    294.17188  0.029606671  0.030118722            3 
  829000    1.1103994   -6.9551542    294.54285  0.029608248  0.030109276            4 
  830000     1.114235   -6.9166149    296.87614  0.029806842  0.030100106            3 
  831000    1.1140942   -6.9694834    295.14024  0.029596896  0.030091012            1 
  832000    1.1125783   -6.9449742    295.19818  0.029567126  0.030081904            4 
  833000    1.1191348   -6.9806468    295.00561  0.029512366  0.030072631            3 
  834000    1.1485508   -7.0102474    295.31601  0.029507995  0.030063092            3 
  835000    1.1231656   -6.9573709    295.84402  0.029525351  0.030053677            2 
  836000    1.1488601   -6.9359535    295.44017  0.029449778  0.030044302            6 
  837000    1.1317548   -6.9631965    296.41561  0.029511709  0.030035005            5 
  838000    1.1285675   -6.9941078    296.66385  0.029501179  0.030025145            3 
  839000    1.0812066   -6.9855586    297.20643  0.029519908  0.030015467            6 
  840000    1.1232876   -6.9472484    298.17889   0.02958124   0.03000584            3 
  841000    1.1334884   -6.9093625    298.14504  0.029542711  0.029996462            2 
  842000    1.1114609     -7.00061    297.87938  0.029481332  0.029987212            3 
  843000    1.0988694   -7.0015478    297.64931  0.029423617  0.029977763            3 
  844000    1.1150958   -6.9570422    298.70992  0.029493475  0.029968107            3 
  845000    1.1171297   -6.9485276    299.16958  0.029503903  0.029958541            6 
  846000    1.0951154   -7.0036384    297.76053  0.029330234  0.029949045            4 
  847000    1.1020177    -6.928095    299.83655  0.029499857  0.029939705            2 
  848000    1.0936164   -6.8979498    300.06593  0.029487611  0.029930499            6 
  849000    1.1326085   -6.9809861    300.06735  0.029453018  0.029921223            3 
  850000    1.0742356   -6.9228523    300.70114  0.029480503  0.029911345            3 
  851000    1.1122539   -6.9624777    300.88556  0.029463921  0.029902064            2 
  852000    1.1034502   -6.9795155    300.92183  0.029432887  0.029892583            2 
  853000    1.0998958   -6.9696492    300.92015  0.029398217  0.029882897            5 
  854000    1.1158938   -6.9378356    302.20033  0.029488713  0.029873646            4 
  855000    1.1387805   -6.9582552    301.92612  0.029427497  0.029864612            6 
  856000    1.1255069   -6.9770879    302.43657  0.029442813  0.029855492            4 
  857000    1.1367029   -6.9826453    301.65223  0.029332189  0.029846128            6 
  858000    1.1164968   -6.9817944    301.75226  0.029307718  0.029836802            6 
  859000    1.1266744   -6.9678637    303.50515   0.02944365  0.029827656            3 
  860000     1.144591   -7.0035197     303.2328  0.029383023  0.029818631            5 
  861000    1.1272421   -6.9677506    304.15329  0.029437988  0.029809663            3 
  862000    1.1132553   -6.9571428    304.19684  0.029408047  0.029800406            3 
  863000    1.1344831   -6.9777707    303.49912  0.029306597  0.029791535            2 
  864000    1.1151733   -6.9782113    304.20896  0.029341142  0.029782468            9 
  865000    1.1126187    -6.937679    305.90702  0.029470812  0.029773684            2 
  866000    1.1091377   -6.9573111    305.04179  0.029353521  0.029764699            4 
  867000    1.1246192    -6.988023    304.67831  0.029284728  0.029755615            6 
  868000    1.1038484   -6.9539733     306.3507  0.029411549  0.029746507            9 
  869000    1.1079836   -6.9748031    305.56443  0.029302304  0.029737423            3 
  870000     1.140975   -6.9676053    306.71095  0.029378444   0.02972812            3 
  871000    1.1252645    -6.948921    306.09745  0.029286017  0.029718669            2 
  872000    1.0988777   -6.9833124    305.33716  0.029179775  0.029709058            3 
  873000    1.1087583   -6.9999031    305.96691  0.029206463  0.029699354            4 
  874000    1.0917302   -6.9849646    306.38107  0.029212535  0.029689729            5 
  875000    1.1402264   -6.9951809    306.63536  0.029203368  0.029680258            3 
  876000    1.1056324   -7.0049277    306.87237  0.029192577  0.029670664            3 
  877000    1.1366484   -6.9460944    307.81269   0.02924864  0.029660767            3 
  878000    1.1069752    -7.014363    306.06904  0.029049833  0.029651133            2 
  879000    1.1088965   -6.9721099    307.57653  0.029159702  0.029641536            2 
  880000     1.107178    -6.949814    308.49596  0.029213632  0.029631824            3 
  881000    1.1041108   -6.9903271    307.03916  0.029042675  0.029621924            2 
  882000    1.1136432   -6.9702243    309.03835  0.029198634  0.029612135            3 
  883000    1.1195495   -6.9999571    307.59148  0.029029018  0.029602229            2 
  884000    1.0973149    -6.967525     309.5249  0.029178441  0.029592582            4 
  885000    1.1057541   -6.9444473    308.84324  0.029081285   0.02958292            3 
  886000    1.1077781   -6.9734832    309.06687  0.029069495  0.029573459            3 
  887000    1.1189777   -6.9518111    309.77582  0.029103328  0.029563959            3 
  888000    1.1091666   -6.9366676    309.94626  0.029086548  0.029554759            3 
  889000    1.1101209    -6.969225    309.94044  0.029053284   0.02954546            7 
  890000    1.0932767   -6.9936651    310.38941  0.029062678  0.029535977            4 
  891000     1.094641   -7.0111757    310.77405  0.029066036  0.029526056            3 
  892000    1.1104309   -7.0157779    309.51883  0.028916184  0.029516244            4 
  893000    1.1067018   -6.9822108    310.32394  0.028958935  0.029506647            3 
  894000    1.1178335   -6.9641637    312.12212  0.029094157  0.029497041            5 
  895000    1.1332257   -6.9388489    313.02836   0.02914603  0.029487371            2 
  896000    1.1201337   -6.9710255    312.13383  0.029030304  0.029477905            4 
  897000    1.0887168   -6.9352781      312.888  0.029068005  0.029468413            3 
  898000    1.1079675   -6.9462115    312.99015  0.029045114  0.029458981            2 
  899000    1.0958063   -6.9885079    311.74137   0.02889705  0.029449489            1 
  900000    1.1047511   -6.9947014    313.26582  0.029006095  0.029439965            4 
  901000    1.0872709   -6.9778205    312.99615   0.02894896  0.029430259            3 
  902000    1.1298007   -6.9719504    314.31887  0.029039068  0.029420662            8 
  903000    1.0986158    -6.991652    313.13433  0.028897594   0.02941078            4 
  904000    1.1068027   -7.0056997    314.26651  0.028969996   0.02940117            5 
  905000    1.1057483   -7.0420522    314.05717  0.028918708  0.029391336            8 
  906000    1.1264127   -7.0231147    313.57746  0.028842665  0.029381697            3 
  907000    1.0974153   -6.9992331    315.06643  0.028947669  0.029372238            2 
  908000    1.0850785   -7.0119079    315.32376  0.028939405  0.029363046            5 
  909000    1.1211704   -6.9890358    315.41614  0.028916037  0.029353703            4 
  910000    1.1332737   -7.0026578    315.75797  0.028915565  0.029344371            3 
  911000    1.0965764   -7.0117399    316.09924  0.028915042  0.029335002            3 
  912000    1.1041051   -7.0145293    317.26815  0.028990146  0.029325716            2 
  913000    1.1170315   -6.9855996     317.1614  0.028948649  0.029316771            3 
  914000    1.1005569   -6.9762441    317.26389  0.028926321  0.029307334            5 
  915000    1.1120668    -6.948463    318.13349  0.028973906  0.029298037            3 
  916000    1.1040897   -6.9657991    318.24856  0.028952744  0.029288854            3 
  917000    1.1041078   -6.9594874    317.86919  0.028886695  0.029279465            2 
  918000    1.1243263   -6.9178908    318.74952  0.028935142  0.029270087            4 
  919000    1.0918174   -7.0061778    317.79369  0.028816983   0.02926065            3 
  920000    1.0920018    -6.991139    317.93917  0.028798838  0.029251223            3 
  921000     1.130677   -7.0107849    318.73368  0.028839457  0.029241691            1 
  922000    1.0975131   -7.0048047    318.73053  0.028807894  0.029232303            5 
  923000    1.0715028   -7.0040356    318.83346  0.028785975  0.029223105            3 
  924000    1.1239907   -6.9493023    319.49212  0.028814224  0.029213812            6 
  925000    1.1115121   -6.9779398    320.28858  0.028854827  0.029204583            6 
  926000    1.0892097   -6.9585073    320.39858  0.028833566  0.029195535            1 
  927000     1.093273   -6.9797316    320.83507    0.0288417    0.0291869            5 
  928000    1.1030144   -6.9613553    322.65396  0.028973955  0.029177864            3 
  929000    1.1076156   -7.0070882    320.63822   0.02876195  0.029168719            1 
  930000    1.0882969   -7.0291407    320.64233  0.028731391  0.029159517            4 
  931000    1.0964886   -7.0107698    322.46254  0.028863457  0.029150262            3 
  932000    1.0869753   -6.9816736     321.9844  0.028789736  0.029141379            2 
  933000     1.086268   -6.9830836      323.285  0.028875045  0.029132688            2 
  934000     1.100991   -7.0253771     322.9004  0.028809814  0.029123719            2 
  935000    1.1150562   -6.9696695    323.19628  0.028805372  0.029114741            2 
  936000    1.0955392   -7.0496132    321.97348   0.02866573  0.029105905            4 
  937000    1.0783218   -7.0303531    322.94813  0.028721819  0.029096928            3 
  938000     1.091764    -7.042167    324.15558   0.02879847  0.029087943            4 
  939000    1.0831043   -6.9695597    325.19445  0.028859997  0.029079488            2 
  940000     1.099489    -7.011022    324.74797  0.028789714   0.02907101            3 
  941000    1.1188243   -6.9918396    325.35535  0.028812907  0.029062751            3 
  942000     1.109989   -7.0276059    324.42527  0.028700041  0.029054439            3 
  943000    1.1185902   -6.9927232    327.26291  0.028920371  0.029046344            7 
  944000    1.1075139   -6.9719181    327.54424  0.028914569   0.02903857            6 
  945000    1.0784243   -7.0048393     326.4191  0.028784753  0.029030507            2 
  946000    1.1135774   -7.0185026     327.1917  0.028822384    0.0290222            8 
  947000    1.1006993   -7.0179584    327.66246  0.028833374  0.029014185            4 
  948000    1.1073479   -7.0308365    327.13836  0.028756888  0.029006023            2 
  949000    1.1116415   -6.9672607    328.52773  0.028848589  0.028997926            5 
  950000    1.1175415   -7.0129405    328.98442  0.028858283  0.028989786            4 
  951000    1.0854085   -7.0138665    329.50938  0.028873938  0.028981689            2 
  952000    1.0928396   -7.0290812    328.05201  0.028716037  0.028973688            4 
  953000    1.1015526   -7.0357135    329.30112  0.028795131  0.028965594            3 
  954000    1.0904407   -7.0199871    329.98851  0.028824992  0.028957928            3 
  955000    1.0930962   -6.9770522    330.49683  0.028839165  0.028950304            3 
  956000    1.1033523   -7.0414661    330.95459  0.028848901  0.028942467            3 
  957000    1.1022822   -7.0115669    329.60723  0.028701431  0.028934539            3 
  958000    1.0921514   -6.9988002    330.44746   0.02874456    0.0289268            4 
  959000    1.1031456   -7.0558378     329.5643  0.028637843  0.028919085            2 
  960000    1.1343897   -7.0070918    331.29087  0.028757888  0.028910953            2 
  961000    1.0982759   -7.0023977    331.82336  0.028774138  0.028903063            5 
  962000    1.1073103    -7.009327     331.8044  0.028742585  0.028895405            2 
  963000    1.1112603   -6.9813707    332.97747   0.02881425  0.028887755            2 
  964000    1.1012996   -6.9353561    333.93162  0.028866841  0.028880166            2 
  965000    1.0981822   -7.0030237    332.68161  0.028728982  0.028872283            3 
  966000    1.0940767    -7.001753    332.26572  0.028663364  0.028864637            2 
  967000    1.0871627   -7.0145348    332.84949  0.028684031  0.028856638            3 
  968000    1.0873643   -7.0113954    332.08499  0.028588584  0.028848786            3 
  969000    1.0831472   -7.0315848     333.3947  0.028671715  0.028840916            2 
  970000     1.113553   -7.0355306    333.07016  0.028614275  0.028832695            6 
  971000    1.0942429   -6.9831676    334.70234  0.028724883  0.028824795            2 
  972000    1.0796752   -6.9685993    335.28541   0.02874532  0.028817056            5 
  973000    1.0630427   -6.9772947    334.98664  0.028690188  0.028809256            3 
  974000    1.1139983   -7.0265448    334.86652  0.028650455  0.028801541            4 
  975000    1.1225812   -7.0612943    332.90584  0.028453491  0.028793502            3 
  976000    1.1108997   -7.0141533    336.02662  0.028690797  0.028785399            2 
  977000    1.0795118   -7.0385794    334.39878  0.028522585   0.02877741            3 
  978000    1.0893696   -7.0276208     335.6269  0.028598065  0.028769193            4 
  979000    1.1068138   -7.0158133    336.34686  0.028630138  0.028761284            3 
  980000    1.0869353   -7.0041334    335.67093  0.028543447  0.028753284            7 
  981000    1.0909822    -6.992601    336.38172  0.028574729  0.028745212            1 
  982000    1.1004674   -6.9826696    337.43932   0.02863538  0.028737234            4 
  983000    1.0846505    -6.965884    337.80054  0.028636872  0.028729352            2 
  984000    1.0949162   -7.0138083    336.88633  0.028530346  0.028721258            3 
  985000    1.0949716   -7.1055078    336.36419  0.028457207  0.028713099            4 
  986000    1.0911878    -7.002779    337.72396  0.028543269  0.028705069            3 
  987000    1.1112395   -6.9957549    337.36351  0.028483917     0.028697            2 
  988000    1.1162235   -7.0058212    337.55723  0.028471426  0.028688815            5 
  989000    1.1040794   -7.0356742    337.68102  0.028453068  0.028680558            3 
  990000    1.0879708    -6.979484    338.26858  0.028473786  0.028672314           10 
  991000    1.0859957    -7.019027    338.37977  0.028454404  0.028664359            3 
  992000     1.083108   -7.0405674    338.53721  0.028438946  0.028656268           15 
  993000    1.0687723   -7.0094503    339.09387  0.028457021  0.028648167            3 
  994000    1.1106721    -7.052158    338.92986  0.028414643   0.02863968            4 
  995000    1.1060442   -7.0543903    338.39899  0.028341624  0.028631294            4 
  996000    1.0978766   -7.0308906    338.94673  0.028358997  0.028623036            5 
  997000     1.064838   -7.0536434    338.50704  0.028293801  0.028614485            3 
  998000    1.0840407   -7.0130384    339.86753  0.028379052  0.028606129            6 
  999000    1.1100065    -7.055915     338.6847  0.028251977  0.028597735            5 
 1000000    1.0877259   -7.0536586    339.71119  0.028309266   0.02858924            3 
 1001000    1.1050725   -7.0633568    339.82311  0.028290303  0.028580895            7 
 1002000    1.0959752   -7.0334335    340.35697  0.028306468  0.028572366            4 
 1003000    1.1097075   -7.0515138    340.44831  0.028285835  0.028563921            3 
 1004000    1.0996853    -7.067055    341.29625  0.028328042  0.028555821            5 
 1005000    1.0770465    -6.990086    342.29179  0.028382404  0.028547682            7 
 1006000    1.0880652    -7.045802    341.62635  0.028299068  0.028539616            3 
 1007000    1.0957814    -7.076772    341.62084  0.028270509  0.028531314            3 
 1008000     1.085375   -7.0158264    341.87474  0.028263454  0.028523189            3 
 1009000    1.0836951   -6.9817018    343.69125  0.028385468  0.028515121            3 
 1010000    1.0990177   -6.9932867    343.57532  0.028347798  0.028507045            3 
 1011000     1.107572   -7.0209166     342.6186    0.0282409  0.028498867            4 
 1012000    1.0729578   -6.9992689     344.5424   0.02837141   0.02849068            6 
 1013000    1.0913213   -7.0400986    343.43159  0.028252023   0.02848265            3 
 1014000    1.1071552    -7.002206    345.24017  0.028372795  0.028474665            3 
 1015000    1.0928555   -7.0373474     343.5124  0.028202989  0.028466571            3 
 1016000    1.0993354   -7.0294312    345.94385  0.028374659  0.028458554            7 
 1017000    1.1005165   -7.0200995    345.15023   0.02828173  0.028450575            3 
 1018000    1.1141685   -7.0266232     346.1256  0.028333792  0.028442711            2 
 1019000    1.1000582   -7.0225377    345.73344  0.028273916  0.028434858            6 
 1020000    1.0670118   -7.0117644    346.25241  0.028288595  0.028427139            2 
 1021000    1.0844736   -7.0227722    346.76716  0.028302902  0.028419562            3 
 1022000    1.0843759   -7.0265125     347.2218   0.02831228  0.028411754            3 
 1023000    1.0873752   -7.0466293    346.27963  0.028207855  0.028403727            3 
 1024000    1.0738035   -7.0426412    346.55432  0.028202663  0.028395612            4 
 1025000    1.0860785   -7.0739545    346.64031  0.028182139  0.028387519            2 
 1026000    1.0854162   -7.0371309    347.53304   0.02822718  0.028379221            2 
 1027000    1.0880811   -7.0401425    347.30538  0.028181222  0.028371009            3 
 1028000    1.0896555   -7.0715059    346.98221  0.028127611  0.028362817            3 
 1029000    1.0772064   -7.1019081    345.80436  0.028004888  0.028354579            5 
 1030000    1.0723734   -7.0440481    347.31341  0.028099791  0.028346281            3 
 1031000    1.0909065   -7.0223489    347.98573  0.028126877  0.028338102            4 
 1032000    1.0647514   -7.0800305    346.98088  0.028018482   0.02832979            3 
 1033000    1.0695155    -7.047141    348.07779  0.028079848  0.028321572            6 
 1034000    1.0724517   -7.0522345    348.65701  0.028099373  0.028313396            5 
 1035000    1.0874879   -6.9950789    351.07426  0.028266849  0.028305434            4 
 1036000      1.07286   -6.9978375    348.29431  0.028015952  0.028297392            4 
 1037000    1.0925289   -7.0598468    348.85267  0.028033805  0.028289072            3 
 1038000    1.0948635   -7.0354748    350.25924  0.028119721  0.028280779            4 
 1039000    1.0878544   -7.0726834    349.94352  0.028067334  0.028272564            5 
 1040000    1.0921312   -7.0467992    350.16727  0.028058275  0.028264262            4 
 1041000    1.0966031   -7.0572205    350.56035  0.028062788  0.028256003            3 
 1042000    1.0532869   -7.0555647    350.98685  0.028069966  0.028247891            5 
 1043000    1.0737038   -7.0239944     351.2137  0.028061177  0.028239614            6 
 1044000    1.0707018   -7.0548891    350.90698  0.028009816  0.028231381            7 
 1045000    1.0993079   -7.0847419    351.75767  0.028050851  0.028223185            3 
 1046000    1.0793958   -7.0658765    352.24901  0.028063178  0.028215116            3 
 1047000    1.0984622   -7.0655488    351.59428  0.027984263  0.028207031            3 
 1048000    1.1124599   -7.0267684    352.39037  0.028020863  0.028198903            6 
 1049000    1.0837476   -7.0205786    352.81391  0.028027797  0.028190797            2 
 1050000    1.0658681    -7.063761    351.59688  0.027904514  0.028182538            2 
 1051000    1.0877855   -7.0033454    353.24546  0.028008679  0.028174303            4 
 1052000     1.073937   -7.0652223    353.15093  0.027974566  0.028166195            2 
 1053000    1.0903762   -7.0341129    353.83103  0.028001822  0.028158087            4 
 1054000    1.0945651   -7.0288882    353.24779  0.027929142  0.028149919            4 
 1055000     1.081645    -6.980137    354.36449  0.027990876  0.028141727            4 
 1056000    1.0841099   -7.0284712    354.58383  0.027981678  0.028133494            7 
 1057000    1.0928123   -6.9733267    354.80051  0.027972289  0.028125031            3 
 1058000    1.0864736   -7.0090335    355.19104   0.02797661  0.028116818            3 
 1059000    1.0736097   -7.0432681    355.30295  0.027958998  0.028108678            8 
 1060000     1.083945   -7.0617394    353.98633  0.027829114  0.028100525            3 
 1061000    1.0772203   -7.0549572     354.5207  0.027844856  0.028092299            5 
 1062000    1.0549766   -7.0231396    356.05061  0.027938685  0.028084129            1 
 1063000    1.0915258   -7.0741554    355.94899  0.027904436  0.028076137            6 
 1064000    1.0875521   -7.0326915    357.25269  0.027980317  0.028068089            3 
 1065000    1.0585387   -7.0700129    355.47863  0.027815229  0.028059757            5 
 1066000    1.0869834   -7.0258005    357.56119  0.027951938  0.028051442            4 
 1067000    1.0965153   -7.0418321    357.16169   0.02789454  0.028043529            4 
 1068000    1.0928193   -7.0332471    357.57202  0.027900439   0.02803572            2 
 1069000    1.0703215   -7.0407029    357.04415  0.027833189  0.028027746            3 
 1070000    1.0866117   -7.0626624    356.68142  0.027778927  0.028019721            2 
 1071000    1.0676528   -7.0918715    356.05053  0.027703901  0.028011608            2 
 1072000    1.1028025   -7.0528035    357.06762  0.027757122  0.028003459            4 
 1073000    1.1031467   -7.0669377    358.11614  0.027812685  0.027995381            7 
 1074000    1.0871847   -7.0373057    358.10184   0.02778568   0.02798701            7 
 1075000    1.0919798   -7.0777838    357.93822  0.027747149  0.027978588            8 
 1076000    1.0876753   -7.0186813    359.15096  0.027815285   0.02797032            6 
 1077000    1.1034284   -7.0540862    359.09834  0.027785387  0.027962222            1 
 1078000    1.1014074   -7.0604742    358.95181  0.027748285  0.027953845            6 
 1079000    1.0662837   -7.0948251    357.45288  0.027606802  0.027945261            2 
 1080000    1.0880633   -7.0553393    359.48072   0.02773771  0.027936661            5 
 1081000    1.0733662   -7.0497153    358.77062   0.02765731  0.027928195            3 
 1082000    1.0789897    -7.080137    357.82169  0.027558664  0.027919457            4 
 1083000    1.1030985   -7.0650219    359.32467  0.027648867  0.027910931            1 
 1084000    1.0548719   -7.1147888    358.86612  0.027588109  0.027902168            7 
 1085000    1.0741798    -7.117783    358.60542  0.027542659   0.02789324            5 
 1086000    1.0683396   -7.0264039    361.45754  0.027736153  0.027884503            3 
 1087000    1.0700371   -7.0597256    359.01749  0.027523573  0.027875723            4 
 1088000    1.0889656   -7.0544102    361.24456  0.027668854  0.027867134            3 
 1089000    1.0856443    -7.066481    361.54213  0.027666217  0.027858643            4 
 1090000    1.0869218   -7.0569569    361.75931  0.027657439  0.027850364            6 
 1091000    1.0826145   -7.0609882    360.26849  0.027518216  0.027841854            3 
 1092000    1.0801753   -7.0460581     361.9728  0.027623077  0.027833185            1 
 1093000    1.0871174   -7.0504725    362.45738   0.02763475  0.027824598            3 
 1094000    1.0721409   -7.0648205    362.42263  0.027606843  0.027816079            2 
 1095000    1.0650393   -7.1132141    360.40181  0.027427839  0.027807372            5 
 1096000    1.0783442   -7.0582387    362.48691  0.027561352  0.027798648            2 
 1097000    1.0653228   -7.0769599    361.52247  0.027462965  0.027789798            3 
 1098000    1.0785665   -7.0666875    362.14078   0.02748488  0.027781016            5 
 1099000    1.0705763   -7.0618378    363.87333  0.027591245  0.027772421            5 
 1100000    1.0849571    -7.067736    363.01202   0.02750091  0.027763774            2 
 1101000    1.1006675   -7.0912977    364.07377  0.027556295  0.027755169            2 
 1102000    1.0802867   -7.0831734    364.16889  0.027538483  0.027746491            3 
 1103000    1.0869456   -7.0609883    364.80602  0.027561652  0.027737934            3 
 1104000    1.0921489    -7.147866    362.66533    0.0273751  0.027729319            3 
 1105000    1.0571384   -7.0582808    363.80082  0.027435959  0.027720821            2 
 1106000     1.065565   -7.0872865    364.25864  0.027445648  0.027712187            2 
 1107000    1.0764893   -7.0517878    366.44635  0.027585543  0.027703798            4 
 1108000    1.0897613   -7.0812117    365.10517  0.027459775  0.027695432            8 
 1109000    1.0601467   -7.0637392    366.14751  0.027513339   0.02768717            2 
 1110000    1.0910261   -7.0899056    366.97998   0.02755105  0.027678895            4 
 1111000    1.0844832   -7.0331995    368.03723  0.027605553   0.02767086            4 
 1112000    1.0419352   -7.0440944    368.04672  0.027581439  0.027662969            3 
 1113000    1.0722775    -7.073956    366.09413  0.027410462   0.02765486            6 
 1114000    1.0929434   -7.1001687    367.28661  0.027475061  0.027646724            2 
 1115000    1.0834788   -7.0420031    367.65276  0.027477785  0.027638557            4 
 1116000      1.07928   -7.0784164    366.78317  0.027388229  0.027630225            3 
 1117000    1.0769571   -7.1170895    366.19082  0.027319518  0.027621848            7 
 1118000    1.0914616   -7.0759139    367.64536    0.0274035  0.027613282            6 
 1119000    1.0613923   -7.1060505    367.16651   0.02734335   0.02760468            3 
 1120000    1.0809925   -7.0747743    368.57074  0.027423418   0.02759613            5 
 1121000    1.0807094   -7.0948886    367.99167  0.027355908  0.027587754            3 
 1122000    1.0836077   -7.0717757    368.28452  0.027353277  0.027579516            4 
 1123000    1.0555255   -7.0406659    369.57461  0.027424652  0.027571232            4 
 1124000    1.0799037   -7.0895658    368.66999  0.027333185   0.02756315            6 
 1125000    1.0742584   -7.0661948    370.05416  0.027411419  0.027555086            3 
 1126000    1.0744158   -7.0538591    370.37098  0.027410522  0.027546776            4 
 1127000    1.0965769   -7.1200746    369.20191  0.027299756  0.027538486            2 
 1128000    1.0773876   -7.0600826    370.27023  0.027354479  0.027530379            4 
 1129000    1.0736982   -7.0659639    371.91336  0.027451533  0.027522288            4 
 1130000     1.080172   -7.0934106    371.80403  0.027419176  0.027514359            2 
 1131000     1.078176   -7.1080623    371.15835  0.027347358  0.027506295            4 
 1132000    1.0488492   -7.1280584    371.05187  0.027315361  0.027498293            3 
 1133000    1.0689028   -7.0544131    371.83414  0.027348789  0.027490091            3 
 1134000    1.0668127   -7.1122387    371.94873  0.027333093  0.027482172            4 
 1135000    1.0819855   -7.0744442    373.72381   0.02743934  0.027474427            5 
 1136000    1.0958438   -7.0830019    372.90826   0.02735536  0.027466651            5 
 1137000    1.0463415   -7.0918994    372.42627  0.027295974   0.02745878            1 
 1138000    1.0550288   -7.0799203    373.71854  0.027366618  0.027450972            2 
 1139000    1.0632638   -7.0948326    373.37446  0.027317417  0.027443126            2 
 1140000    1.0856437   -7.0541892    374.60218    0.0273832  0.027435437            3 
 1141000    1.0604223   -7.0705206    375.27776  0.027408543  0.027427998            5 
 1142000    1.0506385   -7.0832134    374.80467  0.027350019  0.027420448            7 
 1143000    1.0890352   -7.0565555    374.81514  0.027326854   0.02741288            4 
 1144000     1.097549   -7.1229552    375.19302  0.027330494  0.027405178            2 
 1145000    1.0624615   -7.0670429    375.24229   0.02731021  0.027397792            2 
 1146000    1.0244857   -7.0951583    376.26101  0.027360457  0.027390304            4 
 1147000    1.0506338   -7.0937136    375.85421  0.027307048   0.02738275            2 
 1148000    1.0899041   -7.1425426    375.09071  0.027227839  0.027375127            2 
 1149000    1.0669899   -7.0743097    376.87684  0.027333685  0.027367444            4 
 1150000    1.0626562   -7.1082954    376.54651  0.027285979  0.027359952            3 
 1151000    1.0889795   -7.0357022    378.07607  0.027373014  0.027352383            2 
 1152000    1.0694679   -7.1000965    377.29543  0.027292783  0.027344761            3 
 1153000    1.0715835   -7.0616869    377.93175  0.027315102  0.027337156            3 
 1154000    1.0831857   -7.0784864    376.78814  0.027208849  0.027329301            2 
 1155000    1.0526565   -7.1175424    376.87807   0.02719178  0.027321326            3 
 1156000    1.0736512   -7.1077466     377.4196  0.027207296  0.027313402            9 
 1157000    1.0477705   -7.0847711    376.88209  0.027145066  0.027305563            2 
 1158000    1.0700829   -7.1081803    378.44007  0.027233741  0.027297873            4 
 1159000    1.0758397   -7.1000709    377.69145  0.027156417  0.027289966            3 
 1160000    1.0679745   -7.1261244    377.32626  0.027106772  0.027282023            4 
 1161000      1.04535   -7.1134433    378.40253  0.027160676  0.027273957            4 
 1162000    1.0449798   -7.1140028    379.01436  0.027181179  0.027266045            6 
 1163000    1.0492267   -7.0797651    379.37657  0.027183761  0.027258077            4 
 1164000    1.0646346   -7.0958839    379.16877  0.027145531   0.02725025            4 
 1165000    1.0638065   -7.1630654    377.97228  0.027036644  0.027242263            4 
 1166000    1.0537098   -7.1154108    379.42994  0.027117634  0.027234236            5 
 1167000    1.0693356   -7.0865618    379.19896  0.027077903  0.027226322            7 
 1168000    1.0652024   -7.1251289    379.68979  0.027089739  0.027218515            3 
 1169000    1.0456604   -7.1078898    381.54966  0.027199149  0.027210725            5 
 1170000    1.0615905    -7.124841    380.77556  0.027120766  0.027203029            2 
 1171000    1.0425501   -7.0978478    381.46788  0.027146874  0.027194893            3 
 1172000    1.0609926   -7.1014995    380.35325  0.027044457   0.02718695            4 
 1173000    1.0731885   -7.1364508    379.59142  0.026967279  0.027178842            2 
 1174000    1.0750037   -7.1030299     381.3382  0.027068299  0.027170748            2 
 1175000    1.0538684     -7.11783    381.48657  0.027055785   0.02716263            6 
 1176000     1.084992   -7.1047347    379.77633  0.026911588  0.027154567            4 
 1177000    1.0529961   -7.0899975    380.59362  0.026946589  0.027146343            3 
 1178000    1.0490477   -7.0556276    381.24483  0.026969781  0.027138168            3 
 1179000     1.058818   -7.1078998    381.35017  0.026954352  0.027129969            7 
 1180000    1.0542145   -7.1427212    381.15617  0.026917809  0.027121977            6 
 1181000    1.0562441   -7.1609098    380.60516  0.026856136  0.027113644            4 
 1182000    1.0676123   -7.1291265    381.15616  0.026872261  0.027105595            2 
 1183000    1.0598442   -7.1236132    381.58216  0.026879555  0.027097602            4 
 1184000    1.1013381   -7.1326202    381.67686  0.026863518  0.027089566            4 
 1185000    1.0718394   -7.1115047     383.1707    0.0269459  0.027081454            6 
 1186000    1.0602819   -7.0795158    382.27234  0.026860057  0.027073157            2 
 1187000    1.0655946   -7.0988549    382.31787  0.026840625  0.027064864            3 
 1188000    1.0647686    -7.109805    384.23309  0.026952377  0.027056431            4 
 1189000    1.0408793   -7.1106451    383.78914  0.026898594  0.027048321            7 
 1190000    1.0322541   -7.1376583    383.06226  0.026825088  0.027040018            4 
 1191000    1.0476326    -7.063511    384.81147  0.026924956  0.027031789            2 
 1192000    1.0707204     -7.13294     384.2873  0.026865723  0.027023535            7 
 1193000    1.0526107    -7.138921    383.52608  0.026790031  0.027015211            3 
 1194000    1.0713871   -7.1246119    385.56464  0.026909872  0.027006753            6 
 1195000     1.057856   -7.1188166    384.06423  0.026782722  0.026998421            2 
 1196000    1.0684767   -7.0795123    385.44656  0.026856644  0.026990299            2 
 1197000    1.0541203   -7.1048009    383.83685  0.026722142  0.026982125            2 
 1198000    1.0501063   -7.0925415    385.45907  0.026812679  0.026973909           10 
 1199000    1.0548924     -7.13602    384.88181  0.026750195  0.026965884            3 
 1200000    1.0641225   -7.1780247    383.98239  0.026665444  0.026957457            6 
 1201000    1.0670854   -7.1508151    385.23489  0.026730148  0.026949044            7 
 1202000    1.0542916   -7.1058606    386.35101  0.026785289  0.026940771            5 
 1203000    1.0546096   -7.0958874    386.75802  0.026791218  0.026932561            6 
 1204000    1.0476547   -7.1032908    386.60837  0.026758608  0.026924312            2 
 1205000    1.0561663    -7.140903    386.20184  0.026708288   0.02691609            4 
 1206000    1.0760031   -7.1027172    387.19259  0.026754601  0.026908035            3 
 1207000    1.0707472   -7.0973146    388.24527  0.026805114  0.026899948            2 
 1208000    1.0734913   -7.1325156    387.38922   0.02672387  0.026891742            5 
 1209000    1.0603387   -7.1486712    388.87971  0.026804501  0.026883881            3 
 1210000    1.0320854   -7.1213887    388.95405  0.026787469  0.026875896            5 
 1211000    1.0642724   -7.1615821    387.51356  0.026666223  0.026867808            3 
 1212000    1.0437744   -7.1226142     388.6872  0.026724917  0.026859701            5 
 1213000    1.0449792   -7.1194427      388.515  0.026691055  0.026851684            3 
 1214000    1.0386879   -7.1209748    389.32823  0.026724892   0.02684373            3 
 1215000    1.0555333   -7.1557086    389.97451  0.026747223  0.026835874            4 
 1216000    1.0662533    -7.160817     389.8643  0.026717674  0.026827892            4 
 1217000    1.0579855   -7.1020268    389.45582   0.02666775  0.026819752            3 
 1218000    1.0572636   -7.1329821    390.35773  0.026707562  0.026811688            3 
 1219000    1.0713802   -7.1501992    390.92003  0.026724093  0.026803632            5 
 1220000    1.0341353   -7.1221545     390.4126  0.026667528  0.026795611            7 
 1221000    1.0634775   -7.1459501    391.01426   0.02668675  0.026787729            7 
 1222000    1.0655961   -7.1244977     390.7315  0.026645629  0.026779827            6 
 1223000    1.0696283   -7.1641703    390.35373  0.026598101  0.026771881            9 
 1224000    1.0433352   -7.1328208    391.72715  0.026669877  0.026763896            4 
 1225000    1.0306481   -7.1116046    393.56415  0.026773071  0.026756056            7 
 1226000    1.0621452   -7.0929552    392.20376  0.026658765   0.02674824            5 
 1227000     1.043843   -7.1386422    391.48616  0.026588302  0.026740233            3 
 1228000    1.0439633   -7.1302918    391.54433  0.026570598  0.026732157            2 
 1229000    1.0697376   -7.1354427    392.59556  0.026620258  0.026724071            2 
 1230000    1.0684166   -7.1751377     393.0721  0.026630901  0.026716083            3 
 1231000    1.0472091   -7.1809377    393.07563  0.026609507   0.02670801            8 
 1232000     1.063913   -7.1563211    392.74426  0.026565494  0.026699877            6 
 1233000    1.0519618   -7.1631957    393.56794  0.026599617  0.026691883           19 
 1234000    1.0563561   -7.1426412    393.04419  0.026542692  0.026683997            5 
 1235000    1.0586472   -7.1416311    393.92442  0.026580595  0.026676104            6 
 1236000    1.0278142   -7.1555849    393.81278  0.026551563   0.02666833            3 
 1237000    1.0437736   -7.1474723    394.21619  0.026557275  0.026660477            7 
 1238000    1.0534597   -7.1580181    393.74448  0.026504071  0.026652702            5 
 1239000    1.0526514   -7.1537679    395.43659  0.026596489  0.026644866            2 
 1240000    1.0406466   -7.1519498    396.13896  0.026622242  0.026637057            5 
 1241000    1.0455493    -7.146085    395.57031  0.026562605  0.026629285            4 
 1242000    1.0698829   -7.1829207    395.24131  0.026519143  0.026621517            4 
 1243000    1.0445295   -7.1247883    395.88398  0.026540894  0.026613747            3 
 1244000    1.0635171   -7.1296554    395.99197  0.026526793  0.026606041            4 
 1245000    1.0542874   -7.1391635    397.47225  0.026604568  0.026598364            2 
 1246000     1.036246   -7.1280531    397.07878  0.026556901  0.026590755            2 
 1247000    1.0792238   -7.1480626    396.68617  0.026509367  0.026583148            4 
 1248000    1.0506089   -7.1556112    398.31373  0.026596803  0.026575512            4 
 1249000    1.0714323   -7.1156102    398.85324  0.026611506  0.026568051            2 
 1250000    1.0329294   -7.1589779    397.27101  0.026484734  0.026560658            4 
 1251000     1.079594   -7.1217655    399.27578  0.026597108  0.026553168            4 
 1252000    1.0398494   -7.0953301    399.07062  0.026562208  0.026545629            3 
 1253000    1.0546193    -7.101262    398.19135  0.026482532  0.026538123            3 
 1254000     1.035749   -7.1505519    398.49094  0.026481322  0.026530573            2 
 1255000    1.0350017   -7.1609885    399.89807  0.026553656  0.026522931            9 
 1256000    1.0483028   -7.1768714      399.282   0.02649164  0.026515383            7 
 1257000    1.0676765   -7.1074319     400.3414  0.026540798  0.026508034            2 
 1258000    1.0568628   -7.1603412    399.28346   0.02644962  0.026500604            2 
 1259000    1.0302198   -7.1677694    399.56376  0.026447164  0.026493052            5 
 1260000    1.0460048    -7.177235     399.2833  0.026407625  0.026485435            5 
 1261000    1.0619404   -7.1428926    400.88004  0.026492204  0.026478115            3 
 1262000    1.0467696   -7.1454589    400.02039  0.026414447  0.026470564            9 
 1263000    1.0514273   -7.1367167    400.96831  0.026456078  0.026463049            3 
 1264000    1.0515627   -7.1148251    401.02503  0.026438886  0.026455589            5 
 1265000    1.0378361   -7.1317341    400.81181   0.02640394  0.026448175            5 
 1266000    1.0339812   -7.1369285    401.43987  0.026424425  0.026440642            5 
 1267000    1.0432423   -7.1255166    401.81836  0.026428463  0.026433181            3 
 1268000    1.0491362   -7.1065383    403.13879    0.0264944  0.026425696            3 
 1269000     1.045333   -7.1696128    401.70917   0.02637964  0.026418182           14 
 1270000    1.0636945   -7.1559603      402.217  0.026392191  0.026410616            5 
 1271000    1.0272379   -7.1255234    402.62429  0.026398131  0.026403099            4 
 1272000    1.0492762   -7.1551945     402.7465  0.026385384  0.026395556            5 
 1273000    1.0393278   -7.1630476    401.93012  0.026311215  0.026388089            3 
 1274000    1.0378474   -7.1829092    403.57954  0.026398452   0.02638053            5 
 1275000     1.028524   -7.1666733    403.74742   0.02638872  0.026373011            3 
 1276000    1.0471983   -7.1507051     403.3093  0.026339427  0.026365511            4 
 1277000    1.0521541   -7.1500679    403.66877  0.026342259  0.026358049            3 
 1278000    1.0316541   -7.1479257    405.08458  0.026413966  0.026350522            4 
 1279000    1.0547599   -7.1798537    404.48628  0.026354332  0.026343003            2 
 1280000    1.0694625   -7.1417873    404.83783   0.02635663  0.026335378           12 
 1281000    1.0456528   -7.1471759    404.27231  0.026299265  0.026327743            3 
 1282000    1.0119688   -7.1580746    405.24039  0.026341679  0.026320086            2 
 1283000    1.0481359   -7.1640073    404.24405  0.026256434  0.026312497            5 
 1284000    1.0612595   -7.1528571    404.61152  0.026259834  0.026304991            8 
 1285000    1.0442298   -7.1903389    404.59878  0.026238572  0.026297315            7 
 1286000    1.0463854   -7.1705756    404.18647  0.026191451  0.026289558            6 
 1287000     1.040193   -7.1773344    405.14181  0.026232959  0.026281902            6 
 1288000    1.0533681    -7.169079    405.16478  0.026214077   0.02627419            6 
 1289000     1.030167   -7.1754856    405.49842   0.02621531   0.02626635            5 
 1290000    1.0408717   -7.1855377    405.29703  0.026181978  0.026258789            4 
 1291000    1.0704177    -7.166195    406.20532  0.026220328  0.026251408            2 
 1292000    1.0486991   -7.1237533    407.51287   0.02628437  0.026243982           11 
 1293000    1.0382621   -7.2134978    406.33747  0.026188287  0.026236606            3 
 1294000    1.0556366   -7.1499117    408.37251  0.026299105  0.026229425            8 
 1295000    1.0603707   -7.1605839    408.47494  0.026285389  0.026222117            4 
 1296000    1.0379127   -7.1683967    408.02422  0.026236125  0.026214782            6 
 1297000    1.0494082   -7.1152842    408.02895  0.026216201  0.026207537            2 
 1298000    1.0432882   -7.1717842    409.62594  0.026298532  0.026200431            3 
 1299000    1.0338361   -7.1558964    407.69811  0.026154613  0.026193291            4 
 1300000    1.0280651   -7.1695317    408.68413  0.026197701  0.026185934            6 
 1301000    1.0397577   -7.1383921    409.67266  0.026240883  0.026178816            2 
 1302000    1.0597747    -7.130383    410.49861  0.026273592  0.026171632            2 
 1303000    1.0444955   -7.1814682    409.26156  0.026174313  0.026164429            3 
 1304000    1.0242781   -7.1437427    410.85962  0.026256367  0.026157228            4 
 1305000    1.0343925   -7.1583927    410.46919  0.026211314  0.026150031            5 
 1306000    1.0462795   -7.1799881    409.71389   0.02614305  0.026142897            3 
 1307000    1.0423723   -7.1887662    409.60266  0.026115957  0.026135456            7 
 1308000    1.0329043   -7.1522267    409.40596  0.026083458  0.026128036            8 
 1309000    1.0357808    -7.213419    409.05007  0.026040876  0.026120598            8 
 1310000    1.0338845   -7.1612172    410.57281  0.026117863  0.026113144            3 
 1311000    1.0348922   -7.1784625     409.1502  0.026007513  0.026105559            6 
 1312000     1.040796   -7.1716853    410.64744   0.02608279  0.026098004            2 
 1313000    1.0259864   -7.1653127    410.75337  0.026069648  0.026090473            3 
 1314000    1.0430004   -7.1814272    410.54891  0.026036841  0.026082821            4 
 1315000    1.0366047   -7.1547608    411.66079  0.026087502  0.026075275            4 
 1316000    1.0362444    -7.145761    411.84813  0.026079542   0.02606775            1 
 1317000    1.0467341    -7.158711    410.79147   0.02599288  0.026060268            3 
 1318000    1.0310837   -7.1568522    411.66238  0.026028223   0.02605263            5 
 1319000    1.0373683   -7.1306895    412.00282  0.026029999  0.026044935            3 
 1320000    1.0695199   -7.1859586    411.24248  0.025962278  0.026037369            8 
 1321000    1.0318085   -7.1423038    413.04841  0.026056549   0.02602976            9 
 1322000    1.0501888    -7.173199    412.89181  0.026026967  0.026022149            2 
 1323000    1.0248367   -7.1633334    413.62241  0.026053314  0.026014526            4 
 1324000    1.0432482   -7.1742219    413.30672  0.026013766  0.026006925            5 
 1325000    1.0148062   -7.1909701    413.58752  0.026011793  0.025999393            3 
 1326000    1.0449366   -7.1911621    413.71908  0.026000445  0.025991784            4 
 1327000    1.0498284   -7.1754337    413.02931  0.025937535  0.025984081            6 
 1328000    1.0646095   -7.1820383    414.22653  0.025993131  0.025976368            2 
 1329000    1.0432937   -7.1558075    413.88485  0.025952148   0.02596866            2 
 1330000    1.0401754   -7.1841868    413.85206   0.02593058  0.025960908            3 
 1331000    1.0339918   -7.2097108    412.86031  0.025849005  0.025953219            7 
 1332000    1.1007846   -7.1754089    413.67856  0.025880791  0.025945435            5 
 1333000    1.0465425   -7.1775544    415.05166  0.025947216  0.025937875            8 
 1334000    1.0570187   -7.2123675    414.93508  0.025920483   0.02593018            4 
 1335000    1.0411119   -7.1504756    415.63966  0.025945047  0.025922546            5 
 1336000    1.0283031   -7.1583355     415.5388  0.025919336   0.02591495            4 
 1337000    1.0495173   -7.1537967    414.07506  0.025808718  0.025907493            3 
 1338000    1.0260043    -7.195067    414.64887  0.025825166  0.025899838            3 
 1339000    1.0301209   -7.1862265     414.6868   0.02580824  0.025892312            2 
 1340000     1.058976   -7.2171019    415.22894  0.025822695  0.025884671            4 
 1341000    1.0408837    -7.163929    415.95524  0.025848573  0.025876894            6 
 1342000    1.0436724   -7.1842436     416.3762  0.025855452  0.025869253            3 
 1343000    1.0196118   -7.2302702    413.62686  0.025665603  0.025861471            4 
 1344000    1.0162027   -7.2443651    414.54046  0.025703153  0.025853538            5 
 1345000    1.0267142   -7.1844591     415.5645  0.025747491  0.025845581            6 
 1346000    1.0215174   -7.1520499    416.73208  0.025800649  0.025837882            3 
 1347000    1.0402455   -7.1759463    415.68549  0.025716746  0.025830127            6 
 1348000    1.0481991   -7.2252888    415.63342   0.02569445  0.025822299            2 
 1349000    1.0243692   -7.1806492    416.91581  0.025754621  0.025814382            6 
 1350000    1.0512837   -7.2106333     416.4556  0.025707136   0.02580662            4 
 1351000    1.0563289   -7.1694017    416.96022  0.025719234  0.025798488            6 
 1352000    1.0456386   -7.1701055     416.5686  0.025676072  0.025790436            3 
 1353000    1.0352582   -7.1672969    417.41372  0.025709147  0.025782579            2 
 1354000    1.0199215   -7.2038408    415.62038  0.025579787  0.025774603            3 
 1355000    1.0345939   -7.2294135    416.62847  0.025622907  0.025766365            6 
 1356000    1.0528462   -7.2118916    416.32604  0.025585425  0.025758271            5 
 1357000    1.0272913   -7.1731414    417.39362  0.025632131  0.025750205            3 
 1358000    1.0101565   -7.1589205    419.34543  0.025733028  0.025742266            5 
 1359000    1.0128872   -7.2101045    417.07055  0.025574599  0.025734308            7 
 1360000    1.0445817    -7.200351    418.22589  0.025626586  0.025726561            2 
 1361000    1.0284931    -7.168385    420.11246  0.025723271  0.025718807            2 
 1362000    1.0424964   -7.1886061    419.03997  0.025638765  0.025710975            3 
 1363000    1.0142363   -7.1153307    420.81311  0.025728363  0.025703104            4 
 1364000    1.0316167    -7.199077    420.22579  0.025673618  0.025695502            4 
 1365000    1.0238204    -7.189842    420.07089  0.025645353  0.025687793            3 
 1366000     1.023431   -7.1519441    420.37041  0.025644852  0.025680184            1 
 1367000    1.0426802   -7.1804886    420.26589   0.02561972  0.025672465            2 
 1368000    1.0227997   -7.1877281    419.56909  0.025558546  0.025664779            3 
 1369000    1.0387632   -7.1961353    419.95487   0.02556336  0.025656999            3 
 1370000    1.0464262   -7.2216492     420.0271  0.025549094  0.025649146            5 
 1371000    1.0306517   -7.1926407    419.30114  0.025486332  0.025641233            3 
 1372000    1.0224938   -7.1862838    419.40125  0.025473837   0.02563322            2 
 1373000    1.0232055   -7.1842403    420.59383  0.025527666    0.0256251            3 
 1374000    1.0381418    -7.204536    419.88503  0.025466098   0.02561704            3 
 1375000     1.024718   -7.2027369    420.77695  0.025501633  0.025609041            3 
 1376000    1.0383848   -7.2296584    421.26581  0.025512706  0.025601132            2 
 1377000    1.0251789   -7.2074602    421.04564  0.025480855  0.025593326            6 
 1378000    1.0293223   -7.1910785    420.93256  0.025455525  0.025585484            3 
 1379000    1.0345645   -7.1581954    422.77006  0.025548106   0.02557764            3 
 1380000    1.0322201   -7.1976825    423.25912  0.025559126  0.025569817            8 
 1381000    1.0603601   -7.2152538    421.76258  0.025450312  0.025562009            4 
 1382000    1.0161732   -7.2060152    422.46106  0.025474015  0.025554141            3 
 1383000    1.0317763   -7.1575581    423.70245  0.025530396  0.025546349            2 
 1384000    1.0222876   -7.2578143    421.84491  0.025400103  0.025538664            6 
 1385000    1.0231447   -7.1778524    424.78534  0.025558684  0.025530986            5 
 1386000     1.040832   -7.1747686    423.70527  0.025475305  0.025523493            5 
 1387000    1.0254782   -7.1974341    424.14543  0.025483383  0.025515977            2 
 1388000    1.0316318   -7.2401658    423.70708  0.025438706  0.025508364            2 
 1389000    1.0193103   -7.1683822     425.1161  0.025504925  0.025500798            4 
 1390000    1.0223449   -7.1917586    425.12244  0.025486957  0.025493133            2 
 1391000    1.0371684   -7.2374761    424.26909  0.025417511  0.025485509            3 
 1392000    1.0310384   -7.1709471    425.98022   0.02550169  0.025478013            7 
 1393000     1.031158   -7.2122668    424.79992  0.025412773  0.025470514            2 
 1394000     1.033396   -7.2432383    424.48125  0.025375493  0.025462803            3 
 1395000    1.0204972   -7.1539662    426.38235  0.025470869  0.025455289            9 
 1396000    1.0238204   -7.2142921    425.69361   0.02541151  0.025447771            5 
 1397000    1.0308126   -7.1725127    425.97405  0.025410048  0.025440204            5 
 1398000    1.0166198   -7.1939363    426.01206  0.025394138  0.025432639            1 
 1399000    1.0232937   -7.1822151    426.51382  0.025405874  0.025425203            3 
 1400000    1.0519621   -7.1709856    425.94368  0.025353791  0.025417615            4 
 1401000     1.050233   -7.1871568    426.85097   0.02538966  0.025409855            9 
 1402000    1.0032375   -7.1556028    426.98805  0.025379699  0.025402238            2 
 1403000    1.0345809   -7.2269257    427.49088  0.025391475  0.025394649            2 
 1404000    1.0283565   -7.2228291    426.38438  0.025307715  0.025386998            5 
 1405000    1.0341343    -7.108723     430.6821  0.025544608  0.025379502            2 
 1406000    1.0396749   -7.1852999    428.75154  0.025412017  0.025371956            4 
 1407000    1.0089562   -7.2179167    427.81766  0.025338644  0.025364448            3 
 1408000    1.0343304   -7.1962761    428.62949  0.025368696   0.02535689            4 
 1409000    1.0505899   -7.2276819    427.04488  0.025256972  0.025349385            5 
 1410000    1.0177168   -7.2433671    428.31796    0.0253143  0.025341826            4 
 1411000      1.01531   -7.2332814    427.98887  0.025276923  0.025334154            4 
 1412000    1.0084932   -7.2253084    427.86093  0.025251472  0.025326509            2 
 1413000    1.0372654   -7.2273413    427.50417   0.02521256  0.025318901            4 
 1414000    1.0294988   -7.1914345    430.03319  0.025343776  0.025311291            7 
 1415000    1.0066461   -7.1963034     429.2688  0.025280848  0.025303798            5 
 1416000    1.0054979   -7.2066273    430.33022   0.02532546  0.025296324            4 
 1417000    1.0204816   -7.2051899    429.42169  0.025254157   0.02528875            5 
 1418000    1.0254463   -7.2335795    430.61274  0.025306344    0.0252813            9 
 1419000    1.0466741   -7.2191012    430.21782  0.025265317  0.025273857            5 
 1420000    1.0153031   -7.2114859    431.07645  0.025297913  0.025266252            7 
 1421000    1.0338715   -7.2203838    429.83952  0.025207572  0.025258677            3 
 1422000    1.0323989   -7.1707442    431.51495   0.02528803  0.025251082            4 
 1423000    1.0136846   -7.2065173    430.66696    0.0252206  0.025243537            5 
 1424000    1.0412355   -7.2401138     429.3238  0.025124286  0.025235803            3 
 1425000    1.0162083   -7.1903675    430.98053   0.02520354  0.025228088            4 
 1426000     1.026612   -7.2245541    431.40898  0.025210904  0.025220468            4 
 1427000    1.0174324   -7.2094331    431.62252  0.025205707  0.025212869            5 
 1428000     1.035787    -7.253125    430.63522   0.02513044  0.025205258           10 
 1429000    1.0160803    -7.221378    431.02567  0.025135624  0.025197549            3 
 1430000    1.0020107    -7.202797    431.85029  0.025166101   0.02518993            3 
 1431000   0.99439701   -7.2517406    430.95784  0.025096543  0.025182378            4 
 1432000     1.017425    -7.211846    430.40282  0.025046719   0.02517479            3 
 1433000    1.0331094   -7.2366063    431.13256  0.025071677  0.025167168            2 
 1434000    1.0203226    -7.253724    431.00529  0.025046797  0.025159392            5 
 1435000    1.0171107   -7.2186588    433.26672  0.025160669  0.025151653            7 
 1436000    1.0322186   -7.2068964    431.41867  0.025035902  0.025143928            5 
 1437000    1.0171008   -7.2100788    433.57263  0.025143391  0.025136194            8 
 1438000    1.0170058   -7.2096952    433.39181  0.025115427  0.025128538            7 
 1439000     1.040784   -7.1816316    433.91117   0.02512805  0.025120868            5 
 1440000    1.0345138     -7.26065     432.1799  0.025010411  0.025113214            2 
 1441000    1.0402158   -7.2625166    432.51203  0.025012262  0.025105451            5 
 1442000     1.021785   -7.2123468    433.31981  0.025041598  0.025097781            5 
 1443000    1.0276337   -7.2233445    433.69425  0.025045868  0.025090106            5 
 1444000     1.041409   -7.1890867    434.63908  0.025083049  0.025082499            6 
 1445000    1.0226524   -7.2099364     434.8779  0.025079463  0.025074948            4 
 1446000    1.0124164   -7.2261371    435.41023  0.025092798  0.025067238            3 
 1447000    1.0250287   -7.2242046     434.8067  0.025040699  0.025059538            3 
 1448000    1.0120785   -7.2149594    433.59359   0.02495359  0.025051901            7 
 1449000    1.0074846   -7.2508946    434.47146  0.024986857  0.025044195            4 
 1450000    1.0138732   -7.2450491    433.24455  0.024899112  0.025036276            4 
 1451000    1.0225137   -7.2269333     434.3565  0.024945813  0.025028441            5 
 1452000    1.0238415   -7.2319752    434.47766  0.024935586  0.025020588            2 
 1453000     1.016777   -7.2807242    433.66564  0.024871854  0.025012828            3 
 1454000    1.0254459   -7.2525131    435.48697  0.024959134   0.02500507            5 
 1455000    1.0282772   -7.2469551    436.29491  0.024988254  0.024997353            3 
 1456000    1.0005185   -7.2389195    436.65506  0.024991705  0.024989696            7 
 1457000    1.0304326   -7.2274333     436.6049  0.024971683  0.024982075            5 
 1458000    1.0177602   -7.2129659    436.97946  0.024975963  0.024974691            3 
 1459000    1.0261098   -7.2816656    435.89657  0.024896994   0.02496715           12 
 1460000    1.0140223   -7.2536048    436.03504  0.024887845  0.024959501           10 
 1461000    1.0269218   -7.2544437    437.46866  0.024952582    0.0249518            8 
 1462000    1.0263078    -7.214677     437.0448  0.024911355  0.024944103            3 
 1463000    1.0010862   -7.2464229     438.0486  0.024951504  0.024936429            2 
 1464000     1.004395   -7.2392746    436.77921  0.024862205  0.024928855            2 
 1465000    1.0111299   -7.2482019     437.5735  0.024890415  0.024921182            5 
 1466000    1.0215198   -7.2362576    437.37522  0.024862166  0.024913429            2 
 1467000    1.0293648   -7.2204745    437.78709  0.024868614  0.024905767            8 
 1468000    1.0134185   -7.2508525    438.89949  0.024914821  0.024898166            5 
 1469000    1.0351437   -7.2198139    439.31873  0.024921643  0.024890749            3 
 1470000    1.0282101   -7.2094689    440.27802  0.024959071  0.024883418            5 
 1471000    1.0108554   -7.2349087    440.62124  0.024961548  0.024875971            6 
 1472000    1.0178822   -7.2587525    438.16777  0.024805693  0.024868478            2 
 1473000   0.99726983   -7.2888686    438.67372  0.024817477  0.024860832            3 
 1474000    1.0050562   -7.2934624    438.69356  0.024801762  0.024853193            5 
 1475000    1.0066726   -7.2006197    439.74586  0.024844399  0.024845596            2 
 1476000    1.0125755   -7.2215447    439.64577  0.024821915  0.024837926            3 
 1477000    1.0142661   -7.2342174    440.81615  0.024871144  0.024830293            3 
 1478000    1.0212496   -7.2494004    438.90128  0.024746351  0.024822675            3 
 1479000    1.0071822   -7.2003706    441.29854  0.024864691  0.024815035            3 
 1480000    1.0190316   -7.2541215    439.29732   0.02473521  0.024807336            2 
 1481000   0.97275549   -7.2157331    440.85156  0.024805962   0.02479971            5 
 1482000    1.0297451   -7.2271785    441.33629  0.024816481  0.024792084            4 
 1483000    1.0156392   -7.2508623    440.01224  0.024725345  0.024784448            3 
 1484000   0.99853958    -7.287422    439.66836  0.024689373  0.024776747            7 
 1485000    1.0317192   -7.2264838    440.56188  0.024722889  0.024769236            4 
 1486000    1.0097622   -7.2545587    441.40582  0.024753579  0.024761668            5 
 1487000   0.99799493    -7.231841    443.09295  0.024831481  0.024754287            2 
 1488000    1.0036293   -7.2280471    443.14706  0.024817824  0.024746777            4 
 1489000    1.0504527   -7.2084706    443.02848   0.02479452  0.024739382            6 
 1490000   0.99750149   -7.2542435    442.13099  0.024727684  0.024731771            3 
 1491000    1.0243535   -7.2874072    442.64227  0.024739676  0.024724177           10 
 1492000    1.0003284   -7.2690227     443.4529   0.02476837   0.02471673            6 
 1493000    1.0383776   -7.2343673     443.5584  0.024757669  0.024709368            6 
 1494000    1.0161867   -7.2430506    443.12884  0.024717138  0.024701954            4 
 1495000    1.0196259   -7.2482424    444.43121    0.0247732  0.024694526            8 
 1496000    1.0306094   -7.2653135    442.48203  0.024648063  0.024687152           13 
 1497000    1.0039523   -7.2600023    444.39482  0.024738077  0.024679813            5 
 1498000   0.99852453   -7.2698034    444.51358   0.02472817  0.024672453            4 
 1499000   0.98847025    -7.245362    443.91038   0.02467814  0.024665095            7 
 1500000   0.99708189   -7.2838071    443.85601  0.024658667  0.024657625            4 
 1501000    1.0046537   -7.2785149    445.83508  0.024752114  0.024650138            4 
 1502000   0.98312526   -7.2510792     445.8122  0.024734365  0.024642935            6 
 1503000    1.0089261   -7.2731726    445.39153  0.024694585  0.024635724            6 
 1504000    1.0209143   -7.2315082    446.90891   0.02476224  0.024628547            5 
 1505000    1.0186979   -7.2781731    446.11571  0.024701867  0.024621247            3 
 1506000    1.0279889   -7.2863606    445.35006  0.024643098  0.024613935            4 
 1507000    1.0069476   -7.2310412    446.43729  0.024686866  0.024606549            4 
 1508000   0.99279306   -7.2613041    446.32309  0.024664185  0.024599293            9 
 1509000    1.0268498   -7.2552445    446.32285  0.024647827  0.024592073            2 
 1510000    1.0181253   -7.2932168    446.15743  0.024622375  0.024584896            3 
 1511000   0.99784506   -7.2777237    447.08748  0.024657372  0.024577657            6 
 1512000     1.011974   -7.2440471    449.02698   0.02474796  0.024570461            2 
 1513000   0.99253749   -7.2608497    447.38199  0.024640999  0.024563271            6 
 1514000    1.0067416    -7.218739    448.24094  0.024672002  0.024555992            5 
 1515000   0.99392397    -7.233116    449.20987  0.024709014  0.024548901            5 
 1516000    1.0090953   -7.2422401    448.64527  0.024661679  0.024541835            6 
 1517000   0.99398973   -7.2856813    447.63158  0.024589737  0.024534763            5 
 1518000   0.99537128   -7.2564605    449.62185  0.024682798  0.024527663            6 
 1519000       1.0255   -7.2518027    448.25789  0.024591721  0.024520519            7 
 1520000    1.0201281    -7.275649    450.23425  0.024683895  0.024513404            3 
 1521000   0.99842344    -7.270444    449.20247  0.024611137  0.024506263            4 
 1522000    1.0171986    -7.288724    448.80805  0.024573371  0.024499036            2 
 1523000    1.0225868   -7.2373389    449.38124  0.024588599  0.024491795            2 
 1524000    1.0189632   -7.2315503     450.5876  0.024638429  0.024484727            5 
 1525000   0.99805966   -7.2457812    449.00808  0.024535961  0.024477501            2 
 1526000    1.0115916   -7.2934899    447.81076  0.024454498  0.024470048            4 
 1527000     1.026138   -7.2700613    449.32442  0.024521088  0.024462608            5 
 1528000     1.023381   -7.2784195    449.09016  0.024492264  0.024455224            2 
 1529000    1.0191511    -7.222881    450.15746  0.024534416  0.024447909            3 
 1530000    1.0231126   -7.2458419    449.33018  0.024473321    0.0244407            3 
 1531000      1.01248   -7.2854085    449.98243  0.024492839  0.024433517            9 
 1532000   0.98885965   -7.2853035    449.86163   0.02447028  0.024426101            3 
 1533000   0.99795997   -7.2504796    450.84898   0.02450799  0.024418815            8 
 1534000    1.0017595   -7.2710322    449.96156  0.024443805  0.024411414            6 
 1535000    1.0064018   -7.2523832    448.55035  0.024351268  0.024404067            7 
 1536000    1.0068065   -7.2368095    451.15807  0.024476892  0.024396758            3 
 1537000    1.0090935    -7.260229    449.71584  0.024382772  0.024389357            4 
 1538000    1.0158411   -7.2735852    449.51665  0.024356125  0.024382003            4 
 1539000    1.0158346    -7.274485    450.59311  0.024398587  0.024374395            3 
 1540000    1.0359874   -7.2824702    450.73755   0.02439056  0.024366945            5 
 1541000   0.99971577   -7.2561828    451.79893  0.024432129  0.024359447            8 
 1542000     1.007084   -7.2746417    452.38988  0.024448221  0.024352187            6 
 1543000    1.0126995   -7.2717452    452.04379  0.024413685   0.02434483            9 
 1544000    1.0022268   -7.2967261    451.28944  0.024357159  0.024337497            3 
 1545000     1.024646   -7.2736025    452.61695  0.024412996  0.024330125            3 
 1546000    1.0165009   -7.2978461    452.66738  0.024399923  0.024322745            5 
 1547000     1.015641    -7.308527    451.19719  0.024304955  0.024315273           11 
 1548000    1.0123261   -7.2982821    451.89443  0.024326789  0.024307844            3 
 1549000   0.99679565   -7.3280689    451.53483  0.024291738  0.024300539            3 
 1550000    1.0025101   -7.2994103    452.90482  0.024349721  0.024293142            4 
 1551000    1.0023137    -7.319094    451.36053  0.024251049  0.024285793            3 
 1552000    0.9934449   -7.3121247    452.32088  0.024286989  0.024278391            8 
 1553000    1.0108979   -7.2699597     453.0949  0.024312884  0.024271033            2 
 1554000   0.99416334   -7.3131021    453.15421  0.024300419  0.024263649            4 
 1555000    1.0106342   -7.3081768    453.41468   0.02429875  0.024256089            4 
 1556000   0.99367695   -7.3346786    452.62528  0.024240857  0.024248696            8 
 1557000    1.0098812   -7.3189275     451.8948  0.024186191  0.024241208            5 
 1558000    1.0075324   -7.2716041    454.47955  0.024308919  0.024233706            5 
 1559000    1.0024432   -7.3206634    453.98915  0.024267113  0.024226266            4 
 1560000   0.99397305   -7.3060138    453.28841  0.024214124  0.024218823            4 
 1561000    1.0018284   -7.3336991    454.08022  0.024240883  0.024211353            5 
 1562000    1.0070519   -7.3092065    454.60322  0.024253266  0.024203851            6 
 1563000    1.0038767    -7.263135    455.21497  0.024270365  0.024196475            5 
 1564000   0.98572774   -7.2839343    453.94331   0.02418709  0.024188987            3 
 1565000    1.0039004   -7.2773395    454.95059  0.024225271  0.024181508            4 
 1566000   0.99707031   -7.2853096    454.38794   0.02417986  0.024174021            6 
 1567000   0.99666787   -7.3182275    453.98431  0.024142965  0.024166534            4 
 1568000     1.005771   -7.3562524     453.0935  0.024080224  0.024158912            6 
 1569000   0.99539236   -7.3219925    455.37358  0.024185977  0.024151291            3 
 1570000   0.99395068   -7.2792597    455.30974  0.024167184  0.024143825            4 
 1571000    1.0073708   -7.3090396    454.99009  0.024134844  0.024136303            4 
 1572000   0.99728499    -7.286476    455.45041  0.024143893   0.02412867           10 
 1573000    1.0098267   -7.2618249    456.86021  0.024203232  0.024121175            5 
 1574000    1.0049087    -7.298829     456.6802  0.024178325  0.024113779            4 
 1575000   0.99160687    -7.296896     456.2968  0.024142688  0.024106402            2 
 1576000    1.0042768   -7.2566533    458.26556   0.02423147  0.024098972            3 
 1577000    1.0215453   -7.3108903    455.70874  0.024080995  0.024091535            3 
 1578000   0.99805985   -7.3170257    456.14206  0.024088618  0.024084088            5 
 1579000    1.0000324    -7.334383    456.48034  0.024091215  0.024076659           12 
 1580000   0.98708875   -7.3268418    455.08541  0.024002395  0.024068979            8 
 1581000   0.98455131   -7.2896912    455.98691  0.024034731  0.024061502            5 
 1582000   0.99845926   -7.2926964    456.52191   0.02404772  0.024053855            6 
 1583000   0.99764852    -7.267216      457.785  0.024099021  0.024046436            6 
 1584000    1.0020238   -7.3140962    456.08624  0.023994436  0.024038958            5 
 1585000    1.0120139    -7.273061    458.39159  0.024100504   0.02403152            4 
 1586000   0.99245849   -7.2904748    456.82728  0.024003115  0.024024011            2 
 1587000    1.0046596   -7.3346968    457.25282  0.024010335  0.024016437            3 
 1588000   0.99812832   -7.2797422    456.58777  0.023960316  0.024008928            9 
 1589000      1.02443   -7.2775071    459.48359  0.024097105  0.024001411            3 
 1590000   0.99033785   -7.2965606    458.03597  0.024006078  0.023994089            4 
 1591000    1.0054387   -7.2789066    460.00433  0.024094088  0.023986725            9 
 1592000    1.0019092   -7.3147829    458.34415  0.023992051  0.023979315            8 
 1593000    1.0151175   -7.3319539     458.5385  0.023987157  0.023971719            6 
 1594000   0.99798345   -7.3244895    457.63567  0.023924909  0.023964059            3 
 1595000    1.0197363   -7.2764454    458.96012  0.023979108    0.0239565            8 
 1596000    0.9871238   -7.2852483    459.00657  0.023966509  0.023948897            5 
 1597000   0.97973626   -7.2665257    460.39135  0.024023761  0.023941283            5 
 1598000    1.0284937   -7.2710411    458.22026  0.023895508  0.023933717            4 
 1599000   0.99829299   -7.3177516    459.43617  0.023943932  0.023926106            5 
 1600000   0.99703823   -7.3093166    458.67689  0.023889421   0.02391851            2 
 1601000    1.0045051   -7.3274479    457.69184  0.023823227  0.023910859            3 
 1602000    0.9751283   -7.2732072    460.20122   0.02393889  0.023903135            5 
 1603000    1.0046763   -7.2637886    460.75065  0.023952519  0.023895511            3 
 1604000   0.99383285   -7.2402891    459.50478  0.023872858  0.023887911            3 
 1605000     1.002286   -7.2920149    459.42365  0.023853772  0.023880251            3 
 1606000    1.0001432   -7.3076087    460.06265  0.023872076  0.023872447            7 
 1607000    1.0122539   -7.2823939    459.37424  0.023821523  0.023864716           12 
 1608000    0.9813248    -7.309853    459.86757  0.023832275  0.023857087            4 
 1609000   0.99602441   -7.2675712    460.60095  0.023855446  0.023849493            5 
 1610000    1.0059184   -7.2805523    460.87317  0.023854719  0.023841941           25 
 1611000   0.97624858   -7.2869162    461.50354  0.023872519  0.023834419            5 
 1612000   0.98976216   -7.2521219    462.00645  0.023883708   0.02382692            6 
 1613000   0.98997875   -7.3303101    461.87666  0.023862196  0.023819403            3 
 1614000   0.98977089   -7.3390106    460.28064  0.023765006  0.023811745            7 
 1615000   0.99900778   -7.3164501    461.65099  0.023821001  0.023804178           14 
 1616000    1.0036827   -7.3125907    461.98082  0.023823268  0.023796723            4 
 1617000   0.99067628   -7.2646478    462.93239  0.023857575  0.023789284            2 
 1618000    1.0019321   -7.3011396    462.60281  0.023825856  0.023781857            4 
 1619000    1.0070197   -7.3006048    462.41763  0.023801607  0.023774387            3 
 1620000   0.98088448   -7.2813427    461.67332  0.023748627  0.023766866            6 
 1621000   0.99091424   -7.3492593    463.02239  0.023803331  0.023759276            4 
 1622000   0.99674819   -7.3053525    462.21199   0.02374702  0.023751703            5 
 1623000   0.98227823   -7.3130793    461.54906   0.02369835  0.023744106            3 
 1624000   0.99964331   -7.3083769    462.53738  0.023734472  0.023736617            7 
 1625000   0.98668292   -7.3216572    462.71884  0.023729171  0.023729135            4 
 1626000    0.9829884   -7.3173854    462.30358  0.023693296  0.023721642            2 
 1627000   0.98727735   -7.2768874    464.35982  0.023784051  0.023714119            6 
 1628000   0.98419212   -7.3655701     462.4473  0.023671545  0.023706576           12 
 1629000   0.96627821   -7.3125631    463.16037  0.023693491  0.023699093            8 
 1630000   0.96054283   -7.3163065    464.09679   0.02372683  0.023691642            7 
 1631000    1.0022278   -7.3349481    462.72665  0.023642277  0.023684159            4 
 1632000    1.0129561   -7.3307919    463.31773  0.023657973  0.023676702            6 
 1633000   0.99601772   -7.3054973    465.01676  0.023730188  0.023669294            8 
 1634000   0.97924867   -7.3437216    464.93537  0.023711514  0.023661771            6 
 1635000   0.99658282   -7.3036112    464.54769  0.023677252  0.023654407            3 
 1636000   0.99837412   -7.3584496     463.8328  0.023626365  0.023647014            6 
 1637000    1.0004643   -7.3088847    465.63141  0.023703493  0.023639609            3 
 1638000   0.96696429    -7.269364     466.6373  0.023740196  0.023632301            4 
 1639000   0.99356522   -7.3215292    465.52287   0.02366905  0.023625015           16 
 1640000   0.98964036   -7.3468977    465.95634  0.023676643  0.023617727            5 
 1641000   0.98477181   -7.3319801    466.95682  0.023713021  0.023610396            4 
 1642000   0.97738404   -7.3085857    466.69911  0.023685501  0.023603089            6 
 1643000   0.99405079   -7.3213577    466.33948  0.023652844  0.023595788            7 
 1644000   0.97045127   -7.3191982    466.12979  0.023627828  0.023588355            5 
 1645000   0.98166831   -7.3051127    467.47306  0.023681513  0.023580984            4 
 1646000   0.99707003   -7.3001138    467.12732  0.023649621  0.023573641            4 
 1647000    1.0119014   -7.3243222    465.47855  0.023551839  0.023566222           12 
 1648000   0.99604011   -7.3123439    467.31285  0.023630302  0.023558815            3 
 1649000   0.98028228   -7.3165469    466.42781  0.023571246  0.023551391            4 
 1650000   0.99948859    -7.389353     466.0561  0.023538187  0.023543812           11 
 1651000    1.0025811    -7.335277    465.48367  0.023495037  0.023536198            5 
 1652000   0.99101655   -7.3413435    465.59979  0.023486672  0.023528517            5 
 1653000   0.98362412   -7.3643656    465.37722  0.023461243  0.023520939            2 
 1654000   0.98574051   -7.3269071     465.7327  0.023464969  0.023513331            9 
 1655000   0.98058228   -7.3181958    467.37389  0.023533428   0.02350574            6 
 1656000    0.9646071   -7.3273122    467.24908  0.023512937  0.023498234            4 
 1657000   0.96579993   -7.3475154    466.49615  0.023460881  0.023490696            4 
 1658000    1.0092769   -7.3042445    468.53437  0.023549174  0.023483235           10 
 1659000   0.97074546   -7.3386493    466.87026   0.02345139  0.023475668            7 
 1660000   0.97749935   -7.3256591    467.93068  0.023490496  0.023468068            5 
 1661000   0.97470633    -7.308555    468.84146  0.023522048  0.023460674            6 
 1662000   0.97975307   -7.2862811    468.32855  0.023482178  0.023453266            3 
 1663000   0.99069049   -7.3232465    470.63611   0.02358369  0.023446008            3 
 1664000    1.0210382   -7.2883592    469.58045  0.023516649  0.023438711            6 
 1665000   0.99414252   -7.3382919    469.21057  0.023484012  0.023431305            4 
 1666000   0.97901053     -7.35651    468.18266    0.0234185  0.023423845            2 
 1667000    1.0106789   -7.3217374     469.1955  0.023455084  0.023416337            2 
 1668000   0.99873292   -7.3349088    468.36905  0.023399733  0.023408914            4 
 1669000   0.99997831   -7.3502747    468.66281   0.02340038  0.023401467            5 
 1670000   0.97301479   -7.3478873    469.88475  0.023447343   0.02339399            4 
 1671000    0.9802353   -7.3046449    469.87912   0.02343303  0.023386636            4 
 1672000   0.99785801   -7.3308956    470.69877  0.023459867  0.023379223            5 
 1673000   0.97699064     -7.35276    469.79678  0.023400915  0.023371764            5 
 1674000   0.97246765   -7.3416416    469.40846  0.023367606   0.02336431            5 
 1675000   0.99053339   -7.3463346    468.23681  0.023295363  0.023356794            6 
 1676000   0.99560211    -7.348891    469.29005  0.023333833  0.023349265            7 
 1677000   0.98935767   -7.3219701    469.27418   0.02331913  0.023341755            5 
 1678000   0.99825075   -7.3425621    471.63461  0.023422458  0.023334208           12 
 1679000   0.97817795   -7.3808599     470.4807  0.023351236  0.023326729           10 
 1680000    1.0172018   -7.3418646    470.50023  0.023338305  0.023319188            4 
 1681000    1.0060987   -7.3873475    469.70378  0.023284938   0.02331165            4 
 1682000   0.98660104   -7.3009045    472.98027  0.023433426  0.023304257            4 
 1683000    0.9926674   -7.3874303    471.59272  0.023350798  0.023296922            7 
 1684000   0.97511364   -7.3538266    470.72167  0.023293828  0.023289533            3 
 1685000    1.0040609   -7.3180085    472.97973  0.023391678  0.023282244            4 
 1686000   0.98195715   -7.3583293    471.92233   0.02332554  0.023274931            6 
 1687000   0.98110386   -7.3710295    471.54163  0.023292908  0.023267483            3 
 1688000   0.98063344   -7.3923693    471.38426   0.02327134  0.023260164            9 
 1689000   0.98276718   -7.3365651    472.97134  0.023335867  0.023252863            8 
 1690000   0.97829913   -7.3330021     473.0329  0.023325094  0.023245673            3 
 1691000    1.0015554   -7.3568536    474.11209  0.023364483  0.023238436            8 
 1692000   0.99687255   -7.3702933    473.86039  0.023338278  0.023231246            7 
 1693000   0.98580303    -7.339445    472.21178  0.023243344  0.023223957            4 
 1694000   0.95050798   -7.3303926    472.94101  0.023265496  0.023216636            4 
 1695000   0.97824242   -7.3169368    474.11884  0.023309677  0.023209269            7 
 1696000   0.97684526   -7.3806521    472.32847  0.023207964  0.023201952            4 
 1697000   0.97238352    -7.340567    474.05979  0.023279306  0.023194624            4 
 1698000   0.96121368   -7.3381537    474.63712   0.02329393  0.023187444            3 
 1699000   0.96842368   -7.3050351    474.17788  0.023257695   0.02318023            2 
 1700000   0.98158536   -7.3731267    473.99032  0.023234819  0.023172945            4 
 1701000   0.99396658   -7.3980983    472.86271  0.023165918  0.023165488            5 
 1702000   0.98844039   -7.3424665    473.27442  0.023172465  0.023158048           11 
 1703000   0.99063183   -7.3654352    473.49361  0.023169584  0.023150625            2 
 1704000    0.9893674   -7.3536328    474.09058  0.023185181  0.023143259            9 
 1705000   0.98232777   -7.3509712    475.31174  0.023231268  0.023135868            3 
 1706000    0.9758153   -7.3780151    475.34054  0.023219057  0.023128478            4 
 1707000   0.97389286    -7.357691    474.50126  0.023164482  0.023121152            4 
 1708000   0.97149139   -7.3475132    475.89667  0.023219002  0.023113738            4 
 1709000   0.98354841   -7.3512955    474.52684  0.023138621  0.023106334            6 
 1710000   0.98100635   -7.3154405    476.13484  0.023203452   0.02309898            5 
 1711000   0.97886815   -7.3746035    474.67541   0.02311881  0.023091559            6 
 1712000   0.96506508   -7.3360277    476.29323  0.023184055  0.023084223            7 
 1713000   0.97104336   -7.3573987    476.11259  0.023161733  0.023076926            4 
 1714000   0.96790066   -7.3494471    476.08644  0.023146949  0.023069474            6 
 1715000    0.9733529   -7.3231831     475.7481  0.023117012  0.023062058            6 
 1716000   0.96448668   -7.3371581    475.45015  0.023089071  0.023054747            4 
 1717000   0.97523151   -7.3282305    477.94061  0.023196496  0.023047518           10 
 1718000   0.98475113   -7.3265501    476.08069  0.023092777  0.023040247            8 
 1719000   0.98834944   -7.3585266    477.23815  0.023135454  0.023032996           10 
 1720000    0.9744315   -7.3454311    475.80381   0.02305251  0.023025686            2 
 1721000   0.95805492   -7.3560148     475.2855  0.023014018  0.023018328            4 
 1722000   0.98736094   -7.3733087    476.04798  0.023037552  0.023010863           11 
 1723000   0.94848295   -7.3347892    475.80782  0.023012566  0.023003396            8 
 1724000   0.96860201   -7.3388805     477.1308  0.023063167  0.022995998            4 
 1725000   0.97117758   -7.3420984     476.3098  0.023010135  0.022988607            4 
 1726000   0.97100424   -7.3815889     475.6085  0.022962944  0.022981199            4 
 1727000   0.98709907   -7.3425697    478.35995  0.023082414  0.022973798            4 
 1728000    0.9694338   -7.3496337    477.67926   0.02303623  0.022966458            3 
 1729000   0.97599987   -7.3379937    478.52202  0.023063525  0.022959202            4 
 1730000   0.99350457   -7.3593757    478.30091  0.023039543  0.022951938            6 
 1731000   0.98272227   -7.3546057     477.3788  0.022981841  0.022944688           21 
 1732000   0.97833436   -7.3960834    478.58446  0.023026581  0.022937364            4 
 1733000   0.97840267   -7.3608489    476.79255  0.022927128  0.022930071            9 
 1734000   0.98831139   -7.3732411    478.26031  0.022984444  0.022922663           11 
 1735000   0.98488595   -7.3880656    477.96048  0.022956795  0.022915287            5 
 1736000   0.96964755   -7.3397478    478.52407  0.022970625  0.022907948           16 
 1737000   0.96618759    -7.333822    477.78662  0.022922022  0.022900631            3 
 1738000   0.96944239   -7.3885026    478.16709  0.022927076  0.022893299            8 
 1739000   0.98051394    -7.371956    478.84883  0.022946561  0.022885853            6 
 1740000   0.98495577   -7.3629482     478.9062  0.022936121    0.0228785           13 
 1741000    0.9556932   -7.3829882    478.74658  0.022915307  0.022871114            5 
 1742000   0.97400099   -7.3997484    479.18781  0.022923259   0.02286376            8 
 1743000   0.97169177   -7.3332281    480.40061  0.022968092   0.02285647            4 
 1744000   0.97702471   -7.3445196    480.29918  0.022950076  0.022849212            3 
 1745000   0.96738784   -7.3750382    479.83243  0.022914634  0.022841943            3 
 1746000   0.98697794   -7.3469884    479.08317  0.022865749  0.022834679            2 
 1747000   0.97774026   -7.3610593    480.79672  0.022934398  0.022827467            5 
 1748000   0.95442066   -7.3811827    479.24787  0.022847439  0.022820185           19 
 1749000   0.99021702   -7.3874903    480.91881   0.02291399  0.022812961            6 
 1750000   0.97354832   -7.3499567    480.57754  0.022884645  0.022805702            5 
 1751000   0.95678622   -7.3683752    481.69441  0.022924729  0.022798565            3 
 1752000   0.96718862   -7.4094868     480.1433  0.022837866  0.022791328            5 
 1753000   0.97500208   -7.3745394     480.4116  0.022837593  0.022783963            3 
 1754000   0.97251819   -7.3775817    479.77948   0.02279454  0.022776699            7 
 1755000     0.969929   -7.3740231     481.8525  0.022879986  0.022769447            7 
 1756000   0.97131666    -7.385829    481.24678  0.022838211  0.022762128            6 
 1757000   0.95450039   -7.4120879    482.09163  0.022865283  0.022754771            5 
 1758000   0.95082699   -7.3762053    481.66652  0.022832126  0.022747406            6 
 1759000   0.95122577   -7.3815306    482.58683  0.022862745   0.02274017            4 
 1760000   0.95512547   -7.3649105    482.64887  0.022852692  0.022732875            5 
 1761000   0.96018619   -7.3706535    481.70757  0.022795172  0.022725663            7 
 1762000   0.97575587   -7.3747618    482.39073  0.022814545  0.022718471            6 
 1763000   0.98556799   -7.3955617    482.96491  0.022828744   0.02271124            5 
 1764000   0.97016811   -7.3684171    481.75541  0.022758664  0.022704001            6 
 1765000   0.94679098   -7.3478835    483.28631  0.022818051  0.022696817            4 
 1766000    1.0007037   -7.3612806    483.65071  0.022822325  0.022689591            4 
 1767000   0.96250782    -7.371144    483.16219   0.02278637  0.022682375            4 
 1768000   0.96999569   -7.3663483    482.19752  0.022728013  0.022675127            3 
 1769000   0.98616096   -7.3463417    484.80985  0.022838226  0.022667862            4 
 1770000   0.97031397   -7.3508677    483.83628  0.022779486  0.022660711            9 
 1771000   0.98106776   -7.3529104    484.12131  0.022780035  0.022653502            3 
 1772000   0.98177342   -7.3986504    483.08918  0.022718641   0.02264632            3 
 1773000   0.97150993   -7.3788275    484.23668  0.022759761  0.022639122            5 
 1774000   0.97016273   -7.3775633    482.79075  0.022679009  0.022631932            5 
 1775000   0.96751508   -7.3873203    484.79477  0.022760318  0.022624661            5 
 1776000   0.97557256    -7.379704    484.35625  0.022726926  0.022617424            4 
 1777000    0.9682731   -7.3738998    484.20011  0.022706814  0.022610184            5 
 1778000   0.98072231   -7.4292454     483.5812  0.022665036  0.022603026            7 
 1779000   0.94138952   -7.4084975    485.45349  0.022739999  0.022595875            3 
 1780000   0.98375512   -7.3777884    485.37577  0.022723585  0.022588761            4 
 1781000   0.97153727   -7.4061866    484.63954  0.022676377  0.022581653            4 
 1782000   0.95294921   -7.4179428    484.27237  0.022646482  0.022574416            9 
 1783000   0.97382747   -7.4047373    484.71708  0.022654565  0.022567102            6 
 1784000   0.95914069   -7.3967858    485.10143   0.02265982  0.022559891            4 
 1785000   0.99204526   -7.3960759    485.45624   0.02266369   0.02255269           11 
 1786000   0.95338965   -7.4091557    484.46158   0.02260459  0.022545288            5 
 1787000   0.98833884   -7.3966097    485.10788   0.02262208  0.022538011            5 
 1788000   0.97572133    -7.400629    484.29205  0.022571404  0.022530722            3 
 1789000   0.97513108   -7.4117393    485.19495  0.022600845  0.022523464            3 
 1790000   0.96976048    -7.413222    483.80596  0.022523555   0.02251613            2 
 1791000   0.95616182   -7.3604153    486.80139  0.022650353  0.022508837            3 
 1792000   0.97954552    -7.402305    485.68373  0.022585739  0.022501632            2 
 1793000   0.95319184   -7.3553025    487.17484  0.022642445  0.022494449            3 
 1794000   0.94411426    -7.437861    484.85695  0.022522155  0.022487225            8 
 1795000   0.95589529   -7.4059973    485.46737  0.022537947  0.022479973            5 
 1796000   0.95834369   -7.3911971    487.81022  0.022634105  0.022472757            5 
 1797000   0.98187617   -7.4009068    487.18644  0.022592582   0.02246572            5 
 1798000   0.96469738   -7.4004913    486.80627  0.022562396  0.022458515            4 
 1799000   0.96884196   -7.3832791    487.14706  0.022565641  0.022451273            5 
 1800000   0.95877797   -7.3927068     487.4884  0.022568907  0.022444063            4 
 1801000   0.95321181     -7.39967    485.69128  0.022473222  0.022436795            7 
 1802000   0.95470935   -7.4094036    488.22412  0.022577882  0.022429435            6 
 1803000   0.95409951   -7.4120829    486.39744  0.022480932  0.022422066            4 
 1804000   0.97384047   -7.4099191    486.87887  0.022490709  0.022414734            5 
 1805000   0.98036713   -7.3819499    487.82221  0.022521801  0.022407438            5 
 1806000   0.99268247   -7.4348023    485.06261  0.022381995  0.022400092            4 
 1807000   0.97610577   -7.4314099    486.65221  0.022442917  0.022392739            3 
 1808000   0.96939095   -7.4194624     487.6061   0.02247447   0.02238536            7 
 1809000    0.9578776   -7.4184036    488.35698  0.022496636  0.022377997            4 
 1810000   0.95617317   -7.3519732    487.64341  0.022451354  0.022370783            5 
 1811000    0.9691784   -7.3961157     487.6986  0.022441497  0.022363598            4 
 1812000   0.96004896   -7.3751225    489.04742  0.022491143   0.02235631            3 
 1813000   0.96670195    -7.432772    487.96932  0.022429184  0.022349011            5 
 1814000   0.95974672   -7.4622689    486.51924  0.022350204  0.022341674            3 
 1815000   0.94843999   -7.3964655    488.12458  0.022411597  0.022334414           10 
 1816000   0.95003184   -7.4206838    487.62203  0.022376194  0.022327091            4 
 1817000    0.9639567   -7.4079798    488.10198  0.022385892  0.022319808           15 
 1818000   0.95280898   -7.4486521    487.42344  0.022342475  0.022312466           17 
 1819000     0.939156   -7.3959112     486.9484   0.02230843  0.022305106            5 
 1820000   0.95116336    -7.438357    486.26195  0.022264742  0.022297659            9 
 1821000   0.95558289   -7.4559459    487.64423  0.022315771  0.022290155            2 
 1822000   0.94912066     -7.39047    488.97053  0.022364184  0.022282741            5 
 1823000   0.96412806   -7.3892965    489.29349   0.02236668  0.022275342            8 
 1824000    0.9649977   -7.4174269    487.76126  0.022284414   0.02226807            3 
 1825000   0.98384883   -7.3863472    489.75867   0.02236341  0.022260775            4 
 1826000   0.96186402   -7.4140124    487.83845  0.022263529  0.022253448            5 
 1827000   0.96094897   -7.3823893    489.31372  0.022318633  0.022246175            9 
 1828000   0.93913256   -7.3865372    490.20187  0.022346912  0.022238822            3 
 1829000   0.96970013    -7.404409     488.9704  0.022278586  0.022231367           10 
 1830000   0.96816171   -7.4238816    489.96565  0.022311732  0.022224012            5 
 1831000   0.97497196   -7.3892588    489.03856  0.022257353  0.022216645            7 
 1832000   0.94290941   -7.4354334    489.14596  0.022250089  0.022209271            9 
 1833000   0.97121476   -7.4011755    490.87881  0.022316731  0.022201877            5 
 1834000   0.95354242   -7.4462222     488.5558  0.022199009  0.022194494           10 
 1835000   0.96391708   -7.3966589     488.5786  0.022187947  0.022187025            7 
 1836000   0.92986224   -7.3915815    490.15192  0.022247273  0.022179716            5 
 1837000   0.95016012   -7.4140856    490.54919  0.022253184  0.022172432            7 
 1838000   0.96395426   -7.3846439    491.48523  0.022283516  0.022165168           12 
 1839000    0.9597658   -7.3871692    491.16294  0.022256795   0.02215801            4 
 1840000   0.95876072   -7.4135894    490.28209  0.022204805  0.022150795           12 
 1841000   0.94553003   -7.4151656    489.49176  0.022156969  0.022143555           10 
 1842000   0.95735317   -7.3799959    491.59195  0.022239954  0.022136364            4 
 1843000   0.96663445   -7.3693832    492.15197  0.022253209  0.022129191            3 
 1844000   0.97068479   -7.3993457    492.02187  0.022235262  0.022122043            4 
 1845000   0.95198823   -7.3952329    492.79114  0.022257956  0.022114851            5 
 1846000   0.94055462   -7.4241894    489.57596  0.022100756  0.022107601            8 
 1847000   0.95910653   -7.4141743    492.04232  0.022200068  0.022100347            8 
 1848000   0.97960185   -7.3892998     492.1399  0.022192456  0.022093008            5 
 1849000   0.95867068   -7.3864517    491.61747  0.022156908  0.022085716            7 
 1850000   0.96558746   -7.4183956    491.91033  0.022158123  0.022078428            4 
 1851000    0.9519548   -7.4209415    492.00646   0.02215048   0.02207105            6 
 1852000   0.94703169   -7.4529297    491.03656  0.022094878  0.022063627            6 
 1853000   0.95682741   -7.4526617     490.9003  0.022076826  0.022056104            7 
 1854000   0.95208575   -7.4312632    491.29034   0.02208245  0.022048659            5 
 1855000    0.9414845   -7.4432168    491.13415  0.022063529  0.022041257            3 
 1856000   0.95454692   -7.4052108    492.83299  0.022127918  0.022033969            3 
 1857000   0.97923066   -7.4116676    492.45537  0.022099056  0.022026714            4 
 1858000   0.94801225   -7.4254413     493.3684  0.022128113  0.022019453            7 
 1859000   0.94414824    -7.421976    492.98161  0.022098871  0.022012191            7 
 1860000   0.96332853   -7.4089868    492.73415  0.022075903  0.022004887            5 
 1861000   0.96839933   -7.4106956    492.23949   0.02204189  0.021997623            7 
 1862000   0.95300314   -7.3978719    493.23272  0.022074504  0.021990275            3 
 1863000   0.94037968   -7.4048849    493.93146   0.02209391  0.021982982            5 
 1864000   0.98269515   -7.4314144    492.40379   0.02201376  0.021975706            2 
 1865000   0.92829023   -7.4320605     493.3938  0.022046193  0.021968452            4 
 1866000   0.95619658    -7.444519    493.83101  0.022053904  0.021961167            7 
 1867000   0.95958171   -7.4360862    494.48143  0.022071122  0.021953906            4 
 1868000   0.96389067   -7.4291584    493.37846  0.022010103  0.021946633            6 
 1869000   0.96083053   -7.4235158     494.5011  0.022048381  0.021939378            7 
 1870000   0.93197376   -7.4455819    493.71077  0.022001371  0.021932103            6 
 1871000   0.94651615   -7.4267021    495.01561  0.022047729  0.021924806            8 
 1872000    0.9632899   -7.4314359     494.5939  0.022017178  0.021917584            4 
 1873000   0.94466035   -7.4271718    494.69425  0.022009888  0.021910288            5 
 1874000   0.96363366   -7.4018582    494.69331  0.021998102  0.021903065            5 
 1875000   0.95818775   -7.4267851    495.34081  0.022015147   0.02189584            4 
 1876000   0.94954997   -7.4353503    494.57755  0.021969508  0.021888593           11 
 1877000   0.97353994   -7.4107468    494.87999   0.02197123  0.021881444            4 
 1878000   0.94820892   -7.4442692    494.90503  0.021960642  0.021874204            2 
 1879000   0.94223388   -7.4610332    493.94088  0.021906195  0.021866987            4 
 1880000   0.96206411   -7.4481695    495.54264  0.021965543  0.021859721            9 
 1881000   0.94112003   -7.4380757    494.54524  0.021909678  0.021852472            6 
 1882000   0.95868663    -7.465499    494.78593  0.021908693  0.021845198            6 
 1883000   0.95031711   -7.4155793    495.29878  0.021919755   0.02183799            8 
 1884000   0.95717756   -7.4089525    496.26496  0.021950856  0.021830784            3 
 1885000   0.95039857   -7.3595599    498.16097  0.022023032  0.021823664            6 
 1886000   0.95919455   -7.3985545    496.14321  0.021922199  0.021816566            3 
 1887000   0.93544777   -7.4663884    496.59582   0.02193057  0.021809397            5 
 1888000   0.95425781   -7.4238976    496.59815  0.021919057  0.021802216            3 
 1889000   0.94380368   -7.4978788    495.44155   0.02185643   0.02179503            3 
 1890000   0.97913424   -7.4378828    497.96113  0.021955958  0.021787905            4 
 1891000    0.9543082   -7.4676349    496.01502  0.021858585  0.021780744            8 
 1892000   0.94363271   -7.4843928    495.14974  0.021808921  0.021773545            8 
 1893000   0.93989475   -7.4080097    496.81301   0.02187062  0.021766319            5 
 1894000   0.95175423   -7.4483784    497.78996  0.021902058  0.021759156           10 
 1895000    0.9592864   -7.4344519    496.37128  0.021828113  0.021751865            4 
 1896000   0.95477965   -7.4923989    496.01248   0.02180083   0.02174464            8 
 1897000   0.94758427   -7.4799594    495.76605  0.021778512  0.021737333            7 
 1898000   0.95653486   -7.3914775    498.59851  0.021891399  0.021730093            6 
 1899000   0.96991333   -7.4463686    497.50872  0.021832049  0.021722863            7 
 1900000   0.95280564   -7.4992689    495.93971  0.021751742  0.021715464            8 
 1901000   0.94083829   -7.4737261    495.97178  0.021741705  0.021708121            4 
 1902000   0.97032188   -7.4780547    496.09078  0.021735488  0.021700765            8 
 1903000   0.95210503   -7.4897202    496.24323  0.021730742  0.021693349            6 
 1904000    0.9544781   -7.4352523    494.93408  0.021662031   0.02168594            5 
 1905000   0.91572851   -7.4947727    495.74061  0.021685941  0.021678607            8 
 1906000   0.93668028   -7.4773374    496.97827  0.021728676  0.021671259            5 
 1907000   0.96189658   -7.4411864    498.80317  0.021797027  0.021664008            6 
 1908000    0.9605059   -7.4481168    498.04983  0.021752701  0.021656733            6 
 1909000   0.96093387    -7.504838     497.9734  0.021737969  0.021649449            5 
 1910000   0.95481658   -7.4323171    499.71408  0.021802534  0.021642208            5 
 1911000   0.92878095   -7.4608132    497.06338  0.021675535  0.021634982            3 
 1912000   0.96570884   -7.4340929    498.81709  0.021740633  0.021627687            3 
 1913000   0.95528079   -7.4577508    497.90995  0.021689752  0.021620434            6 
 1914000   0.92722143   -7.4166921    499.52213  0.021748612  0.021613237            7 
 1915000   0.95566318   -7.4553807    499.28015  0.021726726  0.021606045            6 
 1916000   0.94159817   -7.4521391    498.21977  0.021669266  0.021598822            4 
 1917000   0.93492935   -7.4691911    498.62312  0.021675496  0.021591636            5 
 1918000   0.95358676     -7.46017    498.39192   0.02165415  0.021584456            3 
 1919000   0.97861011   -7.5025638    499.53488  0.021692499  0.021577216            5 
 1920000   0.94057014   -7.4335801    500.19079   0.02170967  0.021570073            3 
 1921000    0.9587757   -7.4606707    497.96276  0.021601716  0.021562874            6 
 1922000   0.92838056   -7.4749234    499.17296  0.021642948  0.021555533           15 
 1923000   0.93466893   -7.4843608    499.88146  0.021662396  0.021548224            4 
 1924000   0.93601451   -7.4106039    500.65625  0.021684695  0.021540978            8 
 1925000   0.93080429   -7.4606631    500.06861  0.021647992   0.02153373            4 
 1926000   0.92726366     -7.43234    500.03293  0.021635208   0.02152655            4 
 1927000   0.96529662   -7.4767108    499.84173  0.021615712  0.021519425            4 
 1928000   0.95166424   -7.4680097    500.28885  0.021623827  0.021512176            5 
 1929000    0.9676204   -7.4376736    500.95905   0.02164157  0.021504992            3 
 1930000   0.96099899     -7.47076    500.14002  0.021594992  0.021497804            2 
 1931000   0.95015201   -7.4886571     499.5739  0.021559378  0.021490515            7 
 1932000   0.94001831    -7.504958    499.44462  0.021542642  0.021483189            5 
 1933000   0.95368352   -7.4905075    499.76387  0.021545261  0.021475835           10 
 1934000   0.94135571   -7.4802475    499.27723  0.021513152  0.021468534            7 
 1935000    0.9447753   -7.4413584    501.27352  0.021588007  0.021461264            6 
 1936000   0.94882411   -7.4330148    501.44889  0.021584405  0.021453989            4 
 1937000   0.94559095   -7.4459374    501.24681  0.021564568  0.021446765            5 
 1938000   0.94291365   -7.4063215    501.21506  0.021552075   0.02143954            8 
 1939000   0.94237381   -7.4352129     501.8038  0.021566263  0.021432358            7 
 1940000   0.95099853   -7.4567927    500.64674  0.021505444  0.021425202            6 
 1941000   0.94169253    -7.478874    501.06667  0.021512394  0.021418032            5 
 1942000   0.93792435   -7.4445431    502.54383  0.021564703  0.021410863            5 
 1943000   0.95180519   -7.4772527    501.89418  0.021525741  0.021403772            6 
 1944000   0.96938277   -7.4587783    502.34982    0.0215342  0.021396665            9 
 1945000   0.96541369   -7.4658252    501.60658  0.021491284   0.02138947            6 
 1946000   0.94345848   -7.5119826    501.89578  0.021492625  0.021382208           10 
 1947000   0.92177373   -7.4922759    499.73724  0.021389199  0.021374968            4 
 1948000   0.93922532   -7.4927868    502.28123  0.021487048  0.021367738            7 
 1949000   0.93990431   -7.4435572    501.90122  0.021459775   0.02136054            5 
 1950000   0.97296431   -7.4712008    501.75773  0.021442638  0.021353368           10 
 1951000   0.92772809   -7.4598361    502.69434  0.021471653  0.021346211            4 
 1952000   0.93362591   -7.4522445    504.05794  0.021518867  0.021339062            7 
 1953000   0.93736491   -7.4541516    501.75424  0.021409551  0.021331885            8 
 1954000   0.95078296   -7.4691919    503.58983  0.021476878  0.021324727            7 
 1955000   0.94854337   -7.4902938    502.16697  0.021405242  0.021317606            3 
 1956000   0.94292076    -7.461533    504.09613  0.021476488  0.021310536            7 
 1957000   0.93617439   -7.4804327    503.94918  0.021459257  0.021303401            3 
 1958000   0.94248145   -7.4493537    504.55962  0.021474277  0.021296226            3 
 1959000   0.93967231   -7.4891117    502.49399  0.021375446  0.021289038            3 
 1960000   0.95582354   -7.4687636    503.29598  0.021398639  0.021281845            7 
 1961000   0.90829708   -7.5189232    502.42175  0.021350576  0.021274674            4 
 1962000    0.9320797   -7.4809403    503.33182  0.021378348  0.021267479            3 
 1963000   0.92145879   -7.4874405     504.3291  0.021409794  0.021260366           10 
 1964000   0.93822834   -7.4853916    503.41935  0.021360291  0.021253162            7 
 1965000   0.94034312   -7.5100242    504.14592  0.021380234  0.021245974            5 
 1966000   0.93580855   -7.4936626    503.10335  0.021325168  0.021238846            7 
 1967000   0.95004226   -7.4941607    504.25092  0.021362944  0.021231672            5 
 1968000   0.96316556   -7.4773718    503.50493    0.0213205  0.021224513            7 
 1969000   0.93267408   -7.4976989    504.23591  0.021340609  0.021217383           10 
 1970000   0.95794527   -7.4920548    503.12922  0.021282962  0.021210192            8 
 1971000   0.92607482   -7.4771694    504.50818  0.021330466  0.021202951            8 
 1972000   0.94642828    -7.461964    504.90053  0.021336229  0.021195819            6 
 1973000   0.92708891   -7.4597972     505.0342  0.021331061  0.021188694            5 
 1974000   0.94971999   -7.5301464    504.92061   0.02131546  0.021181568           24 
 1975000   0.93451427   -7.5256356    504.42771  0.021283869   0.02117436            2 
 1976000   0.93237666   -7.4596442    505.94608  0.021337132  0.021167125           14 
 1977000    0.9583317   -7.4376677    505.71462  0.021316583  0.021160032            3 
 1978000   0.93813663   -7.4778537     504.4235  0.021251411  0.021152951           12 
 1979000   0.95678075   -7.4947424      505.141  0.021270886   0.02114587            5 
 1980000   0.91953433   -7.4745606    504.49459  0.021232937  0.021138815            6 
 1981000    0.9312463   -7.4546672    506.22296  0.021294925  0.021131799            3 
 1982000   0.94028448    -7.467844    506.47036  0.021294583  0.021124817            6 
 1983000   0.94515469   -7.4765498    506.75244  0.021295698  0.021117875            3 
 1984000   0.92708111   -7.4967008    506.09733  0.021257448  0.021110927            6 
 1985000   0.91887389   -7.4803041    507.67399   0.02131293  0.021104001            7 
 1986000   0.91169615   -7.4656872    507.63835  0.021300703  0.021097037            3 
 1987000   0.93636946   -7.5070371    505.81602  0.021213556   0.02109003            4 
 1988000   0.93342803   -7.5218404    506.67189  0.021238761  0.021082984            5 
 1989000   0.92736348   -7.5118975    504.87547  0.021152818   0.02107595            8 
 1990000   0.92859994   -7.5067733    506.70535  0.021218817  0.021068868            4 
 1991000    0.9307309    -7.474357    506.34995  0.021193284  0.021061752            6 
 1992000   0.93833617   -7.5238067    506.02199  0.021168925  0.021054656            4 
 1993000   0.92212436   -7.4920226    505.62351  0.021141642  0.021047544            7 
 1994000   0.95089245   -7.4799124    506.79126  0.021179842  0.021040426           15 
 1995000   0.94428318   -7.4679278    507.63707  0.021204556  0.021033362           13 
 1996000   0.93906214   -7.5182283    505.29306   0.02109607  0.021026244            7 
 1997000   0.92126503   -7.5088973    506.61208  0.021140547   0.02101912            5 
 1998000   0.92292129   -7.4998016    506.71668  0.021134329  0.021011983            9 
 1999000   0.94914741   -7.4970027    507.46615  0.021155001  0.021004958            6 
 2000000   0.93775162   -7.4978969    508.03618  0.021168174  0.020997911            6 
 2001000   0.95504163   -7.4823454    509.48258  0.021217832  0.020990903            6 
 2002000    0.9221402   -7.4579504    509.65225  0.021214296  0.020983885            4 
 2003000   0.94794325   -7.4625615    509.96239  0.021216608  0.020976973            3 
 2004000   0.91582416   -7.4954755    508.02537  0.021125473  0.020970038            5 
 2005000   0.93410143   -7.4589086    509.68062  0.021183733  0.020963063            4 
 2006000   0.94404631   -7.4991551    508.05716  0.021105731  0.020956085            6 
 2007000   0.93230625   -7.4979197    508.73784  0.021123478  0.020949118            4 
 2008000   0.94283213   -7.4774007    510.01696  0.021166042  0.020942246            3 
 2009000   0.94294476   -7.4686401    510.47941  0.021174689  0.020935366            8 
 2010000   0.93169069   -7.4662936    512.14304  0.021233128  0.020928521            5 
 2011000   0.94981671   -7.5116846    510.54887  0.021156509  0.020921675            4 
 2012000   0.91759054   -7.5651799    508.36724  0.021055634  0.020914778            5 
 2013000   0.93751445    -7.531861    510.73716  0.021143284  0.020907932            7 
 2014000   0.92211099   -7.5194161    511.58297  0.021167783  0.020901029            6 
 2015000   0.93562927     -7.52461    510.01133   0.02109228  0.020894141            5 
 2016000   0.92674002   -7.4731852     511.9481  0.021161876  0.020887245            7 
 2017000   0.92658173    -7.478264    511.73738  0.021142678  0.020880423            5 
 2018000   0.93237961   -7.4774382     511.2651  0.021112698  0.020873615            5 
 2019000   0.93597029   -7.4675814     511.9121  0.021128946  0.020866765            4 
 2020000   0.92372489   -7.4920712    510.64662   0.02106628  0.020859946            4 
 2021000   0.92833108   -7.4983225    510.83619  0.021063673  0.020853139            6 
 2022000   0.94484077   -7.4796648    512.11221  0.021105845  0.020846284            4 
 2023000   0.92132712   -7.5034394    509.99352  0.021008136  0.020839442            5 
 2024000    0.9229256    -7.544919    509.48035  0.020976628  0.020832484            6 
 2025000   0.92638188   -7.5355899    509.02556  0.020947554  0.020825468            4 
 2026000   0.94389061   -7.5324489    507.94436  0.020892743  0.020818493           10 
 2027000   0.91492094   -7.4663181    511.84661  0.021042863  0.020811573            7 
 2028000   0.93645188   -7.4838968    510.71663  0.020986055  0.020804644            3 
 2029000   0.94379404   -7.5317818    509.77378  0.020936988  0.020797699            4 
 2030000   0.93454438   -7.4975035    511.91864  0.021014722  0.020790795            6 
 2031000   0.94684196   -7.4928822    510.93453  0.020963997  0.020783918            3 
 2032000    0.9452818   -7.5196581    511.81616  0.020989836  0.020777034            6 
 2033000   0.90216886   -7.4934427    511.34164  0.020960061  0.020770103            6 
 2034000   0.92179469   -7.4922222    512.67489  0.021004379  0.020763217            6 
 2035000   0.94809694   -7.5059609    511.96979  0.020965184  0.020756345            3 
 2036000   0.92015405   -7.5120153    512.34295   0.02097016  0.020749418            7 
 2037000   0.93625471   -7.5341439     511.4599   0.02092374  0.020742481            4 
 2038000   0.91605289   -7.5001413    512.22673  0.020944829  0.020735605            3 
 2039000   0.92566416    -7.485886    511.75707  0.020915362  0.020728729            9 
 2040000   0.94443003   -7.5418716    511.74349  0.020904554  0.020721845            5 
 2041000   0.93769604   -7.5326504    511.77424  0.020895567  0.020714873            9 
 2042000   0.91955433   -7.5021822    511.58988  0.020877811  0.020707925            4 
 2043000   0.92110013   -7.5217871    512.98224  0.020924386  0.020701023            9 
 2044000   0.91451256   -7.4856232    513.72675  0.020944502  0.020694166            2 
 2045000   0.93574754   -7.5519355    512.63676  0.020889844  0.020687207            4 
 2046000   0.91681957   -7.5366123    511.59199   0.02083708  0.020680262            5 
 2047000   0.92181859   -7.5543091    512.03368  0.020844882  0.020673341            3 
 2048000   0.93054995   -7.5338564    512.53305  0.020855023    0.0206664            6 
 2049000   0.93768156   -7.5148204    512.75983  0.020854068  0.020659492            6 
 2050000   0.95320805   -7.5145453    513.64168  0.020879743  0.020652595            9 
 2051000   0.94639964   -7.5359561    513.52535  0.020864836  0.020645687            5 
 2052000   0.92040419   -7.5090678    513.23482  0.020842869  0.020638761           15 
 2053000   0.92559882   -7.5008591    512.69355  0.020810747  0.020631835           11 
 2054000   0.90452349   -7.5386578    512.11074   0.02077697  0.020624903           12 
 2055000   0.94787523   -7.5368349    512.86517  0.020797452  0.020617977           19 
 2056000   0.93564972   -7.5774231    513.07694   0.02079592  0.020611056            5 
 2057000   0.93505692   -7.5325026    513.35391  0.020797031  0.020604171            5 
 2058000   0.92808755   -7.5535664    513.85402  0.020807176  0.020597305           15 
 2059000   0.91229879   -7.5094202     512.9846  0.020761883  0.020590405            6 
 2060000   0.94320364   -7.5057316     514.0744   0.02079589  0.020583509           10 
 2061000     0.930307   -7.5396972     513.5315  0.020763848  0.020576659            9 
 2062000   0.91187013   -7.5245081    515.32049  0.020826079  0.020569785            4 
 2063000   0.92398275   -7.5031436    516.05286  0.020845567  0.020562981            4 
 2064000   0.93709781   -7.4480638     514.4754  0.020771778  0.020556159            5 
 2065000   0.91214139   -7.4951794    515.15154  0.020789005   0.02054929            8 
 2066000    0.9027562   -7.5049113    515.07818  0.020775983  0.020542427            7 
 2067000   0.91456764   -7.4935736    515.71637  0.020791661  0.020535599            6 
 2068000   0.91371675   -7.5073726    514.06206  0.020714944  0.020528677            6 
 2069000   0.92004149   -7.5287279    514.10769   0.02070677  0.020521775            4 
 2070000   0.92236866   -7.5423495    514.47746  0.020711653  0.020514851            7 
 2071000   0.90405139   -7.5148604    515.68499  0.020750241  0.020507957            3 
 2072000   0.90993467    -7.519958    514.61717   0.02069728  0.020501105            6 
 2073000   0.92574527   -7.5409091    514.74952  0.020692616  0.020494242            5 
 2074000   0.91456382   -7.5601566    514.24427  0.020662338   0.02048727            5 
 2075000   0.92591702   -7.5517135    513.58501  0.020625904  0.020480327            5 
 2076000   0.92670492   -7.5690203     514.7293  0.020661902  0.020473425            6 
 2077000   0.94414253   -7.5320327    514.82959  0.020655978  0.020466518            3 
 2078000   0.91879375   -7.5384169    515.64946  0.020678917  0.020459639            7 
 2079000   0.92296353   -7.4865673    517.49177  0.020742816  0.020452827            4 
 2080000   0.92465015   -7.5282317    516.04812  0.020675005  0.020446139            6 
 2081000   0.93118915   -7.5579185    514.88889  0.020618648  0.020439278            9 
 2082000   0.92515177   -7.5105869    516.48109  0.020672474   0.02043237            6 
 2083000   0.91697862   -7.5395454    515.19969  0.020611285  0.020425492            5 
 2084000   0.91582111   -7.5298313    514.44808   0.02057134   0.02041862            6 
 2085000   0.91664277   -7.5147869    516.05504  0.020625701  0.020411757           11 
 2086000    0.9147523   -7.5853415    514.96499  0.020572267  0.020404838           10 
 2087000    0.8990921   -7.5428235    514.80429  0.020555993  0.020397925            9 
 2088000   0.91186824   -7.5355013    516.71266  0.020622312  0.020391004            8 
 2089000   0.94131486   -7.5673819    516.13332   0.02058933  0.020384156           17 
 2090000   0.90884439   -7.5218166    516.20208   0.02058222  0.020377329           13 
 2091000   0.91481859   -7.5502916    515.89857  0.020560281  0.020370506            6 
 2092000   0.91360779   -7.5033387    516.96094  0.020592772  0.020363671            4 
 2093000   0.92265668    -7.527977    516.49772   0.02056449  0.020356788            5 
 2094000   0.91929904   -7.5385857    515.44245  0.020512673  0.020349916            6 
 2095000   0.91106519   -7.5640748     516.0622  0.020527534  0.020343026           12 
 2096000    0.9195578   -7.5251574    517.96299  0.020593312  0.020336115            5 
 2097000   0.89312589   -7.5495221     515.6648  0.020492163   0.02032916            5 
 2098000   0.90760339   -7.5576082    517.03583  0.020536854  0.020322301            6 
 2099000   0.91409021   -7.5172655    517.72562  0.020554455  0.020315434            2 
 2100000   0.91902837   -7.5532721    518.27061  0.020566294  0.020308569           12 
 2101000   0.89561552   -7.5740319    515.83843  0.020460036  0.020301673            6 
 2102000   0.90687612   -7.5857356    516.26421  0.020467183  0.020294699            5 
 2103000   0.91978375   -7.5397098    517.67929  0.020513524  0.020287709            9 
 2104000   0.92090775   -7.5856521    515.83626  0.020430777  0.020280777           11 
 2105000   0.90116818   -7.5725426    515.95504  0.020425774  0.020273789           19 
 2106000   0.91015282   -7.5451463    518.24857  0.020506828  0.020266865            6 
 2107000   0.91647938   -7.5330236    516.56781  0.020430621  0.020259972           20 
 2108000    0.9082735   -7.5575383    517.20885   0.02044627  0.020253132            4 
 2109000   0.91717464   -7.5600379    517.94112   0.02046551   0.02024626            8 
 2110000   0.92004083   -7.5789776    518.19143  0.020465696  0.020239373            8 
 2111000   0.91258613   -7.5557089    517.65224  0.020434716  0.020232525            3 
 2112000   0.93020866   -7.5848789     516.8854  0.020394784  0.020225585            5 
 2113000   0.91800585   -7.5370205    517.97832  0.020428235  0.020218676            7 
 2114000    0.9069618   -7.5553877    518.62642  0.020444119  0.020211838            9 
 2115000     0.913608    -7.547271    517.87054  0.020404671  0.020204983            3 
 2116000   0.90970236   -7.5556112    518.99686  0.020439385  0.020198152            9 
 2117000   0.89794291   -7.5376066    518.63121  0.020415337  0.020191301           10 
 2118000   0.91317137   -7.5332364    519.23898   0.02042961  0.020184505           10 
 2119000   0.91355078   -7.5747066    518.43006  0.020388157  0.020177688            4 
 2120000    0.9127971   -7.5300324    518.42462  0.020378326  0.020170843           10 
 2121000   0.92075203   -7.5818891    517.49917  0.020332358  0.020163961           10 
 2122000   0.90240805   -7.5623031    517.62949  0.020327894   0.02015707            8 
 2123000   0.90991414    -7.573929     517.0183  0.020294328   0.02015017           10 
 2124000   0.90248809   -7.5448813    517.91683  0.020320026  0.020143256            5 
 2125000   0.90675005   -7.5212552    519.20362  0.020360926  0.020136396            4 
 2126000   0.90083977   -7.5600131    518.00736  0.020304459  0.020129486            4 
 2127000   0.90812927   -7.5233042    520.35991  0.020387083  0.020122628            4 
 2128000   0.91151678   -7.5632276    518.95088  0.020322324  0.020115699            6 
 2129000   0.91710365   -7.5746993     518.3035  0.020287439  0.020108827           10 
 2130000   0.90000864   -7.5776759    519.35747   0.02031915  0.020101943            5 
 2131000    0.8940163   -7.5366888    520.51125  0.020354734   0.02009507           11 
 2132000   0.90558989    -7.573678    519.02711  0.020287176  0.020088232           12 
 2133000   0.92073861   -7.5358549    520.13012  0.020320758  0.020081354            5 
 2134000    0.9292338   -7.5141692    520.70895  0.020333839  0.020074496            8 
 2135000   0.92289025   -7.5252808    519.93636  0.020294159    0.0200677            4 
 2136000   0.90219424   -7.5622319    519.42555   0.02026473  0.020060905            8 
 2137000   0.89615657   -7.5615842    519.41217  0.020254725  0.020054118            9 
 2138000   0.90912132   -7.5956983    518.35517  0.020204053  0.020047288            8 
 2139000   0.90391816   -7.5752846     519.2452  0.020229282  0.020040435            8 
 2140000   0.92057105   -7.5933811    519.60094  0.020233682  0.020033597            6 
 2141000   0.88332597   -7.5582746    520.67626  0.020266085  0.020026837            6 
 2142000    0.9173022   -7.5610034    522.07425  0.020311012  0.020020092            4 
 2143000   0.90668859     -7.56804    520.96675  0.020258468  0.020013334            3 
 2144000   0.90269775   -7.6085142    520.44959  0.020228918  0.020006538           14 
 2145000   0.90060434   -7.5606302    520.53331  0.020222739  0.019999749           12 
 2146000    0.8900993   -7.5542541    521.53829  0.020252341  0.019992974            7 
 2147000   0.90972676   -7.5526688    522.69471  0.020287794  0.019986216            7 
 2148000   0.90523917   -7.5920928    520.13577  0.020179072  0.019979438            3 
 2149000   0.91368866   -7.5597592    521.46497  0.020221226  0.019972682           11 
 2150000   0.90922573    -7.525099    523.01108  0.020271747  0.019965994            6 
 2151000   0.92620499   -7.5430044    522.11537  0.020227622  0.019959327            4 
 2152000   0.92073703   -7.5233642    521.87068  0.020208747  0.019952626            5 
 2153000   0.90192839   -7.5486364    522.29319  0.020215714  0.019945988            6 
 2154000   0.92278654   -7.5323182    523.25172  0.020243412  0.019939273            4 
 2155000   0.93049344   -7.5556574    522.61322  0.020209328   0.01993255            3 
 2156000   0.90311716   -7.5760031    522.14144  0.020181719   0.01992586            2 
 2157000   0.90367127   -7.5922852      522.322  0.020179339  0.019919152            8 
 2158000   0.90287165   -7.5661582     522.8836  0.020191674  0.019912407            3 
 2159000   0.89714614   -7.5274531    524.80282    0.0202564  0.019905718            9 
 2160000   0.92175644   -7.5678295    522.58175  0.020161333  0.019899038            7 
 2161000    0.8963906   -7.5442411    524.01311    0.0202072   0.01989239            7 
 2162000   0.92367811   -7.5421583    524.05685  0.020199539  0.019885744            6 
 2163000   0.88311593   -7.5758212    522.91532  0.020146221  0.019879097            5 
 2164000   0.91854414   -7.5471042    523.75214  0.020169137  0.019872432            5 
 2165000   0.90114618   -7.5625986    523.72233  0.020158673  0.019865794            4 
 2166000   0.91196242   -7.5656964    523.90857  0.020156531   0.01985913            9 
 2167000   0.93027181   -7.5727807    523.16274  0.020118549   0.01985243           10 
 2168000   0.88855138   -7.6075231    522.51572  0.020084399  0.019845763            7 
 2169000   0.89472035   -7.5849113    522.48135  0.020073819  0.019839113            6 
 2170000    0.8869096   -7.5801544    523.43444  0.020101169  0.019832461            7 
 2171000    0.9125075   -7.5980355     522.7115   0.02006416  0.019825819            8 
 2172000    0.9073156   -7.5893759    524.00151  0.020104417  0.019819155            8 
 2173000   0.89516283   -7.5789492    523.17488  0.020063464  0.019812444           24 
 2174000    0.8915108   -7.5971405    522.91074   0.02004411  0.019805734            5 
 2175000   0.90173507   -7.5886191    524.05379  0.020078689  0.019799049            6 
 2176000   0.90685364   -7.6043848    523.75126  0.020057876  0.019792397           16 
 2177000   0.91344272   -7.5843264    524.38211  0.020072811  0.019785755            7 
 2178000   0.91181021   -7.5645049    526.01806  0.020126188   0.01977916           18 
 2179000   0.90095424   -7.5628734    525.74134  0.020106369  0.019772565            5 
 2180000   0.92228072    -7.589804    524.94294  0.020066626  0.019765951           13 
 2181000   0.91267787   -7.5372036    523.43809  0.019999927  0.019759325            7 
 2182000    0.8885834   -7.5916852    524.83271  0.020044024  0.019752701           10 
 2183000   0.88463167     -7.60515    524.34849  0.020016357  0.019746061            9 
 2184000    0.8929113   -7.5699531    524.63039  0.020017948  0.019739417            7 
 2185000   0.89543299   -7.6030119    524.28584  0.019995646  0.019732757           12 
 2186000   0.92349551   -7.5517489    526.65046  0.020076642  0.019726131            7 
 2187000   0.89187412   -7.5830486    525.15021  0.020010296  0.019719573           14 
 2188000   0.89070551   -7.5931965    525.59269  0.020018003   0.01971296            7 
 2189000    0.9078494   -7.5881275     525.1826  0.019993247  0.019706361            3 
 2190000    0.9127879   -7.6181273    524.64767  0.019963762  0.019699734            5 
 2191000   0.88880557   -7.5637055    526.27136  0.020016407  0.019693083            7 
 2192000   0.89924899   -7.6016477    525.22876  0.019967639  0.019686441            8 
 2193000   0.89534161   -7.5955845    524.94966  0.019947927  0.019679749            4 
 2194000   0.87030598   -7.6095571    525.32937  0.019953258   0.01967307            5 
 2195000   0.89343637   -7.6215663    524.74626  0.019922029  0.019666382            6 
 2196000   0.90934211   -7.6322286    523.50576  0.019865883  0.019659647            9 
 2197000   0.88979523   -7.6408814    524.43435  0.019892063  0.019652921            7 
 2198000   0.89376265   -7.5808643    525.62636  0.019928206  0.019646245            3 
 2199000   0.90417472   -7.6112241    525.53382  0.019915637   0.01963959            6 
 2200000   0.88493616   -7.6037094    526.95638  0.019960469  0.019632965           12 
 2201000   0.90015692   -7.5733901    526.27257   0.01992551  0.019626372            6 
 2202000   0.90250897   -7.5670377    526.31437  0.019918043  0.019619798           10 
 2203000   0.89397942    -7.583971    525.92646  0.019894328  0.019613208           19 
 2204000   0.90447698   -7.6029891    523.57693  0.019796466  0.019606596            4 
 2205000   0.88834282    -7.630487    525.88839  0.019874845  0.019599993            7 
 2206000    0.9010833   -7.6217412    524.69545  0.019820771  0.019593376            6 
 2207000   0.90695123   -7.6054811    525.82889  0.019854587  0.019586728            4 
 2208000   0.89828874   -7.6290151    524.61452  0.019799763  0.019580035            6 
 2209000   0.90399859   -7.6576713    526.26107  0.019852915  0.019573404            5 
 2210000   0.88607067   -7.6179835    526.76771  0.019863036  0.019566777            5 
 2211000   0.91927112   -7.5797926    525.88436  0.019820758  0.019560125            6 
 2212000   0.89218536   -7.6120476    526.83446  0.019847591  0.019553518            7 
 2213000   0.89861873   -7.6470332    526.40388  0.019822408  0.019546871           14 
 2214000   0.90482656   -7.5833605    527.05858  0.019838098  0.019540266            4 
 2215000   0.90098809    -7.608987    526.70082  0.019815682  0.019533637            5 
 2216000   0.89966744   -7.6222059     527.3786  0.019832228  0.019527039            7 
 2217000   0.89819469   -7.6013684    527.36902  0.019822922  0.019520455            3 
 2218000   0.90965348   -7.6231531    527.88897   0.01983352  0.019513849            8 
 2219000   0.89565908   -7.6131083    526.62401  0.019777077  0.019507249            7 
 2220000   0.88980664   -7.5856627    527.74253  0.019810155  0.019500677            9 
 2221000   0.89245424   -7.5833337     527.0574  0.019775529  0.019494105           14 
 2222000   0.89183797    -7.603568    527.30698  0.019775989   0.01948755            9 
 2223000   0.89732722   -7.6140213    526.54054  0.019738362  0.019480953           11 
 2224000   0.90097207   -7.6292433    527.68707  0.019772447  0.019474339           14 
 2225000   0.89031529    -7.675123    526.26357  0.019710246  0.019467693            4 
 2226000    0.8980192   -7.6188319     528.3543  0.019779661  0.019461099            6 
 2227000   0.90862622   -7.6077072    528.41723  0.019773134  0.019454521            6 
 2228000   0.89349212    -7.609499    529.12305  0.019790658  0.019447952            8 
 2229000   0.90535144   -7.6230319    527.58137  0.019724143  0.019441338            6 
 2230000   0.89985933   -7.6297986    527.58873  0.019715573  0.019434744            7 
 2231000   0.88629554   -7.6458479    526.65473  0.019671848  0.019428127            6 
 2232000   0.87170701   -7.6086653    529.20119  0.019758109  0.019421484           10 
 2233000   0.90662587   -7.6134466    527.06856  0.019669673  0.019414885            7 
 2234000   0.90389951   -7.5986945    528.56891  0.019716835  0.019408346            8 
 2235000   0.90775995   -7.6034584    529.17429  0.019730585  0.019401805            7 
 2236000   0.88315014   -7.6242496    528.70707  0.019704348  0.019395228            7 
 2237000   0.90014848   -7.5920498    528.66887  0.019694117  0.019388652            6 
 2238000   0.90279674   -7.5924627    527.62435  0.019646423  0.019382085           28 
 2239000    0.8854921   -7.5913407    529.44762  0.019705509  0.019375513           11 
 2240000   0.90977185   -7.6102408    527.85839  0.019637589  0.019368925            9 
 2241000    0.8953427   -7.5934238    528.09274   0.01963754  0.019362309            7 
 2242000   0.89328619   -7.6254497    528.14905  0.019630875  0.019355636            3 
 2243000   0.89148882   -7.6267945    526.28808  0.019552983  0.019348938            6 
 2244000   0.89452783    -7.622705     527.9418  0.019605682  0.019342244           11 
 2245000   0.90612331   -7.6301159    527.55867  0.019582727   0.01933552            7 
 2246000   0.88192629   -7.6660581    528.10284  0.019594199  0.019328773           17 
 2247000   0.88142129   -7.6084039    527.71699  0.019571169  0.019322081           11 
 2248000   0.89711332   -7.6241868    527.80189   0.01956561  0.019315406            6 
 2249000   0.88342702    -7.598398    528.31563  0.019575946  0.019308738            7 
 2250000   0.89718252   -7.6269539    527.64783  0.019542512  0.019302044            4 
 2251000   0.88113246   -7.6048482    527.68271  0.019535122  0.019295425           12 
 2252000     0.898996   -7.6399804    528.19791  0.019545512  0.019288718            3 
 2253000   0.88684226   -7.6756747    526.95209  0.019490757  0.019282021            7 
 2254000   0.91459418   -7.6584092    528.91871  0.019554818  0.019275298            6 
 2255000   0.89186441   -7.6179218    527.65329  0.019499382  0.019268592            8 
 2256000   0.91172534   -7.6024058    529.91808  0.019574397  0.019261919            6 
 2257000   0.88663553   -7.5951103    528.69956  0.019520734  0.019255305           10 
 2258000   0.91097532   -7.6138335    528.39109  0.019500705  0.019248709           14 
 2259000   0.88648801   -7.6064526    530.74683  0.019578974  0.019242122            3 
 2260000   0.87870272     -7.57897    530.20475  0.019550323  0.019235557            5 
 2261000   0.90492333    -7.579553    531.24623  0.019580062  0.019228961            9 
 2262000    0.8920206   -7.6201509    530.30393  0.019536691  0.019222325           18 
 2263000   0.89238161   -7.6628823    526.67167  0.019394302  0.019215666           11 
 2264000   0.88710196   -7.6527497    528.80887  0.019464402  0.019208979           14 
 2265000   0.89957971   -7.6542193    528.15094  0.019431602  0.019202267            6 
 2266000   0.88705776   -7.6144114    529.75744  0.019482106  0.019195591            7 
 2267000   0.89045038   -7.6268093    529.53259  0.019465247  0.019188961           12 
 2268000   0.87494698   -7.6462774    529.92114  0.019470941  0.019182331           12 
 2269000    0.8974487   -7.6264068    529.79228  0.019457627  0.019175664            7 
 2270000   0.92146358   -7.6347899    530.20955  0.019464374  0.019169037            6 
 2271000     0.887407   -7.6052523    530.96613  0.019483566   0.01916246            4 
 2272000   0.88423931   -7.6392593    530.16274  0.019445523  0.019155846            3 
 2273000   0.88602642   -7.6448765    530.20477  0.019438509   0.01914924           11 
 2274000   0.89350062    -7.596714    532.57699  0.019516893  0.019142655            3 
 2275000    0.8870166   -7.6181991    530.99384  0.019450324  0.019136141            5 
 2276000   0.87174591   -7.6192266    531.01326  0.019442489  0.019129569            5 
 2277000    0.8847584    -7.615008    532.20856  0.019477696  0.019123024            6 
 2278000   0.90372689   -7.6230119    531.05956  0.019427113  0.019116478           13 
 2279000   0.87232776   -7.6593232    531.03748  0.019417781  0.019109841            5 
 2280000    0.8832919    -7.637927    530.36555  0.019384706  0.019103212            5 
 2281000   0.86820469   -7.6510331    530.20373  0.019370296  0.019096621           13 
 2282000   0.87177805   -7.6619222    529.89157  0.019350408   0.01909003            9 
 2283000   0.86933537   -7.6625248    529.92969  0.019343324  0.019083398           10 
 2284000   0.87701031   -7.6578103    529.34529  0.019313532  0.019076742           14 
 2285000   0.89442106   -7.6236708    530.77621  0.019357265  0.019070123            5 
 2286000   0.88293279   -7.6650605    529.77927  0.019312455  0.019063493            5 
 2287000   0.86154435   -7.6354887    531.35574  0.019361454  0.019056867            2 
 2288000   0.88401865   -7.6479267    529.29177  0.019277818  0.019050297            5 
 2289000   0.87944964   -7.6356298    530.40227  0.019309825  0.019043695            5 
 2290000   0.89046899   -7.6474575    531.10638  0.019327015  0.019037046           13 
 2291000   0.90516618   -7.6176977    531.29169   0.01932532   0.01903041           10 
 2292000   0.87752098   -7.6504172    531.78552  0.019334843  0.019023797            4 
 2293000   0.88909582   -7.6666123    530.07605  0.019264284   0.01901719            9 
 2294000   0.88932765   -7.6752097    530.72928  0.019279616  0.019010571            9 
 2295000   0.89161152   -7.6652366    531.18725  0.019287845  0.019003938            6 
 2296000    0.8807618   -7.6822085    530.54016  0.019255958  0.018997288            9 
 2297000   0.88785291   -7.6406412     531.1446  0.019269504  0.018990668            8 
 2298000   0.88910035    -7.676356    530.96023  0.019254433  0.018984045           12 
 2299000    0.8728057   -7.6711016    530.86937  0.019242764  0.018977435           15 
 2300000   0.88639989   -7.6942281    529.83413  0.019196889  0.018970755            9 
 2301000   0.85141251   -7.6834379    530.35417   0.01920738  0.018964085            4 
 2302000   0.87720288   -7.6695034     531.8082  0.019251672  0.018957486            6 
 2303000   0.88745189   -7.6516699    530.85097  0.019208676  0.018950868            6 
 2304000   0.88293118   -7.6561889    531.13449  0.019210594  0.018944294            7 
 2305000   0.88226584   -7.6314857    532.47341  0.019250666  0.018937715            9 
 2306000   0.88986196   -7.6784585    531.08753  0.019192235  0.018931126            7 
 2307000   0.86486501   -7.6398988    531.19822  0.019187914  0.018924517            4 
 2308000   0.89685302   -7.6756818    532.03828  0.019209932  0.018917859            7 
 2309000   0.87488404   -7.6705394    532.05097  0.019202071  0.018911157           14 
 2310000   0.89185033    -7.699886    530.71943  0.019145723  0.018904505           13 
 2311000    0.8655707   -7.6702689    530.41617  0.019126503  0.018897814            7 
 2312000    0.8885402   -7.7217265    529.88743  0.019099172  0.018891123           14 
 2313000   0.85424882   -7.6735178    531.13755  0.019135955  0.018884396            6 
 2314000   0.88573534   -7.6513915    531.18433   0.01912937   0.01887775            5 
 2315000   0.89488518   -7.6623379    531.68059   0.01913897  0.018871103           11 
 2316000   0.90521695   -7.6518958    531.84955  0.019136786  0.018864481            8 
 2317000     0.868138   -7.6576484    532.61641  0.019156107  0.018857888           10 
 2318000   0.86902688   -7.6161505    534.61133  0.019219562  0.018851337           12 
 2319000   0.88752775   -7.6228153    533.22492  0.019161453  0.018844794            6 
 2320000   0.88360812   -7.6713216    530.13248  0.019042115   0.01883823            8 
 2321000   0.85828792   -7.6436371    532.91562  0.019133837  0.018831659           10 
 2322000   0.88594226   -7.6832149    533.23401  0.019137023  0.018825073            6 
 2323000   0.87656807    -7.664156    531.49387  0.019066361  0.018818511           13 
 2324000   0.90157418   -7.6567735    533.45101  0.019128335  0.018811956            6 
 2325000   0.87653395   -7.6585534    533.08703  0.019107062  0.018805403            7 
 2326000   0.88296432   -7.6514763    533.84945  0.019126162  0.018798819           10 
 2327000   0.86305572   -7.6524716    533.13323  0.019092294  0.018792243            5 
 2328000   0.87886611   -7.6633846    533.02797  0.019080325  0.018785679            5 
 2329000    0.8880436    -7.673538    532.65058   0.01905863  0.018779136            7 
 2330000    0.8935696   -7.6467343    532.94954  0.019061142  0.018772549            8 
 2331000   0.88270405   -7.6738271    531.62129   0.01900548   0.01876601           10 
 2332000   0.87959295   -7.6783658    533.56788  0.019066891  0.018759419            7 
 2333000    0.8892979   -7.6859158    533.22254  0.019046383  0.018752845           11 
 2334000   0.88161434    -7.636198    534.24196   0.01907462  0.018746297           15 
 2335000   0.85926061   -7.6595755    533.54771  0.019041674  0.018739735           12 
 2336000    0.8660087   -7.6982223    532.74044  0.019004724  0.018733188            9 
 2337000   0.86471431   -7.6946858    531.81091  0.018963447  0.018726635            5 
 2338000   0.86886105   -7.6395806    533.20892  0.019005165  0.018720042            6 
 2339000    0.8735007   -7.6565892    533.41836  0.019004502  0.018713527            6 
 2340000   0.86849058   -7.6663709    533.93755   0.01901487  0.018706982            6 
 2341000   0.89273807   -7.6887038    532.05998  0.018939911   0.01870042            9 
 2342000   0.88555101   -7.6694922    534.22351  0.019008807  0.018693851           14 
 2343000   0.87325404   -7.7019141    533.66022   0.01898066  0.018687267           14 
 2344000   0.87104581   -7.7204835    533.18127  0.018955534  0.018680729           13 
 2345000   0.88959351   -7.6512756    534.09371  0.018979876  0.018674147           16 
 2346000   0.88430077   -7.6762062    532.93306  0.018930558  0.018667622           27 
 2347000   0.89291904   -7.6800883    532.88215  0.018920684  0.018661116            6 
 2348000   0.88190743   -7.6668887    534.97579  0.018986932  0.018654581           13 
 2349000   0.86780053   -7.6949819    534.41108  0.018958815  0.018648039           14 
 2350000   0.87605366     -7.66291    534.68833  0.018960579  0.018641543            9 
 2351000   0.87044153   -7.6935889     535.4434  0.018979278   0.01863506            5 
 2352000   0.87736263   -7.6899877    535.05689  0.018957514  0.018628549            7 
 2353000   0.87561884   -7.6620087    534.26205  0.018921308  0.018622051           13 
 2354000   0.87925682   -7.6760186    535.70818  0.018964464   0.01861556            8 
 2355000   0.87144189    -7.656647    533.84969  0.018890647  0.018609107            6 
 2356000   0.87118802   -7.7067953    534.31446  0.018899068  0.018602637           10 
 2357000   0.86456549   -7.6889593    533.46047  0.018860857  0.018596175           10 
 2358000   0.88844746   -7.6856638     535.4423  0.018922897  0.018589689            9 
 2359000   0.86350075   -7.6723125    535.90957  0.018931382  0.018583199           11 
 2360000   0.87459677   -7.7081986    534.57142  0.018876109  0.018576735           14 
 2361000   0.88252719   -7.6851096    535.64311   0.01890594  0.018570246           15 
 2362000    0.8719765   -7.7278354    533.19153  0.018811443    0.0185637           14 
 2363000   0.87527388   -7.6831683    534.79895  0.018860169  0.018557154           28 
 2364000   0.85497793   -7.7062607    534.40577  0.018838331   0.01855061            7 
 2365000   0.88657911   -7.7356024    536.05557  0.018888498  0.018544066           38 
 2366000    0.8739199   -7.6916244    536.88112  0.018909591  0.018537517           30 
 2367000   0.86879797   -7.6941666    535.41134  0.018849857  0.018531007           30 
 2368000    0.8738999    -7.724823    534.84837  0.018822085  0.018524471           32 
 2369000    0.8569077   -7.6883904    535.45705  0.018835551   0.01851794           47 
 2370000   0.86316377   -7.7360028    535.15525  0.018816992  0.018511451           38 
 2371000   0.87238924   -7.7080909    534.73193  0.018794177  0.018504924           28 
 2372000   0.87826383   -7.7353332    534.96413  0.018794411  0.018498373           60 
 2373000   0.87498418   -7.7075853    534.89582  0.018784093  0.018491867           23 
 2374000    0.8648598   -7.7209247    536.14976  0.018820197   0.01848538           15 
 2375000   0.84895169   -7.6985097     535.7933  0.018799765  0.018478909           36 
 2376000   0.87053738   -7.6808295    535.55878  0.018783627  0.018472441           22 
 2377000   0.85722939   -7.6950435    535.47114  0.018772652  0.018465973           13 
 2378000   0.88777132   -7.6800493    537.40296  0.018832456  0.018459521           10 
 2379000   0.87163092   -7.6640792      537.844  0.018839989  0.018453154            3 
 2380000   0.88560813   -7.7208469      536.177  0.018773704   0.01844674            9 
 2381000    0.8670993   -7.7057185    537.17512  0.018800753  0.018440257           16 
 2382000   0.86642086   -7.7034232    536.14137  0.018756695  0.018433783           40 
 2383000   0.87355134   -7.7057427    536.40192  0.018757935  0.018427344           18 
 2384000   0.86478026   -7.7473939    534.98699  0.018700608  0.018420879           16 
 2385000   0.87567355   -7.7154383    536.07036  0.018730621  0.018414361           17 
 2386000    0.8899856   -7.7254561    535.78289   0.01871273  0.018407828           30 
 2387000   0.88241503   -7.6927731    536.82693   0.01874134  0.018401352           33 
 2388000   0.88688699   -7.7385903    536.00254  0.018704723  0.018394861           26 
 2389000   0.87864436   -7.7076049    537.31222  0.018742578  0.018388371           16 
 2390000   0.87027551   -7.7103631    536.43557  0.018704169  0.018381888           22 
 2391000   0.88561882   -7.7118435    537.33413  0.018727664  0.018375424            8 
 2392000   0.85182381    -7.706688    537.04435  0.018709739  0.018368879           20 
 2393000   0.86985945   -7.7075395    537.07875  0.018703118   0.01836243           10 
 2394000   0.87991948   -7.7056385    535.78802  0.018650377  0.018355947            8 
 2395000   0.87084968   -7.7287853    536.91875  0.018681933  0.018349433           22 
 2396000   0.86205835   -7.7343405    537.54633  0.018695963  0.018342897            8 
 2397000   0.87016057    -7.718313    536.29393  0.018644623  0.018336382           11 
 2398000   0.86198932   -7.7473384    535.94099  0.018624583  0.018329856            9 
 2399000   0.87769319   -7.7416555    536.70738  0.018643441  0.018323349           17 
 2400000   0.86886001   -7.6960132    537.59308  0.018666426  0.018316881            9 
 2401000   0.87463684   -7.7095211    535.77915  0.018595694  0.018310405           10 
 2402000   0.86433257   -7.7111703    536.37805  0.018608731  0.018303916            4 
 2403000   0.87667828   -7.7139757     536.6796  0.018611444  0.018297409           11 
 2404000   0.86272157   -7.7085271    538.25331  0.018658254  0.018290884            4 
 2405000    0.8622195   -7.7403788    535.81955  0.018566166  0.018284375           11 
 2406000    0.8672973   -7.6873981    536.28398  0.018574535  0.018277881            7 
 2407000   0.87815206    -7.678485    536.78591  0.018584196   0.01827142            6 
 2408000   0.85807168   -7.7404687    535.88638  0.018545348  0.018264926           10 
 2409000   0.85379836   -7.7268477    535.06721  0.018509313  0.018258398            7 
 2410000   0.85741531   -7.7131488    536.24438  0.018542337  0.018251887            8 
 2411000   0.86632811   -7.7150055    536.81002  0.018554197  0.018245381            6 
 2412000    0.8767848   -7.7313817     537.8085  0.018581001  0.018238863           14 
 2413000   0.85622541   -7.7007595    538.19055  0.018586495  0.018232372           10 
 2414000   0.88321038   -7.7335879    535.07953  0.018471401  0.018225836           10 
 2415000   0.85884288   -7.7589376    534.77857  0.018453367  0.018219273           11 
 2416000   0.85247486   -7.7462512    536.30503   0.01849838  0.018212703           18 
 2417000   0.86931256   -7.7291524    536.68222  0.018503731  0.018206195           12 
 2418000   0.88862113    -7.742176    535.78307  0.018465091  0.018199701           22 
 2419000   0.87930539   -7.6924263     536.9903  0.018499046  0.018193215            6 
 2420000   0.84524031   -7.7162957    536.93146  0.018489375  0.018186723           12 
 2421000   0.88290222   -7.7449729    536.91947  0.018481326   0.01818024           13 
 2422000   0.86283086   -7.7273612    536.10003  0.018445501  0.018173759           21 
 2423000   0.85634542     -7.67758     537.3955  0.018482443  0.018167299            4 
 2424000   0.84779698   -7.7144591    538.61383  0.018516702  0.018160822            7 
 2425000   0.84921837   -7.7190172    538.68677  0.018511573  0.018154365            7 
 2426000   0.86689458   -7.7051876    536.85556   0.01844104  0.018147903            7 
 2427000   0.86180991   -7.7035753    538.76261  0.018498922  0.018141447            9 
 2428000   0.85348921   -7.7162136    539.13206  0.018503983   0.01813501           11 
 2429000   0.86140095   -7.6877825    538.62824  0.018479081  0.018128588            4 
 2430000   0.86521702   -7.6934839    538.59101  0.018470199  0.018122153           10 
 2431000   0.88247833   -7.6498498    540.34531  0.018522738  0.018115776            4 
 2432000   0.86993089   -7.6744866    539.25992   0.01847793  0.018109409            6 
 2433000   0.87215186   -7.6933266    539.02922  0.018462434  0.018103034           14 
 2434000   0.85459947   -7.6687133    539.78286  0.018480651  0.018096646           14 
 2435000   0.87544758   -7.7361253    538.25997  0.018420943  0.018090227            4 
 2436000   0.84774314   -7.7242512    539.29052  0.018448636  0.018083805            7 
 2437000   0.87410478   -7.7270242    537.38847  0.018376025  0.018077394            5 
 2438000    0.8606045   -7.7083652     539.1448  0.018428521  0.018070987           13 
 2439000   0.86392965   -7.6989216    538.92968  0.018413615  0.018064525           10 
 2440000   0.88789437   -7.7186408    538.87842  0.018404318   0.01805811           11 
 2441000   0.86764508   -7.7054947    539.10562  0.018404534  0.018051697            6 
 2442000   0.85314826   -7.6915279    538.97733   0.01839262  0.018045287           16 
 2443000   0.86032122   -7.7107522    539.12316  0.018390065  0.018038893           12 
 2444000   0.87434978   -7.7235128    539.50636  0.018395607  0.018032477            8 
 2445000   0.85389084   -7.6998184     540.2423  0.018413166  0.018026061            9 
 2446000   0.86006359   -7.7320528    537.75639  0.018320946  0.018019652           15 
 2447000   0.87384528   -7.7069461    538.16605   0.01832741  0.018013214           10 
 2448000   0.86278787   -7.7563538    537.54854  0.018298902  0.018006737           13 
 2449000   0.87338034   -7.7347991     539.0821  0.018343613  0.018000264            7 
 2450000   0.85824849    -7.774427    538.88417  0.018329394  0.017993814            7 
 2451000   0.86225821   -7.7511205    538.56893  0.018311197  0.017987352           14 
 2452000   0.85500539   -7.7239807    539.31051  0.018328933  0.017980922            7 
 2453000   0.85979428   -7.7231543    538.87782  0.018306761  0.017974512           15 
 2454000   0.86629095   -7.7202695     539.4705  0.018319427    0.0179681            9 
 2455000   0.85647176   -7.7366316    540.62514  0.018351159  0.017961732            5 
 2456000   0.84653828   -7.7151635    540.04905   0.01832414  0.017955289           23 
 2457000    0.8580681   -7.7367208    538.41679  0.018261321  0.017948833           14 
 2458000   0.87221968   -7.7418081    538.76207  0.018265598  0.017942379           12 
 2459000   0.86224923   -7.7189088    540.56442   0.01831925  0.017935962            8 
 2460000   0.85538992   -7.7264221     538.9265  0.018256318  0.017929508           31 
 2461000   0.82926383   -7.7498384    538.65602  0.018239741   0.01792309           18 
 2462000   0.87558378   -7.7535884    539.51266  0.018261327  0.017916639           15 
 2463000   0.84781868   -7.7252886    538.87636  0.018232384  0.017910223           28 
 2464000   0.86106859   -7.7214267    539.26359  0.018238081  0.017903827           31 
 2465000   0.85281506   -7.6769985    540.53296  0.018273596  0.017897425           25 
 2466000   0.85995488   -7.7370614    540.10702  0.018251792  0.017891035           26 
 2467000    0.8651618   -7.7365729    539.61189  0.018227668   0.01788465           16 
 2468000   0.86196611   -7.6830233     542.3504   0.01831275  0.017878298           10 
 2469000   0.84961796   -7.6921889    540.89019  0.018256048  0.017871978            5 
 2470000   0.86741505    -7.744508    540.95172  0.018250733  0.017865659            8 
 2471000   0.85327108   -7.7149454    541.12734   0.01824927  0.017859324           10 
 2472000   0.86137682   -7.7161861    541.81747  0.018265152  0.017852985           14 
 2473000   0.86338142    -7.743276    540.82645  0.018224371  0.017846663            4 
 2474000   0.85485426   -7.7335572    540.57602   0.01820857  0.017840282            6 
 2475000   0.83597035   -7.7309137    539.39506   0.01816145   0.01783392           10 
 2476000   0.84786795   -7.7404048    540.57118  0.018193699  0.017827541           26 
 2477000   0.85928514   -7.7127721    541.57425    0.0182201  0.017821181            7 
 2478000   0.87726502   -7.7254081    540.82478  0.018187543  0.017814807           23 
 2479000   0.86115814   -7.7250055    540.51507  0.018169795   0.01780846           17 
 2480000   0.86832859   -7.7248522    540.15738   0.01815045  0.017802138            8 
 2481000   0.85179197   -7.7323192    540.57861  0.018157282    0.0177958            8 
 2482000   0.85385006   -7.7569091    540.72221  0.018154788  0.017789481            7 
 2483000   0.85457539   -7.6914462    540.50851  0.018140305  0.017783168            9 
 2484000   0.84092975   -7.7272774     541.3925  0.018162658  0.017776818            5 
 2485000   0.84764591   -7.7384956    541.24308  0.018150338  0.017770504           13 
 2486000   0.85163558   -7.7317948    541.39184  0.018148024  0.017764142            8 
 2487000   0.84498321   -7.7350747    541.08844   0.01813056  0.017757818            4 
 2488000   0.84528899   -7.7626191    540.32957  0.018097855  0.017751476            8 
 2489000    0.8479856   -7.7626945    539.43103    0.0180605  0.017745086            5 
 2490000    0.8637064   -7.7635118    541.46579  0.018121345  0.017738671            9 
 2491000   0.86368923   -7.7576892    539.69682  0.018054892  0.017732259            8 
 2492000   0.83963751   -7.7477139    540.06608  0.018059995  0.017725843            7 
 2493000   0.85354107   -7.7730303    540.26575  0.018059425   0.01771944           17 
 2494000   0.84292544   -7.7657354     540.1533  0.018048426  0.017713037            7 
 2495000   0.84805523   -7.7445778    541.06101   0.01807151  0.017706671           15 
 2496000   0.85664424   -7.7693367    539.74034  0.018020177  0.017700283            5 
 2497000   0.83634996   -7.7209871    542.07374  0.018090834  0.017693921           11 
 2498000   0.83445264   -7.7357283    541.54049  0.018065802  0.017687611           13 
 2499000   0.83978409   -7.7440631    539.47838  0.017989808  0.017681271            7 
 2500000   0.82988904   -7.7221771      541.876  0.018062533  0.017674964           14 
 2501000   0.85095967   -7.7203363    541.86346  0.018054893  0.017668645           12 
 2502000   0.83554731   -7.7123937     541.9438  0.018050353  0.017662372            7 
 2503000   0.85255247    -7.680655    544.25518  0.018120095  0.017656061            5 
 2504000   0.85176242   -7.7274332    541.53942  0.018022478   0.01764975            5 
 2505000   0.83314158    -7.771354    540.65888  0.017985991  0.017643395            9 
 2506000   0.85689667   -7.7692453    541.46642  0.018005667  0.017637004           15 
 2507000   0.85396069   -7.7264474    541.56226  0.018001671  0.017630642            9 
 2508000    0.8308981   -7.7651455    540.93095  0.017973516  0.017624289           14 
 2509000   0.84783306    -7.770611    539.52873   0.01791978  0.017617932            4 
 2510000   0.85387263   -7.7684691    540.86473  0.017956996   0.01761159            9 
 2511000   0.86216486   -7.7650158     540.6696  0.017943369  0.017605255           28 
 2512000   0.85522121   -7.7873314    541.09167  0.017950228  0.017598879           10 
 2513000   0.86378566   -7.7466504     540.7348  0.017931251  0.017592532           10 
 2514000   0.83194463   -7.7394709    541.74496  0.017957603  0.017586195           16 
 2515000   0.85304967   -7.7425416    541.86713   0.01795451  0.017579864           22 
 2516000   0.85191926   -7.7522261    541.60961  0.017938845   0.01757352           16 
 2517000   0.85045003   -7.7223583     542.6617  0.017966551  0.017567182           15 
 2518000   0.86108003   -7.7412993    542.67862  0.017959975  0.017560867           12 
 2519000   0.85995754   -7.7742614     541.8026  0.017923865  0.017554526           13 
 2520000   0.84319491    -7.780136    540.41641  0.017870913  0.017548159           12 
 2521000    0.8388911   -7.7612833    541.47374  0.017898775  0.017541824            6 
 2522000    0.8478996    -7.787371    542.35362  0.017920751  0.017535489            5 
 2523000   0.84072425   -7.8084081     540.9274  0.017866541  0.017529125            9 
 2524000   0.83948128   -7.8072649    541.87501  0.017890749  0.017522759            8 
 2525000    0.8550116   -7.7638542    541.64798  0.017876171  0.017516424           14 
 2526000    0.8603328    -7.776726     542.0992   0.01788398  0.017510037           21 
 2527000   0.86549979   -7.7761529    542.16424  0.017879048  0.017503675           19 
 2528000   0.83793635   -7.7833754    541.95307  0.017865014  0.017497307           12 
 2529000   0.84227571   -7.7879756    540.81344  0.017820398  0.017490945            8 
 2530000   0.85014376   -7.7910805    542.46114  0.017867627  0.017484575           11 
 2531000   0.83478124   -7.7892615     542.1002  0.017848683  0.017478226           11 
 2532000   0.85560542   -7.7550584    542.99797  0.017871181  0.017471876           14 
 2533000   0.84360546   -7.8129514    541.50173  0.017814901  0.017465586            9 
 2534000    0.8589114   -7.7767024    541.37152  0.017803588  0.017459254            6 
 2535000   0.83312852   -7.7674593    541.56992  0.017803087  0.017452913           15 
 2536000   0.83380656   -7.7411739    542.18226  0.017816189  0.017446589            8 
 2537000   0.84785268   -7.8126294    541.38124  0.017782855  0.017440223            9 
 2538000   0.83646305   -7.7920745    543.78282  0.017854702  0.017433909            7 
 2539000   0.85543173   -7.7947498    542.18894  0.017795357  0.017427576            7 
 2540000   0.83487252   -7.8080402     541.4746  0.017764915  0.017421227           14 
 2541000   0.83485866   -7.7807045    542.69473  0.017797938  0.017414893           14 
 2542000    0.8519379   -7.8123524    541.28882  0.017744847  0.017408559           15 
 2543000   0.84618817   -7.7778485    541.80412  0.017754755  0.017402183           34 
 2544000    0.8450283   -7.7904099    541.72567  0.017745207  0.017395836           22 
 2545000   0.84868702   -7.8203349    540.46639     0.017697  0.017389445           13 
 2546000   0.82440429   -7.8427953    540.33726  0.017685823  0.017383037           43 
 2547000   0.84894823   -7.8392505     541.2541  0.017708876  0.017376649            6 
 2548000   0.82421673   -7.8271103    540.86731  0.017689276  0.017370275           10 
 2549000   0.82809933   -7.7900033    542.98709  0.017751638   0.01736387           11 
 2550000   0.85597652   -7.7868044    541.57973  0.017698684  0.017357502            7 
 2551000   0.84853188   -7.8025782    541.95081  0.017703868  0.017351132           11 
 2552000   0.84666634   -7.8387659     540.7897  0.017659016  0.017344715           15 
 2553000   0.82942105   -7.7591216    542.58291  0.017710632   0.01733832            6 
 2554000   0.83106299   -7.8113021    542.87355   0.01771318  0.017331935            6 
 2555000    0.8505518   -7.8071035    541.94258  0.017675883  0.017325589            9 
 2556000   0.87231219   -7.8272124    542.59904   0.01769037  0.017319246            8 
 2557000   0.83738625   -7.7876443    543.63719  0.017717286  0.017312924           11 
 2558000    0.8474232   -7.7758924    542.20566  0.017663724  0.017306588           22 
 2559000    0.8322079   -7.7870606    543.02505  0.017683504  0.017300313           14 
 2560000   0.83993502   -7.7864879    543.72177  0.017699276  0.017293978           14 
 2561000   0.82404349   -7.7768293    542.60009  0.017655866  0.017287669            5 
 2562000   0.85330476   -7.7701314    542.31408  0.017639672  0.017281345           23 
 2563000   0.82912259   -7.8025338    542.65196  0.017643775  0.017275009           10 
 2564000   0.82939098   -7.8127958    543.36943  0.017660213  0.017268668            6 
 2565000   0.85582969   -7.7758687    542.69219  0.017631325  0.017262353            6 
 2566000   0.85310285   -7.7954939    542.56497  0.017620323  0.017256079            8 
 2567000    0.8428523   -7.7990662    542.35511  0.017606646  0.017249759           12 
 2568000   0.83728369   -7.7694111    543.78365  0.017646146  0.017243418           16 
 2569000   0.85048346   -7.8145585    542.44237  0.017595769  0.017237093           19 
 2570000   0.85086515   -7.8075031    542.32473  0.017585108  0.017230725           37 
 2571000   0.85050411    -7.772769    540.64797   0.01752392  0.017224374            8 
 2572000   0.83847677   -7.8124142    542.21835  0.017567987  0.017218038           11 
 2573000   0.84748266   -7.7678269    543.39457  0.017599254  0.017211744            9 
 2574000   0.84094368   -7.7858164      543.436  0.017593758  0.017205447            8 
 2575000   0.84102675   -7.7832798    543.27536  0.017581727  0.017199169            9 
 2576000   0.83671713   -7.7940929    541.03925  0.017502564  0.017192864           11 
 2577000   0.81665047   -7.7947157    543.15555  0.017564208  0.017186527            5 
 2578000   0.82493423   -7.7930623    544.16244  0.017589942  0.017180215            5 
 2579000   0.83507467   -7.7790958    543.57133  0.017564021  0.017173932           13 
 2580000   0.84911872   -7.7834626    542.54665  0.017524117  0.017167645           11 
 2581000   0.83165462   -7.8011792    542.94738  0.017530265  0.017161342           10 
 2582000   0.84282276   -7.7852889    543.44138   0.01753942  0.017155032            9 
 2583000   0.82626455   -7.8468634    542.72924  0.017509654  0.017148725            7 
 2584000    0.8381634   -7.7902681    543.81416  0.017537866  0.017142432            7 
 2585000   0.81949052   -7.7835772    542.84935  0.017499979  0.017136159            6 
 2586000   0.83829171   -7.7885657    543.91083  0.017527418  0.017129871            9 
 2587000    0.8324281   -7.8105254    542.78697   0.01748444   0.01712356           17 
 2588000   0.83555275   -7.8169369    543.21322   0.01749141  0.017117287           13 
 2589000   0.83452981   -7.7741045    543.26166  0.017486213  0.017111028           23 
 2590000   0.84367261   -7.8042563    544.01379  0.017503661  0.017104745            9 
 2591000   0.84058294   -7.8213353     543.0447  0.017465737  0.017098488           15 
 2592000    0.8339013     -7.78921    543.83914   0.01748454  0.017092219           26 
 2593000   0.84469088   -7.8228256    542.48307  0.017434216  0.017085953           14 
 2594000   0.82923513   -7.7847362    543.54072  0.017461473  0.017079655           15 
 2595000   0.84521241    -7.793279    544.90735  0.017498631  0.017073361            9 
 2596000   0.85900286   -7.8045557    543.97771  0.017462048  0.017067042            7 
 2597000   0.84812707   -7.8370594    543.52719  0.017440867  0.017060735           12 
 2598000   0.83291775   -7.8131072    543.20367  0.017423777  0.017054425            8 
 2599000   0.82166334   -7.8111828    543.19761  0.017416879  0.017048128           13 
 2600000   0.84605239   -7.8042193     544.0534  0.017437609  0.017041826           12 
 2601000   0.83537475   -7.8146513    543.70217  0.017419652  0.017035525           23 
 2602000   0.84017803   -7.7984541    543.13484  0.017394787  0.017029182           45 
 2603000   0.82924788   -7.7850989    543.19215  0.017389939  0.017022864           33 
 2604000   0.82955677   -7.8041112     543.1656  0.017382412  0.017016565           23 
 2605000   0.83851796   -7.8312943     541.9018   0.01733531   0.01701026           12 
 2606000   0.82803015   -7.8385754    543.93688  0.017393735  0.017003948           25 
 2607000   0.84228703   -7.8054166    544.24819  0.017397014  0.016997672           20 
 2608000   0.83821906   -7.8622456    542.88839  0.017346894    0.0169914            6 
 2609000   0.84788269   -7.8287246    544.84964  0.017402889  0.016985124            5 
 2610000   0.81630439   -7.8028181    544.49641  0.017384943  0.016978846           15 
 2611000   0.82551307   -7.7983108     544.7297   0.01738573  0.016972568           11 
 2612000   0.83619002   -7.8148323    545.74353   0.01741142  0.016966282           31 
 2613000   0.83426287    -7.851596     541.4818  0.017268842  0.016960009           12 
 2614000   0.80824286   -7.8168204    543.97627  0.017341758  0.016953716           28 
 2615000    0.8198124   -7.8104056    543.50514  0.017320113  0.016947423           31 
 2616000    0.8333477   -7.8431431    543.39588  0.017310011  0.016941139           41 
 2617000   0.83835336   -7.8261604    542.82626  0.017285259  0.016934839           42 
 2618000    0.8169736   -7.8595116    542.65725  0.017273276  0.016928531           56 
 2619000   0.85019092   -7.8633081    543.20255  0.017284032  0.016922215           32 
 2620000   0.81316689   -7.8776055    541.86441  0.017234873  0.016915881           63 
 2621000   0.83538801   -7.8279789    542.99243  0.017264162  0.016909584           67 
 2622000   0.82431711   -7.8387506     544.6108  0.017309014  0.016903315           44 
 2623000   0.83263831    -7.825567    542.51662  0.017235882  0.016897003           54 
 2624000   0.81003933   -7.8350432    544.10742  0.017279834  0.016890696           20 
 2625000    0.8364113   -7.8322485    543.64342  0.017258521  0.016884389           18 
 2626000   0.82817023   -7.8585852    543.10134  0.017234747  0.016878085           16 
 2627000    0.8394129   -7.8486062    543.09312  0.017227925  0.016871797           35 
 2628000    0.8296435    -7.839479    544.04889  0.017251677  0.016865526           50 
 2629000   0.82086954   -7.8215208    544.83556  0.017270051  0.016859239           42 
 2630000    0.8458924   -7.8585624    542.77344  0.017198144  0.016852917           97 
 2631000   0.82846964   -7.8663783    543.56153  0.017216569  0.016846598           71 
 2632000   0.82950086   -7.8481704    544.08297  0.017226538  0.016840291           57 
 2633000   0.83743885   -7.8258461    544.64781  0.017237872  0.016834009           49 
 2634000   0.82981895    -7.842953    544.03749  0.017212019  0.016827736           82 
 2635000   0.83094042   -7.8357066     544.1893  0.017210288  0.016821442           42 
 2636000   0.84687339   -7.8223181    544.75908  0.017221771  0.016815148           37 
 2637000   0.81981008   -7.8243076    544.00811  0.017191509  0.016808865           47 
 2638000    0.8351059   -7.7841107    545.29879  0.017225764  0.016802614           19 
 2639000   0.82574748   -7.8131113    544.03162  0.017179223  0.016796363           39 
 2640000   0.83318029   -7.7759267     545.1745  0.017208791  0.016790109           31 
 2641000   0.81280317   -7.8276383    544.00798  0.017165467   0.01678384           14 
 2642000   0.82398404   -7.8492018    543.70078   0.01714928  0.016777543           14 
 2643000   0.82347152   -7.8410507    543.78172  0.017145344  0.016771289           14 
 2644000   0.81403615   -7.8382096    543.99246  0.017145501  0.016765028           19 
 2645000   0.83443907   -7.8548422    544.73451  0.017162398  0.016758778           25 
 2646000   0.83536591   -7.8243623    543.19989   0.01710758  0.016752517            8 
 2647000   0.81388217   -7.7807071     544.7914  0.017151221  0.016746281           10 
 2648000   0.83779425   -7.8292802     543.8117  0.017113913  0.016740045           23 
 2649000   0.82483955   -7.8294329    545.96562  0.017175211  0.016733806            8 
 2650000   0.84042358   -7.8151179    544.36755  0.017118476  0.016727552           26 
 2651000   0.82736871   -7.8837017    544.17747  0.017106044    0.0167213           44 
 2652000   0.83240225   -7.8410322     545.1717  0.017130835  0.016715036           42 
 2653000   0.82616527   -7.8366083    544.29434  0.017096819  0.016708769           59 
 2654000   0.83800723   -7.8613515    543.70582  0.017071898  0.016702498           51 
 2655000    0.8256906   -7.8759308     542.4218  0.017025166  0.016696261           51 
 2656000   0.83007147   -7.8768796    544.02218  0.017068969  0.016690011           44 
 2657000   0.81117202   -7.8532309    543.87501  0.017057929  0.016683745           60 
 2658000   0.83157751   -7.8609659    545.32928  0.017097106  0.016677515           48 
 2659000   0.82205501   -7.8727604     544.1911  0.017055005  0.016671277           83 
 2660000   0.83354294   -7.8194131    545.67083  0.017094951   0.01666505           65 
 2661000     0.835964     -7.79146     545.0846  0.017070168  0.016658864           48 
 2662000   0.81264786   -7.8378876     544.6954  0.017051572  0.016652648           39 
 2663000    0.8214131   -7.8437673    544.94387  0.017052944  0.016646451           46 
 2664000   0.82460236   -7.8255372    545.29036  0.017057381  0.016640254           69 
 2665000   0.82337005   -7.8391214    544.74903  0.017034053  0.016634082           54 
 2666000   0.81952717   -7.8463663    545.41671  0.017048534  0.016627899           46 
 2667000   0.82451256   -7.8492314    544.41306  0.017010782  0.016621694           56 
 2668000   0.82369112   -7.8738501    544.56987  0.017009304  0.016615447           44 
 2669000   0.84253867   -7.8664699    544.69516  0.017006843  0.016609232           36 
 2670000   0.83090213   -7.8386099    546.19141  0.017047173  0.016603053           32 
 2671000   0.83937181   -7.8742145    544.63437  0.016992212  0.016596847           38 
 2672000   0.80219774   -7.8758031    543.67581  0.016955957   0.01659063           55 
 2673000   0.83348802   -7.8513523    544.46768  0.016974301  0.016584455           41 
 2674000    0.8217387   -7.8692457    544.47037  0.016968037  0.016578263           32 
 2675000   0.83171276   -7.8297805    544.68891  0.016968502  0.016572033           12 
 2676000   0.81984302   -7.8692758    545.15614  0.016976711  0.016565808           20 
 2677000   0.81337847   -7.8693232    544.22554    0.0169414  0.016559567           14 
 2678000   0.83025088   -7.8804558    544.56802  0.016945731   0.01655335           26 
 2679000   0.82178357   -7.8493273    544.92971  0.016950657  0.016547131           10 
 2680000   0.82853663    -7.860781    544.63062  0.016935032  0.016540915           40 
 2681000    0.8242904   -7.8571979    546.07867  0.016973725  0.016534698           39 
 2682000   0.81682109   -7.8323469    544.53405  0.016919403  0.016528479           25 
 2683000   0.82286511    -7.838025    545.68097   0.01694872  0.016522291           18 
 2684000   0.81560864   -7.8840486     546.2957  0.016961491  0.016516115           37 
 2685000   0.81982953   -7.8787098    545.27463  0.016923483  0.016509919           40 
 2686000   0.82879519   -7.8817808    545.73813  0.016931563  0.016503701           33 
 2687000   0.81759226   -7.8884527    544.32937  0.016881571  0.016497504           26 
 2688000   0.81101599   -7.8733808    545.70087   0.01691781  0.016491302           18 
 2689000   0.81109496   -7.9006759    543.72928  0.016850418  0.016485084           45 
 2690000   0.81396243   -7.8838059    545.64812  0.016903597   0.01647885           46 
 2691000   0.83205492   -7.9289248    543.93714  0.016844331  0.016472612           27 
 2692000   0.82016791   -7.8777843    544.22307  0.016846925  0.016466377           38 
 2693000   0.81531079   -7.8571626    545.80886  0.016889741  0.016460156           37 
 2694000    0.8082808    -7.880547    545.50214  0.016873984  0.016453966           26 
 2695000   0.82317079   -7.8746385    544.92545   0.01684989  0.016447768           40 
 2696000   0.82260894   -7.8571937    545.33024  0.016856152   0.01644157           30 
 2697000   0.80767602   -7.8715521    545.18077  0.016845284  0.016435405           25 
 2698000    0.8330554   -7.8794354    545.72361  0.016855807  0.016429234           35 
 2699000   0.81082715   -7.8658405    545.35546  0.016838195  0.016423094           23 
 2700000   0.78706485   -7.8383032     545.4531  0.016834972  0.016416946           23 
 2701000   0.81792759   -7.8738076     546.3597   0.01685671  0.016410818           32 
 2702000   0.82166885   -7.9097399    545.22179  0.016815377  0.016404674           47 
 2703000   0.83132445   -7.8696931    546.13349  0.016837264  0.016398507           21 
 2704000   0.81761746   -7.8580624    544.89219  0.016792782  0.016392349           53 
 2705000   0.80760186   -7.8886226    544.12873  0.016763054  0.016386178           66 
 2706000   0.81933564   -7.8675665    546.49962  0.016829873  0.016380006           44 
 2707000   0.83248694   -7.8782033    546.16882  0.016813472  0.016373836           49 
 2708000   0.81965536   -7.8878984     545.9527  0.016800612  0.016367667           68 
 2709000   0.80433959   -7.8952194    544.33251  0.016744571  0.016361501           83 
 2710000   0.82551379   -7.8987817    545.87101  0.016785702  0.016355321           83 
 2711000   0.83339135   -7.8848246     545.6002  0.016771185  0.016349113          130 
 2712000   0.82181431   -7.9053355     544.5032  0.016731293  0.016342934          107 
 2713000   0.80487208   -7.8847287    543.85375  0.016705177  0.016336731           89 
 2714000   0.80354217   -7.8922344    545.95715  0.016763607  0.016330549           83 
 2715000   0.81014806   -7.8924523    544.79486  0.016721757   0.01632437           54 
 2716000   0.79911912   -7.8988308    545.31842  0.016731665  0.016318193           53 
 2717000   0.82102778   -7.9061188    545.05693  0.016717487  0.016312011           87 
 2718000     0.797869    -7.876498    545.15656  0.016714391   0.01630583          100 
 2719000   0.80309279   -7.8883987    544.18816  0.016678563  0.016299656           83 
 2720000    0.8149162   -7.9003114    545.03725  0.016698445  0.016293466           76 
 2721000    0.8141705   -7.9074001    545.15608  0.016695948  0.016287265          105 
 2722000   0.82601078   -7.9133538    545.17344  0.016690345  0.016281036           78 
 2723000   0.81464048   -7.8875303    545.41122  0.016691493  0.016274816          111 
 2724000   0.81675391   -7.9113097     545.3271  0.016682792  0.016268616           84 
 2725000   0.80744012   -7.9415603    543.90112  0.016633062  0.016262396          103 
 2726000   0.79125084   -7.8999536    544.67175  0.016650518  0.016256163          121 
 2727000   0.80412985   -7.9145105    543.97238  0.016623041  0.016249953          146 
 2728000   0.82218672   -7.9143652      544.082  0.016620296  0.016243736          117 
 2729000   0.82559061   -7.9056293    545.13514  0.016646364  0.016237533          113 
 2730000   0.82798617   -7.8979442    545.02413  0.016636878  0.016231361          158 
 2731000    0.8134405   -7.8979136    545.43395  0.016643292  0.016225177          128 
 2732000   0.82061027   -7.9061851    543.76602  0.016586323   0.01621899          144 
 2733000   0.81796928   -7.9235065     544.0944  0.016590267  0.016212751          188 
 2734000   0.82197383   -7.9196832    544.77196  0.016604851  0.016206546          117 
 2735000   0.79290794   -7.9067644    544.66709  0.016595585  0.016200316          163 
 2736000   0.79684931   -7.9012047    544.24414  0.016576637  0.016194095          197 
 2737000   0.82175448   -7.9033774    544.88148  0.016589986  0.016187911          167 
 2738000   0.80276704   -7.8913081    543.96995  0.016556183  0.016181734          202 
 2739000   0.82789643    -7.906087    546.24227  0.016619273  0.016175547          213 
 2740000   0.81845532   -7.9166338    545.53831  0.016591798  0.016169385          201 
 2741000   0.79731257   -7.8953035     545.9573  0.016598483  0.016163231          172 
 2742000   0.81577252   -7.8813604    545.53846    0.0165797  0.016157061          180 
 2743000   0.81127608   -7.8783117    545.22001  0.016563981  0.016150929          203 
 2744000   0.79252672   -7.9232457     545.2188  0.016557908   0.01614475          213 
 2745000    0.7905591   -7.9057301    545.28511  0.016553889  0.016138592          180 
 2746000   0.82230256   -7.9090287    544.77343  0.016532333  0.016132445          183 
 2747000   0.80469254    -7.893576    545.92163  0.016561146  0.016126281          203 
 2748000   0.81639403   -7.8801666    545.39905  0.016539272  0.016120134          207 
 2749000    0.8167348   -7.8995794    544.97597  0.016520431  0.016113973          218 
 2750000   0.80005443   -7.9299635    545.35971  0.016526052  0.016107802          224 
 2751000   0.84369939   -7.9437511    543.59747  0.016466663  0.016101629          217 
 2752000   0.80673601   -7.9056455    545.31491  0.016512685  0.016095444          201 
 2753000   0.81345858   -7.9296402    545.78181   0.01652082  0.016089284          227 
 2754000   0.81212004   -7.9276878    545.19442  0.016497047  0.016083099          212 
 2755000   0.81828511   -7.9032837    545.64511  0.016504692  0.016076922          245 
 2756000   0.82031798   -7.9261077    545.22564   0.01648602   0.01607076          214 
 2757000   0.81170322   -7.9067532    544.36818  0.016454122  0.016064595          217 
 2758000   0.81642967   -7.9143021    545.50851  0.016482611  0.016058425          225 
 2759000   0.81286699   -7.9260042    544.64961  0.016450695  0.016052275          255 
 2760000   0.81232655   -7.9446498    544.87399  0.016451509  0.016046088          272 
 2761000   0.80822109   -7.9463689    545.60581  0.016467639  0.016039922          311 
 2762000   0.82476662   -7.9396544    544.50477  0.016428457  0.016033754          286 
 2763000   0.81826645   -7.9178578      544.696  0.016428278  0.016027595          285 
 2764000   0.81477223   -7.9210338    545.95956  0.016460431  0.016021423          284 
 2765000   0.80650991   -7.9131861    546.72318  0.016477492    0.0160153          241 
 2766000   0.78698676   -7.9026891    545.84971  0.016445219  0.016009188          269 
 2767000   0.80846865   -7.9434682    545.25887  0.016421481  0.016003072          296 
 2768000    0.8093468   -7.9116414    545.70551  0.016428995  0.015996913          334 
 2769000    0.8038115   -7.9719863    545.33043  0.016411774  0.015990775          302 
 2770000   0.79682324   -7.9672491    545.45855  0.016409704  0.015984632          307 
 2771000   0.80959838   -7.9644638     544.2833  0.016368438  0.015978496          291 
 2772000   0.81291344   -7.9359615    545.53556  0.016400179  0.015972352          301 
 2773000    0.8213305   -7.9449523    545.46604  0.016392176  0.015966204          330 
 2774000   0.83396808   -7.9299782    544.88347  0.016368766  0.015960037          304 
 2775000   0.81016502   -7.9511544    546.22378  0.016403116  0.015953887          287 
 2776000   0.80990869   -7.9798387    544.62251  0.016349139  0.015947722          312 
 2777000   0.80729539   -7.9254405    545.84482  0.016379931   0.01594157          363 
 2778000   0.82185642   -7.9388733    544.67696  0.016339002  0.015935413          334 
 2779000     0.809424   -7.9506639    545.61604  0.016361282  0.015929277          364 
 2780000   0.80141217   -7.9553238    546.02303  0.016367597  0.015923129          353 
 2781000   0.80223987    -7.944365    545.52424  0.016346765  0.015917001          348 
 2782000   0.81347532   -7.9713335    544.64229  0.016314471   0.01591087          362 
 2783000   0.79143679   -8.0023384    543.54666  0.016275801  0.015904714          349 
 2784000   0.81449184   -7.9698211    545.52095  0.016329051  0.015898538          379 
 2785000   0.79711298   -7.9935739    543.97116  0.016276815  0.015892352          331 
 2786000   0.80507058   -7.9665877    544.94785  0.016300187  0.015886191          393 
 2787000   0.82169574   -7.9830016    544.86968  0.016292001  0.015880024          345 
 2788000   0.79312678   -7.9664899    545.57391  0.016307207  0.015873855          386 
 2789000   0.81509205   -7.9817679    543.90121  0.016251381  0.015867692          381 
 2790000   0.80519568   -7.9736463     545.1619  0.016283211   0.01586155          345 
 2791000   0.80218741   -7.9957393    543.14211   0.01621707  0.015855389          320 
 2792000   0.80333328   -7.9470984    545.62913  0.016285492  0.015849249          326 
 2793000   0.79070141   -7.9685865    544.03138   0.01623199  0.015843098          303 
 2794000   0.80466784     -7.97945    545.71855  0.016276502  0.015836958          265 
 2795000    0.8034789   -7.9771643    546.59483  0.016296805   0.01583081          341 
 2796000   0.81767182   -7.9741071     545.1643   0.01624834  0.015824661          348 
 2797000   0.81931569    -7.986804    545.36971  0.016248651  0.015818504          340 
 2798000   0.79711675   -7.9897574    545.31093  0.016241093  0.015812341          389 
 2799000   0.81423603   -8.0053706     544.2841  0.016204719  0.015806206          378 
 2800000     0.787683   -7.9948583     543.7651  0.016183485  0.015800044          366 
 2801000   0.81020676   -7.9877842    545.84237  0.016239509  0.015793894          399 
 2802000   0.79546341   -8.0064521    544.22833   0.01618571  0.015787737          380 
 2803000   0.80547703   -8.0139094    543.48389  0.016157804  0.015781561          409 
 2804000   0.81147825   -8.0016781    544.63492  0.016186249  0.015775377          432 
 2805000   0.80843124    -7.984185    544.82289  0.016186063  0.015769203          439 
 2806000   0.81187709   -7.9877973    545.83423   0.01621033  0.015763031          364 
 2807000   0.81126772   -7.9819856    544.50395  0.016165062  0.015756877          399 
 2808000   0.79768312   -7.9836414    545.17363  0.016179179  0.015750732          384 
 2809000   0.80702501   -8.0139782    543.71746   0.01613022   0.01574457          434 
 2810000    0.7974969   -7.9570978    544.91485   0.01615999  0.015738417          443 
 2811000   0.80040897   -7.9907184    544.21215  0.016133409  0.015732286          413 
 2812000   0.81657971   -7.9437462    544.92214  0.016148712  0.015726171          443 
 2813000    0.8122634   -7.9914722    544.83562  0.016140408  0.015720046          396 
 2814000   0.79830065   -7.9731106    545.13581  0.016143562  0.015713891          402 
 2815000   0.79430263   -8.0015378    544.27351    0.0161123  0.015707734          379 
 2816000   0.79937136   -8.0169376    543.53308  0.016084667  0.015701588          450 
 2817000   0.80643075   -7.9750734    545.25121  0.016129784   0.01569544          411 
 2818000   0.79422468   -7.9846293    544.77732  0.016110046   0.01568931          433 
 2819000   0.80635284   -8.0168073    545.10094  0.016113898  0.015683164          472 
 2820000   0.80315235   -7.9623469    543.30792  0.016055198  0.015677014          490 
 2821000   0.80806424   -7.9943979    544.09108  0.016072642  0.015670878          493 
 2822000   0.78985761   -7.9877487     543.6634  0.016054317   0.01566476          485 
 2823000   0.78688245   -8.0063195    544.02583  0.016059329  0.015658607          492 
 2824000   0.80854689   -8.0090686    543.91674  0.016050423   0.01565243          548 
 2825000    0.7929822   -7.9976807    544.61732  0.016065408  0.015646289          522 
 2826000   0.79033331   -8.0388075    543.99021   0.01604123  0.015640131          584 
 2827000   0.79185449   -8.0311721    543.32252  0.016015874  0.015633942          558 
 2828000   0.79724811   -8.0496101    543.51648  0.016015927  0.015627747          654 
 2829000   0.79731296   -8.0304662    544.27351  0.016032565  0.015621577          665 
 2830000   0.79635533   -8.0393575    544.10804  0.016022027  0.015615385          693 
 2831000   0.79702527   -8.0541731    544.59875  0.016030812  0.015609179          739 
 2832000   0.78526973   -8.0675856     543.8627  0.016003493  0.015602986          758 
 2833000   0.79869097    -8.046717    544.15522  0.016006448  0.015596796          721 
 2834000    0.7992263   -8.0745694    542.84444  0.015962257  0.015590589          778 
 2835000   0.79851836   -8.0576321    543.62458  0.015979558  0.015584363          839 
 2836000   0.78659016   -8.0663791    543.55479  0.015971873  0.015578171          773 
 2837000   0.79578286   -8.0641857    544.51008  0.015994304   0.01557197          906 
 2838000   0.79578912   -8.0608504    542.92743  0.015942196  0.015565784          906 
 2839000   0.78730024   -8.0979363    542.26425  0.015917114  0.015559555          870 
 2840000   0.79018985   -8.0535898    544.03482  0.015963463  0.015553318          921 
 2841000   0.79720035   -8.0802632    543.01085  0.015927809  0.015547079          933 
 2842000   0.80692492   -8.0772398    542.05211  0.015894092  0.015540855          915 
 2843000   0.80788231   -8.1179933    541.68152  0.015877639  0.015534616          991 
 2844000   0.78863487    -8.072157    542.52213  0.015896687  0.015528389          991 
 2845000   0.79840139   -8.0930762    541.98408  0.015875339  0.015522162         1009 
 2846000   0.81094646   -8.0701503    542.99001  0.015899216  0.015515928         1050 
 2847000   0.80621945   -8.0784755    542.31513  0.015873877  0.015509694         1131 
 2848000   0.80998888   -8.0833927    542.38439   0.01587033  0.015503446         1125 
 2849000   0.79313948   -8.1057532    542.24606  0.015860713  0.015497202         1144 
 2850000   0.80491453   -8.1072086    541.70326  0.015839276  0.015490974         1121 
 2851000   0.78497376   -8.1046172    542.00855  0.015842644  0.015484733         1249 
 2852000   0.79533121   -8.1039287    541.44983  0.015820764  0.015478487         1292 
 2853000   0.79306324   -8.1525765     540.6267  0.015791176  0.015472199         1291 
 2854000   0.78322759   -8.1161473    541.04603  0.015797887  0.015465905         1296 
 2855000   0.81240372   -8.1443439     541.6237  0.015809215  0.015459611         1327 
 2856000   0.79714107   -8.1322147    541.46781  0.015799131    0.0154533         1430 
 2857000   0.79564942   -8.1505985    541.73781  0.015801476  0.015446988         1328 
 2858000   0.78464068   -8.1759046    541.69458  0.015794687   0.01544067         1505 
 2859000   0.79429346   -8.1410381    540.52923  0.015755195  0.015434338         1493 
 2860000   0.78740142   -8.1748816    539.17812  0.015710318  0.015428011         1543 
 2861000   0.79346248   -8.1918712    540.60076  0.015746265  0.015421655         1571 
 2862000   0.78831128   -8.1916363    539.95901  0.015722077  0.015415309         1589 
 2863000   0.79989512    -8.194943     539.4191   0.01570087  0.015408966         1636 
 2864000   0.79018218   -8.2111258    540.50546  0.015726998  0.015402609         1736 
 2865000   0.81906212   -8.1890811    539.85498  0.015702588  0.015396252         1759 
 2866000   0.79104965   -8.2084012    538.40164  0.015654851  0.015389869         1821 
 2867000   0.77034979   -8.1934655    539.30688  0.015675703  0.015383484         1857 
 2868000    0.7806329   -8.2107595    539.10819  0.015664464   0.01537708         1925 
 2869000   0.78347328   -8.2564731    537.75613  0.015619732  0.015370667         1997 
 2870000   0.79499255   -8.2466212    539.22895  0.015657054  0.015364239         2057 
 2871000   0.78276116   -8.2657037    538.44837  0.015628944  0.015357811         2074 
 2872000   0.80260021   -8.2420934    538.84877   0.01563512  0.015351369         2040 
 2873000   0.78660773   -8.2680349    538.35532  0.015615365  0.015344923         2113 
 2874000   0.79088403   -8.2792665    538.12431  0.015603233  0.015338458         2169 
 2875000   0.79887709   -8.2711495    538.07306  0.015596321  0.015331991         2179 
 2876000   0.79638782   -8.2654628    537.79297  0.015582782  0.015325536         2158 
 2877000   0.79879373   -8.3162264    536.73442  0.015546704   0.01531906         2182 
 2878000   0.78392678   -8.2599007    537.08564  0.015551472  0.015312576         2207 
 2879000   0.77361376   -8.2863291    536.64936  0.015533442  0.015306087         2232 
 2880000   0.80679968   -8.2838773    539.23974  0.015603002  0.015299606         2256 
 2881000   0.79602078   -8.3272624    536.80025  0.015527023  0.015293111         2386 
 2882000   0.79759914    -8.315225    536.50413  0.015513073  0.015286608         2394 
 2883000   0.79590529   -8.3384383    536.62625  0.015511222  0.015280086         2483 
 2884000   0.80940498   -8.3412634    536.49452  0.015502038  0.015273561         2594 
 2885000   0.76728515   -8.3437524    535.44649  0.015466392  0.015267019         2637 
 2886000   0.79800458   -8.3357076    537.05091  0.015507361  0.015260477         2761 
 2887000   0.78691422   -8.3566312    536.08004  0.015473965  0.015253922         2781 
 2888000   0.79461382   -8.3626881    535.67395  0.015456889  0.015247353         2803 
 2889000   0.79161764   -8.3691039    535.67183  0.015451478  0.015240767         2874 
 2890000   0.80120927   -8.4060378    534.20057  0.015403707  0.015234145         2898 
 2891000   0.79954937   -8.4154768    533.94441  0.015390995  0.015227514         2864 
 2892000   0.79170371   -8.4088721    534.83472  0.015411328  0.015220899         2919 
 2893000   0.78909039   -8.4171518    534.77424  0.015404259  0.015214266         2988 
 2894000   0.80848255   -8.4258319    534.29916  0.015385256  0.015207624         2993 
 2895000   0.77147723    -8.429542    532.55487  0.015329732  0.015200971         3072 
 2896000   0.80677134   -8.4448884    533.25349  0.015344541   0.01519431         3062 
 2897000   0.78620566   -8.4418339    533.84655  0.015356304  0.015187647         3145 
 2898000   0.78232147   -8.4383269    532.98167  0.015326135  0.015180982         3150 
 2899000    0.7905833   -8.4713127    532.89899  0.015318472  0.015174321         3151 
 2900000    0.7813377   -8.4380009    533.71552  0.015336653  0.015167658         3085 
 2901000   0.79257707   -8.4417042    533.15573  0.015315286  0.015160987         3185 
 2902000    0.7844224    -8.434034    534.49125  0.015348359   0.01515432         3150 
 2903000   0.79090827   -8.4661173    532.80793   0.01529475  0.015147647         3196 
 2904000   0.79326319   -8.4595619    533.82436  0.015318651  0.015140974         3148 
 2905000   0.77145625   -8.4591009    533.94651  0.015316882  0.015134314         3084 
 2906000   0.78581796   -8.4594345    532.87402  0.015280856  0.015127639         3184 
 2907000   0.77906712   -8.4783626    532.73277   0.01527155  0.015120971         3209 
 2908000   0.79642749   -8.4622825     532.6972   0.01526528  0.015114286         3340 
 2909000   0.78950474   -8.4725708    533.35221  0.015278796  0.015107608         3260 
 2910000   0.78940505   -8.4645616    532.02595  0.015235566  0.015100924         3271 
 2911000   0.78599643   -8.4704298    532.78411  0.015252036  0.015094241         3335 
 2912000    0.7863698   -8.4546298    532.55226  0.015240163  0.015087558         3305 
 2913000   0.76000763   -8.4873059    531.20213  0.015196308  0.015080865         3342 
 2914000   0.77315376   -8.5089787    531.76849  0.015207289  0.015074176         3355 
 2915000     0.787809    -8.473321    533.13761  0.015241212  0.015067481         3347 
 2916000   0.77842917   -8.4892993    532.32573  0.015212784  0.015060779         3344 
 2917000    0.7739722   -8.5035129    531.75094  0.015191148  0.015054083         3400 
 2918000   0.77326646   -8.5169372    532.01288  0.015193422  0.015047383         3404 
 2919000   0.78926998   -8.4938123    532.78206  0.015210176  0.015040684         3345 
 2920000   0.77683897   -8.5105283    531.42031  0.015166105  0.015033986         3432 
 2921000   0.78620181    -8.496624    532.34163  0.015187197  0.015027268         3400 
 2922000   0.80042172   -8.5230925    531.87424   0.01516867  0.015020543         3426 
 2923000   0.77954894   -8.4905025    532.01373  0.015167457  0.015013827         3395 
 2924000    0.7806627   -8.5165704    530.87347  0.015129773  0.015007118         3440 
 2925000   0.76305634   -8.5058513    531.35575  0.015138341  0.015000416         3425 
 2926000    0.7639264   -8.5002449    530.88743  0.015119829  0.014993699         3401 
 2927000   0.76986925   -8.5118838    532.71317  0.015166643  0.014986988         3397 
 2928000   0.77980306   -8.5288814    531.84085  0.015136636  0.014980294         3437 
 2929000   0.77578742   -8.5244694    531.40862  0.015119171  0.014973592         3384 
 2930000   0.78448708   -8.5021038    531.74513  0.015123582  0.014966897         3447 
 2931000   0.78237663   -8.5280095    532.16504  0.015130361  0.014960201         3443 
 2932000   0.79512511    -8.528751    532.21644  0.015126661  0.014953505         3488 
 2933000   0.79258339   -8.5407025    532.05049  0.015116788  0.014946811         3459 
 2934000   0.77885343    -8.505149    531.41021  0.015093451  0.014940116         3456 
 2935000   0.76832077   -8.5225775    530.93548  0.015074829  0.014933412         3472 
 2936000   0.77912724    -8.548488     529.9233  0.015040966  0.014926708         3461 
 2937000   0.79380681   -8.5414676    530.40811    0.0150496  0.014920014         3513 
 2938000   0.77707245   -8.5237534    530.32125  0.015042014  0.014913307         3528 
 2939000   0.77534929    -8.550617    529.34648  0.015009257  0.014906615         3569 
 2940000   0.80175091   -8.5309136    531.44143  0.015063533  0.014899915         3492 
 2941000   0.79395367   -8.5505455      530.737  0.015038451  0.014893209         3567 
 2942000   0.78836204   -8.5639099    531.14782  0.015044976  0.014886518         3531 
 2943000   0.77286135   -8.5431211    530.95057  0.015034278  0.014879833         3505 
 2944000    0.7805368   -8.4991413    530.61106  0.015019561  0.014873153         3550 
 2945000   0.78618496   -8.5449763    531.19298  0.015030928  0.014866481         3523 
 2946000    0.7908761   -8.5246543    531.21624  0.015026483  0.014859802         3554 
 2947000   0.79155434   -8.5455609    531.62996  0.015033083  0.014853115         3541 
 2948000   0.76472543    -8.533825    531.09892  0.015012973  0.014846436         3553 
 2949000   0.79607145   -8.5327275    530.59015  0.014993505  0.014839755         3521 
 2950000   0.77823549   -8.5552879    530.46855  0.014984987  0.014833068         3574 
 2951000   0.77521122   -8.5816279    529.07995  0.014940697   0.01482638         3582 
 2952000   0.78848905   -8.5374038    530.12285  0.014965076  0.014819698         3524 
 2953000   0.77467903   -8.5467866    531.03879  0.014985856  0.014813018         3569 
 2954000   0.79269043   -8.5394776    531.52718   0.01499456  0.014806345         3604 
 2955000   0.77847013   -8.5538435    530.31025  0.014955168  0.014799672         3611 
 2956000   0.79528588   -8.5354187    530.62804  0.014959067  0.014793001         3639 
 2957000   0.76995684   -8.5567104    529.95425   0.01493502  0.014786318         3578 
 2958000   0.78404025    -8.533718    530.81756  0.014954292  0.014779636         3604 
 2959000   0.77495161   -8.5420177    531.30008  0.014962828  0.014772955         3546 
 2960000   0.77605121   -8.5768958    529.56559  0.014908941  0.014766276         3658 
 2961000   0.79911271   -8.5441462    529.83251  0.014911418  0.014759597         3641 
 2962000   0.77603922    -8.555722    531.59089  0.014955854  0.014752929         3656 
 2963000    0.7883707   -8.5565987     530.6529  0.014924426  0.014746247         3640 
 2964000   0.79115089   -8.5895081    529.74385  0.014893833  0.014739576         3683 
 2965000   0.76611847   -8.5732231    529.62418  0.014885446  0.014732915         3608 
 2966000   0.76686914   -8.5528424    530.47191  0.014904246  0.014726258         3645 
 2967000    0.7823235    -8.556004    529.32863  0.014867111  0.014719612         3635 
 2968000   0.78164417   -8.5473773    531.45915  0.014921921  0.014712956         3576 
 2969000   0.79476985   -8.5779778    529.55605  0.014863479  0.014706309         3660 
 2970000   0.76971561   -8.5526341    528.89793  0.014840009  0.014699654         3638 
 2971000   0.77705444   -8.5628942    529.93479  0.014864097  0.014693006         3652 
 2972000   0.77283683   -8.5767674    529.54632  0.014848203  0.014686348         3641 
 2973000   0.75173303   -8.6013285    529.20412  0.014833617  0.014679692         3714 
 2974000   0.77455312    -8.586436    529.43707  0.014835157  0.014673046         3650 
 2975000   0.77493083   -8.5871094    530.44117  0.014858296  0.014666388         3688 
 2976000   0.78687745   -8.5995149    529.47749  0.014826319  0.014659754         3623 
 2977000   0.77245243   -8.5778334    529.12839  0.014811566  0.014653128         3669 
 2978000   0.76390332    -8.566057    529.22127  0.014809192   0.01464649         3687 
 2979000   0.76785366   -8.5624999     529.8697  0.014822359  0.014639851         3667 
 2980000   0.77815728   -8.5897161    530.51394  0.014835401   0.01463321         3697 
 2981000    0.7740632    -8.557688     530.7969  0.014838334  0.014626581         3641 
 2982000   0.79226661   -8.5694321    530.42301   0.01482291  0.014619964         3661 
 2983000   0.77720689    -8.575742    531.11841  0.014837368  0.014613338         3684 
 2984000    0.7800808   -8.5622218    530.41448  0.014812737  0.014606707         3674 
 2985000   0.77727386   -8.5685356     528.6533  0.014758607   0.01460008         3729 
 2986000   0.78815084   -8.5981764    529.72761  0.014783646  0.014593451         3716 
 2987000   0.77831581   -8.5859741    529.36101  0.014768469  0.014586825         3666 
 2988000   0.78511975   -8.5687137    529.50888  0.014767651  0.014580195         3673 
 2989000   0.80204507   -8.6004061    529.59613  0.014765143  0.014573576         3693 
 2990000     0.767695   -8.6141683    528.63575  0.014733438  0.014566944         3724 
 2991000   0.75951187   -8.5765679    529.06973  0.014740603  0.014560318         3705 
 2992000    0.7524238   -8.5876729    528.94524  0.014732209  0.014553683         3708 
 2993000   0.77522546   -8.5909983     528.2988  0.014709288   0.01454706         3708 
 2994000   0.76023379   -8.6480522    528.18822  0.014701298  0.014540442         3735 
 2995000   0.78763119   -8.6163187     528.0104  0.014691441  0.014533819         3720 
 2996000   0.76630619   -8.6380729    528.61691  0.014703408  0.014527203         3751 
 2997000   0.76779621    -8.608487    527.13522  0.014657302  0.014520589         3715 
 2998000   0.77670055   -8.5753774    528.49489  0.014690207  0.014513961         3768 
 2999000    0.7831687   -8.6038956    529.72651  0.014719532  0.014507357         3723 
 3000000   0.77395103   -8.6042768    528.70187  0.014686163  0.014500742         3763 
 3001000   0.77526767   -8.6047692    528.55129  0.014677088  0.014494132         3746 
 3002000   0.77137128   -8.6041836    529.61344  0.014701683  0.014487517         3703 
 3003000   0.77504564   -8.6207501    528.97305  0.014679017  0.014480918         3731 
 3004000   0.77416652   -8.6143911    528.15822  0.014651526  0.014474311         3784 
 3005000   0.78066022   -8.6114437    528.49171  0.014655899   0.01446772         3753 
 3006000   0.76974513   -8.5995288    528.47302  0.014650505  0.014461131         3746 
 3007000   0.78172538   -8.5946521     529.5568  0.014675668  0.014454536         3732 
 3008000   0.77960262   -8.6181736     528.6523  0.014645731  0.014447936         3712 
 3009000   0.78297214   -8.5950116    530.07928  0.014680383   0.01444135         3744 
 3010000   0.78555963   -8.6297923    527.46903   0.01460324  0.014434763         3781 
 3011000   0.76894114   -8.5976977     529.1285  0.014644318  0.014428158         3767 
 3012000   0.76838778   -8.6212034    528.17751  0.014613145  0.014421558         3755 
 3013000   0.75869789    -8.604948    528.37111   0.01461365  0.014414982         3756 
 3014000    0.7784306   -8.6104143    528.48867  0.014612051  0.014408404         3727 
 3015000   0.76265628   -8.6304095    527.27643  0.014573699   0.01440182         3821 
 3016000   0.78009995   -8.6115461    528.45839  0.014601525  0.014395235         3764 
 3017000   0.77252213   -8.5974382    528.67138  0.014602568  0.014388659         3770 
 3018000   0.76622701   -8.5963078    528.82264  0.014601906  0.014382102         3789 
 3019000   0.76988689   -8.6280711     528.7415   0.01459483  0.014375536         3789 
 3020000   0.75909367   -8.5984335    528.57689  0.014585455  0.014368972         3753 
 3021000   0.77390684   -8.6112885    528.11696   0.01456794  0.014362417         3750 
 3022000   0.79260423   -8.6047602    529.02576   0.01458818  0.014355866         3802 
 3023000   0.77358537   -8.6265946    528.17583  0.014559925   0.01434931         3764 
 3024000   0.76224458    -8.649027    528.82823  0.014573088  0.014342747         3777 
 3025000   0.76508089   -8.6352193    527.45585  0.014530464  0.014336193         3777 
 3026000   0.76664297   -8.6017606    528.74103  0.014561055  0.014329649         3778 
 3027000   0.75974154   -8.5916864    528.50261  0.014549681  0.014323106         3759 
 3028000   0.76823682   -8.6361334    529.75929  0.014579461  0.014316561         3789 
 3029000   0.76265364   -8.6149163    527.96109  0.014525176  0.014310026         3749 
 3030000   0.75796986    -8.620845    528.32343  0.014530347  0.014303501         3797 
 3031000   0.75691882   -8.6180481    527.18392  0.014494224  0.014296974         3793 
 3032000   0.75503102   -8.6021386    528.69124  0.014530872   0.01429045         3787 
 3033000   0.77813885   -8.6222684    527.77388  0.014500876  0.014283916         3746 
 3034000   0.77332926   -8.6336318    529.34597  0.014539276  0.014277395         3823 
 3035000   0.78087374   -8.6493876    527.50505  0.014483939  0.014270879         3799 
 3036000   0.76771618   -8.6594435    527.26875  0.014472682  0.014264355         3799 
 3037000   0.75402572   -8.6192351    527.96482  0.014487016   0.01425783         3815 
 3038000   0.77391265   -8.6350233    529.23723   0.01451715  0.014251313         3805 
 3039000   0.74072618   -8.6615647    526.66873  0.014441942  0.014244796         3842 
 3040000   0.75699554   -8.6263438    527.72704  0.014466202  0.014238273         3813 
 3041000   0.75196455    -8.636406    527.97359  0.014468201  0.014231768         3800 
 3042000   0.76077148   -8.6321729    528.59387  0.014480437  0.014225261         3788 
 3043000   0.77310093   -8.6258278    528.14429  0.014463367  0.014218756         3803 
 3044000   0.78138673    -8.609829    528.61079  0.014471386  0.014212257         3787 
 3045000   0.77233058    -8.639228    527.83798  0.014445484  0.014205765         3814 
 3046000   0.76195142    -8.609992    528.72188  0.014464923  0.014199273         3824 
 3047000   0.77612403     -8.65242    527.04538  0.014414325  0.014192774         3859 
 3048000   0.76562781   -8.6516253    526.93293  0.014406522  0.014186288         3860 
 3049000    0.7566229   -8.6193852    527.86896  0.014427379  0.014179804         3830 
 3050000    0.7476041    -8.618355    528.91401  0.014451203  0.014173319         3805 
 3051000   0.76606613   -8.6313044    528.64641  0.014439157  0.014166844         3843 
 3052000   0.76063941   -8.6580351    528.01299  0.014417131  0.014160364         3826 
 3053000   0.74879134   -8.6215642    527.99046  0.014411793  0.014153884         3843 
 3054000   0.76695114   -8.6131229    527.62343  0.014397059  0.014147414         3831 
 3055000    0.7607144   -8.6330463    527.42749  0.014387002  0.014140949         3812 
 3056000   0.76991472   -8.6237414    527.67679  0.014389092  0.014134489         3796 
 3057000   0.77828179   -8.6204748    528.68549  0.014411882  0.014128024         3754 
 3058000    0.7776472   -8.6515996    527.90176  0.014385812  0.014121566         3828 
 3059000   0.76745758     -8.64057    526.26834  0.014336612  0.014115114         3840 
 3060000   0.77136757   -8.6101567     527.5933  0.014368009  0.014108661         3806 
 3061000   0.77154774   -8.6215757    528.52739  0.014388745  0.014102207         3832 
 3062000   0.76985976   -8.6145967    527.10843  0.014345429  0.014095764         3820 
 3063000   0.76531682    -8.633435    527.64875  0.014355445  0.014089322         3818 
 3064000   0.77247892   -8.6530897     527.5024   0.01434678  0.014082878         3834 
 3065000   0.76292079   -8.6345291    527.02704  0.014329174  0.014076446         3805 
 3066000   0.76229083   -8.6059855    528.01683  0.014351403  0.014070011         3794 
 3067000   0.76402068   -8.6427669    528.24383  0.014352892  0.014063586         3824 
 3068000   0.75714455    -8.658851    527.94005  0.014339962  0.014057166         3819 
 3069000   0.74876122   -8.6498261    528.37321  0.014347051  0.014050746         3810 
 3070000   0.73817143   -8.6659265    527.05834  0.014306687  0.014044327         3828 
 3071000   0.75399509   -8.6432886    526.09027  0.014275759  0.014037909         3827 
 3072000   0.74984916   -8.6613246    526.72996  0.014288465  0.014031486         3860 
 3073000    0.7537686   -8.6625292    527.48328  0.014304243  0.014025075         3783 
 3074000   0.77051344   -8.6595869       527.71  0.014305736  0.014018669         3817 
 3075000   0.76763363   -8.6215384    527.33201   0.01429084  0.014012257         3840 
 3076000   0.76350407   -8.6565965    526.69983  0.014269068  0.014005858         3852 
 3077000   0.76452482   -8.6262544    528.23472  0.014305999  0.013999465         3805 
 3078000   0.74429625   -8.6480016    527.29831  0.014275999  0.013993077         3858 
 3079000   0.75953528    -8.626961    528.49472  0.014303744  0.013986691         3778 
 3080000   0.76608711   -8.6277519    527.83737  0.014281314  0.013980309         3797 
 3081000   0.76474039   -8.6312378    527.79169  0.014275443  0.013973936         3807 
 3082000   0.76057475   -8.6527476    527.53978     0.014264  0.013967566         3823 
 3083000   0.75016955   -8.6438562    528.23411  0.014278141  0.013961196         3848 
 3084000   0.75776778   -8.6720085    526.75185  0.014233459  0.013954829         3838 
 3085000   0.76166815    -8.635973    527.62467  0.014252422  0.013948465         3830 
 3086000   0.76502905    -8.645567    528.18925   0.01426305  0.013942104         3806 
 3087000   0.77815057   -8.6685945    527.44491  0.014238336   0.01393575         3779 
 3088000   0.78547165   -8.6549269    528.04196  0.014249837  0.013929396         3788 
 3089000   0.73822952   -8.6502131    527.50813  0.014230823  0.013923048         3839 
 3090000    0.7557808   -8.6713981    525.82965  0.014180951  0.013916698         3821 
 3091000   0.75151077   -8.6584901    527.41656  0.014219146  0.013910354         3820 
 3092000   0.75544418   -8.6675555     528.5023  0.014243809  0.013904009         3837 
 3093000   0.77020684   -8.6510566    527.82222  0.014220881   0.01389766         3843 
 3094000   0.74810135   -8.6453554    526.92698  0.014192172   0.01389133         3803 
 3095000   0.74924633   -8.6537682    528.05994  0.014218092  0.013884999         3782 
 3096000   0.75711848   -8.6340436    527.18471  0.014189942  0.013878672         3839 
 3097000   0.76148176   -8.6629624    527.68624  0.014198855  0.013872338         3871 
 3098000   0.77240682   -8.6667538    528.26992  0.014209972  0.013866004         3832 
 3099000   0.74933708   -8.6490124    527.83232  0.014193619  0.013859675         3853 
 3100000   0.75384756   -8.6264302    528.34297  0.014202768  0.013853357         3843 
 3101000   0.74464233    -8.624482    528.26305   0.01419604  0.013847041         3860 
 3102000   0.73926729   -8.6783601    527.22478  0.014163571  0.013840712         3877 
 3103000   0.74778006    -8.645402    527.72709  0.014172497  0.013834389         3817 
 3104000    0.7433614   -8.6688908    526.94597   0.01414696  0.013828066         3837 
 3105000   0.74207821   -8.6639562     527.6997  0.014162633  0.013821746         3866 
 3106000   0.75316313   -8.6736027    526.78229  0.014133459  0.013815436         3833 
 3107000   0.75584727   -8.6374236    527.21319  0.014140468  0.013809136         3807 
 3108000   0.77456252   -8.6538294    526.58449  0.014119061  0.013802832         3850 
 3109000    0.7569874   -8.6489921    528.11204  0.014155464  0.013796536         3807 
 3110000   0.76115907   -8.6495482     527.0638  0.014122824  0.013790239         3827 
 3111000   0.75366076   -8.6811971    525.85888  0.014086009  0.013783941         3849 
 3112000   0.73906051   -8.6452997    528.18346   0.01414373  0.013777653         3825 
 3113000   0.74911978   -8.6363502    527.52581  0.014121582  0.013771362         3866 
 3114000   0.75266076   -8.6704593       527.33  0.014111807  0.013765075         3848 
 3115000     0.744834   -8.6460869    527.16704  0.014102917  0.013758791         3825 
 3116000    0.7303861   -8.6599197    526.77228  0.014087834  0.013752509         3814 
 3117000   0.74566428   -8.6471407    528.06371  0.014117841  0.013746235         3833 
 3118000   0.75399119   -8.6677134    526.21272  0.014063842  0.013739974         3849 
 3119000   0.74404789    -8.648482    526.55905  0.014068586  0.013733704         3861 
 3120000   0.75109333   -8.6448955    527.46446   0.01408826  0.013727445         3799 
 3121000   0.74608591   -8.6382257    528.39531  0.014108601  0.013721183         3836 
 3122000   0.75279166   -8.6750447    527.14433   0.01407069  0.013714915         3863 
 3123000   0.75599687   -8.6817366     526.3152   0.01404406  0.013708653         3850 
 3124000    0.7527388   -8.6575924    528.04237  0.014085637  0.013702401         3798 
 3125000   0.75527511   -8.6638093      526.585  0.014042267  0.013696143         3846 
 3126000   0.75003473   -8.6689626    527.82513  0.014070834  0.013689891         3865 
 3127000   0.74386602   -8.6508917    526.11843  0.014020852  0.013683638         3793 
 3128000   0.74194221   -8.6429626    527.37475  0.014049839  0.013677399         3854 
 3129000   0.73322146   -8.6838226    526.98831  0.014035057  0.013671165         3843 
 3130000   0.75987204   -8.6621878    527.11148  0.014033852  0.013664928         3833 
 3131000   0.73737531   -8.6626607    527.82913   0.01404847  0.013658686         3832 
 3132000   0.74889067   -8.6620971     526.8093   0.01401685  0.013652459         3817 
 3133000   0.76525949   -8.6548162    526.67679  0.014008852  0.013646228         3832 
 3134000   0.75510031   -8.6774506    527.29994  0.014020951  0.013640001         3875 
 3135000   0.75123197    -8.643747    526.02139  0.013982493  0.013633771         3818 
 3136000   0.75658375   -8.6711149    526.34278  0.013986575  0.013627553         3834 
 3137000   0.73832676   -8.6908916    527.04913   0.01400088  0.013621338         3854 
 3138000   0.75575292   -8.6564258    528.11806  0.014024805  0.013615128         3833 
 3139000   0.76907475   -8.6400014    526.76856  0.013984511  0.013608919         3858 
 3140000   0.75487405   -8.6848546    527.31247  0.013994492  0.013602717         3860 
 3141000    0.7560743   -8.6765819    526.55027  0.013969815  0.013596518         3857 
 3142000    0.7559958   -8.6397004    527.24889  0.013983898  0.013590324         3835 
 3143000   0.73492227   -8.7068478    525.85154    0.0139424  0.013584125         3856 
 3144000   0.75395096   -8.6628657    526.62856   0.01395856  0.013577929         3865 
 3145000   0.75561722   -8.6775728    526.35754  0.013946941   0.01357174         3874 
 3146000   0.74226481   -8.6733325    526.47985  0.013945747  0.013565559         3860 
 3147000   0.72850664   -8.6495577     527.0936  0.013957568  0.013559371         3845 
 3148000   0.72926485   -8.6561043     527.2138  0.013956316  0.013553187         3854 
 3149000   0.74242914   -8.6770262    526.44626  0.013931572  0.013547005         3841 
 3150000   0.73488309   -8.6689265    527.30677  0.013949915  0.013540827         3872 
 3151000   0.75638067   -8.6795245     526.4187  0.013922001  0.013534649         3866 
 3152000   0.74471779    -8.655972    526.41014  0.013917358  0.013528471         3842 
 3153000   0.75206561   -8.6880339    526.57013  0.013917172  0.013522305         3851 
 3154000   0.75389051   -8.6418885    527.64084   0.01394105  0.013516146         3808 
 3155000   0.73735202   -8.6708833    526.94035  0.013918129  0.013509994         3883 
 3156000   0.75854935    -8.678837    526.69081   0.01390713  0.013503841         3834 
 3157000   0.75671367   -8.6628825    526.59291   0.01390014  0.013497681         3856 
 3158000   0.75069648   -8.6880599    526.53009  0.013894081  0.013491538         3863 
 3159000   0.74316119   -8.6439618    527.15205   0.01390609  0.013485395         3851 
 3160000    0.7429841    -8.662097    526.14107  0.013875028  0.013479255         3848 
 3161000   0.75862802   -8.6804681     527.5298   0.01390725  0.013473121         3874 
 3162000   0.75991312   -8.6688455    528.30908  0.013923389   0.01346698         3855 
 3163000   0.73822966   -8.6903409    526.89886  0.013881833   0.01346085         3828 
 3164000   0.74834962   -8.6752125    526.97859  0.013879546  0.013454713         3844 
 3165000   0.74133841    -8.669777    525.85675  0.013845623  0.013448576         3870 
 3166000   0.73357717   -8.7084357    526.71432  0.013863822  0.013442445         3888 
 3167000   0.75986033   -8.6708155    526.96975  0.013866165   0.01343631         3882 
 3168000   0.75418407   -8.6984955    526.54611  0.013850645  0.013430187         3860 
 3169000   0.75564278   -8.6843389    525.71044  0.013824299  0.013424063         3869 
 3170000       0.7379   -8.6947687    526.62076  0.013843869  0.013417953         3894 
 3171000   0.72781497   -8.6957795    526.48032  0.013835812  0.013411837         3817 
 3172000   0.73588986   -8.6706329    526.00966  0.013819085   0.01340572         3823 
 3173000   0.74215856   -8.6678264    526.13159  0.013817932  0.013399602         3857 
 3174000   0.72997835   -8.6873777    526.21987  0.013815897  0.013393503         3872 
 3175000   0.75184603   -8.6710159    526.49419  0.013818745  0.013387392         3831 
 3176000   0.73353975   -8.6868076    526.32872  0.013810052  0.013381285         3887 
 3177000   0.76152904   -8.6756457    526.38534  0.013807191   0.01337519         3825 
 3178000   0.76971387   -8.6852157    526.01562  0.013793151  0.013369093         3869 
 3179000   0.75980227   -8.6790001    525.85478  0.013784596  0.013363004         3851 
 3180000   0.73432074   -8.6998407     525.2286  0.013763852  0.013356908         3836 
 3181000   0.75314543   -8.6723565    526.30031  0.013787601  0.013350824         3856 
 3182000    0.7517085   -8.6630468    527.36963  0.013811273  0.013344747         3820 
 3183000   0.75941857   -8.6994358    526.72237  0.013789988  0.013338665         3876 
 3184000   0.74192811   -8.6570899    526.13129  0.013770187   0.01333258         3849 
 3185000   0.72757419   -8.6793127    525.89863  0.013759776  0.013326504         3874 
 3186000   0.73898984   -8.6878969    526.29197  0.013765745  0.013320431         3882 
 3187000   0.74318801   -8.6949598     525.8553  0.013750008  0.013314361         3854 
 3188000   0.73254492   -8.6955628    525.94741  0.013748102  0.013308284         3882 
 3189000   0.73602725   -8.6816045    526.28064  0.013752499  0.013302224         3871 
 3190000   0.75316688   -8.6630923    526.86411   0.01376343  0.013296164         3860 
 3191000   0.74382634   -8.6924909    527.10473  0.013765401  0.013290111         3879 
 3192000   0.72767364   -8.6827736     525.5235  0.013719807  0.013284058         3859 
 3193000    0.7381901   -8.7017139    526.10417  0.013730665  0.013278003         3847 
 3194000   0.74539377    -8.664965    526.63036  0.013740095  0.013271957         3864 
 3195000   0.77824764   -8.6877503      525.856  0.013715597  0.013265914         3871 
 3196000   0.73964202   -8.6861476    525.67527  0.013706593  0.013259879         3884 
 3197000   0.72786877   -8.6749335    527.21779  0.013742513  0.013253839         3865 
 3198000    0.7459983   -8.6782472    526.63516  0.013723034  0.013247809         3877 
 3199000   0.73667762   -8.6789017    526.44654  0.013713831  0.013241777         3850 
 3200000   0.75104014   -8.6840159    525.95069  0.013696632   0.01323575         3873 
 3201000   0.75006676   -8.6947226    525.75343  0.013687218  0.013229729         3867 
 3202000   0.73315067   -8.7059232    526.62506  0.013705628  0.013223705         3872 
 3203000   0.73759497   -8.6831089    525.71828  0.013677757  0.013217687         3877 
 3204000   0.74062251    -8.699628    526.24965  0.013687309  0.013211672         3845 
 3205000   0.72652751   -8.6862576    524.94405  0.013649091  0.013205649         3883 
 3206000    0.7353781   -8.6986344    526.20633  0.013677644  0.013199642         3843 
 3207000   0.73780436   -8.7030127    525.31875  0.013650316  0.013193637         3866 
 3208000   0.73499754   -8.6706854    527.44665  0.013701337  0.013187638         3834 
 3209000   0.73996019   -8.7064662    526.03897  0.013660511  0.013181639         3879 
 3210000   0.72742142   -8.6733644    526.74991  0.013674712  0.013175634         3856 
 3211000   0.73301039   -8.7076246    525.77077  0.013645042  0.013169639         3865 
 3212000   0.73010204   -8.7032533    525.49541   0.01363365  0.013163649         3861 
 3213000   0.73874475   -8.6953767    527.19801  0.013673566  0.013157669         3857 
 3214000   0.72153396   -8.6643328    526.80541  0.013659132  0.013151695         3853 
 3215000   0.74583638   -8.6999671    525.01539  0.013608486  0.013145707         3875 
 3216000   0.74466726   -8.6839516    525.88799  0.013626865  0.013139729         3848 
 3217000   0.74967097   -8.7036676     525.5768  0.013614568  0.013133758         3886 
 3218000    0.7254606   -8.7152529    525.16145  0.013599582  0.013127772         3883 
 3219000   0.74927089   -8.6944818    526.16055  0.013621222  0.013121802         3876 
 3220000   0.72163936   -8.7223299    525.72485  0.013605716  0.013115836         3859 
 3221000   0.74487738    -8.722802    526.00413  0.013608717  0.013109867         3882 
 3222000   0.72959647   -8.6755699     526.2113  0.013609852  0.013103908         3884 
 3223000   0.72278639    -8.696418     526.1208  0.013603289  0.013097944         3892 
 3224000   0.75752908   -8.7083117    526.17458   0.01360046  0.013091985         3887 
 3225000   0.74297404   -8.7023336     525.9131  0.013589486  0.013086036         3865 
 3226000   0.75095855   -8.7057688    525.98934  0.013587243  0.013080083         3861 
 3227000   0.73134067   -8.7107172    524.39611  0.013541889  0.013074132         3870 
 3228000   0.73345017   -8.7040167    526.39399  0.013589271  0.013068184         3836 
 3229000   0.73380441   -8.6716592    526.77313  0.013594847   0.01306224         3873 
 3230000   0.72833873   -8.7047302    525.97199  0.013569969  0.013056297         3889 
 3231000   0.72499336   -8.7064404    525.53848  0.013554588  0.013050356         3896 
 3232000   0.73373892   -8.6789185    525.95627  0.013561166  0.013044425         3854 
 3233000    0.7408739   -8.6896004    526.38434  0.013568005  0.013038496         3892 
 3234000   0.72227439   -8.7138329    526.22228  0.013559634  0.013032569         3869 
 3235000   0.73678932   -8.7239679    525.64724   0.01354063  0.013026644         3885 
 3236000   0.71659843    -8.706257    526.30025  0.013553262   0.01302072         3860 
 3237000   0.75347895   -8.7396845    524.73684  0.013508826  0.013014797         3887 
 3238000   0.73318678    -8.710986    525.41194  0.013522029  0.013008881         3884 
 3239000   0.74369641   -8.7119944    525.25418  0.013513795  0.013002974         3865 
 3240000   0.72836545   -8.7015621    525.49165  0.013515732  0.012997068         3875 
 3241000   0.75272728   -8.7213114    525.85594  0.013520928   0.01299116         3883 
 3242000   0.73038069   -8.7131907    525.36419  0.013504117  0.012985256         3878 
 3243000    0.7419417   -8.7120634    525.57804  0.013505449  0.012979355         3881 
 3244000   0.74269819   -8.7281013    525.96512  0.013511229  0.012973468         3898 
 3245000     0.761676   -8.6654634    526.48006  0.013520289  0.012967574         3862 
 3246000   0.72992792   -8.6980175    526.89347  0.013526737  0.012961684         3891 
 3247000   0.72408673   -8.7055094    526.22361   0.01350538  0.012955788         3874 
 3248000   0.73312785   -8.7153091    525.69341  0.013487618  0.012949905         3888 
 3249000   0.73751458   -8.7146419    525.60576  0.013481219  0.012944022         3872 
 3250000   0.74710831   -8.6901715    525.77948  0.013481525  0.012938148         3884 
 3251000   0.74237576   -8.6937801      526.485  0.013495463  0.012932278         3879 
 3252000   0.73430415   -8.7194217    525.10464  0.013455941  0.012926407         3881 
 3253000   0.73200338   -8.7026066    526.34632  0.013483613  0.012920539         3898 
 3254000     0.719197   -8.7338851    524.94976  0.013443704   0.01291467         3871 
 3255000   0.72558546   -8.7226835    525.95557  0.013465324  0.012908811         3871 
 3256000   0.73910072   -8.7316013    526.11905  0.013465373  0.012902952         3914 
 3257000   0.74031528   -8.6949285    525.20811  0.013437931  0.012897096         3909 
 3258000   0.73693274    -8.714473     525.1593  0.013432558  0.012891242         3917 
 3259000   0.72291214    -8.694202    526.80421  0.013470497  0.012885397         3905 
 3260000   0.72426738   -8.7301031     524.9369  0.013418633  0.012879551         3891 
 3261000   0.73254601   -8.6908554    526.16045  0.013445785  0.012873712         3901 
 3262000   0.72524928   -8.7272752    525.67803  0.013429339  0.012867874         3875 
 3263000   0.73996587   -8.7226649    525.73589  0.013426701  0.012862041         3905 
 3264000   0.72239936   -8.7055843    526.57658  0.013444051  0.012856211         3908 
 3265000   0.72295907   -8.7207079    526.69065  0.013442845   0.01285039         3918 
 3266000   0.73364531   -8.7291582    525.45851   0.01340729  0.012844565         3896 
 3267000    0.7376302   -8.7041253    524.99735  0.013391423  0.012838744         3910 
 3268000   0.72715534   -8.7323644    526.21499  0.013418375  0.012832927         3864 
 3269000   0.73151967   -8.7252388    525.60303   0.01339867  0.012827106         3916 
 3270000   0.73219961   -8.6918615    524.94174   0.01337772  0.012821293         3881 
 3271000      0.73122   -8.7069889    526.23098  0.013406476  0.012815479         3893 
 3272000   0.71543189   -8.7107148    525.96694  0.013395653  0.012809671         3884 
 3273000   0.72821758    -8.700317    525.79614  0.013387212  0.012803873         3864 
 3274000   0.73301707   -8.7192821    525.41986  0.013373546  0.012798071         3883 
 3275000   0.73318439   -8.6991472    525.97195   0.01338351  0.012792272         3887 
 3276000   0.72563667   -8.7334359    524.90301  0.013352234   0.01278648         3914 
 3277000   0.71963659   -8.6995172    526.34381  0.013384798  0.012780685         3874 
 3278000   0.71887596    -8.711826    525.75425  0.013365727  0.012774892         3869 
 3279000     0.725075   -8.7273188    524.76826  0.013336593  0.012769103         3907 
 3280000   0.74002238   -8.7268844    525.01542  0.013338806  0.012763321         3872 
 3281000   0.73891606   -8.7329316    524.54479  0.013322788  0.012757542         3873 
 3282000   0.73250948   -8.7158192    525.86113  0.013352152  0.012751769         3890 
 3283000   0.73199971   -8.7368565     526.4113  0.013362049  0.012745993         3878 
 3284000   0.72768294   -8.7216694    525.38021  0.013331816   0.01274022         3885 
 3285000   0.72902815   -8.7217467    526.10193  0.013346066  0.012734456         3884 
 3286000   0.73113555   -8.7465143    524.74647   0.01330763  0.012728686         3908 
 3287000   0.74159791   -8.7297277    525.90124  0.013332858  0.012722925         3890 
 3288000   0.73338112   -8.7201459    525.52352   0.01331923  0.012717167         3890 
 3289000   0.71248289   -8.7164136    525.73927  0.013320646  0.012711401         3890 
 3290000   0.71149715   -8.7310394    525.42397  0.013308611  0.012705643         3900 
 3291000   0.72899082   -8.7061618    525.53921  0.013307485  0.012699889         3893 
 3292000   0.73005371   -8.7186006    524.84706  0.013285922  0.012694136         3882 
 3293000    0.7226559   -8.7352544    524.97838   0.01328521  0.012688388         3886 
 3294000   0.71223802   -8.7077852      526.742  0.013325794  0.012682651         3887 
 3295000   0.73285821   -8.7498105    525.19156  0.013282538  0.012676912         3894 
 3296000   0.72358571   -8.7314517     525.1678  0.013277908  0.012671168         3891 
 3297000   0.71457655   -8.7223941    525.54947  0.013283527   0.01266544         3890 
 3298000   0.71724718   -8.7236249    525.24296  0.013271755  0.012659709         3897 
 3299000   0.73426163   -8.7350055    525.24612  0.013267811  0.012653979         3915 
 3300000   0.71990733     -8.71753    526.61471  0.013298351   0.01264826         3905 
 3301000   0.70971255   -8.7046537    525.46095  0.013265196  0.012642542         3883 
 3302000   0.72434703   -8.7313384    525.44127  0.013260682  0.012636821         3894 
 3303000   0.72814412   -8.7381831    525.49644  0.013258059  0.012631112         3883 
 3304000   0.70809757   -8.7312614    525.67015  0.013258428  0.012625404         3894 
 3305000   0.71769773    -8.735728    524.62851  0.013228152  0.012619699         3890 
 3306000   0.72766568   -8.6937551    524.51947  0.013221402  0.012613996         3882 
 3307000    0.7435616   -8.7159324    525.16782  0.013233742  0.012608295         3873 
 3308000   0.72419918   -8.7479548    524.38086  0.013209917  0.012602588         3912 
 3309000   0.71859493   -8.7323159    525.17142  0.013225834  0.012596896         3885 
 3310000   0.71921068   -8.7111119    526.25463   0.01324911  0.012591204         3889 
 3311000   0.72231333   -8.7069433     525.9503  0.013237449  0.012585512         3866 
 3312000   0.72105623   -8.7114216    525.13124  0.013212843  0.012579824         3889 
 3313000   0.72287428   -8.7378905    524.97447  0.013204912   0.01257414         3899 
 3314000   0.72330117   -8.7339146    526.23471  0.013232617  0.012568453         3858 
 3315000   0.72501677   -8.7323565    525.31956   0.01320562  0.012562778         3891 
 3316000   0.71818633    -8.718542    525.97619  0.013218139  0.012557103         3886 
 3317000   0.71592821   -8.7025332    526.31163  0.013222582  0.012551434         3872 
 3318000   0.71220643   -8.7138225    525.14291  0.013189243  0.012545764         3888 
 3319000   0.72661481   -8.7095362    524.89454  0.013179033  0.012540103         3907 
 3320000   0.72148527   -8.7256187    525.54644  0.013191427  0.012534448         3870 
 3321000   0.71459725   -8.7345601     524.9495  0.013172476  0.012528787         3862 
 3322000    0.7304835   -8.7481195    525.88984  0.013192099  0.012523139         3891 
 3323000   0.71957252   -8.7085122    525.55304  0.013179683  0.012517488         3856 
 3324000   0.72802133   -8.7109082    525.68859  0.013179116   0.01251184         3881 
 3325000   0.71592451   -8.7286712    525.89384  0.013180297  0.012506191         3912 
 3326000    0.7263164   -8.7396414     524.7522   0.01314773  0.012500547         3871 
 3327000   0.72652135   -8.7217982    524.70149  0.013142508  0.012494913         3920 
 3328000   0.73201862   -8.7401095     525.7746   0.01316543  0.012489278         3878 
 3329000   0.71342208   -8.7460507    525.00169  0.013142127  0.012483647         3870 
 3330000   0.71175959   -8.7146423    526.43597  0.013174073  0.012478024         3886 
 3331000     0.704375   -8.7162416    525.43875   0.01314517  0.012472396         3902 
 3332000   0.72899637    -8.729608    525.66466  0.013146875  0.012466771         3872 
 3333000   0.72636803   -8.7261118    524.81831   0.01312177  0.012461157         3875 
 3334000   0.71279009   -8.7225623    523.91833  0.013095339  0.012455548         3890 
 3335000   0.70871038   -8.7226487    524.35427  0.013102306  0.012449931         3888 
 3336000   0.71711971   -8.7279118    524.80574  0.013109656  0.012444318         3897 
 3337000   0.72274067   -8.7287662     525.9397  0.013134045  0.012438705         3866 
 3338000   0.72857732   -8.7082909    525.79182  0.013126419  0.012433107         3871 
 3339000   0.72335139   -8.7123179    524.41542  0.013088136  0.012427507         3897 
 3340000    0.7108564   -8.7236299    524.94702   0.01309748  0.012421912         3874 
 3341000    0.7314894   -8.7148241     525.5303  0.013108109  0.012416311         3887 
 3342000   0.73562941   -8.7377078    524.19639  0.013070925  0.012410727         3878 
 3343000   0.72939093   -8.7369468    525.01881  0.013087516  0.012405136         3895 
 3344000   0.72060099   -8.7440826    524.88651  0.013080306  0.012399547         3877 
 3345000   0.70975515    -8.717685    526.28831  0.013111318  0.012393964         3872 
 3346000   0.71708934   -8.7406863     525.2247   0.01308091  0.012388392         3877 
 3347000   0.70750407   -8.7150816    525.61612  0.013086747  0.012382816         3890 
 3348000   0.70650556   -8.7149956    525.80946  0.013087651  0.012377243         3856 
 3349000   0.72443072   -8.7396414    524.89157  0.013060903  0.012371673         3898 
 3350000   0.70792022    -8.709868     525.6239  0.013075221  0.012366105         3886 
 3351000   0.71296599   -8.7395236    524.75518  0.013049716  0.012360544         3895 
 3352000   0.72184644   -8.7453657    524.12665  0.013030197  0.012354985         3896 
 3353000   0.71490291   -8.7385474    525.66818  0.013064623   0.01234943         3884 
 3354000   0.69060192   -8.7440025    525.54467  0.013057659  0.012343872         3908 
 3355000    0.7109636   -8.7326808    525.78251  0.013059675  0.012338323         3895 
 3356000   0.74456196   -8.7455637    525.47313  0.013048101   0.01233277         3909 
 3357000   0.70701041   -8.7311562    525.23754  0.013038366  0.012327233         3877 
 3358000   0.72113886   -8.7280536    525.97486  0.013052781  0.012321692         3879 
 3359000   0.70847232   -8.7342506     526.1168  0.013052416  0.012316151         3916 
 3360000   0.69920891   -8.7496415    525.67422  0.013037555  0.012310616         3886 
 3361000   0.72517452   -8.7648475    524.50892  0.013004783  0.012305074         3895 
 3362000   0.71209911   -8.7298258    525.30637  0.013020681  0.012299541         3878 
 3363000   0.70445717    -8.737984    524.80435   0.01300437  0.012294011         3890 
 3364000    0.7051416   -8.7297834     524.5196   0.01299345  0.012288489         3892 
 3365000   0.72371455   -8.7371215    524.27726  0.012983587  0.012282964         3855 
 3366000   0.71484467   -8.7276026    525.49504  0.013009879  0.012277445         3888 
 3367000   0.73599598   -8.7489813    524.94759  0.012992466  0.012271926         3881 
 3368000   0.70584873   -8.7323438    525.32677   0.01299799   0.01226641         3882 
 3369000   0.71795198   -8.7358156    525.28188  0.012993022  0.012260907         3872 
 3370000   0.70366509   -8.7275621    524.61593  0.012972699  0.012255406         3865 
 3371000   0.70734351   -8.7139675    525.39176  0.012988029  0.012249905         3887 
 3372000   0.71501427   -8.7581493    525.08022  0.012976478  0.012244402         3892 
 3373000   0.68767603   -8.7380272    525.13888   0.01297408  0.012238908         3890 
 3374000   0.69642604   -8.7447876    524.89695   0.01296426  0.012233407         3894 
 3375000   0.71185279   -8.7469321    525.36982  0.012972094  0.012227914         3897 
 3376000   0.71488156   -8.7509372    524.58431  0.012948862  0.012222427         3904 
 3377000   0.71015597   -8.7604846     524.5888  0.012945139  0.012216938         3917 
 3378000   0.71506343     -8.72494    525.27461  0.012958225  0.012211458         3893 
 3379000   0.72932703   -8.7484568    524.91629  0.012945553  0.012205977         3895 
 3380000   0.73644576   -8.7310969    525.13971  0.012947232  0.012200497         3901 
 3381000   0.72698708   -8.7519148    524.72032  0.012933065  0.012195022         3900 
 3382000   0.69049901   -8.7543677    524.63386  0.012927111  0.012189543         3905 
 3383000   0.71811814   -8.7467538    525.06487  0.012933906  0.012184068         3908 
 3384000   0.71397217   -8.7258883    524.60378   0.01291873  0.012178608         3886 
 3385000   0.71595824   -8.7454154    524.56268  0.012913902  0.012173142         3893 
 3386000   0.69620843   -8.7228344     525.1836  0.012925369  0.012167681         3888 
 3387000   0.71056047   -8.7323038    525.68684  0.012933935  0.012162221         3900 
 3388000   0.71522791   -8.7209208    525.92756  0.012936038  0.012156769         3895 
 3389000   0.70456259   -8.7497928    524.72513  0.012902654  0.012151316         3881 
 3390000   0.69953595   -8.7434576    524.18435  0.012885554  0.012145862         3909 
 3391000   0.71218317   -8.7573849    524.98217  0.012901361  0.012140417         3893 
 3392000   0.70613819   -8.7781395    524.17179  0.012877648  0.012134968         3915 
 3393000   0.71160612    -8.728411    525.83643  0.012914737  0.012129529         3879 
 3394000   0.70988552   -8.7380881    525.21904  0.012895773  0.012124089         3911 
 3395000   0.69902663   -8.7635551    524.29794  0.012869365  0.012118649         3905 
 3396000   0.71228474   -8.7668483    525.11038  0.012885512  0.012113219         3898 
 3397000   0.70596413   -8.7568075    525.15364   0.01288278  0.012107798         3899 
 3398000   0.68960885   -8.7532265    525.05046  0.012876458  0.012102377         3895 
 3399000   0.70857839   -8.7532332    524.47649  0.012858598  0.012096954         3906 
 3400000   0.70642529   -8.7476516    524.87854   0.01286467  0.012091533         3882 
 3401000   0.69015577   -8.7722888    525.00442  0.012863972  0.012086113         3877 
 3402000   0.71079484   -8.7366969    524.53451   0.01284868  0.012080695         3920 
 3403000   0.71454001   -8.7410319    525.05613  0.012857678  0.012075283         3896 
 3404000   0.70693602   -8.7367998    524.98479  0.012852154  0.012069868         3917 
 3405000   0.72121695   -8.7406061    524.90921   0.01284653  0.012064463         3894 
 3406000   0.69814132   -8.7462173    524.02271  0.012821068  0.012059061         3907 
 3407000   0.70126839   -8.7514169    524.16073  0.012820681  0.012053661         3894 
 3408000   0.69959194   -8.7571952    524.06952  0.012814689  0.012048266         3901 
 3409000   0.71334131    -8.728302     524.6013  0.012823929  0.012042873         3900 
 3410000    0.7015254   -8.7487485    523.90928  0.012803257   0.01203748         3904 
 3411000   0.70886213   -8.7683218    524.73483  0.012819672  0.012032096         3913 
 3412000   0.70466391   -8.7531475    524.43181  0.012808514  0.012026716         3900 
 3413000   0.69362281   -8.7500002     524.9748  0.012818019  0.012021337         3897 
 3414000   0.69345677   -8.7428921    523.99329  0.012790307  0.012015965         3893 
 3415000   0.71868047   -8.7544363    524.38394  0.012796094  0.012010589         3892 
 3416000   0.69805915   -8.7478411    524.69598  0.012799961  0.012005217         3903 
 3417000   0.70496111   -8.7339212    524.80047  0.012798763  0.011999844         3901 
 3418000   0.70715123   -8.7562636    525.09856  0.012802286  0.011994483         3914 
 3419000    0.6869398   -8.7450614    525.12944  0.012799294  0.011989119         3907 
 3420000   0.70134848   -8.7224498    524.84701   0.01278867  0.011983757         3882 
 3421000   0.71540088   -8.7483595    524.56336  0.012778022  0.011978397         3881 
 3422000    0.6920911   -8.7798963    524.13096  0.012763758   0.01197304         3908 
 3423000   0.70159837   -8.7509466    524.44446  0.012767661  0.011967691         3897 
 3424000   0.71635529   -8.7372396    524.89161  0.012774815  0.011962348         3892 
 3425000   0.69450762   -8.7524158    524.86949  0.012770547  0.011957009         3903 
 3426000   0.69503747   -8.7798657    524.30604  0.012753114  0.011951668         3880 
 3427000   0.70840645   -8.7738785    524.31895  0.012749707  0.011946329         3916 
 3428000   0.70952505   -8.7607251    524.91845  0.012760561  0.011940989         3903 
 3429000   0.70534474   -8.7379959    524.03139  0.012735282  0.011935664         3908 
 3430000   0.69729112   -8.7609293     524.7849  0.012749876  0.011930335         3897 
 3431000   0.71532167   -8.7332631    524.50266  0.012739305  0.011925011         3897 
 3432000   0.70797175   -8.7598584     524.1243  0.012726406  0.011919687         3922 
 3433000   0.71136835     -8.75658    525.10644  0.012746539  0.011914362         3894 
 3434000   0.69802129   -8.7666768    524.28212  0.012722824  0.011909042         3900 
 3435000   0.69756082   -8.7455934    525.83385  0.012756765  0.011903721         3905 
 3436000   0.71945943   -8.7595438    523.92874  0.012706848  0.011898405         3889 
 3437000   0.70851153   -8.7573239    525.23776  0.012734889  0.011893091         3879 
 3438000   0.71249044   -8.7508622    525.44604  0.012736233  0.011887779         3892 
 3439000   0.71096149    -8.759999    524.11604  0.012700302   0.01188247         3891 
 3440000     0.703862   -8.7585183    524.83304  0.012713979  0.011877161         3899 
 3441000   0.69135527   -8.7586712     523.3386  0.012674092  0.011871859         3898 
 3442000    0.7235423   -8.7364983    524.78991  0.012705547  0.011866564         3902 
 3443000   0.70703901    -8.756954    523.93287  0.012681113  0.011861266         3894 
 3444000   0.69707782   -8.7624398    525.00669  0.012703414  0.011855978         3887 
 3445000   0.68592163   -8.7736363    524.82085  0.012695231  0.011850688         3902 
 3446000   0.69783883   -8.7366978    524.31623  0.012679344  0.011845404         3903 
 3447000   0.71184457   -8.7553971     524.6139  0.012682862  0.011840115         3918 
 3448000   0.69184551   -8.7753451    524.94775  0.012687252  0.011834837         3903 
 3449000   0.70166489   -8.7720807    523.82134  0.012656358  0.011829561         3896 
 3450000    0.7187398   -8.7589898    524.86156  0.012677815  0.011824291         3891 
 3451000   0.69800192   -8.7453371    523.54029  0.012642236  0.011819017         3906 
 3452000   0.68442732   -8.7737996     522.7771   0.01262015  0.011813745         3906 
 3453000   0.69468909   -8.7753989    524.54246    0.0126591  0.011808477         3902 
 3454000   0.69518794   -8.7763026    524.39764  0.012651941  0.011803215         3915 
 3455000   0.69491984   -8.7475709    524.30807  0.012646118  0.011797949         3898 
 3456000    0.6938608   -8.7611949    524.14274  0.012638473  0.011792692         3908 
 3457000   0.70541348    -8.750788    523.36555  0.012616082  0.011787432         3914 
 3458000   0.70691811   -8.7490858    524.74105  0.012645581  0.011782179         3908 
 3459000   0.70287848   -8.7762207    524.81011  0.012643589   0.01177693         3911 
 3460000   0.68323487   -8.7628942    524.48553  0.012632118  0.011771689         3873 
 3461000   0.69320772   -8.7680194    523.91589  0.012614752  0.011766445         3864 
 3462000   0.70401068   -8.7579724    523.78182  0.012607881  0.011761209         3891 
 3463000   0.70006876   -8.7647984    524.08695  0.012611583  0.011755971         3895 
 3464000   0.70513364   -8.7591838    525.78357  0.012648758  0.011750737         3914 
 3465000    0.7107584   -8.7463837    524.04397   0.01260327  0.011745509         3898 
 3466000   0.69906818    -8.767522    524.05411  0.012599878  0.011740287         3898 
 3467000   0.69367374   -8.7425015    524.20443  0.012599857  0.011735058         3879 
 3468000   0.70967721   -8.7739275    524.75345  0.012609416  0.011729835         3903 
 3469000   0.69993999   -8.7834539    524.54668  0.012600814  0.011724611         3895 
 3470000   0.68473363   -8.7785798    523.61082  0.012574708  0.011719389         3884 
 3471000    0.6981505   -8.7606303    524.86881  0.012601287  0.011714176         3913 
 3472000   0.71222181    -8.766999    524.10288  0.012579274  0.011708966         3894 
 3473000   0.70923238   -8.7568948    524.11323    0.0125759  0.011703757         3921 
 3474000   0.71627454   -8.7784689    523.36185  0.012554257  0.011698554         3914 
 3475000   0.69913163   -8.7780702     525.0454  0.012591017  0.011693347         3892 
 3476000   0.69542518   -8.7745141    523.34755   0.01254669  0.011688146         3901 
 3477000   0.69832583   -8.7638701    525.08316  0.012584679  0.011682948         3892 
 3478000   0.69189541   -8.7529077    524.07983  0.012557021  0.011677751         3900 
 3479000   0.70659343   -8.7785144     523.7298  0.012545027   0.01167256         3919 
 3480000   0.68860498   -8.7693357    524.10348  0.012550371  0.011667368         3885 
 3481000   0.69149237   -8.7641523    524.83877  0.012564368  0.011662177         3907 
 3482000   0.69671833   -8.7724925    523.62043  0.012531601  0.011656988         3891 
 3483000   0.68252806   -8.7823989    523.35184  0.012521577  0.011651803         3904 
 3484000   0.69941796   -8.7845405    522.26123  0.012491897  0.011646624         3894 
 3485000   0.69641568    -8.747596    523.93232  0.012528272  0.011641452         3921 
 3486000   0.68833153   -8.7942853    523.79367  0.012521363  0.011636282         3908 
 3487000   0.69513949   -8.7750323    523.83937  0.012518865  0.011631109         3900 
 3488000   0.69682964   -8.7565037    522.94817  0.012493983  0.011625945         3910 
 3489000   0.70004709   -8.7682672    524.14146  0.012518904  0.011620778         3897 
 3490000   0.68650229   -8.7654562    524.93078  0.012534164  0.011615618         3909 
 3491000   0.68799694   -8.8130658     524.3501  0.012516712  0.011610458         3917 
 3492000   0.68445458   -8.7655428    524.55833  0.012518097  0.011605299         3899 
 3493000   0.69605148   -8.7821473    523.04661  0.012478448  0.011600146         3899 
 3494000   0.67890023   -8.7752841    524.23584   0.01250324  0.011594998         3888 
 3495000   0.70015459   -8.7680476     523.8644  0.012490806  0.011589856         3887 
 3496000   0.67886069   -8.7608099      524.439   0.01250093  0.011584704         3910 
 3497000   0.68774143   -8.7724612    523.92301  0.012485059  0.011579569         3889 
 3498000   0.70209325     -8.76052     523.3047   0.01246676  0.011574429         3890 
 3499000   0.69645137   -8.7763935    522.49204  0.012443842  0.011569293         3891 
 3500000   0.69209528   -8.7651597    523.82671  0.012472064  0.011564155         3892 
 3501000   0.70199467   -8.7962519    523.29133  0.012455759  0.011559024         3904 
 3502000   0.69307975   -8.7754514    523.38804  0.012454503  0.011553897         3916 
 3503000   0.69214865    -8.778524    524.52852  0.012478079  0.011548771         3901 
 3504000   0.68902718   -8.7435219     523.8199  0.012457665  0.011543649         3878 
 3505000   0.68630763   -8.7716224    523.75871  0.012452656  0.011538527         3918 
 3506000   0.69207595   -8.7840952    523.39179  0.012440383   0.01153341         3921 
 3507000   0.69525263   -8.7787711    523.39908  0.012437009  0.011528295         3923 
 3508000   0.69668737   -8.7843367     524.3327  0.012455642  0.011523186         3898 
 3509000   0.70350346   -8.7692448    523.45933  0.012431351  0.011518077         3901 
 3510000   0.68769851   -8.7722335    523.18923  0.012421397  0.011512972         3897 
 3511000   0.71049168     -8.77169     525.3152  0.012468319   0.01150787         3905 
 3512000   0.67913475   -8.7921646    523.36094  0.012418398  0.011502764         3909 
 3513000   0.68681329   -8.7851729    524.07721  0.012431853  0.011497671         3914 
 3514000   0.69443054   -8.7608759    524.50986  0.012438576  0.011492578         3897 
 3515000    0.6771078   -8.7647858    524.10308  0.012425393  0.011487484         3895 
 3516000   0.70470878   -8.7774822    524.30047  0.012426538  0.011482394         3879 
 3517000   0.69283087   -8.7823385    523.08757  0.012394265   0.01147731         3914 
 3518000    0.6778862   -8.7856138      523.258  0.012394779  0.011472222         3900 
 3519000   0.69893546   -8.7854499     523.4726  0.012396339  0.011467142         3912 
 3520000   0.68881009   -8.7949823    523.61705  0.012396237  0.011462061         3916 
 3521000   0.68436608   -8.7729014    525.21381  0.012430508  0.011456988         3894 
 3522000   0.67401051   -8.7958217    523.73246  0.012391928  0.011451918         3892 
 3523000   0.67847057    -8.783091    524.17318  0.012398836  0.011446841         3887 
 3524000   0.69571806    -8.788035    524.79095  0.012409926  0.011441779         3910 
 3525000   0.70186652   -8.7724258    524.40904  0.012397377  0.011436719         3880 
 3526000   0.68337391    -8.757148    523.24205   0.01236628  0.011431656         3900 
 3527000   0.68163225   -8.7822123    523.48913  0.012368612  0.011426602         3882 
 3528000   0.68263063   -8.7782987    523.47091  0.012364676  0.011421549         3910 
 3529000   0.69755397   -8.7942627    523.73023  0.012367296  0.011416502         3898 
 3530000   0.68813622   -8.7988095    523.33661    0.0123545  0.011411452         3906 
 3531000   0.68490775   -8.7738797    523.40173  0.012352538  0.011406407         3915 
 3532000   0.69938784   -8.8102846    523.69601  0.012355984  0.011401358         3894 
 3533000   0.68273429   -8.7661604    524.66412  0.012375321  0.011396312         3905 
 3534000   0.67997824   -8.7985941    523.46499  0.012343544  0.011391272         3898 
 3535000   0.67112486   -8.7918831    524.20192  0.012357424  0.011386235         3892 
 3536000   0.68968511   -8.7924893    523.94515  0.012347878  0.011381205         3904 
 3537000   0.68490278   -8.8041222    523.50694  0.012334062  0.011376173         3917 
 3538000    0.6967672   -8.7771936    523.45677  0.012329394  0.011371148         3893 
 3539000   0.68441532   -8.8018839    523.97587  0.012338134  0.011366123         3927 
 3540000    0.6864342   -8.7882177    523.88074  0.012332409  0.011361103         3893 
 3541000   0.68391883   -8.7910813    524.04915   0.01233289  0.011356082         3902 
 3542000   0.68805855   -8.7936589    523.19367  0.012309281  0.011351065         3904 
 3543000   0.65863752   -8.8144936    523.05624  0.012302574  0.011346048         3898 
 3544000   0.69316175   -8.7802408    523.41733  0.012307593  0.011341033         3915 
 3545000   0.66545186   -8.7954597    523.18068  0.012298559  0.011336021         3903 
 3546000   0.69886605    -8.791339    523.42471  0.012300825  0.011331011         3896 
 3547000   0.68263723   -8.7925037     523.0591  0.012288767  0.011326009         3909 
 3548000   0.69667252   -8.7996697    523.93413  0.012305856  0.011321012         3899 
 3549000   0.68534052   -8.7890003    524.07139  0.012305612  0.011316015         3900 
 3550000   0.67311764   -8.7739828    524.05561  0.012301775  0.011311021         3880 
 3551000   0.68773832   -8.8002164     524.3197  0.012304508  0.011306031         3906 
 3552000   0.67442026   -8.8119284    522.68213  0.012262625   0.01130104         3922 
 3553000   0.69418704   -8.7911183    522.98512   0.01226628  0.011296052         3882 
 3554000   0.70269357   -8.8129642    522.93318  0.012261611   0.01129107         3892 
 3555000   0.67580453   -8.7752373    524.16499  0.012287037  0.011286088         3913 
 3556000   0.67615103   -8.7840121    523.13251  0.012259386  0.011281113         3910 
 3557000   0.68395966   -8.7772554     523.1101  0.012255414  0.011276139         3887 
 3558000   0.67958843   -8.7738998    523.92474   0.01227105  0.011271166         3898 
 3559000   0.68866687   -8.8088009    523.58518  0.012259651  0.011266195         3898 
 3560000   0.67945521   -8.7692554    523.15634  0.012246169  0.011261232         3899 
 3561000   0.68547138   -8.7974858    523.31471  0.012246436  0.011256269         3896 
 3562000   0.67384803   -8.7946127    523.18338  0.012239926  0.011251307         3895 
 3563000   0.69432334   -8.7880138    522.87794  0.012229347  0.011246349         3917 
 3564000   0.67368205   -8.7905356    523.72088  0.012245625  0.011241389         3898 
 3565000   0.68275331   -8.7916565    523.87252  0.012245734  0.011236434         3900 
 3566000   0.66145866   -8.7671921     524.3343  0.012253092  0.011231484         3890 
 3567000   0.67067805   -8.7920547    523.72006  0.012235307  0.011226539         3889 
 3568000   0.67824204   -8.7838539    523.73023  0.012232115  0.011221593         3894 
 3569000   0.68544427   -8.8024537    522.40298  0.012197697  0.011216651         3931 
 3570000   0.67187767    -8.784164    524.11596  0.012234266  0.011211715         3907 
 3571000   0.68949931   -8.7678255    523.27791  0.012211283  0.011206781         3905 
 3572000    0.6876354   -8.7717082    522.98482  0.012201027  0.011201844         3926 
 3573000   0.67864041    -8.796061    522.62056  0.012189116  0.011196918         3909 
 3574000   0.68052366   -8.8093125    523.48158  0.012205782  0.011191986         3899 
 3575000   0.67918293   -8.7984077     524.1437  0.012217802  0.011187064         3904 
 3576000   0.67279118   -8.7868034    523.57936  0.012201234  0.011182141         3899 
 3577000   0.67241351    -8.782546    524.04082  0.012208574  0.011177221         3892 
 3578000   0.66518923   -8.7817632    523.21882  0.012186017  0.011172304         3916 
 3579000   0.68916377   -8.7662452    524.58169  0.012214345  0.011167385         3898 
 3580000   0.67960585   -8.8116446    523.27954  0.012180622  0.011162478         3912 
 3581000   0.67394226   -8.7776716    524.53233  0.012206375  0.011157573         3909 
 3582000   0.68593667   -8.7992061    523.70752  0.012183778  0.011152667         3905 
 3583000   0.67673924   -8.7959964    523.22263    0.0121691  0.011147763         3892 
 3584000   0.66935837   -8.8271055     522.7748  0.012155292  0.011142862         3923 
 3585000   0.68565324   -8.7897248      522.487  0.012145211  0.011137964         3903 
 3586000   0.67254092   -8.8091671    522.95798  0.012152769  0.011133068         3918 
 3587000   0.68012736   -8.7994895    523.37095  0.012158976  0.011128173         3922 
 3588000   0.67543532   -8.7936911    523.14182  0.012150265  0.011123281         3905 
 3589000   0.67835784   -8.8134476    522.74883  0.012137755   0.01111839         3910 
 3590000   0.67985582   -8.8064996    523.69164  0.012156259  0.011113507         3905 
 3591000   0.67630542   -8.8017104    522.82658  0.012132799  0.011108625         3918 
 3592000   0.68958814   -8.7980558     522.8984  0.012131088  0.011103743         3902 
 3593000   0.68836131   -8.7926445     522.3513  0.012115022  0.011098862         3889 
 3594000   0.67318723   -8.8020249    523.26111  0.012132747  0.011093988         3911 
 3595000   0.68296897   -8.8067858    521.99673  0.012100063  0.011089109         3913 
 3596000    0.6683056    -8.806447    522.37875  0.012105551  0.011084239         3894 
 3597000   0.67879321   -8.7858721    524.05753  0.012141079  0.011079369         3913 
 3598000   0.68175599   -8.7901554    523.48363  0.012124412  0.011074506         3905 
 3599000   0.66897181   -8.8012372    523.36608  0.012118322  0.011069645         3894 
 3600000   0.68397712    -8.785138    523.19207  0.012110928  0.011064787         3913 
 3601000   0.65921513   -8.7839769    523.42307   0.01211291  0.011059927         3911 
 3602000   0.68417413   -8.8046925    523.27916  0.012106218  0.011055073         3918 
 3603000   0.68147319   -8.8076438    523.27309  0.012102717   0.01105022         3886 
 3604000   0.67053355   -8.8077666    523.48025  0.012104149  0.011045371         3907 
 3605000   0.65584852   -8.8183695     523.2381  0.012095194  0.011040526         3916 
 3606000   0.67305644   -8.7989459    523.01044  0.012086579  0.011035677         3901 
 3607000   0.68018672   -8.8113897     523.0965  0.012085216  0.011030836         3916 
 3608000   0.69302632   -8.8285465     521.5337  0.012045771  0.011025995         3920 
 3609000   0.67814085   -8.7941525    522.98941  0.012076046  0.011021158         3909 
 3610000   0.67747777    -8.796052     523.1352  0.012076067  0.011016319         3910 
 3611000   0.66412899    -8.815797    523.59978  0.012083444  0.011011495         3900 
 3612000    0.6687836   -8.8173004    522.44645   0.01205349  0.011006666         3928 
 3613000    0.6678759   -8.8238565    523.09974  0.012065221  0.011001837         3922 
 3614000   0.67624065   -8.8061521    522.85514  0.012056243  0.010997011         3906 
 3615000   0.66259179   -8.7992119    522.88338  0.012053559  0.010992188         3912 
 3616000   0.66263398   -8.8240513    523.36035  0.012061217  0.010987373         3922 
 3617000   0.68000246   -8.8161654    522.70102  0.012042692  0.010982559         3925 
 3618000    0.6757813   -8.7841811    523.10908  0.012048763  0.010977752         3902 
 3619000   0.66592797   -8.8174753    522.48102  0.012030971  0.010972942         3896 
 3620000   0.67198261    -8.824518    522.30954    0.0120237  0.010968131         3912 
 3621000   0.67677782   -8.8090614      522.647  0.012028146  0.010963325         3918 
 3622000   0.67937279   -8.7823101    522.62912  0.012024414  0.010958526         3909 
 3623000   0.67956426   -8.8282428    522.14694  0.012010004  0.010953725         3903 
 3624000   0.68077444   -8.8180996    523.07541   0.01202804  0.010948926         3907 
 3625000   0.66585767    -8.801372    523.78111  0.012040945  0.010944132         3900 
 3626000   0.66752077   -8.7923019     523.1258  0.012022564  0.010939338         3918 
 3627000   0.65809899   -8.8233183    522.52368  0.012005415  0.010934545         3916 
 3628000   0.66273052   -8.8101778    522.40804   0.01199945  0.010929754         3911 
 3629000   0.66821881     -8.82462    522.40168  0.011995997  0.010924969         3905 
 3630000   0.66566982   -8.7873505    523.49152  0.012017712  0.010920189         3905 
 3631000    0.6627393   -8.8132758    522.17184  0.011984115  0.010915412         3887 
 3632000   0.67437224   -8.7890298    522.75431  0.011994179  0.010910639         3910 
 3633000   0.66792685   -8.8070198    523.08628  0.011998493  0.010905868         3912 
 3634000   0.66816721   -8.8295883    521.70907  0.011963609  0.010901097         3920 
 3635000   0.66699211   -8.8038562    523.54224  0.012002344  0.010896332         3918 
 3636000   0.68273047   -8.8118631    522.54303  0.011976142  0.010891565         3923 
 3637000   0.69289761   -8.8090973    523.37934  0.011992011  0.010886803         3922 
 3638000   0.65945755   -8.7846088    522.46691  0.011967814  0.010882044         3916 
 3639000    0.6776365   -8.8162427    523.40561  0.011986022  0.010877291         3909 
 3640000   0.66423638   -8.8077156    522.47838  0.011961501  0.010872534         3898 
 3641000   0.66946683   -8.8057625    523.49311  0.011981441  0.010867779         3898 
 3642000     0.662898    -8.808588    523.98405  0.011989384   0.01086303         3924 
 3643000   0.67689672   -8.8242538    523.61339  0.011977614  0.010858285         3904 
 3644000   0.66566919   -8.8342147    522.74867  0.011954553  0.010853544         3923 
 3645000   0.66341188   -8.8203793    522.29619  0.011940928  0.010848799         3917 
 3646000   0.67607148   -8.8178594    521.56455   0.01192093  0.010844065         3902 
 3647000   0.65659743   -8.8060376    522.63986  0.011942232  0.010839329         3910 
 3648000   0.66811829    -8.818551    523.64172  0.011961845  0.010834602         3906 
 3649000    0.6745661   -8.8206136    523.01834   0.01194433  0.010829875         3933 
 3650000   0.67148976   -8.8127554    523.04291  0.011941619  0.010825147         3917 
 3651000   0.66406816   -8.8163498    522.28288  0.011921001   0.01082042         3903 
 3652000    0.6813518   -8.8127564    523.02151  0.011934591    0.0108157         3914 
 3653000   0.66852432   -8.8070306    522.40337  0.011917223  0.010810982         3920 
 3654000   0.67108266   -8.8264837    523.21096  0.011932379  0.010806266         3918 
 3655000   0.66498918   -8.8274175    522.35788  0.011909664  0.010801554         3925 
 3656000   0.67004032     -8.83152    522.76002  0.011915573  0.010796844         3924 
 3657000    0.6642814   -8.8025757    522.63089  0.011909372  0.010792138         3911 
 3658000   0.66383868   -8.8099565     522.9855  0.011914195  0.010787429         3913 
 3659000   0.66930017   -8.8052649    522.70135  0.011904467  0.010782725         3916 
 3660000   0.68583417    -8.833609    522.13488  0.011888317  0.010778027         3911 
 3661000   0.66857227   -8.8148009    522.52571  0.011893966   0.01077333         3920 
 3662000      0.65311   -8.7891464    522.87252   0.01189861  0.010768635         3906 
 3663000   0.66163078    -8.816646    522.92964  0.011896661  0.010763944         3873 
 3664000   0.67534043   -8.8298184    522.95366  0.011893961  0.010759252         3920 
 3665000   0.67201095   -8.8248768    523.25034  0.011897461  0.010754564         3911 
 3666000   0.67608472   -8.8231714    522.43376  0.011875654   0.01074988         3914 
 3667000   0.67178985   -8.8142477    523.18751  0.011889544  0.010745196         3888 
 3668000   0.66387696   -8.8300701    522.20037  0.011863876  0.010740516         3910 
 3669000   0.66216998   -8.8172115    522.65391  0.011870944  0.010735842         3915 
 3670000   0.65593738    -8.812766     524.7146    0.0119145  0.010731171         3907 
 3671000   0.65808349   -8.8285357    522.05146    0.0118508    0.0107265         3913 
 3672000   0.66356215   -8.8205008    522.43587  0.011856297  0.010721829         3888 
 3673000   0.66269995   -8.8161789    521.92281  0.011841429   0.01071716         3894 
 3674000   0.66048981   -8.8332073    523.10589   0.01186504  0.010712499         3911 
 3675000   0.66391323   -8.8275722    522.08887   0.01183875  0.010707836         3910 
 3676000   0.65402805   -8.8050073    522.77962  0.011851188   0.01070318         3911 
 3677000   0.66490084   -8.8306491     522.7045  0.011846263  0.010698524         3912 
 3678000   0.66223407   -8.8370795    522.55528  0.011839661  0.010693869         3900 
 3679000   0.66336734   -8.8152253     522.4272  0.011833542  0.010689215         3901 
 3680000   0.64988198   -8.8221091    522.43675  0.011830542  0.010684568         3905 
 3681000   0.66757923   -8.8387038    521.70666    0.0118108  0.010679921         3895 
 3682000   0.66829353   -8.8194039    522.67474  0.011829502  0.010675275         3906 
 3683000   0.65843243   -8.8243177    521.28812  0.011794916  0.010670635         3917 
 3684000   0.67886303   -8.8103744    521.97677  0.011807292  0.010665997         3901 
 3685000   0.66188945   -8.8201497    522.30057   0.01181141  0.010661362         3921 
 3686000   0.65264729   -8.8059091    522.67761   0.01181673  0.010656728         3907 
 3687000   0.66982309   -8.8464623    522.75862  0.011815356  0.010652097         3905 
 3688000   0.64994516   -8.8270055    521.35161   0.01178036  0.010647474         3901 
 3689000   0.65620451    -8.825816    523.33308  0.011821927  0.010642847         3918 
 3690000   0.66411161   -8.8185638    522.39409  0.011797518  0.010638228         3908 
 3691000   0.66325465   -8.8258316    522.89662  0.011805667  0.010633609         3920 
 3692000   0.65760818   -8.7863765    522.28651  0.011788699  0.010628994         3877 
 3693000   0.66083233   -8.8229339    522.55518  0.011791569  0.010624384         3920 
 3694000   0.65338876   -8.8253682    523.00235  0.011798465  0.010619772         3917 
 3695000   0.69059757   -8.8289941    521.99344  0.011772518  0.010615162         3904 
 3696000   0.66376823   -8.8406173    522.36939  0.011777809  0.010610556         3911 
 3697000   0.65517461   -8.8085906    522.64383  0.011780809  0.010605951         3888 
 3698000   0.66500346   -8.8256731    522.24674  0.011768675  0.010601353         3897 
 3699000   0.65450044   -8.8410872    521.97322  0.011759332  0.010596757         3917 
 3700000    0.6561735   -8.8316981    522.30055  0.011763526  0.010592158         3922 
 3701000   0.66756122   -8.8536111    522.75032  0.011770475  0.010587562         3908 
 3702000   0.65907732   -8.8455153    522.75247  0.011767344   0.01058297         3911 
 3703000   0.65399186   -8.8277214    521.97835  0.011746745  0.010578379         3905 
 3704000   0.67198351     -8.82371    522.47133  0.011754665  0.010573791         3920 
 3705000   0.65491468   -8.8235625    522.85558  0.011760134  0.010569204         3920 
 3706000   0.66042602   -8.8345274    522.18487   0.01174188  0.010564619         3909 
 3707000   0.65146413    -8.834709    521.94181  0.011733248  0.010560044         3936 
 3708000   0.64191847   -8.8323822    523.34403  0.011761597  0.010555465         3913 
 3709000   0.66246507   -8.8282719    522.91071   0.01174869  0.010550887         3913 
 3710000   0.66207551   -8.8283639    523.03532  0.011748322  0.010546312         3917 
 3711000   0.67175005    -8.833739      522.171  0.011725748  0.010541742         3909 
 3712000   0.66090425   -8.8315575     522.5145    0.0117303  0.010537172         3924 
 3713000   0.64950199   -8.8338514    522.51622   0.01172718  0.010532606         3902 
 3714000   0.65812893   -8.8403092    521.57443  0.011702891  0.010528045         3912 
 3715000   0.65385749   -8.8279341    522.97745  0.011731213  0.010523487         3913 
 3716000   0.65339484   -8.8075412     523.4726  0.011739159  0.010518932         3906 
 3717000   0.64315132    -8.833581    522.21187  0.011707736  0.010514383         3914 
 3718000   0.66146467   -8.8402463     522.5695  0.011712603  0.010509834         3898 
 3719000   0.66473959    -8.817005    522.58079  0.011709707  0.010505288         3925 
 3720000   0.65976949    -8.817711    522.93838  0.011714569  0.010500744         3900 
 3721000    0.6677928   -8.8231204    522.73059  0.011706768  0.010496206         3904 
 3722000   0.65280422   -8.8256562    523.07779  0.011711396  0.010491664         3908 
 3723000   0.66954663   -8.8373688    521.95391  0.011683094  0.010487126         3916 
 3724000   0.65314867   -8.8430851    521.77774  0.011676015  0.010482592         3925 
 3725000   0.65964139   -8.8501674    521.92676  0.011676214  0.010478057         3916 
 3726000   0.66087094   -8.8669964    522.01577  0.011675071  0.010473524         3909 
 3727000    0.6659048    -8.826953    521.94274  0.011670305  0.010468994         3907 
 3728000   0.65385666   -8.8178652    522.03104  0.011669149  0.010464468         3913 
 3729000   0.65418166    -8.824166    522.63628  0.011679545  0.010459944         3907 
 3730000   0.65672174   -8.8287639    521.49287  0.011650868  0.010455419         3886 
 3731000   0.65167393   -8.8480463    522.17613  0.011663007  0.010450898         3914 
 3732000   0.66141943   -8.8165521    521.70363  0.011649331  0.010446384         3889 
 3733000   0.65592997   -8.7979466    523.50177  0.011686351   0.01044188         3923 
 3734000   0.65640783   -8.8329521    521.98124  0.011649287  0.010437367         3908 
 3735000    0.6480092   -8.8133395    522.09031  0.011648601  0.010432855         3918 
 3736000   0.65253149   -8.8119625    521.91291  0.011641526  0.010428346         3914 
 3737000   0.65782527   -8.8702771    522.47811  0.011651015  0.010423842         3914 
 3738000   0.64609501   -8.8535216    522.12515  0.011640029  0.010419342         3910 
 3739000   0.64460276   -8.8410459    521.58234  0.011624818  0.010414844         3923 
 3740000   0.65394089   -8.8460979    523.27212  0.011659361  0.010410346         3911 
 3741000   0.65206298    -8.824708    522.21768  0.011632756  0.010405854         3909 
 3742000    0.6525302    -8.847983    522.36577  0.011632945  0.010401359         3902 
 3743000   0.65599225   -8.8351117    521.47179  0.011609934  0.010396867         3908 
 3744000   0.63621776   -8.8481879    521.80796  0.011614315  0.010392382         3934 
 3745000   0.64481642   -8.8344611    522.39512   0.01162428  0.010387897         3894 
 3746000    0.6375549   -8.8299388    522.50984  0.011623728  0.010383416         3897 
 3747000   0.64750202   -8.8415829     522.0887   0.01161126  0.010378935         3908 
 3748000   0.65533941   -8.8326843    522.36672  0.011614344  0.010374457         3908 
 3749000   0.66296526    -8.837967     520.7348  0.011574971  0.010369987         3897 
 3750000   0.64745101   -8.8398944    522.19883  0.011604419  0.010365515         3905 
 3751000   0.65659909   -8.8378579    521.22997    0.0115798  0.010361047         3900 
 3752000    0.6550939   -8.8534804    520.54845  0.011561577  0.010356577         3930 
 3753000   0.65017708   -8.8376206     521.4057  0.011577531  0.010352111         3905 
 3754000   0.65967029    -8.848186      521.473  0.011575941  0.010347645         3919 
 3755000   0.65800923   -8.8490015    521.92255  0.011582835  0.010343189         3907 
 3756000   0.65468987   -8.8406328    522.22086   0.01158637  0.010338735         3916 
 3757000   0.64899459   -8.8134894     521.8929  0.011576011  0.010334281         3918 
 3758000   0.65579886   -8.8232206    522.75873  0.011592131  0.010329833         3875 
 3759000   0.64399786   -8.8350995    522.02525  0.011572787  0.010325387         3903 
 3760000   0.64392415   -8.8628538     522.3483  0.011576868   0.01032094         3920 
 3761000   0.65603448   -8.8387692    521.40979  0.011552996  0.010316495         3912 
 3762000   0.63893805   -8.8474478    521.58667  0.011553843  0.010312052         3926 
 3763000   0.64397315    -8.819405    521.77589  0.011554963  0.010307615         3901 
 3764000    0.6479491   -8.8620673    522.47672  0.011567409  0.010303179         3915 
 3765000   0.64954353   -8.8505447    522.74036  0.011570172  0.010298741         3924 
 3766000   0.66510005   -8.8531298    521.63266  0.011542589   0.01029431         3917 
 3767000   0.65471028   -8.8442892    522.66086   0.01156227  0.010289877         3920 
 3768000   0.65346612   -8.8310673     522.0093  0.011544792  0.010285448         3892 
 3769000   0.65769044   -8.8306734    522.00288  0.011541587  0.010281026         3915 
 3770000   0.65257694   -8.8519867    522.23916  0.011543748  0.010276605         3934 
 3771000   0.63898934   -8.8388129    521.16556  0.011516962  0.010272186         3916 
 3772000   0.64375365   -8.8555227    521.50526  0.011521414  0.010267766         3915 
 3773000    0.6304037   -8.8481508    522.04812   0.01153035  0.010263345         3912 
 3774000   0.64031846   -8.8570119     520.6868  0.011497235  0.010258931         3900 
 3775000   0.64654948    -8.857388    522.11289  0.011525671  0.010254517         3918 
 3776000   0.65573951     -8.82925    521.47301  0.011508497  0.010250108         3891 
 3777000   0.64562775   -8.8705347    522.61368  0.011530617  0.010245706         3909 
 3778000   0.65359189   -8.8417308    522.27402  0.011520073  0.010241305         3904 
 3779000   0.65687256   -8.8291333     521.0042  0.011489023  0.010236906         3901 
 3780000   0.64238102   -8.8400937    521.65311  0.011500289  0.010232511         3928 
 3781000   0.63564207   -8.8446316    522.65003   0.01151922   0.01022812         3911 
 3782000    0.6520342    -8.870926     522.0115  0.011502104  0.010223727         3949 
 3783000   0.64420579   -8.8506238    522.03513  0.011499584  0.010219334         3904 
 3784000    0.6388621   -8.8452552    522.17879  0.011499709  0.010214942         3918 
 3785000   0.64149355   -8.8411986    521.19788  0.011475074   0.01021056         3908 
 3786000   0.63735026   -8.8367957    521.07991  0.011469447  0.010206173         3918 
 3787000   0.63333668   -8.8383134    522.71031  0.011502295  0.010201796         3921 
 3788000   0.66177883   -8.8377261    522.02111  0.011484097  0.010197418         3910 
 3789000   0.65626838    -8.873673       521.38  0.011466966  0.010193044         3915 
 3790000   0.65069836   -8.8545089    521.96881  0.011476887  0.010188664         3934 
 3791000   0.64692217   -8.8377264    521.76824   0.01146945  0.010184293         3905 
 3792000   0.64904255   -8.8549461    521.58179  0.011462328  0.010179924         3924 
 3793000   0.64355762   -8.8534611    522.28891  0.011474842  0.010175558         3928 
 3794000   0.64630029    -8.839114    522.00876  0.011465664  0.010171193         3917 
 3795000   0.64535182   -8.8723073    521.73591  0.011456651  0.010166832         3909 
 3796000   0.62926208   -8.8507341     521.2641  0.011443276  0.010162467         3907 
 3797000   0.64765784   -8.8530318    521.27334  0.011440465   0.01015811         3931 
 3798000   0.64318439    -8.849377    521.28537  0.011437717  0.010153754         3903 
 3799000   0.65381713   -8.8415175    521.48584  0.011439103  0.010149405         3901 
 3800000   0.64970006    -8.850189     522.0193  0.011447792  0.010145055         3912 
 3801000   0.65460443   -8.8469514    521.54068  0.011434287  0.010140704         3914 
 3802000   0.65524276   -8.8364269     521.8524  0.011438112  0.010136358         3914 
 3803000   0.63363978    -8.812866    522.47518   0.01144875  0.010132021         3913 
 3804000   0.64230253   -8.8519545    521.52686  0.011424966  0.010127683         3914 
 3805000   0.64397582    -8.852681    520.91798  0.011408629   0.01012334         3893 
 3806000   0.63429857   -8.8369417    520.90705  0.011405392  0.010119001         3921 
 3807000    0.6317397   -8.8376339    521.86344  0.011423331  0.010114668         3907 
 3808000   0.63436746   -8.8609503    521.81629  0.011419299  0.010110336         3915 
 3809000   0.65043068   -8.8517237    521.68017  0.011413323  0.010106009         3923 
 3810000   0.63309569   -8.8500172     521.3017   0.01140205  0.010101682         3928 
 3811000   0.64304956   -8.8593284    520.69147  0.011385714  0.010097359         3920 
 3812000   0.64587652   -8.8616188    520.93261  0.011387999  0.010093037         3922 
 3813000   0.62644521   -8.8447537    522.49996  0.011419267   0.01008872         3894 
 3814000    0.6444078   -8.8457647    522.49246  0.011416109  0.010084402         3901 
 3815000   0.62868756    -8.875118    520.50438  0.011369689  0.010080085         3917 
 3816000    0.6357278   -8.8826925    521.14076  0.011380607  0.010075772         3918 
 3817000   0.62273393    -8.841573    522.50521  0.011407414   0.01007146         3896 
 3818000   0.64267662   -8.8514724    522.28007  0.011399513  0.010067153         3926 
 3819000   0.64189148   -8.8712361     521.6302  0.011382347  0.010062844         3928 
 3820000   0.63166477   -8.8633692    521.57792  0.011378227  0.010058543         3925 
 3821000   0.65062292   -8.8542482    522.01685  0.011384822  0.010054242         3910 
 3822000   0.64549006   -8.8831817    522.01246  0.011381747  0.010049946         3920 
 3823000   0.64433063   -8.8436775     522.2673  0.011384325  0.010045651         3946 
 3824000   0.64444247   -8.8538425    522.26741   0.01138135  0.010041358         3917 
 3825000   0.62928353   -8.8630749     522.2233  0.011377414  0.010037068         3922 
 3826000   0.63879405   -8.8693521    520.66176  0.011340429  0.010032782         3922 
 3827000   0.63815582   -8.8494093    520.97744  0.011344339  0.010028498         3889 
 3828000   0.64235473   -8.8859872    521.09846   0.01134401  0.010024219         3910 
 3829000   0.65036984   -8.8517642    521.76569  0.011355569  0.010019942         3922 
 3830000   0.65192958   -8.8474777    521.52429  0.011347352  0.010015668         3899 
 3831000   0.64596335   -8.8500591    521.27224  0.011338907  0.010011392         3928 
 3832000   0.65396571   -8.8715925    522.77244  0.011368573   0.01000712         3922 
 3833000   0.64603375   -8.8414228    521.66017  0.011341425  0.010002851         3912 
 3834000   0.65274454   -8.8437799    521.43936  0.011333667 0.0099985822         3917 
 3835000   0.62925539   -8.8704056    521.10537  0.011323454 0.0099943152         3894 
 3836000   0.63182411   -8.8627326     522.5411  0.011351692 0.0099900512         3916 
 3837000   0.64002787   -8.8514431    521.81335  0.011332928 0.0099857899         3920 
 3838000    0.6371824   -8.8532137    521.85364   0.01133085 0.0099815336         3927 
 3839000   0.64935285   -8.8745477    521.07047  0.011310898 0.0099772736         3925 
 3840000   0.64722959   -8.8546915    521.68116  0.011321206 0.0099730189         3927 
 3841000   0.64002302    -8.845737     522.0722  0.011326742 0.0099687685         3914 
 3842000   0.63075181   -8.8736072    521.19007   0.01130466   0.00996452         3907 
 3843000   0.64351658   -8.8441338    521.95252  0.011318252  0.009960273         3888 
 3844000   0.62421541   -8.8682008    522.15689  0.011319738 0.0099560296         3931 
 3845000    0.6282987    -8.863637    521.41009  0.011300609  0.009951786         3920 
 3846000   0.63958943   -8.8620366      522.731  0.011326291 0.0099475451         3921 
 3847000   0.62286415   -8.8472525    522.26739  0.011313305  0.009943307         3930 
 3848000    0.6360961    -8.879944    521.16591  0.011286511 0.0099390711         3919 
 3849000   0.62880692   -8.8465412    521.49159  0.011290629 0.0099348426         3912 
 3850000   0.62304296   -8.8620165    521.01439  0.011277368 0.0099306095         3902 
 3851000   0.62335136    -8.864718    521.37159  0.011282169 0.0099263794         3928 
 3852000   0.64158753   -8.8795204    520.88639  0.011268743 0.0099221542         3918 
 3853000   0.63269033   -8.8230932    522.47107  0.011300092 0.0099179325         3928 
 3854000   0.62647164   -8.8592944    521.66577  0.011279748 0.0099137115         3928 
 3855000    0.6354567   -8.8531403    521.87012  0.011281239 0.0099094911         3910 
 3856000   0.62483458   -8.8611119    521.78746  0.011276527 0.0099052734         3915 
 3857000   0.63167712   -8.8965944     521.0717  0.011258139 0.0099010583         3910 
 3858000   0.62600054   -8.8548312    521.97935  0.011274826 0.0098968472         3906 
 3859000   0.64280813   -8.8860504    521.56804  0.011263022 0.0098926435         3920 
 3860000    0.6420188   -8.8489483    521.95391  0.011268435 0.0098884372         3897 
 3861000   0.62492316   -8.8707658    521.17781  0.011248766 0.0098842325         3896 
 3862000   0.63242444   -8.8726188     521.7847  0.011258948 0.0098800297         3921 
 3863000   0.62679724   -8.8629114    521.18451  0.011243086 0.0098758309         3897 
 3864000    0.6320894    -8.879873    520.68878  0.011229486 0.0098716346         3911 
 3865000   0.63892606   -8.8741976    521.96969  0.011254198 0.0098674374         3909 
 3866000   0.64729988    -8.866545    522.23519   0.01125701 0.0098632429         3901 
 3867000   0.63591854   -8.8747954    520.97883  0.011227024 0.0098590572         3907 
 3868000   0.64557111     -8.86799    522.02271  0.011246611 0.0098548691         3920 
 3869000    0.6384597   -8.8886541    521.50008  0.011232448 0.0098506835         3928 
 3870000   0.63709554   -8.8693949    521.63108  0.011232366 0.0098465019         3913 
 3871000   0.63455538   -8.8669262    520.70671  0.011209565 0.0098423227         3920 
 3872000   0.64038805   -8.8597546    520.74299  0.011207451 0.0098381509         3909 
 3873000   0.63099938   -8.8527936     522.0454   0.01123258 0.0098339722         3916 
 3874000   0.62844943   -8.8720937    521.22771  0.011212092 0.0098298009         3922 
 3875000   0.64377641   -8.8452967    520.06442  0.011184181 0.0098256308         3920 
 3876000   0.64440841   -8.8844973    521.60057  0.011214323 0.0098214635         3903 
 3877000   0.62007774   -8.8749603    521.22028  0.011203256 0.0098172959         3905 
 3878000   0.63405327   -8.8647426    521.05239  0.011196759 0.0098131332         3912 
 3879000   0.62539743   -8.8672575    521.70517  0.011207897 0.0098089698         3907 
 3880000   0.62204562    -8.873483    521.58938  0.011202521 0.0098048112         3908 
 3881000    0.6318944   -8.8669454    521.16784  0.011190583 0.0098006554         3917 
 3882000   0.62708621   -8.8575999    520.96959  0.011183445 0.0097964975         3885 
 3883000   0.63330769   -8.8608765    521.18723  0.011185236 0.0097923458         3921 
 3884000   0.63575071   -8.8783434    521.49344  0.011188925 0.0097881977         3899 
 3885000   0.62791159   -8.8887249    521.92025  0.011195201 0.0097840493         3909 
 3886000     0.636325   -8.8718642    521.83406  0.011190471 0.0097799009         3899 
 3887000   0.63792646   -8.8687159     521.8057  0.011186984 0.0097757564         3924 
 3888000   0.63562139   -8.8865853    521.75749  0.011183074 0.0097716127         3918 
 3889000   0.62705699   -8.8781739    522.05505  0.011186574 0.0097674767         3918 
 3890000    0.6163664   -8.8549135    521.48555  0.011171498 0.0097633391         3916 
 3891000   0.62763745   -8.8734709    521.02257  0.011158712 0.0097592032         3909 
 3892000   0.63764828   -8.8629346    522.33311  0.011183905 0.0097550738         3911 
 3893000   0.63936325   -8.8788088    521.76489  0.011168869 0.0097509458         3890 
 3894000   0.62630652   -8.8804953    521.44392  0.011159132 0.0097468188         3918 
 3895000   0.63327799   -8.8699227    520.95716  0.011145853 0.0097426913         3910 
 3896000   0.62381589   -8.8817457    521.41655  0.011152818 0.0097385622         3910 
 3897000   0.61976606   -8.8775069    521.33743  0.011148264 0.0097344406         3919 
 3898000   0.60659851   -8.8751062    520.66042  0.011130931 0.0097303188         3914 
 3899000   0.64582832   -8.8786886    521.13088  0.011138131 0.0097262055         3915 
 3900000   0.62838797   -8.8819933     521.4646  0.011142406 0.0097220946         3924 
 3901000   0.62076516   -8.8756337    521.24785  0.011134919 0.0097179869         3907 
 3902000   0.62186278   -8.8696704    520.85536  0.011123684  0.009713877         3905 
 3903000   0.62290431   -8.8724881    521.58149  0.011136337 0.0097097724         3931 
 3904000   0.61661229   -8.8645178    521.49398  0.011131617 0.0097056624         3906 
 3905000   0.63075993   -8.8968993    521.12513  0.011120895 0.0097015624         3919 
 3906000   0.61638879   -8.8814862    520.72528  0.011109517 0.0096974586         3920 
 3907000   0.64355686   -8.8567649    521.08146  0.011114271 0.0096933597         3917 
 3908000   0.63287715   -8.8977101    520.64222   0.01110206 0.0096892655         3919 
 3909000   0.61778018    -8.859647    521.16967  0.011110465 0.0096851724         3927 
 3910000   0.62951949   -8.8709969    520.34796   0.01109011 0.0096810809         3904 
 3911000   0.62497953   -8.9007688     522.1446  0.011125556 0.0096769884         3916 
 3912000   0.62842545   -8.8946529    520.65015  0.011090877 0.0096729012         3925 
 3913000   0.62978511   -8.8938296    520.42974  0.011083349 0.0096688172         3912 
 3914000   0.61864598   -8.8945469    520.30231  0.011077804 0.0096647351         3912 
 3915000   0.62408861   -8.8854285    521.23776  0.011094886 0.0096606506         3930 
 3916000   0.62318869   -8.8777171    522.32753  0.011115244  0.009656573         3916 
 3917000   0.62733516   -8.8706075     521.8932  0.011103166 0.0096524964         3912 
 3918000   0.63230849   -8.8581618    521.03895  0.011082163 0.0096484247         3911 
 3919000   0.62717675   -8.8812465    520.78594  0.011073955 0.0096443559         3919 
 3920000   0.62435083   -8.8756577     520.9601  0.011074832 0.0096402887         3914 
 3921000   0.61349845   -8.8856927     520.6165  0.011064705 0.0096362199         3915 
 3922000   0.62320797   -8.9004988    520.49875  0.011059382 0.0096321558         3918 
 3923000   0.62439077   -8.8812223    520.53249   0.01105728 0.0096280914         3902 
 3924000    0.6319028   -8.8678689    520.57045  0.011055268  0.009624029         3920 
 3925000   0.62141571   -8.8826063    520.37716  0.011048347 0.0096199677         3917 
 3926000   0.63406732   -8.8786395    520.57601  0.011049754 0.0096159155         3928 
 3927000   0.63234754   -8.8746177    521.16108  0.011059356 0.0096118608         3904 
 3928000   0.62638415   -8.8750492    520.68928  0.011046531 0.0096078084         3917 
 3929000   0.62218756   -8.8924692    520.75376  0.011045087 0.0096037589         3904 
 3930000   0.61161155   -8.8958141    521.56413   0.01105946 0.0095997115         3926 
 3931000   0.62739062   -8.8684114    522.15502  0.011069173 0.0095956703         3914 
 3932000   0.61411943   -8.8705235    520.08251  0.011022434 0.0095916291         3912 
 3933000   0.60650672   -8.8770035    521.27302  0.011044856 0.0095875881         3904 
 3934000   0.62735366   -8.8751655    521.56364  0.011048204 0.0095835485         3902 
 3935000   0.62780604   -8.8751819    521.00198  0.011033502 0.0095795105         3904 
 3936000   0.61481854   -8.9010188    521.64784  0.011044373 0.0095754746         3907 
 3937000   0.59323284   -8.8914485    521.40099  0.011036343 0.0095714407         3913 
 3938000   0.61944627   -8.9025081     520.6128  0.011016861 0.0095674074         3910 
 3939000   0.62254898   -8.8750216    521.59932  0.011034935 0.0095633789         3893 
 3940000   0.62874121   -8.9036946    521.34506  0.011026757 0.0095593554         3920 
 3941000   0.62045657   -8.9082856    520.96066  0.011015831 0.0095553346         3905 
 3942000   0.61956291   -8.8795379    520.83955  0.011010476 0.0095513128         3929 
 3943000   0.61917352   -8.8964261    520.21044  0.010994387 0.0095472931         3937 
 3944000   0.61563024   -8.8864544    520.99348  0.011008145 0.0095432758         3927 
 3945000   0.62514584   -8.8893766    519.97626  0.010983867 0.0095392644         3919 
 3946000   0.61159365   -8.8827844    520.25729  0.010987018 0.0095352519         3905 
 3947000    0.6224081   -8.9075086    519.61962  0.010970772 0.0095312407         3918 
 3948000    0.6258393   -8.8994125    520.98417  0.010996795 0.0095272327         3920 
 3949000   0.61642116   -8.9002367    521.15975  0.010997716 0.0095232257         3920 
 3950000    0.6132127   -8.8798534     521.2929   0.01099774 0.0095192203         3937 
 3951000   0.60908007   -8.8908898     521.7671  0.011004959 0.0095152238         3927 
 3952000   0.62588757   -8.8645764    521.36585  0.010993713 0.0095112264         3926 
 3953000   0.61180906   -8.8865479    521.02506  0.010983748 0.0095072308         3938 
 3954000   0.60674206   -8.8975463    519.98503   0.01095905 0.0095032337         3928 
 3955000   0.61758279   -8.8933011    520.28626  0.010962627 0.0094992416         3926 
 3956000   0.61635504   -8.8947504    521.09253   0.01097684 0.0094952537         3921 
 3957000   0.60528875   -8.8950507    521.06551  0.010973496 0.0094912665         3914 
 3958000   0.62184363   -8.8929597    520.46558  0.010958093 0.0094872788         3909 
 3959000   0.61575203     -8.88974    520.35534  0.010953005 0.0094832934         3919 
 3960000    0.6068452   -8.8989114    520.46231   0.01095249 0.0094793116         3914 
 3961000    0.6241158   -8.9006413    521.06014  0.010962302 0.0094753331         3927 
 3962000   0.62535736   -8.8863529    520.88752  0.010955905 0.0094713573         3921 
 3963000   0.61414057    -8.900657    520.62451  0.010947609 0.0094673816         3924 
 3964000   0.61487351   -8.8870794    519.53579   0.01092196 0.0094634099         3930 
 3965000   0.62156239   -8.9000717    520.78115  0.010945379 0.0094594394         3921 
 3966000   0.61715015   -8.8842237    520.72675  0.010941476 0.0094554717         3919 
 3967000   0.60374631   -8.8902733    519.82035  0.010919678  0.009451504         3918 
 3968000   0.61461994   -8.8985448    520.25426  0.010926039 0.0094475425         3921 
 3969000   0.62454106   -8.8984315    520.72034  0.010933072 0.0094435818         3911 
 3970000   0.62140912   -8.9073319    520.38785  0.010923339 0.0094396216         3913 
 3971000   0.62005233   -8.8877092    521.35839  0.010940955 0.0094356664         3922 
 3972000   0.61588384   -8.8900361    521.56739  0.010942585 0.0094317102         3915 
 3973000   0.61284499   -8.8909574    521.08465  0.010929706 0.0094277566         3909 
 3974000   0.61147553   -8.8837806    519.45711  0.010892827 0.0094238075         3923 
 3975000   0.60826494   -8.8992422    519.69459  0.010895065 0.0094198579         3935 
 3976000   0.61439619   -8.9047029    520.88909   0.01091736 0.0094159106         3926 
 3977000   0.61305498   -8.8906718    521.90181  0.010935835  0.009411967         3925 
 3978000     0.626849   -8.8693385    520.85004  0.010911053 0.0094080246         3931 
 3979000   0.61261584   -8.8855925    520.73192  0.010905837 0.0094040865         3914 
 3980000   0.61191148   -8.9104662    520.87435  0.010906079 0.0094001475         3930 
 3981000   0.61967965   -8.8982029    521.47811  0.010915978 0.0093962143         3912 
 3982000   0.60446904   -8.8705289    521.49397  0.010913569 0.0093922818         3913 
 3983000   0.60887325    -8.900012    520.93513  0.010899136 0.0093883532         3934 
 3984000   0.61585391   -8.8837448     520.7597  0.010892731 0.0093844205         3918 
 3985000   0.61552392   -8.8778947    519.99806  0.010874071  0.009380497         3927 
 3986000   0.61520438   -8.9062733    520.13445  0.010874194 0.0093765745         3919 
 3987000   0.61370525   -8.9122643    520.35209  0.010876016 0.0093726518         3941 
 3988000   0.61623823   -8.8990295       521.25  0.010892051 0.0093687337         3912 
 3989000   0.60755345   -8.8969324    520.23799  0.010868179 0.0093648148         3923 
 3990000   0.59695597   -8.8742414     520.2823   0.01086638 0.0093608997         3920 
 3991000   0.61306699   -8.9115868    520.36114  0.010865304 0.0093569868         3911 
 3992000   0.60711192   -8.9157185    520.41835  0.010863777 0.0093530744         3926 
 3993000   0.61659855   -8.9167089    519.76582  0.010847438 0.0093491648         3925 
 3994000   0.61829892   -8.8868811    520.57164  0.010861535 0.0093452554         3927 
 3995000   0.60822049   -8.8991112    520.55288  0.010858425 0.0093413515         3903 
 3996000   0.62038449   -8.9183115    520.57493  0.010856167 0.0093374504         3928 
 3997000   0.62463161   -8.8969553    520.65919  0.010855208  0.009333552         3933 
 3998000   0.61791852   -8.9135569    521.65328  0.010873213 0.0093296551         3913 
 3999000   0.61013038   -8.9119926    520.34815  0.010843297 0.0093257574         3914 
 4000000   0.61036289   -8.8992933    520.40019  0.010841671 0.0093218607         3930 
 4001000   0.62071311   -8.9001683    519.82172  0.010826912 0.0093179683         3931 
 4002000   0.60890523   -8.8958615    520.70144  0.010842525  0.009314076         3934 
 4003000   0.61374413   -8.8910531    520.39001  0.010833334 0.0093101858         3905 
 4004000    0.6002464   -8.8895062    520.49711  0.010832857 0.0093063001         3900 
 4005000   0.59942479   -8.9027973    520.92312  0.010839016 0.0093024181         3946 
 4006000   0.60953894   -8.8975472    520.21159  0.010821509 0.0092985359         3909 
 4007000   0.61323386   -8.9216362    521.07017  0.010836664 0.0092946609         3936 
 4008000   0.60034008    -8.880514    521.09671  0.010834513 0.0092907841         3913 
 4009000    0.6092217   -8.9061728    520.92124  0.010828163 0.0092869117         3916 
 4010000   0.61644794   -8.9103655    520.40302  0.010814693 0.0092830381         3936 
 4011000   0.61225556     -8.91296    520.84384  0.010821155 0.0092791687         3909 
 4012000   0.60738048   -8.8965259    521.10595  0.010823902 0.0092752972         3926 
 4013000   0.61289888   -8.9136665    520.52679  0.010809178 0.0092714276         3914 
 4014000   0.61222146   -8.9077987     520.0604  0.010796803 0.0092675661         3899 
 4015000   0.61999781   -8.8954945    520.67723  0.010806916 0.0092637027         3915 
 4016000   0.61597328   -8.9082948    519.84558  0.010786968 0.0092598423         3927 
 4017000   0.61005016   -8.9168824    520.10346  0.010789633 0.0092559837         3922 
 4018000    0.6156521   -8.8941894    519.80957  0.010780852 0.0092521288         3915 
 4019000   0.59712728   -8.8951589     520.2439  0.010787176 0.0092482757         3917 
 4020000   0.60888443   -8.9004994    520.85016   0.01079706  0.009244425         3931 
 4021000   0.60155542    -8.914306    520.31827  0.010783351  0.009240573         3942 
 4022000   0.59786656   -8.9175033    521.06233  0.010796087 0.0092367273         3912 
 4023000   0.60783201   -8.8991377    520.73021  0.010786524 0.0092328838         3903 
 4024000   0.59094138   -8.9154372    520.46238  0.010778296 0.0092290424         3911 
 4025000   0.60758462   -8.8841954     520.5244  0.010776903 0.0092251992         3910 
 4026000   0.61524289   -8.9091346    520.44677  0.010772619 0.0092213585         3931 
 4027000   0.59207951   -8.9021297    519.68082  0.010754094 0.0092175198         3906 
 4028000   0.60491771   -8.9050663    519.84905  0.010754904 0.0092136861         3919 
 4029000   0.61505554    -8.902147    520.35486  0.010762697 0.0092098529         3907 
 4030000   0.60300583   -8.9050391    520.54328  0.010763922 0.0092060206         3926 
 4031000   0.61234732   -8.9093684    520.70835  0.010764665 0.0092021944         3918 
 4032000   0.61681164   -8.9164672    520.96402  0.010767279 0.0091983722         3915 
 4033000   0.60826673   -8.9039956    520.75665  0.010760324 0.0091945434         3934 
 4034000   0.61466103   -8.8895286    520.02261  0.010742493 0.0091907221         3917 
 4035000   0.59598105     -8.90281    520.49465   0.01074958 0.0091869058         3908 
 4036000   0.61368791   -8.8921956     520.8555  0.010754367 0.0091830863         3902 
 4037000   0.60579232   -8.9195061    519.02907  0.010714001 0.0091792707         3914 
 4038000   0.59602182   -8.8949535    520.50957  0.010741901 0.0091754581         3908 
 4039000   0.61136356   -8.9122277    520.37447  0.010736454 0.0091716412         3918 
 4040000   0.59386736   -8.9027262    520.48308  0.010736037 0.0091678308         3933 
 4041000   0.61090203   -8.9270055     519.7437  0.010718133 0.0091640229         3924 
 4042000   0.59664451   -8.8927723    519.45733  0.010709577 0.0091602169         3922 
 4043000   0.59973704   -8.9204725    520.28634  0.010724016 0.0091564139         3912 
 4044000   0.59968822   -8.9034749    520.32774  0.010722217 0.0091526103         3917 
 4045000   0.59724249   -8.9187212    519.64499    0.0107055 0.0091488083         3912 
 4046000   0.61356151   -8.9227052    520.93843  0.010729495   0.00914501         3898 
 4047000   0.60750385   -8.9086767    519.93996  0.010706284 0.0091412157         3911 
 4048000   0.60401622   -8.9078763    518.80842  0.010680345 0.0091374225         3923 
 4049000   0.61261285   -8.9217876    519.49053  0.010691746 0.0091336308         3915 
 4050000   0.60024015   -8.9100008    519.61934  0.010691756  0.009129842         3933 
 4051000   0.60936637   -8.9294817    520.15639  0.010700164  0.009126052         3918 
 4052000     0.599103   -8.9189949    520.92137  0.010713256 0.0091222618         3943 
 4053000   0.60186195    -8.907938    520.09847  0.010693693 0.0091184809         3931 
 4054000   0.60194548    -8.919094    519.98981  0.010688822 0.0091146989         3939 
 4055000   0.60459103   -8.9085948    519.40023   0.01067407 0.0091109219         3930 
 4056000   0.60708114   -8.9345681    518.97378  0.010662676 0.0091071447         3936 
 4057000   0.60897227   -8.9145532    519.70686  0.010675106 0.0091033717         3917 
 4058000   0.60034324   -8.9158268    520.16713  0.010681927 0.0090995986         3943 
 4059000   0.59809454   -8.9050404    520.91281  0.010694605 0.0090958252         3918 
 4060000   0.59262279   -8.9206607    520.06139  0.010674495 0.0090920569         3936 
 4061000   0.59672786   -8.9304056    520.54984   0.01068189 0.0090882941         3933 
 4062000   0.59593109   -8.9205876    519.54594  0.010658665 0.0090845304         3941 
 4063000   0.59359591   -8.9026173    519.56013  0.010656332 0.0090807665         3925 
 4064000   0.59239862   -8.9269111    519.85353  0.010659726 0.0090770037         3937 
 4065000   0.59567801   -8.9111481    519.46243  0.010649086  0.009073245         3907 
 4066000   0.61291732   -8.9076231    520.67887  0.010671398 0.0090694929         3940 
 4067000    0.6079935    -8.908291    521.03518  0.010676075 0.0090657401         3938 
 4068000   0.60540897   -8.9186276    520.36922  0.010659809 0.0090619879         3947 
 4069000   0.59854329    -8.913349    520.05327  0.010650718 0.0090582369         3933 
 4070000   0.59255542   -8.9229883     520.4044  0.010655291 0.0090544888         3934 
 4071000   0.59428574   -8.9265998    520.28022  0.010650131  0.009050745         3909 
 4072000   0.60489271   -8.9287622    519.92697  0.010640287 0.0090470005         3940 
 4073000   0.59970838   -8.9121836    520.38249  0.010646994  0.009043256         3936 
 4074000   0.59647288   -8.9108304    520.30879  0.010642873 0.0090395171         3937 
 4075000   0.59635231   -8.9015702    520.96455  0.010653672 0.0090357777         3927 
 4076000   0.60523684   -8.9182283     520.9606  0.010650977 0.0090320417         3927 
 4077000   0.59696796   -8.9208432    520.03007  0.010629345 0.0090283072         3933 
 4078000   0.59248745   -8.9120725    519.99005  0.010625921  0.009024574         3934 
 4079000   0.58252673   -8.9162576    520.43582  0.010632423 0.0090208473         3933 
 4080000   0.58719689   -8.9371165    519.86148  0.010618086  0.009017118         3932 
 4081000   0.61260821   -8.9161982    520.06042  0.010619546 0.0090133909         3924 
 4082000   0.59400556   -8.9180908    520.08808  0.010617509 0.0090096643         3910 
 4083000   0.58476909   -8.9306822    521.23817  0.010638382 0.0090059434         3914 
 4084000    0.6060626   -8.9153338    520.14492   0.01061347 0.0090022251         3921 
 4085000    0.5921898   -8.9386404    520.90059  0.010626287  0.008998505         3934 
 4086000   0.59745425   -8.9295722    519.75499  0.010600322 0.0089947888         3920 
 4087000   0.58603905   -8.9215467    519.19716  0.010586354 0.0089910731         3928 
 4088000   0.60567881   -8.9353229    519.48555  0.010589643 0.0089873621         3912 
 4089000   0.59868268   -8.9085076    520.14273  0.010600447 0.0089836483         3906 
 4090000   0.61047009   -8.9158409    519.52892  0.010585349 0.0089799366         3919 
 4091000    0.5943248   -8.9191222    520.46763  0.010601883 0.0089762282         3924 
 4092000   0.61128588   -8.9183967    518.39359  0.010557054 0.0089725229         3927 
 4093000     0.603704   -8.9220446    519.92816  0.010585719 0.0089688187         3903 
 4094000   0.60414465   -8.9074231    520.15631  0.010587777 0.0089651179         3929 
 4095000   0.59587278   -8.9254663    520.01966  0.010582411 0.0089614171         3919 
 4096000   0.59474651   -8.9202193    519.34184  0.010566037  0.008957719         3917 
 4097000    0.5951155   -8.9094326     519.3249  0.010563113 0.0089540214         3945 
 4098000   0.58430222   -8.9308938    519.75689   0.01056932  0.008950328         3930 
 4099000   0.59234416   -8.9263684    518.96243   0.01055059 0.0089466368         3915 
 4100000   0.59520183   -8.9083847    520.21541  0.010573484 0.0089429476         3916 
 4101000    0.5913986   -8.9270387    520.90607   0.01058494 0.0089392624         3924 
 4102000   0.59153611   -8.9222064    520.59068  0.010575952 0.0089355777         3921 
 4103000   0.59417891   -8.9418258    519.96356  0.010560638 0.0089318966         3925 
 4104000   0.59163562    -8.920706      520.591  0.010570805 0.0089282121         3924 
 4105000   0.59414441   -8.9374551    519.17384  0.010539461 0.0089245317         3907 
 4106000   0.58381521   -8.9125413    519.58773  0.010545294 0.0089208553         3908 
 4107000   0.60213959   -8.9166501    519.59092  0.010542791  0.008917179         3923 
 4108000   0.60166043   -8.9223671    519.93938  0.010547293 0.0089135038         3926 
 4109000   0.59901395   -8.9491244    519.50361  0.010535889 0.0089098379         3916 
 4110000   0.59728059   -8.9341841     519.6092  0.010535466  0.008906171         3941 
 4111000    0.5818653    -8.930712     519.7612  0.010535985 0.0089025033         3927 
 4112000   0.57747707   -8.9283649    519.25562  0.010523176 0.0088988405         3942 
 4113000   0.58323381   -8.9356171    520.21816   0.01054012 0.0088951758         3915 
 4114000   0.60294386   -8.9374343    519.43317  0.010521657 0.0088915156         3915 
 4115000   0.59703317   -8.9179119    519.91936  0.010528946 0.0088878583         3920 
 4116000   0.58444042   -8.9271679    520.01202  0.010528264 0.0088841987         3912 
 4117000   0.59600405   -8.9332233    519.88048  0.010523044 0.0088805427         3906 
 4118000   0.59957612   -8.9291191    519.56605  0.010514126 0.0088768879         3926 
 4119000   0.59017198   -8.9275176    519.64817  0.010513235 0.0088732367         3928 
 4120000   0.59513615   -8.9405912    519.62095  0.010510133 0.0088695891         3914 
 4121000   0.59690541    -8.913087    519.94483  0.010514132 0.0088659391         3906 
 4122000   0.59380059   -8.9306354    519.09387  0.010494377  0.008862293         3926 
 4123000   0.59350101   -8.9343905    519.73805  0.010504852 0.0088586484         3903 
 4124000   0.57669954   -8.9284033    519.70753  0.010501688 0.0088550089         3929 
 4125000   0.57855869   -8.9326227    519.19899  0.010488868 0.0088513674         3930 
 4126000    0.5993019   -8.9440279    518.17782  0.010465702 0.0088477272         3926 
 4127000   0.59383264   -8.9332317    520.88704  0.010517871 0.0088440903         3905 
 4128000   0.58696276   -8.9347535    519.24996  0.010482275 0.0088404583         3916 
 4129000   0.59416732   -8.9401668    519.49034  0.010484587 0.0088368286         3918 
 4130000    0.5961966   -8.9120831    520.38883  0.010500178 0.0088331981         3905 
 4131000   0.59049205   -8.9254025    520.18744  0.010493574  0.008829572         3914 
 4132000   0.59403029   -8.9366754    519.38572  0.010474865 0.0088259457         3909 
 4133000   0.59368707   -8.9469398    519.34739  0.010471558 0.0088223242         3933 
 4134000   0.59034726   -8.9429796    519.49301   0.01047196 0.0088187003         3919 
 4135000   0.57849974    -8.932876    520.21704  0.010484019 0.0088150842         3926 
 4136000    0.5903628   -8.9288025    520.24279  0.010482003 0.0088114659         3915 
 4137000   0.58286344   -8.9349457    519.92816  0.010473132 0.0088078485         3929 
 4138000   0.58070521   -8.9275761    519.69702  0.010465946  0.008804237         3906 
 4139000   0.56920558   -8.9565749    519.47137  0.010458874 0.0088006239         3916 
 4140000   0.58650122   -8.9417785    520.52182  0.010477492 0.0087970086         3923 
 4141000   0.58395751   -8.9267346    519.87952  0.010462037 0.0087933994         3933 
 4142000   0.59925926   -8.9347238     519.1644  0.010445123 0.0087897945         3920 
 4143000   0.60012605   -8.9415653    519.09559  0.010441218 0.0087861903         3934 
 4144000   0.57945149   -8.9394713    520.55439  0.010468034   0.00878259         3912 
 4145000   0.59732886   -8.9143955    520.29481   0.01046029 0.0087789894         3932 
 4146000    0.5854643   -8.9438734    518.97113  0.010431161 0.0087753903         3934 
 4147000   0.57688587   -8.9347845    518.41147  0.010417399 0.0087717941         3912 
 4148000   0.58895572   -8.9349176    519.29804  0.010432699 0.0087681989         3947 
 4149000    0.5853365   -8.9437865    519.76133   0.01043949  0.008764604         3926 
 4150000   0.59410182   -8.9454982    519.46012  0.010430926 0.0087610167         3917 
 4151000    0.5897608   -8.9486116    520.03245  0.010439903 0.0087574318         3917 
 4152000   0.58753292   -8.9514014    519.39139  0.010424522 0.0087538424         3929 
 4153000   0.58339276   -8.9454926    519.80831  0.010430378 0.0087502603         3931 
 4154000   0.59149481   -8.9244778    519.41827  0.010420042 0.0087466779         3929 
 4155000   0.59625229   -8.9285863    518.43221  0.010397758 0.0087430997         3931 
 4156000   0.59009527   -8.9344535    519.98988  0.010426489 0.0087395187         3917 
 4157000   0.59513369   -8.9343882    519.70659  0.010418302 0.0087359434         3913 
 4158000   0.58093993   -8.9389289    519.30266  0.010407701 0.0087323668         3929 
 4159000   0.59664866   -8.9433387    519.36819  0.010406512 0.0087287912         3936 
 4160000   0.57787838   -8.9503632    519.97712  0.010416208  0.008725219         3925 
 4161000   0.57727832   -8.9373289    519.49225  0.010403994 0.0087216493         3925 
 4162000   0.58151966   -8.9471953    519.10709  0.010393783 0.0087180838         3928 
 4163000   0.59051962   -8.9261316    519.63661  0.010401886 0.0087145187         3935 
 4164000    0.5970674   -8.9443353    519.70573  0.010400771 0.0087109555         3921 
 4165000   0.59171643   -8.9310693    519.08164  0.010385787 0.0087073935         3912 
 4166000   0.58762646   -8.9516753    518.78926  0.010377446 0.0087038342         3936 
 4167000     0.584996   -8.9353279    519.10418  0.010381253 0.0087002741         3923 
 4168000   0.57291859   -8.9400113    519.47688  0.010386214 0.0086967211         3919 
 4169000   0.60174804   -8.9439918    519.53735  0.010384931 0.0086931657         3934 
 4170000   0.59256859   -8.9418376    519.74374  0.010386565 0.0086896169         3939 
 4171000   0.58008707   -8.9616141    519.44535  0.010378114 0.0086860647         3927 
 4172000   0.56446757   -8.9577674    519.53062  0.010377329 0.0086825165         3933 
 4173000   0.57603107    -8.954763    519.07874  0.010365819 0.0086789703         3931 
 4174000   0.59252449   -8.9412849    519.67733  0.010375286 0.0086754273         3916 
 4175000   0.58009711   -8.9531085    519.28358  0.010364942 0.0086718861         3925 
 4176000   0.58222358   -8.9347617    518.36591  0.010344147 0.0086683473         3904 
 4177000   0.58442093   -8.9591562    518.95024  0.010353328 0.0086648093         3930 
 4178000   0.57063547   -8.9377447    519.15516  0.010354938 0.0086612734         3915 
 4179000   0.57852502   -8.9260969    519.65827  0.010362492 0.0086577384         3928 
 4180000   0.58252769   -8.9300868    518.52835  0.010337487 0.0086542064         3912 
 4181000   0.57824621   -8.9338603     518.9731  0.010343879 0.0086506724         3919 
 4182000   0.57692068   -8.9453987    518.90784  0.010340105 0.0086471435         3923 
 4183000   0.59150603   -8.9517096    518.74812  0.010334451 0.0086436212         3923 
 4184000   0.57720612   -8.9553108    519.50301  0.010347017 0.0086400948         3917 
 4185000   0.57735286   -8.9459032     519.6948  0.010348363 0.0086365726         3916 
 4186000   0.57458252   -8.9573369    518.76988  0.010327478  0.008633051         3914 
 4187000   0.58413184   -8.9563592    519.00906  0.010329772 0.0086295306         3931 
 4188000   0.57645652   -8.9381198    518.71037  0.010321362 0.0086260136         3923 
 4189000   0.58855306   -8.9518037    518.33134  0.010311358 0.0086224984         3935 
 4190000     0.575963   -8.9409754     519.0772  0.010323731 0.0086189835         3923 
 4191000   0.57301802   -8.9513394    518.31538   0.01030612 0.0086154701         3918 
 4192000   0.57223503   -8.9566053    518.54455  0.010308217 0.0086119579         3920 
 4193000   0.56983683   -8.9567786    518.84843  0.010311798 0.0086084487         3931 
 4194000   0.60244579   -8.9710187    518.98624  0.010312078 0.0086049455         3938 
 4195000   0.57275585   -8.9412257    519.63998  0.010322606 0.0086014387         3919 
 4196000   0.59244058   -8.9745704    518.79087  0.010303282 0.0085979345         3928 
 4197000   0.57501245   -8.9528089    519.34589  0.010311848 0.0085944353         3929 
 4198000   0.56727699   -8.9489347    519.09265  0.010304364 0.0085909383         3940 
 4199000   0.58151428   -8.9459126    517.59349  0.010272158 0.0085874416         3929 
 4200000   0.58353073   -8.9416526    518.87311  0.010295101 0.0085839454         3929 
 4201000   0.58514569   -8.9437687    518.90758  0.010293335 0.0085804522         3941 
 4202000   0.58401467    -8.954131    519.70296  0.010306659 0.0085769616         3934 
 4203000   0.58634779   -8.9602189    520.02928  0.010310677 0.0085734722         3924 
 4204000   0.57654445   -8.9398506     518.4926  0.010277763 0.0085699825         3925 
 4205000   0.57982787   -8.9543984    518.94484  0.010284281 0.0085664947         3932 
 4206000   0.58407025   -8.9395986    519.10271  0.010284964 0.0085630106         3922 
 4207000   0.58864277   -8.9589099    519.43098  0.010289022 0.0085595317         3914 
 4208000   0.57242503   -8.9568938     519.3661  0.010285292  0.008556051         3937 
 4209000   0.56881182   -8.9433973    518.66483  0.010268964 0.0085525721         3936 
 4210000   0.57289209   -8.9727911    518.80931  0.010269385 0.0085490955         3926 
 4211000   0.57720152   -8.9348754    518.65711  0.010263934   0.00854562         3915 
 4212000    0.5793512   -8.9552573    518.61479   0.01026066 0.0085421459         3941 
 4213000    0.5641207   -8.9549825    519.50519  0.010275836 0.0085386752         3931 
 4214000   0.57337186    -8.944264     518.6157  0.010255808  0.008535206         3929 
 4215000   0.57100804   -8.9489825    519.37587  0.010268404 0.0085317415         3941 
 4216000   0.59398021   -8.9639306    519.03938  0.010259317 0.0085282753         3932 
 4217000   0.58332352   -8.9541611    518.61865   0.01024857 0.0085248108         3928 
 4218000   0.57525783   -8.9541381    518.84862  0.010250684 0.0085213505         3926 
 4219000   0.57541786    -8.956623    519.95994  0.010270205  0.008517894         3939 
 4220000   0.57761549   -8.9706816    519.60487   0.01026076  0.008514437         3923 
 4221000    0.5643645   -8.9368834    519.78968  0.010261977  0.008510981         3922 
 4222000   0.57734366   -8.9568862    519.35913  0.010251049 0.0085075308         3925 
 4223000   0.57322412   -8.9627387    518.27169  0.010227163 0.0085040838         3931 
 4224000   0.57776739   -8.9559284    518.79592  0.010235084 0.0085006325         3921 
 4225000   0.57616015   -8.9639983     519.3789   0.01024416 0.0084971892         3935 
 4226000   0.56635087   -8.9497425    518.50061  0.010224416 0.0084937417         3925 
 4227000   0.57434187    -8.955878      519.541  0.010242509 0.0084903008         3926 
 4228000   0.56858987   -8.9603153    518.49726  0.010219514 0.0084868575         3930 
 4229000   0.57845679   -8.9642531    518.30279  0.010213265 0.0084834211         3938 
 4230000   0.59858337   -8.9542583    518.39195  0.010212607 0.0084799833         3929 
 4231000   0.56126802   -8.9650377    518.08568  0.010204161 0.0084765483         3927 
 4232000    0.5674182   -8.9540069    518.39719  0.010207884 0.0084731124         3927 
 4233000   0.57642339   -8.9571327    518.51881  0.010207867 0.0084696823         3941 
 4234000   0.58322577   -8.9586806    518.75948  0.010210193 0.0084662537         3923 
 4235000   0.58861499   -8.9454134    518.83488  0.010209266 0.0084628251         3924 
 4236000   0.56807068   -8.9531397    518.17631    0.0101939 0.0084593966         3929 
 4237000   0.55669699   -8.9698995    518.45081  0.010196893 0.0084559709         3909 
 4238000   0.58168362   -8.9757649    518.72577  0.010199893 0.0084525466         3936 
 4239000   0.56037626   -8.9703892    519.35804  0.010209917 0.0084491286         3936 
 4240000   0.56852751   -8.9562797    518.77415  0.010196033 0.0084457082         3932 
 4241000   0.57188235   -8.9452944     519.3657  0.010205252 0.0084422951         3942 
 4242000   0.58504794   -8.9452788    518.94329  0.010194548 0.0084388816         3938 
 4243000   0.56448386   -8.9765514    517.84629    0.0101706 0.0084354684         3919 
 4244000   0.57669303   -8.9601511    518.51606  0.010181355 0.0084320542         3940 
 4245000   0.57448091   -8.9475395    518.51018  0.010178841  0.008428644         3923 
 4246000   0.57317571   -8.9612724     518.7092   0.01018035 0.0084252325         3924 
 4247000    0.5679395   -8.9650331     518.7515  0.010178783 0.0084218241         3929 
 4248000   0.57630212   -8.9696239    518.79226  0.010177187 0.0084184178         3933 
 4249000   0.56895406   -8.9564374    519.23512  0.010183477 0.0084150169         3931 
 4250000   0.57504626   -8.9890056    518.70285  0.010170644 0.0084116161         3940 
 4251000   0.57260301   -8.9567896    518.97085  0.010173505 0.0084082147         3938 
 4252000   0.56946853   -8.9516679    518.35329  0.010159009 0.0084048163         3943 
 4253000   0.58931875   -8.9614548    518.78799  0.010165138 0.0084014191         3924 
 4254000    0.5675802   -8.9787538    517.97607  0.010146843 0.0083980244         3921 
 4255000   0.57448001   -8.9587525      518.675  0.010158147 0.0083946325         3910 
 4256000   0.57663838   -8.9648745    518.83816  0.010158955  0.008391243         3936 
 4257000   0.57588286   -8.9725736    518.11755  0.010142462 0.0083878549         3917 
 4258000   0.58641752   -8.9593905    519.32841  0.010163778 0.0083844673         3941 
 4259000   0.58115012   -8.9845787    518.22336   0.01013977 0.0083810831         3935 
 4260000    0.5875409   -8.9603871    519.06615  0.010153876  0.008377701         3921 
 4261000   0.57262699   -8.9685697    519.19467  0.010154007 0.0083743205         3931 
 4262000   0.57337549   -8.9765876    519.37593  0.010155168 0.0083709404         3932 
 4263000   0.55901931   -8.9525681    518.47921  0.010135257 0.0083675616         3914 
 4264000   0.57543753   -8.9683986    518.16164  0.010126674 0.0083641853         3933 
 4265000   0.57669157   -8.9503821    518.38296  0.010128624 0.0083608103         3899 
 4266000   0.56532249   -8.9549257     519.1285  0.010140813 0.0083574391         3943 
 4267000   0.56753881   -8.9724533    518.55854  0.010127305 0.0083540682         3930 
 4268000   0.58331201   -8.9683177    518.59056  0.010125558 0.0083506995         3936 
 4269000   0.56472315   -8.9483968    519.33616   0.01013774  0.008347334         3923 
 4270000   0.56760766   -8.9748841    519.15542  0.010131839  0.008343969         3938 
 4271000   0.58466358   -8.9782804    518.78889  0.010122315 0.0083406075         3927 
 4272000    0.5667391   -8.9700855    518.01343  0.010104819 0.0083372487         3926 
 4273000   0.58340966    -8.964002     518.4531  0.010111029 0.0083338892         3948 
 4274000   0.55328473    -8.968654    518.69425  0.010113365 0.0083305322         3934 
 4275000   0.56417074   -8.9690168    518.75603  0.010112203 0.0083271751         3938 
 4276000   0.57343311   -8.9740805    518.84521  0.010111576 0.0083238227         3932 
 4277000    0.5642225   -8.9644135    519.20069  0.010116139 0.0083204718         3929 
 4278000   0.57255375   -8.9859565    517.84287  0.010087324 0.0083171188         3933 
 4279000   0.56513179   -8.9707723    519.10216  0.010109491 0.0083137699         3938 
 4280000   0.56092923   -8.9653477    517.97911  0.010085263 0.0083104228         3914 
 4281000   0.57546869   -8.9583954    519.56553  0.010113788 0.0083070787         3911 
 4282000   0.54776983    -8.982447    519.26694  0.010105615 0.0083037357         3929 
 4283000   0.56699197   -8.9917804     517.6448  0.010071694  0.008300394         3936 
 4284000   0.56909874   -8.9683481    518.60546   0.01008803  0.008297051         3941 
 4285000   0.57726946   -8.9607243    517.58618  0.010065853 0.0082937097         3929 
 4286000   0.57117883   -8.9879598    518.29517   0.01007729 0.0082903731         3940 
 4287000     0.573848   -8.9676016    519.46311  0.010097642 0.0082870391         3909 
 4288000    0.5641483   -8.9608775    518.17041  0.010070165 0.0082837048         3929 
 4289000    0.5656061   -8.9774708     518.8758  0.010081523 0.0082803725         3916 
 4290000    0.5690429   -8.9659134    518.74675  0.010076666 0.0082770448         3935 
 4291000   0.56866515   -8.9876024    518.22992   0.01006428 0.0082737184         3926 
 4292000   0.57294956   -8.9842429    518.15491  0.010060479 0.0082703937         3923 
 4293000   0.56326018   -8.9677391    518.44821  0.010063829 0.0082670702         3923 
 4294000   0.58361497   -8.9771158    518.84861  0.010069256 0.0082637468         3929 
 4295000   0.55968004   -8.9691082    518.35795  0.010057391 0.0082604251         3927 
 4296000   0.57008568   -8.9933974    518.62756   0.01006028 0.0082571065         3927 
 4297000   0.55443248   -8.9600837    519.50289  0.010074914 0.0082537917         3932 
 4298000   0.56841223   -8.9744715    519.04379  0.010063669  0.008250473         3934 
 4299000   0.56314551    -8.985535    517.49151  0.010031238 0.0082471599         3923 
 4300000   0.55465067   -8.9744704    518.21916  0.010043007 0.0082438468         3935 
 4301000   0.55710869   -8.9614173    518.57177  0.010047504 0.0082405382         3935 
 4302000   0.56607716   -8.9828332    518.24156  0.010038772 0.0082372263         3922 
 4303000    0.5676335   -8.9666047    517.45825  0.010021269 0.0082339202         3903 
 4304000   0.56293155    -8.991037    518.57017  0.010040469 0.0082306155         3927 
 4305000   0.56308078    -8.978211    518.16451  0.010030285 0.0082273118         3933 
 4306000   0.56836398   -8.9810807    517.92094  0.010023242 0.0082240103         3933 
 4307000   0.56808137   -8.9858529    518.12066  0.010024779 0.0082207102         3919 
 4308000   0.57114353   -8.9791701    518.12492  0.010022534 0.0082174143         3926 
 4309000   0.57350955   -8.9733061    517.44284  0.010007017 0.0082141184         3926 
 4310000   0.56230353   -8.9946795    517.83974  0.010012369 0.0082108259         3941 
 4311000   0.55876034   -8.9771865     518.8832  0.010030217  0.008207531         3929 
 4312000   0.55266993   -8.9874757    518.57195  0.010021876 0.0082042401         3942 
 4313000   0.55296565    -8.970171    518.38429  0.010015926 0.0082009492         3933 
 4314000   0.55281682    -8.966516    519.34744   0.01003221 0.0081976596         3935 
 4315000   0.57716841   -8.9765266    518.33368  0.010010307 0.0081943751         3935 
 4316000   0.55737855   -8.9874993    517.90754 0.0099997594 0.0081910914         3929 
 4317000   0.55432505   -8.9892286    518.82956  0.010015241 0.0081878093         3913 
 4318000   0.55782179   -8.9993065     519.2126  0.010020314 0.0081845305         3925 
 4319000   0.56569807   -8.9842161    519.21899  0.010018117 0.0081812513         3949 
 4320000    0.5587749   -8.9718824    518.45261  0.010001015 0.0081779742         3930 
 4321000   0.56014478   -8.9587227    518.42834 0.0099982322 0.0081746981         3941 
 4322000   0.55174627   -8.9764089    518.04242  0.009988478 0.0081714236         3933 
 4323000   0.55668102   -8.9840807    518.76689  0.010000133 0.0081681515         3937 
 4324000   0.54347138   -8.9963702    518.57232 0.0099940703 0.0081648789         3934 
 4325000   0.55582085   -8.9841003      517.988  0.009980501 0.0081616087         3926 
 4326000   0.55890029   -8.9820926    518.07263 0.0099798242 0.0081583434         3914 
 4327000   0.56174899   -8.9832825     517.5236  0.009966944 0.0081550781         3927 
 4328000   0.55871962   -8.9913258    519.34756 0.0099997605 0.0081518128         3929 
 4329000   0.55996913   -8.9822817    518.21029 0.0099755581 0.0081485526         3929 
 4330000   0.54779488   -8.9848445    518.18901 0.0099728446 0.0081452928         3926 
 4331000   0.55844129   -8.9819772    517.42626 0.0099558658 0.0081420337         3932 
 4332000   0.56336702   -8.9859053    517.08647 0.0099470313 0.0081387774         3932 
 4333000   0.56265321   -8.9768823    519.27692 0.0099868628 0.0081355234         3920 
 4334000   0.56718364   -8.9856357    518.70784 0.0099736163 0.0081322705         3930 
 4335000   0.56288393     -9.00042    518.07301 0.0099591122 0.0081290186         3933 
 4336000   0.55976675   -8.9823397    518.36951 0.0099625136 0.0081257682         3943 
 4337000   0.55441821   -8.9787531    517.92266 0.0099516306 0.0081225176         3930 
 4338000   0.55486168    -8.980512    517.81926 0.0099473501 0.0081192725         3921 
 4339000   0.55734351   -8.9845143    518.53761  0.009958854 0.0081160301         3939 
 4340000   0.55203384   -9.0018879    517.39774 0.0099346725 0.0081127871         3928 
 4341000   0.55627106     -8.98205    518.19952 0.0099477754 0.0081095472         3927 
 4342000   0.55234403   -8.9939979    517.33434 0.0099288796 0.0081063068         3945 
 4343000   0.56101086   -9.0085447    518.02402  0.009939827 0.0081030691         3937 
 4344000   0.56443215   -8.9796643    518.43119 0.0099453498 0.0080998345         3926 
 4345000    0.5597245   -8.9898548    517.09315 0.0099173984    0.0080966         3947 
 4346000   0.54518554   -8.9927028    517.79511 0.0099285763 0.0080933684         3942 
 4347000   0.55741275   -8.9912686    518.49583 0.0099397253 0.0080901363         3925 
 4348000   0.55624907     -8.98667    518.31294  0.009933934 0.0080869041         3937 
 4349000   0.55416005   -8.9900118      517.911  0.009923948 0.0080836767         3938 
 4350000   0.55084476   -8.9861896    518.16964 0.0099266214 0.0080804529         3943 
 4351000   0.56114112   -8.9980054    518.08026 0.0099226281 0.0080772292         3927 
 4352000   0.55399308   -8.9828164    518.74273 0.0099330332 0.0080740078         3942 
 4353000   0.55134936   -8.9770766    517.98723 0.0099162881 0.0080707857         3916 
 4354000    0.5545686   -8.9834209    518.77218 0.0099290342  0.008067566         3931 
 4355000    0.5387379   -8.9803693    518.21754 0.0099161412  0.008064349         3947 
 4356000   0.56532476    -8.985747    518.51833 0.0099196191 0.0080611354         3941 
 4357000   0.54272624   -8.9674059    519.05508 0.0099276084 0.0080579203         3935 
 4358000   0.55471877   -8.9943157    518.47564 0.0099142505 0.0080547044         3928 
 4359000   0.54239302   -9.0022395     518.4066 0.0099106561 0.0080514927         3928 
 4360000    0.5504914   -8.9799153    518.61146 0.0099122985 0.0080482838         3934 
 4361000    0.5589544   -8.9830178    519.25542 0.0099223309 0.0080450773         3935 
 4362000     0.558288   -8.9737696    518.28099 0.0099014403 0.0080418718         3941 
 4363000     0.553789   -8.9990865    517.57125 0.0098856148 0.0080386665         3932 
 4364000    0.5617383    -8.989122    518.67986 0.0099045191  0.008035464         3939 
 4365000    0.5554669   -8.9812412     517.7139 0.0098838087 0.0080322625         3924 
 4366000   0.56075752   -8.9922124    518.37967 0.0098942523 0.0080290635         3945 
 4367000   0.54657944   -9.0012994    518.71994 0.0098984799 0.0080258671         3932 
 4368000   0.56177253   -8.9844479    517.60515 0.0098749456   0.00802267         3922 
 4369000   0.55014474   -9.0127719    517.43404 0.0098694216 0.0080194773         3935 
 4370000    0.5602015   -8.9915218    518.57303 0.0098888831 0.0080162836         3947 
 4371000   0.55583559   -8.9999241    518.95852 0.0098939701 0.0080130926         3939 
 4372000    0.5616396   -8.9770273    518.10684 0.0098754735  0.008009906         3946 
 4373000   0.54165584   -8.9848007    517.12778 0.0098545579 0.0080067191         3942 
 4374000   0.55420565   -9.0059802    517.33705 0.0098562919 0.0080035345         3945 
 4375000   0.55328469   -9.0051717    518.40856 0.0098744487 0.0080003498         3930 
 4376000   0.56452452   -8.9746027     518.4481 0.0098729452  0.007997167         3946 
 4377000   0.55375632   -8.9661739    518.45883 0.0098708939 0.0079939872         3937 
 4378000   0.56313873    -8.989065    518.22292 0.0098641489 0.0079908116         3946 
 4379000   0.55236059   -8.9890897    518.19817 0.0098614251 0.0079876336         3937 
 4380000   0.56042367   -9.0135408    517.81812 0.0098519429 0.0079844593         3942 
 4381000   0.55148941   -8.9916569    518.11115 0.0098552681 0.0079812864         3942 
 4382000   0.54075419    -8.999304    518.57468  0.009861834  0.007978116         3938 
 4383000   0.55567791    -9.008344    517.08206  0.009831205 0.0079749458         3949 
 4384000   0.54179884   -8.9841965    518.43982 0.0098547715 0.0079717796         3934 
 4385000   0.54471175   -8.9986115    518.10447 0.0098461512 0.0079686101         3932 
 4386000   0.56442542   -8.9998626    517.62329 0.0098347639 0.0079654452         3931 
 4387000    0.5524836    -9.001085    518.40024 0.0098472807 0.0079622818         3917 
 4388000   0.54382039   -8.9929826    518.31643 0.0098434447 0.0079591198         3939 
 4389000   0.54523519   -9.0015595    517.67518 0.0098290268 0.0079559601         3933 
 4390000   0.55050996    -8.998984    517.01175 0.0098141943 0.0079528037         3944 
 4391000   0.56678231   -8.9960996    517.69411  0.009824909 0.0079496493         3931 
 4392000   0.56276204   -8.9932126    516.84937 0.0098066441 0.0079464933         3921 
 4393000   0.55496361   -8.9991979     517.8819 0.0098239985 0.0079433422         3941 
 4394000   0.54590296   -9.0017852    518.13895 0.0098266377 0.0079401907         3953 
 4395000   0.54929111   -8.9940923    517.53949 0.0098130356 0.0079370399         3918 
 4396000   0.54214688   -9.0069524    517.75569 0.0098149017 0.0079338961         3934 
 4397000   0.54512526   -8.9971409    518.63158 0.0098292695 0.0079307504         3928 
 4398000   0.54381252   -9.0005148    517.27836 0.0098013938 0.0079276036         3923 
 4399000   0.53785906   -8.9938556    517.07581 0.0097953287 0.0079244612         3937 
 4400000    0.5478341   -8.9851262    517.64605 0.0098039025 0.0079213194         3938 
 4401000   0.54305753   -9.0008539    517.19143 0.0097930666 0.0079181801         3910 
 4402000   0.55540385   -9.0214658    517.26443 0.0097922239 0.0079150454         3937 
 4403000     0.553014   -8.9977016     518.6544 0.0098163071 0.0079119108         3941 
 4404000   0.55465702   -8.9949729    518.02353 0.0098021407 0.0079087764         3925 
 4405000   0.54311771   -8.9949446    518.19145 0.0098030921 0.0079056439         3934 
 4406000   0.55119128   -9.0119888    517.25373 0.0097831314 0.0079025118         3927 
 4407000   0.53851163   -9.0029434    517.44678  0.009784562 0.0078993826         3915 
 4408000   0.53663636   -8.9987804     518.0193 0.0097931658 0.0078962551         3934 
 4409000   0.53431958   -8.9971785    517.55895 0.0097822437 0.0078931313         3931 
 4410000   0.54898442   -9.0118063     517.5123 0.0097791439 0.0078900075         3949 
 4411000   0.53674817   -9.0221185     517.9007 0.0097842647 0.0078868825         3948 
 4412000   0.54321683   -9.0022467    518.24004 0.0097884564 0.0078837608         3934 
 4413000   0.53803769   -9.0053777    518.14025 0.0097843541 0.0078806411         3935 
 4414000   0.55458328   -9.0072725    517.79561 0.0097756308 0.0078775222         3914 
 4415000   0.54699356   -8.9968009    518.02113 0.0097776732 0.0078744047         3927 
 4416000   0.55333447    -9.004673    518.14105  0.009777722 0.0078712887         3933 
 4417000   0.54638402   -8.9924309    518.10279 0.0097747867 0.0078681746         3937 
 4418000   0.55152279   -9.0232639    518.15222 0.0097735065 0.0078650643         3943 
 4419000   0.54471791   -9.0063267    517.95633 0.0097676008 0.0078619528         3936 
 4420000   0.55146917   -9.0036217    517.16645 0.0097504988 0.0078588454         3925 
 4421000   0.54670023   -8.9942884    518.14636  0.009766764  0.007855738         3930 
 4422000   0.54520618    -8.995267    517.59415 0.0097541488 0.0078526356         3937 
 4423000   0.54357041   -8.9994056    516.81329 0.0097372313 0.0078495339         3923 
 4424000   0.54242574    -9.002247      517.365 0.0097454227 0.0078464292         3942 
 4425000   0.54558933   -9.0177211    517.22389 0.0097405629 0.0078433285         3943 
 4426000   0.53836932   -8.9923633    517.09871 0.0097360052 0.0078402304         3919 
 4427000   0.53717129   -8.9878654    517.55985 0.0097424865  0.007837136         3941 
 4428000   0.53649084   -9.0024164    518.02632 0.0097490651 0.0078340419         3940 
 4429000    0.5326371   -9.0152101    517.51699 0.0097372807  0.007830945         3950 
 4430000    0.5497942   -9.0002587    516.54502 0.0097167987 0.0078278532         3942 
 4431000   0.54532488   -9.0126651    517.23951 0.0097276669 0.0078247633         3932 
 4432000   0.53500108   -9.0001724     516.9148 0.0097193666  0.007821675         3933 
 4433000   0.53952094   -9.0209495    517.36451 0.0097256281 0.0078185865         3946 
 4434000   0.54768995   -9.0257742    516.36634  0.009704675 0.0078155026         3934 
 4435000   0.53429637   -9.0201585    518.24284 0.0097377459 0.0078124186         3954 
 4436000    0.5418364   -9.0122465    517.97039 0.0097304325 0.0078093379         3945 
 4437000   0.53997384    -9.011823    517.94181 0.0097277027 0.0078062589         3946 
 4438000   0.53781927   -9.0083738    517.91919 0.0097250863 0.0078031787         3937 
 4439000   0.55519233   -9.0169633    516.79838 0.0097018543 0.0078000996         3945 
 4440000   0.54503251   -9.0024546    517.79052 0.0097182906 0.0077970241         3931 
 4441000   0.53702779   -9.0106676    518.71841 0.0097335137 0.0077939514         3941 
 4442000   0.54461207   -9.0118027    517.25796 0.0097039239 0.0077908787         3932 
 4443000   0.53460046   -9.0295058    516.96204 0.0096961895 0.0077878064         3938 
 4444000   0.55703281   -9.0167235    517.56604 0.0097053337 0.0077847342         3943 
 4445000   0.53892601   -9.0041292    517.44475 0.0097008765 0.0077816652         3936 
 4446000   0.53853728   -9.0346751    516.54827 0.0096818914 0.0077785999         3926 
 4447000   0.53088714   -9.0186986    516.75422 0.0096835736 0.0077755335         3936 
 4448000   0.52664854   -9.0066552    516.55222  0.009677612 0.0077724682         3934 
 4449000   0.54021433   -9.0287313    517.26287 0.0096887479 0.0077694053         3930 
 4450000   0.54416025   -9.0109995    517.73679 0.0096954455 0.0077663459         3943 
 4451000   0.54788738   -9.0032754    517.74613 0.0096934421 0.0077632884         3941 
 4452000   0.53539132   -9.0172522    516.81881 0.0096739071 0.0077602306         3944 
 4453000   0.53599497   -9.0278842    517.01764 0.0096754555  0.007757176         3921 
 4454000   0.53213336    -9.010746    517.09835 0.0096747932 0.0077541231         3937 
 4455000   0.52961631   -8.9998776    517.77901 0.0096853538 0.0077510738         3926 
 4456000   0.54047384   -9.0152625    517.93963  0.009686184  0.007748024         3943 
 4457000   0.53919002    -9.008582    517.56223 0.0096769545 0.0077449749         3946 
 4458000     0.543046   -9.0141485    516.63158  0.009657387 0.0077419297         3931 
 4459000    0.5368808   -8.9938767    517.13094 0.0096645537 0.0077388868         3941 
 4460000   0.52680799   -9.0144375    516.82828 0.0096567318 0.0077358432         3925 
 4461000   0.54605892   -9.0104327    516.86579 0.0096552677  0.007732802         3939 
 4462000    0.5513559   -9.0023024    518.23541 0.0096786831 0.0077297642         3945 
 4463000   0.53525432   -9.0050443    516.80725 0.0096498478 0.0077267295         3926 
 4464000   0.53200075    -9.001573    517.36832 0.0096581601 0.0077236922         3946 
 4465000    0.5462711   -9.0144668    518.29746 0.0096733382 0.0077206573         3938 
 4466000   0.55136342   -9.0027898    517.33301  0.009653176 0.0077176255         3952 
 4467000   0.54118403   -9.0213368     517.7686 0.0096591411 0.0077145947         3932 
 4468000   0.54264884   -9.0236467    517.68825 0.0096554806 0.0077115639         3942 
 4469000   0.53389079   -9.0160647    517.62435 0.0096521286  0.007708535         3948 
 4470000   0.53965832   -9.0169245    517.52572 0.0096481306 0.0077055111         3923 
 4471000   0.52659213   -9.0071222     517.0529 0.0096371599 0.0077024886         3935 
 4472000   0.52324127   -9.0116677    517.26521 0.0096389612 0.0076994637         3917 
 4473000   0.53108449   -9.0300644    517.34942 0.0096383751 0.0076964431         3934 
 4474000   0.52992564   -9.0207859    517.41957 0.0096375273 0.0076934232         3936 
 4475000   0.53950043   -9.0079931      517.257 0.0096323463 0.0076904062         3921 
 4476000   0.53305307   -9.0253163    517.07058 0.0096267236 0.0076873895         3930 
 4477000   0.53594634   -9.0265487    517.47798 0.0096321566 0.0076843758         3944 
 4478000   0.53469404   -9.0355427    517.95445 0.0096388724 0.0076813619         3925 
 4479000   0.53922737   -9.0169851    517.45028 0.0096273402 0.0076783491         3920 
 4480000   0.52807714    -9.014094    517.20079 0.0096205504 0.0076753384         3928 
 4481000   0.54303844   -8.9938389    517.00411 0.0096147458  0.007672333         3909 
 4482000   0.54210156   -9.0098375    516.88334 0.0096103551  0.007669327         3925 
 4483000   0.53418714   -9.0021872    517.66882 0.0096228125 0.0076663207         3933 
 4484000   0.52824778   -9.0297523    516.99947 0.0096082268 0.0076633151         3944 
 4485000   0.52390586   -9.0206394    517.21397 0.0096100701 0.0076603124         3930 
 4486000   0.52567459   -9.0263267    517.23689 0.0096083536 0.0076573089         3937 
 4487000   0.54185149   -9.0178298    517.03668 0.0096024938 0.0076543087         3936 
 4488000   0.53870574   -9.0049689    517.27319 0.0096047459 0.0076513118         3929 
 4489000   0.51760971   -9.0142227     517.4921   0.00960667 0.0076483141         3938 
 4490000   0.53469639   -9.0311197    516.63322 0.0095885898 0.0076453195         3926 
 4491000   0.52335174   -9.0161718    516.85837 0.0095906326 0.0076423267         3941 
 4492000   0.53532718   -9.0173825    518.14903 0.0096124413 0.0076393337         3947 
 4493000   0.53681772   -9.0195861    517.43684 0.0095970925 0.0076363422         3950 
 4494000   0.53056982   -9.0205923    516.63255 0.0095800428 0.0076333517         3930 
 4495000   0.53428126   -9.0226054    517.08057 0.0095862175  0.007630367         3941 
 4496000    0.5291655   -9.0165034    517.55529 0.0095928843 0.0076273793         3926 
 4497000    0.5262571   -9.0243983    517.25973 0.0095852741 0.0076243934         3940 
 4498000   0.53216664   -9.0338254     516.5549 0.0095700848 0.0076214109         3936 
 4499000   0.52552858   -9.0219772    517.71717  0.009589486 0.0076184276         3944 
 4500000   0.53460439   -9.0187629    517.18789 0.0095775536 0.0076154456         3931 
 4501000   0.53179097   -9.0468962    517.08631  0.009573545 0.0076124646         3932 
 4502000   0.52741797   -9.0107739    517.71305 0.0095830197 0.0076094863         3926 
 4503000   0.52574019   -9.0045098    517.62775 0.0095793129 0.0076065088         3926 
 4504000   0.52934818   -9.0280022    517.47474  0.009574355 0.0076035335         3954 
 4505000   0.52717174   -9.0349857     516.3796 0.0095519718 0.0076005605         3942 
 4506000   0.54301743   -9.0426637    516.35758 0.0095494449 0.0075975896         3941 
 4507000   0.52017638   -9.0171991    516.78085 0.0095551521 0.0075946237         3943 
 4508000   0.52796297   -9.0264619    517.22231 0.0095611933  0.007591657         3943 
 4509000   0.52890147   -9.0222433    516.23993 0.0095409168  0.007588692         3936 
 4510000   0.53255126   -9.0274484    517.04039 0.0095535918 0.0075857271         3924 
 4511000     0.522152   -9.0161392    517.69339 0.0095635372 0.0075827643         3934 
 4512000   0.53716997    -9.028262    516.80056 0.0095449275 0.0075797982         3939 
 4513000   0.53666167   -9.0291062    516.67252 0.0095404483 0.0075768388         3929 
 4514000   0.53285042   -9.0319341    516.84825 0.0095415791 0.0075738785         3931 
 4515000   0.52035311   -9.0014077    517.86092 0.0095581565 0.0075709213         3922 
 4516000   0.54251481   -9.0329997    516.81849 0.0095368041 0.0075679647         3938 
 4517000   0.53682571    -9.018986    517.05422 0.0095390418 0.0075650096         3950 
 4518000   0.52804613   -9.0173664    517.04802  0.009536816 0.0075620587         3946 
 4519000    0.5222314   -9.0228326    517.55666 0.0095440854 0.0075591081         3932 
 4520000   0.52581509   -9.0291439    517.19764 0.0095353547 0.0075561592         3940 
 4521000   0.52697453    -9.037866    517.37954 0.0095365985  0.007553214         3941 
 4522000    0.5374547   -9.0175295    516.36401 0.0095157749 0.0075502683         3939 
 4523000   0.53501905   -9.0275088    517.11317 0.0095274739 0.0075473216         3927 
 4524000   0.50568578   -9.0242723    517.54546 0.0095333308  0.007544378         3937 
 4525000   0.52916613   -9.0330693     517.1816  0.009524523 0.0075414366         3940 
 4526000   0.53300556   -9.0266443    517.04415  0.009519888 0.0075384951         3923 
 4527000   0.52463431   -9.0067616    517.66337 0.0095291837 0.0075355562         3937 
 4528000   0.53432011    -9.028601    517.47791 0.0095236659 0.0075326187         3942 
 4529000   0.53406786   -9.0149182    517.04131 0.0095135296 0.0075296845         3921 
 4530000   0.53089582   -9.0409525    516.78533 0.0095067206  0.007526752         3947 
 4531000   0.52938989   -9.0203488    517.49561 0.0095176858 0.0075238201         3940 
 4532000    0.5206042   -9.0345318    516.58216 0.0094987894 0.0075208883         3937 
 4533000    0.5292889   -9.0448682    515.27996 0.0094727547 0.0075179581         3940 
 4534000   0.53202057   -9.0330631    516.56581 0.0094942988 0.0075150315         3946 
 4535000   0.52570577    -9.037945    517.07653   0.00950159 0.0075121033         3937 
 4536000   0.52015456   -9.0325506    517.04144 0.0094988507 0.0075091815         3927 
 4537000   0.54364315    -9.028152    517.71782 0.0095091805 0.0075062608         3929 
 4538000   0.53090761   -9.0151409    517.27378 0.0094989308 0.0075033416         3934 
 4539000   0.53520362    -9.030154    516.83337 0.0094887525 0.0075004184         3932 
 4540000   0.52321011   -9.0464977     516.1889  0.009474833 0.0074974999         3948 
 4541000   0.51297331    -9.027998     517.1097 0.0094896444 0.0074945836         3936 
 4542000   0.53203747   -9.0267274    516.77011 0.0094813245 0.0074916691         3921 
 4543000   0.52450603    -9.012147    516.78631 0.0094795346 0.0074887568         3929 
 4544000   0.53046692   -9.0314273    516.17549 0.0094662465 0.0074858425         3938 
 4545000   0.52012884   -9.0148162    516.50948 0.0094702876 0.0074829321         3934 
 4546000   0.51602184   -9.0241731    516.76893 0.0094729602 0.0074800224         3937 
 4547000   0.52429917   -9.0382678    517.31061 0.0094808043 0.0074771149         3948 
 4548000   0.51003095   -9.0181278    517.21106 0.0094768957 0.0074742083         3933 
 4549000   0.53320548   -9.0379717    516.24655 0.0094571436 0.0074713051         3925 
 4550000    0.5129829   -9.0375334    516.77319 0.0094647104 0.0074684027         3922 
 4551000   0.52962607   -9.0257258    517.02787 0.0094672941 0.0074654979         3936 
 4552000   0.52641369   -9.0281844    516.84318 0.0094618333 0.0074625972         3929 
 4553000   0.52692202    -9.025101    517.27146 0.0094675938 0.0074597013         3943 
 4554000   0.52360808   -9.0370085    517.01128 0.0094607538 0.0074568026         3944 
 4555000   0.52518026   -9.0355182    516.87784 0.0094562357  0.007453907         3935 
 4556000   0.51453124   -9.0181499    516.95621 0.0094555935 0.0074510126         3928 
 4557000   0.51891972    -9.030432    517.11512 0.0094564246 0.0074481193         3938 
 4558000   0.50941506   -9.0473616    516.81711 0.0094489014  0.007445228         3932 
 4559000   0.52052524   -9.0480311    517.22527 0.0094542894 0.0074423388         3951 
 4560000   0.52450188   -9.0432528    516.65587 0.0094418106 0.0074394515         3944 
 4561000   0.51696147   -9.0326419    515.88165 0.0094255946 0.0074365649         3937 
 4562000   0.52308915   -9.0415452    517.06148 0.0094450805 0.0074336767         3940 
 4563000   0.51361867   -9.0326531    516.59226 0.0094344411 0.0074307918         3926 
 4564000    0.5244162    -9.040096    516.60182 0.0094325486   0.00742791         3932 
 4565000   0.52202609   -9.0429729    517.15341 0.0094405515 0.0074250299         3941 
 4566000   0.51673106   -9.0354592    516.45034 0.0094256524 0.0074221509         3920 
 4567000   0.51468509   -9.0393044    516.47087  0.009423963  0.007419275         3935 
 4568000   0.51516815   -9.0257384    516.52424 0.0094228736 0.0074163984         3940 
 4569000   0.51278408   -9.0349424    517.05684 0.0094305253 0.0074135229         3928 
 4570000   0.50676477   -9.0329282    517.07768 0.0094288417 0.0074106488         3940 
 4571000    0.5311841   -9.0526306    516.45895  0.009415499 0.0074077778         3920 
 4572000    0.5365459   -9.0292809    517.07133 0.0094246014 0.0074049067         3940 
 4573000   0.51896253   -9.0404174    516.10803 0.0094049863 0.0074020399         3936 
 4574000   0.51048602   -9.0359809    517.11572 0.0094212891 0.0073991735         3949 
 4575000   0.52094501   -9.0369884    515.83047 0.0093958191 0.0073963098         3942 
 4576000   0.51569758   -9.0436922    517.12001 0.0094172497 0.0073934454         3937 
 4577000   0.51829302   -9.0438677    517.12457 0.0094152751 0.0073905844         3935 
 4578000   0.51584062   -9.0448947    517.26492 0.0094157732 0.0073877237         3943 
 4579000   0.54050614   -9.0362146    516.83385 0.0094058719 0.0073848646         3930 
 4580000   0.51192756   -9.0352388    516.52616 0.0093982198 0.0073820058         3942 
 4581000   0.52643446   -9.0352124    516.34693 0.0093929078 0.0073791485         3939 
 4582000    0.5249287    -9.034534     517.0078 0.0094028771 0.0073762954         3936 
 4583000   0.52770098   -9.0430109    516.15002 0.0093852284 0.0073734396         3928 
 4584000   0.51361507   -9.0276008    516.18981 0.0093839044 0.0073705887         3922 
 4585000   0.51956221   -9.0456294    516.65612  0.009390333 0.0073677361         3938 
 4586000   0.50681399   -9.0414879    516.78694 0.0093906626 0.0073648853         3924 
 4587000   0.51011662   -9.0296225    516.18321 0.0093776471 0.0073620348         3931 
 4588000   0.51341982   -9.0364327    516.28234 0.0093774038 0.0073591884         3927 
 4589000   0.51480167   -9.0514853    517.04638 0.0093892347 0.0073563446         3933 
 4590000   0.51738616     -9.05606    516.50512 0.0093773624 0.0073534984         3952 
 4591000   0.51776347   -9.0484564    517.36215 0.0093908762 0.0073506543         3935 
 4592000   0.50837919   -9.0586855    516.53927  0.009373898 0.0073478124         3943 
 4593000   0.52876394   -9.0483529    515.95698 0.0093612923  0.007344971         3948 
 4594000   0.50772987   -9.0466541     516.9613 0.0093774724 0.0073421323         3925 
 4595000   0.51755135   -9.0400184    516.31272 0.0093636693 0.0073392946         3931 
 4596000   0.50873239    -9.031378    516.22585 0.0093600568 0.0073364599         3946 
 4597000   0.51089993   -9.0419214    517.11523 0.0093741431 0.0073336272         3948 
 4598000   0.52460275   -9.0444197    516.33724 0.0093580042 0.0073307956         3947 
 4599000   0.51736863   -9.0462399    516.23171 0.0093540573 0.0073279669         3921 
 4600000   0.51696147   -9.0453469    517.40952 0.0093733609 0.0073251371         3934 
 4601000   0.51925126   -9.0368683     517.1758 0.0093670906 0.0073223111         3940 
 4602000   0.52107171   -9.0553125     516.6111 0.0093548294 0.0073194845         3935 
 4603000    0.5234385   -9.0472176    516.25265 0.0093463076 0.0073166619         3947 
 4604000   0.51310852   -9.0558612    517.10724 0.0093597459  0.007313838         3928 
 4605000   0.51460204    -9.059034    516.93756 0.0093546427 0.0073110182         3912 
 4606000   0.51539175   -9.0581232     516.8962 0.0093518635  0.007308198         3943 
 4607000   0.51497128   -9.0480381    516.33803 0.0093397372 0.0073053778         3937 
 4608000   0.52750497   -9.0402188     516.6943 0.0093441533 0.0073025611         3934 
 4609000   0.50817239   -9.0424096    516.96257 0.0093469763 0.0072997455         3940 
 4610000   0.50674332   -9.0515576    516.80905 0.0093421737 0.0072969305         3938 
 4611000   0.50927165   -9.0520904    516.23662 0.0093298023 0.0072941194         3947 
 4612000   0.51140456   -9.0531475    516.57255 0.0093338491 0.0072913063         3940 
 4613000   0.51779165   -9.0465595    516.64607 0.0093331539 0.0072884956         3938 
 4614000   0.51416499   -9.0412807    516.21458  0.009323338 0.0072856856         3941 
 4615000   0.51645971   -9.0447753    516.13574 0.0093198941 0.0072828809         3946 
 4616000    0.5084422   -9.0431829    516.33087 0.0093213979 0.0072800748         3932 
 4617000   0.52117466    -9.053515    515.95899 0.0093126668 0.0072772714         3935 
 4618000   0.51161628   -9.0406439    516.78115 0.0093254863 0.0072744698         3928 
 4619000    0.5152048   -9.0531606    516.69498 0.0093219127 0.0072716667         3931 
 4620000   0.51378248   -9.0455769    516.36211 0.0093138908 0.0072688663         3936 
 4621000   0.51494971   -9.0271506    516.56399  0.009315516 0.0072660681         3935 
 4622000   0.50050157    -9.043666    516.77663 0.0093173343 0.0072632706         3938 
 4623000   0.50132604   -9.0417183    517.27846 0.0093243648  0.007260474         3907 
 4624000    0.5157068   -9.0466548     517.2129 0.0093211668 0.0072576795         3939 
 4625000   0.50663535   -9.0534904    516.54165 0.0093070568 0.0072548863         3932 
 4626000   0.51220379   -9.0314401    516.54772 0.0093051543 0.0072520958         3932 
 4627000   0.51810305   -9.0377963    516.69682 0.0093058284 0.0072493067         3940 
 4628000   0.50876265   -9.0647642    516.50871 0.0093004306  0.007246518         3932 
 4629000   0.52071787   -9.0522093    517.01336 0.0093075063 0.0072437313         3938 
 4630000   0.50165648   -9.0552454    516.59068 0.0092978884 0.0072409469         3945 
 4631000   0.51854698   -9.0625924    517.26353 0.0093079883  0.007238163         3932 
 4632000   0.51746811   -9.0390261    516.09802 0.0092850105 0.0072353816         3928 
 4633000   0.51341774   -9.0594688    516.13482 0.0092836682 0.0072326001         3942 
 4634000   0.50737787   -9.0507411    515.75009 0.0092747462   0.00722982         3940 
 4635000   0.50463974   -9.0402488    516.31843 0.0092829635 0.0072270417         3918 
 4636000   0.51541833   -9.0679555    516.40735 0.0092825594 0.0072242646         3943 
 4637000   0.51444386   -9.0349858     516.2895 0.0092784397  0.007221492         3940 
 4638000   0.49950778   -9.0689051    516.30003 0.0092766284 0.0072187176         3938 
 4639000   0.51016795   -9.0617106    516.78145 0.0092832767 0.0072159458         3953 
 4640000   0.51356602   -9.0528622    516.30854 0.0092727826 0.0072131768         3936 
 4641000   0.50755305   -9.0653144    515.57161 0.0092575524 0.0072104041         3945 
 4642000   0.52275565   -9.0585356    516.33069 0.0092691852 0.0072076364         3943 
 4643000   0.50479088   -9.0512846    516.52299 0.0092706403 0.0072048706         3942 
 4644000   0.49534852   -9.0587225    516.20466 0.0092629318 0.0072021041         3946 
 4645000   0.51616338   -9.0603761    515.63825 0.0092507759 0.0071993418         3936 
 4646000   0.50707609   -9.0604428     515.6689 0.0092493345  0.007196582         3936 
 4647000   0.51227042   -9.0712454    515.45299 0.0092434723  0.007193821         3941 
 4648000   0.51834354   -9.0520488    516.40002 0.0092584628 0.0071910604         3948 
 4649000   0.50118502   -9.0615566    516.95357 0.0092663936  0.007188301         3940 
 4650000   0.50511295    -9.082474    515.50005 0.0092383521 0.0071855423         3941 
 4651000    0.5106879   -9.0694909    516.51622 0.0092545729 0.0071827862         3947 
 4652000   0.50646871   -9.0508444    516.13508 0.0092457559 0.0071800319         3940 
 4653000   0.51131407   -9.0557155    516.32721 0.0092472098 0.0071772774         3925 
 4654000   0.51836983   -9.0660775    516.52832  0.009248824 0.0071745274         3943 
 4655000   0.50487955   -9.0768755    516.24259 0.0092417219 0.0071717758         3935 
 4656000   0.50814864   -9.0815505    516.08569 0.0092369289 0.0071690269         3942 
 4657000    0.5004924   -9.0434493    516.25764 0.0092380223 0.0071662789         3946 
 4658000   0.50457035   -9.0432833    517.36063  0.009255772 0.0071635348         3954 
 4659000   0.51284462    -9.049192    516.49134 0.0092382368  0.007160791         3927 
 4660000   0.50569181   -9.0650355    515.83257 0.0092244737 0.0071580502         3945 
 4661000   0.51207857   -9.0720443    515.36244 0.0092140892 0.0071553106         3948 
 4662000   0.51000456    -9.043177    516.67966 0.0092356581 0.0071525695         3939 
 4663000   0.50268685   -9.0580762    515.74853 0.0092170371 0.0071498331         3934 
 4664000   0.50668431   -9.0763341    515.69486  0.009214102 0.0071470957         3920 
 4665000   0.50889684   -9.0624954    515.88916 0.0092155977 0.0071443612         3949 
 4666000   0.51313495   -9.0688868    515.99948  0.009215593 0.0071416266         3930 
 4667000   0.50191155   -9.0588792      516.586 0.0092240912 0.0071388943         3941 
 4668000   0.51045522   -9.0637085    516.07584 0.0092130078 0.0071361607         3931 
 4669000   0.50462766   -9.0516436    516.47883 0.0092182271 0.0071334308         3944 
 4670000   0.50618267   -9.0681321    515.82565 0.0092045976 0.0071307015         3931 
 4671000   0.50175365   -9.0734183    515.98204 0.0092054171 0.0071279758         3951 
 4672000   0.49483666   -9.0536436    515.84696 0.0092010374  0.007125249         3947 
 4673000   0.50218894    -9.059281    516.27135 0.0092066366 0.0071225238         3944 
 4674000   0.51186041   -9.0517545    516.16871 0.0092028369 0.0071197995         3947 
 4675000   0.51222591   -9.0689989    515.69599 0.0091924419 0.0071170778         3940 
 4676000   0.50234789   -9.0707677    515.67545 0.0091901099 0.0071143553         3944 
 4677000   0.49302022   -9.0595102    516.21493 0.0091977573 0.0071116353         3947 
 4678000   0.50739684   -9.0666895    515.44774 0.0091821244 0.0071089183         3925 
 4679000   0.50696334   -9.0577842    516.68503 0.0092021983 0.0071062031         3944 
 4680000   0.50131349   -9.0519269    516.12027 0.0091901758  0.007103489         3928 
 4681000   0.50448047   -9.0767518    516.53366 0.0091955718 0.0071007761         3945 
 4682000   0.49733582   -9.0530904    515.73798 0.0091794458 0.0070980661         3924 
 4683000   0.49911685   -9.0636704    516.93158 0.0091987256 0.0070953565         3944 
 4684000   0.49633734   -9.0792433    515.74501 0.0091756513 0.0070926451         3945 
 4685000   0.50171052   -9.0659994    516.52701 0.0091876024 0.0070899372         3945 
 4686000   0.50632654   -9.0605166    515.96824 0.0091757049 0.0070872302         3938 
 4687000   0.50158898   -9.0582286    516.13962 0.0091767942 0.0070845234         3933 
 4688000   0.50029696   -9.0650433    516.35885 0.0091787338 0.0070818221         3927 
 4689000   0.50538221   -9.0728689    515.71215  0.009165283 0.0070791206         3936 
 4690000   0.51091721   -9.0720478    516.02042 0.0091688062 0.0070764191         3941 
 4691000   0.50896619   -9.0635461    515.29517 0.0091539681  0.007073719         3931 
 4692000   0.49251018   -9.0764414    516.15081 0.0091672139 0.0070710189         3943 
 4693000   0.49410069   -9.0718655    516.39019 0.0091695112 0.0070683227         3923 
 4694000   0.50726811   -9.0641693    515.48262 0.0091514454  0.007065627         3935 
 4695000   0.49927513   -9.0757365    515.48574 0.0091495517 0.0070629335         3945 
 4696000   0.50355786   -9.0740707    515.55788 0.0091488835 0.0070602396         3947 
 4697000   0.49608432   -9.0816792    515.75043 0.0091503519 0.0070575478         3945 
 4698000   0.49486295   -9.0688544    516.19528 0.0091562948 0.0070548572         3938 
 4699000   0.50180932    -9.067364    515.48751 0.0091417945 0.0070521681         3948 
 4700000   0.50531274   -9.0737326    515.62794 0.0091423394 0.0070494801         3949 
 4701000   0.49203183   -9.0740579    515.24654 0.0091336336 0.0070467956         3946 
 4702000   0.51390174   -9.0660343    516.37678 0.0091517222 0.0070441126         3936 
 4703000   0.49871241   -9.0563748    515.94188 0.0091420703 0.0070414297         3954 
 4704000   0.48782625   -9.0726313    515.72982 0.0091363702 0.0070387473         3936 
 4705000   0.49314224   -9.0558709    515.46865 0.0091298025 0.0070360657         3942 
 4706000   0.50306507   -9.0582836    516.16702 0.0091402291 0.0070333878         3941 
 4707000   0.50499663   -9.0826996    515.44588 0.0091255202 0.0070307113         3947 
 4708000   0.49576454    -9.074025    516.05464 0.0091343571 0.0070280353         3951 
 4709000   0.50750973   -9.0748916    515.98353 0.0091311589 0.0070253616         3945 
 4710000   0.49278358    -9.069751    516.16706 0.0091324674 0.0070226857         3938 
 4711000    0.4941037    -9.083594    514.87156 0.0091076127 0.0070200124         3944 
 4712000   0.50022688   -9.0797796      516.446 0.0091335243 0.0070173397         3930 
 4713000   0.49799529   -9.0536072    515.91658 0.0091222255 0.0070146702         3926 
 4714000   0.50114527   -9.0867461    516.78863 0.0091357063 0.0070120013         3956 
 4715000    0.5053735   -9.0666077    515.89338  0.009117946 0.0070093345         3924 
 4716000   0.50454995   -9.0565051    515.48231 0.0091087487 0.0070066704         3945 
 4717000   0.48747284   -9.0810397    515.59342 0.0091087806 0.0070040066         3941 
 4718000   0.50797041   -9.0811512    516.09736 0.0091157511 0.0070013436         3940 
 4719000   0.49949747   -9.0668311    516.82365  0.009126645  0.006998683         3926 
 4720000   0.49032166   -9.0823773    515.93333 0.0091089924 0.0069960242         3936 
 4721000   0.49407515   -9.0638193    516.32206 0.0091139247 0.0069933645         3919 
 4722000   0.49311314   -9.0819209    516.52572 0.0091155887 0.0069907078         3954 
 4723000   0.49698246   -9.0836011    515.40871 0.0090939499 0.0069880524         3945 
 4724000   0.49698317   -9.0817554    515.74654 0.0090979845 0.0069853991         3947 
 4725000    0.4872337   -9.0655741    515.16471 0.0090857973 0.0069827466         3939 
 4726000   0.49508171   -9.0865531    515.49678 0.0090897302 0.0069800943         3937 
 4727000   0.49954061   -9.0645175    516.39794  0.009103694 0.0069774416         3945 
 4728000   0.49807874     -9.08244    516.69463 0.0091069978 0.0069747928         3939 
 4729000   0.50137053    -9.069902    516.16456 0.0090957313 0.0069721446         3952 
 4730000   0.48409045   -9.0705501    515.44746 0.0090811745 0.0069694999         3930 
 4731000   0.49214581    -9.070364    515.31728 0.0090769619  0.006966857         3938 
 4732000   0.48720488    -9.061211    516.47254 0.0090953884 0.0069642138         3947 
 4733000   0.49613145   -9.0894922    515.33643 0.0090734634  0.006961571         3955 
 4734000   0.49160419    -9.085999    515.87538 0.0090810339 0.0069589309         3937 
 4735000   0.48929317   -9.0740114    515.93387 0.0090801456 0.0069562925         3940 
 4736000   0.49122315   -9.0847809    515.70773 0.0090742492 0.0069536541         3939 
 4737000   0.49318927   -9.0635655    515.31407 0.0090654084 0.0069510159         3949 
 4738000   0.49306597   -9.0615157    516.32122  0.009081209 0.0069483813         3933 
 4739000   0.49558165   -9.0728667    515.55906 0.0090658904  0.006945746         3942 
 4740000   0.48961551   -9.0687578    515.46851 0.0090623859 0.0069431135         3949 
 4741000   0.48996959   -9.0731877    516.07555 0.0090711445 0.0069404822         3953 
 4742000   0.49700671   -9.0765283    516.09926 0.0090696483 0.0069378528         3950 
 4743000   0.49381559   -9.0784424    515.57347 0.0090584979 0.0069352244         3937 
 4744000   0.49788476   -9.0759028    515.85143 0.0090614712  0.006932598         3933 
 4745000    0.4981522   -9.0921996    515.92732 0.0090608942 0.0069299727         3945 
 4746000   0.49467478   -9.0816088    516.14508 0.0090628088 0.0069273471         3937 
 4747000   0.49179754   -9.0815626    515.48302 0.0090492771 0.0069247222         3939 
 4748000   0.48081988   -9.0747834    515.76402  0.009052303 0.0069221031         3951 
 4749000   0.49487281   -9.0834207     515.6289 0.0090480259  0.006919484         3944 
 4750000   0.48751871   -9.0794739    515.23175 0.0090391535 0.0069168653         3941 
 4751000   0.49027821   -9.0794767    515.11948 0.0090352816 0.0069142493         3948 
 4752000   0.49351196   -9.0830773    515.64267 0.0090425552 0.0069116355         3944 
 4753000   0.49149719   -9.0707986    516.55416 0.0090566336  0.006909019         3935 
 4754000   0.49179463   -9.0680628    515.65755  0.009039012 0.0069064074         3931 
 4755000   0.48947011   -9.0775542    515.50662 0.0090344659 0.0069037956         3944 
 4756000   0.48794596    -9.069167    516.00213 0.0090412485 0.0069011831         3935 
 4757000   0.48578641    -9.074388    515.26746 0.0090264779 0.0068985735         3936 
 4758000   0.49111767   -9.0837158    515.51472 0.0090289114 0.0068959637         3922 
 4759000    0.4881746   -9.0653219    516.37001 0.0090419908 0.0068933576         3936 
 4760000   0.49743792   -9.0687313     515.7633 0.0090294696 0.0068907535         3938 
 4761000   0.50375437   -9.0903871    515.97426 0.0090312654 0.0068881506         3937 
 4762000     0.495444   -9.0818195    515.75731 0.0090255724 0.0068855476         3947 
 4763000   0.49896725    -9.079781    515.11083 0.0090123666  0.006882944         3947 
 4764000   0.46966608    -9.070878    515.25575 0.0090130099 0.0068803431         3922 
 4765000   0.49116841   -9.0833263    515.86462 0.0090217667 0.0068777442         3942 
 4766000   0.48827645   -9.0914177    516.23946 0.0090264278 0.0068751466         3943 
 4767000   0.49036621   -9.0978371    515.06081   0.00900393 0.0068725508         3935 
 4768000   0.48716501   -9.0891511    515.83118 0.0090155057 0.0068699538         3952 
 4769000   0.49003459   -9.0812449    515.93917 0.0090155023 0.0068673613         3946 
 4770000   0.47813374   -9.0759865    515.70156 0.0090094612 0.0068647677         3951 
 4771000   0.48053564   -9.0852303    515.55338 0.0090049846  0.006862176         3943 
 4772000   0.49543897   -9.0832105    516.23299 0.0090149657 0.0068595862         3927 
 4773000   0.49561064   -9.0950509    515.42504 0.0089989706 0.0068569972         3932 
 4774000   0.49294328   -9.0841457    515.80066 0.0090036424 0.0068544101         3949 
 4775000   0.48030077   -9.0959457    514.87124 0.0089855366 0.0068518224         3943 
 4776000   0.48435913   -9.0808362    515.37117 0.0089923781 0.0068492386         3947 
 4777000   0.49381804   -9.0996289     515.1309 0.0089863042 0.0068466559         3952 
 4778000   0.47989668    -9.087126    515.55431  0.008991808  0.006844074         3930 
 4779000   0.48316843   -9.0956253    515.28141 0.0089851679 0.0068414925         3923 
 4780000   0.48955377   -9.1010316    516.01735 0.0089961183 0.0068389141         3935 
 4781000   0.48209092   -9.0821039    515.37793 0.0089830915 0.0068363347         3952 
 4782000   0.48340067   -9.1029356     515.3323 0.0089804178 0.0068337571         3940 
 4783000   0.48208388   -9.0873454    515.41039 0.0089799009 0.0068311809         3950 
 4784000   0.48681978   -9.0903257     515.9149 0.0089868119 0.0068286056         3941 
 4785000   0.48727736   -9.0943805    514.85307 0.0089664416 0.0068260316         3949 
 4786000   0.49267301   -9.0862425    515.28673 0.0089721188 0.0068234593         3940 
 4787000   0.48385827   -9.0723608    515.53342  0.008974539   0.00682089         3933 
 4788000   0.48877807   -9.0847191    515.68266 0.0089752621 0.0068183208         3942 
 4789000   0.49210636   -9.1008693    515.60119 0.0089719703 0.0068157515         3937 
 4790000   0.48865071   -9.0904009    515.49517 0.0089682527 0.0068131861         3936 
 4791000   0.48364483   -9.0878314    515.20937 0.0089614098 0.0068106218         3954 
 4792000   0.48044707   -9.1070931    515.65106 0.0089672207 0.0068080567         3945 
 4793000   0.48476888    -9.075839    516.28756 0.0089764163 0.0068054943         3948 
 4794000   0.49410416   -9.1107109    515.08293 0.0089536039 0.0068029326         3950 
 4795000   0.49359112   -9.0874288    515.93719 0.0089665831 0.0068003723         3952 
 4796000   0.48409639   -9.1022767    514.80269 0.0089450009 0.0067978135         3935 
 4797000   0.48538467   -9.1032445    514.91738 0.0089451286 0.0067952555         3931 
 4798000    0.4832111   -9.0782997    515.74955 0.0089577177 0.0067926994         3946 
 4799000   0.48410507   -9.0802921    515.22596 0.0089467591 0.0067901438         3946 
 4800000   0.48643725     -9.09162    515.72497 0.0089535585 0.0067875918         3956 
 4801000   0.48936241    -9.098611    514.76251 0.0089349877 0.0067850415         3952 
 4802000   0.46879371   -9.0919325    515.65799 0.0089486671 0.0067824894         3953 
 4803000    0.4902912   -9.0932353    515.47837 0.0089436875 0.0067799397         3965 
 4804000    0.4832109   -9.0990783    514.76903  0.008929521  0.006777393         3945 
 4805000   0.47616732   -9.0997523    514.40559 0.0089213594  0.006774845         3942 
 4806000   0.47264555   -9.0842567    514.71189 0.0089248144 0.0067722984         3937 
 4807000   0.48959696   -9.0938909    515.40883 0.0089350397 0.0067697537         3948 
 4808000   0.49874848   -9.0930422    515.91148 0.0089418933 0.0067672136         3945 
 4809000   0.48004688   -9.0871444     516.2692 0.0089462328 0.0067646725         3940 
 4810000   0.49030198    -9.098986    514.79953 0.0089189108 0.0067621324         3949 
 4811000   0.47869134   -9.0813411    515.64535 0.0089317077 0.0067595939         3951 
 4812000    0.4933972   -9.0974361    515.04048 0.0089193765 0.0067570569         3945 
 4813000   0.48266059   -9.0874422    515.46131 0.0089248097 0.0067545202         3949 
 4814000   0.48032274    -9.102906    514.66269 0.0089091311 0.0067519847         3942 
 4815000   0.49201487   -9.0964598    515.09759 0.0089148077 0.0067494508         3947 
 4816000   0.47843457   -9.1034439    514.50467 0.0089026971 0.0067469176         3949 
 4817000   0.47807301   -9.1133863    515.24124 0.0089135915 0.0067443854         3949 
 4818000   0.48363621     -9.09352    515.03009 0.0089080893 0.0067418549         3945 
 4819000    0.4853572   -9.1016803    514.82115 0.0089026276 0.0067393262         3944 
 4820000   0.48812234   -9.1007223    514.66433 0.0088980693 0.0067367995         3951 
 4821000   0.48172267   -9.0713086    515.36927 0.0089084088 0.0067342738         3943 
 4822000   0.47875695   -9.1063021    515.55183 0.0089097164 0.0067317481         3946 
 4823000   0.48174704   -9.1084292    515.17039 0.0089012785 0.0067292249         3958 
 4824000   0.48294312   -9.1051005    514.04903 0.0088800621 0.0067266998         3942 
 4825000   0.48440622   -9.0831344    514.54938 0.0088868632 0.0067241789         3946 
 4826000   0.48353468   -9.0957749    514.80928 0.0088895096 0.0067216607         3944 
 4827000   0.47876118   -9.1055235    515.21987 0.0088947565  0.006719143         3954 
 4828000   0.48165219   -9.1023271    515.56643 0.0088988959 0.0067166263         3944 
 4829000   0.48589974   -9.1052947    514.94948 0.0088864065 0.0067141095         3941 
 4830000   0.48115334   -9.0887211    515.53477 0.0088946648 0.0067115933         3937 
 4831000   0.47433763   -9.1113419     514.5603 0.0088760143  0.006709079         3943 
 4832000     0.480918   -9.0993904    514.72197 0.0088769656 0.0067065665         3943 
 4833000   0.48427564    -9.110114    514.97446 0.0088794824 0.0067040541         3932 
 4834000    0.4786858   -9.0902428    515.39219 0.0088848468 0.0067015456         3947 
 4835000   0.47122241   -9.0771733    515.39419 0.0088830435 0.0066990371         3943 
 4836000   0.47447846   -9.0945788    516.18648 0.0088948594 0.0066965325         3946 
 4837000   0.47867789   -9.0975324    515.31797 0.0088780576 0.0066940246         3931 
 4838000   0.47483296   -9.0922977    515.27736 0.0088755229 0.0066915196         3943 
 4839000   0.47771921   -9.1101095    514.70498 0.0088638318 0.0066890168         3949 
 4840000   0.47146798   -9.1045109    514.58019 0.0088598518 0.0066865142         3950 
 4841000   0.48244475   -9.0888665    515.23155 0.0088692342 0.0066840135         3950 
 4842000   0.47785675   -9.1031783    514.87952 0.0088613438 0.0066815127         3934 
 4843000   0.48008564   -9.1190661    514.81196 0.0088583516 0.0066790146         3946 
 4844000   0.47195245   -9.1065542    515.60489 0.0088701639 0.0066765176         3964 
 4845000   0.47408017   -9.1078806    515.02463 0.0088583528 0.0066740208         3942 
 4846000   0.47596089   -9.1086744    514.81692  0.008852953 0.0066715242         3926 
 4847000   0.47292796   -9.0881192    515.32714 0.0088598985 0.0066690323         3955 
 4848000   0.47556821   -9.0984482    516.08592 0.0088711138 0.0066665416         3929 
 4849000   0.48244622   -9.1053646    515.69107 0.0088624986 0.0066640503         3941 
 4850000   0.47281481   -9.0862858    515.02427 0.0088492143 0.0066615596         3932 
 4851000   0.47319421   -9.0914393    514.91251 0.0088454702 0.0066590694         3945 
 4852000   0.47384129   -9.1154969     515.5992 0.0088554411 0.0066565832         3944 
 4853000   0.47311146   -9.1140554    514.32017 0.0088316535 0.0066540982         3944 
 4854000    0.4733959   -9.1093612    515.68943 0.0088533413 0.0066516131         3953 
 4855000   0.47071435   -9.1037917    514.77822 0.0088358775 0.0066491294         3945 
 4856000   0.47943203   -9.1063983    515.97756 0.0088546397 0.0066466478         3942 
 4857000     0.478982   -9.1059266    515.50529 0.0088447137 0.0066441675         3936 
 4858000   0.47847974   -9.1026604    515.64226 0.0088452425 0.0066416876         3947 
 4859000   0.46903921   -9.1009403    514.87897 0.0088303316  0.006639209         3940 
 4860000   0.47039415   -9.1023917     515.2575 0.0088350051 0.0066367334         3932 
 4861000   0.48010644   -9.1102163    514.97871 0.0088284083 0.0066342581         3944 
 4862000   0.47186026   -9.1247981    514.42033  0.008817022 0.0066317818         3941 
 4863000    0.4776751   -9.1088072    514.70116 0.0088200212 0.0066293084         3939 
 4864000   0.46603724   -9.1092633    514.54297 0.0088154977 0.0066268366         3936 
 4865000   0.47205343   -9.1170741    514.98129 0.0088211937 0.0066243657         3937 
 4866000   0.47854231   -9.1047476     515.3545 0.0088257724 0.0066218973         3935 
 4867000   0.47621185   -9.1049818    515.20387 0.0088213799  0.006619428         3947 
 4868000   0.47234246   -9.0999896    515.58407 0.0088260763   0.00661696         3937 
 4869000   0.46875621   -9.1005382    515.21914 0.0088180178 0.0066144937         3932 
 4870000   0.47885497   -9.1021629    514.51062 0.0088040832 0.0066120313         3937 
 4871000   0.47127717   -9.0979873    514.70249 0.0088055583 0.0066095661         3940 
 4872000   0.47094069   -9.1045377    514.39766 0.0087985369 0.0066071023         3942 
 4873000   0.46568298   -9.1002046    514.73013 0.0088024169 0.0066046429         3937 
 4874000    0.4742727   -9.1143286     515.1668 0.0088080769  0.006602183         3949 
 4875000   0.47555418   -9.1072042    515.37116 0.0088097635  0.006599722         3950 
 4876000   0.46742594   -9.1092976    515.51917 0.0088104862 0.0065972642         3952 
 4877000   0.47100447   -9.1279031    514.45939 0.0087905713 0.0065948064         3942 
 4878000   0.46751699    -9.115321    514.31023 0.0087862209 0.0065923499         3929 
 4879000   0.47286893   -9.1103286    514.64141 0.0087900768 0.0065898953         3949 
 4880000   0.47206324    -9.106482    514.39959 0.0087841461 0.0065874424         3936 
 4881000   0.47585096   -9.1153425    515.18598 0.0087957724 0.0065849894         3932 
 4882000   0.46311649   -9.1031106    515.10769 0.0087926343 0.0065825382         3949 
 4883000    0.4625801   -9.1278501    514.80174 0.0087856123 0.0065800883         3931 
 4884000   0.45935492   -9.1089071    515.54688 0.0087965275 0.0065776407         3945 
 4885000   0.46329005   -9.1099953    515.57847 0.0087952655 0.0065751947         3952 
 4886000   0.47152168   -9.1013965    515.15581 0.0087862568 0.0065727465         3934 
 4887000    0.4536523   -9.1162531    514.61966 0.0087753165 0.0065703022         3939 
 4888000   0.46536785   -9.1113145    514.77472 0.0087761648 0.0065678577         3943 
 4889000   0.47287033   -9.1107352     514.6293  0.008771891 0.0065654156         3942 
 4890000   0.47583339   -9.1181222    514.78282 0.0087727134 0.0065629747         3951 
 4891000   0.47051285   -9.1264474    514.90074 0.0087729289  0.006560535         3938 
 4892000   0.47511254   -9.1175187    515.36774 0.0087790908  0.006558096         3938 
 4893000    0.4676493   -9.0965345    514.46827 0.0087619776 0.0065556581         3943 
 4894000   0.46928258   -9.1054093    515.33298 0.0087749112 0.0065532232         3925 
 4895000   0.47220947   -9.1236059    515.20355 0.0087709151 0.0065507898         3945 
 4896000   0.47528459   -9.1047695    513.58403 0.0087415582 0.0065483555         3951 
 4897000   0.46138207   -9.1014796    514.76573 0.0087598824 0.0065459228         3939 
 4898000   0.47076434   -9.1259171    514.64439 0.0087560295 0.0065434923         3958 
 4899000   0.46482008    -9.111645    515.05155 0.0087611681 0.0065410625         3955 
 4900000   0.47392175   -9.0992273    514.94666 0.0087575963 0.0065386327         3946 
 4901000   0.46312351   -9.1045551    514.62531 0.0087503453 0.0065362066         3946 
 4902000   0.46790307   -9.1066224    514.06929  0.008739108 0.0065337792         3951 
 4903000   0.46622288   -9.1224293    513.97166 0.0087356662 0.0065313535         3947 
 4904000   0.46576798    -9.126935    514.85332 0.0087488668 0.0065289307         3945 
 4905000   0.46938471   -9.1379545    515.65491 0.0087607019  0.006526508         3943 
 4906000   0.47340799    -9.109731    514.87111 0.0087456024 0.0065240885         3945 
 4907000   0.47142048   -9.1249416    514.90794 0.0087444458 0.0065216673         3953 
 4908000   0.46008033   -9.1221097    514.59291  0.008737315 0.0065192476         3950 
 4909000   0.47139251   -9.1166244    515.09362 0.0087440351 0.0065168302         3948 
 4910000   0.47131307   -9.1169739    514.50256 0.0087322227 0.0065144149         3931 
 4911000   0.46641078   -9.1048862    515.16843 0.0087417435 0.0065120002         3952 
 4912000   0.46900267   -9.1172175    515.54495 0.0087463516  0.006509587         3940 
 4913000   0.47266136   -9.1136878    513.72086 0.0087136315 0.0065071733         3950 
 4914000   0.46851633   -9.1188118    513.98197 0.0087162863 0.0065047629         3938 
 4915000   0.46734837   -9.1188401    514.97698 0.0087313833  0.006502353         3948 
 4916000   0.47663269   -9.1189399     514.9775 0.0087296159 0.0064999442         3950 
 4917000   0.46863285   -9.1217015    515.11296 0.0087301363 0.0064975372         3939 
 4918000   0.46062708   -9.1155821    514.50081 0.0087179886 0.0064951311         3941 
 4919000   0.46172644   -9.1234557    514.61126 0.0087180873 0.0064927265         3958 
 4920000   0.46487707    -9.119855    514.25715 0.0087103176 0.0064903223         3956 
 4921000   0.46439729    -9.118144    514.81297   0.00871796 0.0064879195         3943 
 4922000   0.46184311   -9.1140189    514.42227 0.0087095738 0.0064855185         3960 
 4923000   0.46210343   -9.1070807     513.9428 0.0086996885 0.0064831175         3947 
 4924000    0.4620104   -9.1229914    514.61633 0.0087093205 0.0064807175         3962 
 4925000   0.45314611   -9.1243621    514.01084 0.0086973069 0.0064783201         3946 
 4926000   0.46833783   -9.1126426    514.69961 0.0087071933 0.0064759228         3956 
 4927000   0.45934632   -9.1090387    514.51346 0.0087022775  0.006473528         3952 
 4928000    0.4672048   -9.1122924    514.52676 0.0087007366 0.0064711323         3945 
 4929000    0.4536407   -9.1294756    514.23024 0.0086939582 0.0064687378         3947 
 4930000   0.46104972   -9.1128501    514.49905 0.0086967386 0.0064663455         3949 
 4931000   0.46344282   -9.1054695    514.05859 0.0086875311  0.006463953         3939 
 4932000   0.46645763   -9.1177208    514.42116 0.0086918958 0.0064615634         3952 
 4933000   0.46628619   -9.1182418    514.33375 0.0086886571 0.0064591753         3941 
 4934000   0.45727283   -9.1176951    514.39469 0.0086879254 0.0064567884         3930 
 4935000   0.46307716   -9.1218093    514.66532 0.0086907349 0.0064544015         3945 
 4936000   0.46241159   -9.1163791    515.23422 0.0086985788 0.0064520167         3934 
 4937000   0.46054711    -9.111126    514.64477 0.0086868674 0.0064496323         3951 
 4938000   0.45969319   -9.1061184    514.80079 0.0086877412 0.0064472502         3953 
 4939000   0.46377665   -9.1089884    514.31353 0.0086777609 0.0064448688         3949 
 4940000    0.4746907   -9.1209231    513.95929 0.0086700285 0.0064424885         3933 
 4941000   0.46054953     -9.12885    514.71922 0.0086810905  0.006440109         3951 
 4942000   0.46572227   -9.1304109    514.95692 0.0086833421 0.0064377315         3942 
 4943000   0.46427698   -9.1227328    514.26461 0.0086699139 0.0064353543         3933 
 4944000    0.4590952   -9.1249589    514.61053 0.0086739908 0.0064329786         3937 
 4945000   0.46196286   -9.1323857    514.57937 0.0086717117 0.0064306047         3943 
 4946000   0.46557156   -9.1280597    513.37816 0.0086497197 0.0064282298         3946 
 4947000    0.4608483   -9.1391619     514.6593 0.0086695522 0.0064258581         3942 
 4948000   0.45038456   -9.1199494    514.25368 0.0086609687 0.0064234881         3942 
 4949000   0.45575916   -9.1207909    514.56421 0.0086644475 0.0064211191         3949 
 4950000   0.45769328   -9.1287331    514.06952 0.0086543691 0.0064187501         3938 
 4951000   0.44638944   -9.1233805    513.96064 0.0086507884 0.0064163811         3941 
 4952000   0.44897563   -9.1191223    514.00904  0.008649856  0.006414014         3948 
 4953000   0.46564603   -9.1351869    514.51976 0.0086567024 0.0064116489         3948 
 4954000   0.46230276   -9.1282731    513.99354 0.0086461032 0.0064092854         3944 
 4955000   0.45978827   -9.1218271    513.96697 0.0086439114 0.0064069244         3955 
 4956000   0.46236753   -9.1162894    514.10359 0.0086444644 0.0064045628         3948 
 4957000   0.45798593   -9.1244621    514.84087 0.0086551151 0.0064022035         3939 
 4958000   0.45442274   -9.1396675    514.43764  0.008646592 0.0063998445         3938 
 4959000   0.46095159   -9.1332055    514.54686 0.0086466837 0.0063974871         3942 
 4960000   0.45294106   -9.1213697    513.40909 0.0086258247 0.0063951298         3940 
 4961000   0.46318927   -9.1367852    513.85432 0.0086315649  0.006392774         3947 
 4962000   0.45492229   -9.1384288    513.53323 0.0086244328 0.0063904186         3948 
 4963000   0.45199468   -9.1215726    514.15587 0.0086331498  0.006388065         3925 
 4964000   0.45983786   -9.1334781    514.65495  0.008639789 0.0063857136         3934 
 4965000   0.46133957   -9.1243015      514.013 0.0086272742 0.0063833618         3949 
 4966000   0.44806353   -9.1252797     514.0901 0.0086268308 0.0063810114         3948 
 4967000    0.4559639   -9.1209673    513.86451 0.0086213091 0.0063786642         3948 
 4968000   0.45483723   -9.1259441    514.46286 0.0086296105 0.0063763178         3945 
 4969000   0.45284464   -9.1196754     515.0404 0.0086375595 0.0063739697         3945 
 4970000   0.45858298   -9.1548527    514.78934  0.008631612 0.0063716249         3949 
 4971000    0.4528296   -9.1403492    514.74751 0.0086291743 0.0063692799         3950 
 4972000   0.45651669   -9.1228333    514.23988 0.0086189307  0.006366936         3923 
 4973000   0.46884773   -9.1189285    514.50302  0.008621607 0.0063645946         3925 
 4974000   0.45826344   -9.1326843    513.73844  0.008607064 0.0063622555         3942 
 4975000   0.46922538    -9.134835      514.868 0.0086242546 0.0063599157         3948 
 4976000   0.45059166     -9.12813     514.5588 0.0086173432 0.0063575781         3954 
 4977000   0.44336112   -9.1368911    514.20781 0.0086097349 0.0063552407         3936 
 4978000   0.45889036   -9.1155816    514.31804 0.0086098507  0.006352905         3945 
 4979000   0.45289751   -9.1284564    514.07674 0.0086040828 0.0063505702         3947 
 4980000   0.45567229   -9.1290494    514.17589 0.0086040142 0.0063482361         3939 
 4981000    0.4505467   -9.1105891    513.55574 0.0085919117 0.0063459028         3950 
 4982000   0.46407278   -9.1352676    514.13001 0.0085997928 0.0063435719         3935 
 4983000   0.45688319   -9.1352394    514.81306   0.00860949 0.0063412403         3939 
 4984000   0.45377209   -9.1276744    514.83785 0.0086081769  0.006338912         3954 
 4985000   0.45829162   -9.1278231    514.05563  0.008593374 0.0063365847         3948 
 4986000   0.46153734   -9.1370503    514.24338 0.0085947884 0.0063342568         3945 
 4987000    0.4531956   -9.1278415     513.7111 0.0085841705 0.0063319315         3943 
 4988000   0.45151685   -9.1366024    514.20693 0.0085907332 0.0063296077         3942 
 4989000   0.45989308   -9.1315618    513.82502 0.0085826321 0.0063272827         3936 
 4990000   0.44933591   -9.1366034    514.17277 0.0085867196   0.00632496         3944 
 4991000    0.4451116   -9.1328488    514.50798 0.0085905961 0.0063226399         3951 
 4992000   0.45790135   -9.1433542    514.40822 0.0085872099 0.0063203208         3950 
 4993000   0.45421972   -9.1546656    514.90967 0.0085938593 0.0063180028         3939 
 4994000   0.46069221   -9.1251469    513.75343 0.0085728445 0.0063156857         3942 
 4995000   0.45375391   -9.1248066    515.02989 0.0085924239 0.0063133705         3942 
 4996000   0.45402011    -9.132433    514.45614  0.008581134 0.0063110555         3950 
 4997000   0.45792643   -9.1411067    513.79887 0.0085684555 0.0063087431         3939 
 4998000   0.45275882   -9.1427856    513.98949 0.0085699194 0.0063064303         3937 
 4999000   0.45920973   -9.1490005    514.30259 0.0085734245 0.0063041183         3932 
 5000000   0.45552919   -9.1348512     514.3318 0.0085721966 0.0063018072         3935 
 5001000   0.46003543   -9.1494239      513.821  0.008561971  0.006299499         3944 
 5002000   0.43702632   -9.1427751    514.60195 0.0085732698 0.0062971897         3947 
 5003000   0.44715306   -9.1336585    513.82606 0.0085586325 0.0062948818         3941 
 5004000   0.46192601   -9.1379738     514.0913 0.0085613393 0.0062925756         3955 
 5005000   0.45468813   -9.1411899    513.55084   0.00855063 0.0062902729         3952 
 5006000   0.44841453   -9.1399745    512.36445 0.0085291724 0.0062879681         3945 
 5007000   0.44974014   -9.1467337    513.80862 0.0085515048  0.006285665         3948 
 5008000   0.45538545   -9.1418633    513.75883 0.0085489687 0.0062833627         3944 
 5009000   0.45969889   -9.1501085    514.10958 0.0085530975 0.0062810631         3945 
 5010000   0.45556698   -9.1500612     513.6705 0.0085440869 0.0062787632         3946 
 5011000    0.4562391   -9.1399802    513.34392 0.0085369507 0.0062764664         3943 
 5012000    0.4482037   -9.1342859    514.14868  0.008548628 0.0062741689         3942 
Loop time of 13528.6 on 48 procs for 5000000 steps with 4000 atoms

Performance: 63864.814 tau/day, 369.588 timesteps/s
99.4% CPU use with 48 MPI tasks x no OpenMP threads

MPI task timing breakdown:
Section |  min time  |  avg time  |  max time  |%varavg| %total
---------------------------------------------------------------
Pair    | 992.85     | 1125.4     | 1230.5     | 176.0 |  8.32
Neigh   | 95.702     | 99.204     | 103        |  18.8 |  0.73
Comm    | 825.54     | 951.99     | 1091.4     | 201.3 |  7.04
Output  | 21.55      | 21.556     | 21.669     |   0.4 |  0.16
Modify  | 11160      | 11203      | 11273      |  26.9 | 82.81
Other   |            | 127        |            |       |  0.94

Nlocal:        83.3333 ave          89 max          76 min
Histogram: 1 2 4 4 8 3 15 7 0 4
Nghost:        2466.60 ave        2484 max        2450 min
Histogram: 1 2 8 8 5 9 5 6 3 1
Neighs:        17240.9 ave       19482 max       14890 min
Histogram: 3 3 7 6 5 6 3 5 6 4
FullNghs:      34481.2 ave       37043 max       31330 min
Histogram: 2 2 4 4 7 7 8 9 4 1

Total # of neighbors = 1655097
Ave neighs/atom = 413.77425
Neighbor list builds = 266080
Dangerous builds = 1

#clear
#
#next RN
#
#jump SELF
Total wall time: 3:45:32
