
units lj                  # Use reduced LJ style units
atom_style atomic         # Uncharged point particles
atom_modify map hash      # Needed for indexing of clusters etc
                          # Used to be able to find where atoms are in relation to each other.

lattice fcc 1.0 spacing 1 1 1
Lattice spacing in x,y,z = 1.5874011 1.5874011 1.5874011
region box block 0 10 0 10 0 10 units lattice
create_box 2 box
Created orthogonal box = (0.0000000 0.0000000 0.0000000) to (15.874011 15.874011 15.874011)
  3 by 4 by 4 MPI processor grid
create_atoms 1 box
Created 4000 atoms
  using lattice units in orthogonal box = (0.0000000 0.0000000 0.0000000) to (15.874011 15.874011 15.874011)
  create_atoms CPU = 0.021 seconds
set type 1 type/fraction 2 0.39 78393
Setting atom values ...
  1580 settings made for type/fraction
mass 1 1.0
mass 2 1.0
pair_style lj/cut  3.5
pair_modify tail  yes
pair_coeff 1  1  1.0  1.0   # Intearaction between 1 and 1 set with epsilon = 1 and sigma = 1
pair_coeff 1  2  1.5  0.8
pair_coeff 2  2  0.5  0.88

write_data data.0
System init for write_data ...
Neighbor list info ...
  update every 1 steps, delay 10 steps, check yes
  max neighbors/atom: 2000, page size: 100000
  master list distance cutoff = 3.8
  ghost atom cutoff = 3.8
  binsize = 1.9, bins = 9 9 9
  1 neighbor lists, perpetual/occasional/extra = 1 0 0
  (1) pair lj/cut, perpetual
      attributes: half, newton on
      pair build: half/bin/atomonly/newton
      stencil: half/bin/3d
      bin: standard
WARNING: Not all mixed pair coeffs generated from mixing. Use write_data with 'pair ij' option to store all pair coeffs. (../write_data.cpp:312)


#############################
#   M E L T   S Y S T E M   #
#############################

velocity all create 2.4 6583654 mom yes dist gaussian # Assign velocities
                                                    # Temperature 2.4, random number seed, zero linear momentum
                                                                                # Gaussian distribution

timestep 0.002   # simulation timestep
thermo 1000       # output thermodynamic data every 1000 steps bf 100

# Define a fix  in this case with index 1 applied to all
# particles in the simulation. This fix is for simulations
# in the anisotropic NPT ensemble. Note that we use the MTK
# correction.
fix 1 all npt temp 2.4 2.4 0.1 iso 5.68 5.68 0.5 mtk yes tchain 5 pchain 5 # Use NPT ensemble
                                                                         # Set temperature and pressure and damping
                                                                         # Numbers of thermostats in chain and in barostat
run 10000          # run for 10000 steps
Per MPI rank memory allocation (min/avg/max) = 3.642 | 3.644 | 3.648 Mbytes
Step Temp E_pair E_mol TotEng Press Volume 
       0          2.4   -5.9084669            0   -2.3093669   -4.1681406         4000 
    1000    2.4441985   -5.0486176            0   -1.3832364    5.5309043     3910.179 
    2000    2.3954208   -5.0553724            0   -1.4631396    5.5193009    3920.1489 
    3000    2.3933525   -5.0619033            0    -1.472772    5.4155882    3916.0769 
    4000    2.4404437   -5.0433078            0   -1.3835573    5.5384955    3923.1493 
    5000    2.3886736   -5.0519189            0   -1.4698043    5.3053364    3932.0269 
    6000    2.4053181   -5.0732737            0   -1.4661985    5.9306678    3871.0959 
    7000    2.4323419   -5.0260484            0   -1.3784477    5.3554124    3949.2182 
    8000    2.3455004   -5.0501719            0   -1.5328009     5.256158    3921.4285 
    9000    2.3546143   -5.0024097            0   -1.4713712    5.4910676    3927.9134 
   10000    2.4123889   -5.0266144            0   -1.4089357    5.9336659     3889.409 
Loop time of 2.49817 on 48 procs for 10000 steps with 4000 atoms

Performance: 691707.593 tau/day, 4002.937 timesteps/s
99.6% CPU use with 48 MPI tasks x no OpenMP threads

MPI task timing breakdown:
Section |  min time  |  avg time  |  max time  |%varavg| %total
---------------------------------------------------------------
Pair    | 1.086      | 1.1761     | 1.2589     |   4.0 | 47.08
Neigh   | 0.20314    | 0.21627    | 0.23079    |   1.2 |  8.66
Comm    | 0.76389    | 0.85089    | 0.97457    |   4.9 | 34.06
Output  | 0.00027002 | 0.00027706 | 0.0004583  |   0.0 |  0.01
Modify  | 0.20392    | 0.23916    | 0.26956    |   4.1 |  9.57
Other   |            | 0.01543    |            |       |  0.62

Nlocal:        83.3333 ave          91 max          74 min
Histogram: 1 4 3 2 7 14 3 9 2 3
Nghost:        1674.73 ave        1698 max        1647 min
Histogram: 2 0 2 10 7 9 7 2 7 2
Neighs:        9812.12 ave       10907 max        8415 min
Histogram: 1 2 7 2 4 9 9 6 6 2

Total # of neighbors = 470982
Ave neighs/atom = 117.74550
Neighbor list builds = 907
Dangerous builds = 223

# Equilibrate just above the melting temperature to avoid step fn in T

fix 1 all npt temp 1.25 1.25 0.1 iso 5.68 5.68 0.5 mtk yes tchain 5 pchain 5
run 2000
Per MPI rank memory allocation (min/avg/max) = 3.643 | 3.645 | 3.649 Mbytes
Step Temp E_pair E_mol TotEng Press Volume 
   10000    2.4123889   -5.0266144            0   -1.4089357    5.9336659     3889.409 
   11000    1.2510891   -7.0225938            0   -5.1464293    5.8223595    3103.5662 
   12000     1.261234   -7.0336159            0   -5.1422379    5.9937038    3092.8319 
Loop time of 0.593288 on 48 procs for 2000 steps with 4000 atoms

Performance: 582516.820 tau/day, 3371.046 timesteps/s
99.6% CPU use with 48 MPI tasks x no OpenMP threads

MPI task timing breakdown:
Section |  min time  |  avg time  |  max time  |%varavg| %total
---------------------------------------------------------------
Pair    | 0.27029    | 0.29126    | 0.313      |   1.8 | 49.09
Neigh   | 0.039212   | 0.041377   | 0.044269   |   0.5 |  6.97
Comm    | 0.18843    | 0.21178    | 0.23528    |   2.3 | 35.70
Output  | 5.1061e-05 | 5.1873e-05 | 6.5848e-05 |   0.0 |  0.01
Modify  | 0.039311   | 0.044097   | 0.051167   |   1.6 |  7.43
Other   |            | 0.004724   |            |       |  0.80

Nlocal:        83.3333 ave          89 max          76 min
Histogram: 1 2 0 8 11 3 13 4 0 6
Nghost:        1953.85 ave        1985 max        1925 min
Histogram: 1 1 9 5 8 9 9 3 1 2
Neighs:        12354.5 ave       13486 max       11039 min
Histogram: 1 2 4 8 6 7 6 10 1 3

Total # of neighbors = 593014
Ave neighs/atom = 148.25350
Neighbor list builds = 143
Dangerous builds = 13

#############################
# L I N E A R  Q U E N C H  #
#############################

# Define solid atoms. This closely follows ten Wolde  Ruiz-Montero and Frenkel  Faraday Discuss  1996  104  93-110
# Compute components of the per-atom q6 vector
compute q6 all orientorder/atom degrees 1 6 components 6 nnn NULL cutoff 1.3 # compute the Q6 parameter.
                                                                             # Use all neighbours within 1.3 unit cell.

# get number of connections
compute coord_number all coord/atom orientorder q6 0.5

# An atom is solid if it has 8 or more connections (of a possible 14)
variable is_solid atom c_coord_number>=8
group solid dynamic all var is_solid    # Must be dynamic to update
dynamic group solid defined

# do clustering
compute cluster solid cluster/atom 1.3 # Create a cluster where all atoms within are solid and max 1.3 units from another member

# define chunks one chunk per cluster
compute clus_chunks solid chunk/atom c_cluster nchunk every compress yes  # Says which atoms are in which chunk

# count the size of each chunk
compute size_chunks solid property/chunk clus_chunks count


# Find the maximum entry in the vector of chunk sizes
variable max_n equal max(c_size_chunks)


# Thermo style which includes this variable
# thermo_style custom step temp pe vol v_max_n

thermo ${N}  # Print the thermo information every 100 steps
thermo 1000  

# Reset the npt fix at a lower temperature (below freezing)
fix 1  all npt temp  ${temp} ${temp}  0.1  iso  5.68  5.68  0.5  mtk yes tchain  5  pchain  5
fix 1  all npt temp  0.45 ${temp}  0.1  iso  5.68  5.68  0.5  mtk yes tchain  5  pchain  5
fix 1  all npt temp  0.45 0.45  0.1  iso  5.68  5.68  0.5  mtk yes tchain  5  pchain  5

dump dmp2 all dcd ${N} traj.dcd
dump dmp2 all dcd 1000 traj.dcd


compute msd all msd com yes
variable twopoint equal c_msd[4]/6/(step*dt+1.0e-6)
fix 9 all vector 10 c_msd[4]
variable fit equal slope(f_9)/6/(10*dt)
thermo_style custom step temp pe c_msd[4] v_twopoint v_fit v_max_n

fix 1 all npt temp 1.25 ${temp} 0.1 iso 5.68 5.68 0.5 mtk yes tchain 5 pchain 5
fix 1 all npt temp 1.25 0.45 0.1 iso 5.68 5.68 0.5 mtk yes tchain 5 pchain 5
run 2000000 # 5000000  # Run for this many steps
Neighbor list info ...
  update every 1 steps, delay 10 steps, check yes
  max neighbors/atom: 2000, page size: 100000
  master list distance cutoff = 3.8
  ghost atom cutoff = 3.8
  binsize = 1.9, bins = 8 8 8
  4 neighbor lists, perpetual/occasional/extra = 1 3 0
  (1) pair lj/cut, perpetual
      attributes: half, newton on
      pair build: half/bin/atomonly/newton
      stencil: half/bin/3d
      bin: standard
  (2) compute orientorder/atom, occasional
      attributes: full, newton on
      pair build: full/bin/atomonly
      stencil: full/bin/3d
      bin: standard
  (3) compute coord/atom, occasional
      attributes: full, newton on
      pair build: full/bin/atomonly
      stencil: full/bin/3d
      bin: standard
  (4) compute cluster/atom, occasional
      attributes: full, newton on
      pair build: full/bin/atomonly
      stencil: full/bin/3d
      bin: standard
Per MPI rank memory allocation (min/avg/max) = 9.824 | 9.829 | 9.835 Mbytes
Step Temp PotEng c_msd[4] v_twopoint v_fit v_max_n 
   12000     1.261234   -7.0336159 1.0420853e-30 7.2367029e-33 8.3333333e+20            1 
   13000    1.2607792    -7.027943   0.46037701 0.0029511346  0.036794098            5 
   14000    1.2554736    -7.110778   0.91436597 0.0054426544  0.037691459            2 
   15000    1.2753388   -7.0862597    1.3326836 0.0074037974  0.036904901            1 
   16000    1.2712777   -7.1336478    1.7002524 0.0088554809  0.035879646            1 
   17000    1.2760956   -7.0841762    2.1140414  0.010362948  0.034912788            1 
   18000    1.2636173   -7.0570353    2.5629562  0.011865537  0.034707377            2 
   19000    1.2328128   -7.0937817    2.9879639  0.013105104  0.034793867            2 
   20000    1.2289248   -7.0729469    3.4560942  0.014400392  0.035011068            2 
   21000    1.2275397   -7.1144842    3.9149232  0.015535409  0.035349492            4 
   22000    1.2565011   -7.0726232    4.4221266  0.016750479  0.035878686            3 
   23000    1.2358709   -7.1074919    4.7788104   0.01731453  0.036173334            1 
   24000    1.2202567   -7.0813258     5.304712  0.018419139  0.036352477            2 
   25000    1.2340747   -7.1024734    5.7116364  0.019038788  0.036469042            2 
   26000    1.2547496   -7.0822819    6.2018999  0.019877884  0.036606818            2 
   27000    1.2740256   -7.1344944    6.6123336  0.020408437  0.036740434            1 
   28000    1.2417367   -7.1223531    6.9828122  0.020782179  0.036742902            1 
   29000    1.2519491   -7.1141629    7.4063137   0.02128251  0.036663639            1 
   30000    1.2358895   -7.1353696    7.7385921  0.021496089  0.036498572            1 
   31000     1.256191   -7.0652211    8.1741665  0.021973565  0.036318474            1 
   32000    1.2452565    -7.118696    8.5363848  0.022230168  0.036132528            2 
   33000    1.2555669   -7.1167381    9.0049259  0.022739712  0.036006275            2 
   34000    1.2447733   -7.0962047    9.4556148  0.023175526  0.035894652            2 
   35000    1.2579129   -7.1123068    9.8340132  0.023414317  0.035815702            1 
   36000    1.2352909   -7.0937255    10.249387  0.023725431  0.035739147            1 
   37000    1.2380075   -7.1425722    10.655177  0.023998147  0.035678506            2 
   38000     1.236739   -7.0802538    11.097738  0.024337144  0.035593393            1 
   39000    1.2476601    -7.149641    11.486592  0.024543999   0.03552654            2 
   40000    1.2221353   -7.0646857    11.919825  0.024832969  0.035476456            1 
   41000    1.2428906   -7.1220821    12.322539  0.025045811  0.035430919            2 
   42000    1.2399218   -7.0984102    12.734819  0.025267497  0.035379936            2 
   43000    1.2260071   -7.1146079    13.143843  0.025472563  0.035316084            1 
   44000    1.2257724    -7.145766    13.623685  0.025802433  0.035283917            1 
   45000    1.2209888   -7.1124689    14.041749  0.026003239  0.035265794            1 
   46000    1.2385988   -7.0488007      14.3753   0.02604221  0.035220657            2 
   47000    1.2482297   -7.1213432    14.773911  0.026194878  0.035166893            2 
   48000    1.2165335   -7.0976105    15.186994  0.026366308  0.035121122            3 
   49000    1.2217873   -7.1745819    15.518411  0.026391856  0.035060285            2 
   50000    1.2092663   -7.1699167    15.968865  0.026614774  0.035004636            1 
   51000    1.2452767   -7.1059635    16.485723  0.026937456   0.03497272            2 
   52000    1.2328844   -7.1386839     16.73217  0.026814375   0.03493831            1 
   53000    1.2292086   -7.1483614    17.146291  0.026959577  0.034897019            2 
   54000    1.2268019   -7.0721809    17.725643  0.027354387   0.03485504            1 
   55000    1.2325514   -7.1263681    18.070885  0.027380128  0.034850984            1 
   56000    1.2531099    -7.141463    18.386466  0.027360813   0.03482626            1 
   57000    1.2314548   -7.1271622    18.812291  0.027503349  0.034787314            1 
   58000    1.2069871   -7.1165344    19.243159  0.027648216  0.034758168            1 
   59000    1.1988244   -7.1347333    19.638151  0.027737501  0.034724507            1 
   60000    1.2342424      -7.1018    20.093562  0.027907725  0.034700048            1 
   61000    1.2567253   -7.1598346    20.417606  0.027892904   0.03467259            1 
   62000    1.2327947   -7.1868114    20.837251  0.028007058  0.034646131            1 
   63000    1.1971106   -7.1427984    21.423865  0.028338446  0.034633061            3 
   64000    1.2044273   -7.1174686     21.86874  0.028474922  0.034631388            2 
   65000    1.2308022   -7.1292753     22.11814  0.028356589  0.034612217            1 
   66000    1.2471787   -7.1358894    22.492835  0.028400044  0.034589397            3 
   67000    1.2360182   -7.1502171    22.927564   0.02851687  0.034567733            1 
   68000    1.2499591   -7.1607435    23.462631  0.028753224  0.034560029            3 
   69000    1.2162668   -7.1188958    23.917167  0.028885467   0.03455571            2 
   70000     1.243345   -7.1934358    24.181678  0.028787712  0.034563048            2 
   71000    1.2122498   -7.1119029    24.975604  0.029314088  0.034577983            1 
   72000    1.2256615   -7.1565006    25.222378  0.029192567  0.034603927            1 
   73000    1.2332689   -7.1986591    25.534556  0.029149037  0.034614221            2 
   74000    1.2025262   -7.1635864    25.944234  0.029216479  0.034616378            1 
   75000    1.2327509   -7.1634066    26.201178   0.02911242  0.034607001            1 
   76000    1.2580429   -7.1540341    26.588281  0.029153817  0.034589792            2 
   77000    1.2370909   -7.1525691    27.147026  0.029379898   0.03457989            2 
   78000    1.2566296   -7.1221085    27.400265  0.029273787  0.034566541            1 
   79000    1.2125429   -7.1672093    27.797614  0.029322378  0.034544972            1 
   80000    1.2125095   -7.1231525    28.341738  0.029522644  0.034528659            1 
   81000    1.1943097   -7.1637245    28.603325  0.029427288  0.034510893            4 
   82000    1.2212745   -7.1302295    29.191305   0.02966596  0.034495428            1 
   83000    1.2091009   -7.1822268    29.534663  0.029653276  0.034490519            1 
   84000     1.196231   -7.1493733    29.763674  0.029527455  0.034470819            1 
   85000    1.2089523   -7.1704624    30.233244  0.029640435  0.034449341            1 
   86000    1.2188024   -7.1407853    30.824918  0.029869106  0.034436747            2 
   87000    1.2054516    -7.214638    31.067049   0.02975771   0.03442141            1 
   88000    1.2389918   -7.1298466    31.423117  0.029756739  0.034406524            1 
   89000    1.2099911   -7.1482554    31.921096  0.029888666  0.034393585            6 
   90000    1.2192806   -7.1624377    32.582264  0.030168763  0.034388197            1 
   91000    1.2556015   -7.1398234    32.793784  0.030030938  0.034381707            2 
   92000    1.2035077   -7.1471972    33.238403  0.030107249  0.034380676            1 
   93000    1.1938551   -7.1679505    33.731266  0.030225149  0.034380883            1 
   94000     1.226511   -7.1099372    34.323898  0.030428988  0.034388687            1 
   95000    1.2231012   -7.1664708    34.688623  0.030428616  0.034402141            3 
   96000    1.2500216   -7.2055719    35.051606  0.030426741  0.034406984            3 
   97000    1.1934829    -7.183709    35.359533  0.030377606   0.03441101            1 
   98000    1.2075522   -7.1766468    35.924503  0.030548046  0.034412383            1 
   99000    1.2032516   -7.1824928    36.352672  0.030599892  0.034426008            1 
  100000    1.2261992   -7.2002336    36.573198  0.030477665  0.034430784            2 
  101000    1.2234275   -7.1839507    37.059131  0.030576841  0.034432169            2 
  102000     1.225796   -7.1481588      37.5072  0.030643137  0.034435251            1 
  103000    1.1851546   -7.1257417    37.964315  0.030715465    0.0344398            1 
  104000    1.2099911   -7.1355009    38.339825  0.030721014  0.034447846            2 
  105000    1.2046873   -7.1327868    38.690729  0.030706928   0.03445013            2 
  106000    1.2230835   -7.1839987    39.186438  0.030806948  0.034456232            4 
  107000    1.2078029   -7.1156378    39.728858  0.030941478  0.034467236            1 
  108000    1.2339487   -7.1947574    40.188006  0.031009263  0.034478596            2 
  109000     1.227788   -7.2180713    40.766659   0.03116717  0.034498755            1 
  110000    1.2067912   -7.1920168    41.111413   0.03114501  0.034513367            1 
  111000      1.20893   -7.1403963    41.498091  0.031154723  0.034527361            2 
  112000     1.225261   -7.2241694      41.4843  0.030866295  0.034529816            3 
  113000    1.2162489   -7.1636959    41.821173  0.030841573  0.034521683            1 
  114000    1.1836793   -7.1828745    42.319257  0.030935129  0.034510403            2 
  115000    1.2091606   -7.1391823    42.904396  0.031090142  0.034501419            1 
  116000    1.2001994   -7.1856125      42.9809  0.030877083  0.034489325            1 
  117000     1.192514    -7.114353    43.588056  0.031045624  0.034481885            1 
  118000    1.2173425   -7.2212144    43.771999  0.030912429  0.034471853            2 
  119000    1.1993754   -7.1495493    44.318234  0.031035178  0.034462713            2 
  120000    1.1951866   -7.1332709     44.70439  0.031044715  0.034451022            2 
  121000    1.1784976   -7.1650971    44.802811   0.03085593  0.034439544            1 
  122000     1.208391   -7.1828251    45.238254  0.030900446  0.034419021            1 
  123000    1.1888764   -7.1821248    45.647814  0.030926703  0.034400473            3 
  124000    1.2176545   -7.1848909    45.920309  0.030860423  0.034383197            2 
  125000    1.2018121   -7.1777418    46.348589   0.03089906  0.034360282            2 
  126000    1.2092038   -7.1691716    46.862813  0.030993924  0.034337956            2 
  127000    1.2264832   -7.1598356     47.13003  0.030925217  0.034319055            4 
  128000    1.2325318   -7.2220293    47.365092  0.030836648  0.034300926            2 
  129000     1.208196   -7.2079583    47.870638  0.030924185  0.034275859            3 
  130000    1.2277438   -7.1873327     48.19258  0.030892679     0.034253            1 
  131000     1.176343   -7.1685897    48.685031  0.030970121  0.034230913            2 
  132000    1.2122072   -7.1636182    48.960976  0.030909707  0.034206469            1 
  133000    1.2259147   -7.2064279    49.400948  0.030952975  0.034187204            2 
  134000    1.2018825    -7.248443    49.728719   0.03092582  0.034164488            2 
  135000    1.2007838   -7.1964298    50.117129  0.030936499  0.034144464            2 
  136000    1.1668791    -7.203281    50.542573  0.030969714  0.034124484            2 
  137000    1.2100151   -7.2367267    50.826058  0.030916093  0.034104094            1 
  138000    1.1676017   -7.2312198    51.002426  0.030798566  0.034080246            2 
  139000    1.1582544   -7.1982125    51.372226  0.030798696  0.034053048            3 
  140000    1.1933967   -7.1630925    51.986941  0.030944608   0.03402698            3 
  141000    1.1719596   -7.1995325    52.482558   0.03101806  0.034002164            2 
  142000    1.1856863   -7.2115565    52.913406  0.031052468  0.033980021            1 
  143000    1.1848884   -7.2552204     52.95422  0.030859102  0.033957012            2 
  144000    1.2074415   -7.1791516    53.481904  0.030950176  0.033931452            2 
  145000    1.1852622   -7.2035802    53.601783  0.030805622   0.03390695            2 
  146000    1.2140444   -7.2209046    53.998048  0.030820804  0.033878348            1 
  147000    1.2111477   -7.2065388    54.630454  0.030969645   0.03385243            3 
  148000    1.1861838   -7.2474848    54.698213  0.030798543  0.033827347            2 
  149000    1.1873053   -7.2034217    55.285157   0.03092011  0.033798422            2 
  150000    1.1970246   -7.2083137    55.659019  0.030921677  0.033775174            4 
  151000    1.1963225   -7.2198901    56.097714  0.030959003   0.03375135            1 
  152000    1.1760934   -7.1989259     56.38381  0.030912177  0.033728981            1 
  153000    1.2071129   -7.2257517    56.726022  0.030896526  0.033707258            3 
  154000    1.1852653   -7.1935514    57.101358  0.030899003  0.033685233            3 
  155000     1.206066   -7.2181052    57.576642  0.030955184  0.033663192            1 
  156000    1.2076822   -7.2042689     57.98236  0.030973483  0.033642295            1 
  157000    1.2118434   -7.2439433    57.942567  0.030755078  0.033616393            1 
  158000    1.1898555   -7.2141562     58.46193  0.030834351  0.033590783            1 
  159000    1.1987785   -7.2064352    58.578329   0.03070143  0.033561674            2 
  160000    1.1842314   -7.2499758    58.907468  0.030680973  0.033531034            1 
  161000    1.2017811   -7.2105908     59.22399  0.030654239  0.033499823            1 
  162000    1.2013822   -7.2219224     59.69204  0.030705782  0.033469085            1 
  163000    1.1702226   -7.2565183    60.042448  0.030696548  0.033439776            2 
  164000      1.20651   -7.2001517    60.250025   0.03061485  0.033410847            1 
  165000     1.198388   -7.2211878    60.840745  0.030727649  0.033381468            1 
  166000    1.1819084   -7.2013612     61.06873  0.030656993  0.033352914            1 
  167000    1.1952395   -7.2537292     61.18959  0.030533728  0.033321649            1 
  168000    1.2027302   -7.2299855    61.555153   0.03053331  0.033288302            1 
  169000     1.185092   -7.2150223    62.158944  0.030650367  0.033257585            4 
  170000    1.1793772   -7.2412861    62.394486  0.030585532  0.033227484            1 
  171000    1.1796981   -7.2572046    62.829894  0.030618856  0.033197414            1 
  172000    1.1946857   -7.2242684    63.331122  0.030683683  0.033167417            1 
  173000    1.2031259   -7.2540672    63.299413  0.030491047  0.033138754            1 
  174000     1.173549   -7.2267717    63.710391  0.030512639  0.033109139            2 
  175000    1.2109104   -7.2073836    64.364621  0.030649819  0.033081994            1 
  176000    1.1873008   -7.1831611    64.812062  0.030687529  0.033055405            1 
  177000    1.1519989   -7.2598437    65.066054  0.030633735  0.033030351            1 
  178000    1.2300106   -7.2417514    65.504225  0.030666772  0.033006175            2 
  179000    1.1962644    -7.245319    65.664676  0.030570147  0.032980854            1 
  180000    1.2037854   -7.2458906    66.038414   0.03057334  0.032956158            1 
  181000     1.167577   -7.2758528    66.166191  0.030463255  0.032929485            1 
  182000    1.1900078   -7.2425657     66.81002  0.030590668  0.032900681            2 
  183000    1.1889182   -7.2508697    66.855949  0.030444421  0.032871934            1 
  184000    1.2214843    -7.211617    67.348003  0.030501813  0.032843031            1 
  185000    1.1768556   -7.2569873     67.69788  0.030494541  0.032814439            2 
  186000    1.1918789   -7.2519841    67.877674  0.030411144  0.032787577            2 
  187000    1.1923134   -7.2559395    68.051898  0.030326158  0.032757834            2 
  188000    1.1391613   -7.2327247    68.750074  0.030474323   0.03272887            2 
  189000    1.1673035   -7.2512941    69.006094  0.030425967  0.032701771            2 
  190000    1.1453723   -7.2563282    69.421188  0.030447889  0.032676115            1 
  191000    1.1640734    -7.276303    69.621345  0.030375805  0.032650561            1 
  192000    1.1877859    -7.272506    69.982515  0.030374355  0.032623958            1 
  193000    1.1803999     -7.24877    70.647928  0.030504287  0.032599608            1 
  194000    1.1951444   -7.2217256    71.041028  0.030515905  0.032577352            2 
  195000    1.1609626   -7.2697779    71.237027  0.030443174  0.032555073            1 
  196000    1.1668526   -7.2862071    71.588542  0.030437305  0.032532329            2 
  197000    1.1788594   -7.2070344    72.207067  0.030544444  0.032508234            2 
  198000    1.1707871   -7.2489151    72.139826  0.030361879   0.03248357            1 
  199000    1.1729151   -7.2370732    72.616319  0.030408844  0.032459885            2 
  200000    1.1701111   -7.2717253    73.255635  0.030523181  0.032435811            4 
  201000    1.1729772   -7.3028516    73.069328  0.030294083  0.032414692            2 
  202000    1.1681842    -7.244741    73.822926  0.030455002  0.032394329            1 
  203000    1.1812681   -7.2749955    73.765214  0.030281286  0.032371322            2 
  204000    1.1570961   -7.2341242     74.03603  0.030243476  0.032345312            4 
  205000    1.1637765   -7.2726863     74.50563  0.030286842  0.032317535            2 
  206000    1.1590383   -7.2463616    74.554369  0.030159534  0.032290101            4 
  207000    1.1804487   -7.2899079    74.980884  0.030185541  0.032263903            1 
  208000    1.1794423   -7.2468162    75.470816  0.030236705  0.032237251            1 
  209000    1.1739234   -7.2811011    75.553186  0.030124875  0.032209651            4 
  210000    1.1661497   -7.2682852    75.997827  0.030157868  0.032180759            2 
  211000    1.1591477   -7.2805434    76.295734  0.030132596  0.032151578            2 
  212000    1.1752622    -7.281604    76.434136  0.030044865  0.032123897            1 
  213000     1.169758   -7.2736416    77.086307  0.030158962  0.032098046            1 
  214000    1.1908715   -7.2953487    77.603214   0.03021932    0.0320747            1 
  215000    1.1718628    -7.302978    77.898269  0.030193128  0.032053014            6 
  216000    1.1687301   -7.2713788    78.832674   0.03041384  0.032032651            1 
  217000    1.1666567   -7.2509308    78.954211  0.030320357  0.032014928            1 
  218000    1.1555723   -7.3478582    79.488424  0.030385483  0.031997097            1 
  219000    1.1735862   -7.2805074    79.924468  0.030412659  0.031980333            1 
  220000    1.1561528   -7.2411233    80.149678  0.030359727  0.031964566            1 
  221000    1.1767262   -7.2860638    80.754738  0.030450505  0.031949995            1 
  222000    1.1590856   -7.2390886    81.004318  0.030407026  0.031935206            4 
  223000    1.1562068   -7.2767628     81.04252  0.030284947  0.031917709            1 
  224000    1.1793903   -7.2965708    81.555719  0.030340669  0.031900821            1 
  225000    1.1463879    -7.253626    81.715163  0.030264875  0.031883805            2 
  226000    1.1762182   -7.2942366    82.115341  0.030278518  0.031864264            1 
  227000     1.173323   -7.2528053    82.487023   0.03028158  0.031845013            1 
  228000    1.1318145   -7.3212297    82.216696  0.030049962  0.031825123            3 
  229000    1.1697878   -7.3046197    82.817431  0.030137347  0.031804049            1 
  230000    1.1862746   -7.2877637    83.039267  0.030086691  0.031783016            2 
  231000    1.1602912   -7.2924209    83.657778  0.030179573  0.031763001            1 
  232000    1.1617196   -7.2744302    84.209582  0.030247695  0.031744251            1 
  233000    1.1955969   -7.3086133    84.275512  0.030141456  0.031725887            1 
  234000    1.1365669   -7.2683758    84.978553  0.030263018  0.031707391            2 
  235000    1.1515381   -7.2840367    84.797156  0.030069913  0.031688049            2 
  236000    1.1166778   -7.3110157    85.177961  0.030076964  0.031668176            3 
  237000     1.146166   -7.3417984    85.463882  0.030050591  0.031647504            2 
  238000    1.1800813   -7.3087821    85.976659  0.030103872   0.03162668            2 
  239000     1.136872    -7.309771    86.024188  0.029994487  0.031605309            1 
  240000    1.1695966   -7.2691329    86.451397  0.030017846  0.031585689            1 
  241000    1.1718378   -7.2740153    86.730898  0.029989937  0.031564888            1 
  242000    1.1735775   -7.2587177    87.602745  0.030166235  0.031544939            1 
  243000     1.158102   -7.2885859    87.484726  0.030001621  0.031525223            3 
  244000    1.1514381   -7.2710723    87.694072  0.029950161    0.0315043            2 
  245000     1.198171   -7.3014574    87.838919  0.029877183  0.031482953            2 
  246000    1.1671968   -7.2931351    88.181792  0.029871881  0.031461202            2 
  247000    1.1699869   -7.3039445    88.551002  0.029875507  0.031438334            2 
  248000    1.1682913   -7.2766747    89.115207  0.029944626  0.031417225            1 
  249000      1.16981   -7.2903162    89.194883  0.029851032  0.031396989            1 
  250000    1.1413538   -7.2789092    89.965423  0.029988474  0.031377888            1 
  251000    1.1605588   -7.2981652    90.138588   0.02992649  0.031359063            2 
  252000    1.1490607   -7.2958063    90.525848  0.029935796  0.031340637            2 
  253000    1.1675815   -7.3225423    90.819645  0.029914244  0.031321778            3 
  254000    1.1495823   -7.2987835    90.927061  0.029831713  0.031302387            1 
  255000    1.1514217   -7.3295293    91.503738  0.029903182   0.03128268            1 
  256000    1.1591768   -7.3246691    91.481058   0.02977899  0.031261374            1 
  257000    1.1342847   -7.3147579    91.752766  0.029751221  0.031240143            2 
  258000    1.1706179   -7.2702673    92.259578  0.029799605  0.031220685            1 
  259000    1.1716653   -7.2975691    92.418551  0.029735699   0.03119935            3 
  260000    1.1561967   -7.3061441     92.82737  0.029752362  0.031178731            1 
  261000    1.1540688   -7.3289619     93.21809  0.029763119  0.031158251            2 
  262000    1.1690777   -7.3099502    93.712711  0.029806842  0.031137531            2 
  263000    1.1558472   -7.3188996    93.949196   0.02976844  0.031118635            1 
  264000    1.1610483   -7.2775629      94.1207  0.029709817  0.031098634            1 
  265000    1.1475153   -7.3480062    94.153927  0.029608153     0.031079            2 
  266000    1.1457753   -7.3029861    94.802154  0.029699923  0.031058576            1 
  267000    1.1471622   -7.3736211    94.938534  0.029631253  0.031037663            4 
  268000    1.1334052   -7.3001195    95.800336  0.029788662  0.031019616            2 
  269000    1.1539525   -7.3403058    95.619228  0.029621818  0.031000661            1 
  270000    1.1487014   -7.3055235     95.92007   0.02960496  0.030982264            2 
  271000    1.1251582   -7.3332679     96.63632  0.029715966  0.030963877            4 
  272000    1.1299413   -7.3599094    96.661608  0.029614463   0.03094561            2 
  273000     1.137523   -7.3351743    97.207827  0.029672719  0.030927807            2 
  274000    1.1551815     -7.34285    97.598853   0.02968335   0.03091128            3 
  275000    1.1289822    -7.350747    97.967794   0.02968721  0.030895075            1 
  276000    1.1373548   -7.3225002     98.48993  0.029737298  0.030879255            1 
  277000    1.1533473   -7.3625902    98.864983  0.029742775  0.030864272            6 
  278000    1.1328329   -7.3252853    98.926425  0.029654204  0.030849921            1 
  279000    1.1801458   -7.3553079     99.66873  0.029769633  0.030835554            2 
  280000    1.1553321   -7.3405405    100.14112  0.029803905  0.030822371            1 
  281000    1.1354812   -7.3401624    100.47714  0.029797492  0.030808721            7 
  282000     1.165444   -7.3019525    101.21874  0.029910975  0.030796181            4 
  283000    1.1301422   -7.2905395    101.49707   0.02988724  0.030784808            1 
  284000     1.115192   -7.3093433    101.61091  0.029815407  0.030772572            2 
  285000    1.1416497   -7.4122244    101.42234  0.029655654   0.03075938            2 
  286000    1.1548773   -7.3283694    102.69169  0.029921821   0.03074694            2 
  287000    1.1251158   -7.3254549    102.68097  0.029814451  0.030735256            2 
  288000    1.1534068    -7.341555    102.53827   0.02966964  0.030722568            1 
  289000    1.1414978    -7.332953    102.91201  0.029674743  0.030708517            1 
  290000    1.1497544   -7.3235582    103.77638  0.029820798  0.030694816            1 
  291000    1.1578046   -7.3217317    103.82147  0.029731233  0.030682082            2 
  292000    1.1072008   -7.3526338    104.25655   0.02975358  0.030668654            2 
  293000    1.1264422   -7.3438499    104.43295  0.029702203   0.03065527            1 
  294000    1.1531496   -7.3630523    104.55951  0.029637048  0.030642102            2 
  295000    1.1411424   -7.3554052       104.83  0.029612995  0.030627482            3 
  296000     1.150793   -7.3643487    105.20565  0.029618708  0.030613333            1 
  297000    1.1094131   -7.3509389    105.47063  0.029593332  0.030599366            1 
  298000    1.1477357    -7.358417    105.81758  0.029591046  0.030585445            1 
  299000    1.1209426   -7.3603284    106.21149  0.029601865  0.030570695            2 
  300000    1.1344978   -7.3684458    106.01258  0.029447939  0.030555109            2 
  301000    1.1468793   -7.3727205    106.44168  0.029468903  0.030539673            3 
  302000    1.1467647   -7.3611323    106.86149  0.029487165  0.030524705            3 
  303000    1.1114112   -7.3782947    106.98795  0.029424629  0.030508876            3 
  304000    1.1501561   -7.3412929    107.79219  0.029548299  0.030493938            1 
  305000    1.1318988   -7.3541182    107.70768  0.029428327  0.030479439            2 
  306000    1.1195517   -7.3398923    108.07636  0.029432561  0.030463928            1 
  307000    1.1115138    -7.359764    108.66527  0.029496544  0.030448178            2 
  308000    1.1289724   -7.3762563    108.72148  0.029415984  0.030432966            2 
  309000     1.150574   -7.3638587    108.83039  0.029350159   0.03041741            2 
  310000    1.1457421   -7.3688095    109.40159  0.029409031  0.030401948            2 
  311000    1.1400256   -7.3424087    109.74464  0.029406387  0.030385624            1 
  312000    1.1158704    -7.385418    109.70633  0.029301906  0.030369957            1 
  313000    1.1321062   -7.3373159    110.79403  0.029497878  0.030355605            1 
  314000    1.1354241   -7.3324864    110.64454  0.029364263   0.03034166            2 
  315000    1.1246787   -7.3296865    110.90576  0.029340148  0.030326699            1 
  316000    1.1365429   -7.3348984    111.33128  0.029359516  0.030310592            2 
  317000    1.1342329   -7.3771534    111.01582   0.02918397  0.030293704            3 
  318000    1.1456058   -7.3507142    111.77017  0.029289876  0.030276862            3 
  319000     1.122733   -7.3651675     111.9293  0.029239628  0.030260369            4 
  320000    1.1527584    -7.345128    112.40148  0.029271219  0.030243945            4 
  321000    1.1186796   -7.3264483    112.81932  0.029288505  0.030228037            2 
  322000    1.1210737   -7.3496706    112.82539  0.029199117  0.030211202            3 
  323000    1.1421433   -7.3819855    112.87105  0.029120498  0.030193708            2 
  324000    1.1406079   -7.3761211    113.29084  0.029138591  0.030176127            2 
  325000    1.1362307   -7.4097858    113.47496  0.029096144  0.030159179            2 
  326000    1.1264756   -7.3370174    114.38223  0.029238812  0.030142335            2 
  327000     1.116814   -7.3417882    114.81008  0.029258431  0.030125921            1 
  328000    1.0986999   -7.3694061    114.27148  0.029032389  0.030109607            4 
  329000    1.1142811   -7.3270819    115.05327  0.029142166  0.030092921            1 
  330000    1.1159165   -7.3316476    115.28423  0.029112179  0.030076494            3 
  331000    1.0949961   -7.3904013    115.27637  0.029022249   0.03005945            2 
  332000    1.1288955   -7.3809649    115.46837  0.028983024  0.030042565            1 
  333000    1.1255535   -7.3531798     116.4616  0.029144545  0.030026056            1 
  334000    1.1094055   -7.4302867    115.88935  0.028914509  0.030009315            1 
  335000     1.146491   -7.4190397     115.9961   0.02885475  0.029991222            1 
  336000    1.0758477   -7.4038331    116.46875  0.028886098  0.029972145            1 
  337000    1.1299841    -7.374932    116.71615   0.02886156  0.029953407            3 
  338000    1.1280968   -7.4224757    117.25385   0.02890874  0.029935573            3 
  339000    1.1207639   -7.4131966    117.25809  0.028824505  0.029917702            2 
  340000    1.1224212   -7.3710146     117.9808  0.028916863  0.029900627            1 
  341000    1.1169671   -7.3673623    118.13001  0.028868525  0.029884075            3 
  342000    1.1199857   -7.3989914    118.97296  0.028989513  0.029867435            2 
  343000    1.1407192   -7.4246282    118.67385  0.028832324  0.029850371            3 
  344000    1.1076168   -7.3801799    119.72639  0.029003487  0.029833343            1 
  345000    1.1264304   -7.3556953    119.34382  0.028827009  0.029816704            1 
  346000    1.1107385   -7.3685032    119.47487  0.028775258  0.029798432            1 
  347000    1.1081228   -7.3846393    119.77254  0.028763818  0.029779677            1 
  348000    1.0957064   -7.4131542    119.89986  0.028711653  0.029759657            1 
  349000     1.100575   -7.4171354    120.04178  0.028663272  0.029740718            2 
  350000    1.0941788    -7.402119    120.64218   0.02872433  0.029721878            3 
  351000    1.1232949    -7.396096    120.64485  0.028643127  0.029702861            1 
  352000    1.1388323   -7.4069996    120.59308  0.028549498  0.029683757            2 
  353000    1.1191359   -7.4222149    120.60717  0.028471948  0.029663487            2 
  354000    1.1137888   -7.4090958    121.15507  0.028520497  0.029642114            1 
  355000    1.1102615    -7.447464     121.3999  0.028497629  0.029621796            2 
  356000    1.1037798    -7.379445    122.26035  0.028618995  0.029602344            2 
  357000    1.1103734   -7.4157375    121.96614  0.028470154  0.029583122            2 
  358000    1.1241101   -7.4065056    122.73373  0.028569304  0.029562945            1 
  359000    1.0926369   -7.4113727     122.9702  0.028544614  0.029542637            1 
  360000    1.0884614   -7.3958615    123.54399  0.028598145  0.029522727            2 
  361000    1.1370937   -7.4483366    122.60829  0.028302928  0.029502339            3 
  362000    1.1008645   -7.3846973    123.69476  0.028474853  0.029482053            2 
  363000    1.1108492    -7.401096    123.66276  0.028389064  0.029461645            1 
  364000      1.13283   -7.4085056    123.69245  0.028317869  0.029440923            1 
  365000    1.1305317   -7.4281463    124.25217  0.028368074  0.029420007            1 
  366000    1.0927369   -7.4143251    124.14151  0.028265372  0.029399636            4 
  367000    1.1043279   -7.4216843    124.72824  0.028321581  0.029378778            2 
  368000    1.1076977   -7.3913946     125.1136  0.028331884  0.029358101            3 
  369000    1.1018086   -7.4596238    125.15795   0.02826512  0.029337013            1 
  370000      1.09074   -7.4063562    125.65179  0.028299953  0.029315841            2 
  371000    1.1386827   -7.4490335    125.52217  0.028194557   0.02929454            1 
  372000    1.1112491    -7.402472    125.96107  0.028217085  0.029273413            1 
  373000    1.1008166   -7.4218681    126.09838  0.028172114  0.029252366            2 
  374000    1.1040239   -7.4841407    126.30369  0.028142534  0.029231505            2 
  375000    1.1018567   -7.4206623    126.75694  0.028168208  0.029211102            1 
  376000    1.1017978   -7.4321513    127.22334  0.028196662  0.029190661            2 
  377000    1.0941277   -7.4801977    127.16089  0.028108065  0.029170665            1 
  378000    1.0930339   -7.4704928    127.48442  0.028105031  0.029149907            2 
  379000    1.0960739   -7.4125211    127.68474   0.02807492  0.029128679            1 
  380000    1.0841211   -7.4347858    128.16916  0.028107272  0.029108116            1 
  381000     1.092067   -7.3939572     128.2083   0.02804206  0.029087481            2 
  382000    1.1078997   -7.4360327    128.18887  0.027964413  0.029066115            4 
  383000    1.1079777   -7.3973244    128.69526   0.02800158   0.02904475            3 
  384000    1.1013314   -7.4400706    128.76869  0.027944593  0.029023137            2 
  385000     1.082156   -7.4415018    129.19326  0.027963909  0.029002099            1 
  386000    1.1063878   -7.4224262    129.52899  0.027963944  0.028980864            2 
  387000    1.0918216   -7.4291202     129.2733  0.027836628  0.028959165            3 
  388000    1.0819342   -7.4370789    130.07552  0.027937182  0.028937226            2 
  389000    1.0947113   -7.4243414    129.68158  0.027780972  0.028914578       -1e+20 
  390000    1.1062377   -7.4347448    130.13069  0.027805702  0.028891824            1 
  391000    1.1156845   -7.4129529    129.99214   0.02770506  0.028868947            2 
  392000    1.1092918   -7.4355872    130.64236  0.027772611  0.028846551            3 
  393000    1.0910617   -7.4209121    130.35622  0.027641267   0.02882313            3 
  394000    1.1110785   -7.4404124    130.76597  0.027657777  0.028800188            2 
  395000    1.0946644   -7.4574937    131.15909  0.027670693  0.028776803            2 
  396000    1.0786687   -7.4317585    131.28486  0.027627285  0.028753679            4 
  397000    1.0944512   -7.4025345    131.76855  0.027659225  0.028730323            2 
  398000    1.0994868   -7.4695216    131.60897  0.027556318  0.028706787            4 
  399000    1.0779358   -7.4541097    132.48646  0.027670522  0.028683344            3 
  400000    1.0726133   -7.4351437     132.3753  0.027578187  0.028659853            2 
  401000    1.0884375   -7.4594511    132.68508   0.02757379  0.028636514            4 
  402000    1.0824045   -7.4297487    132.56266  0.027479821    0.0286128            2 
  403000    1.0883689   -7.4788224    132.73127  0.027446499  0.028588853            2 
  404000    1.0975127   -7.4407002    132.87872  0.027408976  0.028565326            5 
  405000     1.092531   -7.4424882      133.168  0.027400823   0.02854163            1 
  406000    1.0918136   -7.4316998    133.44956  0.027391125  0.028518106            2 
  407000    1.0864281   -7.4455664    134.16516  0.027470343  0.028495206            1 
  408000    1.1097005   -7.4282718    134.02769  0.027374937  0.028472282            2 
  409000    1.0737404   -7.4451736    134.55788  0.027416032  0.028449374            2 
  410000    1.1069839   -7.4912868    134.79181  0.027396708  0.028426055            2 
  411000    1.0846038   -7.4843221    134.89723  0.027351426   0.02840267            1 
  412000    1.0910598   -7.4257436    134.78572  0.027262485  0.028379357            2 
  413000    1.0840599   -7.4276118    135.40701  0.027321834  0.028356469            2 
  414000    1.0899481   -7.4116544    135.65676   0.02730611  0.028333357            2 
  415000    1.0731633   -7.4382645    135.95283  0.027299765  0.028310569            3 
  416000     1.085791   -7.4432696    136.06033  0.027255676  0.028287432            1 
  417000    1.1008725   -7.4551703    136.03713  0.027185678  0.028263556            1 
  418000    1.0983336   -7.4421087    136.86557    0.0272858  0.028240247            2 
  419000    1.0749412   -7.4766791    136.81883  0.027211382  0.028217824            2 
  420000    1.0736259   -7.4430063    137.09657  0.027201701  0.028195343            3 
  421000    1.0828026   -7.4684219    137.19312  0.027156199  0.028172592            1 
  422000    1.0826409   -7.4572063    137.69127  0.027190219  0.028149838            3 
  423000    1.0849988   -7.5025522    137.87198   0.02716154  0.028127827            4 
  424000    1.0993086   -7.4680916    138.13126   0.02714844  0.028105815            2 
  425000    1.0797925   -7.4558649    139.09526  0.027273581  0.028084325            1 
  426000    1.0878248   -7.4229764    139.54933  0.027298382  0.028063926            3 
  427000    1.1176538   -7.4634629    138.91398  0.027110456   0.02804331            2 
  428000    1.0984489   -7.4429122    139.53437  0.027167907  0.028023212            1 
  429000    1.0897294   -7.5039187    139.85092  0.027166068  0.028002776            2 
  430000    1.0698096   -7.4863781    140.01479   0.02713465  0.027982113            2 
  431000    1.0730117   -7.4773792    139.72417    0.0270155   0.02796114            2 
  432000    1.0744895   -7.4854393    140.35207  0.027074087  0.027939789            2 
  433000    1.0853963   -7.4519043    140.43374   0.02702728  0.027919183            1 
  434000    1.0925694   -7.4584586    140.56107  0.026989453  0.027898069            2 
  435000    1.0868402   -7.4843935    140.89538  0.026991453   0.02787701            3 
  436000    1.0736655   -7.4703886     141.1547  0.026979109  0.027856345            2 
  437000    1.1043631    -7.462232    142.12402  0.027102216   0.02783561            3 
  438000    1.0727358   -7.4544638    141.87477  0.026992917  0.027814476            1 
  439000    1.0563565    -7.510583    141.81502  0.026920088  0.027792998            7 
  440000    1.0799252   -7.5046188    141.72199  0.026841286  0.027771477            1 
  441000    1.0751271   -7.4940694    142.33054  0.026895416  0.027749729            1 
  442000    1.1064726   -7.4691137    142.62814  0.026890676  0.027728425            3 
  443000    1.0841244   -7.5238237    142.85424  0.026872506  0.027707096            2 
  444000    1.0888069   -7.5036697    143.05663  0.026849967  0.027685694            2 
  445000    1.0693106   -7.5002242    143.00902  0.026780714  0.027663809            2 
  446000    1.0783153   -7.5223033    142.69469  0.026661938  0.027641878            2 
  447000    1.0836892   -7.5160499    143.12587  0.026682674  0.027619891            2 
  448000    1.0846308   -7.4869131    143.45584  0.026684494  0.027598069            2 
  449000    1.0851411   -7.5247151    143.74211  0.026678195  0.027576491       -1e+20 
  450000    1.0626076   -7.5011333    144.07511  0.026680576   0.02755465            1 
  451000    1.0817419   -7.4790619    144.31093  0.026664991  0.027532112            2 
  452000    1.0566396   -7.4879863    144.62102  0.026663168  0.027510188            3 
  453000    1.0730917   -7.4864757    144.82311  0.026641484   0.02748843            6 
  454000    1.0691836   -7.5127233    145.17889  0.026648108  0.027467013            2 
  455000    1.1009231   -7.5086491    145.32493  0.026616287  0.027445783            4 
  456000    1.0365215   -7.5082372    145.28659  0.026550911  0.027424052            3 
  457000    1.0923341   -7.5087498    145.35702  0.026505656  0.027402507            1 
  458000    1.0899683   -7.4954019     146.4946  0.026654766  0.027381492            2 
  459000    1.1016099   -7.5333668    146.03026  0.026512392  0.027360511            3 
  460000    1.0484105   -7.4847323    146.92313  0.026616508  0.027339641            1 
  461000    1.0635725   -7.4785735    147.26103  0.026619853  0.027319099            3 
  462000    1.0722283    -7.515031    147.30862  0.026570819  0.027298975            3 
  463000    1.0680197   -7.4654695    147.85993  0.026612658  0.027279492            4 
  464000    1.0629775   -7.4964254     147.6782  0.026522665  0.027260475            1 
  465000    1.0613614   -7.5009414    148.75047  0.026657791  0.027241593            4 
  466000    1.0397509   -7.5242349    148.59508  0.026572798  0.027222346            3 
  467000    1.0693765   -7.5094497     149.0355  0.026594486  0.027202705            1 
  468000    1.0618934   -7.5389883    148.61635  0.026463026  0.027183012            4 
  469000    1.0751159   -7.5332987    149.03649  0.026481252  0.027163472       -1e+20 
  470000    1.0593171   -7.5100074    149.37771  0.026485409  0.027143944            2 
  471000      1.05405   -7.5429328    149.70663  0.026487373  0.027124418            1 
  472000    1.0511063   -7.5178454    150.13308  0.026506546  0.027105428            3 
  473000    1.0641631    -7.476625    150.05182  0.026436191  0.027086445            1 
  474000    1.0742115   -7.5591549    150.36606  0.026435665  0.027067215            1 
  475000    1.0502984   -7.5505586    150.33134  0.026373919  0.027047587            4 
  476000    1.0622173   -7.5572953    149.92133  0.026246731  0.027027474            1 
  477000     1.070168   -7.5058169    150.73872  0.026334508  0.027007459            2 
  478000    1.0602319   -7.5347276    151.54262  0.026419564  0.026987829            3 
  479000    1.0689419   -7.5376018    150.54504  0.026190856  0.026968465            2 
  480000    1.0426888   -7.5122788     151.4375  0.026291233  0.026949059            2 
  481000    1.0487749   -7.5257081     152.2471  0.026376836  0.026930237            2 
  482000    1.0419933   -7.5345122    152.26401  0.026325036  0.026910902            1 
  483000    1.0665976   -7.5370687    152.18207  0.026256396  0.026891646            1 
  484000     1.087751    -7.559438    152.33526  0.026228523  0.026872067            1 
  485000    1.0590339   -7.5264935    152.88912  0.026269608  0.026852599            2 
  486000    1.0761957   -7.4721644     153.3617  0.026296587   0.02683346            2 
  487000    1.0628594   -7.5225058    152.89685  0.026163048   0.02681457            1 
  488000    1.0833768   -7.5642113    153.01765  0.026130064    0.0267953            2 
  489000    1.0538388   -7.5232121    153.92558  0.026231354  0.026776349            2 
  490000    1.0408639   -7.5308827    154.07575  0.026203359  0.026757805            1 
  491000    1.0625493   -7.5345704    154.00402  0.026137818  0.026739029            7 
  492000    1.0898799     -7.51281    154.41914  0.026155004  0.026720289            1 
  493000    1.0403527   -7.5340385    155.16312  0.026227708  0.026701482            1 
  494000    1.0548924   -7.5121047    154.89717  0.026129751  0.026682517            4 
  495000    1.0593811   -7.4831785     154.8042  0.026061313  0.026663384            1 
  496000    1.0685646   -7.5307734     154.7915  0.026006636  0.026643922            2 
  497000    1.0680369   -7.5459966     155.1713  0.026017991  0.026624238            2 
  498000    1.0468611   -7.5862971    154.98571   0.02593469  0.026604261            2 
  499000    1.0594964   -7.5617787    155.36897  0.025946721  0.026584115            3 
  500000     1.072884   -7.5416695     155.7501   0.02595835  0.026564205            2 
  501000    1.0713749   -7.5818339    155.82517  0.025919024  0.026544117            2 
  502000    1.0509391    -7.541758    155.91336  0.025882031  0.026523951            2 
  503000    1.0429259   -7.5587934    155.83805    0.0258181  0.026504269            2 
  504000    1.0553535   -7.5346796    156.58651  0.025890626  0.026485138            1 
  505000    1.0651696   -7.5579162    157.03847  0.025913939  0.026466548            2 
  506000    1.0457751   -7.5382811    157.48958  0.025937018  0.026447932            2 
  507000      1.03566   -7.5622163    157.56514  0.025898281  0.026429551            4 
  508000    1.0460621   -7.5521895    157.29969  0.025803756  0.026411124            2 
  509000    1.0257448   -7.5494597    158.12605  0.025888352  0.026392311            2 
  510000    1.0626498   -7.5564224    158.37182  0.025877749   0.02637367            3 
  511000    1.0524673   -7.5120029    159.19692  0.025961664  0.026355185            2 
  512000    1.0160928   -7.5390464    158.85109   0.02585467  0.026337349            1 
  513000    1.0459099   -7.5235901    159.35988   0.02588692  0.026319418            1 
  514000     1.020005   -7.5507636    159.18524  0.025808243  0.026301319            4 
  515000    1.0418352   -7.6064568    159.06589  0.025738817   0.02628315            3 
  516000    1.0436877    -7.510989    160.33583   0.02589403  0.026265523            3 
  517000    1.0490104   -7.5572633    160.69371   0.02590163   0.02624843            2 
  518000    1.0426028   -7.5714499    160.73376  0.025858069  0.026231323            2 
  519000    1.0435268    -7.522262    161.42301  0.025918916  0.026214993            2 
  520000     1.057475   -7.5746145    161.78015  0.025926305  0.026199129            1 
  521000    1.0360734   -7.5731069    161.93095  0.025900663  0.026183642            5 
  522000     1.046579   -7.5582293    162.39483    0.0259251  0.026168033            1 
  523000    1.0717354   -7.5598584     163.1627  0.025997881  0.026152855            1 
  524000    1.0549647   -7.5770793    162.91384  0.025908689  0.026137835            2 
  525000    1.0692213   -7.5764111    163.03988  0.025879346  0.026122774            2 
  526000    1.0664949   -7.5358751    163.82057  0.025953829  0.026107807            1 
  527000    1.0340156   -7.5773251    163.37407  0.025833977  0.026092335            2 
  528000    1.0279489   -7.5803964    163.94738  0.025875533  0.026077131            3 
  529000    1.0482082   -7.5762991    163.50234  0.025756513  0.026061405            1 
  530000    1.0502621   -7.6262364    163.56748  0.025718158  0.026045489            1 
  531000    1.0512457   -7.5424599    164.13139  0.025758221  0.026029086            2 
  532000    1.0487408   -7.6024422    164.24938  0.025728287  0.026013029            1 
  533000    1.0545222   -7.5482592    165.00267  0.025797791   0.02599743            2 
  534000    1.0530378   -7.5576371    164.85543  0.025726503  0.025982324            2 
  535000    1.0599996    -7.567324    165.19612  0.025731483  0.025967344            2 
  536000    1.0194801   -7.5833893    165.09493  0.025667744  0.025952164            2 
  537000    1.0150141   -7.5414344    166.36149  0.025816494  0.025937703            3 
  538000     1.057267   -7.6121322    166.41592  0.025776939  0.025923191            1 
  539000    1.0292604    -7.630778    166.54404  0.025748924  0.025909023            1 
  540000    1.0319798   -7.5721557    166.64524  0.025716858   0.02589456            4 
  541000    1.0436391   -7.5970701     167.2881  0.025768346  0.025879795            2 
  542000    1.0463812   -7.5884681    167.14297  0.025698489  0.025865236            1 
  543000     1.035274    -7.537196    167.70597  0.025737565  0.025850871       -1e+20 
  544000    1.0370406   -7.5542263     167.2873  0.025626119  0.025836518            1 
  545000    1.0586032   -7.6096268    166.86063  0.025513857  0.025821795            3 
  546000     1.044824   -7.6122674    167.09329  0.025502638  0.025806217            2 
  547000    1.0219494   -7.5811175    168.12353   0.02561297  0.025791046            1 
  548000    1.0482536    -7.617737    168.13398   0.02556782  0.025776318            2 
  549000    1.0465681   -7.5699066    168.83947  0.025628334  0.025761762            2 
  550000    1.0190985   -7.6165337    168.69262  0.025559488  0.025747138            1 
  551000    1.0346603   -7.5991263    169.13019  0.025579279  0.025732312            3 
  552000     1.055194   -7.6327667     168.6115  0.025454634  0.025716998            2 
  553000    1.0203621   -7.6051553    169.12135  0.025485435  0.025701902            2 
  554000    1.0170412   -7.6092668    169.96212  0.025565902  0.025687037            1 
  555000    1.0477637    -7.573078    169.92611  0.025514432  0.025672317            2 
  556000    1.0466653   -7.5945048    170.18971   0.02550805  0.025658182            4 
  557000    1.0160967   -7.6195513     170.4012  0.025493895  0.025643384            2 
  558000    1.0597815   -7.6031348    170.22186  0.025421425   0.02562857            1 
  559000    1.0229829   -7.6109814    170.18754  0.025370831  0.025613436            2 
  560000    1.0220712   -7.6360164    170.37528  0.025353464  0.025598209            3 
  561000    1.0176525   -7.6322187    170.47362  0.025322878  0.025582619            4 
  562000    1.0144236   -7.5518665    171.13517  0.025375915  0.025566993            3 
  563000    1.0502908   -7.6347558    170.31974  0.025210144  0.025551242            1 
  564000    1.0344994   -7.5773253    170.84506  0.025243065  0.025535024            2 
  565000    1.0248233   -7.6076119    170.57118  0.025157991  0.025518466            4 
  566000    1.0169338   -7.6347084    171.39457  0.025234772  0.025502109            3 
  567000    1.0146279   -7.6229358    171.81141   0.02525153  0.025486065           10 
  568000    1.0413806   -7.6353648     171.5579   0.02516988  0.025469709            6 
  569000    1.0406873   -7.6158829    171.58405  0.025129475  0.025453386            2 
  570000    1.0189295   -7.5873812    172.25777  0.025183884  0.025437089            2 
  571000    1.0374362   -7.6195446    172.53134  0.025179705  0.025421094            3 
  572000    1.0202864   -7.6461151    173.09946  0.025218453  0.025404945            1 
  573000    1.0259335   -7.6269509     172.7915  0.025129653  0.025389085            1 
  574000    1.0243001   -7.6453218    172.76677  0.025082283  0.025372769            3 
  575000    1.0292051   -7.6019058    173.06037  0.025081213  0.025356708            2 
  576000   0.99470066   -7.6181947    174.00364  0.025174137  0.025340602            1 
  577000    1.0277495   -7.6407078    173.33824  0.025034408  0.025324512            1 
  578000     1.034193   -7.6236299    173.73955  0.025048954  0.025308623            1 
  579000    1.0238289   -7.6221494    173.63796  0.024991071  0.025292597            2 
  580000     1.025523   -7.6045692    174.45358   0.02506517  0.025276557            2 
  581000    1.0007305   -7.6060941    175.06314  0.025109458  0.025260982            3 
  582000    1.0136226   -7.5988821    174.61531  0.025002192   0.02524494            4 
  583000    1.0287572   -7.6545067    174.82103  0.024988712  0.025229502            4 
  584000    1.0190222     -7.64648     174.9485  0.024964112  0.025213881            6 
  585000    1.0227907   -7.6318653    175.43181  0.024990287  0.025198776            2 
  586000    1.0419703   -7.5907074    176.04715  0.025035146  0.025183666            1 
  587000    1.0303635    -7.633918    176.37177  0.025038582  0.025168794            2 
  588000    1.0154061   -7.6346417    176.46432  0.025009115  0.025154167            2 
  589000    1.0072318   -7.6123426    176.37606  0.024954169  0.025139101            3 
  590000    1.0503761   -7.6305089    176.47187  0.024925405  0.025123884            3 
  591000    1.0021172   -7.6708751    176.53353  0.024891925  0.025108753            1 
  592000    1.0045169   -7.6387787    177.14089  0.024935373  0.025093516            5 
  593000     1.010733   -7.6380873    177.00995  0.024874923  0.025078191            1 
  594000    1.0261365   -7.6959982    177.22426  0.024863111  0.025063151            1 
  595000    1.0200965   -7.6307315     178.0818  0.024941429  0.025048257            3 
  596000    1.0097871   -7.6357569    178.21453  0.024918139  0.025033848            2 
  597000   0.99725618   -7.6480623    178.57975   0.02492738  0.025019646            2 
  598000    1.0196587   -7.6884415    178.38291  0.024858265  0.025004836            1 
  599000   0.99469744   -7.6715013    178.94227  0.024894584  0.024990556            1 
  600000    1.0228226   -7.6581308     179.3948  0.024915944  0.024976396            1 
  601000    1.0428847   -7.6822557    178.64427   0.02477042  0.024961629            2 
  602000    1.0168891   -7.6406916    178.98419  0.024776328  0.024946307            2 
  603000    1.0144353   -7.6720059    179.01483  0.024739474   0.02493085            2 
  604000    1.0109661   -7.6665741    179.49439  0.024764679  0.024915258            3 
  605000    1.0276604   -7.6524819    179.27117  0.024692999  0.024899662            3 
  606000    1.0045107   -7.6170357    179.76462  0.024720107  0.024884068            2 
  607000    1.0065166   -7.6486168    179.99455  0.024710949  0.024868855            4 
  608000   0.99609628   -7.6708398    179.82697  0.024647337  0.024853625            2 
  609000    1.0184713    -7.612451    180.51985  0.024701677  0.024838591            1 
  610000   0.98901731   -7.6720662    180.73625  0.024690744  0.024823276            2 
  611000   0.99727122   -7.6412516    180.47781  0.024615086  0.024807782            5 
  612000    1.0100579   -7.6493921    180.79724   0.02461836  0.024792739            3 
  613000    1.0036326   -7.6290025    181.31063  0.024647993  0.024777651            1 
  614000    1.0135576   -7.7054668    180.99223  0.024564635  0.024762027            2 
  615000    1.0089106   -7.6569872    181.14029  0.024544755  0.024746286            1 
  616000   0.99411344   -7.6756045    181.39447  0.024539295   0.02473036            3 
  617000     1.011743   -7.6407948    182.15241  0.024601893  0.024714744            4 
  618000    1.0289374   -7.6454449    181.68079  0.024498488  0.024698721            2 
  619000    1.0276753   -7.6775103    182.03751  0.024506935  0.024682961            3 
  620000   0.97892004   -7.6381033     181.9522  0.024455941  0.024667049            1 
  621000   0.97566856   -7.6542201    182.14695  0.024442693  0.024651174            2 
  622000    1.0158669   -7.6858122    181.92186  0.024373239  0.024635391            2 
  623000    1.0024707   -7.6492656    182.48706  0.024409719  0.024619249            6 
  624000    1.0066061   -7.6279352    182.81971  0.024415026  0.024603196            3 
  625000   0.99817562   -7.6284932     182.7797  0.024370626  0.024587132            2 
  626000     1.024694   -7.6562715    182.90057  0.024347786  0.024570995            2 
  627000    1.0140614   -7.6909002    182.94041  0.024314249  0.024554755            2 
  628000     1.014369   -7.6937679    183.53063  0.024353852  0.024538955            2 
  629000   0.99588266   -7.7044594    183.35498  0.024291862  0.024523006            1 
  630000    1.0218337   -7.6789669    184.15087  0.024358581  0.024507819            4 
  631000    1.0031085   -7.6688949    184.49151  0.024364964   0.02449286            3 
  632000   0.99636795   -7.7072009    185.16082  0.024414665  0.024477799            2 
  633000    1.0014849   -7.7003113    184.91995  0.024344386  0.024462843            2 
  634000     1.000614   -7.6703662    184.94915  0.024309825  0.024447413            2 
  635000   0.97895905     -7.68975    184.81202  0.024253546  0.024432164            2 
  636000   0.99609062   -7.6877738    184.98446  0.024238006  0.024416867            1 
  637000    1.0075869   -7.6996848    185.18794  0.024226575  0.024401955            2 
  638000     1.007045    -7.690535    185.58654  0.024240666  0.024386945            2 
  639000   0.98361728   -7.6763031    185.93288  0.024247897  0.024371731            2 
  640000    1.0154678   -7.7117981    185.82243  0.024195629  0.024356448            4 
  641000   0.98965938   -7.6755266    186.04109  0.024186309   0.02434108            2 
  642000   0.99649062   -7.6828528    186.42165  0.024198034  0.024325851            2 
  643000    1.0012318   -7.6729836    186.22577  0.024135014  0.024310746            3 
  644000   0.97900266   -7.6374789    187.14239  0.024216148  0.024295917            3 
  645000    1.0051698   -7.6740413     186.8322  0.024138528  0.024281003            1 
  646000   0.98160604   -7.6389255    187.01152  0.024124294  0.024265945            1 
  647000   0.99634431   -7.6818194    186.85479   0.02406682  0.024250701            3 
  648000   0.99468774   -7.6514722    187.60131  0.024125683   0.02423553            1 
  649000   0.98209694   -7.7159908    187.00102   0.02401143  0.024220351            4 
  650000   0.99193053    -7.705672    187.22072  0.024002657  0.024204879            3 
  651000    1.0030583   -7.7191341    187.30186  0.023976172  0.024189271            3 
  652000   0.97533572   -7.6986871    187.40818  0.023952988  0.024173529            2 
  653000   0.99072556   -7.7065202    188.26526  0.024025684  0.024157991            6 
  654000   0.98192759   -7.7111816    188.69812  0.024044103  0.024142723            2 
  655000    1.0021378   -7.6940464    188.20988  0.023945278  0.024127557            3 
  656000   0.99332358   -7.6997442    189.03756  0.024013917  0.024112517            4 
  657000   0.99770384   -7.6793544    188.56026  0.023916826   0.02409755            4 
  658000   0.99403171   -7.7028409    188.56217  0.023880721  0.024082403            3 
  659000   0.99180696   -7.7243487    189.09435  0.023911779  0.024067013            1 
  660000   0.98397804   -7.7000211    189.62706  0.023942811  0.024051731            2 
  661000   0.99223235   -7.6726205    189.44277  0.023883355  0.024036307            2 
  662000    0.9793844   -7.7334425    189.49245  0.023853531  0.024020643            3 
  663000   0.98697049    -7.740507    189.46253  0.023813792  0.024004895            2 
  664000   0.98332323   -7.6934291    189.48742  0.023781051  0.023988949            3 
  665000   0.96602719   -7.6986662     189.5907  0.023758233   0.02397324            2 
  666000   0.98279736   -7.7196444    190.40062  0.023823902  0.023957601            3 
  667000   0.98448342   -7.7004476    190.38511  0.023786245  0.023942023            4 
  668000   0.97513443   -7.6752055    191.02365  0.023830296  0.023926826            1 
  669000   0.97415769   -7.7028208     191.5484   0.02386004  0.023911883            1 
  670000    1.0002184   -7.7061873     191.2348  0.023785423  0.023896646            2 
  671000   0.97828935    -7.749449    190.82201  0.023698709  0.023881174            3 
  672000    1.0085453   -7.7332072    191.44117  0.023740224  0.023865849            3 
  673000   0.99595141   -7.7317132    191.40914  0.023700983  0.023850477            3 
  674000    0.9846771   -7.7307566    191.97114  0.023735304  0.023835176            3 
  675000    1.0018354   -7.7245384    192.19127  0.023727317  0.023819764            1 
  676000    1.0019388   -7.7272915    191.60984  0.023620542  0.023804292            1 
  677000    1.0012879   -7.7152876    192.39697  0.023682542  0.023789042            2 
  678000   0.99224487   -7.7346214    191.94208    0.0235917  0.023773557            1 
  679000   0.97039779   -7.7417723    191.69807  0.023527009  0.023757911            2 
  680000   0.97191825   -7.6911672     192.3617  0.023573738  0.023742118            3 
  681000   0.98314724   -7.7020664    192.84978  0.023598848   0.02372642            2 
  682000   0.97447779   -7.7240198    192.74374  0.023551288   0.02371094            2 
  683000   0.97312823   -7.7378685    192.68672  0.023509849  0.023695305            1 
  684000   0.99557167   -7.7157603    193.36001  0.023557506  0.023679886            4 
  685000    1.0099782   -7.7610293    193.03469  0.023483539  0.023664538            1 
  686000   0.97996695   -7.7299871    193.49484  0.023505204  0.023648913            1 
  687000   0.94736429   -7.7304028    192.99424  0.023410267  0.023633305            1 
  688000   0.96016905    -7.694421    193.72164  0.023464346  0.023617539            2 
  689000   0.98379207   -7.7164706    193.81942  0.023442117  0.023601682            4 
  690000     0.984141    -7.728177    193.86819  0.023414032  0.023585794            1 
  691000   0.97951763   -7.7445947    193.74837  0.023365698  0.023569651            5 
  692000   0.96510208   -7.7454702    193.59956  0.023314012  0.023553317            3 
  693000   0.98903482   -7.7248353    194.26379  0.023360244  0.023537105            3 
  694000   0.98835982   -7.7427226    194.61154  0.023368341  0.023521261            1 
  695000   0.98560363   -7.7451223    194.54249  0.023326437  0.023505325            2 
  696000   0.97183761   -7.7049939     194.8975  0.023335429  0.023489381            1 
  697000   0.97188422   -7.7362234    194.60627  0.023267129  0.023473685            2 
  698000   0.98241969   -7.7638585    194.89124  0.023267818  0.023457925            3 
  699000   0.98058224   -7.7308473    195.91545  0.023356635  0.023442267            2 
  700000   0.97740289   -7.7580404    195.35491  0.023256537  0.023426569            2 
  701000   0.97369462   -7.7544585    195.60714  0.023253345  0.023410623            2 
  702000   0.97971779   -7.7662972    196.06866  0.023275007  0.023394679            2 
  703000   0.96236498   -7.7553904    195.83929   0.02321471  0.023378894            4 
  704000   0.97442149   -7.7807475     195.6312  0.023157103  0.023363204            2 
  705000   0.96068272   -7.7702927    196.26696  0.023199404  0.023347245            3 
  706000    1.0001565   -7.7836423    196.06139   0.02314228  0.023331359            1 
  707000   0.94888123   -7.7302467    196.88811  0.023206991  0.023315797            2 
  708000   0.97567969   -7.7908758    196.73828  0.023156577  0.023300376            3 
  709000   0.96918284   -7.7506051    196.67132  0.023116046  0.023284742            3 
  710000   0.96316994   -7.8008696    196.80174  0.023098796  0.023268916            2 
  711000   0.98253282   -7.7504259     196.4242  0.023022058  0.023252912            3 
  712000   0.98136959   -7.7533356    197.01325  0.023058667  0.023236986            3 
  713000   0.96172669   -7.7339616    197.71372  0.023108195  0.023221377            2 
  714000   0.96879371   -7.7441579    197.62455  0.023065424  0.023205521            1 
  715000   0.96490731   -7.7320073    197.80202  0.023053848  0.023189806            3 
  716000   0.98744641   -7.7912756    197.09302  0.022939132  0.023173845            2 
  717000   0.96529245   -7.7887891    197.35161  0.022937193  0.023157698            4 
  718000   0.96397147   -7.7456176      197.966  0.022976556  0.023141687            2 
  719000   0.96369429   -7.7484513    198.15434  0.022966428  0.023125777            2 
  720000   0.95796919   -7.7887266    198.34453  0.022956542  0.023109898            4 
  721000   0.98161185   -7.7563658    197.85592  0.022868229  0.023093988            1 
  722000   0.97433451   -7.7976199     197.9347  0.022845649  0.023077937            2 
  723000   0.95213376   -7.7971263    198.23711  0.022848906  0.023062044            3 
  724000   0.98019582   -7.8039094     198.5163  0.022849482  0.023045915            3 
  725000   0.99816041   -7.7747425    198.35548   0.02279948  0.023029742            1 
  726000   0.97004415   -7.7657286    198.63383  0.022800026  0.023013504            3 
  727000   0.96588057   -7.8173251    198.38978   0.02274069  0.022997314            2 
  728000   0.93878617   -7.8041302    198.38982  0.022709457  0.022981093            1 
  729000   0.96521965   -7.7637546    199.50209  0.022805451  0.022965032            2 
  730000   0.95492072   -7.7750366    199.33399  0.022755021  0.022949114            2 
  731000    0.9558903   -7.7644544    199.43594  0.022735516  0.022932943            3 
  732000   0.94966588   -7.8013052    198.73671  0.022624853  0.022916668            1 
  733000   0.95634263   -7.7825824    199.40895  0.022670413  0.022900343            2 
  734000   0.94996254   -7.7902182    199.95104  0.022701071  0.022884164            2 
  735000   0.95425402     -7.81945    199.46484  0.022615061  0.022867815            6 
  736000   0.95566901   -7.7924677    200.03467  0.022648853  0.022851599            2 
  737000   0.93516057   -7.7890392    200.17947  0.022634495  0.022835332            4 
  738000    0.9679476   -7.7936956    200.73323  0.022666354  0.022819169            2 
  739000   0.94217536   -7.7694137    200.61094  0.022621892  0.022803249            3 
  740000   0.95024802   -7.7576758    200.64378   0.02259502   0.02278737            2 
  741000   0.98363432   -7.7993449    201.18312  0.022625183  0.022771626            7 
  742000   0.95774807   -7.7791367    201.00143  0.022574284  0.022755757            1 
  743000   0.97118808   -7.8079396    200.79608   0.02252087  0.022739886            2 
  744000   0.95184966   -7.7907525    201.41757  0.022560211  0.022723829            3 
  745000    0.9490701   -7.8124459    200.71848  0.022451732  0.022707838            3 
  746000   0.94866728   -7.7996322     201.8263  0.022545387  0.022691841            1 
  747000   0.93644995   -7.7948674    201.53116  0.022482281  0.022675849            2 
  748000   0.97770958   -7.7783226    201.26632  0.022422718  0.022659852            3 
  749000   0.95909784   -7.7902025    202.31263  0.022509193  0.022643831            1 
  750000   0.94812931   -7.7889589    202.03964  0.022448849  0.022627842            1 
  751000   0.94718458   -7.7949588    202.17151  0.022433589  0.022611769            3 
  752000   0.96104305   -7.7949179    202.87279  0.022481471  0.022595894            1 
  753000    0.9683271   -7.8173223    202.34784   0.02239352  0.022580078            1 
  754000   0.97547783   -7.7809524     203.4041   0.02248056  0.022564209            3 
  755000   0.97858389   -7.8350645    202.54615  0.022356087  0.022548289            1 
  756000   0.94860559   -7.8105777    203.09504  0.022387019  0.022532474            2 
  757000   0.95461535   -7.8331972    202.94066  0.022340451  0.022516583            2 
  758000   0.97343572   -7.8389712    203.29813  0.022350278  0.022500711            2 
  759000   0.95782116   -7.8037525    203.08444  0.022297369  0.022484795            3 
  760000   0.92318653   -7.8295089    203.05728  0.022265052  0.022468857            2 
  761000   0.93827513   -7.8186218    203.38069   0.02227121  0.022452915            2 
  762000   0.95074514   -7.7626442    204.02806   0.02231278  0.022436989            5 
  763000    0.9568106   -7.7963117    203.90087  0.022269645  0.022421106            2 
  764000   0.96166434    -7.797253    204.16416  0.022269215   0.02240508            2 
  765000   0.94971834    -7.816962    204.00914  0.022223218  0.022389134            2 
  766000   0.95211866   -7.8026317    204.25435  0.022220882  0.022373183            1 
  767000    0.9404276   -7.8204063    204.32155  0.022199213  0.022357253            2 
  768000    0.9491175   -7.8381992    204.82553  0.022224993  0.022341409            1 
  769000   0.95221184   -7.8273496     204.4871  0.022159417  0.022325813            2 
  770000   0.94809471   -7.8153812    204.82228  0.022166913  0.022310008            2 
  771000   0.94125206   -7.8412747    204.79211  0.022134902  0.022294376            3 
  772000   0.95159689   -7.8292772    205.51588  0.022184356  0.022278838            2 
  773000   0.95090105   -7.8197842    205.47576  0.022151332  0.022263027            1 
  774000   0.94292428    -7.849134    205.06889  0.022078908  0.022247321            1 
  775000   0.95524789   -7.8593487     204.7339  0.022014398  0.022231398            6 
  776000   0.94435925   -7.8188976    205.31862  0.022048821  0.022215291            2 
  777000   0.93507836   -7.8315424    205.37003  0.022025957   0.02219925            2 
  778000   0.92616969   -7.8057996    206.57923  0.022127167  0.022183248            3 
  779000   0.92555187   -7.8224504    205.89656  0.022025734  0.022167358            2 
  780000   0.94942554   -7.8359623     205.7804  0.021985086  0.022151368            3 
  781000   0.93947208   -7.8618091    205.62362  0.021940207   0.02213509            3 
  782000   0.96074078   -7.8689125    205.95607  0.021947578  0.022118706            2 
  783000   0.92381895   -7.8260374    205.80222  0.021903174  0.022102374            3 
  784000   0.94988467   -7.8639774    205.92758  0.021888561  0.022086125            1 
  785000   0.93320972   -7.8163804      206.093  0.021878238   0.02206963            3 
  786000   0.93885516    -7.811156    205.98495  0.021838947  0.022053278            2 
  787000   0.96488769    -7.815632    206.18525  0.021832406  0.022037072            2 
  788000   0.93052682   -7.8302253    206.26172  0.021812787  0.022020882            2 
  789000   0.94300664   -7.8596474    206.64101  0.021825202  0.022004498            2 
  790000   0.93427101   -7.8550454     206.7733   0.02181153  0.021988238            3 
  791000   0.94577074   -7.8623945    206.23954  0.021727722  0.021971921            4 
  792000   0.95767754   -7.8567238    206.77692   0.02175683  0.021955637            2 
  793000   0.94914632   -7.8443088    207.04899  0.021757986  0.021939507            1 
  794000   0.94247507   -7.8580123    207.15214  0.021741408  0.021923446            2 
  795000   0.94036402    -7.836666    206.95692  0.021693597  0.021907426            3 
  796000   0.95526993   -7.8199695    207.49996  0.021723195  0.021891368            2 
  797000   0.91810881   -7.9022784    207.91302  0.021739128  0.021875326            1 
  798000   0.92784509   -7.8757848    207.14582  0.021631769  0.021859209            2 
  799000   0.93267174   -7.8785867    208.63224  0.021759725  0.021843135            3 
  800000   0.93837402   -7.8858501    207.70723   0.02163617  0.021827044            5 
  801000    0.9213181   -7.8450796    208.21998  0.021662503  0.021811287            2 
  802000   0.92253729   -7.8568182    208.87468   0.02170352  0.021795448            3 
  803000   0.91748779    -7.877064    209.20524  0.021710797  0.021779574            1 
  804000   0.94237169   -7.8796175    207.93172  0.021551795  0.021763642            5 
  805000   0.92156789   -7.8872609    208.96228  0.021631706   0.02174787            4 
  806000   0.93293271   -7.8792356     209.1462  0.021623883   0.02173211            4 
  807000   0.93905747   -7.8493085    209.24725  0.021607522   0.02171664            1 
  808000   0.91907394   -7.9143475    208.85792  0.021540627  0.021701066            6 
  809000   0.91851667   -7.8490844    209.63718   0.02159427  0.021685537            2 
  810000   0.91984179   -7.8537702    210.54904  0.021661423  0.021670238            3 
  811000    0.9248041   -7.8793733    209.70693  0.021548184  0.021654914            3 
  812000   0.90925612   -7.8687454      210.291  0.021581588  0.021639405            1 
  813000   0.93374683    -7.836458    210.66432  0.021593309  0.021624011            3 
  814000   0.92387778   -7.8955592    210.21372  0.021520652   0.02160856            3 
  815000   0.91397357    -7.859257    210.78851  0.021553017  0.021593086            1 
  816000   0.93344733   -7.8629464    210.92617  0.021540663  0.021577932            2 
  817000   0.92473143   -7.9083452    210.33601  0.021454101  0.021562476            6 
  818000   0.94753399   -7.8766163    210.85111  0.021480349  0.021546949            4 
  819000   0.92294076   -7.8611906    211.08584  0.021478006  0.021531701            2 
  820000   0.90928553   -7.7912936    211.84771  0.021529239  0.021516585            2 
  821000   0.91899061   -7.9011621    211.45329  0.021462981  0.021501409            1 
  822000   0.92165956   -7.8825124    211.22776  0.021414006  0.021485898            1 
  823000   0.92592411   -7.8934113    210.27204  0.021291215  0.021470124            1 
  824000   0.91720443   -7.8865209    210.65236  0.021303839  0.021454427            2 
  825000   0.92772543    -7.889876    211.61257  0.021375007  0.021438798            3 
  826000   0.93528804   -7.9032558    211.74518  0.021362508  0.021423022            3 
  827000   0.92621965   -7.8748108    211.14109  0.021275805  0.021407354            2 
  828000   0.92302217   -7.8754134    211.24446  0.021260513  0.021391815            4 
  829000   0.88581266    -7.874196    211.76588  0.021287282    0.0213761            2 
  830000   0.93767951    -7.877275    211.89613  0.021274712  0.021360349            2 
  831000   0.92505634   -7.8595226    212.38582  0.021298217  0.021344709            2 
  832000   0.88847784   -7.8663665    212.11943  0.021245937  0.021329147            2 
  833000   0.92767788   -7.8566262    212.68661  0.021277172  0.021313717            2 
  834000   0.93399333   -7.9031304    212.75883  0.021258876  0.021298316            2 
  835000   0.92236349   -7.9154494    212.41581  0.021199183  0.021282718            3 
  836000   0.89910961   -7.9113373    212.64775  0.021196944  0.021267033            2 
  837000   0.92911964   -7.9019269    211.79234  0.021086454  0.021251268            2 
  838000    0.9099113   -7.9018286    212.15386  0.021097241  0.021235603            3 
  839000    0.9074048    -7.919328    212.22582  0.021079243  0.021219729            1 
  840000   0.91486531   -7.9226869    212.23441  0.021055001  0.021203782            3 
  841000   0.91618019   -7.8935274    212.99314  0.021105147  0.021187844            1 
  842000   0.89611039   -7.9255649    212.89563   0.02107043  0.021172103            2 
  843000   0.91531949   -7.9293169    212.36475  0.020992956  0.021156351            8 
  844000   0.92364997    -7.863418    213.38904  0.021069218  0.021140598            1 
  845000   0.89429551   -7.9134987    213.65638  0.021070648  0.021124982            2 
  846000   0.92911653   -7.9199778    213.50609  0.021030939   0.02110944            3 
  847000   0.92539525   -7.8681863    213.48678  0.021004209   0.02109398            2 
  848000   0.94438406   -7.8840313    213.74684  0.021004996  0.021078518            6 
  849000   0.90495708   -7.9294911    213.22304  0.020928841  0.021062868            1 
  850000   0.90419846   -7.8906939     213.7223  0.020953167  0.021047186            3 
  851000   0.90604149   -7.9311664    213.04812  0.020862527  0.021031292            1 
  852000   0.92154991   -7.9255124    213.96316  0.020927539  0.021015687            2 
  853000   0.90839337   -7.9472461    213.43241  0.020851154  0.020999985            3 
  854000   0.88885093   -7.9501927    214.28019  0.020909464  0.020984227            1 
  855000    0.9057531   -7.9118939    214.30151  0.020887087   0.02096862            2 
  856000   0.90362183   -7.9211575    214.55814  0.020887669   0.02095317            1 
  857000   0.89925631   -7.9279764     214.2458  0.020832925  0.020937653            2 
  858000   0.92036208   -7.8858577    215.10939   0.02089252  0.020922049            3 
  859000   0.91812475   -7.9234475    215.31221  0.020887874  0.020906731            1 
  860000   0.90935279   -7.9080988    215.27685  0.020860159  0.020891394            2 
  861000   0.91663926   -7.8998873    215.47735  0.020855338  0.020876177            4 
  862000   0.91538794   -7.9258199    215.17702  0.020802109  0.020860816            3 
  863000   0.88874135   -7.9494035    215.09546  0.020770129  0.020845418            2 
  864000   0.90914176   -7.9188698    215.56519  0.020791396  0.020830021            4 
  865000   0.92474295   -7.9010822    216.06105   0.02081513  0.020814772            2 
  866000   0.91221724   -7.9376226    215.50314  0.020737408  0.020799554            1 
  867000   0.90283658   -7.9183659    216.12801  0.020773549   0.02078448            1 
  868000   0.91311147   -7.9410174     216.3395  0.020769922  0.020769224            4 
  869000   0.92638692   -7.9264267    215.99985  0.020713449  0.020753965            1 
  870000   0.91123353   -7.9449229    216.23929  0.020712575  0.020738809            1 
  871000   0.89767296   -7.9394255    216.08112  0.020673663  0.020723441            3 
  872000   0.91122176   -7.9319894    216.44059  0.020684307  0.020708022            2 
  873000   0.92463907   -7.9585158    215.44079  0.020565177  0.020692718            1 
  874000   0.89348959   -7.9241197    217.13708  0.020703383  0.020677538            3 
  875000   0.90699976   -7.9262381    216.29335  0.020599366  0.020662289            1 
  876000   0.89839622   -7.9236447    216.52271   0.02059767  0.020646988            2 
  877000   0.89117762   -7.9176955    217.23227  0.020641606   0.02063177            1 
  878000   0.91013609   -7.8876268    217.53486  0.020646817    0.0206166            3 
  879000   0.91853014   -7.9358894    216.98436  0.020571138  0.020601332            5 
  880000   0.89597279   -7.9270085    217.29098  0.020576797  0.020586112            4 
  881000   0.89963676   -7.9336451    217.27139  0.020551588  0.020571033            4 
  882000   0.88339031   -7.9378548    217.29937  0.020530931   0.02055586            5 
  883000   0.91819299   -7.9451871    217.77594  0.020552655  0.020540901            2 
  884000   0.89705922   -7.9324213    217.92029  0.020543014  0.020525943            1 
  885000    0.8945416    -7.945152    217.51463  0.020481604  0.020510816            2 
  886000   0.88618517   -7.9388401    217.78301  0.020483729  0.020495819            1 
  887000   0.89986618   -7.9317655    218.31705  0.020510809  0.020480708            2 
  888000   0.92228061   -7.9714914    217.81654  0.020440741  0.020465531            2 
  889000   0.92435171   -7.9481878    217.91873  0.020427327  0.020450336            2 
  890000   0.88994063   -7.9508981    218.18661  0.020429458  0.020435178            6 
  891000   0.89226091   -7.9425058    218.41679  0.020428057  0.020420008            3 
  892000   0.90432063   -7.9672116    218.28646  0.020392981  0.020404822            2 
  893000   0.89957712   -7.9617118    218.65121  0.020404182  0.020389706            4 
  894000   0.89640431   -7.9219793    218.51129  0.020368316  0.020374538            3 
  895000   0.89658325   -7.9429884    218.43544  0.020338495   0.02035956            2 
  896000   0.88622187   -7.9395608    218.63444  0.020334304   0.02034458            2 
  897000   0.88320372   -7.9536306    218.53351  0.020302258  0.020329491            2 
  898000   0.90619776   -7.9582748    218.54534  0.020280748   0.02031438            3 
  899000    0.9218131   -7.9922013    218.60258  0.020263495  0.020299168            3 
  900000   0.89113186   -7.9860543    219.14631  0.020291325  0.020283921            3 
  901000    0.8965968    -8.004448    218.85714  0.020242059  0.020268682            2 
  902000   0.89595027   -7.9718705    218.66682  0.020202034  0.020253279            1 
  903000   0.88916964   -7.9625582    219.01038  0.020211367  0.020238081            2 
  904000   0.91384076   -7.9846147    219.07473  0.020194942  0.020222985            6 
  905000   0.89058889   -7.9671609    219.31501  0.020194752  0.020207746            2 
  906000   0.90569662   -7.9407642    219.60383  0.020199028  0.020192518            2 
  907000   0.88470082   -7.9673981    219.28221  0.020147207  0.020177369            2 
  908000   0.87494631   -7.9309086    220.30404  0.020218799  0.020162257            2 
  909000   0.88223861   -7.9446494    219.75256     0.020146  0.020147309            2 
  910000   0.91273384   -7.9767367     220.3179  0.020175632  0.020132312            1 
  911000   0.88341573   -7.9702229    220.60609  0.020179847  0.020117381            3 
  912000   0.91717928   -7.9742937    220.20266  0.020120857  0.020102529            1 
  913000   0.86161094   -7.9545244     220.0663  0.020086373  0.020087586            3 
  914000    0.8910972   -7.9904593    219.98617  0.020057091  0.020072664            1 
  915000    0.8971084   -8.0039235    220.83521  0.020112497  0.020057594            5 
  916000   0.89014981   -7.9623842    220.22121  0.020034681  0.020042565            2 
  917000   0.88844577   -7.9830635    220.38024  0.020027284  0.020027622            3 
  918000   0.87913792   -7.9753289    220.86107  0.020049117  0.020012718            2 
  919000   0.88192383    -7.979249    220.68163  0.020011029  0.019997828            1 
  920000   0.90158456   -7.9470484    220.94124  0.020012794  0.019983051            3 
  921000   0.91324198   -7.9803786    221.35633  0.020028622  0.019968319            2 
  922000   0.91344221   -7.9615603    221.03846  0.019978169  0.019953433            1 
  923000    0.8915366   -7.9694111    220.88131  0.019942336  0.019938467            2 
  924000   0.87875826   -8.0158177    220.59813  0.019895214  0.019923455            2 
  925000   0.88369521   -7.9848668    220.83019  0.019894611  0.019908305            2 
  926000   0.85947856   -7.9877688    220.75376  0.019866249  0.019893153            1 
  927000   0.89119497   -8.0102908    221.07419  0.019873624  0.019878023            2 
  928000   0.88686053   -7.9656554     221.0236  0.019847666  0.019863128            4 
  929000   0.88927619   -7.9744224    221.07059  0.019830515  0.019848162            5 
  930000   0.88711585   -7.9901498    221.26148  0.019826298  0.019832959            1 
  931000   0.87045095   -8.0083398    220.85249  0.019768393  0.019817845           10 
  932000   0.87609184   -8.0154136    221.51505  0.019806424  0.019802778            1 
  933000   0.86970634   -7.9861508    221.81738  0.019812199  0.019787763            2 
  934000   0.88265327   -7.9920049    222.38077  0.019841253  0.019772847            2 
  935000   0.88355748    -7.966868    222.55372  0.019835448  0.019757968            4 
  936000   0.87906883   -7.9578935    221.58889  0.019728356  0.019743079            5 
  937000   0.89360312   -7.9614323    223.02476  0.019835001  0.019728242            3 
  938000   0.85744599   -7.9908421    222.44459  0.019762313  0.019713459            3 
  939000   0.88378645   -8.0005571    222.37241   0.01973486  0.019698572            3 
  940000   0.90287558   -7.9740273    222.53071    0.0197279  0.019683586            3 
  941000   0.87757578   -8.0029526    222.51701  0.019705722  0.019668596            1 
  942000   0.88422271   -8.0352791    221.94123  0.019633867  0.019653499            1 
  943000   0.89229874   -8.0123299    222.62356  0.019673344  0.019638446            2 
  944000   0.87280581   -7.9940908    222.60851  0.019651175  0.019623441            2 
  945000    0.8615206   -7.9846728    223.06769  0.019670872   0.01960847            2 
  946000   0.87599993   -8.0177212    222.18933  0.019572703  0.019593473            2 
  947000   0.86504142   -8.0071295     222.4516  0.019575114  0.019578324            3 
  948000   0.86724712   -8.0261525     222.4298  0.019552549  0.019563118            1 
  949000   0.87358525   -8.0182274    222.41581  0.019530717  0.019548047            6 
  950000   0.87708688   -7.9698493     223.1246  0.019572333  0.019533039            3 
  951000    0.8810581     -7.99639    222.99181  0.019540117  0.019517954            2 
  952000   0.89001893   -8.0070807    222.27581  0.019456916  0.019502837            1 
  953000   0.87879593   -8.0127814    222.92621  0.019493373  0.019487661            3 
  954000   0.86157776   -7.9953216    222.80814  0.019462626  0.019472586            2 
  955000   0.87839627   -8.0547542    222.83672   0.01944474  0.019457447            3 
  956000    0.8595973   -7.9980591    222.12488   0.01936235  0.019442324            3 
  957000   0.85818918   -8.0391532    222.84968  0.019405232  0.019427141            1 
  958000   0.87975164   -8.0195176    223.20829   0.01941617  0.019411942            2 
  959000   0.86507894   -8.0380091    223.09502  0.019386081  0.019396786            3 
  960000   0.87666609   -8.0215315    223.05168  0.019362125  0.019381697            1 
  961000   0.88411641   -8.0255524    223.15902  0.019351285  0.019366734            2 
  962000   0.88429988   -8.0303129    223.78039  0.019384995  0.019351695            4 
  963000   0.88765032   -8.0199927    223.29319  0.019322706  0.019336552            1 
  964000   0.86931689   -8.0220473    223.43761  0.019315146    0.0193214            2 
  965000   0.86444442    -8.038499    223.36722  0.019289052  0.019306365            2 
  966000   0.84827107   -8.0340353    224.26415  0.019346459  0.019291176            4 
  967000   0.86343877   -8.0343798    223.14544  0.019230044  0.019275957            2 
  968000     0.863967   -8.0578908    223.41342  0.019233249  0.019260683            2 
  969000    0.8700525    -8.050822    223.73816  0.019241328  0.019245426            3 
  970000   0.87717106   -8.0232316    223.53205  0.019203784  0.019230189            2 
  971000   0.86215852   -8.0515667    223.17892    0.0191537    0.0192148            4 
  972000   0.88131468   -8.0657133    222.71032   0.01909382  0.019199406            1 
  973000   0.85900109   -8.0767376    222.74741  0.019077373  0.019183907            2 
  974000   0.85727118   -8.0386434    223.88639  0.019155236  0.019168393            3 
  975000   0.85555312   -8.0178076    224.04342   0.01914901  0.019152928            2 
  976000   0.86328503   -8.0552434    223.69728  0.019099836    0.0191375            2 
  977000   0.85254242   -8.0339028    224.12112  0.019116438  0.019122126            8 
  978000   0.87738038   -8.0161731     224.0669  0.019092271  0.019106753            4 
  979000   0.87411138   -8.0739426    223.87948  0.019056817  0.019091298            4 
  980000     0.848554   -8.0516784    223.83446  0.019033543  0.019075829            2 
  981000   0.85510626   -8.0596722    223.29149  0.018968017  0.019060295            2 
  982000    0.8536734   -8.0872431    223.32914  0.018951896  0.019044633            2 
  983000   0.86256982   -8.0594942    223.80836  0.018973241  0.019029016            1 
  984000   0.86437381   -8.0502681    224.13762  0.018981845  0.019013549            1 
  985000   0.85659977   -8.0728985    223.23999  0.018886632   0.01899805            5 
  986000   0.86923297   -8.0793886    223.66099  0.018903059  0.018982471            4 
  987000   0.86227113   -8.0756287    223.99897  0.018912442  0.018966769            2 
  988000   0.84835455   -8.0525375    223.93874   0.01888822  0.018951146            1 
  989000   0.85846517   -8.0437923      224.453  0.018912454  0.018935501            1 
  990000    0.8617728   -8.1071781    223.71067  0.018830864  0.018919892            4 
  991000   0.86400193   -8.0564868     224.0986  0.018844484  0.018904294            1 
  992000   0.86577803   -8.0611266    224.74485  0.018879776  0.018888719            3 
  993000   0.87223599   -8.0209427    224.42128  0.018833609   0.01887313            4 
  994000   0.87051784   -8.0514406    223.97385  0.018777151  0.018857536            7 
  995000   0.86543159   -8.0492841    223.70213  0.018735522  0.018841978            3 
  996000    0.8506782   -8.0517057    224.25276  0.018762781  0.018826383            2 
  997000   0.86164633   -8.0921225    224.02468  0.018724898  0.018810696            2 
  998000   0.85313926   -8.0572487    224.79779  0.018770691  0.018795074            4 
  999000   0.84723508   -8.0581264    224.14811  0.018697707  0.018779504            3 
 1000000    0.8388845   -8.0699279    224.25723  0.018688102  0.018763846            3 
 1001000   0.85823714   -8.0794388    223.98189  0.018646511  0.018748155            1 
 1002000   0.85089165   -8.0755313    224.54332  0.018674594  0.018732603            2 
 1003000   0.84611601   -8.0492907    225.05801  0.018698738  0.018717053            2 
 1004000     0.860933   -8.0590836    224.76096  0.018655458  0.018701557            5 
 1005000   0.86434584   -8.0667344    225.26124  0.018678378  0.018686103            2 
 1006000   0.85260599   -8.0444282    224.95998  0.018634856  0.018670642            3 
 1007000    0.8548735   -8.0993435    225.02832  0.018622006  0.018655026            2 
 1008000   0.85495796   -8.0915578    224.89487  0.018592499   0.01863941            5 
 1009000   0.85057083   -8.1026384    224.71333  0.018559079  0.018623842            3 
 1010000     0.856742   -8.0894128     224.8223  0.018549695  0.018608363            4 
 1011000   0.85376532   -8.0731206    225.18394  0.018561156  0.018592938            9 
 1012000   0.84710209   -8.1001794    225.61803   0.01857856  0.018577569            2 
 1013000   0.86482027   -8.0678146    225.13053  0.018520116   0.01856213            2 
 1014000   0.84117241   -8.1025565    224.83582  0.018477631   0.01854664            2 
 1015000   0.84859034   -8.0814021    225.94981  0.018550887  0.018531223            3 
 1016000   0.85449208   -8.1034014    224.99862  0.018454611  0.018515794            1 
 1017000   0.83396904   -8.0555666    225.68647  0.018492828  0.018500473            2 
 1018000   0.85423249   -8.0684199    225.99731  0.018500108  0.018485291            7 
 1019000   0.83657807   -8.0623464    226.05499  0.018486669   0.01847009            3 
 1020000   0.83804389   -8.0501879    226.51115  0.018505813  0.018454951            3 
 1021000   0.84281093   -8.0952302    226.56126  0.018491778  0.018439817            7 
 1022000   0.84910619   -8.0796301    226.57727  0.018474989  0.018424566            2 
 1023000   0.83126473   -8.1197679    225.86132  0.018398608  0.018409321            1 
 1024000   0.84142282   -8.1040818    225.68053  0.018365928   0.01839402            2 
 1025000   0.84551335   -8.1141413    226.39807  0.018406347  0.018378699            3 
 1026000   0.84304669   -8.1246706    225.63629  0.018326534  0.018363449            3 
 1027000   0.84555801    -8.119065    225.75744   0.01831852  0.018348018            5 
 1028000    0.8362932   -8.1102208    226.01505  0.018321583  0.018332616            1 
 1029000    0.8311838   -8.0995135    226.28933   0.01832599   0.01831722            2 
 1030000   0.83871584    -8.124952    225.57767   0.01825062  0.018301821            2 
 1031000   0.83135983   -8.1051861    226.53898  0.018310619  0.018286459            2 
 1032000   0.84976957   -8.0835707    226.64343  0.018301311  0.018271217            5 
 1033000   0.83246372   -8.0971762     226.2407  0.018251105    0.0182561            2 
 1034000   0.83040087   -8.1076159    226.74028  0.018273717  0.018240923            8 
 1035000   0.83292637   -8.0824753    226.98086  0.018275432  0.018225703            2 
 1036000   0.82873981   -8.1098899    226.80987  0.018244037  0.018210574            4 
 1037000   0.83484945   -8.1040439    226.53418  0.018204289  0.018195493            2 
 1038000   0.83223812   -8.1075338    227.00496  0.018224547  0.018180303            2 
 1039000   0.84223003   -8.1145262     226.7112  0.018183446  0.018165195            2 
 1040000   0.83738663   -8.0941246    227.02299  0.018190945  0.018150126            3 
 1041000   0.84133899   -8.0854437    226.99967  0.018171603  0.018135036            2 
 1042000   0.84262998   -8.1281624     227.1432  0.018165643   0.01812003            5 
 1043000   0.84630755   -8.1452788    227.04787  0.018140609  0.018105021            5 
 1044000   0.84425662   -8.1017401    227.68014  0.018173702  0.018090007            1 
 1045000   0.84114536   -8.1264409    227.18639  0.018116937  0.018075037            3 
 1046000   0.84834112   -8.0672901    227.64506  0.018136159  0.018060189            9 
 1047000   0.83426973   -8.1099775    227.31421  0.018092503  0.018045323            2 
 1048000   0.82495662       -8.112    227.41142  0.018082969  0.018030312            3 
 1049000   0.83776553   -8.1324715    227.07381  0.018038911  0.018015285            1 
 1050000   0.82212686   -8.1368027    227.42284  0.018049432  0.018000234            2 
 1051000   0.84262614   -8.1418883    227.61392  0.018047409  0.017985185            3 
 1052000   0.82522993   -8.0815315    228.19904  0.018076603  0.017970183            3 
 1053000   0.85122608   -8.1457389    227.92747  0.018037944  0.017955183            1 
 1054000    0.8285365   -8.1272062    227.57739  0.017993152  0.017940199            4 
 1055000   0.84272934    -8.135929    228.26302  0.018030254  0.017925318           10 
 1056000   0.82069592   -8.1468074    227.42302  0.017946892  0.017910385            5 
 1057000   0.81450629   -8.1103249    228.00159  0.017975527  0.017895419            6 
 1058000   0.83442918   -8.1369002    227.87949   0.01794892  0.017880524            3 
 1059000   0.82463837   -8.1459595    227.42049  0.017895852  0.017865574            2 
 1060000   0.85513977    -8.131858    227.39649  0.017877082  0.017850576            2 
 1061000   0.82007397    -8.118462    228.42851   0.01794129  0.017835642            3 
 1062000   0.82834425   -8.1209689    227.83812   0.01787807   0.01782067            2 
 1063000   0.83300689    -8.138258    227.92592  0.017868134  0.017805737            2 
 1064000   0.83204795   -8.1264792     227.6015  0.017825932  0.017790691            2 
 1065000   0.83064044   -8.1237643    227.92725  0.017834683  0.017775636            2 
 1066000   0.82427577   -8.1081503    228.01995  0.017825199   0.01776062            4 
 1067000   0.81559376   -8.1711835    227.46219  0.017764932  0.017745617            4 
 1068000   0.83431153   -8.1292797    227.64587   0.01776263  0.017730575            2 
 1069000    0.8459778   -8.1338413    228.23924   0.01779227  0.017715535            3 
 1070000   0.83771228   -8.1438251    227.68158   0.01773221  0.017700526            3 
 1071000   0.82094828   -8.1650129    227.32831  0.017688166  0.017685508            5 
 1072000    0.8236829   -8.1590582    228.31571  0.017748423   0.01767048            4 
 1073000   0.82055862   -8.1731264    227.67394   0.01768204  0.017655465            2 
 1074000   0.83883527   -8.1771137    227.64115  0.017663031  0.017640493            5 
 1075000   0.83167511   -8.1683174    228.00656  0.017674927  0.017625508            2 
 1076000   0.81850826   -8.1578928    228.02396  0.017659848   0.01761052            6 
 1077000   0.81955378   -8.1909782    228.45468  0.017676778  0.017595512            5 
 1078000   0.82629907   -8.1650107    228.39569   0.01765582  0.017580597            7 
 1079000   0.83567715   -8.1805936     228.1659   0.01762171  0.017565634            7 
 1080000   0.82271547   -8.1981808    227.93253  0.017587386  0.017550726            4 
 1081000   0.83175219   -8.1811548    228.20464  0.017592094  0.017535777            3 
 1082000   0.82464537   -8.1548461    228.27063  0.017580917  0.017520913            2 
 1083000    0.8145997   -8.1614004    228.56893  0.017587637  0.017506042            4 
 1084000   0.83175037    -8.167197    228.60048  0.017573838  0.017491272            1 
 1085000    0.8175676   -8.1531266    228.53288  0.017552449  0.017476481            4 
 1086000   0.81632832    -8.173741     228.6082  0.017542066   0.01746169            3 
 1087000   0.81392914   -8.1815344    228.74992  0.017536793  0.017446843            1 
 1088000   0.83624943   -8.1415734    229.00941  0.017540549  0.017432138            6 
 1089000   0.81076154   -8.1373241    229.26245  0.017543805  0.017417468            5 
 1090000   0.81225484   -8.1587644    229.29526  0.017530219  0.017402805            2 
 1091000   0.81781984   -8.1473292    229.53515  0.017532474   0.01738821            2 
 1092000    0.8185264   -8.1679449    228.78968   0.01745953   0.01737351            2 
 1093000   0.83367818   -8.1729926    228.95614  0.017456247   0.01735885            3 
 1094000   0.81982901    -8.191994    229.04357  0.017446951  0.017344137            1 
 1095000   0.81697701   -8.2050159    229.08581  0.017434232  0.017329438            2 
 1096000   0.81319851   -8.1840075    229.29664  0.017434356  0.017314657            1 
 1097000   0.82368107   -8.1858342    229.16691  0.017408608  0.017300064            1 
 1098000   0.82026799   -8.1863061    229.90681  0.017448907  0.017285415            2 
 1099000   0.81584594   -8.1523017    229.36609   0.01739203  0.017270789            3 
 1100000   0.81006345   -8.1951917    229.05282  0.017352487  0.017256061            4 
 1101000   0.81086497   -8.1991744    228.40251  0.017287505  0.017241264            2 
 1102000   0.80638433   -8.1724251    228.53631  0.017281935  0.017226419            1 
 1103000   0.81076743   -8.1739007    229.10306  0.017309086  0.017211628            2 
 1104000   0.80058063   -8.2116851    228.73606  0.017265705  0.017196922            7 
 1105000   0.81033646   -8.1758174    229.02765   0.01727207  0.017182138            3 
 1106000   0.79097897   -8.1793485    228.66503  0.017229131  0.017167346            6 
 1107000   0.80964625   -8.1620862    229.11658   0.01724756  0.017152589            2 
 1108000   0.82448585   -8.2182294    229.22356  0.017240039  0.017137857            2 
 1109000   0.81243529   -8.1891528    229.51335  0.017246269  0.017123116            2 
 1110000   0.79533204   -8.1704282    229.70379  0.017245029   0.01710838            2 
 1111000    0.8133919   -8.1672955    229.68773  0.017228303  0.017093738            3 
 1112000   0.80246246   -8.1524975    229.58529  0.017205133  0.017079142            4 
 1113000   0.81406686   -8.1637205    229.20768  0.017161402  0.017064538            4 
 1114000   0.80990331     -8.17384    229.45625  0.017164591  0.017049972            1 
 1115000   0.79345952   -8.1819776     229.1222   0.01712423  0.017035378            3 
 1116000   0.79684582    -8.174031    229.64735    0.0171481  0.017020748            2 
 1117000   0.78589593   -8.1760801    229.70181   0.01713681  0.017006139            2 
 1118000   0.82107406   -8.1673735    229.65748  0.017118178  0.016991449            2 
 1119000   0.81113172   -8.1933473    229.75007  0.017109776  0.016976886            1 
 1120000   0.81654163   -8.1941611    228.99799  0.017038541  0.016962171            2 
 1121000    0.8036076   -8.2115257    229.55397  0.017064672  0.016947467            3 
 1122000   0.79238948   -8.2213164     229.0306  0.017010592  0.016932701            5 
 1123000   0.79784299   -8.1841762    229.77196  0.017050457  0.016917949            2 
 1124000   0.79824654   -8.2262954    229.25203   0.01699674  0.016903273            3 
 1125000   0.79739906   -8.1982063    229.59882   0.01700732   0.01688858            3 
 1126000   0.79292562   -8.2098154    229.35762  0.016974365  0.016873866            4 
 1127000   0.79697142   -8.2387759    229.24781  0.016951184   0.01685914            2 
 1128000   0.80834488   -8.1865059    229.85806   0.01698124   0.01684442            1 
 1129000   0.80439781   -8.2313585    229.37655  0.016930657   0.01682969            2 
 1130000   0.81609906   -8.2104428    229.60731  0.016932692  0.016815015            3 
 1131000   0.79796935   -8.1928122    229.66383  0.016921885  0.016800405            6 
 1132000   0.81518342   -8.2105303    229.77771   0.01691532  0.016785856            2 
 1133000   0.81332883   -8.1882025    229.93645  0.016912066   0.01677136            5 
 1134000   0.78570482   -8.1838161    229.71858  0.016881142  0.016756824            3 
 1135000   0.80208541   -8.1941458    229.73867  0.016867743  0.016742239            2 
 1136000   0.80023903   -8.1856657    230.23965  0.016889646  0.016727706            6 
 1137000   0.81859897   -8.2079516    230.40868  0.016887179  0.016713155            3 
 1138000   0.79489728   -8.2050861    230.05952  0.016846772  0.016698561            2 
 1139000    0.7963122   -8.2003706    230.23505  0.016844824  0.016683987            2 
 1140000   0.79375914   -8.2219251    230.15184  0.016823965  0.016669418            2 
 1141000   0.80710797    -8.203171    229.87349  0.016788891  0.016654807            3 
 1142000   0.80329039   -8.1968862    230.09344  0.016790239  0.016640296            4 
 1143000   0.79149938   -8.2086879    230.09874  0.016775936  0.016625754            5 
 1144000   0.78729004   -8.2018571    230.75451  0.016809041  0.016611251            2 
 1145000   0.79390198   -8.2119337    230.01382  0.016740453  0.016596778            3 
 1146000   0.77864386   -8.2346687    230.13271   0.01673449    0.0165823            8 
 1147000    0.8037794   -8.2096501    230.84893  0.016771936  0.016567904            3 
 1148000    0.8015841   -8.2296737    229.28737  0.016643973  0.016553496            3 
 1149000   0.78767377   -8.2208436    230.00738  0.016681708  0.016539099            3 
 1150000   0.80163907   -8.2708825    230.22918  0.016683274  0.016524632            6 
 1151000   0.80155243   -8.2359112    230.14482  0.016662671  0.016510259            3 
 1152000   0.79090421   -8.2596522    230.10711   0.01664548  0.016495854            3 
 1153000   0.79332366   -8.2542749    230.38151  0.016650875  0.016481477            2 
 1154000   0.79366165    -8.213286    230.91033  0.016674634  0.016467161            2 
 1155000   0.79494878   -8.2394296    230.60633  0.016638264   0.01645287            5 
 1156000   0.79513908   -8.2362581    230.86494  0.016642513    0.0164386            1 
 1157000   0.79007339   -8.2420765    230.94684  0.016634028  0.016424293            3 
 1158000   0.80231966   -8.2475996    230.52575   0.01658936  0.016410081            5 
 1159000     0.788569   -8.2397012    231.00573  0.016609558  0.016395953            3 
 1160000   0.78977947   -8.2262448    231.35738  0.016620502  0.016381841            4 
 1161000   0.78116729   -8.2225892     231.2334  0.016597287  0.016367748            5 
 1162000   0.79697014   -8.2539427    231.37309  0.016593022  0.016353585            2 
 1163000   0.79462628   -8.2574906    230.80413  0.016537986  0.016339409            2 
 1164000   0.78790538   -8.2537111    230.89672  0.016530407  0.016325289            4 
 1165000   0.78912525   -8.2522872    231.06558  0.016528296  0.016311161            4 
 1166000   0.78186045   -8.2626102    231.07456  0.016514763  0.016297059            1 
 1167000   0.79964843   -8.2659359    230.77635  0.016479317  0.016282884            1 
 1168000   0.79382653   -8.2619888    231.03556  0.016483702   0.01626872            2 
 1169000   0.78819093   -8.2617442    230.78783  0.016451941  0.016254575            4 
 1170000   0.77418904   -8.2640082    231.49967   0.01648858  0.016240413            4 
 1171000   0.77677247    -8.277746     230.7025   0.01641777  0.016226264            4 
 1172000   0.78035935   -8.2467486    231.30412  0.016446539  0.016212145            2 
 1173000   0.80335069   -8.3119527    230.93851  0.016406544   0.01619809            3 
 1174000   0.77535693   -8.2707465    231.07898   0.01640254  0.016184009            1 
 1175000   0.78206212   -8.2779904    231.28499  0.016403191  0.016169978            3 
 1176000   0.77734405   -8.2627278    231.91267  0.016433721  0.016155974            6 
 1177000   0.80045046    -8.261871    231.24789  0.016372691  0.016141965            2 
 1178000   0.78482818   -8.2576423    231.37081  0.016367488  0.016127958            1 
 1179000   0.78680434   -8.2955134    231.30356  0.016348852  0.016113995            1 
 1180000    0.7757291   -8.2570374    231.84834   0.01637347  0.016100055            2 
 1181000   0.78163518   -8.2968908    231.24482  0.016317021  0.016086111            2 
 1182000   0.79408323   -8.2690497    231.36101  0.016311408  0.016072183            3 
 1183000   0.77500357   -8.2397281    231.78631  0.016327579  0.016058338            2 
 1184000   0.77023711   -8.2748201    231.83584  0.016317275  0.016044557            2 
 1185000   0.80498573   -8.2270345     232.2386  0.016331828  0.016030794            2 
 1186000   0.77977023   -8.2735405    231.94125  0.016297165  0.016017077            5 
 1187000   0.79243982   -8.2518348    231.95247  0.016284223  0.016003344            2 
 1188000   0.76990321   -8.2670942    232.35558  0.016298792  0.015989654            3 
 1189000   0.77699835   -8.2740513    231.78368  0.016245002  0.015975915            3 
 1190000   0.77134555   -8.2527235    232.02143  0.016247999  0.015962222            4 
 1191000   0.76017207   -8.2352095    232.78517  0.016287796   0.01594855            4 
 1192000   0.77889358   -8.2629546    231.81791   0.01620651   0.01593489            3 
 1193000   0.77155687   -8.2464302    232.24205  0.016222552  0.015921214            3 
 1194000   0.76897719   -8.2859627     231.7279  0.016173081  0.015907497            3 
 1195000   0.77504945   -8.2517922    232.09539  0.016185173  0.015893693            3 
 1196000   0.78769583   -8.2615393    231.73211  0.016146329  0.015879943            7 
 1197000   0.78231382   -8.2721595    231.74818  0.016133958  0.015866156            4 
 1198000   0.76149544   -8.2698034    231.98778  0.016137158  0.015852333            3 
 1199000   0.79926418   -8.2657825    231.79916  0.016110589  0.015838568            2 
 1200000    0.7502975   -8.2730593    232.05324  0.016114808  0.015824827            4 
 1201000   0.77302081    -8.285383    232.04487   0.01610081  0.015811073            8 
 1202000    0.7497394   -8.3015677    231.47424  0.016047854   0.01579726            2 
 1203000   0.76778837   -8.2893704    232.18601  0.016083819  0.015783503            1 
 1204000   0.78173259   -8.2935934    231.99294  0.016057097  0.015769694            5 
 1205000   0.77138469   -8.3041593    232.20882  0.016058701  0.015755958            2 
 1206000   0.77555645   -8.2689497    232.14943  0.016041282  0.015742198            1 
 1207000   0.78245067   -8.3191701    231.52996  0.015985222  0.015728456            2 
 1208000   0.78471744   -8.2710324    231.85223  0.015994221  0.015714772            4 
 1209000   0.77282796   -8.2962008    232.05091  0.015994687  0.015701119            4 
 1210000   0.77527221   -8.3198865    231.66079    0.0159546   0.01568744            3 
 1211000   0.74584203   -8.2990614    232.35901  0.015989472  0.015673705            2 
 1212000    0.7633584   -8.2803149    232.63938  0.015995557  0.015660023            4 
 1213000   0.77285799   -8.2999767    232.11076  0.015946054  0.015646323            4 
 1214000   0.76209681   -8.3059666    231.55922  0.015895059   0.01563263            2 
 1215000   0.77802516   -8.2937643    232.24961  0.015929329  0.015618976            4 
 1216000   0.76482217   -8.2731787    232.33573   0.01592213   0.01560535            8 
 1217000   0.77921993   -8.2909012    232.55439   0.01592402   0.01559178            4 
 1218000   0.75163052   -8.2595928    232.20626  0.015887128  0.015578242            3 
 1219000   0.76702574   -8.3012214     232.5259  0.015895946  0.015564736            4 
 1220000   0.77724367   -8.2757571    232.62004  0.015889347  0.015551247            1 
 1221000   0.76243108   -8.2728179    232.83227  0.015890818  0.015537754            3 
 1222000   0.76142444    -8.292104    232.56475  0.015859571  0.015524284            1 
 1223000   0.77894873   -8.3305824    232.12694  0.015816771  0.015510767            1 
 1224000   0.76494465   -8.3018568    232.48317  0.015828103  0.015497283            2 
 1225000   0.75859399    -8.330003    231.89458  0.015775142  0.015483753            1 
 1226000   0.76579613   -8.3213655    232.18801  0.015782219    0.0154702            2 
 1227000   0.75753761   -8.3154568    232.70215  0.015804276  0.015456655            2 
 1228000   0.75710273   -8.3171036    232.21235  0.015758167  0.015443134            4 
 1229000   0.75665457   -8.3391961    232.53754  0.015767395   0.01542965            4 
 1230000   0.75779883   -8.3178867    232.33452  0.015740821  0.015416157            9 
 1231000   0.76687915   -8.3115571    232.90499  0.015766652   0.01540268            5 
 1232000    0.7654842   -8.2990537    233.04577  0.015763377  0.015389246            3 
 1233000   0.75072941   -8.3212576    232.65897  0.015724451  0.015375855            1 
 1234000   0.74141883   -8.3085938    232.67712  0.015712934  0.015362452            2 
 1235000   0.75920211   -8.2724461    232.87904  0.015713835  0.015349128            2 
 1236000    0.7509604    -8.351956    232.50851   0.01567614  0.015335741            6 
 1237000   0.76197974   -8.3393494    231.92567  0.015624203  0.015322326            1 
 1238000   0.76488472   -8.3264373    232.23748  0.015632571  0.015308853            7 
 1239000    0.7627381   -8.3190692    232.86447  0.015662125  0.015295447            3 
 1240000   0.76106154   -8.3181518    232.35378  0.015615173  0.015282077            4 
 1241000   0.77491346   -8.3262888    232.52173  0.015613869   0.01526868            4 
 1242000   0.76097313   -8.3419857    231.69564   0.01554587  0.015255239            9 
 1243000   0.75762404   -8.3423061     231.9862  0.015552842  0.015241764            8 
 1244000   0.74114417    -8.325156    232.11901  0.015549237  0.015228321            1 
 1245000   0.76111482   -8.3204757    232.38281  0.015554405   0.01521488            1 
 1246000   0.75654416   -8.3471619    232.71329  0.015564024  0.015201427            4 
 1247000   0.74359473     -8.30971    232.95305  0.015567566   0.01518803            1 
 1248000   0.75802277    -8.330072    232.97244  0.015556386  0.015174644            2 
 1249000   0.72622148   -8.3231364    232.42296   0.01550727  0.015161201            1 
 1250000   0.75496938   -8.3280173    232.51375  0.015500917  0.015147746            2 
 1251000   0.75831306    -8.338477    232.17209  0.015465767  0.015134329            2 
 1252000   0.76847683   -8.3523513    232.66795  0.015486418  0.015120961            3 
 1253000   0.76101258    -8.335036    232.86272  0.015487012   0.01510762            2 
 1254000   0.75633946   -8.3331679    232.84292  0.015473347  0.015094257            2 
 1255000   0.75199937   -8.3400822    232.65769  0.015448718  0.015080892            2 
 1256000   0.75893386   -8.3755534    232.73432  0.015441502  0.015067589            3 
 1257000   0.75084844   -8.3468603    232.52324  0.015415224  0.015054284            1 
 1258000   0.73725085   -8.3439577    232.49804  0.015401301  0.015040971            2 
 1259000   0.74860112   -8.3304924    232.83155  0.015411143  0.015027654            2 
 1260000   0.75842283   -8.3358039    232.97693  0.015408527  0.015014331            5 
 1261000   0.74132745   -8.3296219    232.78454  0.015383594  0.015001011            2 
 1262000   0.74481322   -8.3322359    232.24501  0.015335777  0.014987738            3 
 1263000   0.75497792   -8.3478402    232.41645  0.015334946  0.014974476            2 
 1264000   0.74407685   -8.3451824    232.13348  0.015304158  0.014961162            2 
 1265000    0.7425641   -8.3659401    232.33353  0.015305239  0.014947829            5 
 1266000   0.76686633   -8.3779174    232.55379  0.015307648   0.01493451            3 
 1267000   0.74852595   -8.3644066    232.88947  0.015317645  0.014921212            3 
 1268000   0.73083631    -8.386068    232.12363  0.015255233  0.014907844            2 
 1269000   0.75025044   -8.3928685    232.76237  0.015285157  0.014894495            2 
 1270000   0.74615394   -8.3784339    232.09662  0.015229437  0.014881151            3 
 1271000   0.73118373   -8.3508791    232.29276  0.015230315  0.014867856            2 
 1272000   0.75991966    -8.363815    231.97866  0.015197763  0.014854529            1 
 1273000    0.7513515   -8.3473448    232.42585  0.015215099   0.01484127            2 
 1274000   0.74302695   -8.3525266    231.60037  0.015149161  0.014827982            2 
 1275000   0.74563782   -8.3901628    232.38286  0.015188422   0.01481471            3 
 1276000   0.73392084   -8.4011785     232.0618  0.015155551  0.014801431            1 
 1277000   0.73931141   -8.3545443    232.80288  0.015192044  0.014788133            3 
 1278000   0.75109304   -8.3767535    232.41723   0.01515501   0.01477485            2 
 1279000   0.74196184   -8.3886105    232.31964  0.015136802  0.014761598            4 
 1280000   0.73905582   -8.3517095    232.34865  0.015126865   0.01474838            6 
 1281000   0.73848457   -8.3627934    232.68321  0.015136821  0.014735155            2 
 1282000   0.73966283   -8.3791308    232.26999  0.015098153  0.014721933            2 
 1283000   0.73224862   -8.4109608     232.0602  0.015072759  0.014708695            2 
 1284000   0.73863218    -8.406024    232.86676  0.015113367  0.014695467            4 
 1285000   0.74770458   -8.3792227    232.20814  0.015058893  0.014682312            3 
 1286000   0.74516724   -8.4059374    232.43705  0.015062017  0.014669111            3 
 1287000   0.74375369   -8.3870488    232.66825  0.015065284  0.014655903            2 
 1288000   0.73716129    -8.413999    231.92771  0.015005675  0.014642689            3 
 1289000   0.74566995   -8.3939683    232.33253  0.015020205  0.014629439            1 
 1290000   0.74334457   -8.4056068     232.1195    0.0149948  0.014616218            3 
 1291000   0.72978185   -8.4133166     231.8428  0.014965324  0.014603004            2 
 1292000   0.75734166   -8.4086566    232.16542   0.01497455  0.014589792            3 
 1293000   0.72679555   -8.3849764    232.25889  0.014968993  0.014576645            2 
 1294000   0.72133884   -8.4117923    232.25646  0.014957268  0.014563457            2 
 1295000   0.72770454   -8.4242216    232.36223  0.014952524  0.014550299            3 
 1296000    0.7533584   -8.4099925    232.34049  0.014939589  0.014537136            3 
 1297000   0.76135983    -8.422658    231.74253  0.014889651  0.014523983            5 
 1298000   0.72488637   -8.4141433    231.87541  0.014886711  0.014510842            4 
 1299000   0.72180469    -8.428147    231.94943  0.014879999  0.014497703            4 
 1300000   0.73284034   -8.4124767    232.10128  0.014878287  0.014484575            2 
 1301000   0.73024488   -8.4454129    232.46586  0.014890204  0.014471457            2 
 1302000    0.7480247    -8.452223    231.79996  0.014836147   0.01445831            2 
 1303000    0.7285467   -8.4153338    231.96867  0.014835551  0.014445239            3 
 1304000   0.72550641     -8.40908    232.25942  0.014842754  0.014432173            2 
 1305000   0.73956669   -8.4174783    232.59456  0.014852782  0.014419128            1 
 1306000   0.74819483   -8.4234464    232.30046  0.014822643  0.014406068            2 
 1307000   0.74413092   -8.4154844    232.83793  0.014845571  0.014393099            4 
 1308000   0.71374149   -8.4169389    231.84429  0.014770915  0.014380116            2 
 1309000   0.73687772   -8.4046059     232.2213  0.014783633  0.014367139            3 
 1310000   0.74613961   -8.4145403    232.62228  0.014797855  0.014354173            1 
 1311000   0.73259685   -8.4118944    232.81195  0.014798624  0.014341236            5 
 1312000   0.73732235     -8.39995    232.52961  0.014769411  0.014328343            5 
 1313000   0.73400092   -8.4199627     232.8452  0.014778193  0.014315457            8 
 1314000   0.73619011   -8.4010201    232.44636  0.014741652  0.014302614            3 
 1315000   0.75048131   -8.4330385    232.30851  0.014721705  0.014289771            5 
 1316000   0.72573231   -8.4222043    232.36807   0.01471429  0.014276917            2 
 1317000   0.72469836    -8.425116    232.41708  0.014706219  0.014264105            3 
 1318000   0.74568235   -8.4185156    232.75554   0.01471646  0.014251271            3 
 1319000   0.73410945    -8.429613    232.38483  0.014681882  0.014238489            2 
 1320000   0.73382553   -8.4673181    232.35311  0.014668757  0.014225692            4 
 1321000   0.73526472   -8.4336778    232.89613  0.014691908  0.014212876            2 
 1322000   0.71245699   -8.4144123    233.00315  0.014687541  0.014200115            4 
 1323000   0.72230332   -8.4385688    232.95915  0.014673668  0.014187388            3 
 1324000   0.71398477   -8.4122615     233.2397  0.014680243  0.014174648            3 
 1325000    0.7079451   -8.4361108    232.58236  0.014627822  0.014161958            2 
 1326000   0.72966552    -8.456576    232.56013  0.014615393   0.01414921            2 
 1327000   0.72247091   -8.4055635    232.83811  0.014621836  0.014136514            3 
 1328000   0.72215803   -8.4274985    232.93251  0.014616749  0.014123836            3 
 1329000   0.73063032   -8.4360001    232.41022  0.014573001  0.014111155            1 
 1330000    0.7211881   -8.4356846    232.35053  0.014558304  0.014098462            1 
 1331000   0.72433576   -8.4273923    232.72457  0.014570784  0.014085785            5 
 1332000   0.72277579   -8.4508467    233.12453  0.014584868  0.014073159            3 
 1333000   0.74979616   -8.4247381    233.13369  0.014574499  0.014060535            3 
 1334000   0.73615712   -8.4216207      233.143  0.014564156   0.01404796            3 
 1335000    0.7347713   -8.4576538    232.93305   0.01454014  0.014035367            2 
 1336000    0.7204276   -8.4169321    232.82923  0.014522782  0.014022791            1 
 1337000    0.7123469   -8.4101809    232.83937  0.014512551  0.014010215            1 
 1338000   0.71028486   -8.4368327    232.72636  0.014494666   0.01399768            2 
 1339000   0.73228912   -8.4261435    233.04984  0.014503973  0.013985125            3 
 1340000   0.72321996   -8.4405466    232.91913  0.014485021  0.013972596            1 
 1341000   0.72484143   -8.4467966    233.09401  0.014485086  0.013960032            2 
 1342000   0.72039661   -8.4444282    233.16661  0.014478801  0.013947464            1 
 1343000   0.72249774   -8.4430128    232.75745  0.014442632  0.013934924            2 
 1344000   0.70631826   -8.4241412    232.93716  0.014443028    0.0139224            4 
 1345000    0.7329527   -8.4432879    232.92456  0.014431509  0.013909889            4 
 1346000    0.7133152   -8.4578845    233.49284  0.014455971  0.013897362            2 
 1347000   0.71559594   -8.4713867    233.49854  0.014445592  0.013884857            2 
 1348000   0.70846091   -8.4934417    232.88115  0.014396708  0.013872332            3 
 1349000   0.72668665   -8.4684377    232.80876  0.014381564   0.01385983            3 
 1350000   0.72203183   -8.4720191    232.96006   0.01438025  0.013847352            1 
 1351000   0.71712422   -8.4609279    232.93044  0.014367779  0.013834868            2 
 1352000   0.71504839   -8.4603602    232.87684  0.014353849  0.013822384            1 
 1353000   0.71307516    -8.442329    233.25561  0.014366569  0.013809968            5 
 1354000   0.71005711   -8.4611869    232.99212  0.014339741  0.013797554            2 
 1355000   0.71214394    -8.451029    233.10897  0.014336345  0.013785137            3 
 1356000   0.71160798   -8.4454853    232.75839  0.014304227  0.013772693            4 
 1357000   0.71702323   -8.4836316     233.0648  0.014312503  0.013760271            6 
 1358000   0.71034227   -8.4376967    233.07337   0.01430249  0.013747845            1 
 1359000   0.72795501   -8.4586877    232.90386  0.014281571  0.013735431            3 
 1360000   0.71929825   -8.4673937    232.53337  0.014248369  0.013723037            2 
 1361000   0.70001526   -8.4665498    233.36638  0.014288904  0.013710661            3 
 1362000   0.70398706   -8.4885484    232.83438  0.014245862  0.013698286            2 
 1363000   0.72193558   -8.4717877    233.28186   0.01426277  0.013685917            2 
 1364000   0.71983081   -8.4584787    232.81926  0.014224051  0.013673564            2 
 1365000   0.69527081   -8.4818727    233.21312  0.014237675  0.013661196            2 
 1366000   0.70927335   -8.4800101    232.61828  0.014190964  0.013648835            3 
 1367000   0.72125091   -8.4571141    233.36227  0.014225937  0.013636523            2 
 1368000   0.72422919   -8.4848488    232.47313  0.014161375  0.013624203            2 
 1369000   0.69964704   -8.4848114     232.7833  0.014169911  0.013611908            5 
 1370000   0.70194265   -8.4669525    232.84647  0.014163411  0.013599624            6 
 1371000   0.69127875   -8.4537149    233.12799  0.014170192  0.013587336            1 
 1372000   0.72008977   -8.4621205    232.58862  0.014127103  0.013575067            3 
 1373000   0.72109024    -8.465683    232.58499  0.014116593  0.013562776            1 
 1374000   0.70923782   -8.4724643    232.99212  0.014131011  0.013550517            6 
 1375000   0.70422681   -8.4759806    233.44628   0.01414826  0.013538258            2 
 1376000   0.68457162   -8.5070515     232.4696  0.014078827  0.013525984            1 
 1377000   0.70691856   -8.5019368    232.53014  0.014072267  0.013513741            3 
 1378000   0.71306417   -8.5077087    232.39743  0.014054029  0.013501489            3 
 1379000   0.70611755   -8.5134112    232.40502  0.014044297   0.01348921            3 
 1380000   0.71602106   -8.5080617    232.49592  0.014039609  0.013476969            8 
 1381000   0.72941161   -8.5141295    232.39543  0.014023379  0.013464744            2 
 1382000   0.69553708    -8.487142    232.26191   0.01400518  0.013452512            5 
 1383000   0.69500329    -8.492045    232.79761  0.014027332  0.013440303            3 
 1384000   0.70188596     -8.50366     232.6555  0.014008641  0.013428076            9 
 1385000    0.6985238   -8.4987344    232.33648  0.013979331  0.013415857            2 
 1386000   0.70780639   -8.5112588     232.7711  0.013995376  0.013403672            4 
 1387000   0.70195595   -8.5517751    232.21746  0.013952023  0.013391438           11 
 1388000   0.71041481   -8.5172241    232.41063  0.013953568  0.013379221            2 
 1389000   0.70418362   -8.5397114    232.36192    0.0139406  0.013367026            1 
 1390000   0.70799716   -8.5302357    232.18712  0.013920091  0.013354844            4 
 1391000   0.70866863     -8.54336    232.33895   0.01391918  0.013342689            1 
 1392000   0.68239824   -8.5280811    232.05556  0.013892215  0.013330522            4 
 1393000   0.69512892   -8.5352683    232.53202  0.013910746  0.013318388            2 
 1394000   0.70410701   -8.5419775    232.15687   0.01387834  0.013306258            2 
 1395000   0.69370513   -8.5009299    232.38263  0.013881877  0.013294161            2 
 1396000   0.69568892   -8.5277531    232.22193  0.013862341   0.01328203            2 
 1397000   0.69215433    -8.509913    232.32122   0.01385834  0.013269917            2 
 1398000   0.70587797   -8.5231699    232.46185   0.01385681  0.013257812            2 
 1399000   0.70181271    -8.504401    232.76285  0.013864835  0.013245708            2 
 1400000   0.70124636   -8.5427538    232.39127  0.013832814  0.013233612            2 
 1401000   0.69302671   -8.5318676    232.13473  0.013807681  0.013221538            2 
 1402000   0.70843024   -8.5014071    232.54492  0.013822213  0.013209484            2 
 1403000   0.69620657     -8.54389    232.28664   0.01379702  0.013197456            4 
 1404000   0.68336208   -8.5353383     232.5663  0.013803792  0.013185399            2 
 1405000   0.70372083   -8.5402703    232.62527  0.013797465  0.013173343            2 
 1406000   0.68231343   -8.5191048    232.43328  0.013776273  0.013161293            3 
 1407000   0.70748095   -8.5309062    232.01246  0.013741558  0.013149287            6 
 1408000   0.70210129   -8.5439894     232.1226  0.013738317  0.013137281            4 
 1409000   0.68435035   -8.5239086    232.21911  0.013734274   0.01312529            2 
 1410000   0.67497825   -8.5221909     232.1436  0.013720071  0.013113321            3 
 1411000   0.67259739   -8.5456171    232.08305  0.013706771  0.013101356            4 
 1412000   0.69394766   -8.5508734    232.32408  0.013711289  0.013089419            5 
 1413000   0.68164581    -8.535092    232.34292  0.013702696  0.013077522            2 
 1414000   0.70692259   -8.5411248    232.61443  0.013709007  0.013065614            6 
 1415000   0.67555196   -8.5502829     231.9045  0.013657509  0.013053721            3 
 1416000   0.70015338   -8.5458185    232.12558  0.013660874  0.013041835            6 
 1417000   0.69231478   -8.5515609    232.61232  0.013679859  0.013029942            2 
 1418000   0.68812346   -8.5733668     232.6327  0.013671409  0.013018071            6 
 1419000   0.68471942    -8.534426    232.38995  0.013647519  0.013006204            2 
 1420000   0.67734332   -8.5364775    232.56712  0.013648305  0.012994376            1 
 1421000   0.67941443   -8.5486363    232.70475  0.013646772  0.012982556            6 
 1422000   0.70952148   -8.5418251    232.35435   0.01361664  0.012970754            3 
 1423000   0.66502574   -8.5534062    232.24068  0.013600414  0.012958932            3 
 1424000   0.68044768   -8.5547064    232.32962  0.013596068  0.012947116            1 
 1425000   0.68639416   -8.5480262    233.00703  0.013626142  0.012935351            3 
 1426000   0.68190001   -8.5251291    232.59867  0.013592723  0.012923621            2 
 1427000   0.68086615   -8.5403585     233.1154  0.013613373  0.012911899            2 
 1428000   0.68062978   -8.5638673    232.48879  0.013567273  0.012900178            5 
 1429000   0.69291672   -8.5443525    232.82328  0.013577285  0.012888452            5 
 1430000   0.69009971   -8.5483933    232.57493  0.013553317  0.012876726            3 
 1431000   0.68094274   -8.5428729    232.65314  0.013548401  0.012865015            7 
 1432000   0.68112249   -8.5719743    231.99258  0.013500499  0.012853326            9 
 1433000   0.68591032   -8.5698036    231.95643  0.013488976  0.012841627            3 
 1434000   0.66773571   -8.5488957    232.89626  0.013534185  0.012829952            7 
 1435000   0.67528007   -8.5588555    232.45015  0.013498847  0.012818261           10 
 1436000   0.68051935    -8.555482    232.89109  0.013515036  0.012806603            5 
 1437000   0.68258183   -8.5427808    232.60043  0.013488774  0.012794954            6 
 1438000   0.67826571   -8.5558272    232.62814     0.013481  0.012783317            5 
 1439000    0.6779839   -8.5538454    232.88217  0.013486343  0.012771666            5 
 1440000   0.68021313   -8.5516669    232.52559  0.013456342   0.01276004            3 
 1441000   0.68352583   -8.5616588    232.68003  0.013455935  0.012748417            3 
 1442000   0.65541344   -8.5620018    232.38647  0.013429639  0.012736808            2 
 1443000   0.67552131   -8.5676328    232.78376  0.013443276  0.012725199            4 
 1444000   0.68113454   -8.5707729    232.33633  0.013408145  0.012713626            1 
 1445000   0.65319776   -8.5622789    232.40323  0.013402724  0.012702045            1 
 1446000   0.67720856   -8.5747672    232.26734  0.013385624  0.012690501            2 
 1447000   0.68033338   -8.5861543    232.59155  0.013395044  0.012678949            3 
 1448000   0.67099718   -8.5565844    232.54876  0.013383331  0.012667391            2 
 1449000    0.6777559    -8.590265    232.55202  0.013374282  0.012655844            1 
 1450000   0.67127588   -8.5693479    232.12593  0.013340571  0.012644327            2 
 1451000   0.67824805   -8.5570364    232.40421  0.013347359  0.012632818            2 
 1452000   0.67164008   -8.5556456    232.36095  0.013335684  0.012621327            3 
 1453000   0.67490063   -8.6053848    232.61266  0.013340942  0.012609832            1 
 1454000   0.67971329   -8.5717656    232.40064  0.013319615  0.012598334            5 
 1455000   0.68133428    -8.564731    232.35382  0.013307779  0.012586841            5 
 1456000   0.65584232   -8.5688281    232.88915  0.013329278  0.012575391            1 
 1457000   0.68032756    -8.596712    232.28209  0.013285409  0.012563947            1 
 1458000   0.67021422   -8.5476582    231.79627  0.013248529  0.012552505            4 
 1459000   0.67200585   -8.5830904    232.49601  0.013279416  0.012541073            1 
 1460000    0.6594317   -8.5731581    231.96284  0.013239888  0.012529641            2 
 1461000   0.67857936   -8.5717674    232.37748  0.013254477  0.012518234            4 
 1462000   0.68483626   -8.5900336    232.10734  0.013230013   0.01250683            1 
 1463000   0.67440697   -8.5757567     232.4119  0.013238318  0.012495437            2 
 1464000    0.6632518   -8.5889956    232.43957   0.01323085  0.012484057            2 
 1465000   0.65769068   -8.5980821    232.34427  0.013216398  0.012472662            6 
 1466000   0.66361413   -8.5780766    232.14287  0.013195934  0.012461282            2 
 1467000   0.66940567   -8.5691403    232.50488  0.013207503   0.01244993            2 
 1468000   0.68238227       -8.587    232.59198  0.013203451  0.012438605            2 
 1469000   0.67544335   -8.5656682    232.33979  0.013180156  0.012427259            3 
 1470000     0.656447   -8.6026725     232.2678  0.013167109  0.012415938            2 
 1471000   0.64716179   -8.5900014    232.25704  0.013157548  0.012404609            2 
 1472000   0.66523953   -8.5832747     232.2904  0.013150498  0.012393301            2 
 1473000   0.67751818   -8.5835452    232.11755  0.013131792  0.012382006            2 
 1474000   0.66508045   -8.5687044    232.11871  0.013122948  0.012370733            1 
 1475000   0.66022585    -8.568851    232.06864  0.013111223  0.012359471            2 
 1476000   0.65181767   -8.6028802    232.41571  0.013121935   0.01234822            3 
 1477000   0.66989273   -8.5957257    232.28656  0.013105764  0.012336978            4 
 1478000   0.66600982    -8.601871    232.01074  0.013081345   0.01232574            1 
 1479000     0.667061   -8.5914221    232.29604  0.013088576  0.012314498            4 
 1480000   0.66977901   -8.6105678    232.30067  0.013079992  0.012303277            6 
 1481000   0.66182648   -8.6005854    232.09573  0.013059629  0.012292084            3 
 1482000   0.66746483   -8.5926218     232.3125  0.013063006  0.012280893            2 
 1483000    0.6791013   -8.6135008    232.08058  0.013041166  0.012269717            2 
 1484000   0.64863492   -8.6081805    232.32509  0.013046108  0.012258525            1 
 1485000   0.65424954    -8.619563    232.38799  0.013040853  0.012247359            3 
 1486000    0.6544899   -8.5976169    232.58882  0.013043339  0.012236199            6 
 1487000    0.6531747   -8.6150858     232.0066  0.013001939   0.01222507            2 
 1488000   0.64415035   -8.5994624     231.8099  0.012982185  0.012213924            1 
 1489000   0.67014395   -8.6375884    231.76482  0.012970944   0.01220279            2 
 1490000   0.64893127   -8.6102335    232.11947  0.012982073  0.012191661            3 
 1491000    0.6543412   -8.5944393    232.34556  0.012986003  0.012180535            3 
 1492000   0.66074635   -8.5996763    232.25945  0.012972489  0.012169452            6 
 1493000   0.64530964   -8.6195404    232.02329  0.012950619  0.012158365            6 
 1494000   0.65541013   -8.6353097    231.98293  0.012939699  0.012147297            4 
 1495000   0.65370702   -8.6280219    232.15615    0.0129407  0.012136222            4 
 1496000   0.65321275   -8.5989873    231.71355  0.012907395  0.012125161            5 
 1497000   0.66221913   -8.6157717    232.35318  0.012934379   0.01211411            8 
 1498000   0.65693349   -8.6255256    231.86875  0.012898795  0.012103081            6 
 1499000   0.66410237   -8.6203739     232.1416  0.012905359  0.012092062            4 
 1500000   0.64973995   -8.6164654    231.79356   0.01287742  0.012081034            6 
 1501000   0.64817944   -8.6093724    232.06873  0.012884118  0.012070001            3 
 1502000   0.64568962     -8.62488    232.48996   0.01289891  0.012059023            3 
 1503000   0.65474468   -8.6238982    232.13845  0.012870839  0.012048031            5 
 1504000   0.64814974   -8.6281755    232.32851  0.012872812  0.012037058            5 
 1505000   0.66149305   -8.6178725    231.66776  0.012827672  0.012026088            2 
 1506000   0.65693516   -8.6136691    231.72265  0.012822192   0.01201513            3 
 1507000   0.66440459   -8.6180474    232.29681  0.012845433  0.012004144            2 
 1508000   0.65173463   -8.6057879    231.75104  0.012806755  0.011993188            4 
 1509000   0.63052539   -8.6128156     231.7477  0.012798084   0.01198226            3 
 1510000   0.64535464   -8.6181517    231.88638  0.012797261  0.011971348            4 
 1511000   0.65814957    -8.637207     231.8871  0.012788832  0.011960443            2 
 1512000   0.64555442   -8.6391799    231.68619  0.012769301  0.011949548            2 
 1513000   0.64910915   -8.6164245    231.75077  0.012764418  0.011938643            4 
 1514000   0.65187106   -8.6294191    232.01788  0.012770689  0.011927763            2 
 1515000   0.65735758    -8.639163    231.74013  0.012746982  0.011916891            9 
 1516000   0.64481106   -8.6457611    232.11593  0.012759231  0.011906018            1 
 1517000   0.64230933   -8.6340664    232.03183    0.0127462   0.01189517            3 
 1518000   0.63078747   -8.6439533    231.96782   0.01273429  0.011884335           10 
 1519000   0.65321132   -8.6382965    231.93069  0.012723869  0.011873512            4 
 1520000   0.65929519    -8.638484    232.05749   0.01272245  0.011862703            1 
 1521000   0.65019789   -8.6394908    231.79654  0.012699789  0.011851907            2 
 1522000   0.65265015   -8.6532488    232.40147  0.012724566  0.011841097            2 
 1523000   0.64828791   -8.6524572    232.18677  0.012704463  0.011830322            3 
 1524000    0.6349379   -8.6355373    232.47409  0.012711838  0.011819582            4 
 1525000    0.6498194   -8.6626014    232.20488  0.012688791  0.011808838            2 
 1526000   0.65593428   -8.6455649    232.28802  0.012685016  0.011798081            3 
 1527000   0.63146025   -8.6363619    232.48983  0.012687723  0.011787345            2 
 1528000   0.63763732   -8.6702562    232.00207  0.012652818  0.011776625            2 
 1529000   0.64454768   -8.6617571    232.44316  0.012668583  0.011765898            2 
 1530000   0.64371366   -8.6592658    232.05323  0.012639065  0.011755202            6 
 1531000    0.6454533   -8.6614925    231.70705  0.012611967   0.01174452            2 
 1532000   0.64355317   -8.6457973    231.76624  0.012606954  0.011733833            3 
 1533000   0.64582699   -8.6648636    232.08009  0.012615791  0.011723152            2 
 1534000   0.64517532   -8.6760365    232.13644  0.012610628  0.011712497            2 
 1535000   0.62594156   -8.6685523    231.90443  0.012589817  0.011701846            1 
 1536000   0.64139616   -8.6349817    231.87492   0.01258002  0.011691221            6 
 1537000   0.62773059   -8.6627696     231.9054  0.012573487  0.011680584            2 
 1538000   0.63284408   -8.6630454    232.41931  0.012593157  0.011669964            2 
 1539000   0.63705867   -8.6630435    232.09102  0.012567198   0.01165937            1 
 1540000   0.63945626   -8.6667355    231.73954  0.012540019  0.011648781            5 
 1541000   0.63392768   -8.6541693    232.19019  0.012556251  0.011638207            2 
 1542000   0.64821629   -8.6791483    232.18757  0.012547967   0.01162764            3 
 1543000   0.64041921   -8.6755017    231.95964  0.012527525  0.011617099            3 
 1544000   0.64205368   -8.6491471    232.25738   0.01253548  0.011606578            4 
 1545000   0.63107092    -8.668691    231.89835  0.012508002  0.011596074            3 
 1546000    0.6324758   -8.6562489    231.70728  0.012489612   0.01158556            2 
 1547000   0.64188998   -8.6714674    232.09765  0.012502567  0.011575064            2 
 1548000   0.63290145   -8.6736504    232.14947   0.01249728  0.011564576            6 
 1549000    0.6401777   -8.6755016    232.03503  0.012483055   0.01155411            1 
 1550000   0.63023864   -8.6931768    231.87408  0.012466348  0.011543622            3 
 1551000    0.6430757   -8.6820767    232.48959  0.012491381  0.011533158            3 
 1552000   0.63135535   -8.6749569    232.34416  0.012475524  0.011522732            2 
 1553000   0.63171336    -8.651885    231.71394  0.012433673  0.011512298            2 
 1554000   0.62864072   -8.6930194    231.71264  0.012425603  0.011501861            2 
 1555000   0.62967573   -8.6775357    231.88783  0.012427001  0.011491442            4 
 1556000   0.64073411   -8.6907073    231.85133  0.012417059  0.011481009            2 
 1557000   0.62630176   -8.6813928    231.20141  0.012374299  0.011470601            2 
 1558000   0.62020315    -8.661057    232.02757  0.012410546  0.011460214            2 
 1559000   0.61785556   -8.6968179    232.07553  0.012405149  0.011449833            3 
 1560000   0.62492094   -8.6845438    231.92917  0.012389379  0.011439461            2 
 1561000   0.62283309   -8.6805192    231.52506  0.012359869  0.011429099            3 
 1562000   0.63335325   -8.6888772     231.9326  0.012373698  0.011418767            1 
 1563000   0.62488103   -8.6743218    232.02233  0.012370565  0.011408429            3 
 1564000   0.64263631   -8.6746853    231.63275  0.012341899  0.011398097            2 
 1565000   0.64119208   -8.6941088    231.48029  0.012325894  0.011387771            2 
 1566000   0.63097457    -8.682742    231.79197  0.012334609  0.011377449            8 
 1567000   0.63498145   -8.6613366    232.12713  0.012344561  0.011367147            3 
 1568000   0.63452538   -8.6935954    231.65772  0.012311741  0.011356869            3 
 1569000   0.64106547   -8.6852386    231.30766  0.012285302  0.011346594            2 
 1570000   0.61928114   -8.6997841    232.18589  0.012324092  0.011336313            3 
 1571000   0.62152271   -8.6872652    231.55669  0.012282871  0.011326045            2 
 1572000   0.60751388   -8.7032326    231.80132  0.012288026  0.011315791            2 
 1573000     0.617151   -8.6771663    231.67169  0.012273347  0.011305527            5 
 1574000   0.63222495   -8.7175841    231.53667    0.0122584  0.011295305            1 
 1575000   0.61493341   -8.6990027    231.66277  0.012257289  0.011285083            1 
 1576000   0.63175322   -8.6933467    231.78064  0.012255745   0.01127485            3 
 1577000   0.62006052   -8.6930594    231.48719  0.012232466  0.011264628            4 
 1578000   0.61662005   -8.7163023    231.45499  0.012223014  0.011254422            3 
 1579000   0.61346899   -8.6776699    231.59405  0.012222612  0.011244224            3 
 1580000   0.62261707   -8.7056268    231.48201  0.012208967  0.011234055            5 
 1581000   0.62366988   -8.6988981    231.82983  0.012219578  0.011223899            1 
 1582000   0.61700032   -8.7021214    231.87963  0.012214477  0.011213755            2 
 1583000   0.61481594   -8.6911057    232.18928  0.012223062  0.011203604            5 
 1584000   0.62778287   -8.6987574     231.6486    0.0121869  0.011193472            1 
 1585000   0.65299896   -8.7078202    231.75559  0.012184837   0.01118335            3 
 1586000   0.62702189   -8.6992182    231.43612  0.012160368  0.011173238            5 
 1587000   0.61643323   -8.7129545    231.38919  0.012150241   0.01116314            4 
 1588000   0.63463811   -8.7096567    231.35623   0.01214086   0.01115303            3 
 1589000   0.62298435   -8.7110342    231.32689  0.012131681  0.011142933            4 
 1590000   0.62190362   -8.7323794     231.3585  0.012125708   0.01113285            4 
 1591000   0.60621678   -8.6964157    232.00244  0.012151815  0.011122781            6 
 1592000   0.61245369    -8.727433    231.63689  0.012125046   0.01111271            5 
 1593000   0.62197969   -8.7069191    231.57599  0.012114249  0.011102653            2 
 1594000   0.61797932   -8.7240678    231.12169  0.012082899  0.011092606            1 
 1595000   0.60981534      -8.7016    231.50642  0.012095424  0.011082575            5 
 1596000   0.62101783   -8.7221003    231.20395  0.012072053  0.011072559            3 
 1597000   0.62191644   -8.7182292    231.50784  0.012080351  0.011062551            6 
 1598000    0.6210047   -8.6967192    231.44099  0.012069305  0.011052559            3 
 1599000   0.61269865   -8.7119468    232.13323  0.012097834  0.011042567            3 
 1600000   0.60938499   -8.7088452    231.92125  0.012079232  0.011032572            1 
 1601000   0.62080063   -8.7239842    231.14982  0.012031533  0.011022597            3 
 1602000   0.62492038   -8.7231289    231.17923  0.012025553  0.011012636            4 
 1603000   0.60111432   -8.7202307    231.46032  0.012032664  0.011002679            2 
 1604000    0.6130664   -8.7276891    231.42849  0.012023508  0.010992727            3 
 1605000   0.61048344    -8.727929    231.27956  0.012008284  0.010982792            5 
 1606000   0.60771854   -8.7038609    231.00124  0.011986366  0.010972857            2 
 1607000   0.61558102   -8.7221733    231.77997  0.012019289  0.010962924            2 
 1608000   0.62397098    -8.734394     231.1021  0.011976684  0.010953016            1 
 1609000    0.6093004    -8.740238    231.52906  0.011991354   0.01094312            1 
 1610000     0.612159   -8.7356825    231.02632  0.011957884   0.01093323            2 
 1611000   0.59849631    -8.735054    231.27548   0.01196335   0.01092337            6 
 1612000   0.61438659    -8.729158     231.3563  0.011960106  0.010913531            2 
 1613000   0.60292712    -8.705801    231.33705  0.011951697  0.010903703            1 
 1614000   0.61153975   -8.7234424     231.5523  0.011955406  0.010893876            1 
 1615000   0.58436096   -8.7123767    231.57747  0.011949302  0.010884061            3 
 1616000   0.60818231   -8.7041023    231.84712  0.011955813  0.010874252            2 
 1617000   0.59676655   -8.7317829    231.45075  0.011927991  0.010864443            2 
 1618000   0.60243712   -8.7292105    231.15556  0.011905416  0.010854646            4 
 1619000   0.62032665   -8.7438537    231.26577  0.011903735  0.010844854            3 
 1620000   0.60418547   -8.7343903    231.48279  0.011907551  0.010835077            2 
 1621000   0.60676973    -8.723831    231.89498  0.011921395  0.010825318            3 
 1622000   0.60586142   -8.7304368    231.29875  0.011883413  0.010815551            3 
 1623000   0.60985877   -8.7278929    231.87957  0.011905914    0.0108058            5 
 1624000   0.60067073   -8.7461809    230.93462  0.011850093  0.010796045            1 
 1625000   0.59437648   -8.7369498    231.01263  0.011846802  0.010786317            2 
 1626000   0.60766513   -8.7413137    231.20034  0.011849136  0.010776596            5 
 1627000   0.61406394   -8.7398995    231.38865  0.011851498  0.010766892            5 
 1628000   0.58643581   -8.7268881    231.26583  0.011837932  0.010757191            3 
 1629000   0.60309537   -8.7299317    231.37952  0.011836481  0.010747496            3 
 1630000   0.61502726   -8.7358187    231.49309  0.011835025  0.010737818            4 
 1631000   0.61454619   -8.7433031    231.53984  0.011830158  0.010728136            4 
 1632000   0.60616194   -8.7458126    231.27715  0.011809495  0.010718473            4 
 1633000   0.61183862   -8.7352897    231.07284  0.011791837   0.01070883            2 
 1634000   0.58789427   -8.7367996     231.0849  0.011785236  0.010699196            2 
 1635000   0.60123486   -8.7248108    231.26644   0.01178728  0.010689564            3 
 1636000   0.59273605   -8.7583582    231.35029  0.011784347  0.010679935            2 
 1637000   0.58584755   -8.7456259    231.17472   0.01176821  0.010670326            4 
 1638000     0.613081   -8.7502872    231.33589  0.011769225  0.010660723            2 
 1639000   0.59449826   -8.7399444    231.16095   0.01175315  0.010651122            3 
 1640000   0.59092056   -8.7425546    231.11691  0.011743746   0.01064153            1 
 1641000   0.61510429   -8.7479033    231.27517  0.011744626   0.01063196            1 
 1642000   0.59427152   -8.7423602    231.01735  0.011724389  0.010622395            3 
 1643000   0.59437821    -8.735544    231.33898  0.011733566  0.010612828            3 
 1644000   0.58620018   -8.7533256    231.20032    0.0117194  0.010603285            5 
 1645000   0.59321597   -8.7562691    231.29805  0.011717226  0.010593748            3 
 1646000   0.59358165    -8.742858    231.05408  0.011697756  0.010584229           11 
 1647000   0.59525777   -8.7568621    231.22139  0.011699119  0.010574711            3 
 1648000   0.59769876   -8.7582119    231.27996  0.011694982  0.010565199            2 
 1649000   0.58389784   -8.7415937    231.41036   0.01169448  0.010555696            3 
 1650000   0.59109175   -8.7538408    230.73548  0.011653307  0.010546198            1 
 1651000   0.58613274   -8.7461457    231.40495   0.01168004  0.010536733            4 
 1652000   0.58678335    -8.770908    230.85495  0.011645225  0.010527263            2 
 1653000   0.58676283   -8.7677797    231.24099  0.011657642  0.010517807            5 
 1654000   0.57847452   -8.7677759    231.21193   0.01164913   0.01050836            3 
 1655000   0.58019524   -8.7483417    231.11165  0.011637042  0.010498912            3 
 1656000     0.590372    -8.771555    231.07999  0.011628421  0.010489488            2 
 1657000   0.59515162   -8.7510753     231.0314   0.01161896   0.01048007            4 
 1658000   0.58468862   -8.7763152     231.0637  0.011613575  0.010470653            5 
 1659000   0.59101904   -8.7547285    231.18553  0.011612695  0.010461248            2 
 1660000    0.5931938   -8.7586503    230.79581  0.011586135  0.010451846            4 
 1661000   0.60013509   -8.7611279    231.17037  0.011597952  0.010442461            2 
 1662000   0.59879997   -8.7572464    231.03847   0.01158436  0.010433089            4 
 1663000   0.58890726   -8.7636176    231.15907  0.011583437  0.010423725            3 
 1664000   0.59266535   -8.7505838    230.94159  0.011565584  0.010414377            4 
 1665000   0.60337262    -8.777822    231.17933  0.011570537  0.010405032            2 
 1666000   0.59528125   -8.7462488    230.93513  0.011551377  0.010395691            6 
 1667000   0.59299958   -8.7524251    230.97716  0.011546549   0.01038637            5 
 1668000   0.58767627   -8.7612823    230.98385   0.01153996  0.010377053            2 
 1669000   0.59319783    -8.768317    231.21415  0.011544545  0.010367754            3 
 1670000   0.59329134   -8.7454171    231.23203  0.011538525  0.010358468            5 
 1671000   0.60593177   -8.7735615    231.34752  0.011537379  0.010349194            2 
 1672000   0.59027432   -8.7808924    231.16779   0.01152152  0.010339935           11 
 1673000    0.5826744   -8.7722155    231.06627  0.011509577  0.010330674            9 
 1674000   0.57507873   -8.7688434    230.70423  0.011484679  0.010321407            7 
 1675000   0.58948156   -8.7696051    230.79185  0.011482182  0.010312157            6 
 1676000    0.5773172   -8.7805685    230.74785  0.011473143  0.010302912            7 
 1677000   0.58603159   -8.7876013    231.32385  0.011494924  0.010293669           11 
 1678000   0.58263499   -8.7735086    230.78264  0.011461196  0.010284455            3 
 1679000    0.5728981   -8.7905842    231.03316  0.011466804  0.010275231            4 
 1680000   0.58808448   -8.7812073    230.61187  0.011439081  0.010266018            8 
 1681000     0.571351   -8.7835645    231.12567  0.011457747  0.010256819            5 
 1682000   0.56798452   -8.7959608    230.79347  0.011434477  0.010247638            7 
 1683000   0.58081247    -8.777574    230.97829  0.011436834  0.010238458            7 
 1684000   0.58514786   -8.7744361    231.00725  0.011431475  0.010229292            5 
 1685000   0.58478832   -8.7929241    230.43314  0.011396298  0.010220129            5 
 1686000   0.59465818   -8.7888131    231.00674  0.011417889  0.010210981            4 
 1687000   0.58197968   -8.7832271    230.64585  0.011393294  0.010201837           10 
 1688000   0.58057888    -8.799659     230.3863  0.011373731  0.010192713           10 
 1689000   0.57339977   -8.7875465    231.10795  0.011402603  0.010183586            5 
 1690000   0.57341452   -8.7718852    230.63946  0.011372755  0.010174484            4 
 1691000   0.58107453   -8.7857606    231.13353  0.011390377  0.010165381            9 
 1692000   0.58430745   -8.7955999    230.58561  0.011356659    0.0101563            9 
 1693000   0.58057273   -8.7909061     230.9252  0.011366667   0.01014722            4 
 1694000   0.57690922    -8.785082    231.28965  0.011377885   0.01013816            7 
 1695000   0.56233845   -8.8058573    230.41133  0.011327991    0.0101291            4 
 1696000   0.58511209   -8.8164589    230.58199  0.011329697  0.010120045            6 
 1697000   0.57483529   -8.7798379    230.58983  0.011323405  0.010110995            6 
 1698000   0.57235995   -8.7927474    230.55827  0.011315188  0.010101964            2 
 1699000   0.57368869   -8.7896822    230.86024  0.011323339  0.010092931            7 
 1700000   0.57133216   -8.8130841     230.6618  0.011306951  0.010083904            5 
 1701000   0.57637877   -8.7974764    230.38008  0.011286502  0.010074891            5 
 1702000   0.59209242   -8.7900525    230.43122  0.011282375  0.010065904            2 
 1703000    0.5666779   -8.7811806    230.40261   0.01127435  0.010056907            4 
 1704000   0.58593099   -8.8104027    230.48664  0.011271843  0.010047925            2 
 1705000   0.57509269   -8.8085004    230.35551  0.011258823   0.01003895            2 
 1706000   0.57102759   -8.7878185     230.8363  0.011275708  0.010029991            2 
 1707000    0.5537243   -8.7865491    230.82395    0.0112685   0.01002103            4 
 1708000   0.57450636   -8.8092523    230.63062   0.01125247  0.010012075            3 
 1709000   0.58182973   -8.7782322    231.07176  0.011267396  0.010003137            3 
 1710000    0.5618942   -8.7993922    230.45077  0.011230545 0.0099942222            2 
 1711000   0.57930576   -8.8026841     230.4248  0.011222716 0.0099853067            2 
 1712000   0.57284947   -8.8054743    230.92054  0.011240291 0.0099763914            4 
 1713000   0.56614407   -8.8002888     230.4868  0.011212629 0.0099674931            2 
 1714000    0.5734244   -8.7984572    230.39324  0.011201538 0.0099585964            2 
 1715000   0.58187699   -8.8025355    230.48471  0.011199452 0.0099497241            3 
 1716000   0.56394414   -8.8210396    230.47363  0.011192387 0.0099408513            4 
 1717000    0.5618497   -8.8028394    230.87579  0.011205387 0.0099319917            2 
 1718000   0.56490349   -8.8176573    230.67388  0.011189071 0.0099231422            3 
 1719000   0.57828973   -8.8162549    230.48566  0.011173437 0.0099143007            4 
 1720000    0.5617964   -8.7952058    230.52064  0.011168635  0.009905464            3 
 1721000   0.56792168   -8.7909607     230.7109  0.011171359 0.0098966439            4 
 1722000   0.57114037   -8.7979895    230.58858  0.011158952 0.0098878486            3 
 1723000   0.56741868   -8.8070308    230.32909  0.011139925 0.0098790488            3 
 1724000    0.5613452   -8.8243878    230.21691  0.011128041 0.0098702488            2 
 1725000   0.55674251   -8.8116725    230.65211  0.011142614 0.0098614615            3 
 1726000   0.55191961    -8.816875    230.27821  0.011118106 0.0098526862            3 
 1727000   0.58003132   -8.8285082    230.56727  0.011125616 0.0098439031            2 
 1728000    0.5679794   -8.8302752    230.47292  0.011114627 0.0098351413            2 
 1729000   0.55416872   -8.8243047    230.40665  0.011105005 0.0098263984            1 
 1730000   0.56739793   -8.8121212    230.38848  0.011097711 0.0098176682            4 
 1731000   0.57511964   -8.8129654    230.44335  0.011093941 0.0098089419            2 
 1732000    0.5612393   -8.8072141    230.32765  0.011081969 0.0098002134            1 
 1733000   0.55448383   -8.8273608    230.57042  0.011087248 0.0097914921            1 
 1734000    0.5537585   -8.8190407    230.22053  0.011064039 0.0097827831            5 
 1735000   0.56883185   -8.8247584    230.65442  0.011078502 0.0097740833            1 
 1736000   0.55775771   -8.8418418    230.40657  0.011060223  0.009765393            3 
 1737000   0.57120409   -8.8286421    230.71391  0.011068601 0.0097567257            3 
 1738000    0.5737371   -8.8271663    230.48156  0.011051091 0.0097480646            2 
 1739000   0.55766717   -8.8222088    230.65118  0.011052865 0.0097394033            4 
 1740000   0.55686053   -8.8223916    230.50549  0.011039535 0.0097307521            5 
 1741000   0.55470067   -8.8406563    230.20688  0.011018901 0.0097220995            2 
 1742000   0.55553258    -8.819085    230.21516  0.011012972 0.0097134719            3 
 1743000   0.55873821   -8.8113086    230.46965  0.011018821 0.0097048594            2 
 1744000   0.55639432   -8.8100607    230.64472  0.011020868 0.0096962473            3 
 1745000   0.56275568   -8.8233043    230.44787  0.011005151 0.0096876429            4 
 1746000   0.55265671    -8.821067    230.18637  0.010986367 0.0096790501            3 
 1747000    0.5642704   -8.8450661    230.39663  0.010990108 0.0096704652            5 
 1748000   0.56115192   -8.8306694    230.55271  0.010991262 0.0096618805            4 
 1749000    0.5560253   -8.8195993     230.4411   0.01097966 0.0096533082            5 
 1750000    0.5469583   -8.8212524     229.9928  0.010952038 0.0096447385            4 
 1751000   0.54715614   -8.8217764    230.33141  0.010961899 0.0096361886            6 
 1752000   0.55802705   -8.8308604    230.32077  0.010955135 0.0096276345            5 
 1753000   0.56222783   -8.8198181    230.19064    0.0109427 0.0096191027            4 
 1754000   0.54387348   -8.8231823    230.27873  0.010940647 0.0096105825            2 
 1755000   0.55420291   -8.8341087     230.3557  0.010938068 0.0096020569            5 
 1756000   0.55590238   -8.8216239    230.90034  0.010957685 0.0095935608            3 
 1757000   0.54659294    -8.825615    230.01295   0.01090936 0.0095850658            4 
 1758000   0.54502439   -8.8236804    230.21496   0.01091273 0.0095765848            5 
 1759000     0.548476   -8.8348084    230.20626  0.010906114 0.0095681015            2 
 1760000   0.55153996   -8.8343838    230.36758  0.010907556 0.0095596185            5 
 1761000   0.53242478   -8.8427073    229.97766   0.01088291 0.0095511594            6 
 1762000   0.55004447   -8.8290056    229.84115  0.010870277 0.0095426997            3 
 1763000   0.54590185   -8.8381645    230.26902  0.010884336 0.0095342441            3 
 1764000   0.54991393   -8.8548079    230.35385  0.010882174 0.0095258008            1 
 1765000   0.54013044   -8.8479532    230.17583  0.010867603 0.0095173697            6 
 1766000   0.54073466   -8.8391898    230.68877  0.010885654 0.0095089381            2 
 1767000   0.55014118   -8.8541953    229.91636  0.010843065 0.0095005245            3 
 1768000   0.54999229   -8.8588141    230.40394  0.010859914 0.0094921201            3 
 1769000   0.53956306   -8.8472387    230.11444  0.010840138  0.009483721            5 
 1770000   0.54216794   -8.8410592    230.25316  0.010840544 0.0094753245            3 
 1771000   0.54254782   -8.8375684    229.69938  0.010808365 0.0094669379            3 
 1772000   0.54323775   -8.8416067    229.98141  0.010815529 0.0094585617            5 
 1773000   0.55145306   -8.8392017    230.10255  0.010815123 0.0094501854            3 
 1774000   0.55447978   -8.8367975    230.24181  0.010815568 0.0094418252            3 
 1775000   0.53598346   -8.8515526    229.97477  0.010796938 0.0094334822            2 
 1776000   0.53881273   -8.8432082    229.91635  0.010788117 0.0094251453            2 
 1777000   0.55083218   -8.8470857    229.98328  0.010785185 0.0094168253            3 
 1778000   0.54758915   -8.8515128    230.15636  0.010787231 0.0094085064            3 
 1779000   0.54753802   -8.8478396    230.00053  0.010773868 0.0094001917            4 
 1780000   0.54804527   -8.8409715    230.30887  0.010782251 0.0093918979            3 
 1781000   0.54946716   -8.8481706    229.50297  0.010738488 0.0093836131            3 
 1782000   0.53737051   -8.8555583     229.5683  0.010735517 0.0093753384            4 
 1783000   0.54164227   -8.8358416    230.01598   0.01075042 0.0093670683            3 
 1784000   0.53902945   -8.8601566    230.05933  0.010746419 0.0093588097            3 
 1785000   0.53431514    -8.846683     229.9059  0.010733235  0.009350562            4 
 1786000    0.5371228   -8.8410735    229.89034    0.0107265 0.0093423101            2 
 1787000   0.54296139   -8.8473874    230.50247  0.010749043 0.0093340753            2 
 1788000   0.54474139   -8.8431793    229.85943  0.010713061  0.009325849            5 
 1789000   0.55289454   -8.8604865    230.00253  0.010713738 0.0093176244            3 
 1790000   0.53506684    -8.865733     229.8598  0.010701108 0.0093094172            7 
 1791000   0.53488469   -8.8489923    229.91101  0.010697516 0.0093012157            5 
 1792000   0.52600836   -8.8513992    229.96118  0.010693879 0.0092930286            4 
 1793000   0.53425989   -8.8607572    229.97947  0.010688765 0.0092848536            3 
 1794000   0.53675761   -8.8602125    229.44555  0.010658006 0.0092766741            3 
 1795000   0.53819707   -8.8603462    230.09327  0.010682139 0.0092685019            3 
 1796000    0.5429889   -8.8664761    230.03265  0.010673379 0.0092603363            4 
 1797000    0.5379738   -8.8472443    229.71477  0.010652697 0.0092521906            4 
 1798000   0.54004146   -8.8632307     229.8245  0.010651859 0.0092440434            4 
 1799000   0.53455039   -8.8588588    229.88098  0.010648554 0.0092359124            4 
 1800000   0.53909771   -8.8457664    229.52469  0.010626143 0.0092277718            2 
 1801000     0.536039   -8.8651909    229.83858  0.010634767 0.0092196536            2 
 1802000   0.53541671   -8.8638412     229.5593   0.01061595 0.0092115445            2 
 1803000   0.53219825   -8.8731384    229.65518  0.010614494 0.0092034467            6 
 1804000    0.5219939   -8.8749846    229.75342  0.010613148 0.0091953511            2 
 1805000    0.5311597   -8.8621957    229.57326   0.01059895  0.009187258            4 
 1806000   0.53534627   -8.8747894    229.69967  0.010598914 0.0091791788            2 
 1807000   0.54129471   -8.8791906    229.63729  0.010590172 0.0091711069            2 
 1808000   0.51160899   -8.8703289    229.42884  0.010574707 0.0091630422            2 
 1809000    0.5252079   -8.8850043    229.73078   0.01058277 0.0091549829            3 
 1810000   0.53169294   -8.8776238    229.58966  0.010570426 0.0091469421            5 
 1811000   0.51721283   -8.8739525    229.63201  0.010566538 0.0091389001            3 
 1812000   0.53046722   -8.8704163    229.56157  0.010557468 0.0091308738            4 
 1813000   0.52421353   -8.8913629    229.65159  0.010555782 0.0091228486            3 
 1814000   0.53727143   -8.8967543    229.95092  0.010563714 0.0091148433            2 
 1815000    0.5399243   -8.8689778     230.0192  0.010561028  0.009106843            2 
 1816000   0.51570113   -8.8748145    229.68914  0.010540067 0.0090988488            4 
 1817000   0.52788616    -8.871212    229.64696  0.010532332 0.0090908601            3 
 1818000   0.52023873   -8.8744763    229.23811  0.010507797  0.009082892            3 
 1819000   0.51360044   -8.8684298    229.60726  0.010518933 0.0090749211            3 
 1820000   0.52210941   -8.8718097    229.92473  0.010527689 0.0090669697            6 
 1821000   0.53632164   -8.8719466    229.78432  0.010515482 0.0090590308            5 
 1822000   0.53521245    -8.871523    229.72144  0.010506835 0.0090510989            2 
 1823000   0.52317019   -8.8786467    230.05754  0.010516435 0.0090431715            2 
 1824000   0.52649939    -8.873593    229.66826  0.010492885 0.0090352402            3 
 1825000   0.51563416   -8.8793643    229.56537  0.010482437 0.0090273286            4 
 1826000   0.53012033    -8.899981    230.12386  0.010502184 0.0090194284            3 
 1827000   0.52929585   -8.8715749    229.39923  0.010463384 0.0090115293            5 
 1828000   0.52929331   -8.8745158    229.68583  0.010470725 0.0090036368            5 
 1829000   0.51635412   -8.8739589    229.57858  0.010460114 0.0089957625            5 
 1830000   0.52289157   -8.9060981    229.68736  0.010459351 0.0089878948            3 
 1831000   0.51269388   -8.8691625    229.65553  0.010452191 0.0089800341            4 
 1832000   0.52520741   -8.8924619    229.20289  0.010425896 0.0089721764            4 
 1833000   0.52615965    -8.869783     229.7218  0.010443799 0.0089643384            3 
 1834000    0.5237475   -8.8763316    229.73219  0.010438577 0.0089565158            4 
 1835000   0.51915764   -8.8825652    229.51267  0.010422919 0.0089486938            3 
 1836000   0.51360173   -8.8778452    229.80614  0.010430562 0.0089408736            6 
 1837000     0.518066   -8.8891973    229.88136  0.010428296 0.0089330647            4 
 1838000   0.52442588   -8.8889497    229.59501   0.01040964 0.0089252608            2 
 1839000   0.52870401   -8.8851021    229.44225  0.010397057 0.0089174684            6 
 1840000   0.52483083   -8.9024543     229.8302  0.010408976 0.0089096831            6 
 1841000   0.51925504   -8.8858893    229.57077  0.010391579 0.0089019027            5 
 1842000   0.51967769   -8.8934193    229.64705  0.010389389  0.008894135            5 
 1843000   0.50016823   -8.9006397    229.31549   0.01036876 0.0088863805            3 
 1844000   0.52246168   -8.8835255    229.33843  0.010364174 0.0088786352            5 
 1845000   0.52828705    -8.899022    229.88749  0.010383356 0.0088708971            4 
 1846000   0.51783945    -8.902858    229.55993  0.010362944 0.0088631703            5 
 1847000    0.5166094   -8.8808673    229.31906  0.010346466 0.0088554376            4 
 1848000   0.52109784   -8.9065871    229.60972  0.010353974 0.0088477285            4 
 1849000   0.51486599   -8.8942066    229.60475   0.01034815 0.0088400148            3 
 1850000   0.51639545    -8.887103    229.68903  0.010346353 0.0088323152            3 
 1851000   0.51384995   -8.8944412    229.14758  0.010316386 0.0088246227            6 
 1852000   0.51012202   -8.8860394    229.35814   0.01032029 0.0088169429            6 
 1853000    0.4966313   -8.9010456    229.88573  0.010338448 0.0088092757            2 
 1854000   0.51395122   -8.8955155    229.38091  0.010310181 0.0088016028            4 
 1855000   0.51668804   -8.9040989    229.89764  0.010327836 0.0087939425           12 
 1856000   0.51278852   -8.9210963    229.12938  0.010287777 0.0087862873            3 
 1857000   0.50829663   -8.9130064    229.25718  0.010287972 0.0087786453            7 
 1858000    0.5177802   -8.8978871    229.63949  0.010299582 0.0087710135            5 
 1859000   0.50393591    -8.913247    229.24936  0.010276554 0.0087633888            4 
 1860000   0.51223275   -8.9053031    229.28962  0.010272833 0.0087557649            5 
 1861000   0.50239161   -8.9053244    229.52137   0.01027769 0.0087481526            3 
 1862000   0.51291024   -8.9130263    229.22632  0.010258965 0.0087405519            3 
 1863000   0.49621656   -8.8974472    229.41705   0.01026199   0.00873296            2 
 1864000   0.51803297   -8.8997378    229.38126  0.010254885 0.0087253794            6 
 1865000    0.5043171   -8.8914887    229.35426   0.01024818 0.0087178057            2 
 1866000     0.509891   -8.9189451    229.06593  0.010229811 0.0087102289            6 
 1867000   0.51193204   -8.9049413    229.17555  0.010229225 0.0087026674            2 
 1868000   0.49931735   -8.9109661    229.45876  0.010236383 0.0086951169            3 
 1869000   0.50942835   -8.9211208    229.46303  0.010231096 0.0086875867            4 
 1870000   0.50420698   -8.9063078    229.30526  0.010218594 0.0086800514            3 
 1871000   0.50778396   -8.9059854    229.33447  0.010214434  0.008672532            3 
 1872000    0.5097794   -8.9108846    229.47294  0.010215141   0.00866502            5 
 1873000   0.50128911   -8.8915746     229.4814  0.010210064 0.0086575122            1 
 1874000   0.50710794   -8.9048926    229.51259  0.010206003 0.0086500102            4 
 1875000   0.50268233   -8.9076171    229.41434  0.010196193 0.0086425169            3 
 1876000   0.51272504   -8.9113667    229.33819  0.010187375  0.008635032            2 
 1877000   0.50059205   -8.9038554    229.37475  0.010183571 0.0086275547            5 
 1878000   0.49820473   -8.9123115    229.20592  0.010170657 0.0086200874            5 
 1879000   0.49660817   -8.9020645    229.14453  0.010162521 0.0086126297            5 
 1880000   0.50657405   -8.9171892    229.37822  0.010167474 0.0086051765            1 
 1881000    0.4974574   -8.9031602     229.4409  0.010164846 0.0085977374            3 
 1882000   0.50973239    -8.928542    229.02595  0.010141071 0.0085903017            5 
 1883000   0.50155869   -8.9227178    229.14423   0.01014092 0.0085828869            3 
 1884000   0.49594449   -8.9143334    229.33936  0.010144168 0.0085754717            5 
 1885000   0.49700048   -8.9180584     229.3911  0.010141074 0.0085680556            5 
 1886000   0.50624725   -8.9094037    229.14846  0.010124976 0.0085606581            4 
 1887000   0.49737482   -8.9319127    229.08392   0.01011676   0.00855326            4 
 1888000   0.50406086   -8.9257477    228.98781   0.01010716 0.0085458767            1 
 1889000   0.50735268   -8.9182676    229.02181  0.010103309 0.0085385007            1 
 1890000   0.50723249   -8.9072676    229.00343  0.010097153 0.0085311293            6 
 1891000   0.50013663   -8.9206891    228.76962   0.01008151 0.0085237689            2 
 1892000   0.50063464   -8.9239918    228.94385  0.010083855 0.0085164111            2 
 1893000   0.49293832   -8.9366651     229.2127  0.010090364 0.0085090656            5 
 1894000   0.50129472   -8.9290034    228.97444  0.010074553 0.0085017304            3 
 1895000   0.49756349   -8.9262795    229.15354  0.010077113  0.008494397            6 
 1896000   0.49646399   -8.9341446    229.19487  0.010073614 0.0084870688            5 
 1897000   0.49659852    -8.924436    229.37804  0.010076351 0.0084797526            1 
 1898000    0.4900737   -8.9207726    229.03217  0.010055856 0.0084724424            6 
 1899000   0.49101258    -8.931256    229.31137  0.010062813 0.0084651538            5 
 1900000   0.49530433   -8.9064842    229.54479  0.010067754 0.0084578775            7 
 1901000   0.49076128   -8.9281332    229.13183  0.010044355  0.008450604            3 
 1902000   0.49875074   -8.9377345    228.92822  0.010030153 0.0084433333            3 
 1903000   0.49708195   -8.9362173    228.93237  0.010025064  0.008436074            3 
 1904000   0.48439341   -8.9319559    229.14706  0.010029196  0.008428819            4 
 1905000   0.49310966   -8.9309826    228.93896  0.010014828 0.0084215774            2 
 1906000   0.47861478   -8.9281309    229.14674  0.010018658 0.0084143425            3 
 1907000   0.49264698   -8.9292348    228.99691  0.010006857 0.0084071089            4 
 1908000   0.49605851   -8.9300145    228.94172 0.0099992015 0.0083998869            4 
 1909000   0.50394065   -8.9499947    229.22456   0.01000631 0.0083926789            2 
 1910000   0.49588384   -8.9341021    228.81579  0.009983237 0.0083854735            4 
 1911000   0.48698074   -8.9368682    228.92268 0.0099826738 0.0083782719            5 
 1912000   0.48964998   -8.9323396    229.04322 0.0099827065 0.0083710773            7 
 1913000   0.47804807   -8.9230898    229.04247 0.0099774558 0.0083638926            3 
 1914000   0.48969592    -8.940778    229.12064 0.0099756462  0.008356721            3 
 1915000   0.50150713   -8.9509402     228.9854 0.0099645516 0.0083495508            6 
 1916000   0.48525727   -8.9356082    228.49498 0.0099380212 0.0083423856            8 
 1917000   0.48524985   -8.9350565    229.23565 0.0099650342 0.0083352267            7 
 1918000   0.48746931   -8.9436474    228.81011   0.00994135 0.0083280831            4 
 1919000   0.49126739   -8.9594431    229.00762 0.0099447464 0.0083209507            5 
 1920000   0.48799217   -8.9343299    229.08112 0.0099427568 0.0083138234            4 
 1921000   0.49357593   -8.9411365    229.14214 0.0099402283 0.0083067098            6 
 1922000   0.48302194    -8.929139    228.73531 0.0099174171 0.0082995884            2 
 1923000   0.50364049   -8.9414259    229.04281 0.0099255857 0.0082924866            4 
 1924000    0.4790201   -8.9375564    229.73509  0.009950411  0.008285394            7 
 1925000   0.48684846   -8.9337403    229.21791 0.0099228532   0.00827831            3 
 1926000   0.48760688   -8.9328772    228.92759 0.0099051398 0.0082712316            4 
 1927000   0.48441288   -8.9570701     229.0155 0.0099038013 0.0082641587            6 
 1928000    0.4786359   -8.9476732    228.66017 0.0098833061 0.0082570905            6 
 1929000   0.48637776   -8.9392028    228.56104 0.0098739001 0.0082500298            6 
 1930000   0.48151954   -8.9549217    228.75388 0.0098771105 0.0082429823            4 
 1931000   0.48721939   -8.9581424    228.99548  0.009882422  0.008235941            4 
 1932000   0.48805531   -8.9490049     228.6912 0.0098641821 0.0082289051            4 
 1933000   0.48452648   -8.9471021    228.90576  0.009868329  0.008221878            5 
 1934000   0.48302762   -8.9432915    228.96116 0.0098656135  0.008214861            2 
 1935000   0.48455261    -8.956003    228.84571 0.0098555432 0.0082078546            5 
 1936000   0.47691825   -8.9483466    228.76257 0.0098468735 0.0082008555            3 
 1937000   0.47884816   -8.9512642    228.76363 0.0098418356 0.0081938618            5 
 1938000   0.49268895   -8.9449779    228.75512 0.0098363914 0.0081868749            2 
 1939000   0.47556084   -8.9569736    228.68616  0.009828355    0.0081799            2 
 1940000   0.47774628   -8.9472626    229.22447 0.0098464119 0.0081729314            7 
 1941000   0.47043466   -8.9441413    228.70803 0.0098191666 0.0081659685            5 
 1942000   0.47267002   -8.9468075    228.79373 0.0098177878 0.0081590203            5 
 1943000   0.47178777   -8.9632184    229.18042 0.0098293199 0.0081520734            4 
 1944000   0.47520799   -8.9498766    228.75266 0.0098059266 0.0081451306            3 
 1945000   0.47823725   -8.9491027    229.03014 0.0098127739 0.0081382044            3 
 1946000   0.47310469   -8.9513765    228.51933 0.0097858567 0.0081312872            4 
 1947000    0.4669779    -8.954117    228.72872  0.009789793 0.0081243763            4 
 1948000   0.47296417   -8.9603607    228.83123 0.0097891527 0.0081174733            4 
 1949000   0.48082259   -8.9500747    228.77317 0.0097816473  0.008110574            4 
 1950000   0.47679401   -8.9618738     228.9153 0.0097827051 0.0081036794            9 
 1951000   0.48112547   -8.9715216    229.07397 0.0097844681 0.0080967892            3 
 1952000   0.47724846   -8.9583681    228.73433 0.0097649562 0.0080899098            4 
 1953000   0.46827615    -8.953102    228.70268 0.0097586055 0.0080830385            4 
 1954000   0.46181722   -8.9657265    228.80535 0.0097579902 0.0080761694            4 
 1955000   0.46582742   -8.9433182    228.52179 0.0097409117 0.0080693096            2 
 1956000   0.48049837   -8.9619661    228.91805 0.0097528139 0.0080624566            2 
 1957000   0.47006745   -8.9510296    228.98363 0.0097506228 0.0080556174            2 
 1958000   0.46656057   -8.9799594    228.71622  0.009734262 0.0080487828            3 
 1959000   0.47261005   -8.9587872    228.59536 0.0097241517 0.0080419657            4 
 1960000   0.47524472   -8.9671029     228.7328 0.0097250339   0.00803515            5 
 1961000   0.46404875   -8.9739905    229.18792 0.0097394152 0.0080283447            4 
 1962000   0.48243284   -8.9690003    228.75037 0.0097158668 0.0080215407            5 
 1963000   0.46781691   -8.9692258    228.59482 0.0097043138 0.0080147451            5 
 1964000   0.46057073   -8.9855456    229.13344 0.0097222269 0.0080079603            4 
 1965000   0.46839148   -8.9694535    228.92092 0.0097082663  0.008001181            5 
 1966000   0.46699672   -8.9742418    228.60482 0.0096899295 0.0079944051            4 
 1967000   0.45904609   -8.9693758    228.65425 0.0096870975 0.0079876403            7 
 1968000   0.45553309   -8.9673533    228.67904 0.0096832251  0.007980885           13 
 1969000   0.47118606   -8.9625003    228.75904 0.0096816927 0.0079741297            5 
 1970000   0.47150196   -8.9766438    228.57196 0.0096688645 0.0079673887            4 
 1971000   0.47046642   -8.9808835    228.56044 0.0096634722 0.0079606488            3 
 1972000   0.46466343   -8.9682816     228.5951 0.0096600362 0.0079539216            3 
 1973000   0.47531546   -8.9748344    228.92555 0.0096690974 0.0079472027            4 
 1974000   0.46252296   -8.9828181    228.56338 0.0096489101 0.0079404878            5 
 1975000   0.46204105   -8.9585806     228.6321 0.0096469241 0.0079337753            6 
 1976000    0.4611136   -8.9594771     228.6707 0.0096436697 0.0079270697            2 
 1977000   0.45574419   -8.9769645    228.46693 0.0096302028 0.0079203782            2 
 1978000   0.47278268   -8.9695801    228.35643 0.0096206787 0.0079136985            5 
 1979000   0.46721671   -8.9851726    228.61073 0.0096265256 0.0079070205            4 
 1980000   0.45428482   -8.9869403    228.82457 0.0096306637 0.0079003552            3 
 1981000   0.46164717    -8.973857    228.44837 0.0096099767 0.0078936923            9 
 1982000   0.46301587   -8.9785753    228.62905 0.0096127249 0.0078870365            3 
 1983000   0.46130704   -8.9819136    228.49059 0.0096020585  0.007880389            5 
 1984000   0.46019248   -8.9941939    228.28662 0.0095886519  0.007873737            6 
 1985000   0.45925531   -8.9571099    228.77596 0.0096043646 0.0078671034            3 
 1986000   0.45726627   -9.0010427    229.08404 0.0096124556 0.0078604748            6 
 1987000   0.45388252   -8.9873061    228.41449 0.0095795375 0.0078538484            4 
 1988000   0.44853661   -8.9980378    228.66933 0.0095854013 0.0078472298            5 
 1989000   0.45263236    -8.978884     228.6425 0.0095794578  0.007840621            4 
 1990000   0.45258491   -8.9729536    228.75914 0.0095795285 0.0078340163            3 
 1991000   0.46997271   -8.9691636    228.49354 0.0095636003 0.0078274198            9 
 1992000   0.45588175   -8.9865828    228.72347 0.0095684183 0.0078208356            7 
 1993000   0.45503349   -8.9669829    228.43293  0.009551469 0.0078142516            4 
 1994000   0.47018347   -8.9668336    228.34034 0.0095428092 0.0078076817            3 
 1995000   0.46142697    -8.966626    228.07032  0.009526747 0.0078011146            5 
 1996000    0.4558166   -8.9732913    228.78607 0.0095518565 0.0077945597            5 
 1997000   0.46414636   -8.9895049    228.28693 0.0095262449 0.0077880068            4 
 1998000   0.46362843   -8.9851283    228.70978 0.0095391135 0.0077814647            6 
 1999000   0.44907365   -8.9798677     228.7141 0.0095345215 0.0077749282            7 
 2000000     0.457056   -8.9785645    228.57996 0.0095241651 0.0077684013            6 
 2001000   0.45217114   -8.9916847    228.35888 0.0095101983 0.0077618794            4 
 2002000   0.45583179   -8.9912952    228.34375 0.0095048179 0.0077553646            2 
 2003000   0.44697632   -8.9946664    228.41825 0.0095031721 0.0077488599            3 
 2004000   0.46155064   -8.9807765    228.41014 0.0094980928 0.0077423536            4 
 2005000   0.45473958   -8.9851544    228.47609 0.0094960966 0.0077358618            4 
 2006000   0.44898482   -9.0033435    228.17089 0.0094786842 0.0077293728            4 
 2007000   0.44613117   -8.9827463     228.5386 0.0094892294 0.0077228916            4 
 2008000   0.45774275   -8.9929078    228.30634 0.0094748647 0.0077164159            4 
 2009000   0.45359101   -9.0032407    228.39541 0.0094738429 0.0077099503            5 
 2010000   0.45106268   -9.0089499    228.29109 0.0094648048   0.00770349            8 
 2011000   0.44003757   -9.0114246    228.43522 0.0094660706 0.0076970333            4 
 2012000   0.43721442   -8.9967768    228.66144 0.0094707356  0.007690586            3 
Loop time of 4944 on 48 procs for 2000000 steps with 4000 atoms

Performance: 69902.956 tau/day, 404.531 timesteps/s
99.4% CPU use with 48 MPI tasks x no OpenMP threads

MPI task timing breakdown:
Section |  min time  |  avg time  |  max time  |%varavg| %total
---------------------------------------------------------------
Pair    | 331.18     | 352.56     | 372.65     |  52.6 |  7.13
Neigh   | 32.218     | 33.913     | 35.542     |  15.2 |  0.69
Comm    | 317.89     | 340.32     | 367.3      |  64.2 |  6.88
Output  | 4.2747     | 4.2764     | 4.3084     |   0.2 |  0.09
Modify  | 4154.6     | 4166.3     | 4177.3     |   8.1 | 84.27
Other   |            | 46.64      |            |       |  0.94

Nlocal:        83.3333 ave          89 max          78 min
Histogram: 3 5 4 5 3 13 7 6 0 2
Nghost:        2176.46 ave        2195 max        2157 min
Histogram: 2 2 6 3 7 10 6 10 1 1
Neighs:        14485.9 ave       15854 max       12937 min
Histogram: 3 2 3 1 12 10 7 4 3 3
FullNghs:      28970.9 ave       31172 max       27007 min
Histogram: 2 3 7 4 9 10 8 3 0 2

Total # of neighbors = 1390604
Ave neighs/atom = 347.65100
Neighbor list builds = 106813
Dangerous builds = 0

#clear
#
#next RN
#
#jump SELF
Total wall time: 1:22:27
