
units lj                  # Use reduced LJ style units
atom_style atomic         # Uncharged point particles
atom_modify map hash      # Needed for indexing of clusters etc
                          # Used to be able to find where atoms are in relation to each other.

lattice fcc 1.0 spacing 1 1 1
Lattice spacing in x,y,z = 1.5874011 1.5874011 1.5874011
region box block 0 10 0 10 0 10 units lattice
create_box 2 box
Created orthogonal box = (0.0000000 0.0000000 0.0000000) to (15.874011 15.874011 15.874011)
  3 by 4 by 4 MPI processor grid
create_atoms 1 box
Created 4000 atoms
  using lattice units in orthogonal box = (0.0000000 0.0000000 0.0000000) to (15.874011 15.874011 15.874011)
  create_atoms CPU = 0.002 seconds
set type 1 type/fraction 2 0.77 78393
Setting atom values ...
  3073 settings made for type/fraction
mass 1 1.0
mass 2 1.0
pair_style lj/cut  3.5
pair_modify tail  yes
pair_coeff 1  1  1.0  1.0   # Intearaction between 1 and 1 set with epsilon = 1 and sigma = 1
pair_coeff 1  2  1.5  0.8
pair_coeff 2  2  0.5  0.88

write_data data.0
System init for write_data ...
Neighbor list info ...
  update every 1 steps, delay 10 steps, check yes
  max neighbors/atom: 2000, page size: 100000
  master list distance cutoff = 3.8
  ghost atom cutoff = 3.8
  binsize = 1.9, bins = 9 9 9
  1 neighbor lists, perpetual/occasional/extra = 1 0 0
  (1) pair lj/cut, perpetual
      attributes: half, newton on
      pair build: half/bin/atomonly/newton
      stencil: half/bin/3d
      bin: standard
WARNING: Not all mixed pair coeffs generated from mixing. Use write_data with 'pair ij' option to store all pair coeffs. (../write_data.cpp:312)


#############################
#   M E L T   S Y S T E M   #
#############################

velocity all create 2.4 1741580 mom yes dist gaussian # Assign velocities
                                                    # Temperature 2.4, random number seed, zero linear momentum
                                                                                # Gaussian distribution

timestep 0.002   # simulation timestep
thermo 1000       # output thermodynamic data every 1000 steps bf 100

# Define a fix  in this case with index 1 applied to all
# particles in the simulation. This fix is for simulations
# in the anisotropic NPT ensemble. Note that we use the MTK
# correction.
fix 1 all npt temp 2.4 2.4 0.1 iso 5.68 5.68 0.5 mtk yes tchain 5 pchain 5 # Use NPT ensemble
                                                                         # Set temperature and pressure and damping
                                                                         # Numbers of thermostats in chain and in barostat
run 10000          # run for 10000 steps
Per MPI rank memory allocation (min/avg/max) = 3.642 | 3.644 | 3.648 Mbytes
Step Temp E_pair E_mol TotEng Press Volume 
       0          2.4   -3.8453673            0  -0.24626728   -3.4249601         4000 
    1000    2.3381308   -3.2986069            0   0.20771247    5.4824706    3748.1605 
    2000    2.3637153   -3.2844858            0   0.26020078    5.6212989    3763.0036 
    3000    2.4025238   -3.3065909            0   0.29629379    5.5661121    3743.4147 
    4000    2.3974085   -3.2422346            0   0.35297912    5.7860943    3766.4985 
    5000    2.3462234   -3.3080502            0   0.21040497    5.5060289    3747.4431 
    6000    2.4741067   -3.2808128            0   0.42941955    5.5618903     3773.605 
    7000    2.3894531    -3.254488            0   0.32879558    5.7405609    3753.7556 
    8000    2.4303408   -3.2769049            0   0.36769488    6.0958741    3716.1319 
    9000    2.3803705   -3.2773763            0   0.29228686    5.5507894    3757.0949 
   10000    2.3637214   -3.2875899            0   0.25710583    6.1057496    3693.8294 
Loop time of 2.62546 on 48 procs for 10000 steps with 4000 atoms

Performance: 658170.640 tau/day, 3808.858 timesteps/s
99.6% CPU use with 48 MPI tasks x no OpenMP threads

MPI task timing breakdown:
Section |  min time  |  avg time  |  max time  |%varavg| %total
---------------------------------------------------------------
Pair    | 1.164      | 1.2367     | 1.3555     |   3.9 | 47.10
Neigh   | 0.21469    | 0.22369    | 0.24351    |   1.0 |  8.52
Comm    | 0.78056    | 0.89528    | 0.98977    |   4.7 | 34.10
Output  | 0.00024549 | 0.00025676 | 0.00041667 |   0.0 |  0.01
Modify  | 0.2141     | 0.25428    | 0.29471    |   4.0 |  9.69
Other   |            | 0.01524    |            |       |  0.58

Nlocal:        83.3333 ave          94 max          74 min
Histogram: 1 4 2 14 6 6 6 4 1 4
Nghost:        1727.02 ave        1758 max        1686 min
Histogram: 1 2 4 4 9 6 5 8 5 4
Neighs:        10325.6 ave       11857 max        8996 min
Histogram: 1 4 7 9 6 7 7 3 1 3

Total # of neighbors = 495630
Ave neighs/atom = 123.90750
Neighbor list builds = 914
Dangerous builds = 222

# Equilibrate just above the melting temperature to avoid step fn in T

fix 1 all npt temp 1.25 1.25 0.1 iso 5.68 5.68 0.5 mtk yes tchain 5 pchain 5
run 2000
Per MPI rank memory allocation (min/avg/max) = 3.644 | 3.646 | 3.649 Mbytes
Step Temp E_pair E_mol TotEng Press Volume 
   10000    2.3637214   -3.2875899            0   0.25710583    6.1057496    3693.8294 
   11000    1.2573271   -4.8521311            0   -2.9666119    5.7580544    2868.7411 
   12000    1.2413849   -4.8904237            0   -3.0288118    5.6231421    2856.5963 
Loop time of 0.647282 on 48 procs for 2000 steps with 4000 atoms

Performance: 533924.603 tau/day, 3089.841 timesteps/s
99.6% CPU use with 48 MPI tasks x no OpenMP threads

MPI task timing breakdown:
Section |  min time  |  avg time  |  max time  |%varavg| %total
---------------------------------------------------------------
Pair    | 0.29146    | 0.31713    | 0.33586    |   2.1 | 48.99
Neigh   | 0.040767   | 0.043082   | 0.045853   |   0.5 |  6.66
Comm    | 0.21483    | 0.23709    | 0.26586    |   2.8 | 36.63
Output  | 5.4119e-05 | 5.539e-05  | 7.3084e-05 |   0.0 |  0.01
Modify  | 0.040488   | 0.044923   | 0.048218   |   1.0 |  6.94
Other   |            | 0.005007   |            |       |  0.77

Nlocal:        83.3333 ave          90 max          77 min
Histogram: 3 3 5 8 5 8 7 5 1 3
Nghost:        2057.10 ave        2082 max        2041 min
Histogram: 5 7 5 7 10 5 7 0 1 1
Neighs:        13361.4 ave       15432 max       11781 min
Histogram: 4 6 4 7 9 6 7 3 1 1

Total # of neighbors = 641347
Ave neighs/atom = 160.33675
Neighbor list builds = 142
Dangerous builds = 7

#############################
# L I N E A R  Q U E N C H  #
#############################

# Define solid atoms. This closely follows ten Wolde  Ruiz-Montero and Frenkel  Faraday Discuss  1996  104  93-110
# Compute components of the per-atom q6 vector
compute q6 all orientorder/atom degrees 1 6 components 6 nnn NULL cutoff 1.3 # compute the Q6 parameter.
                                                                             # Use all neighbours within 1.3 unit cell.

# get number of connections
compute coord_number all coord/atom orientorder q6 0.5

# An atom is solid if it has 8 or more connections (of a possible 14)
variable is_solid atom c_coord_number>=8
group solid dynamic all var is_solid    # Must be dynamic to update
dynamic group solid defined

# do clustering
compute cluster solid cluster/atom 1.3 # Create a cluster where all atoms within are solid and max 1.3 units from another member

# define chunks one chunk per cluster
compute clus_chunks solid chunk/atom c_cluster nchunk every compress yes  # Says which atoms are in which chunk

# count the size of each chunk
compute size_chunks solid property/chunk clus_chunks count


# Find the maximum entry in the vector of chunk sizes
variable max_n equal max(c_size_chunks)


# Thermo style which includes this variable
# thermo_style custom step temp pe vol v_max_n

thermo ${N}  # Print the thermo information every 100 steps
thermo 1000  

# Reset the npt fix at a lower temperature (below freezing)
fix 1  all npt temp  ${temp} ${temp}  0.1  iso  5.68  5.68  0.5  mtk yes tchain  5  pchain  5
fix 1  all npt temp  0.45 ${temp}  0.1  iso  5.68  5.68  0.5  mtk yes tchain  5  pchain  5
fix 1  all npt temp  0.45 0.45  0.1  iso  5.68  5.68  0.5  mtk yes tchain  5  pchain  5

dump dmp2 all dcd ${N} traj.dcd
dump dmp2 all dcd 1000 traj.dcd


compute msd all msd com yes
variable twopoint equal c_msd[4]/6/(step*dt+1.0e-6)
fix 9 all vector 10 c_msd[4]
variable fit equal slope(f_9)/6/(10*dt)
thermo_style custom step temp pe c_msd[4] v_twopoint v_fit v_max_n

fix 1 all npt temp 1.25 ${temp} 0.1 iso 5.68 5.68 0.5 mtk yes tchain 5 pchain 5
fix 1 all npt temp 1.25 0.45 0.1 iso 5.68 5.68 0.5 mtk yes tchain 5 pchain 5
run 2000000 # 5000000  # Run for this many steps
Neighbor list info ...
  update every 1 steps, delay 10 steps, check yes
  max neighbors/atom: 2000, page size: 100000
  master list distance cutoff = 3.8
  ghost atom cutoff = 3.8
  binsize = 1.9, bins = 8 8 8
  4 neighbor lists, perpetual/occasional/extra = 1 3 0
  (1) pair lj/cut, perpetual
      attributes: half, newton on
      pair build: half/bin/atomonly/newton
      stencil: half/bin/3d
      bin: standard
  (2) compute orientorder/atom, occasional
      attributes: full, newton on
      pair build: full/bin/atomonly
      stencil: full/bin/3d
      bin: standard
  (3) compute coord/atom, occasional
      attributes: full, newton on
      pair build: full/bin/atomonly
      stencil: full/bin/3d
      bin: standard
  (4) compute cluster/atom, occasional
      attributes: full, newton on
      pair build: full/bin/atomonly
      stencil: full/bin/3d
      bin: standard
Per MPI rank memory allocation (min/avg/max) = 9.838 | 9.844 | 9.850 Mbytes
Step Temp PotEng c_msd[4] v_twopoint v_fit v_max_n 
   12000    1.2413849   -4.8904237 3.157613e-30 2.1927867e-32 8.3333333e+20            1 
   13000    1.2673907   -4.9428367   0.70141517 0.0044962509  0.058870668            3 
   14000    1.2327337   -4.8577545    1.4436395 0.0085930918   0.05947455            1 
   15000    1.2601813   -4.8538109    2.2266877  0.012370487  0.061900954            2 
   16000    1.2133544   -4.8382708    2.9877339  0.015561114  0.062769099            2 
   17000    1.2248786   -4.8969346    3.7001363  0.018137923  0.062407089            2 
   18000    1.2520351   -4.8687369    4.4234983  0.020479158  0.062175014            1 
   19000    1.2443536   -4.8953428    5.1688045  0.022670194  0.061838509            2 
   20000    1.2566935   -4.9259042    5.9126436  0.024636014  0.061969704            8 
   21000    1.2692328   -4.9277278     6.650903  0.026392471  0.061940397            1 
   22000    1.2382743   -4.9294374    7.3605126  0.027880729  0.061896609            1 
   23000    1.2355378    -4.888847     7.982243   0.02892117  0.061532751            3 
   24000    1.2537406   -4.8910395    8.7273627  0.030303342  0.061228443            4 
   25000    1.2495566   -4.9107115    9.4449908  0.031483302   0.06094292            2 
   26000    1.2149151   -4.9242528    10.121382  0.032440325  0.060767965            1 
   27000    1.2553442   -4.8708996    11.038762  0.034070253  0.060732472            1 
   28000    1.2480056   -4.9418993    11.825246  0.035194183  0.060880626            2 
   29000     1.234473    -4.866661    12.667166  0.036399901  0.061130885            1 
   30000    1.2411169   -4.8904858    13.423372  0.037287145   0.06145428            2 
   31000     1.249319   -4.8980084     14.29573  0.038429381  0.061821141            3 
   32000    1.2495605   -4.9105284    15.076089  0.039260647  0.062142524            3 
   33000    1.2306858   -4.9263728    15.953305  0.040286124  0.062480137            3 
   34000    1.2181042   -4.9139149    16.844042  0.041284416  0.062817366            2 
   35000    1.2262398      -4.9213    17.552467  0.041791586  0.063174399            8 
   36000    1.2195855   -4.9075953    18.232978  0.042205968  0.063390604            2 
   37000     1.252929   -4.8652767    19.050908  0.042907449   0.06355222            5 
   38000    1.2161144   -4.8967192    19.879032  0.043594369  0.063709069            1 
   39000     1.207204    -4.849585    20.728273  0.044291182  0.063891817            5 
   40000    1.1974691   -4.9348825    21.168699  0.044101457  0.063954184            4 
   41000    1.2447221   -4.9195383    21.780202  0.044268703  0.063890565            2 
   42000    1.2480115   -4.8892431    22.456178  0.044555908  0.063760144            2 
   43000    1.2459688   -4.8530863     23.22272  0.045005271  0.063620527            4 
   44000    1.2442213   -4.8976775    24.034515  0.045519914  0.063516234            4 
   45000    1.2447002    -4.905386    24.631164  0.045613266   0.06340372            4 
   46000    1.2543473    -4.921896    25.277133  0.045791907  0.063255388            3 
   47000    1.2099194   -4.8710153    26.186877  0.046430633  0.063130768            5 
   48000    1.2208093   -4.9303971    26.744386  0.046431226  0.062987978            1 
   49000    1.2572886   -4.9438214     27.13194  0.046142755  0.062802574            3 
   50000    1.2266611   -4.9223382    27.859389  0.046432315  0.062591822            2 
   51000    1.2217123   -4.8772047    28.569259  0.046681796  0.062361343            2 
   52000    1.2195934   -4.9075339    29.372222  0.047070868  0.062182139            4 
   53000    1.2407977    -4.937477    30.057884  0.047260824  0.062041737            2 
   54000    1.2462492   -4.9429634    30.751121  0.047455434  0.061918215            2 
   55000    1.2138655   -4.9011072    31.421651  0.047608562  0.061772901            2 
   56000    1.2612753     -4.90309    32.013141  0.047638602  0.061597778            1 
   57000    1.2248824    -4.899169    32.575316  0.047624731  0.061408086            6 
   58000    1.2494847   -4.8769314    33.357832  0.047927919  0.061204015            2 
   59000    1.2356878   -4.8961923    33.702583  0.047602518  0.061028726            4 
   60000    1.2461358   -4.9372479      34.5098  0.047930277  0.060854082            3 
   61000    1.2508794   -4.9281822    34.981424   0.04778883   0.06067774            1 
   62000    1.2087528   -4.9050066    35.676797  0.047952683  0.060485409            2 
   63000     1.235747   -4.9123774    36.276538  0.047984838  0.060302081            2 
   64000    1.2160078   -4.9042368    36.832557  0.047959059  0.060127425            1 
   65000    1.2078617   -4.9291946    37.545738  0.048135561  0.059933547            1 
   66000    1.2422287   -4.9355689    38.151515  0.048171104  0.059750288            2 
   67000    1.1935744    -4.959837    39.139585  0.048681075  0.059587417            2 
   68000     1.232886   -4.9132751    39.656356  0.048598475   0.05945695            1 
   69000     1.224611   -4.9485438     40.20378   0.04855529  0.059326463            2 
   70000    1.2211545   -4.9479197     40.99061  0.048798345  0.059187847            2 
   71000    1.2189937   -4.9268726    41.879356  0.049154174    0.0590853            2 
   72000    1.2418167   -4.9309151    42.427829  0.049106283  0.058992624            2 
   73000     1.225109   -4.9401782    43.474651  0.049628597  0.058917583            3 
   74000    1.2223821   -4.9865494    43.761683  0.049281174  0.058859742            1 
   75000    1.2178254   -4.8988838    44.838677  0.049820752  0.058808909            2 
   76000    1.2282767   -4.9418103    45.281256    0.0496505  0.058761011            2 
   77000    1.1987058    -4.929898    45.953989  0.049733754  0.058704693            1 
   78000    1.2211853   -4.9315586    46.464764  0.049641841  0.058638319            2 
   79000    1.2463345   -4.9288225    47.109049  0.049693089  0.058568328            1 
   80000    1.2023718   -4.9042905    47.830425  0.049823359  0.058503623            1 
   81000    1.2136779   -4.9753856    48.595547  0.049995418  0.058445971            3 
   82000    1.2167065   -4.9300765    49.340458  0.050142741  0.058378855            2 
   83000     1.204319   -4.9141936    49.921449  0.050121937  0.058328581            5 
   84000    1.2264635   -4.9458082    50.852266  0.050448676  0.058286527            3 
   85000    1.2240424   -4.9382073    51.586418   0.05057492  0.058251437            2 
   86000    1.2296436   -4.9684747    52.079579  0.050464708  0.058209175            1 
   87000    1.2101111    -4.903199    52.857698  0.050629979  0.058171226            2 
   88000    1.2156469   -4.9202073    53.417334  0.050584596  0.058134547            2 
   89000    1.2143548   -4.9287038    54.009649  0.050570832  0.058097638            1 
   90000    1.2049927   -4.9633293    54.720215  0.050666866   0.05806081            1 
   91000    1.2075119   -4.9554627    55.383533  0.050717521  0.058018848            2 
   92000    1.2102423   -4.9385101    56.159068   0.05086872   0.05796686            1 
   93000     1.207607   -4.9281637    56.676476  0.050785373  0.057922321            2 
   94000    1.2317258   -4.9360974    57.387763  0.050875676  0.057872641            2 
   95000    1.2606664   -4.9134216    58.123631  0.050985641  0.057831511            3 
   96000    1.2571946   -4.9648794    58.459626  0.050746203  0.057799193            2 
   97000     1.196334   -4.9304743    59.393421  0.051025276  0.057758758            1 
   98000    1.2183953   -4.9509922    60.016594  0.051034518   0.05771765            3 
   99000    1.2147894   -4.9442158    60.720809  0.051111792  0.057678659            2 
  100000     1.225308   -4.9739329    61.008792   0.05084066  0.057639524            2 
  101000     1.222811   -4.9680239    61.820359  0.051006897  0.057590855            2 
  102000    1.2124833   -4.9557659     62.93257  0.051415498  0.057564961            2 
  103000    1.2226798   -4.9314068    63.558149   0.05142245   0.05755098            4 
  104000    1.2019052   -4.9280573    64.527145  0.051704443  0.057530733            3 
  105000    1.2323436   -4.9755657     65.16141  0.051715405  0.057521766            3 
  106000    1.1954706   -4.9794041     66.02667  0.051907759  0.057517049            4 
  107000    1.2246686   -4.9446942    66.374854  0.051693811  0.057527791            3 
  108000    1.2228598   -4.9707103    67.538005  0.052112658  0.057535928            2 
  109000    1.2166398   -4.9297847    68.170338  0.052117995  0.057546766            3 
  110000    1.1922725   -4.9656163    68.889566  0.052189065  0.057559119            3 
  111000    1.1886712   -4.9767692    69.538362  0.052205977  0.057571774            4 
  112000    1.2128138   -4.9641592    70.672122  0.052583424  0.057586438            4 
  113000    1.2095808    -4.942075    71.314533  0.052591838  0.057607064            2 
  114000    1.2117255   -4.9705392    71.572177  0.052318842  0.057621245            7 
  115000    1.2125502   -4.9427713    72.654395  0.052648112  0.057633393            2 
  116000    1.2191862   -5.0096755    73.214301   0.05259648  0.057644335            3 
  117000    1.2018843    -5.000327    73.772224  0.052544319  0.057659179            2 
  118000    1.1843749   -4.9758569    74.429496  0.052563203  0.057671163            5 
  119000    1.2100671   -4.9240961    75.220649  0.052675524  0.057684033            2 
  120000    1.2204948   -4.9519502    75.805024  0.052642378  0.057687917            2 
  121000     1.202858   -4.9865857    76.524267  0.052702663  0.057690157            2 
  122000    1.2178947     -4.97492    77.131256  0.052685284  0.057688825            3 
  123000    1.2146075   -4.9663943    77.806293  0.052714291  0.057695662            2 
  124000    1.2037083   -4.9927114    78.357754   0.05265978  0.057695092            2 
  125000    1.1885642   -5.0143478    78.991893  0.052661262  0.057687653            3 
  126000    1.1937924   -4.9659811    79.960506  0.052883932  0.057687805            2 
  127000    1.2079822   -4.9657312    81.041207  0.053176645  0.057685845            1 
  128000    1.2250774   -4.9586571    81.597836  0.053123591  0.057693227            3 
  129000     1.211767   -4.9769858    81.931509  0.052927331  0.057696457            1 
  130000    1.2066549   -4.9574474    83.373872   0.05344479  0.057709077            3 
  131000    1.2030189   -4.9775239    83.637027  0.053204215  0.057723116            2 
  132000    1.2120701   -4.9459053    84.579225  0.053395975  0.057728741            2 
  133000    1.1993698   -4.9745438    85.137209  0.053344116  0.057736292            3 
  134000    1.2094957    -5.009285    86.068851  0.053525405   0.05775414            2 
  135000    1.1979233   -5.0002259    86.822821  0.053594334  0.057774347            3 
  136000    1.2242399   -4.9816758    87.679882  0.053725418  0.057803348            2 
  137000    1.2071713   -4.9628654    88.031073  0.053546881   0.05782385            2 
  138000    1.2052025   -5.0012433    89.161792  0.053841661  0.057840814            4 
  139000    1.1971168   -4.9689676    89.875127   0.05388197  0.057862344            4 
  140000    1.2075777   -5.0014959    90.114929  0.053639839  0.057885212            2 
  141000    1.2106675   -4.9522995     91.89346  0.054310556  0.057910658            2 
  142000    1.1966078   -5.0353161    91.403932  0.053640805  0.057927554            3 
  143000    1.1961317   -4.9747693    92.727047  0.054036741  0.057944069            2 
  144000    1.2171423   -4.9545226    93.186809  0.053927551  0.057962999            4 
  145000    1.1987777   -5.0090398    94.033696  0.054042354  0.057978533            3 
  146000    1.1979714    -4.971366    95.221155  0.054349974  0.057995526            2 
  147000       1.1953   -4.9898666    95.517353  0.054148159  0.058014172            2 
  148000    1.2035326   -5.0013727    95.967864  0.054035959  0.058028358            5 
  149000    1.2222687   -4.9823801    96.731996  0.054100668  0.058040023            2 
  150000    1.2285667   -4.9737156    98.044625  0.054469236  0.058061529            2 
  151000    1.1744425   -5.0001298     98.70011  0.054470259  0.058087529            2 
  152000     1.174099   -4.9880752    99.103377  0.054332992  0.058113491            3 
  153000    1.1916312   -4.9883105    100.21888  0.054585444  0.058134093            4 
  154000    1.1718394   -5.0054185    100.63614  0.054456788  0.058157299            1 
  155000    1.2149992   -4.9630751    101.51673  0.054578886  0.058181389            2 
  156000    1.1999726   -5.0015559    102.65962  0.054839539  0.058207779            3 
  157000    1.1777942   -4.9733681    103.05578  0.054700521  0.058234763            3 
  158000    1.1965427   -4.9611988    104.13559  0.054923837  0.058264973            2 
  159000    1.1934922   -5.0259188    104.52441  0.054782186   0.05829487            2 
  160000    1.1873692   -5.0023741    105.18924  0.054786062  0.058322109            2 
  161000    1.1477197   -4.9911538    105.89813  0.054812698   0.05834575            2 
  162000    1.2029496   -4.9841861    106.31598  0.054689291  0.058368256            2 
  163000     1.206322   -4.9883335    107.12873   0.05476929  0.058382576            2 
  164000    1.1900991   -4.9951347    107.76924  0.054760793  0.058402568            3 
  165000    1.1832498   -5.0091404    108.57719  0.054836966  0.058415987            5 
  166000    1.2174456   -4.9910253    109.31557  0.054877296  0.058435803            3 
  167000    1.1658642     -4.99783     109.8107  0.054795757  0.058448482            3 
  168000    1.2022398   -4.9818119    111.32634  0.055221398  0.058464567            2 
  169000    1.2013277   -4.9684616    111.70037  0.055079076  0.058481649            1 
  170000    1.1874436   -4.9819518     112.4129  0.055104361  0.058496807            4 
  171000    1.2007863   -4.9847442    113.18833  0.055160002  0.058513113            2 
  172000    1.2187295   -5.0121971     113.7238  0.055098739   0.05853131            3 
  173000    1.1810655   -5.0226632    114.80656  0.055301809  0.058550235            3 
  174000    1.2024723     -5.00932    115.63499  0.055380742  0.058568056            1 
  175000    1.1718932   -5.0017516    116.12722  0.055298677  0.058586626            2 
  176000    1.1683986   -4.9975058    117.33437  0.055556044  0.058608889            3 
  177000    1.1715105   -5.0318581    117.54738  0.055342457  0.058632643            3 
  178000    1.1696043   -5.0308306    118.72523  0.055582972  0.058651126            2 
  179000    1.1798463   -5.0111634    118.70874  0.055264774  0.058669805            3 
  180000    1.1780903   -4.9853763    120.25147  0.055671978  0.058688538            1 
  181000    1.1878087   -4.9857814    120.69866  0.055570287  0.058707833            2 
  182000    1.2101965   -4.9917346    121.32644  0.055552401  0.058725121            5 
  183000    1.1812229   -5.0294483    121.19478   0.05518888  0.058735348            7 
  184000    1.1795206   -5.0179968    122.37568  0.055423769  0.058742398            2 
  185000    1.1924101   -4.9939846    122.37364  0.055123262   0.05874851            3 
  186000    1.1818612   -5.0104398    123.37729  0.055276565  0.058751763            4 
  187000    1.1831192   -5.0207184    123.77387  0.055157694  0.058753729            2 
  188000    1.1485017   -5.0143043    124.41515  0.055148559  0.058751127            2 
  189000    1.1763055   -5.0204204    125.36996  0.055277759  0.058748954            2 
  190000    1.1893701   -4.9976121    126.01438  0.055269465  0.058745449            2 
  191000    1.1443434   -5.0614083    125.92502  0.054941107  0.058739437            2 
  192000    1.1876594   -5.0262517    126.40279  0.054862324  0.058732034            1 
  193000    1.1654336   -4.9929637    127.86483   0.05520934  0.058723185            2 
  194000    1.1723283   -5.0469551    128.10085  0.055026136  0.058714968            4 
  195000    1.2089794   -5.0019747    128.58844  0.054952326  0.058705344            3 
  196000    1.1887224   -5.0007084    128.82579  0.054772872  0.058693523            3 
  197000    1.2048735   -5.0264454    129.87531  0.054938795  0.058677893            3 
  198000    1.1518714    -5.016435    130.49002  0.054920042  0.058665775            3 
  199000     1.162715   -5.0335803    131.22025  0.054949852  0.058649968            1 
  200000    1.1563214   -5.0228936    131.89942  0.054958093  0.058634059            2 
  201000    1.1797871   -5.0855223    131.60086  0.054560888  0.058618662            3 
  202000    1.1757304   -5.0374246    132.78642  0.054779878  0.058598129            2 
  203000    1.1618925   -5.0437625    133.13428  0.054652823    0.0585782            3 
  204000    1.1547443   -5.0266431    133.29556  0.054450803  0.058553752            2 
  205000    1.1397147   -5.0431982    134.19873  0.054552327  0.058527075            4 
  206000    1.1794928   -5.0389106    134.40732  0.054371894  0.058501489            6 
  207000    1.1522378   -5.0691325    135.29364  0.054466038  0.058472872            2 
  208000    1.1920183   -5.0601163    135.87597  0.054437486   0.05844666            3 
  209000     1.173082   -5.0516038    136.74863  0.054524973  0.058420557            3 
  210000    1.1681941   -5.0310381    137.43771  0.054538774  0.058395969            1 
  211000    1.1776346   -5.0492032    137.90767  0.054465904  0.058370125            1 
  212000    1.1473677   -5.0171981    138.96815  0.054625845  0.058344758            2 
  213000    1.1918594   -5.0274201    139.40792  0.054541441   0.05831975            2 
  214000    1.1618675   -4.9869693    139.70308  0.054401513  0.058295718            2 
  215000    1.1677802   -5.0343065    140.61232    0.0545009  0.058272962            2 
  216000    1.1440501   -5.0425144    140.93192  0.054371884  0.058248328            2 
  217000    1.1521699    -5.033031    141.77918   0.05444669  0.058223315            3 
  218000    1.1560878   -5.0376921    142.19056  0.054354189  0.058194696            7 
  219000    1.1731975   -5.0274714    142.70183  0.054300544  0.058164768            2 
  220000    1.1528189   -5.0536274    143.09183   0.05420145   0.05813437            2 
  221000    1.1671226   -5.0210339    144.27737  0.054403231  0.058108693            2 
  222000    1.1902227   -5.0137162    145.65904  0.054676815  0.058085777            3 
  223000    1.1699462    -5.038564    146.83077  0.054869494  0.058066465            2 
  224000    1.1867942   -5.0336242    145.94385  0.054294586  0.058044845            5 
  225000    1.1520245   -5.0444333    147.29032   0.05455197  0.058019513            4 
  226000     1.176458   -5.0342992    147.96184  0.054558201  0.057996278            3 
  227000    1.1672287   -5.0526561    148.54216  0.054530896  0.057976107            3 
  228000    1.1858301   -5.0652872    148.98569  0.054453833  0.057948486            4 
  229000    1.1375449   -5.0530228    149.24454  0.054310239  0.057921885            1 
  230000    1.1717915   -5.0288018    149.98351  0.054341851  0.057896304            2 
  231000    1.1570328   -5.0848456    150.88942  0.054433412  0.057873166            2 
  232000    1.1785681   -5.0516314    151.57297  0.054444315  0.057850206            5 
  233000    1.1715099   -5.0635127    151.70317  0.054257212   0.05782733            5 
  234000    1.1668766    -5.056663    152.69075  0.054377046  0.057804854            2 
  235000    1.1744392   -5.0327131    153.72709  0.054513152   0.05778361            2 
  236000     1.164093   -5.0771257    153.83428  0.054320013  0.057761812            2 
  237000    1.1835073   -5.0312421    155.05939  0.054521585  0.057741166            3 
  238000    1.1723365   -5.0608634    155.38505  0.054406529  0.057718487            2 
  239000    1.1619036    -5.090616    155.73159  0.054299716   0.05769449            4 
  240000     1.145563   -5.0397248    157.61746  0.054728286  0.057675631            2 
  241000    1.1863584   -5.0595204    157.94799  0.054615487  0.057657087            4 
  242000     1.157963   -5.0592687    158.10503  0.054443881  0.057637851            3 
  243000     1.156472   -5.0138377    159.40644  0.054666131  0.057616691            2 
  244000     1.186708   -5.0518311    159.31577  0.054411125  0.057593897            4 
  245000    1.1552837   -5.0461237    159.92908  0.054397645  0.057574374            2 
  246000    1.1308925    -5.066524    160.73393  0.054449162  0.057555883            1 
  247000    1.1821829   -5.0439629    161.81137  0.054592229  0.057535853            1 
  248000    1.1552223   -5.0761429    162.28804   0.05453227  0.057516747            2 
  249000    1.1640214   -5.1032757    162.26292  0.054304859   0.05749869            2 
  250000    1.1269936   -5.0236272    164.35974  0.054786579  0.057480613            2 
  251000    1.1575126   -5.0290664    164.58977  0.054644678  0.057464316            2 
  252000     1.119799   -5.0402012    164.86475  0.054518768  0.057446551            4 
  253000    1.1357769   -5.1188923    164.94386  0.054329334  0.057426144            2 
  254000    1.1415726    -5.032851    166.46946  0.054615964  0.057404754            3 
  255000    1.1643409   -5.0322237    167.12011  0.054614416  0.057382799            1 
  256000    1.1531157   -5.0357061    167.57386  0.054548784  0.057362613            3 
  257000    1.1691486   -5.0426331    167.66419   0.05436582  0.057343126            4 
  258000    1.1786096   -5.0679815     168.4468  0.054407882  0.057320476            5 
  259000    1.1609449   -5.0720474    168.25627  0.054136509  0.057296922            2 
  260000    1.1655696   -5.0662478    169.73014  0.054400685     0.057276            2 
  261000    1.1358728   -5.0670457    170.30327  0.054375245  0.057254813            4 
  262000    1.1636738   -5.0725005     170.4443  0.054212562  0.057231193            4 
  263000    1.1530467   -5.0802542    171.39699  0.054308298   0.05720909            4 
  264000    1.1645626   -5.0742392    171.44296  0.054117097  0.057185015            2 
  265000    1.1525464   -5.0511597    171.82751  0.054033807   0.05715836            2 
  266000    1.1514453   -5.0982331    171.64865   0.05377464  0.057128328            3 
  267000    1.1519341   -5.0816014     172.2641  0.053765324  0.057100841            3 
  268000    1.1297849   -5.1247177    172.65104  0.053685026  0.057070011            6 
  269000    1.1579159    -5.054665    173.82159  0.053848075  0.057039491            3 
  270000     1.167635    -5.082428    173.79935  0.053641775  0.057007884            8 
  271000    1.1815388   -5.0912258    175.05839  0.053830992  0.056979019            5 
  272000    1.1415985   -5.0742786      175.835  0.053871017  0.056950516            1 
  273000    1.1457296   -5.1057576    176.20582   0.05378688  0.056921266            3 
  274000    1.1407612   -5.0766738    176.29369  0.053617302  0.056890826            1 
  275000    1.1319332   -5.0712555    177.70272   0.05384931  0.056860454            5 
  276000    1.1615924   -5.0987413    177.90108  0.053714094  0.056830911            3 
  277000    1.1217453   -5.0489669    179.13462  0.053891282  0.056803686            3 
  278000    1.1391654   -5.1087144    179.22345  0.053724056  0.056776207            2 
  279000    1.1365874   -5.0919364    179.84007  0.053715672  0.056746041            3 
  280000    1.1524822   -5.0755381    179.58086  0.053446685   0.05671368            5 
  281000    1.1293322   -5.0768345    181.15037  0.053721936  0.056682227            4 
  282000    1.1364222    -5.099722    181.27529  0.053568347  0.056652393            3 
  283000    1.1499664   -5.0904353    182.35362  0.053696591  0.056624552            3 
  284000    1.1305072   -5.0421486    182.99308  0.053695154   0.05659823            3 
  285000    1.1429547   -5.1163199    183.23583  0.053577729  0.056570351            4 
  286000    1.1205268   -5.1092904    184.47326  0.053750948  0.056544368            3 
  287000    1.1140218    -5.125397    184.44464  0.053555354  0.056516449            4 
  288000    1.1423183   -5.1293474    184.60118  0.053414692  0.056487291            3 
  289000    1.1474978   -5.0813467    185.38594  0.053456152  0.056456885            2 
  290000    1.1247891   -5.0546608    186.31243  0.053538054  0.056426677            3 
  291000    1.1282898   -5.1250704    186.18694   0.05331814  0.056396284            2 
  292000    1.1337983   -5.0628428    187.01189  0.053370974  0.056366122            3 
  293000    1.1158771   -5.1139265    187.23148  0.053251275  0.056336364            2 
  294000    1.1439208   -5.1083246     188.2251  0.053351785  0.056303155            2 
  295000     1.131409   -5.0997446    189.32176  0.053480723  0.056271696            4 
  296000    1.1581775   -5.0680184    189.97889  0.053485048  0.056242396            1 
  297000    1.1324139   -5.1034012    190.30911  0.053397619  0.056212699            5 
  298000    1.1195705   -5.1299016    190.74669  0.053340798  0.056181559            2 
  299000    1.1488599   -5.0768371    191.66371  0.053417979  0.056152407            3 
  300000    1.1513494   -5.1005044    192.17875  0.053382985  0.056124956            4 
  301000    1.1398938   -5.1040786    192.44621  0.053279682  0.056096971            4 
  302000    1.1134192    -5.092679    193.58948   0.05341873  0.056069766           11 
  303000    1.1263097   -5.1313771    193.56251  0.053235015    0.0560402            5 
  304000    1.1124135   -5.1320698    194.01923  0.053185097  0.056009842            2 
  305000    1.1323385   -5.1092173    194.83316  0.053233104  0.055979972            3 
  306000    1.1411821   -5.0956838    195.54357  0.053252606  0.055951593            8 
  307000    1.1243025   -5.0865891    196.24684  0.053270043  0.055925096            4 
  308000    1.1255652   -5.1184075    196.55325  0.053179991  0.055894913            3 
  309000    1.1281178   -5.1118958    196.72047  0.053052987   0.05586398            2 
  310000    1.1420833   -5.1132549    197.35443  0.053052267     0.055836            9 
  311000    1.1298929   -5.0923641    198.89405  0.053294225  0.055806828            3 
  312000    1.1500621   -5.1340175    197.54082   0.05276197  0.055777816            1 
  313000    1.1252737   -5.1235859    199.82263  0.053200912  0.055749007            6 
  314000    1.1360376   -5.1201305    200.09706  0.053104314  0.055719618            2 
  315000    1.1311631   -5.1629556    199.41886  0.052756312    0.0556888            3 
  316000    1.1299377   -5.1156995    201.34475  0.053097245  0.055659703            2 
  317000    1.1284186   -5.0801379    201.83665  0.053059056  0.055629112            2 
  318000     1.168204   -5.0870173    202.38752  0.053036563  0.055599289            3 
  319000    1.1638999   -5.1073295    202.07132    0.0527877  0.055568187            3 
  320000     1.137268   -5.0731049    203.66247  0.053037102   0.05553833            7 
  321000    1.1383268   -5.1231003     203.9837  0.052955269  0.055509035            3 
  322000     1.132291   -5.1115365     204.2866  0.052869203   0.05547946            3 
  323000    1.1316547   -5.1403468    203.94559  0.052617542  0.055448395            3 
  324000    1.1498049    -5.128505    205.17872  0.052772305  0.055417811            2 
  325000    1.1306745    -5.105197    205.14454  0.052601164  0.055384679            2 
  326000    1.1177612   -5.1237731    206.25964  0.052724856  0.055351159            1 
  327000    1.1347403   -5.1482024    206.24849  0.052560777  0.055319538            2 
  328000    1.1309517   -5.1141734    207.16182  0.052632576   0.05528858            2 
  329000    1.1497218   -5.0994548    207.85019  0.052646959  0.055258455            3 
  330000    1.0972174   -5.1173332    207.82156  0.052480192  0.055227514            2 
  331000    1.1267219   -5.1325154    208.17775  0.052411317  0.055196577            7 
  332000    1.1264365   -5.1103657    209.95603  0.052699806   0.05516352            5 
  333000    1.1269417   -5.1498719    209.77417  0.052496038  0.055131377            3 
  334000    1.1206633   -5.1214682    211.58135  0.052789757  0.055102076            5 
  335000    1.1204429   -5.1443452     211.4729  0.052605198  0.055071208            2 
  336000    1.1376559   -5.1542304    211.25862   0.05239549  0.055040551            2 
  337000    1.1318585   -5.1328194     212.4765  0.052541172  0.055008639            3 
  338000    1.1206826   -5.1449431    213.25011  0.052576458  0.054978974            2 
  339000    1.0819261   -5.1421231    212.59373  0.052260012  0.054947961            2 
  340000    1.1140525   -5.1631824    213.40745  0.052305747   0.05491574            2 
  341000    1.1224112    -5.143743    213.57309  0.052192838    0.0548831            4 
  342000    1.1240524   -5.1325087    215.21491  0.052440281  0.054849683            4 
  343000    1.1311692   -5.1357247     215.3192  0.052312731  0.054815955            3 
  344000    1.0837889   -5.1014718     215.1836  0.052127809  0.054782827            3 
  345000    1.1102492   -5.0956529    217.03012  0.052422733  0.054750847            2 
  346000    1.1246491   -5.1252625    216.31387  0.052098716  0.054718009            2 
  347000    1.1004176    -5.117806    217.34652  0.052196571  0.054684785            2 
  348000     1.103723   -5.1923768    217.87577  0.052173317   0.05465194            3 
  349000    1.1074617   -5.1574937    217.87266   0.05202308  0.054618836            2 
  350000    1.0977772    -5.060147    219.99775  0.052380416  0.054589176            1 
  351000    1.1147536    -5.125242    219.18712  0.052038728  0.054558967            5 
  352000    1.0962153   -5.1381112    220.73662  0.052257723  0.054527302            3 
  353000    1.0988364   -5.1216736     221.4502   0.05227814  0.054497264            2 
  354000    1.1160343   -5.1441561    221.45895  0.052132522  0.054470859            3 
  355000    1.1075854   -5.1154085    223.37033  0.052434351  0.054441945            4 
  356000    1.1061783   -5.1536107    222.90677   0.05217855   0.05441274            2 
  357000    1.1204413   -5.1699595    222.45702  0.051927408  0.054382875            3 
  358000    1.1067286   -5.1054565    224.68602  0.052301214  0.054351894            3 
  359000      1.12218   -5.1199927     224.0386  0.052005246  0.054321037            3 
  360000    1.1006796   -5.1569945    224.20194  0.051898598  0.054289417            5 
  361000    1.1141203    -5.175951     224.3286  0.051784073  0.054257026            2 
  362000    1.1503289   -5.1324579    225.24255  0.051851417  0.054225257            3 
  363000    1.1113533   -5.1752586    225.50341   0.05176846  0.054193606            2 
  364000    1.1321665   -5.1583224    225.79267  0.051692461  0.054160586            1 
  365000    1.1008495   -5.1317597    226.72068  0.051762712  0.054127466            2 
  366000    1.0967548   -5.1439056    225.84107  0.051421009  0.054093644            1 
  367000    1.1347633   -5.1621855    226.94419  0.051531378  0.054060196            3 
  368000    1.1328823   -5.1472611    227.13595  0.051434771  0.054024536            6 
  369000    1.0889561   -5.1557749    228.70563  0.051649872  0.053989615            2 
  370000    1.1158675   -5.1446535    227.86344  0.051320594  0.053954771            4 
  371000      1.09401   -5.1443526     229.4841  0.051546294  0.053920026            3 
  372000    1.0989206   -5.1130234    229.89098  0.051498875   0.05388566            1 
  373000     1.136586   -5.1749676    230.23961  0.051438698  0.053851855            5 
  374000    1.0898958   -5.1664497    230.49829    0.0513588  0.053817099            4 
  375000    1.0958145   -5.1632091    231.47519   0.05143893  0.053783697            1 
  376000    1.0980417   -5.1897018    231.85668  0.051386676  0.053750443            2 
  377000    1.0738848   -5.1471965    232.97018  0.051496503  0.053717859            4 
  378000    1.1138836   -5.1839163    233.72343  0.051526329   0.05368644            2 
  379000    1.1055108   -5.1817882    233.46666  0.051333919  0.053654418            3 
  380000    1.0747024   -5.2210525    233.99235  0.051314112  0.053622953            3 
  381000    1.1139083   -5.1842838    234.80284  0.051356702  0.053591125            7 
  382000    1.0949518   -5.1262104    234.96095  0.051256752  0.053558279            4 
  383000    1.1094094   -5.1723813    236.23726  0.051400623    0.0535258            2 
  384000    1.0792922   -5.1644762    237.11191  0.051456577  0.053495207            3 
  385000    1.0907323   -5.1821749    236.50388  0.051191315  0.053465185            3 
  386000    1.1104954   -5.1225708     239.1319  0.051626058  0.053436725            2 
  387000    1.0848796   -5.1764642    239.12932  0.051492101  0.053408415            4 
  388000    1.0903878   -5.1939099    238.47917  0.051219753   0.05338006            3 
  389000    1.1017933   -5.1675669    240.84346  0.051594572   0.05335249            5 
  390000    1.1082931   -5.1801597    240.23859  0.051333031  0.053325031            3 
  391000    1.0780938   -5.1895932      241.009  0.051365942  0.053295342            4 
  392000    1.1048308   -5.1865794    241.11511  0.051257464  0.053266737            2 
  393000    1.0919184   -5.1560665    241.35475  0.051177852    0.0532376            3 
  394000    1.1197422   -5.2053663    242.40932  0.051271007  0.053209035            2 
  395000    1.0856773   -5.1953549    242.11921  0.051080002  0.053178708            2 
  396000     1.103813   -5.2211759    242.58097  0.051048183  0.053148542            4 
  397000    1.1088516    -5.226601    242.76393  0.050958003  0.053118892            5 
  398000    1.0940226   -5.1776448    244.27309  0.051145957  0.053088237            3 
  399000    1.0842022    -5.140854    245.52658  0.051279569  0.053058201            4 
  400000     1.097516   -5.1685625    244.13586  0.050861637  0.053027183            3 
  401000    1.0816487   -5.1970089    245.34149  0.050985347  0.052996872            2 
  402000    1.0932713   -5.1862928    245.60381  0.050912897   0.05296648            3 
  403000    1.0902266    -5.164869    245.77438  0.050821833  0.052935764            3 
  404000     1.089833   -5.2138144    246.26347   0.05079692  0.052904732            3 
  405000    1.1061538   -5.1769144    246.87035  0.050796369  0.052872729            2 
  406000    1.0886644   -5.1745949     248.0645  0.050916358  0.052840868            2 
  407000    1.0917705   -5.1643323    247.43428   0.05066222  0.052808862            4 
  408000     1.095497   -5.2089252    247.76097  0.050604773  0.052776927            3 
  409000     1.095624   -5.1788972    249.68007  0.050872061  0.052745467           11 
  410000    1.0988171   -5.1761367     249.6572  0.050743333  0.052713441            3 
  411000     1.067272   -5.1979964    249.40985  0.050569718  0.052682155            4 
  412000    1.1095431   -5.1789844    249.61448  0.050488365  0.052649804            3 
  413000    1.0861144   -5.1871794    249.97491  0.050438844  0.052616652            3 
  414000    1.1105758   -5.1912185    251.36555  0.050596931  0.052583152            3 
  415000    1.0946934   -5.1766785    251.81266  0.050564792  0.052550746            2 
  416000    1.1002707   -5.1619536    251.60568  0.050401778  0.052519271            2 
  417000    1.0794979   -5.2356469     252.3313  0.050425919  0.052489184            1 
  418000    1.0813316   -5.2065099    252.36318  0.050311639  0.052457604            2 
  419000    1.0606188   -5.1576171    254.19883  0.050556648  0.052426941            3 
  420000    1.0753771   -5.2225699    253.94292    0.0503855  0.052397036            5 
  421000    1.1024267   -5.1791158    255.58506  0.050590866  0.052365669            2 
  422000    1.0789048    -5.170649    255.25644   0.05040609    0.0523339            5 
  423000    1.0611414   -5.2183611     255.4721  0.050329412   0.05230171            2 
  424000    1.0883782   -5.1740433    257.09844  0.050530354  0.052270274            3 
  425000    1.0841227   -5.2116904    256.06969  0.050209744  0.052239128            7 
  426000    1.0770124   -5.1816741    256.87883  0.050250163  0.052208044            3 
  427000    1.1024211   -5.1865468    257.41357   0.05023684  0.052176339            3 
  428000    1.0726324   -5.1796013    258.42825  0.050317027  0.052144576            5 
  429000    1.0559633   -5.2265534    258.39966  0.050194184  0.052113519            3 
  430000    1.0880676   -5.2419853    257.70594  0.049943011  0.052083253            4 
  431000    1.0819962   -5.2300567    259.19079  0.050114228  0.052051097            4 
  432000    1.0845976   -5.2087139    259.18938  0.049997952   0.05201881            6 
  433000    1.0714206   -5.2398804    259.48607  0.049939583   0.05198659            3 
  434000    1.0943096   -5.2199792    259.20383  0.049770321  0.051953949            3 
  435000    1.0792073   -5.2133965    260.41188  0.049887334    0.0519208            3 
  436000    1.0906128   -5.1845687    261.83519  0.050044951  0.051888367            3 
  437000    1.0823212   -5.1918657    262.53731  0.050064324  0.051857509            3 
  438000    1.0824338   -5.1834068    262.48712  0.049940471  0.051825802            2 
  439000    1.0685004   -5.2006166    263.44443  0.050008434  0.051795705            3 
  440000    1.0708891    -5.201352    263.89963  0.049980991  0.051765871            4 
  441000    1.0738346   -5.2275641    264.07998  0.049901734  0.051735101            6 
  442000    1.0682421   -5.2143556    265.13243   0.04998726   0.05170451            1 
  443000    1.0513694   -5.2117505    264.25517    0.0497094  0.051673678            3 
  444000     1.116186   -5.2238616    264.28478     0.049603  0.051642213            3 
  445000    1.0722191   -5.2119128      265.911  0.049796066  0.051611672            4 
  446000    1.0603823   -5.1955649    268.02299  0.050079034  0.051582713            4 
  447000    1.0587094   -5.2278562    267.21865  0.049817049  0.051554346            5 
  448000    1.0806805   -5.2050843    268.21312  0.049890833  0.051525216            3 
  449000    1.0700123   -5.2222063    268.42043  0.049818195  0.051497253            5 
  450000     1.059253   -5.1956625    269.67113  0.049939098  0.051468621            4 
  451000    1.0786761    -5.213064    269.64061  0.049822729  0.051440154            3 
  452000     1.088863   -5.1966874    269.88257  0.049757111     0.051411            5 
  453000    1.0569776   -5.2225186     270.6074   0.04978061  0.051380862            4 
  454000    1.0736995   -5.2110174    270.05715  0.049569961   0.05135129            2 
  455000    1.0402337   -5.2832612    270.06831   0.04946306  0.051321351            3 
  456000    1.0659258   -5.2502201    271.58941  0.049632568  0.051290278            3 
  457000    1.0842202   -5.2535556    271.53553  0.049514138  0.051259883            4 
  458000    1.0466245   -5.2210198    272.91789  0.049657549  0.051230218            3 
  459000    1.0949693   -5.2503486    272.48395  0.049470579  0.051200025            2 
  460000    1.0640063   -5.2558773    272.74937  0.049411118  0.051168982            3 
  461000    1.0621655   -5.2716898    271.68052  0.049110723  0.051138254            3 
  462000    1.0693585   -5.2204979    273.55049  0.049341718  0.051106532            2 
  463000    1.0809991   -5.1952787    273.92334  0.049302257  0.051075537            3 
  464000    1.0672595   -5.2043367     274.8788    0.0493676  0.051043862            3 
  465000    1.0720291   -5.2289914     274.8721  0.049260233  0.051013249            2 
  466000    1.0495727   -5.2383392    275.63967  0.049291787  0.050982305            3 
  467000    1.0745902    -5.260325    275.58777  0.049176976   0.05095131            3 
  468000    1.0702021   -5.2621894    274.76987  0.048926258  0.050919455            2 
  469000     1.073935   -5.2459468    276.34601  0.049101992  0.050886719            4 
  470000    1.0527758   -5.2087153    276.33862  0.048996209  0.050854738            2 
  471000    1.0738812   -5.2706505    276.66558  0.048950032  0.050823281            5 
  472000    1.0832057    -5.229946    277.53267  0.048999412   0.05079057            2 
  473000    1.0691755   -5.2637548    277.64409   0.04891545   0.05075763            3 
  474000    1.0544075   -5.2435463    278.04343   0.04888246  0.050724568            6 
  475000    1.0583955   -5.2244619    278.53863  0.048866425   0.05069188            6 
  476000    1.0814307   -5.2355251    279.51249  0.048934259  0.050658925            2 
  477000    1.0561607    -5.258176    278.92349  0.048728772  0.050626581            3 
  478000    1.0446345   -5.2503655    279.88618  0.048794661  0.050593569            2 
  479000     1.067001   -5.2620403    279.76863  0.048672343  0.050560782            1 
  480000    1.0688624   -5.2438298    280.60199  0.048715623  0.050528335            2 
  481000    1.0518004   -5.2614477    280.47807  0.048592874  0.050496514            2 
  482000    1.0497671   -5.2496704    280.96413  0.048576094  0.050463207            2 
  483000    1.0621139   -5.2520757     282.8136  0.048794618  0.050429708            2 
  484000    1.0600538   -5.2428559    283.24133  0.048767446  0.050397308            2 
  485000    1.0499737   -5.2608688    283.37886  0.048690525  0.050364989            2 
  486000    1.0844223   -5.2692687    284.02987  0.048701966  0.050333699            3 
  487000    1.0526216   -5.2241676    284.31048  0.048649979   0.05030239            3 
  488000    1.0491609   -5.2660295     284.6022  0.048600102  0.050270806            7 
  489000    1.0701684   -5.2445031    284.60613  0.048501386  0.050239615            2 
  490000     1.063076   -5.2485427    285.89268  0.048621204  0.050208761            5 
  491000    1.0849268   -5.2555449    287.21631  0.048746827  0.050178963            3 
  492000    1.0570541    -5.193141    287.23911   0.04865161  0.050148611            4 
  493000     1.060407   -5.2687579    286.52634  0.048432444  0.050117733            3 
  494000     1.086054   -5.2510553    287.92945  0.048571095  0.050086248            2 
  495000     1.066265   -5.2594245    287.58098  0.048414306   0.05005485            4 
  496000    1.0622677   -5.2695814    288.16396  0.048414643  0.050022764            3 
  497000     1.052842   -5.2453073    287.87581  0.048268914  0.049990851            2 
  498000     1.056638    -5.280137    289.03459  0.048365896  0.049958927            2 
  499000    1.0602676   -5.2419143    289.57298  0.048358881  0.049927936            3 
  500000    1.0370281   -5.2278349    289.99249  0.048332082  0.049898316            6 
  501000    1.0663124   -5.2339316    291.18905  0.048434639  0.049867527            3 
  502000    1.0577253    -5.230719    290.97672  0.048302909  0.049837707            4 
  503000    1.0742183   -5.2508952    292.36664   0.04843715  0.049806614            3 
  504000    1.0471271   -5.2606199    291.75597  0.048240075  0.049776298            2 
  505000    1.0325837   -5.2570395    292.45464  0.048259842  0.049746324            3 
  506000    1.0308679   -5.2449347    293.55376  0.048345481  0.049716746            4 
  507000    1.0592031   -5.2188392    294.04145  0.048330285  0.049686408            2 
  508000    1.0657485   -5.2635686    293.30139  0.048113746  0.049656054            3 
  509000     1.073872   -5.2748618    293.31162  0.048020894  0.049625294            5 
  510000    1.0570938   -5.2742862    294.37019  0.048099704   0.04959457            4 
  511000    1.0539983   -5.2419431    295.82785   0.04824329  0.049563565            4 
  512000     1.051932   -5.2701468    293.91579  0.047837856  0.049531943            3 
  513000    1.0696299   -5.2453992    295.32267  0.047973143   0.04950036            4 
  514000    1.0466188   -5.2676154    294.66781   0.04777364  0.049468316            2 
  515000    1.0700763   -5.2596731    295.28088  0.047780078   0.04943608            2 
  516000    1.0666608   -5.2817876     295.0556  0.047651098  0.049403024            3 
  517000    1.0405921   -5.2542965    296.91307  0.047858328  0.049370664            7 
  518000     1.033893   -5.2723351    297.25517  0.047820973  0.049338375            3 
  519000    1.0537548   -5.2756784    297.30401  0.047736675  0.049306679            3 
  520000    1.0230132   -5.2719764     298.3635  0.047814663  0.049275664            4 
  521000    1.0558015   -5.3121843    298.59822  0.047760431  0.049245108            4 
  522000    1.0493588   -5.2616217    299.93645  0.047882576  0.049214668            3 
  523000    1.0218327   -5.2832027    298.74346  0.047600934  0.049185397            2 
  524000    1.0424775   -5.2880314    300.79809  0.047836847  0.049155229            2 
  525000    1.0775773   -5.2653555    302.07399  0.047948253  0.049126848            3 
  526000    1.0181503   -5.2628554     301.9393  0.047835757  0.049097728            1 
  527000    1.0340165   -5.2694762    301.30099  0.047644052  0.049068385            3 
  528000    1.0608028   -5.2854346    301.95733  0.047657406  0.049039538            4 
  529000    1.0508198   -5.2772775    303.44928  0.047802343  0.049010547            2 
  530000    1.0345274   -5.2792503    302.27655   0.04752776  0.048981069            3 
  531000    1.0435924   -5.2774007    303.16652  0.047577923   0.04895127           14 
  532000    1.0547681   -5.2550325     304.6823  0.047725924  0.048921471            2 
  533000     1.029387   -5.2813222    305.22394  0.047721066  0.048892863            5 
  534000    1.0480129   -5.3084063    303.84898  0.047417131  0.048864166            4 
  535000    1.0435111   -5.2943907    305.86355  0.047642297  0.048835749            4 
  536000    1.0310132    -5.306469    306.03201  0.047579604  0.048807616            3 
  537000    1.0437951   -5.3063063    308.12933   0.04781647  0.048779412            4 
  538000    1.0551533   -5.2826155    308.24337  0.047745255  0.048752645            7 
  539000    1.0496678   -5.2804258    307.62193  0.047560596  0.048724784            4 
  540000    1.0517658   -5.2713454    309.06903  0.047695838  0.048697965            1 
  541000    1.0198606   -5.2627969    309.46329  0.047668406  0.048670476            2 
  542000    1.0292251   -5.3048178    309.81302  0.047634228  0.048643834            3 
  543000    1.0408091   -5.2872532    310.64456  0.047674119   0.04861681            2 
  544000    1.0338268   -5.2876218    309.94032  0.047478603  0.048588906            5 
  545000    1.0456786   -5.2861848    309.70201  0.047355047  0.048561403            4 
  546000    1.0227103   -5.3212684    309.97714  0.047310308   0.04853367            3 
  547000    1.0421356   -5.2623312    310.90294  0.047364859  0.048505621            3 
  548000    1.0487269    -5.312174    310.25718  0.047180228  0.048477613            2 
  549000    1.0245748   -5.2993725    311.72614  0.047317264   0.04844952            3 
  550000     1.044812    -5.257811    313.43835  0.047490659  0.048421291            3 
  551000    1.0215722    -5.302539    313.41961  0.047401635  0.048393841            3 
  552000    1.0378734   -5.3134714    312.43338  0.047166876  0.048366106            2 
  553000    1.0255096   -5.3354337    313.34309  0.047218669  0.048337709            9 
  554000     1.048774   -5.3587791    313.85423  0.047210324   0.04831019            4 
  555000    1.0481719   -5.3088379    315.59984  0.047387363  0.048282255            4 
  556000    1.0482571   -5.3104095    314.51814  0.047140009   0.04825441            5 
  557000    1.0430991   -5.3044573    315.67102  0.047227861  0.048226704            2 
  558000    1.0459772   -5.3257381    316.14454  0.047213939  0.048199086            3 
  559000    1.0108307   -5.2923143    317.64394  0.047353003  0.048171407            3 
  560000    1.0306651   -5.3127301    316.84353  0.047149335   0.04814451            2 
  561000    1.0378729   -5.2787739    317.87024  0.047217801  0.048117469            5 
  562000    1.0315751    -5.309241    317.55874  0.047087594  0.048090678            2 
  563000    1.0252002   -5.2828065     316.8424  0.046897927  0.048063137            4 
  564000    1.0254174    -5.327093    317.34128  0.046888487  0.048035423            4 
  565000    1.0262867   -5.3317247    318.46915  0.046971851  0.048008507            3 
  566000    1.0447085   -5.3116894     319.2974  0.047010807  0.047981359            5 
  567000    1.0157563   -5.2840325    318.67946  0.046837075   0.04795397            9 
  568000    1.0249929    -5.328214    319.01147  0.046803327  0.047926064            4 
  569000    1.0275865   -5.3010507    321.53682  0.047090922  0.047898663            3 
  570000    1.0142899   -5.2811803    321.72924  0.047036438   0.04787214            3 
  571000     1.017742   -5.3291458    320.82542  0.046822157   0.04784522            2 
  572000    1.0256969   -5.3153712     321.2496  0.046802098  0.047818273            5 
  573000    1.0355003   -5.3141782    321.63377   0.04677629  0.047791074            6 
  574000    1.0419448   -5.3222326    321.47957  0.046672412  0.047762741            2 
  575000    1.0331815   -5.2768393    322.27958  0.046707185  0.047734626            3 
  576000     1.024983   -5.3365993    322.97141  0.046726188  0.047706835            4 
  577000    1.0059943   -5.3140602    323.43782  0.046712568  0.047679071            3 
  578000    1.0397502   -5.3280964    322.24243  0.046459405   0.04765164            2 
  579000    1.0470771   -5.3150431    323.95821   0.04662611  0.047623999            5 
  580000    1.0167604   -5.3220905    322.95971  0.046402257  0.047595523            5 
  581000    1.0220186    -5.343601    322.71507  0.046287302  0.047566911            2 
  582000    1.0076507   -5.3125676    324.55609  0.046471376  0.047538404            6 
  583000    1.0300166   -5.2781179    324.91201  0.046442539  0.047509341            4 
  584000    1.0204214   -5.3345837    323.45696  0.046155388  0.047480178            2 
  585000    1.0230871   -5.3031054    325.62373  0.046385147  0.047450714            3 
  586000     1.006595   -5.3185508     326.0073  0.046360538  0.047422244            3 
  587000    1.0153757    -5.291962    327.51748  0.046495952  0.047394449            3 
  588000    1.0277283   -5.3442411    327.06622  0.046352922  0.047366748            4 
  589000    1.0277405   -5.3259401    328.83299  0.046524192  0.047338725            7 
  590000     1.025478   -5.3300637     330.0455  0.046616596  0.047310951            2 
  591000    1.0324581   -5.3516733    328.68331  0.046345644  0.047283864            5 
  592000    1.0253978   -5.3340552    327.40392  0.046087263  0.047256283            2 
  593000    1.0246028   -5.3240725    328.72921  0.046195785  0.047228371            4 
  594000    1.0122482   -5.3487956    329.64714  0.046246793  0.047199997            4 
  595000    1.0283698   -5.3530995     329.2486   0.04611325  0.047172219            4 
  596000    1.0219446   -5.3081127    330.60831  0.046225994  0.047144622            2 
  597000   0.99387224   -5.3078779     331.2528  0.046238526  0.047117446            3 
  598000    1.0138268    -5.339721    330.41877  0.046044978  0.047089529            5 
  599000     1.013489     -5.30367    331.13807  0.046068178  0.047062247            3 
  600000    1.0138385   -5.3589718    331.37703  0.046024588   0.04703461            3 
  601000    1.0127298   -5.3450096    331.67768  0.045989695  0.047006574            3 
  602000    1.0002185   -5.3111934    333.11198  0.046111846  0.046978492            2 
  603000    1.0061969   -5.3085151    332.84374  0.045998306  0.046951059            3 
  604000    1.0022391   -5.2997444    335.08346  0.046231162  0.046923256            7 
  605000    1.0221739   -5.3305443    333.29286  0.045908108  0.046896238            2 
  606000    1.0040832   -5.3624675    333.56102  0.045869227  0.046868619            4 
  607000    0.9899437   -5.3349803    333.13256  0.045734838  0.046840621            3 
  608000    1.0221758   -5.3605462    333.50973  0.045711311  0.046813052            3 
  609000    1.0167549   -5.3625032    333.96082  0.045697978  0.046785533            3 
  610000    1.0091861   -5.3725104    334.64569  0.045716625  0.046757955            4 
  611000   0.99242647   -5.3301283    336.46212  0.045889541  0.046730628            3 
  612000    1.0022097   -5.3533711    336.84066  0.045866103  0.046702961            4 
  613000    1.0213177   -5.3620906    337.01972  0.045815623    0.0466754            5 
  614000    1.0052798   -5.3455111    337.14275  0.045757703  0.046648013            3 
  615000     1.007528   -5.3321253     337.7625  0.045767276  0.046622122            4 
  616000    1.0158536   -5.3673983    337.16517  0.045612172  0.046594986            6 
  617000     0.992368    -5.398292    336.92663  0.045506027  0.046567911            5 
  618000    1.0169966   -5.3135683    338.09769  0.045590304   0.04654064            3 
  619000   0.98563443   -5.3475674    339.26474  0.045673767  0.046513827            7 
  620000    1.0295329   -5.3843613    339.38839  0.045616719  0.046487111            6 
  621000    1.0242896   -5.3533851    340.64567  0.045711979  0.046460843            2 
  622000    1.0030368   -5.3463299    340.62138  0.045635233  0.046434248            3 
  623000      1.00776   -5.3634158    341.45169  0.045673046  0.046407826            3 
  624000    1.0008394   -5.3526885    340.18019  0.045430047  0.046381008            4 
  625000    1.0020239   -5.3926278    339.10962  0.045214617  0.046353541            2 
  626000    0.9858019    -5.377172    340.18111  0.045285026  0.046325905            6 
  627000    1.0002947   -5.3790507    341.45118  0.045381603  0.046298358            6 
  628000    1.0078853   -5.3601287    341.66273  0.045337411  0.046270813            2 
  629000   0.99696908   -5.3787983    341.54738  0.045250051  0.046243941            8 
  630000    1.0140902   -5.3438609    342.53516  0.045308884  0.046216801            3 
  631000    1.0025431   -5.3770216    343.31375  0.045339903  0.046189319            1 
  632000    1.0203889     -5.36618     343.7095  0.045320346  0.046161893            2 
  633000   0.97853992    -5.362645    343.33007  0.045198798  0.046134822            5 
  634000    1.0164987   -5.3811769    343.31474  0.045125492  0.046107432            4 
  635000   0.97370543   -5.3845684     344.3798  0.045194199  0.046080147            2 
  636000    1.0016004   -5.3417602    344.59016  0.045150702  0.046052742            5 
  637000   0.99384817   -5.3605718    345.33959  0.045177864  0.046025733            7 
  638000    1.0049344   -5.3459864    345.49898  0.045127871  0.045998003            5 
  639000    1.0123331   -5.3536664    345.81825  0.045098885  0.045970664            3 
  640000    0.9941094   -5.3679724     346.4995  0.045117123  0.045943196            2 
  641000   0.97684551   -5.3644517    346.16158  0.045002805  0.045914989            3 
  642000    1.0257232   -5.3653586    347.55041  0.045112981  0.045887795            4 
  643000   0.98577423   -5.3952844    346.20356  0.044868268  0.045860369            3 
  644000    1.0007653   -5.3819555    346.57416  0.044846553  0.045832811            4 
  645000   0.97939988   -5.3520991    347.13646  0.044849671  0.045805118            5 
  646000    0.9887392   -5.3966941    347.00708  0.044763556  0.045776947            2 
  647000   0.98740414   -5.3708679    347.71765   0.04478589  0.045748684            4 
  648000   0.98932078   -5.3849219    348.30196  0.044791919  0.045721677            4 
  649000     1.001433   -5.3834985    348.06734  0.044692776  0.045694045            4 
  650000   0.97565768   -5.3858516    349.45066  0.044801366   0.04566653            5 
  651000   0.99981936   -5.4098751     348.7179  0.044638748  0.045639482            7 
  652000    0.9937896   -5.3814357    350.40777  0.044786269  0.045611675            8 
  653000    1.0030657   -5.3352383    351.45418  0.044851223  0.045584487            5 
  654000   0.97043593   -5.3823116      351.727  0.044817406   0.04555733            2 
  655000   0.99044701   -5.3939465    350.52095  0.044595541  0.045529448            5 
  656000    0.9850378   -5.4091661    350.88793  0.044574178  0.045501578            5 
  657000   0.99549421    -5.378566    352.57822  0.044720728  0.045474316            8 
  658000    1.0028248   -5.4137616    351.81565  0.044556186  0.045446952            3 
  659000   0.99202505   -5.3892911    351.79882  0.044486447  0.045418895            4 
  660000    1.0085525   -5.3825221    353.43906  0.044626143  0.045391594            3 
  661000    1.0054084   -5.3910119    353.09829  0.044515669  0.045363902            3 
  662000   0.99154237   -5.3984859    352.38552  0.044358701  0.045336635            5 
  663000    1.0053178   -5.4204801    354.02176  0.044497456  0.045308604            3 
  664000   0.99928553   -5.4177542    353.44044  0.044357485  0.045281168            4 
  665000   0.99765643   -5.3730063    355.31754  0.044526008  0.045254269            4 
  666000    0.9847303   -5.4109288     355.3403     0.044462  0.045227068            5 
  667000   0.97856974   -5.4001737    355.74995  0.044446521  0.045200143            7 
  668000    1.0077904   -5.3718268    355.73676  0.044378338  0.045173198            4 
  669000   0.98149189   -5.3884448    357.35379  0.044513427  0.045146455            2 
  670000   0.99110971   -5.3969264    356.57949  0.044350683  0.045119721            4 
  671000   0.99116868   -5.4133215    356.46519  0.044270391  0.045092233            2 
  672000   0.99273432   -5.3866829    357.32527  0.044311169  0.045065618            7 
  673000   0.97431792   -5.3825366     358.8242  0.044430931  0.045038801            3 
  674000   0.98529093   -5.4154008    357.38422  0.044186971  0.045011859            6 
  675000   0.99280964    -5.358633    359.08659  0.044331678  0.044985194            3 
  676000    1.0016323   -5.4152281    358.07081  0.044140879  0.044959131            5 
  677000   0.99925253   -5.4036127    360.21991  0.044340215   0.04493285            3 
  678000   0.99834536   -5.3844133    360.88155  0.044356139   0.04490692            3 
  679000   0.99751828   -5.4249261    359.15125  0.044078454  0.044880664            6 
  680000   0.99220892   -5.3946127    359.98118  0.044115341  0.044854428            2 
  681000   0.97812112   -5.4035486    361.69334  0.044260076  0.044828081            2 
  682000   0.99817949   -5.3680391     361.1954  0.044134335   0.04480235            8 
  683000   0.97610689   -5.4583224    360.10687  0.043936905  0.044776669            9 
  684000   0.99021801   -5.3854012    362.04999  0.044109404   0.04475076            8 
  685000    0.9721153   -5.4322532    360.90275  0.043905444  0.044724165            3 
  686000    1.0011395   -5.4475518    362.54568   0.04404102    0.0446977            3 
  687000   0.98851082   -5.4678093    362.62743  0.043986831  0.044671086            2 
  688000   0.99136454   -5.4397752     363.1005  0.043980196  0.044644887            6 
  689000   0.96778194   -5.4511631    363.21636  0.043930377  0.044618627            3 
  690000   0.97331137    -5.407996    364.44848  0.044015517  0.044592973            6 
  691000   0.96467514   -5.3910667    363.93244  0.043889585  0.044567421            2 
  692000   0.97838032   -5.4144076    364.88796  0.043941228  0.044541869            6 
  693000   0.97793915   -5.4186741    367.05807  0.044138777  0.044516458            4 
  694000   0.99395288   -5.4270566    366.47645  0.044005337   0.04449201            5 
  695000   0.96408491   -5.4281978    366.44484  0.043938231  0.044467491            2 
  696000   0.95398435   -5.4473548    366.24096   0.04385069  0.044442549            7 
  697000   0.97111625   -5.4172141    367.84203    0.0439792  0.044417407            4 
  698000   0.97147564   -5.4265392    366.52894  0.043759425  0.044392061            1 
  699000   0.98981907   -5.4052447    367.88586  0.043858591  0.044366926            4 
  700000   0.99211145   -5.4331123    367.77117  0.043782282  0.044341438            2 
  701000   0.95232364    -5.444441    367.86593   0.04373109  0.044316131            4 
  702000   0.96979048   -5.4362135    368.78907  0.043778379  0.044290835            5 
  703000   0.97181117   -5.4463577    368.89726  0.043728931  0.044266066            4 
  704000   0.96781921   -5.4613612    367.23709  0.043470299  0.044240287            2 
  705000   0.98538425   -5.4315386    368.45447  0.043552538  0.044215055            7 
  706000   0.97133589   -5.4353958    369.88743  0.043659989  0.044189537            3 
  707000   0.96593172   -5.4346551    368.60947  0.043447604  0.044163713            5 
  708000   0.96379476   -5.4263377    370.49613  0.043608302  0.044138496            4 
  709000   0.97240705   -5.4225245    371.66071  0.043683675  0.044113495            4 
  710000    0.9849598    -5.450804    370.93481  0.043536949  0.044088225            6 
  711000   0.94921079   -5.4496808    370.30615  0.043402034  0.044062948            2 
  712000   0.97067878   -5.4406733    373.32074  0.043693907   0.04403791            6 
  713000   0.97117976   -5.4496187    372.79968  0.043571725  0.044013159            4 
  714000   0.95301079   -5.4633222    371.94771  0.043411264  0.043987777            2 
  715000   0.95085539   -5.4272329    372.60709    0.0434274   0.04396272            8 
  716000   0.96651583   -5.4457266    372.51341  0.043355844  0.043937436            3 
  717000   0.95206055    -5.432145    372.52414  0.043296622  0.043911685            6 
  718000   0.96147685   -5.4292799    373.65931  0.043368072  0.043886268            6 
  719000    0.9600364   -5.4601129    372.75553  0.043203005  0.043860451            3 
  720000   0.97299954   -5.4140404    373.46106   0.04322466  0.043834678            3 
  721000   0.97411275   -5.4359248    374.73733   0.04331222  0.043809036            4 
  722000   0.93771065   -5.4179854    376.20485  0.043421612  0.043784137            2 
  723000   0.94935896   -5.4159245    376.78957   0.04342895   0.04375944            3 
  724000    0.9650129   -5.4386324    375.71932  0.043245778  0.043734407            8 
  725000   0.96321148   -5.4569687     375.5541  0.043167138   0.04370919            8 
  726000   0.97438104   -5.4574138    376.33352  0.043197145  0.043684425            5 
  727000   0.96609762   -5.4481044     377.1272  0.043228702  0.043659584            3 
  728000   0.95558047   -5.4726832     378.0316  0.043272848  0.043635101            4 
  729000   0.94971809    -5.483604    377.45168  0.043147197  0.043610979           10 
  730000   0.98163977   -5.4614979    377.76163  0.043123474  0.043586556            8 
  731000   0.94830226   -5.4540719     379.3241  0.043242602  0.043562068            5 
  732000   0.96640017   -5.4561859     378.4468  0.043083652  0.043538327            2 
  733000   0.95626285   -5.4446892    380.61569  0.043271452  0.043514801            4 
  734000   0.96540466   -5.4494659    380.99024  0.043255022  0.043491542            7 
  735000    0.9392186   -5.4412458     380.7955  0.043174092  0.043467756            2 
  736000   0.96521095   -5.4205326    381.07274  0.043146823   0.04344355            5 
  737000   0.98131043     -5.44922    379.88826  0.042954349   0.04341961            3 
  738000   0.96418035   -5.5002657    380.91095  0.043011624  0.043395483            2 
  739000   0.93649218   -5.4653656    379.55845  0.042800907  0.043371521            4 
  740000   0.96318552    -5.453156     382.0279   0.04302116  0.043347202            2 
  741000    0.9834822   -5.4232603    381.98719  0.042958523  0.043323287            4 
  742000   0.95776849   -5.4536282    382.34942  0.042941309  0.043299371            6 
  743000   0.94925044   -5.4511245    382.17839  0.042864333  0.043275077            7 
  744000   0.95416501   -5.4730451     380.7839  0.042650526  0.043250268            3 
  745000   0.97158686   -5.4652798    381.67074  0.042692477  0.043225326            4 
  746000   0.95264243   -5.4820392    381.45728  0.042611403  0.043199793            4 
  747000   0.96516229   -5.4618836     383.4591  0.042777678  0.043175075            4 
  748000   0.95992891   -5.4757455    383.29332  0.042702019   0.04315017            6 
  749000   0.95535422   -5.4652489    382.48145  0.042554678  0.043125506            3 
  750000   0.97360061   -5.4775685    382.57805  0.042508673   0.04310035            4 
  751000   0.98280997   -5.4706279    383.56802  0.042561919  0.043074992            3 
  752000   0.93592881   -5.4710871    383.66059   0.04251558  0.043049435            5 
  753000   0.96592891   -5.5000353    384.69657  0.042573769  0.043024368            3 
  754000   0.95276222   -5.4847149    384.30809  0.042474369  0.042999579            3 
  755000   0.97525315    -5.482003    384.99195  0.042493592  0.042975023            2 
  756000   0.95509683   -5.4875267    384.76475   0.04241234  0.042950557           13 
  757000   0.95013252   -5.4796704    385.39494  0.042425686  0.042925655            5 
  758000   0.94424753    -5.472527    386.63818  0.042506396  0.042900498            6 
  759000   0.98079291   -5.4668385    387.80981   0.04257903  0.042875811            5 
  760000   0.96709969   -5.4321008    387.58546  0.042498406  0.042851198            3 
  761000   0.96369244   -5.4842711    385.46235  0.042210069  0.042826185            3 
  762000    0.9495924   -5.4677767    387.67235  0.042396364  0.042800825            6 
  763000   0.95422865   -5.4745771    387.35707  0.042306364  0.042776051            3 
  764000    0.9647594   -5.4987601    387.75894  0.042294824  0.042751263            7 
  765000   0.95393594   -5.4622556    388.82595  0.042355768  0.042726839            5 
  766000   0.95946461   -5.4509479    390.01255  0.042429564  0.042702746            5 
  767000   0.96075444   -5.4898861    390.19908  0.042394511  0.042678793            4 
  768000   0.95043215   -5.5015624    388.82213  0.042189901   0.04265424            3 
  769000   0.92399928   -5.5009506     388.7822   0.04213071  0.042629648            3 
  770000   0.93950336   -5.4748952    389.82434  0.042188782  0.042604522            5 
  771000   0.95336748   -5.4855624    389.22564  0.042069352  0.042579491            5 
  772000   0.94744638   -5.4813528    390.01455  0.042100016  0.042554591            7 
  773000   0.95731934   -5.4488481    390.58392  0.042106935   0.04253004            7 
  774000   0.95162449   -5.4461084    392.33001  0.042240526  0.042505712            3 
  775000   0.94893097   -5.4709056    391.20394   0.04206494  0.042481108            4 
  776000   0.93458011   -5.4523187    391.71992  0.042066143    0.0424568            4 
  777000   0.91161231   -5.4908339    391.56111  0.041994971   0.04243232            4 
  778000    0.9466192   -5.4853708    392.02715  0.041990911  0.042406932            2 
  779000   0.94975077   -5.5141631    391.83504  0.041916457  0.042381465            5 
  780000   0.93163131   -5.5148106    391.47713   0.04182448  0.042355637            3 
  781000    0.9508716   -5.5137265    390.95863  0.041715603  0.042329791            4 
  782000   0.94080837   -5.5051142    391.41215  0.041710588   0.04230377            3 
  783000   0.95779277   -5.4954947    391.76941   0.04169534  0.042278244            4 
  784000   0.96043171   -5.5207268    391.54561  0.041618369  0.042252228            4 
  785000   0.94819578   -5.4960127    393.42631  0.041765001  0.042226244            3 
  786000   0.94824616   -5.5323282    391.19188  0.041474966  0.042199884            6 
  787000   0.93154836   -5.5125841    392.06399  0.041514611  0.042173773            6 
  788000   0.95126837   -5.5143149    392.04496  0.041459916  0.042147938            4 
  789000   0.94434525    -5.500906    392.02245  0.041404991   0.04212134            4 
  790000   0.91237546   -5.5426874    392.29815  0.041381661  0.042094698            2 
  791000   0.90620727   -5.4806659    395.65472  0.041682967  0.042068351            3 
  792000   0.93486141    -5.484209    394.83832  0.041544436   0.04204258            3 
  793000   0.95477087   -5.5187293    393.37296  0.041338058  0.042016952            7 
  794000   0.93943596   -5.4697168    393.90222  0.041341542  0.041990957            8 
  795000   0.92603658   -5.5065319    393.55351  0.041252988   0.04196487            6 
  796000   0.93547425   -5.4958046    395.21407  0.041375007  0.041938558            4 
  797000   0.93737902   -5.5148107    394.54876   0.04125353   0.04191259            8 
  798000   0.92639551   -5.5042738    395.33531  0.041283971  0.041886195            3 
  799000   0.92542647   -5.5257111    396.61952  0.041366241  0.041860179           10 
  800000   0.90934846   -5.4969208    396.50178  0.041302269  0.041833805            5 
  801000   0.92889885   -5.5083643    396.12345  0.041211345  0.041808045            4 
  802000   0.92202006   -5.5076233    397.58618  0.041311948  0.041782262            3 
  803000   0.92942029   -5.5031879     397.3057  0.041231393  0.041756614            2 
  804000   0.93695034   -5.5383374    397.33604  0.041183255   0.04173073            3 
  805000   0.93083919   -5.5123246    398.47813  0.041250324  0.041705303            6 
  806000   0.94587673   -5.5257319      398.506  0.041202027  0.041679463            4 
  807000   0.91783486   -5.5435025    398.02613  0.041101417  0.041653962            7 
  808000   0.92696901   -5.5487497    398.54279  0.041103835  0.041628039            6 
  809000   0.93464827   -5.5367035    398.19889  0.041017603  0.041602553            4 
  810000   0.92845197   -5.5059529    399.54858  0.041105821  0.041576763            5 
  811000   0.93337417   -5.5474831    399.79868  0.041080834  0.041551169            5 
  812000   0.92228115   -5.5196291    399.00389  0.040948676  0.041525376            4 
  813000   0.93028205   -5.5309818    399.65897  0.040965454  0.041499582            3 
  814000   0.94508739   -5.5077328    400.33633  0.040984473  0.041473848            3 
  815000    0.9393905   -5.4934974    400.34008  0.040934568  0.041448126            2 
  816000   0.94136467   -5.5180879    401.12507   0.04096457  0.041422474           12 
  817000   0.90117049   -5.5623976    401.63699  0.040966645  0.041396932            6 
  818000    0.9317742   -5.5417776    401.95565  0.040949027  0.041371388            6 
  819000   0.93441369   -5.5478945     401.6512   0.04086805  0.041346191            5 
  820000   0.93465701   -5.5405511    402.18776   0.04087274  0.041320682            4 
  821000   0.93289795   -5.5610256    402.61904  0.040866732  0.041295382            7 
  822000   0.90577928    -5.573347    400.97609  0.040650455  0.041270183            4 
  823000   0.92479901    -5.538669    402.50151   0.04075552  0.041244911            3 
  824000   0.91516382   -5.5335902    403.64455  0.040821657  0.041219882            7 
  825000   0.94447859   -5.5433064    402.68487  0.040675239   0.04119446            3 
  826000   0.93585571   -5.5361143    403.99916  0.040758592  0.041169126            3 
  827000   0.91597422   -5.5198975     402.8148  0.040589963  0.041144024            3 
  828000   0.92283876   -5.5393527    404.49679  0.040710225  0.041119195            3 
  829000   0.92864002   -5.5615967    404.71957  0.040683511  0.041094026            3 
  830000   0.91727826    -5.525275    405.97924  0.040760968  0.041068921            4 
  831000   0.93961351    -5.534246    406.64362  0.040778542  0.041044036            8 
  832000    0.9101044   -5.5470774     405.7355  0.040638572  0.041019632            8 
  833000   0.92941732   -5.5094454    408.82632  0.040898992  0.040995103            6 
  834000   0.91943488   -5.5245625    407.37813  0.040705248   0.04097151            5 
  835000   0.93143656   -5.5248794      408.949  0.040813273  0.040947479            4 
  836000   0.93636641    -5.566685    407.73715  0.040643655  0.040923416            4 
  837000   0.90541534   -5.5776099    407.23336  0.040544939  0.040898822            7 
  838000   0.88882445   -5.5522536    408.04587  0.040577354  0.040874207            4 
  839000   0.91537068   -5.5304722    407.57963  0.040482681  0.040849296            6 
  840000   0.94265123   -5.5690344    408.07659  0.040483788  0.040824498            4 
  841000   0.91071211   -5.5290616    409.00362  0.040527509  0.040799686            4 
  842000    0.9275153   -5.5132177    409.99983  0.040577972  0.040775488            5 
  843000   0.91507336   -5.5261881    411.01308      0.04063  0.040751042            3 
  844000   0.92960818    -5.547826    408.72487  0.040355931  0.040726724           11 
  845000   0.90887348   -5.5720123    409.99752  0.040433681  0.040702514            3 
  846000   0.92120204   -5.5230144    410.60666  0.040445888  0.040678061            8 
  847000   0.92398808   -5.5399491    411.25436  0.040461862  0.040654191            3 
  848000   0.90455765   -5.5435751    411.62783  0.040450848  0.040630106            2 
  849000   0.91029696   -5.5512115    410.72679  0.040314761  0.040605685            3 
  850000   0.90480767    -5.576872    411.50903  0.040344023  0.040581491            8 
  851000   0.92385029   -5.5325081    411.81881  0.040326949  0.040557956            6 
  852000   0.90676633    -5.575217     412.5123  0.040347447  0.040534639            4 
  853000   0.91182977   -5.5331744    412.58314  0.040307067  0.040510949            3 
  854000   0.90447436   -5.5556251    412.53521  0.040255192  0.040487436            2 
  855000   0.90311368   -5.5628683    413.86276  0.040337501  0.040463805            4 
  856000   0.92610975   -5.5553783    413.27883  0.040233531  0.040440154            5 
  857000   0.91456645   -5.5484124    414.82579  0.040337008  0.040416913            4 
  858000   0.89509262   -5.5690645    414.96969  0.040303972  0.040393675            2 
  859000   0.90001891   -5.6010897      413.683  0.040132227  0.040370409            2 
  860000   0.91357019   -5.5512218    415.39853  0.040251796  0.040347035            2 
  861000    0.8987646   -5.5988929    415.21306  0.040187095  0.040323841            4 
  862000   0.92393436   -5.5704815    416.15849  0.040231873  0.040300746            4 
  863000   0.90814133   -5.5782367     416.0566  0.040175415  0.040277679            6 
  864000   0.91562652   -5.6001267    416.63724  0.040184919  0.040254576            2 
  865000   0.93287733   -5.5561325     416.6825  0.040142823  0.040231429            3 
  866000   0.91799159   -5.5787659    417.39252  0.040164793  0.040208509            4 
  867000   0.92398353   -5.5294395    417.02239  0.040082891   0.04018586            5 
  868000   0.92314389   -5.5974566    416.37341  0.039974406  0.040163027            5 
  869000   0.89605443   -5.5985609    417.66359  0.040052128  0.040140017            4 
  870000   0.92765967   -5.6049529    417.87349  0.040026196  0.040117457            3 
  871000   0.91323112     -5.54505    419.31578  0.040118234   0.04009512            7 
  872000   0.90723506   -5.5529849    419.89501  0.040127581  0.040072675            9 
  873000   0.90429331   -5.5954924    419.37272   0.04003176  0.040050084            3 
  874000   0.91024633   -5.5916321    419.18709  0.039968258  0.040027779            6 
  875000   0.90356929   -5.6110325    418.06929  0.039816122   0.04000537            3 
  876000   0.89207581   -5.5567343    419.73412  0.039929045  0.039982733            5 
  877000   0.90624512   -5.5830338    420.46096  0.039952581  0.039959934            9 
  878000   0.90277967   -5.5652505    420.44003   0.03990509  0.039937603            5 
  879000    0.9155897   -5.5494133    421.31159   0.03994232  0.039915154            7 
  880000   0.89073766   -5.5627101      421.352  0.039900758  0.039892706            3 
  881000   0.89997997    -5.594691    420.80513  0.039803739    0.0398704            6 
  882000   0.89627733   -5.6258326    419.52936  0.039638073  0.039847552            6 
  883000   0.90865094   -5.5916351    421.52552   0.03978157  0.039824813            6 
  884000   0.90874348   -5.5813866    421.23946  0.039709602  0.039801792            3 
  885000   0.88015607   -5.5805585    421.09947  0.039651551  0.039778615            3 
  886000    0.9024309   -5.6002254    421.06639  0.039603686  0.039755557            6 
  887000   0.89220721    -5.594953    421.51223  0.039600924   0.03973215            3 
  888000   0.89682943   -5.6448488    420.87242  0.039496286  0.039708917            6 
  889000   0.88715902   -5.6186762    421.63253  0.039523109  0.039685466            8 
  890000   0.89731561   -5.5812107    423.42248    0.0396463  0.039662364            3 
  891000   0.90363191   -5.6271854    421.43181   0.03941562  0.039639147            8 
  892000   0.89130031   -5.6002823    423.44219  0.039559248  0.039615722            4 
  893000   0.91593798   -5.5874359    424.10653  0.039576944  0.039592599            4 
  894000    0.8954536    -5.615656    424.22613  0.039543822  0.039569807            3 
  895000   0.89065307   -5.5779743    424.67713  0.039541632  0.039547353            7 
  896000   0.90655876   -5.5724124    424.98165  0.039525823  0.039524664            4 
  897000   0.87780557   -5.5933972    426.28567  0.039602905  0.039502417            4 
  898000   0.90917429   -5.5889451    425.95383  0.039528009  0.039480036            6 
  899000   0.86960557   -5.6196953     425.9437  0.039483101   0.03945779            7 
  900000   0.91657908   -5.5786508    427.12065  0.039548209  0.039435316            5 
  901000   0.90390846   -5.5908138     427.6606  0.039554254  0.039413152            4 
  902000   0.89922746   -5.6191902    424.34763  0.039204326  0.039390816            9 
  903000   0.86874533   -5.5841275     426.9809  0.039403922  0.039368915            5 
  904000   0.90035892   -5.5900534    428.42007  0.039493001  0.039346975            6 
  905000   0.89866781    -5.596866    426.78801   0.03929908  0.039324993            7 
  906000   0.88568036   -5.6228891    427.41381  0.039313265  0.039302854            6 
  907000   0.86326418   -5.6155991    428.11982  0.039334787  0.039280641            5 
  908000   0.89693874   -5.6329096    429.24184  0.039394442   0.03925827            9 
  909000   0.89563615   -5.5903358    428.39095  0.039273098  0.039236222            6 
  910000    0.8705879   -5.6149634    429.85731  0.039364222  0.039214302            4 
  911000   0.90004685   -5.6109967    429.27166   0.03926744  0.039192476            8 
  912000   0.91010259   -5.6162425    430.23603  0.039312503  0.039170983            6 
  913000   0.88772672    -5.588782    432.30509  0.039458295  0.039149638            3 
  914000   0.89752526   -5.6208391    430.32669  0.039234745  0.039128359            7 
  915000   0.89573462   -5.6284252    430.73215  0.039228793  0.039106956            8 
  916000   0.88394624   -5.6207252    432.08285  0.039308847  0.039085522            7 
  917000   0.89060834   -5.6198145    431.21036  0.039186692  0.039063876            7 
  918000   0.88748407   -5.6063349    431.52097  0.039172201  0.039042756            5 
  919000   0.89297496   -5.6263075    434.03802  0.039357819  0.039021521            4 
  920000   0.88684133   -5.6031976    431.96184  0.039126978  0.039000016            4 
  921000   0.88257294   -5.6289524    431.68694  0.039059622  0.038978568            3 
  922000    0.8646156   -5.6504617    432.74086  0.039112514  0.038957117            3 
  923000   0.89658707   -5.6101991    432.61812  0.039059058  0.038935872            7 
  924000   0.89386214   -5.6208503    434.39447   0.03917699  0.038914808            4 
  925000   0.87051799   -5.6052321    435.40192  0.039225398  0.038893457            4 
  926000   0.90859647   -5.6159045    433.89707  0.039047612  0.038872494            6 
  927000   0.87639261   -5.6365392     433.8806  0.039004009  0.038851328           12 
  928000   0.89059406   -5.6444039    434.05518  0.038977656  0.038830035            8 
  929000    0.8779959   -5.6017402     433.8357  0.038916012  0.038808483            5 
  930000   0.86782563   -5.6457325    434.56895   0.03893987  0.038787223            8 
  931000   0.88395326   -5.6167925    436.99437  0.039115143  0.038766118            3 
  932000   0.87780062   -5.6435539    434.73801  0.038871424  0.038745116            9 
  933000   0.87443036   -5.6094126    435.32268  0.038881983  0.038724146            8 
  934000   0.87293383   -5.6312678    436.30406  0.038927914  0.038703101            6 
  935000   0.86488967    -5.651913    433.78896  0.038662118  0.038681871            5 
  936000   0.87166598   -5.6044919    436.36192  0.038849886  0.038660663            4 
  937000   0.88289098   -5.6363435    436.46458  0.038817554  0.038639539            6 
  938000   0.87130313   -5.6283246    436.42548  0.038772697  0.038618287            9 
  939000   0.88218748    -5.667275    436.61105  0.038747875  0.038596919            6 
  940000   0.86166047   -5.6250285    436.43318  0.038690885  0.038575527            6 
  941000   0.86793843   -5.6481112    437.24471  0.038721636   0.03855399            4 
  942000   0.85931086   -5.6582846    436.81773  0.038642757  0.038532431            7 
  943000    0.8852872   -5.6699154    437.16574  0.038632533  0.038511018            8 
  944000    0.8696168   -5.6327603    438.11769  0.038675644   0.03848957            6 
  945000   0.88946913   -5.6028636    438.38562  0.038658344  0.038468442            7 
  946000   0.89063906   -5.6781411    438.31012  0.038610828  0.038447016            4 
  947000   0.85583058   -5.6257515    438.32205  0.038571106  0.038425464            5 
  948000   0.88189764   -5.6372257    438.89151  0.038580477  0.038403774            6 
  949000    0.8946123   -5.6280335    438.17585   0.03847698  0.038382628            6 
  950000   0.88971879   -5.6389961    438.81158  0.038492244  0.038361481            7 
  951000   0.87847099   -5.6685639    439.49677   0.03851181  0.038340373            5 
  952000   0.88750062   -5.6170621    441.49134  0.038645951  0.038319109           10 
  953000   0.85861589   -5.6214975    441.13952  0.038574635   0.03829808            3 
  954000   0.87230323   -5.6315541     441.3416  0.038551852  0.038277084            4 
  955000   0.86539069   -5.6215714    442.16852   0.03858364  0.038256263            8 
  956000   0.87589052    -5.664114    441.22569  0.038461096  0.038235322            4 
  957000   0.88059674   -5.6178886     442.4229  0.038525157  0.038214341            7 
  958000   0.86004985   -5.6525061    441.06545  0.038366862  0.038193391            7 
  959000   0.87138016   -5.6221224    443.32982   0.03852362  0.038172616            4 
  960000   0.87990573   -5.6800118    443.05169  0.038459348  0.038151805            5 
  961000   0.86666345   -5.6385343    443.30981  0.038441711  0.038131167            4 
  962000   0.85589893   -5.6772383    441.52206  0.038246886  0.038110644            8 
  963000   0.86871866   -5.6581756    443.85899  0.038409397  0.038089584           10 
  964000   0.87741516   -5.6803004    441.93438  0.038203179  0.038068518            4 
  965000   0.84514875     -5.65422    441.62207  0.038136621  0.038047434            5 
  966000   0.89060383   -5.6654676    442.78249  0.038197248  0.038026416            6 
  967000   0.86282185   -5.6391491     444.8576  0.038336574  0.038005765            5 
  968000   0.87047622   -5.6850662    444.57974   0.03827305  0.037985157            6 
  969000   0.86575712   -5.6618267    443.60063  0.038149349  0.037964516            3 
  970000   0.84588976   -5.6370419    444.72094  0.038206266   0.03794379            7 
  971000   0.89754758   -5.6642006    444.48392  0.038146577  0.037922975            3 
  972000   0.87069884   -5.6462824    445.23953  0.038172114  0.037902247            4 
  973000   0.84620919   -5.6675085      444.943  0.038107485  0.037881474            4 
  974000   0.85695873    -5.659555    446.46855  0.038198884  0.037860851            6 
  975000   0.86446456   -5.6373052    446.76207  0.038184793  0.037840443           15 
  976000   0.86460764    -5.663985    445.25541  0.038017026  0.037819884            3 
  977000   0.87365738   -5.6514184    445.77396  0.038022344  0.037798999            6 
  978000   0.85973841   -5.6874359    445.33702  0.037946235  0.037778112           10 
  979000   0.86571414    -5.645413    446.46995  0.038003911  0.037757309            6 
  980000    0.8525276   -5.6495535    447.21302  0.038028318  0.037736595            5 
  981000   0.85318765   -5.6804143    447.11681   0.03798138  0.037715648            8 
  982000   0.88086304   -5.6577546    447.19519  0.037949355   0.03769474            7 
  983000   0.87234465   -5.6905184    447.80126  0.037962128  0.037674111            5 
  984000   0.86757866   -5.6955352    447.65853  0.037911461  0.037653428            4 
  985000   0.84228068   -5.6864413     448.4363  0.037938773  0.037632606            5 
  986000   0.84363108   -5.6702334    448.16996  0.037877785  0.037611852            6 
  987000   0.86145628   -5.6481878    449.64936  0.037964316  0.037591445            3 
  988000    0.8541174   -5.6627091    449.86181   0.03794381  0.037571153            9 
  989000   0.86681837   -5.6994094    447.97579  0.037746528  0.037550564            5 
  990000   0.85350664   -5.7205558    447.90802  0.037702695  0.037529678            4 
  991000    0.8487044   -5.6683151    449.90363  0.037832461  0.037509062            4 
  992000   0.84584866   -5.6789147    449.98673  0.037801304  0.037488757            6 
  993000   0.84738501   -5.7134584    450.56751  0.037811976  0.037468316            4 
  994000   0.85969334   -5.6888266    449.56778  0.037690122  0.037447644            4 
  995000   0.86547018   -5.6999435    451.35824  0.037802198  0.037427029            5 
  996000   0.86126601   -5.6841904    449.90746   0.03764286  0.037406538            5 
  997000   0.85876737   -5.6586605    450.17156  0.037627178  0.037385794            5 
  998000   0.86274004    -5.667899    450.81334  0.037643065  0.037365207            8 
  999000    0.8555303   -5.6810116     450.3582  0.037567417   0.03734468            3 
 1000000   0.86194611    -5.710216    450.30828   0.03752569  0.037323792            8 
 1001000   0.84164818   -5.7318449    449.42211  0.037414428  0.037302874            4 
 1002000   0.86881674   -5.7000493    450.69294  0.037482779  0.037281891            8 
 1003000   0.84145015   -5.6804542     451.7473  0.037533009  0.037261173            7 
 1004000    0.8528645   -5.6660755     451.9179  0.037509786   0.03724045            5 
 1005000   0.85817054   -5.6788925    452.98152  0.037560657  0.037219861            4 
 1006000    0.8584606    -5.708264    451.69388  0.037416657  0.037199363            4 
 1007000    0.8720738   -5.6663419    453.98546  0.037569138  0.037178956            2 
 1008000   0.84420286   -5.7167612    452.64652  0.037421174  0.037158429            7 
 1009000   0.87981349    -5.699247     452.4987  0.037371878  0.037138112            7 
 1010000   0.83129075   -5.7158676    454.30276  0.037483726  0.037117488            4 
 1011000   0.85203942    -5.680767    454.59461  0.037470706  0.037097156            4 
 1012000   0.84035674   -5.6893665      454.361  0.037414443  0.037076989            3 
 1013000   0.83997557   -5.6930873    453.05021  0.037269678  0.037056446            7 
 1014000    0.8419412   -5.7133192    454.05036  0.037315119  0.037035643            4 
 1015000   0.83493241   -5.6729309    455.64288  0.037409103  0.037014886            6 
 1016000    0.8508444   -5.6953551    454.03113  0.037240086  0.036994254            5 
 1017000   0.86852659   -5.6985928    454.75918  0.037263125  0.036973559            7 
 1018000   0.83719513   -5.7010385    455.68064  0.037301952   0.03695301            4 
 1019000   0.82963117   -5.6830498    454.56423  0.037174045  0.036932152            8 
 1020000   0.84404507   -5.7033182    455.43065  0.037208387  0.036911445            5 
 1021000   0.84083748   -5.7230659    454.90301  0.037128878  0.036890667            5 
 1022000   0.83492377   -5.6883602    455.73071  0.037160038  0.036870091            5 
 1023000   0.84683267   -5.7001902    457.79869  0.037292171  0.036849531            5 
 1024000   0.85372801   -5.7182997    455.50522   0.03706911   0.03682935           11 
 1025000   0.84478737   -5.7284634    455.32029   0.03701791  0.036808681            6 
 1026000   0.84091383   -5.6930288    456.45769  0.037074212  0.036787847            7 
 1027000   0.82833329   -5.6962398    456.97392      0.03708   0.03676707            5 
 1028000   0.83251801   -5.7072656    457.86414  0.037116094  0.036746614            4 
 1029000   0.83318772   -5.6919146    458.16191  0.037104139  0.036726259            2 
 1030000   0.82929051   -5.7207146     456.4943  0.036933196  0.036705826            9 
 1031000   0.85418811   -5.6893877    459.51831  0.037141797  0.036685393            3 
 1032000   0.83610245   -5.7280559    456.97991  0.036900832  0.036664748            4 
 1033000   0.84224697   -5.7401525    456.66254  0.036839508  0.036644167           11 
 1034000   0.84291499   -5.7111021    457.62135  0.036881153  0.036623541            4 
 1035000   0.84862534   -5.7352711    457.47034   0.03683336  0.036602812            3 
 1036000   0.83805671   -5.7471997    457.68061  0.036814721  0.036581868            5 
 1037000   0.82612859   -5.7196423    458.42825    0.0368393  0.036560898            4 
 1038000   0.83453188   -5.7196412    458.29745  0.036793308  0.036539739            5 
 1039000   0.83122614   -5.7098211    458.14227   0.03674545  0.036518599            6 
 1040000   0.83166042   -5.7442148    456.97116  0.036616279  0.036497367            7 
 1041000   0.83807501   -5.7047531    458.30434  0.036687827  0.036476032            9 
 1042000   0.85371652   -5.7044161    458.42269  0.036662084  0.036455057            4 
 1043000   0.84778366   -5.7308604    459.00955  0.036673822  0.036433926            6 
 1044000   0.83073338   -5.7337194    458.11028  0.036566912   0.03641272            6 
 1045000    0.8442251   -5.7263914    458.64286  0.036574391  0.036391452            9 
 1046000   0.83788441   -5.7469464    457.46432  0.036445532  0.036370245            9 
 1047000   0.83931315   -5.7241164    460.70671  0.036668792  0.036348988            6 
 1048000   0.84399828   -5.7153272    459.34455  0.036525489  0.036328038            5 
 1049000   0.86769055   -5.7116763    459.64094  0.036514215  0.036307179           17 
 1050000   0.83805525   -5.7109282    460.80269  0.036571642  0.036286204            5 
 1051000   0.83542352   -5.7039269     460.1726  0.036486885  0.036265054            8 
 1052000   0.82841427   -5.7646479    459.24829  0.036378983  0.036243931            4 
 1053000   0.82337362   -5.7561204    459.06654  0.036330052  0.036222687            4 
 1054000   0.81674356   -5.7389816    460.46284   0.03640598  0.036201589            9 
 1055000   0.84300242   -5.7581377    459.83426  0.036321821  0.036180267           11 
 1056000   0.82146449   -5.7434666    460.34625  0.036327829  0.036158926            5 
 1057000   0.84343069   -5.7630791    459.21936  0.036204617  0.036137451            9 
 1058000   0.83130095   -5.7686686    461.14573  0.036322127  0.036116301            6 
 1059000   0.83212386   -5.7571185    460.07032  0.036203204  0.036094926            7 
 1060000   0.82511208   -5.7441204    460.43348  0.036197601  0.036073659            9 
 1061000   0.82437219   -5.7419139    462.10708  0.036294932  0.036052585            5 
 1062000   0.82353892   -5.7596119    460.22494  0.036113068  0.036031338           11 
 1063000   0.81806712   -5.7209111    461.19248  0.036154945  0.036009852            5 
 1064000   0.83163136   -5.7552998    462.65952  0.036235865  0.035988583            4 
 1065000   0.81786469   -5.7413288    462.52514  0.036191325   0.03596763            7 
 1066000   0.82022032   -5.7308108    462.93368  0.036189312  0.035946518            6 
 1067000   0.83339239   -5.7541515    462.46118  0.036118493  0.035925551           11 
 1068000   0.82658755   -5.7397263    462.57243  0.036093354   0.03590431            5 
 1069000   0.83779964    -5.760538    460.89311   0.03592868  0.035883169            4 
 1070000   0.83730458   -5.7459496    463.25507  0.036079056  0.035862042            5 
 1071000   0.84007196   -5.7396191    463.30994  0.036049637   0.03584104            3 
 1072000   0.82583711   -5.7864439    463.48692  0.036029767  0.035819998            9 
 1073000   0.82269403   -5.7937401    462.56857  0.035924866   0.03579877            1 
 1074000   0.79986797   -5.7609027    462.64114  0.035897047  0.035777701            6 
 1075000   0.81608936   -5.7749741    462.85729   0.03588041  0.035756582            5 
 1076000   0.81998739   -5.7326783     465.2472  0.036032156  0.035735726            5 
 1077000   0.83896948   -5.7766981    463.84481   0.03589019  0.035714817            8 
 1078000   0.82559725   -5.7544615    465.22304  0.035963438  0.035693783            8 
 1079000   0.82778661   -5.7704656    465.94659  0.035985989  0.035672908            7 
 1080000   0.82445697    -5.758767     465.4645  0.035915471  0.035652099            5 
 1081000   0.84121079   -5.7664278    464.98906  0.035845595    0.0356313            5 
 1082000   0.83139213   -5.7715708    465.49341   0.03585131  0.035610626           13 
 1083000   0.80438698   -5.7757497    466.77657  0.035916942  0.035590053            6 
 1084000      0.83331   -5.7707316    465.11154  0.035755808  0.035569506            7 
 1085000   0.83040687   -5.7450418    466.40891  0.035822497  0.035548867            7 
 1086000   0.82933992   -5.7867645    466.75932  0.035816399  0.035528272            5 
 1087000   0.82387032   -5.7820878    467.84868  0.035866964  0.035508139           13 
 1088000   0.80460767   -5.7545901    467.90674  0.035838445  0.035487786            4 
 1089000   0.83257548   -5.7674749    468.75884  0.035870741  0.035467595           18 
 1090000   0.80534684   -5.8000802    467.38262  0.035732616   0.03544722            2 
 1091000   0.83270856   -5.7578114    468.88072  0.035814292  0.035426921            6 
 1092000   0.83318303   -5.7679033    467.33245  0.035663343  0.035406442            6 
 1093000   0.82529923   -5.7978426    468.54525  0.035723182   0.03538609            5 
 1094000   0.81390502   -5.7944954    469.54211  0.035766462  0.035366045            6 
 1095000   0.82895242   -5.7630687    469.89253  0.035760467  0.035346037            9 
 1096000   0.82575985   -5.7387815    470.38448  0.035765243  0.035326084           12 
 1097000   0.82149995   -5.7766512    470.31646  0.035727473  0.035306024           10 
 1098000   0.81005012   -5.7939491    468.57327  0.035562634  0.035285711            3 
 1099000   0.82953507   -5.7722467    467.94314  0.035482495  0.035265227           11 
 1100000   0.80914963   -5.7813381    469.69977  0.035583316  0.035244736            5 
 1101000   0.81036408   -5.7924971    470.28595  0.035595364  0.035224259            4 
 1102000   0.80481983   -5.7901777    469.01061  0.035466622  0.035203752            3 
 1103000   0.81532115   -5.7831071    470.27753  0.035530185  0.035183376            3 
 1104000   0.81816837   -5.7749033    470.77437  0.035535505  0.035163027            5 
 1105000   0.79685691   -5.7977883     468.5866  0.035338356  0.035142495            8 
 1106000    0.8207702   -5.7980115    471.21527  0.035504466  0.035121967            5 
 1107000   0.81675271   -5.7654888    470.40821  0.035411639  0.035101648            6 
 1108000   0.80424475   -5.8038367    471.37224  0.035452184  0.035081462           14 
 1109000   0.81492108   -5.7949829      469.799  0.035301999  0.035061394            2 
 1110000   0.81050949   -5.8095572    471.14981  0.035371607  0.035040983            6 
 1111000   0.81206633   -5.7840012    471.20166  0.035343659  0.035020789            7 
 1112000   0.81822955   -5.8075838    471.37528  0.035324886   0.03500067            6 
 1113000   0.79884829   -5.8093217     470.4645  0.035224955  0.034980403            5 
 1114000   0.78746837   -5.8016357    471.71525  0.035286898  0.034960113            9 
 1115000   0.79794138   -5.7765165    472.22651  0.035293461  0.034939963            5 
 1116000   0.80381013    -5.796388    471.54624  0.035211039    0.0349199           10 
 1117000   0.81183106   -5.7997184    473.02753  0.035290027  0.034899873           12 
 1118000   0.80793269    -5.798956    471.94039  0.035177429  0.034879726            3 
 1119000   0.79577108   -5.8191654    471.93299  0.035145441  0.034859479            7 
 1120000   0.80225359   -5.8042951     473.1674  0.035205908  0.034839378            8 
 1121000   0.80810298   -5.7866097    472.91717    0.0351559  0.034819208           12 
 1122000   0.80826789   -5.7979975    472.27176  0.035076631  0.034799102            9 
 1123000   0.81800387   -5.8276675    472.46811  0.035059967  0.034778706            5 
 1124000    0.7986727   -5.8203897    472.40813  0.035024328  0.034758318            8 
 1125000   0.80450718    -5.790262    473.13142  0.035046772  0.034737855            6 
 1126000   0.79071961   -5.8231548    472.95049  0.035002257  0.034717423            7 
 1127000   0.81376397   -5.7877051     473.8629  0.035038664  0.034697234            5 
 1128000   0.80303933   -5.8210396    473.96856  0.035015408  0.034676995            4 
 1129000   0.78069369   -5.8355179    473.42688  0.034944411  0.034656596            8 
 1130000   0.77866823   -5.7990689    475.26109  0.035048753  0.034636297            6 
 1131000   0.81477594   -5.8153747    474.62022  0.034970544  0.034616197            8 
 1132000   0.81027645   -5.8147166     474.7141  0.034946562  0.034595983           12 
 1133000   0.81832347   -5.8113981    475.19971  0.034951435  0.034575612           10 
 1134000    0.8029831   -5.8206482     475.7067  0.034957871  0.034555288           14 
 1135000   0.80409852   -5.8372467    475.19611  0.034889582  0.034534861            6 
 1136000    0.7971767   -5.7930829    474.98094  0.034843085  0.034514265            9 
 1137000   0.80105035    -5.799003    476.38846  0.034915601  0.034493955           14 
 1138000   0.79551888   -5.8191413    474.95002  0.034779585    0.0344737            9 
 1139000    0.8109886   -5.8167857    474.87625  0.034743653  0.034453583            6 
 1140000   0.81250977    -5.804955    476.63558  0.034841782   0.03443356            7 
 1141000    0.7936204   -5.8361286    476.75698  0.034820113  0.034413489            7 
 1142000    0.7966104   -5.7978151    478.06543  0.034885101  0.034393679           12 
 1143000    0.8148043   -5.8226454    476.00483  0.034704348  0.034373769            9 
 1144000    0.7843974   -5.8139281    475.90738  0.034666913  0.034353782           11 
 1145000   0.79534932   -5.8292132     477.7166  0.034768311  0.034333656            9 
 1146000   0.77994693   -5.8120557     477.4765  0.034720513  0.034313552            7 
 1147000   0.80004863   -5.8540872    476.06346  0.034587581  0.034293452            6 
 1148000   0.80110216   -5.8318458    475.96123  0.034550031  0.034273214            5 
 1149000   0.78604323   -5.8465724    476.25965  0.034541605  0.034252921            5 
 1150000   0.79018481   -5.8263098      478.449  0.034670217  0.034232851           15 
 1151000   0.80019539   -5.8313749    478.35635  0.034633388  0.034212605            8 
 1152000   0.78247034   -5.8080803    478.03959   0.03458041  0.034192377            7 
 1153000   0.80555808   -5.8338261    477.20577  0.034490154   0.03417218            5 
 1154000    0.7743033    -5.826724    477.36191  0.034471542  0.034151808            8 
 1155000   0.80668689   -5.8639094    475.93276  0.034338583  0.034131394            4 
 1156000   0.79439881   -5.8461821    479.27701  0.034549958  0.034111147            8 
 1157000   0.79818749   -5.8687717    478.60612  0.034471775  0.034091075            5 
 1158000   0.77263808   -5.8315252    480.27037  0.034561771  0.034070824            9 
 1159000   0.77923513   -5.8657734    477.60007  0.034339953  0.034050436            5 
 1160000   0.78590491   -5.8547546    479.16353  0.034422667  0.034030175            7 
 1161000   0.80094411   -5.8521374    477.29913  0.034259197  0.034009738            8 
 1162000   0.77130127   -5.8564416    477.86238  0.034270107  0.033989241            7 
 1163000   0.78069026   -5.8718204    478.21478  0.034265891  0.033968575            6 
 1164000   0.79646299   -5.8403445    478.05331  0.034224893  0.033947956            8 
 1165000   0.76305425   -5.8485561    478.44422  0.034223478  0.033927669            5 
 1166000   0.78537169   -5.8703555    480.10571  0.034312873  0.033907513            7 
 1167000   0.80082085   -5.8485164    480.21989  0.034291623  0.033887329           14 
 1168000   0.79381465    -5.832086    481.75512  0.034371798  0.033867236            3 
 1169000   0.79771431   -5.8378806    480.29635  0.034238405  0.033847199            6 
 1170000    0.7794504   -5.8225699    480.22568  0.034204109   0.03382721            5 
 1171000   0.79180547   -5.8149123    480.75215  0.034212365  0.033807281            5 
 1172000   0.79280669   -5.8396095    480.45752  0.034162224  0.033787214           13 
 1173000   0.78794103    -5.854907    480.35136  0.034125559  0.033766955           10 
 1174000   0.78867872   -5.8250307    482.09763  0.034220445  0.033746645            4 
 1175000    0.7664699   -5.8629191    479.77143  0.034026342  0.033726295            7 
 1176000    0.7807807   -5.8426705    479.93387  0.034008919   0.03370602           12 
 1177000   0.79546327   -5.8498775    481.33706  0.034079373  0.033685856            9 
 1178000   0.79878244   -5.8476825     481.4813  0.034060647  0.033665771            8 
 1179000    0.7623142   -5.8594977    481.95228  0.034065047  0.033645527            5 
 1180000   0.78129721   -5.8178053    482.02517  0.034041325  0.033625395            4 
 1181000   0.79437632   -5.8502644    481.37452  0.033966591  0.033605295            5 
 1182000    0.7899781   -5.8662141    481.81534  0.033968932  0.033585106            6 
 1183000   0.76997891    -5.845378    480.69162  0.033861061  0.033564927            3 
 1184000   0.78324523   -5.8640924    480.80323  0.033840317  0.033544845            8 
 1185000   0.79351705   -5.8503267    482.17121  0.033907961   0.03352463           10 
 1186000   0.78502326   -5.8464846    483.26375  0.033956138  0.033504621           16 
 1187000   0.78511398   -5.8682813    481.43677  0.033799268  0.033484716           12 
 1188000   0.78135666   -5.8547651    482.07466  0.033815562  0.033464534            3 
 1189000   0.78983758   -5.8458922    482.34675  0.033806192   0.03344439           10 
 1190000   0.77519122   -5.8596785    481.65443  0.033729302  0.033424257            4 
 1191000    0.7753255   -5.8597923    482.11903   0.03373349  0.033404029            4 
 1192000   0.78615765   -5.8665888      483.586  0.033807746  0.033383981            3 
 1193000   0.79909635   -5.8554643    483.91446  0.033802351  0.033363927           12 
 1194000    0.7727257   -5.8937174    482.58171  0.033681024  0.033344006            8 
 1195000   0.77562006   -5.8616041    482.80022  0.033668077  0.033323995            8 
 1196000   0.77835346   -5.8773759    483.17122  0.033665776  0.033303869            8 
 1197000   0.75764257   -5.8506773      482.589  0.033597118  0.033283805            6 
 1198000     0.767272    -5.905515    484.28857  0.033687296  0.033263809           10 
 1199000    0.7694746   -5.8619288    484.90578  0.033702098  0.033243943            9 
 1200000    0.7962416   -5.8901056    483.70176    0.0335904  0.033224059            9 
 1201000   0.78542082   -5.8624271    484.99898  0.033652441  0.033204359            9 
 1202000   0.76789157   -5.8834212    484.56073   0.03359406  0.033184518           14 
 1203000   0.76368903   -5.8827008    484.91006  0.033590334   0.03316469            6 
 1204000    0.7836022   -5.8708223    485.61492  0.033611221  0.033145106            9 
 1205000   0.76975545   -5.8663367     485.6399  0.033585056  0.033125582           12 
 1206000    0.7799315   -5.8729145    485.72916  0.033563375  0.033105938            5 
 1207000   0.76405274   -5.8534714    486.19221  0.033567537  0.033086296            9 
 1208000   0.78361825   -5.8663747    484.82188  0.033445218  0.033066739            6 
 1209000   0.77096592   -5.8809163     487.4384  0.033597904  0.033047102            5 
 1210000   0.79165312   -5.8706409    487.50237  0.033574544   0.03302767            4 
 1211000   0.77270251   -5.8841116    485.78588  0.033428701  0.033008172            7 
 1212000   0.75394772   -5.9075954    485.97163  0.033413891  0.032988593            7 
 1213000   0.76832869   -5.8708358    487.00633  0.033457428   0.03296906           19 
 1214000   0.76579816   -5.8853759    485.88977  0.033353224  0.032949372            9 
 1215000    0.7698099   -5.8964586    486.56667    0.0333722  0.032929672           10 
 1216000   0.75594947   -5.8744459    487.71111  0.033423185  0.032910164           10 
 1217000    0.7513982   -5.8764632    488.21952  0.033430534   0.03289041            5 
 1218000   0.76383291   -5.8923512    489.24697  0.033473383  0.032870878           11 
 1219000   0.76691318    -5.889405    487.68544  0.033339174   0.03285105            8 
 1220000    0.7611674   -5.9117452    487.51693  0.033300337  0.032831339            9 
 1221000   0.76808796   -5.8832541    487.49984  0.033271897    0.0328117            7 
 1222000   0.77374288   -5.8832198    488.66861  0.033324373  0.032792156            4 
 1223000   0.76079519   -5.8985502    488.18961  0.033264487  0.032772582            9 
 1224000   0.76777418   -5.8689228    488.01439   0.03322538  0.032752889            4 
 1225000   0.76999155   -5.9035812     488.4712  0.033229333  0.032733116           11 
 1226000   0.76758649   -5.9257449    487.25605  0.033119633  0.032713367            7 
 1227000   0.74685366   -5.9118191    488.62178  0.033185397  0.032693657           11 
 1228000   0.75144647   -5.9205486    488.67632  0.033162074  0.032673865            6 
 1229000   0.76802889   -5.9169435    487.95688  0.033086309  0.032654148            8 
 1230000   0.78105027   -5.9023257    488.32383   0.03308427  0.032634408            3 
 1231000   0.77050383   -5.9055977     487.6741  0.033013411  0.032614446            6 
 1232000   0.77162326   -5.9036027    487.46644  0.032972567   0.03259459           10 
 1233000   0.75884184    -5.893035    487.88761  0.032974291  0.032574791           11 
 1234000   0.75441582   -5.8881966    487.99372  0.032954736  0.032555177            5 
 1235000   0.74388371   -5.9004949     488.3183  0.032949953  0.032535236            4 
 1236000   0.75407684    -5.905979    487.78848  0.032887573  0.032515402           10 
 1237000   0.75265633   -5.9237648    488.78587  0.032928178  0.032495559           14 
 1238000   0.76677567   -5.9019948    490.11807  0.032991254  0.032475705           10 
 1239000   0.74824542   -5.9376856    487.66098  0.032799367  0.032455891            5 
 1240000   0.78497118   -5.9051154    489.25278  0.032879891  0.032436011            8 
 1241000   0.76163053   -5.9038162    488.57779   0.03280807  0.032416071            8 
 1242000   0.76112579   -5.8972926    488.54911  0.032779731  0.032396195           11 
 1243000   0.76544321    -5.875715    490.07195  0.032855454  0.032376364           10 
 1244000   0.74339026   -5.9180197    489.46483  0.032788373  0.032356591           15 
 1245000   0.73380201   -5.9320918    489.17559  0.032742676  0.032336884           16 
 1246000   0.75386909   -5.9157297    490.00429  0.032771823  0.032317064            8 
 1247000   0.75158434   -5.9182147     487.8647  0.032602559  0.032297241            5 
 1248000   0.74194601   -5.9130595    489.39431  0.032678573  0.032277443           11 
 1249000    0.7668199   -5.9035646    489.48659  0.032658566  0.032257727            6 
 1250000   0.74840208   -5.9029677    490.42649    0.0326951  0.032237927            7 
 1251000   0.77406953   -5.9083486    489.50955  0.032607884  0.032218159            8 
 1252000   0.75200577   -5.9045748    490.74258   0.03266391  0.032198282            8 
 1253000   0.75840676   -5.9286828    489.38693  0.032547681   0.03217822           11 
 1254000   0.75820417   -5.9471076    489.40914  0.032523202  0.032158123            5 
 1255000    0.7736407   -5.9490819    490.39005   0.03256242  0.032138135            8 
 1256000   0.75869131   -5.9036552    490.28123  0.032529275  0.032118158            5 
 1257000   0.75640505   -5.9242754    490.34234  0.032507447   0.03209816           12 
 1258000   0.73873207   -5.9446712    488.85439  0.032383041  0.032078155            9 
 1259000    0.7286785   -5.9479833    489.85685  0.032423673  0.032057971            8 
 1260000   0.75028172   -5.9373475    491.53761  0.032509101  0.032037825            5 
 1261000   0.74293943   -5.9601921    489.48731  0.032347826   0.03201764            5 
 1262000   0.73910956   -5.9284872    490.57019    0.0323937  0.031997641           28 
 1263000   0.73794968   -5.9456712    490.57957   0.03236867  0.031977523           12 
 1264000   0.75264565   -5.9479006    488.27471  0.032191107  0.031957299            7 
 1265000   0.76504825   -5.9491548    489.27973  0.032231867  0.031937082            7 
 1266000   0.73197596   -5.9573818    488.18725  0.032134495  0.031916734           11 
 1267000   0.74149568    -5.933574    490.42567  0.032256358  0.031896499            5 
 1268000   0.74259316   -5.9374774    489.20843  0.032150922  0.031876329            8 
 1269000   0.74089514   -5.9467683    489.63306  0.032153471  0.031856123            5 
 1270000   0.74042012   -5.9379413    489.05475  0.032090207   0.03183598            8 
 1271000   0.75318228     -5.96532    488.65924  0.032039027  0.031815738           12 
 1272000    0.7279657   -5.9630988    490.47844  0.032133022  0.031795573           20 
 1273000   0.73219689   -5.9516612    490.55045  0.032112493   0.03177536            9 
 1274000   0.72750598   -5.9369276    490.40543  0.032077802  0.031755081            8 
 1275000   0.73614173   -5.9576941    490.87684  0.032083454  0.031734744            4 
 1276000    0.7279594   -5.9503618    490.72413  0.032048337  0.031714543            2 
 1277000   0.74932459   -5.9418189    491.37016  0.032065398   0.03169434           13 
 1278000   0.73159512   -5.9787871    490.93036   0.03201163   0.03167423           10 
 1279000   0.73106437   -5.9264778    490.34996  0.031948785    0.0316542           19 
 1280000   0.73733621   -5.9350327    492.18909   0.03204356  0.031634282            7 
 1281000   0.75151866   -5.9422846    489.71148  0.031857369  0.031614205           15 
 1282000   0.73408372   -5.9306869    492.26353   0.03199841  0.031594148           13 
 1283000   0.74007173   -5.9491107    492.26882  0.031973813  0.031574132           10 
 1284000   0.74400406   -5.9455182     491.9529  0.031928407  0.031554054           11 
 1285000   0.73127582   -5.9847835    491.26763   0.03185912  0.031534065           11 
 1286000   0.74591248    -5.954271    493.29083  0.031965451  0.031513919            8 
 1287000   0.75174203   -5.9636719    492.75277  0.031905774  0.031493993            9 
 1288000   0.73738795   -5.9454131    492.85272  0.031887469  0.031474186           18 
 1289000    0.7284561   -5.9567186    493.95778  0.031934172  0.031454241            6 
 1290000   0.74019562   -5.9479538     492.9193  0.031842332  0.031434533            5 
 1291000   0.73324542   -5.9590516    492.77058  0.031808067  0.031414901            5 
 1292000   0.73025327   -5.9427152    493.92482  0.031857896   0.03139543           14 
 1293000   0.73046488   -5.9615783    495.29623  0.031921644  0.031375965            8 
 1294000   0.73984355   -5.9721983    494.70622  0.031858979  0.031356424           12 
 1295000   0.71887851   -5.9500354    493.69132  0.031769068   0.03133675            8 
 1296000   0.73249555   -5.9886202    492.98104  0.031698884  0.031317049           10 
 1297000   0.72237052   -5.9893425     493.5956   0.03171393  0.031297337           11 
 1298000   0.74080258   -5.9936265    494.45594  0.031744732  0.031277772           10 
 1299000   0.73915622   -5.9789471    492.94435  0.031623323  0.031258142            5 
 1300000    0.7454519   -5.9778867    493.77988  0.031652556  0.031238497            3 
 1301000   0.73971688   -5.9884934    493.65878   0.03162047  0.031218905           10 
 1302000   0.72336088   -5.9776985    492.25475   0.03150632  0.031199247            4 
 1303000   0.73911685   -6.0019066    494.31236  0.031613735  0.031179559           13 
 1304000   0.73668951   -6.0216004    493.99473  0.031569193  0.031159815           12 
 1305000   0.73133394    -5.995098    494.56112   0.03158117  0.031140105            4 
 1306000   0.72609641   -5.9944073    494.07971  0.031526271  0.031120506            5 
 1307000   0.74312685   -5.9509004     496.8676  0.031679903  0.031101168            3 
 1308000   0.72589828   -5.9682576    495.21237  0.031550228  0.031081888            9 
 1309000   0.72074062    -5.982981    494.75716  0.031497145   0.03106252            5 
 1310000   0.73337319   -6.0206148    494.01728  0.031426036  0.031042947            9 
 1311000   0.73885228   -5.9932719    495.06064  0.031468385  0.031023459           19 
 1312000    0.7221932   -5.9992571    496.50384  0.031536067  0.031004175           10 
 1313000   0.71563506   -5.9934733     495.3557  0.031439179  0.030984765           10 
 1314000   0.73037035   -5.9810822    495.93039  0.031451699  0.030965338           17 
 1315000   0.73564596    -5.986873    496.11409  0.031439423   0.03094591            9 
 1316000   0.72561108   -5.9969579    496.23659  0.031423289   0.03092654           10 
 1317000   0.72363902   -6.0009649    496.30456  0.031403731  0.030907233           11 
 1318000   0.73469168   -6.0136488    495.22296  0.031311517  0.030887774            8 
 1319000   0.73163642   -6.0145388    496.52252  0.031369884  0.030868277           12 
 1320000   0.72873122   -6.0121339    495.60347  0.031288098  0.030848832           11 
 1321000   0.74843545   -6.0127069    495.64706  0.031267162  0.030829387            4 
 1322000   0.72883981   -6.0259237    496.06815  0.031270055   0.03080981            9 
 1323000   0.72374143   -5.9770014    496.47669  0.031272153  0.030790427           15 
 1324000   0.71310708   -6.0056499    495.24018  0.031170706  0.030771064           10 
 1325000   0.71866035   -5.9903091    498.22855  0.031335129  0.030751651           14 
 1326000    0.7331669   -5.9911483    496.67333  0.031213759  0.030732259           14 
 1327000   0.72279873   -5.9954099    496.74767  0.031194905  0.030712785           11 
 1328000   0.73287182   -6.0133025    496.97449  0.031185648  0.030693436           12 
 1329000   0.70757285   -6.0052439    497.46981  0.031193241   0.03067397           23 
 1330000   0.72731136    -6.011406     496.8525  0.031131109  0.030654456            9 
 1331000   0.71698878   -6.0095289    496.26147  0.031070716  0.030634912           15 
 1332000   0.71497324   -5.9855244     498.9668  0.031216642  0.030615565            5 
 1333000   0.71637768   -5.9825916    496.95881  0.031067692  0.030596372            8 
 1334000   0.72940628   -5.9975217    497.30541  0.031066055  0.030576984           20 
 1335000   0.71854135   -6.0166782     496.9052  0.031017803  0.030557687           11 
 1336000   0.72891426   -6.0139522    498.32459  0.031083121  0.030538312            6 
 1337000   0.72733782   -5.9987786    497.95148  0.031036617  0.030518929           14 
 1338000    0.7123229   -6.0161616    497.52215  0.030986681  0.030499505           10 
 1339000   0.71531615   -6.0085416     498.2869  0.031011134  0.030480228           28 
 1340000   0.72608135   -6.0246393    497.48043  0.030937837  0.030460946            7 
 1341000   0.71879187   -6.0080537    498.67106  0.030988756   0.03044169           19 
 1342000   0.71879505   -6.0388172     498.5973  0.030961084  0.030422336            7 
 1343000     0.704054   -5.9902225    499.06824  0.030967253  0.030402961           27 
 1344000    0.7324604   -6.0102969    497.48338  0.030845944  0.030383563           14 
 1345000   0.73709725     -6.01865    497.73574  0.030838646  0.030364064            6 
 1346000   0.69614372   -6.0272192    498.53699  0.030865341   0.03034467            5 
 1347000   0.72284496   -6.0077167    498.55971  0.030843832   0.03032521           10 
 1348000   0.70916071   -6.0255691    497.05229  0.030727763  0.030305826            9 
 1349000   0.72861512   -6.0118239    497.91533  0.030758298  0.030286337            3 
 1350000   0.71762297   -6.0385472    498.24908  0.030756116  0.030266945            9 
 1351000   0.72106992   -6.0064144    498.32831  0.030738238  0.030247425           16 
 1352000   0.70627787   -6.0105904    498.22852  0.030709352  0.030227962           15 
 1353000   0.71663668   -6.0179676    497.60931  0.030648516  0.030208446            7 
 1354000   0.70832905   -6.0197332    496.97076   0.03058658  0.030188871            8 
 1355000   0.71837489   -6.0264205    498.82654  0.030678139  0.030169396           10 
 1356000   0.70329948   -5.9986827    498.75766  0.030651282  0.030150029            6 
 1357000   0.71477463   -6.0600686    498.25713  0.030597957  0.030130625           26 
 1358000    0.7047298   -6.0315268    498.99173  0.030620504  0.030111018           10 
 1359000   0.70486624   -6.0179802    499.62333  0.030636702  0.030091614            5 
 1360000   0.71972031    -6.014682    498.91429  0.030570728  0.030072244           11 
 1361000    0.7186469   -6.0192781    498.02558  0.030493852  0.030052882           14 
 1362000    0.7239839    -6.037685    498.67681  0.030511308  0.030033454           32 
 1363000   0.71821189   -6.0492871    498.65686  0.030487702  0.030013966            7 
 1364000   0.70467999   -6.0075519     498.3534  0.030446811  0.029994552            9 
 1365000   0.70691763   -6.0357335    497.32025  0.030361431  0.029975023            4 
 1366000   0.70744602   -6.0331941    498.81551  0.030430424  0.029955511           12 
 1367000   0.71275268   -6.0368641    498.89355  0.030412921   0.02993596            7 
 1368000   0.69626439   -6.0426238    497.82451  0.030325567  0.029916304           18 
 1369000   0.71593855   -6.0413669    498.91455  0.030369768  0.029896821            9 
 1370000   0.70390219   -6.0471845    497.77852  0.030278499  0.029877396           15 
 1371000   0.70152322   -6.0437296    498.44778  0.030297093  0.029857955           11 
 1372000   0.70803927   -6.0279274    499.05587  0.030311945  0.029838489            9 
 1373000   0.70775835   -6.0414695    499.16977  0.030296782  0.029819083           15 
 1374000   0.73102673   -6.0546398    498.84864  0.030255254  0.029799627           12 
 1375000   0.70829754   -6.0671968    497.03147  0.030123119  0.029780171           12 
 1376000   0.70215273   -6.0743156    498.18208  0.030170911  0.029760524            5 
 1377000    0.7072964   -6.0744592    497.36476  0.030099538   0.02974082           14 
 1378000   0.71909578   -6.0656268     498.5044  0.030146613  0.029721072            4 
 1379000   0.69301093   -6.0760425    498.00625  0.030094649   0.02970142            9 
 1380000   0.68959872   -6.0628052    498.23601  0.030086715  0.029681797           10 
 1381000   0.70076895    -6.082193    499.71917  0.030154428  0.029662025            6 
 1382000   0.70351729   -6.0787264     497.7156  0.030011795  0.029642274           10 
 1383000   0.68533749   -6.0641525    499.44633   0.03009438  0.029622714            7 
 1384000   0.69455543   -6.0321824    500.64165  0.030144608  0.029603267           16 
 1385000   0.70946213   -6.0534763    499.83182  0.030074117  0.029583952           16 
 1386000   0.70541476   -6.0648891     499.0583   0.03000591   0.02956455           12 
 1387000   0.71429944   -6.0577025     500.0516  0.030043956  0.029545176           13 
 1388000   0.68785393   -6.0512949    498.50123  0.029929228  0.029525813           10 
 1389000   0.69394463   -6.0748682     500.3582  0.030019091  0.029506369            9 
 1390000   0.71535649   -6.0858073    500.33109  0.029995868  0.029486828           14 
 1391000   0.70655439   -6.0550803     499.1849  0.029905637  0.029467312           15 
 1392000   0.70755458   -6.0898468    499.06132  0.029876755  0.029447795           31 
 1393000   0.69927233    -6.067143    498.31222  0.029810494  0.029428334           10 
 1394000   0.69672894   -6.0638341    499.86305  0.029881818   0.02940873           19 
 1395000   0.69455339   -6.0717364    499.14983  0.029817791  0.029389284            9 
 1396000   0.69108259   -6.1011839    497.95442  0.029725073  0.029369616           15 
 1397000   0.69805691   -6.0846567    498.40341  0.029730578  0.029349902           13 
 1398000   0.69674142   -6.0987857    499.34255  0.029765292   0.02933026            7 
 1399000   0.68883957   -6.0961638    500.38045   0.02980584  0.029310602            3 
 1400000   0.70195492   -6.0639658    500.40473  0.029785996  0.029291123           13 
 1401000    0.7078468   -6.1023056    498.76675  0.029667306  0.029271593           10 
 1402000   0.71118326   -6.0782904     498.6757  0.029640734  0.029252009           11 
 1403000   0.70376723   -6.1027049    499.27879  0.029655428  0.029232462           12 
 1404000   0.69109311   -6.0738234    500.05865  0.029680594  0.029212875           11 
 1405000   0.70289936   -6.0999158    499.61478  0.029633142  0.029193345           17 
 1406000   0.69959378   -6.0738515    500.61209  0.029671176  0.029173835           13 
 1407000   0.68107638   -6.0494315    501.21123  0.029685574  0.029154498            9 
 1408000   0.68422653   -6.0630089     501.8295  0.029701083  0.029135206           19 
 1409000   0.69052352   -6.0629549    501.16433  0.029640663  0.029116003           22 
 1410000   0.68061136   -6.0649951     501.3793  0.029632346  0.029096651            5 
 1411000   0.69653474   -6.1112501    500.02319  0.029531254  0.029077278           17 
 1412000   0.68567731   -6.0910475    500.30069  0.029526717  0.029057854           10 
 1413000   0.68097759   -6.0874639    499.54149  0.029461046  0.029038526            7 
 1414000   0.67991804   -6.0712154    500.82678  0.029515958  0.029019239           13 
 1415000   0.70073446   -6.0711299     500.3456  0.029466761  0.028999964           13 
 1416000    0.6877766   -6.0935966    500.61537  0.029461828  0.028980672           12 
 1417000   0.68761811   -6.0780275    501.17133  0.029473732  0.028961343           14 
 1418000   0.69022897   -6.0528197    501.14336  0.029451302  0.028942191            7 
 1419000   0.69804327     -6.07995    499.88831  0.029356842  0.028922892            9 
 1420000   0.69010357   -6.0758176    500.40312   0.02936638   0.02890367            6 
 1421000   0.68472831   -6.0755514    501.21163  0.029393128  0.028884311           15 
 1422000   0.68602975   -6.0783008    501.89536  0.029412527  0.028864902            5 
 1423000     0.676928   -6.0946043    500.95436  0.029336751  0.028845513            6 
 1424000   0.69352902   -6.0682653    501.93133  0.029373322  0.028826195           13 
 1425000   0.68032724   -6.0879243    501.36757  0.029319741  0.028806922           17 
 1426000   0.68018721   -6.0389759    502.17723  0.029346495  0.028787659           12 
 1427000   0.67893607   -6.0836456    500.91513  0.029252227  0.028768347           17 
 1428000   0.69903405   -6.0972146    502.04783  0.029297842  0.028748973            9 
 1429000   0.67686884   -6.0862015    500.21707  0.029170578  0.028729616            8 
 1430000   0.68341842   -6.0989583    500.88768  0.029189259  0.028710229           10 
 1431000   0.68246383   -6.0901699    500.91035  0.029170181  0.028690817           15 
 1432000   0.67182291   -6.1235812    499.91144  0.029091681  0.028671274           17 
 1433000   0.67801446   -6.1140664    500.87389  0.029127349  0.028651774            7 
 1434000   0.68037587   -6.0789892    502.16433  0.029182028  0.028632416           15 
 1435000    0.6579807   -6.0954232    500.42997  0.029060974  0.028613123            9 
 1436000   0.67095563   -6.0896219    501.14446  0.029082199  0.028593731           15 
 1437000   0.68970299   -6.1002878    499.76386  0.028981898  0.028574337            8 
 1438000   0.67647018   -6.1061126    500.82404  0.029023183  0.028554902            8 
 1439000    0.6675924   -6.1051582    501.99807  0.029071003  0.028535545            7 
 1440000    0.6877884   -6.0855767    501.80968  0.029039912  0.028516333           10 
 1441000   0.67680198   -6.1066842    501.02677  0.028974483  0.028497194           10 
 1442000   0.70590288    -6.115692    501.99397  0.029010285   0.02847802           17 
 1443000   0.67536991   -6.1302995    501.63725   0.02896958  0.028458674           27 
 1444000   0.67528797   -6.1084004    501.20905  0.028924807  0.028439274           10 
 1445000   0.66804767   -6.1125906    501.42024  0.028916969      0.02842           11 
 1446000    0.6687853   -6.1279905    500.23057   0.02882841   0.02840075           10 
 1447000   0.66677349    -6.105025    501.60929  0.028887888  0.028381478           12 
 1448000   0.67695749   -6.0948354    502.01926  0.028891532  0.028362223           14 
 1449000   0.68797806   -6.1188112    502.36446  0.028891446  0.028342918           10 
 1450000   0.66941376   -6.1253597    502.53382  0.028881254  0.028323654           24 
 1451000    0.6793441   -6.1269632    500.31023  0.028733645  0.028304236           16 
 1452000   0.66705599   -6.1236441    501.41048  0.028777002  0.028284819            7 
 1453000   0.67018735   -6.1315943    500.12306   0.02868336  0.028265499           26 
 1454000   0.67410436   -6.1489377    500.67313  0.028695158  0.028246134            9 
 1455000   0.67115319   -6.1104078    501.97347  0.028749912   0.02822678           12 
 1456000   0.67143928   -6.1348062     502.5079  0.028760754  0.028207415            9 
 1457000   0.66952254   -6.1455813    501.72327  0.028696137  0.028188055            9 
 1458000   0.68643883   -6.1280539    500.71237  0.028618677  0.028168768           15 
 1459000   0.67151345   -6.1266185    500.80777   0.02860451   0.02814954            6 
 1460000   0.67501708   -6.1420161    501.43166  0.028620529  0.028130216           13 
 1461000   0.68250111   -6.1768687    500.31219  0.028537086  0.028110774           28 
 1462000   0.66922368   -6.1145663    503.19942  0.028682138  0.028091369           13 
 1463000   0.67272382   -6.1231544    502.31736   0.02861229  0.028072076            8 
 1464000   0.67807617   -6.1478437    502.02288  0.028575983  0.028052802           21 
 1465000   0.65768712   -6.1229165    501.27559   0.02851397  0.028033563           18 
 1466000   0.67655162   -6.1513435    502.14364  0.028543863   0.02801439           21 
 1467000   0.67000607   -6.1333988    501.91023  0.028511147  0.027995108           16 
 1468000   0.66582414   -6.1224127    502.00872  0.028497316  0.027975942            6 
 1469000   0.66589916   -6.1278041    502.51525  0.028506652    0.0279568           26 
 1470000   0.65378001   -6.1457382    502.21383  0.028470172  0.027937612            7 
 1471000   0.66979299   -6.1454646    500.53481    0.0283557  0.027918344           14 
 1472000   0.67016375   -6.1399425     501.1576  0.028371694  0.027899057           13 
 1473000   0.68481966   -6.1206554    502.39697  0.028422548  0.027879829           11 
 1474000   0.66385445   -6.1282691    502.63391  0.028416661  0.027860753           15 
 1475000   0.65614825   -6.1319331    502.14462  0.028369753  0.027841673            9 
 1476000   0.67839569    -6.138545    502.75755  0.028385137  0.027822511           28 
 1477000   0.67232982   -6.1597375    501.27647  0.028282355  0.027803323           15 
 1478000   0.65876269   -6.1542494    502.19435  0.028314973  0.027783947           15 
 1479000   0.65997117   -6.1625652     500.4962  0.028200146  0.027764564           10 
 1480000   0.65377145   -6.1707665    500.88339  0.028202894  0.027745125           13 
 1481000   0.66486187   -6.1737289    501.24359  0.028204118  0.027725758           14 
 1482000   0.66147439   -6.1707048    502.06475  0.028231261  0.027706455           13 
 1483000   0.66114018   -6.1806551    501.07775  0.028156763  0.027687094           18 
 1484000   0.66069438   -6.1641021    501.82239  0.028179604  0.027667744           33 
 1485000   0.65189032   -6.1810121     501.5356  0.028144534  0.027648395           41 
 1486000   0.67571006   -6.1843319    501.27991  0.028111255  0.027629098           20 
 1487000   0.66226806   -6.1822898    501.04856  0.028079386  0.027609836           30 
 1488000   0.65255329   -6.1436755    502.34798  0.028133288  0.027590609           10 
 1489000   0.66664574   -6.1761524    501.11507  0.028045392  0.027571447           14 
 1490000   0.66534698   -6.1676333    501.81183  0.028065538   0.02755231            8 
 1491000   0.67087737   -6.1503015    502.48405  0.028084286  0.027533261           40 
 1492000   0.65478449   -6.1670487    503.00717  0.028094681   0.02751418           18 
 1493000   0.66183843   -6.1697189    502.00291   0.02801981   0.02749501            9 
 1494000   0.67327205   -6.1912657    501.70625  0.027984507   0.02747589           17 
 1495000   0.65771321   -6.1598994     501.3339  0.027945033  0.027456782           14 
 1496000   0.67113392   -6.1618549    502.03339  0.027965318   0.02743766           19 
 1497000   0.64842395   -6.1951837    501.79523   0.02793338  0.027418552           13 
 1498000   0.66106388   -6.1645924    500.73804  0.027855921  0.027399363           11 
 1499000    0.6693525   -6.1721221    501.70121  0.027890884  0.027380245           10 
 1500000   0.65583826   -6.1497847     502.9094  0.027939411  0.027361133           26 
 1501000   0.65459713   -6.1728516     502.7648  0.027912769   0.02734208           14 
 1502000   0.65110344   -6.1550787    504.37036  0.027983264    0.0273231           14 
 1503000   0.63778618   -6.1656853    502.43482  0.027857331  0.027304176            7 
 1504000   0.63553753   -6.1640836    503.00893  0.027870619  0.027285162           16 
 1505000   0.64614658   -6.1449677    502.54953  0.027826663  0.027266263           15 
 1506000   0.66201975   -6.1823864    502.20603  0.027789178  0.027247276           19 
 1507000   0.65681226   -6.1871642    502.66848  0.027796311  0.027228255           11 
 1508000   0.66784724   -6.1662601    502.40328  0.027763223  0.027209192           22 
 1509000   0.64567768   -6.1731674    502.30433   0.02773936  0.027190174           10 
 1510000   0.63588095   -6.1931051    502.02316  0.027705473  0.027171248           10 
 1511000   0.66541006   -6.1894068    501.90548  0.027680646  0.027152336            7 
 1512000   0.64315862   -6.1871432    502.13754  0.027675129  0.027133344           11 
 1513000   0.62796952   -6.1929224    503.25104  0.027718167  0.027114411           19 
 1514000   0.63751737   -6.1881768    502.94846  0.027683205  0.027095448           15 
 1515000   0.65714605   -6.1771146    502.55322  0.027643191  0.027076554           39 
 1516000    0.6380606   -6.1594401    502.70817  0.027633475  0.027057676           12 
 1517000   0.64768529   -6.1666285    503.87759  0.027679498  0.027038892           18 
 1518000   0.65053655   -6.1607322    503.91543  0.027663342  0.027020056           13 
 1519000   0.64235338   -6.1545468    503.62174  0.027629018   0.02700128           28 
 1520000   0.64811829   -6.1717337    502.93511  0.027573197   0.02698248           18 
 1521000   0.65271205   -6.2225483    502.25634   0.02751788  0.026963605           12 
 1522000   0.64769804   -6.1981754    502.00506  0.027486042  0.026944781            7 
 1523000   0.63915474   -6.1960562    502.48507  0.027494259  0.026925958           11 
 1524000   0.64538238   -6.1952768    503.05767  0.027507528   0.02690714           18 
 1525000   0.65358031   -6.1814208    504.68748  0.027578551   0.02688848           16 
 1526000   0.63708819   -6.1625518    503.77015  0.027510384  0.026869868           12 
 1527000   0.64824525   -6.2082575    503.14311  0.027458148   0.02685125           11 
 1528000   0.65352452   -6.2161817    503.44225  0.027456493  0.026832624           14 
 1529000    0.6518771    -6.216187    504.34753  0.027487875  0.026814045           32 
 1530000   0.63582072   -6.2004113     504.6006  0.027483693  0.026795343           15 
 1531000   0.63882266   -6.1699151    504.94091  0.027484265  0.026776804           30 
 1532000   0.63735311   -6.2054644     503.3843  0.027381653  0.026758212           13 
 1533000   0.62187869   -6.1808424    504.56901  0.027428192  0.026739696           16 
 1534000   0.63889658   -6.1822801    503.21511  0.027336762   0.02672109           37 
 1535000   0.64133442   -6.2139037    503.39693  0.027328824  0.026702455           22 
 1536000   0.63342565   -6.2065831    503.73317  0.027329274  0.026683766           27 
 1537000   0.62170072   -6.2196563    503.53926  0.027300979   0.02666509           22 
 1538000   0.63681657    -6.216883    504.20254  0.027319166  0.026646454           17 
 1539000   0.64432963   -6.1901945    503.21503  0.027247944  0.026627945            8 
 1540000   0.65585955   -6.2145576    502.66758  0.027200627  0.026609363            6 
 1541000   0.63952564   -6.1948196    503.56038  0.027231256   0.02659086           16 
 1542000   0.64088472   -6.2147214       503.65  0.027218439  0.026572206           16 
 1543000   0.63346593   -6.2167408    502.50069  0.027138728  0.026553612           32 
 1544000   0.65403805    -6.227895    503.60908  0.027180973  0.026535011           29 
 1545000    0.6287281   -6.2072235     503.5164  0.027158382  0.026516458           17 
 1546000   0.63104124   -6.2231701    504.82065  0.027211117  0.026497897           21 
 1547000   0.63419037   -6.2200763    504.66331  0.027185052  0.026479451           21 
 1548000   0.64328633   -6.2132618    502.82515  0.027068538  0.026460988           31 
 1549000   0.63006334   -6.2072421    504.61432  0.027147317  0.026442595           16 
 1550000   0.63951535   -6.2160313     504.0426  0.027099064  0.026424118           36 
 1551000   0.63329371   -6.2098784    504.00694  0.027079676  0.026405629           22 
 1552000   0.63921763   -6.2115389    503.10138  0.027013605  0.026387136           15 
 1553000   0.62079353    -6.227926    504.09016  0.027049268  0.026368593           14 
 1554000   0.64784211   -6.2372769    503.46157  0.026998154  0.026350084           13 
 1555000   0.62344209   -6.2139873    503.70668  0.026993927  0.026331678           13 
 1556000   0.62661179   -6.1893196    505.39735  0.027067124  0.026313212           15 
 1557000   0.62465405   -6.2216591    504.87078  0.027021557  0.026294775           19 
 1558000   0.60899099   -6.1955664     504.0846  0.026962163  0.026276387           22 
 1559000   0.63435716   -6.2341559    504.92648   0.02698987   0.02625811           20 
 1560000   0.62549764   -6.2269506    503.81634  0.026913266  0.026239746           23 
 1561000   0.63223405   -6.2542772    503.64384  0.026886816  0.026221278           27 
 1562000   0.63146573   -6.2391975    501.92353  0.026777824  0.026202795           22 
 1563000   0.63898831   -6.2369489    503.17546   0.02682744  0.026184322           10 
 1564000   0.63220938   -6.2375465      503.881   0.02684788  0.026165806           29 
 1565000   0.61977922   -6.2306316    504.78187  0.026878694  0.026147319           18 
 1566000   0.62715349   -6.2417873    504.00866  0.026820384  0.026128953           30 
 1567000   0.64139732   -6.2295776    504.25085  0.026816148  0.026110639           18 
 1568000   0.62948716    -6.242846    504.55585  0.026815256  0.026092329           18 
 1569000    0.6359146   -6.2325665    504.76273  0.026809153  0.026073997            9 
 1570000   0.62190146   -6.2269801    504.95631  0.026802352  0.026055736           14 
 1571000   0.61658243   -6.2137812    504.23957  0.026747272  0.026037392           42 
 1572000   0.62595308   -6.2319805    503.50489  0.026691311  0.026019043           39 
 1573000   0.61782843   -6.2473623    503.45716  0.026671814  0.026000641           25 
 1574000   0.62238775   -6.2314077    503.86767  0.026676602  0.025982166           24 
 1575000   0.63100121   -6.2542186    504.43997  0.026689946    0.0259637           25 
 1576000   0.62954935   -6.2533097    502.91589  0.026592422  0.025945208           29 
 1577000   0.62752767   -6.2430218    503.43231  0.026602849  0.025926742           11 
 1578000    0.6257291    -6.250871    503.67231  0.026598664  0.025908289           25 
 1579000   0.62773133   -6.2476213    504.19184  0.026609238    0.0258899           16 
 1580000   0.61510512   -6.2645758    502.61761  0.026509367  0.025871437           15 
 1581000   0.62022424   -6.2580031    502.58935  0.026491111  0.025852897           16 
 1582000   0.60884592   -6.2537622    504.88912  0.026595508  0.025834526           25 
 1583000    0.6088523   -6.2638989    503.88265  0.026525724  0.025816146           17 
 1584000   0.62812213   -6.2586043    503.38047  0.026482558    0.0257977           19 
 1585000   0.62665368   -6.2598627     502.3357   0.02641092  0.025779289           19 
 1586000   0.61216451   -6.2457108    503.18561  0.026438925  0.025760867            9 
 1587000    0.6089802   -6.2861763    502.34317  0.026378028  0.025742452           12 
 1588000   0.60606443   -6.2743019    503.84414  0.026440183  0.025724044            7 
 1589000   0.61549773   -6.2723389    503.45156  0.026402956  0.025705664           16 
 1590000   0.61997947   -6.2623387    502.51996  0.026337524   0.02568727           15 
 1591000   0.61815567   -6.2581953    503.41473  0.026367836  0.025668895           21 
 1592000   0.61479639   -6.2545299    503.56256  0.026359012  0.025650587            8 
 1593000   0.61753078   -6.2590817    503.62401  0.026345679  0.025632319           17 
 1594000   0.61987379   -6.2578541    503.50525  0.026322943  0.025614014           32 
 1595000   0.61635475   -6.2688189    503.94138  0.026329226  0.025595765           38 
 1596000   0.61982593    -6.282291    503.73564  0.026301986  0.025577482            9 
 1597000   0.63282504   -6.2547902    505.11564  0.026357527  0.025559246           12 
 1598000   0.61994593   -6.2794091    503.54601  0.026259178   0.02554102           52 
 1599000   0.61158061   -6.2388592    504.73743  0.026304848   0.02552282           23 
 1600000    0.6121884   -6.2501875    503.24319  0.026210583  0.025504613           10 
 1601000   0.62049401   -6.2696006    503.30132  0.026197237  0.025486434           22 
 1602000   0.62660376   -6.2688546    503.54236  0.026193423  0.025468204           22 
 1603000   0.62276573   -6.2716131    503.77302  0.026189073   0.02545005           31 
 1604000    0.6186599   -6.2665723    504.09448  0.026189447  0.025431884           11 
 1605000   0.61661153   -6.2633472    504.19365  0.026178279  0.025413759           18 
 1606000   0.61317892   -6.2686982    503.98501  0.026151152  0.025395612           30 
 1607000   0.61200253   -6.2647377    504.15974   0.02614394   0.02537751           23 
 1608000   0.59972787   -6.2576125    504.92595   0.02616739  0.025359514           12 
 1609000   0.61724955   -6.2690491      504.449  0.026126424  0.025341582           30 
 1610000   0.60554949   -6.2672051    505.64228   0.02617196  0.025323623           36 
 1611000   0.61925545   -6.2887448    504.99515   0.02612224  0.025305665           27 
 1612000   0.60268629    -6.284957    503.25514  0.026016085  0.025287676           32 
 1613000   0.61124251   -6.2738181    505.19294  0.026100069  0.025269672           24 
 1614000   0.62820226    -6.299242    503.88905  0.026016576  0.025251547           22 
 1615000   0.59639745   -6.2923824    503.98243  0.026005285  0.025233438           20 
 1616000   0.60680287   -6.2929861    503.78793  0.025979163  0.025215332           20 
 1617000   0.60210355   -6.2953868    503.37016  0.025941567    0.0251973           34 
 1618000   0.61981376   -6.2873138    503.79905  0.025947623  0.025179206           35 
 1619000   0.60831535    -6.300583    503.75663  0.025929413  0.025161091           28 
 1620000   0.60271684    -6.286724    503.08515  0.025878866  0.025143032           45 
 1621000   0.60755328   -6.3093394    502.87296  0.025851993  0.025124914           22 
 1622000   0.61052406   -6.2806904    502.68799  0.025826551  0.025106771           19 
 1623000   0.60063079   -6.2847621    504.04813  0.025880475   0.02508866           15 
 1624000   0.60898152   -6.3225152    503.26483  0.025824345  0.025070572           19 
 1625000   0.60879693   -6.3155536    502.69197  0.025779075  0.025052501           30 
 1626000   0.60790688   -6.3280526    502.63179  0.025760137  0.025034389           32 
 1627000   0.60226522   -6.2959401    502.32921  0.025728806    0.0250162           12 
 1628000   0.60133357   -6.3108128    502.95006  0.025744782  0.024998111           46 
 1629000   0.60069356   -6.3016128    502.80708  0.025721663  0.024980031           44 
 1630000   0.59611128   -6.3110489    503.22452  0.025727225  0.024961949           23 
 1631000   0.60798973   -6.3091873    503.16252  0.025708283  0.024943918           26 
 1632000   0.60490191   -6.2962876    503.55167  0.025712401  0.024925862           46 
 1633000   0.59235882   -6.3068893    504.17674  0.025728554  0.024907834           75 
 1634000   0.59662126   -6.3320597    501.36835  0.025569581  0.024889749           71 
 1635000   0.60880753   -6.3157036    504.67514  0.025722484  0.024871665           46 
 1636000   0.60525729   -6.3262536    503.15255  0.025629205  0.024853626           44 
 1637000   0.60577799   -6.3234845    502.75974  0.025593552   0.02483566           64 
 1638000    0.6037231   -6.3169223    503.45794  0.025613449   0.02481766           36 
 1639000   0.59877141   -6.3101341    503.28457  0.025589006  0.024799699           48 
 1640000    0.5965421   -6.3105677    502.19611  0.025518095  0.024781765           25 
 1641000   0.60817114   -6.3473426    502.65274  0.025525733  0.024763805           29 
 1642000   0.59944722   -6.3189582     503.1331  0.025534567   0.02474586           28 
 1643000    0.5963866   -6.3069803    503.10294  0.025517496  0.024727985           60 
 1644000   0.60015285   -6.2983984    504.25881  0.025560564  0.024710082           41 
 1645000   0.59467374   -6.3211834    503.64588  0.025513976  0.024692206           64 
 1646000   0.60467768   -6.3417436    503.37064   0.02548454  0.024674303           89 
 1647000   0.59816994   -6.3385779    501.73621   0.02538637   0.02465643           60 
 1648000   0.58786988   -6.3093711    503.71204  0.025470876  0.024638551           77 
 1649000   0.60529333   -6.3532615    502.45696  0.025392003  0.024620638           33 
 1650000   0.59659422   -6.3408383    502.67773  0.025387764  0.024602757           96 
 1651000   0.57635086   -6.3323147    502.30428  0.025353537  0.024584886           25 
 1652000    0.5847761   -6.3386701    502.95504  0.025371017   0.02456697           57 
 1653000    0.6011776   -6.3380632    502.59869  0.025337703   0.02454914          102 
 1654000   0.59739304   -6.3124248    502.87322  0.025336216   0.02453128           56 
 1655000   0.59065532   -6.3316614    502.81126  0.025317788  0.024513448           33 
 1656000   0.60350561   -6.3494217    501.96885  0.025260107  0.024495612          162 
 1657000   0.59541632    -6.338241     502.0196  0.025247415  0.024477817           28 
 1658000   0.59547286    -6.326845    504.50365  0.025357039  0.024460037           49 
 1659000   0.59373267   -6.3446942    503.14131  0.025273323  0.024442289           33 
 1660000   0.58648761   -6.3144112    503.28853  0.025265488  0.024424521           28 
 1661000   0.58847125   -6.3349569    503.81771  0.025276827  0.024406736           30 
 1662000   0.59977764   -6.3042973     503.4919  0.025245282  0.024388958           31 
 1663000   0.57908648   -6.3230638    502.23454  0.025167094  0.024371171           42 
 1664000   0.58672751   -6.3418496    502.61643  0.025171095  0.024353383           22 
 1665000   0.57597451   -6.3228891    503.33263  0.025191823  0.024335548           38 
 1666000   0.58843995   -6.3157024    503.13328  0.025166731  0.024317821           38 
 1667000   0.57939268   -6.3382382    500.83626  0.025036805  0.024299987           46 
 1668000   0.60067663   -6.3714406    501.53764  0.025056836  0.024282183           82 
 1669000   0.59293715    -6.355032    502.50674  0.025090211  0.024264423           46 
 1670000   0.56931878   -6.3641712    502.86722  0.025093175  0.024246633           50 
 1671000   0.57919302   -6.3357516    502.13573  0.025041678  0.024228899           40 
 1672000   0.57300782   -6.3521088    501.47896  0.024993967  0.024211149           24 
 1673000   0.59987139   -6.3465721    503.45717  0.025077564  0.024193455           41 
 1674000   0.59230259   -6.3570305    502.18959  0.024999482  0.024175742           33 
 1675000   0.58742568   -6.3441006    501.34352  0.024942464  0.024158037           42 
 1676000   0.58452351   -6.3316774    502.76856  0.024998437  0.024140308           39 
 1677000   0.58751335   -6.3528414    502.35995  0.024963226  0.024122617           34 
 1678000    0.5753468   -6.3525343    504.15515  0.025037503  0.024104957           35 
 1679000   0.57638296   -6.3646406    501.72805  0.024902127  0.024087241           58 
 1680000   0.57941526   -6.3719406     501.6884  0.024885337  0.024069462           52 
 1681000   0.57551712   -6.3730349    501.90879  0.024881459  0.024051707           57 
 1682000   0.57489996   -6.3592932    502.84539  0.024913069  0.024034014           32 
 1683000   0.57610618   -6.3492042    501.65131  0.024839142  0.024016332           43 
 1684000   0.59769624   -6.3401104    503.13914  0.024898018  0.023998696           40 
 1685000   0.58290285   -6.3221148    502.61234  0.024857188  0.023981072           34 
 1686000    0.5672074   -6.3653129    501.52463  0.024788683  0.023963397           32 
 1687000    0.5750055   -6.3606214    501.06988  0.024751526  0.023945741           23 
 1688000   0.57583368   -6.3434673    502.56266  0.024810558  0.023928091           55 
 1689000   0.60113642   -6.3516132    502.26973  0.024781415   0.02391047           18 
 1690000   0.58210467   -6.3547778    502.20779  0.024763698  0.023892867           12 
 1691000   0.57720924     -6.36566    501.86564  0.024732192  0.023875251           34 
 1692000   0.56921873   -6.3784766     501.9558  0.024722015  0.023857632           64 
 1693000   0.58909893   -6.3744637    501.23713  0.024672038  0.023840002           50 
 1694000   0.57768154   -6.3964555    501.37493  0.024664253  0.023822422           33 
 1695000   0.57570505   -6.3718189    502.74646  0.024717132  0.023804851           29 
 1696000   0.57407263   -6.3529054    502.03847  0.024667771  0.023787263           29 
 1697000   0.58800788   -6.3557199    501.89592  0.024646235  0.023769716           42 
 1698000   0.58041728   -6.3901272    501.44318  0.024609501  0.023752186           43 
 1699000   0.58162421   -6.4023936    501.49493  0.024597554  0.023734664           41 
 1700000   0.57570985   -6.3675663    502.23802  0.024619511  0.023717162           41 
 1701000   0.55846939   -6.3631011    500.80282  0.024534726  0.023699657           32 
 1702000   0.57284698   -6.3774787    502.19452  0.024588451  0.023682121           50 
 1703000   0.57985186    -6.388684    501.45241  0.024537699  0.023664556           44 
 1704000    0.5795492    -6.380658    502.06978  0.024553491  0.023647023           30 
 1705000   0.56791585   -6.3833268    502.44709  0.024557531  0.023629523           51 
 1706000   0.56614959   -6.3799399    500.45053   0.02444561  0.023612017           32 
 1707000   0.56127945   -6.3759849      501.747  0.024494581  0.023594596           31 
 1708000   0.57035611   -6.3683558    502.12455   0.02449866  0.023577147           22 
 1709000   0.56289852   -6.4042426    500.71287   0.02441549  0.023559669           37 
 1710000   0.56956306   -6.3806486    502.56877  0.024491655  0.023542219           52 
 1711000   0.54955932   -6.4026649    500.36391  0.024369955  0.023524731           36 
 1712000   0.58505826   -6.3989682    500.77711  0.024375833  0.023507231           64 
 1713000    0.5719843   -6.3998532    499.51403  0.024300157  0.023489783           28 
 1714000   0.56852436   -6.3993622    501.08113  0.024362171  0.023472318          106 
 1715000   0.55561891    -6.386077    501.46276  0.024366509  0.023454869           44 
 1716000   0.57407406   -6.4160236    500.66391  0.024313515  0.023437445           56 
 1717000   0.56656628   -6.4114275    500.97166  0.024314291  0.023420014           69 
 1718000   0.56909141   -6.4078267    501.70277  0.024335602  0.023402583           84 
 1719000   0.56650509    -6.414311    500.76973  0.024276213  0.023385145          115 
 1720000   0.56409734   -6.4257282    500.62087  0.024254887  0.023367699           59 
 1721000   0.55835486   -6.4152282    500.77364  0.024248191  0.023350281           24 
 1722000   0.57213591   -6.4107563    500.40609  0.024216323  0.023332924           98 
 1723000   0.56207435   -6.4073839    500.06795  0.024185914  0.023315557           58 
 1724000   0.56996273   -6.4225198    501.59306  0.024245604  0.023298227           85 
 1725000    0.5679672   -6.4183454    501.16254  0.024210751  0.023280892           60 
 1726000   0.55648671   -6.4127423    501.49457  0.024212754  0.023263568           56 
 1727000   0.56446761   -6.4036982    500.22642  0.024137542  0.023246253           87 
 1728000   0.56834699   -6.3934142    501.73783  0.024196462  0.023228974           60 
 1729000   0.57520103   -6.3996003    500.61793  0.024128491  0.023211699           76 
 1730000   0.56998571   -6.4351023    501.02987  0.024134387  0.023194378           54 
 1731000   0.55582748   -6.4187365    500.67921  0.024103563  0.023177074           72 
 1732000   0.55661016   -6.3933797     500.6922  0.024090271  0.023159855           74 
 1733000   0.57081714   -6.4002733    501.18818   0.02410022  0.023142614           89 
 1734000   0.56190117   -6.4061119    500.64938  0.024060428  0.023125445           72 
 1735000   0.57045104   -6.3928795    500.83536  0.024055493  0.023108231           56 
 1736000   0.56763891   -6.4111842    500.14372  0.024008435  0.023090986           84 
 1737000   0.55756935    -6.415057    501.10861  0.024040904  0.023073799           25 
 1738000   0.55011341    -6.437119    500.27854  0.023987272  0.023056618           45 
 1739000   0.56155791   -6.4064063    500.88255  0.024002423  0.023039439          113 
 1740000   0.55805304   -6.4350061    500.29125  0.023960309   0.02302225           97 
 1741000   0.55844379   -6.4128968     500.8998  0.023975675  0.023005138          172 
 1742000   0.54701134   -6.4156813    501.80605  0.024005264  0.022988012          175 
 1743000   0.55601069   -6.4121974    500.25428  0.023917302  0.022970882          111 
 1744000   0.56392896   -6.4248225     500.9796  0.023938245  0.022953748          182 
 1745000   0.55901995   -6.4188343    501.06675  0.023928689  0.022936577          203 
 1746000   0.55055347    -6.428087    500.92534  0.023908235  0.022919441          196 
 1747000   0.55397577   -6.4417447    500.98594  0.023897441  0.022902358           94 
 1748000   0.54853725   -6.4263963    500.76921  0.023873437  0.022885277          176 
 1749000   0.55178177   -6.4166365    499.95865  0.023821167  0.022868157          233 
 1750000   0.56792953   -6.4312236    500.22865  0.023820412  0.022851076          192 
 1751000   0.55248589   -6.4345168    500.70189   0.02382933  0.022833979          267 
 1752000   0.55515938   -6.4154043    499.94168   0.02377957  0.022816911          224 
 1753000   0.55119769    -6.436751    499.31733  0.023736325  0.022799858          206 
 1754000   0.53959348   -6.3979075    500.23754  0.023766512  0.022782803          212 
 1755000   0.56334139   -6.4335476    499.64798  0.023724976  0.022765772          180 
 1756000   0.55551559   -6.4364229    501.44468  0.023796729  0.022748745          168 
 1757000   0.55424606    -6.432544    500.41176  0.023734195  0.022731748          179 
 1758000   0.55311712   -6.4381888     499.3246   0.02366916  0.022714757          233 
 1759000   0.55889152   -6.4408394    500.58626  0.023715476  0.022697745          224 
 1760000   0.54900369   -6.4242276    500.42863  0.023694538  0.022680787          145 
 1761000   0.55081448   -6.4279337    501.16231  0.023715801  0.022663773          201 
 1762000   0.55333575   -6.4407902    499.94112  0.023644586  0.022646822          224 
 1763000   0.54639909   -6.4294139    500.31437  0.023648817  0.022629898          102 
 1764000   0.55346455   -6.4445581    499.78545  0.023610424  0.022612904           99 
 1765000    0.5301396   -6.4209574    499.95286  0.023604951  0.022595946          263 
 1766000   0.55576425   -6.4338659    500.64583  0.023624284  0.022579042          136 
 1767000   0.54678109   -6.4311523    499.61355  0.023562231  0.022562126          172 
 1768000    0.5516429   -6.4404854    499.95873  0.023565174  0.022545226          222 
 1769000   0.54463757   -6.4609639    500.68933   0.02358627  0.022528336          310 
 1770000   0.53727452   -6.4482863    500.33941   0.02355647  0.022511473          219 
 1771000   0.54339849   -6.4409293     500.6274  0.023556719  0.022494657          189 
 1772000   0.55094816   -6.4433575    501.21817  0.023571208  0.022477861          226 
 1773000   0.54669039   -6.4435312    500.14767  0.023507599   0.02246102          268 
 1774000   0.52895786   -6.4364023    499.47568  0.023462781  0.022444207          149 
 1775000   0.54192192    -6.462138    499.78976  0.023464308  0.022427384          220 
 1776000   0.53399181   -6.4392454    500.33633  0.023476742   0.02241055          309 
 1777000   0.54747466    -6.453205    500.02067  0.023448728  0.022393751          123 
 1778000   0.54714754   -6.4479466    500.04126  0.023436504  0.022376973          207 
 1779000   0.55072545   -6.4424917    499.48744  0.023397388   0.02236017          147 
 1780000   0.52737402   -6.4690196    498.68266  0.023346567  0.022343378          122 
 1781000   0.53418347   -6.4599731     500.7623  0.023430765  0.022326575          204 
 1782000   0.54697265   -6.4741378    499.88047  0.023376378  0.022309764          140 
 1783000   0.55097285   -6.4550375    499.38239  0.023339988  0.022293004           71 
 1784000   0.54086314   -6.4558455    499.07438  0.023312518  0.022276236          150 
 1785000   0.54618555    -6.464666    499.42171  0.023315673  0.022259471          102 
 1786000   0.53650355   -6.4696645    500.39047   0.02334782  0.022242734           97 
 1787000    0.5484412   -6.4796001    499.09661  0.023274417  0.022225954          168 
 1788000   0.53540532   -6.4810353    499.60572  0.023285129  0.022209192          104 
 1789000   0.54872109   -6.4669179     499.5148  0.023267878  0.022192431          106 
 1790000   0.53915594   -6.4683364    499.58522  0.023258158  0.022175704          258 
 1791000   0.54200614   -6.4648708    500.27261  0.023277155  0.022159015          106 
 1792000   0.53681847   -6.4625872    499.25595  0.023216888  0.022142301          155 
 1793000   0.54488682   -6.4556313    498.44745  0.023166362   0.02212563          173 
 1794000   0.53530227   -6.4633908    499.01067  0.023179611  0.022108929           78 
 1795000   0.53193962   -6.4858902    499.37301   0.02318352  0.022092275          220 
 1796000   0.54218718   -6.4765555    499.07276   0.02315668  0.022075606          258 
 1797000   0.54255503   -6.4847796    499.29226  0.023153972  0.022058958          195 
 1798000   0.54155085   -6.4781917    498.47051  0.023103008  0.022042326          295 
 1799000   0.52509347   -6.4727248    498.94038  0.023111931  0.022025657          252 
 1800000   0.54495988   -6.4849376    498.90973  0.023097673  0.022009013          261 
 1801000   0.54687159    -6.481976    498.99325  0.023088712  0.021992382          284 
 1802000   0.52495457   -6.4726397     499.1294  0.023082196  0.021975757          272 
 1803000   0.52821067   -6.4719539    499.30398  0.023077463  0.021959145          157 
 1804000   0.53368624   -6.4747158    499.43459  0.023070703  0.021942545          122 
 1805000   0.53416044   -6.4851396    498.74056   0.02302588  0.021925968          223 
 1806000   0.53599347   -6.4899583    498.29314  0.022992485  0.021909397          208 
 1807000   0.54110049   -6.5032626     497.8828  0.022960838  0.021892821          283 
 1808000   0.53150606   -6.5019662    499.38064  0.023017175   0.02187626          253 
 1809000   0.53846953   -6.4941676    499.63992  0.023016396  0.021859703          250 
 1810000   0.52103786   -6.4797806    498.28335  0.022941222  0.021843128          271 
 1811000     0.528418   -6.5048162     498.1323  0.022921604  0.021826586          263 
 1812000   0.52489099   -6.5105905    497.78901  0.022893166  0.021810021          278 
 1813000   0.53158886    -6.504132    497.23523  0.022855085  0.021793433          328 
 1814000   0.52313407   -6.5122165    498.40866  0.022896392   0.02177686          299 
 1815000   0.51985562    -6.504106    499.00251  0.022911043   0.02176033          243 
 1816000   0.53441925   -6.4991537    498.41551   0.02287149  0.021743803          284 
 1817000   0.53104876   -6.5086108    497.27769  0.022806718  0.021727281          287 
 1818000   0.52800813    -6.519344    497.59591   0.02280876  0.021710776          282 
 1819000   0.53359436   -6.5059399    497.80676   0.02280588  0.021694262          288 
 1820000   0.52491937   -6.5023392    497.71684  0.022789233  0.021677773          311 
 1821000   0.52510436   -6.5093574    497.61489  0.022772053  0.021661288          251 
 1822000   0.53353384   -6.4997727    497.80278  0.022768148  0.021644802          248 
 1823000   0.52652819   -6.5108487    497.60668  0.022746694  0.021628344          304 
 1824000   0.51936275   -6.5120202    498.00823  0.022752569  0.021611879          332 
 1825000   0.53548347   -6.5246635    498.88772  0.022780261  0.021595433          436 
 1826000   0.52145799   -6.5146902    497.40187  0.022699976  0.021579004          453 
 1827000   0.52381653   -6.5140257    497.99148  0.022714444  0.021562579          400 
 1828000   0.52334113   -6.5319392    497.60174  0.022684252  0.021546138          370 
 1829000   0.54758692   -6.5281821    497.24249  0.022655481   0.02152974          514 
 1830000   0.52110679   -6.5019901    497.95747  0.022675659  0.021513364          439 
 1831000   0.53146858    -6.515811    496.87448  0.022613985  0.021496972          406 
 1832000   0.52185976   -6.5121408    497.71717  0.022639973  0.021480615          403 
 1833000   0.52529989   -6.5140698    498.70283  0.022672433  0.021464295          322 
 1834000   0.51388018   -6.5174509    497.31103   0.02259683  0.021447967          307 
 1835000   0.52772348   -6.5076296    498.84601  0.022654224  0.021431693          375 
 1836000    0.5308716   -6.5430436    498.05464  0.022605966  0.021415428          491 
 1837000   0.50582664   -6.5232305    497.12234  0.022551367  0.021399108          326 
 1838000   0.51030156   -6.5217033    497.34924  0.022549385  0.021382814          329 
 1839000   0.52998098   -6.5495538    497.16936  0.022528972   0.02136652          393 
 1840000   0.52073949   -6.5368449    497.01889  0.022509913  0.021350214          359 
 1841000   0.52290741    -6.553946    496.95654  0.022494864  0.021333922          416 
 1842000   0.52460255   -6.5307887    496.29499  0.022452723  0.021317646          319 
 1843000   0.51969227   -6.5504644    496.38054  0.022444409  0.021301345          388 
 1844000   0.52794423   -6.5309114    497.06542  0.022463188  0.021285058          420 
 1845000   0.51305359   -6.5432726    497.35295     0.022464  0.021268826          417 
 1846000    0.5083502   -6.5446318    496.21585  0.022400499  0.021252595          323 
 1847000   0.53078662   -6.5373939    497.78566  0.022459198  0.021236373          318 
 1848000   0.51554374   -6.5451541    497.80256  0.022447806  0.021220205          383 
 1849000   0.51472525   -6.5450186    497.12207  0.022404997  0.021204043          466 
 1850000    0.5076397   -6.5426333    498.41792  0.022451258  0.021187908          397 
 1851000   0.52608287    -6.532448    496.65565   0.02235979  0.021171788          418 
 1852000   0.50634821   -6.5456992    497.12195  0.022368698  0.021155674          482 
 1853000   0.51730727   -6.5366999     497.0017  0.022351219  0.021139565          482 
 1854000   0.51421319   -6.5356424    497.33896  0.022354322  0.021123453          446 
 1855000   0.51258819   -6.5297469    497.43209  0.022346455  0.021107373          431 
 1856000   0.50753521   -6.5500622    495.92896  0.022266925  0.021091285          375 
 1857000   0.52225141   -6.5480033    496.79545  0.022293818  0.021075224          318 
 1858000   0.51020726   -6.5296102    497.16826  0.022298541   0.02105918          442 
 1859000   0.51452451   -6.5512301    497.19125  0.022287576  0.021043137          519 
 1860000   0.51164935   -6.5498655    496.71865   0.02225442  0.021027099          403 
 1861000    0.5222143   -6.5239141    497.22231  0.022265015  0.021011079          361 
 1862000   0.50682936   -6.5487598    497.14607  0.022249645  0.020995075          511 
 1863000   0.49960085   -6.5465772    497.02605  0.022232334  0.020979096          535 
 1864000   0.51218167   -6.5702142    496.34673  0.022190036  0.020963096          499 
 1865000   0.51355494   -6.5467214    497.49107   0.02222927  0.020947112          566 
 1866000   0.50818565   -6.5548514    496.75988  0.022184703  0.020931152          673 
 1867000   0.51017529   -6.5456293    496.08898  0.022142876  0.020915187          564 
 1868000   0.49582793   -6.5505002    497.54878  0.022196145  0.020899244          493 
 1869000   0.50078675   -6.5538763    496.73792  0.022148115  0.020883337          696 
 1870000   0.50746989   -6.5410592    498.03765  0.022194191  0.020867449          678 
 1871000   0.50349754   -6.5529348    497.50982   0.02215882  0.020851567          609 
 1872000   0.50754884   -6.5433215    497.17387  0.022132028  0.020835707          660 
 1873000   0.50579222   -6.5422564    496.80738  0.022103906  0.020819838          586 
 1874000   0.50550442   -6.5563081    495.76963  0.022045964  0.020803962          649 
 1875000   0.51232902   -6.5186041    496.37819  0.022061253  0.020788142          433 
 1876000   0.50378347   -6.5659947    497.91817    0.0221179   0.02077232          442 
 1877000   0.51793102   -6.5586662    498.15862  0.022116792  0.020756543          404 
 1878000   0.48710774   -6.5518381    497.06594  0.022056529  0.020740772          465 
 1879000   0.50724878   -6.5389428    497.04907  0.022044043  0.020725011          391 
 1880000   0.49419071   -6.5536616    496.78067   0.02202042  0.020709259          568 
 1881000   0.49773351   -6.5613942    497.16139   0.02202558  0.020693497          382 
 1882000   0.49859175   -6.5514839    496.82056  0.021998785  0.020677804          549 
 1883000   0.50577183   -6.5686751     497.1313  0.022000854  0.020662082          537 
 1884000   0.50154948   -6.5602783     497.2879  0.021996103  0.020646375          364 
 1885000   0.50059904   -6.5673055    497.06759  0.021974695  0.020630693          429 
 1886000   0.50669407     -6.57047    498.10514  0.022008887  0.020615025          595 
 1887000   0.50661281   -6.5533239    496.79918   0.02193955  0.020599346          429 
 1888000   0.50557454   -6.5753611    496.48764  0.021914179  0.020583679          475 
 1889000   0.49968597   -6.5630388    496.98767  0.021924637  0.020568045          480 
 1890000    0.5046496   -6.5536929    496.09354  0.021873613  0.020552419          486 
 1891000     0.501217   -6.5580448    496.75958  0.021891397  0.020536813          422 
 1892000   0.49981071   -6.5553862    496.93635  0.021887612  0.020521242          331 
 1893000   0.48934353   -6.5897134    496.42435  0.021853511  0.020505663          504 
 1894000   0.49704211   -6.5805939     497.2162  0.021876813   0.02049007          522 
 1895000   0.49714561   -6.5684559    497.19131  0.021864174  0.020474481          509 
 1896000   0.50591995   -6.5483276    496.64607  0.021828677  0.020458926          441 
 1897000   0.49922271   -6.5687922    496.34298  0.021803856  0.020443385          553 
 1898000   0.49580756   -6.5788453    496.49819  0.021799183  0.020427845          650 
 1899000   0.49070671   -6.5531008    496.51473   0.02178843  0.020412292          637 
 1900000   0.48196299   -6.5693481    496.77145  0.021788221  0.020396764          637 
 1901000   0.49767127   -6.5876595    496.51262  0.021765414  0.020381246          650 
 1902000   0.49498599   -6.5750198    496.71593  0.021762878  0.020365733          539 
 1903000   0.48657419   -6.5791206     496.6275   0.02174757  0.020350272          653 
 1904000   0.47882663   -6.5832614    496.57944  0.021734044  0.020334797          596 
 1905000   0.49457757   -6.5705225    496.57145  0.021722285  0.020319349          584 
 1906000   0.49300816    -6.584278    496.02268  0.021686896  0.020303898          557 
 1907000   0.49750478   -6.5884336    496.84037  0.021711256  0.020288469          589 
 1908000   0.49036195   -6.5913372    496.91139  0.021702978  0.020273039          462 
 1909000   0.48656524   -6.6026124    496.13228  0.021657599  0.020257631          637 
 1910000   0.48158669   -6.5963649    496.40117  0.021657992  0.020242225          662 
 1911000   0.49207126   -6.5856665    496.64674  0.021657367  0.020226829          595 
 1912000   0.49660679   -6.5899308    496.74024  0.021650115  0.020211443          654 
 1913000   0.48822098   -6.5811802    497.17052  0.021657542  0.020196077          569 
 1914000   0.48224748   -6.5912675    496.25132  0.021606205  0.020180726          632 
 1915000   0.49551273   -6.5787096    495.93701  0.021581245  0.020165382          544 
 1916000   0.48867127    -6.573634    495.91312  0.021568942  0.020150073          586 
 1917000   0.49222706   -6.5961905    495.26605  0.021529562  0.020134726          639 
 1918000   0.48481715   -6.5856958    495.67958  0.021536304  0.020119393          682 
 1919000   0.49919446   -6.5915794    496.44906  0.021558496  0.020104077          561 
 1920000   0.49200515   -6.5865793    496.01034  0.021528227  0.020088777          589 
 1921000   0.49074496   -6.6078017    495.95569  0.021514649  0.020073476          694 
 1922000   0.48353982   -6.5881976     495.6814  0.021491563    0.0200582          680 
 1923000   0.49128415   -6.5908302    496.25295  0.021505155  0.020042936          674 
 1924000   0.47295863   -6.6050497    495.41101  0.021457511  0.020027692          687 
 1925000   0.48217375   -6.5920144    495.81256  0.021463747  0.020012444          662 
 1926000   0.48275219   -6.6067127    495.99226  0.021460378  0.019997214          737 
 1927000   0.47329149     -6.60127    495.36421  0.021422081  0.019982005          653 
 1928000    0.4856019   -6.5956348    495.88621  0.021433533  0.019966817          646 
 1929000   0.47746583   -6.5939796    495.46945  0.021404417  0.019951664          670 
 1930000   0.48064094    -6.606656    495.75162   0.02140551  0.019936518          597 
 1931000   0.49202287   -6.6087036    495.96716  0.021403727  0.019921363          720 
 1932000   0.48276921   -6.6024314    496.31157  0.021407504  0.019906228          742 
 1933000   0.48145345   -6.6055235    495.95317  0.021380978   0.01989109          658 
 1934000   0.48156193   -6.6141371    495.56841  0.021353344  0.019875971          699 
 1935000   0.48698338   -6.6292402    495.07874   0.02132122  0.019860856          730 
 1936000   0.48053612   -6.6109667    495.68836  0.021336448  0.019845748          615 
 1937000   0.47307482   -6.6096801    495.38544  0.021312401  0.019830641          733 
 1938000   0.47675006   -6.6100425    496.45863   0.02134755  0.019815552          710 
 1939000   0.47673522   -6.6183719    494.93304  0.021270975  0.019800468          739 
 1940000   0.47557019   -6.6204624    496.16693  0.021313012  0.019785406          590 
 1941000   0.47743456   -6.6068619    495.29121  0.021264435  0.019770372          693 
 1942000   0.47317758   -6.5887392    496.56271  0.021308046  0.019755366          750 
 1943000   0.47622654   -6.6097987    495.76452  0.021262846  0.019740403          760 
 1944000    0.4794547   -6.6025321    496.06155  0.021264641  0.019725443          698 
 1945000   0.47601306   -6.6087274    495.74027  0.021239943  0.019710499          678 
 1946000   0.47617104   -6.6073607    495.59511  0.021222812  0.019695508          706 
 1947000   0.46605608   -6.6333078    495.52223  0.021208793  0.019680525          816 
 1948000   0.48509389   -6.6297751    495.36229  0.021191063  0.019665544          789 
 1949000   0.46813584   -6.6212364    495.23405  0.021174707  0.019650576          846 
 1950000   0.47119021   -6.6436623    494.85211  0.021147526  0.019635624          854 
 1951000   0.47030373   -6.6153512    494.49929  0.021121617  0.019620673          890 
 1952000   0.46480013   -6.6352062    494.84818  0.021125691   0.01960575          845 
 1953000   0.47043678   -6.6211045    496.39381  0.021180825  0.019590833          879 
 1954000   0.47597057   -6.6447067    495.10227  0.021114904  0.019575927          763 
 1955000   0.48436877   -6.6345386     495.4172  0.021117528  0.019561031          775 
 1956000    0.4805128   -6.6217008    495.71471  0.021119407   0.01954616          738 
 1957000   0.48253927   -6.6311316    494.18664  0.021043546  0.019531306          810 
 1958000   0.46983806   -6.6213568    494.55504  0.021048478  0.019516446          900 
 1959000   0.46789528   -6.6311517    495.92599  0.021096052  0.019501608          834 
 1960000   0.48528796   -6.6275447    495.48435  0.021066512   0.01948678          900 
 1961000   0.47185038   -6.6318251    495.58444  0.021060022   0.01947197          767 
 1962000    0.4781997    -6.644698    495.33116   0.02103853  0.019457164          878 
 1963000   0.46412955   -6.6255584    495.21992   0.02102309  0.019442392          965 
 1964000   0.47193447   -6.6289643    495.03187  0.021004407  0.019427605          920 
 1965000   0.47282226   -6.6491309    494.04347  0.020951801   0.01941283          971 
 1966000   0.46655209   -6.6257905    494.99972  0.020981677  0.019398059          907 
 1967000   0.46220352   -6.6282355    494.41181  0.020946103  0.019383318          777 
 1968000     0.458845   -6.6422313    494.88016  0.020955291  0.019368548          886 
 1969000   0.47069749   -6.6386758    494.96949   0.02094843  0.019353802          957 
 1970000   0.47121433     -6.63417    493.87924  0.020891677  0.019339082          868 
 1971000    0.4757215   -6.6321218    495.71756  0.020958801  0.019324369          851 
 1972000   0.46152484    -6.631809    494.86066  0.020911962  0.019309673          864 
 1973000    0.4677722   -6.6369895    494.46642  0.020884711  0.019294991          951 
 1974000   0.46709967   -6.6380049    495.28976  0.020908889  0.019280322          973 
 1975000   0.45745989   -6.6575535    494.88967  0.020881421  0.019265694          912 
 1976000   0.45988914   -6.6393037    493.53343  0.020813657  0.019251051          860 
 1977000   0.47070769   -6.6499091      494.378  0.020838729  0.019236428          901 
 1978000   0.46334016   -6.6418001    494.39616  0.020828959  0.019221815          904 
 1979000   0.45446272   -6.6478223    494.53236  0.020824169  0.019207187          925 
 1980000   0.46350511   -6.6560733    494.53583  0.020813798  0.019192593          943 
 1981000   0.45750165   -6.6485477    494.74584  0.020812125  0.019178005          971 
 1982000   0.45458086   -6.6457803    493.96842  0.020768938  0.019163431          928 
 1983000   0.46241954   -6.6352885     495.0417  0.020803568  0.019148866          972 
 1984000   0.46254275    -6.640344    494.32495  0.020762977  0.019134304          930 
 1985000   0.46018391   -6.6533355    494.15778  0.020745499  0.019119756          948 
 1986000   0.44988142    -6.651904    494.61159  0.020754095  0.019105208          911 
 1987000   0.47510027   -6.6435944    494.91486  0.020756369  0.019090685          941 
 1988000    0.4528238   -6.6465818    494.58754  0.020732207  0.019076187          904 
 1989000   0.45176674   -6.6497912    494.41458  0.020714537  0.019061694         1006 
 1990000   0.45232517   -6.6634716    494.56426  0.020710396  0.019047216         1096 
 1991000   0.45111147   -6.6581104    494.30784  0.020689262  0.019032746          973 
 1992000   0.46282319   -6.6584185    494.38274  0.020682009  0.019018302          935 
 1993000   0.44620317   -6.6759097    494.57154  0.020679526  0.019003859         1002 
 1994000   0.44881484   -6.6620652    494.19461  0.020653402  0.018989434          988 
 1995000   0.45257046   -6.6566671    493.91508  0.020631373  0.018974998          919 
 1996000   0.46352699   -6.6528486    493.89725  0.020620293  0.018960592          966 
 1997000   0.45751065   -6.6616016    494.35046  0.020628879  0.018946197          981 
 1998000   0.45447881   -6.6704962    494.11807  0.020608862    0.0189318         1020 
 1999000   0.45045063   -6.6719194    494.10653  0.020598071   0.01891741          981 
 2000000   0.45885509    -6.668247     495.0496  0.020627067  0.018903025         1088 
 2001000   0.46149654   -6.6609936    494.08261  0.020576487  0.018888668         1068 
 2002000   0.44783047   -6.6544512    493.89589  0.020558437  0.018874306         1161 
 2003000   0.46960824   -6.6627842    493.68668  0.020539469  0.018859985          958 
 2004000   0.44871068   -6.6757356    492.79831  0.020492278  0.018845652         1104 
 2005000   0.44908228   -6.6492001    493.69796   0.02051945  0.018831346         1010 
 2006000   0.45070219   -6.6576408    494.01133  0.020522239  0.018817043         1058 
 2007000   0.46679045   -6.6577904    493.92639  0.020508486  0.018802735         1033 
 2008000   0.44593219   -6.6613694     493.3198  0.020473099  0.018788455          985 
 2009000   0.45882346   -6.6646038    494.07285  0.020494145  0.018774202          978 
 2010000   0.45672366    -6.662143    493.90435  0.020476963  0.018759943         1079 
 2011000   0.44856003   -6.6630828    493.71475  0.020458924  0.018745699         1034 
 2012000    0.4502891   -6.6872636    493.89577  0.020456253  0.018731458         1088 
Loop time of 5137.09 on 48 procs for 2000000 steps with 4000 atoms

Performance: 67275.411 tau/day, 389.325 timesteps/s
99.4% CPU use with 48 MPI tasks x no OpenMP threads

MPI task timing breakdown:
Section |  min time  |  avg time  |  max time  |%varavg| %total
---------------------------------------------------------------
Pair    | 362.79     | 385.79     | 409.23     |  67.3 |  7.51
Neigh   | 35.366     | 36.729     | 38.314     |  12.6 |  0.71
Comm    | 327.76     | 354.28     | 380.55     |  75.5 |  6.90
Output  | 4.7255     | 4.7281     | 4.7797     |   0.3 |  0.09
Modify  | 4294.6     | 4307.9     | 4319.8     |   8.9 | 83.86
Other   |            | 47.64      |            |       |  0.93

Nlocal:        83.3333 ave          90 max          72 min
Histogram: 1 0 0 4 3 12 10 9 6 3
Nghost:        2389.04 ave        2401 max        2374 min
Histogram: 3 2 4 4 5 7 5 10 7 1
Neighs:        16405.5 ave       18558 max       12745 min
Histogram: 1 0 2 6 3 11 4 10 7 4
FullNghs:      32810.2 ave       35331 max       28048 min
Histogram: 1 0 0 3 5 10 11 7 5 6

Total # of neighbors = 1574891
Ave neighs/atom = 393.72275
Neighbor list builds = 107316
Dangerous builds = 0

#clear
#
#next RN
#
#jump SELF
Total wall time: 1:25:40
