
units lj                  # Use reduced LJ style units
atom_style atomic         # Uncharged point particles
atom_modify map hash      # Needed for indexing of clusters etc
                          # Used to be able to find where atoms are in relation to each other.

lattice fcc 1.0 spacing 1 1 1
Lattice spacing in x,y,z = 1.5874011 1.5874011 1.5874011
region box block 0 10 0 10 0 10 units lattice
create_box 2 box
Created orthogonal box = (0.0000000 0.0000000 0.0000000) to (15.874011 15.874011 15.874011)
  3 by 4 by 4 MPI processor grid
create_atoms 1 box
Created 4000 atoms
  using lattice units in orthogonal box = (0.0000000 0.0000000 0.0000000) to (15.874011 15.874011 15.874011)
  create_atoms CPU = 0.003 seconds
set type 1 type/fraction 2 0.88 78393
Setting atom values ...
  3511 settings made for type/fraction
mass 1 1.0
mass 2 1.0
pair_style lj/cut  3.5
pair_modify tail  yes
pair_coeff 1  1  1.0  1.0   # Intearaction between 1 and 1 set with epsilon = 1 and sigma = 1
pair_coeff 1  2  1.5  0.8
pair_coeff 2  2  0.5  0.88

write_data data.0
System init for write_data ...
Neighbor list info ...
  update every 1 steps, delay 10 steps, check yes
  max neighbors/atom: 2000, page size: 100000
  master list distance cutoff = 3.8
  ghost atom cutoff = 3.8
  binsize = 1.9, bins = 9 9 9
  1 neighbor lists, perpetual/occasional/extra = 1 0 0
  (1) pair lj/cut, perpetual
      attributes: half, newton on
      pair build: half/bin/atomonly/newton
      stencil: half/bin/3d
      bin: standard
WARNING: Not all mixed pair coeffs generated from mixing. Use write_data with 'pair ij' option to store all pair coeffs. (../write_data.cpp:312)


#############################
#   M E L T   S Y S T E M   #
#############################

velocity all create 2.4 1741580 mom yes dist gaussian # Assign velocities
                                                    # Temperature 2.4, random number seed, zero linear momentum
                                                                                # Gaussian distribution

timestep 0.002   # simulation timestep
thermo 1000       # output thermodynamic data every 1000 steps bf 100

# Define a fix  in this case with index 1 applied to all
# particles in the simulation. This fix is for simulations
# in the anisotropic NPT ensemble. Note that we use the MTK
# correction.
fix 1 all npt temp 2.4 2.4 0.1 iso 5.68 5.68 0.5 mtk yes tchain 5 pchain 5 # Use NPT ensemble
                                                                         # Set temperature and pressure and damping
                                                                         # Numbers of thermostats in chain and in barostat
run 10000          # run for 10000 steps
Per MPI rank memory allocation (min/avg/max) = 3.642 | 3.644 | 3.648 Mbytes
Step Temp E_pair E_mol TotEng Press Volume 
       0          2.4   -3.2921436            0   0.30695645   -2.7369977         4000 
    1000    2.3193526   -2.4125412            0     1.065618    5.4518683    3971.3543 
    2000    2.3998935   -2.3937496            0    1.2051907    5.6803784    3950.2269 
    3000     2.348264   -2.3492571            0    1.1722583    5.6953654    3983.0391 
    4000    2.3846747   -2.4008289            0    1.1752889    5.5680177     3961.443 
    5000     2.369964   -2.3643669            0    1.1896904    5.6320054    3979.4668 
    6000    2.3669852   -2.3947215            0    1.1548688    5.6320677    3958.1763 
    7000    2.4628974   -2.3881885            0    1.3052339    5.9641623     3927.704 
    8000    2.3764299   -2.3804131            0    1.1833405    5.7466381      3944.61 
    9000    2.3690155   -2.3708523            0    1.1817825     5.806029    3961.9191 
   10000    2.3845185   -2.3968834            0    1.1790001    5.7466324    3942.6726 
Loop time of 2.5614 on 48 procs for 10000 steps with 4000 atoms

Performance: 674631.893 tau/day, 3904.120 timesteps/s
99.6% CPU use with 48 MPI tasks x no OpenMP threads

MPI task timing breakdown:
Section |  min time  |  avg time  |  max time  |%varavg| %total
---------------------------------------------------------------
Pair    | 1.099      | 1.1723     | 1.2725     |   3.3 | 45.77
Neigh   | 0.20974    | 0.21842    | 0.23563    |   1.0 |  8.53
Comm    | 0.78824    | 0.88619    | 0.99017    |   4.7 | 34.60
Output  | 0.0002703  | 0.00027536 | 0.00035714 |   0.0 |  0.01
Modify  | 0.22163    | 0.26888    | 0.30739    |   4.5 | 10.50
Other   |            | 0.01532    |            |       |  0.60

Nlocal:        83.3333 ave          92 max          75 min
Histogram: 1 5 7 6 7 9 2 5 3 3
Nghost:        1660.94 ave        1695 max        1627 min
Histogram: 3 1 9 7 8 3 5 3 5 4
Neighs:        9685.98 ave       11312 max        8444 min
Histogram: 2 4 9 10 6 6 5 1 3 2

Total # of neighbors = 464927
Ave neighs/atom = 116.23175
Neighbor list builds = 909
Dangerous builds = 232

# Equilibrate just above the melting temperature to avoid step fn in T

fix 1 all npt temp 1.25 1.25 0.1 iso 5.68 5.68 0.5 mtk yes tchain 5 pchain 5
run 2000
Per MPI rank memory allocation (min/avg/max) = 3.643 | 3.645 | 3.649 Mbytes
Step Temp E_pair E_mol TotEng Press Volume 
   10000    2.3845185   -2.3968834            0    1.1790001    5.7466324    3942.6726 
   11000    1.2562074   -3.5747284            0   -1.6908884    5.7542337    3057.1879 
   12000    1.2681268   -3.5683046            0     -1.66659    5.6476004    3070.0617 
Loop time of 0.649002 on 48 procs for 2000 steps with 4000 atoms

Performance: 532509.524 tau/day, 3081.652 timesteps/s
99.5% CPU use with 48 MPI tasks x no OpenMP threads

MPI task timing breakdown:
Section |  min time  |  avg time  |  max time  |%varavg| %total
---------------------------------------------------------------
Pair    | 0.26767    | 0.29966    | 0.32972    |   2.0 | 46.17
Neigh   | 0.040014   | 0.042309   | 0.045493   |   0.6 |  6.52
Comm    | 0.21815    | 0.25154    | 0.28202    |   2.4 | 38.76
Output  | 5.4919e-05 | 5.6422e-05 | 7.4384e-05 |   0.0 |  0.01
Modify  | 0.042704   | 0.050539   | 0.053536   |   1.0 |  7.79
Other   |            | 0.0049     |            |       |  0.76

Nlocal:        83.3333 ave          93 max          73 min
Histogram: 1 3 2 5 10 6 8 6 6 1
Nghost:        1966.15 ave        1983 max        1948 min
Histogram: 1 4 6 4 10 3 5 8 5 2
Neighs:        12446.5 ave       14354 max       10714 min
Histogram: 3 4 2 8 8 9 5 5 3 1

Total # of neighbors = 597431
Ave neighs/atom = 149.35775
Neighbor list builds = 143
Dangerous builds = 13

#############################
# L I N E A R  Q U E N C H  #
#############################

# Define solid atoms. This closely follows ten Wolde  Ruiz-Montero and Frenkel  Faraday Discuss  1996  104  93-110
# Compute components of the per-atom q6 vector
compute q6 all orientorder/atom degrees 1 6 components 6 nnn NULL cutoff 1.3 # compute the Q6 parameter.
                                                                             # Use all neighbours within 1.3 unit cell.

# get number of connections
compute coord_number all coord/atom orientorder q6 0.5

# An atom is solid if it has 8 or more connections (of a possible 14)
variable is_solid atom c_coord_number>=8
group solid dynamic all var is_solid    # Must be dynamic to update
dynamic group solid defined

# do clustering
compute cluster solid cluster/atom 1.3 # Create a cluster where all atoms within are solid and max 1.3 units from another member

# define chunks one chunk per cluster
compute clus_chunks solid chunk/atom c_cluster nchunk every compress yes  # Says which atoms are in which chunk

# count the size of each chunk
compute size_chunks solid property/chunk clus_chunks count


# Find the maximum entry in the vector of chunk sizes
variable max_n equal max(c_size_chunks)


# Thermo style which includes this variable
# thermo_style custom step temp pe vol v_max_n

thermo ${N}  # Print the thermo information every 100 steps
thermo 1000  

# Reset the npt fix at a lower temperature (below freezing)
fix 1  all npt temp  ${temp} ${temp}  0.1  iso  5.68  5.68  0.5  mtk yes tchain  5  pchain  5
fix 1  all npt temp  0.45 ${temp}  0.1  iso  5.68  5.68  0.5  mtk yes tchain  5  pchain  5
fix 1  all npt temp  0.45 0.45  0.1  iso  5.68  5.68  0.5  mtk yes tchain  5  pchain  5

dump dmp2 all dcd ${N} traj.dcd
dump dmp2 all dcd 1000 traj.dcd


compute msd all msd com yes
variable twopoint equal c_msd[4]/6/(step*dt+1.0e-6)
fix 9 all vector 10 c_msd[4]
variable fit equal slope(f_9)/6/(10*dt)
thermo_style custom step temp pe c_msd[4] v_twopoint v_fit v_max_n

fix 1 all npt temp 1.25 ${temp} 0.1 iso 5.68 5.68 0.5 mtk yes tchain 5 pchain 5
fix 1 all npt temp 1.25 0.45 0.1 iso 5.68 5.68 0.5 mtk yes tchain 5 pchain 5
run 2000000 # 5000000  # Run for this many steps
Neighbor list info ...
  update every 1 steps, delay 10 steps, check yes
  max neighbors/atom: 2000, page size: 100000
  master list distance cutoff = 3.8
  ghost atom cutoff = 3.8
  binsize = 1.9, bins = 8 8 8
  4 neighbor lists, perpetual/occasional/extra = 1 3 0
  (1) pair lj/cut, perpetual
      attributes: half, newton on
      pair build: half/bin/atomonly/newton
      stencil: half/bin/3d
      bin: standard
  (2) compute orientorder/atom, occasional
      attributes: full, newton on
      pair build: full/bin/atomonly
      stencil: full/bin/3d
      bin: standard
  (3) compute coord/atom, occasional
      attributes: full, newton on
      pair build: full/bin/atomonly
      stencil: full/bin/3d
      bin: standard
  (4) compute cluster/atom, occasional
      attributes: full, newton on
      pair build: full/bin/atomonly
      stencil: full/bin/3d
      bin: standard
Per MPI rank memory allocation (min/avg/max) = 9.826 | 9.831 | 9.838 Mbytes
Step Temp PotEng c_msd[4] v_twopoint v_fit v_max_n 
   12000    1.2681268   -3.5683046 1.9721523e-34 1.3695501e-36 8.3333333e+20            1 
   13000    1.2253843   -3.5888818   0.94449018  0.006054424  0.079200267            1 
   14000    1.2612213   -3.5574281    1.9187639  0.011421213  0.080866646            2 
   15000    1.2459916   -3.5627877    2.9499051  0.016388361  0.082911304            1 
   16000    1.2706735   -3.6079933    3.9367241  0.020503771  0.083510292            1 
   17000    1.2372668   -3.5820193     4.985454  0.024438499  0.083613835            2 
   18000    1.2901428     -3.55489    6.0296979  0.027915267    0.0841848            1 
   19000    1.2379675   -3.6153385    6.9780134  0.030605321  0.084461541            2 
   20000    1.2443784   -3.5736806    8.0820744  0.033675309  0.084614512            1 
   21000    1.2403387   -3.5856412    9.2423368  0.036675939  0.085149836            2 
   22000    1.2375801   -3.5688038    10.333419  0.039141739   0.08600218            2 
   23000    1.2769428   -3.5749853    11.355425  0.041142844  0.086634798            1 
   24000    1.2240875   -3.5915114    12.337576  0.042838803  0.086858345            2 
   25000    1.2396513   -3.6220724    13.285261  0.044284202  0.086740322            2 
   26000    1.2284702   -3.5745986    14.312097  0.045872104  0.086589724            2 
   27000    1.2326983   -3.5817776    15.205694  0.046931154  0.086238479            4 
   28000    1.2525642   -3.5886436    16.232583  0.048311257  0.085921427            3 
   29000    1.2404058   -3.5883771    17.218365   0.04947806  0.085597361            1 
   30000    1.2305546   -3.6021733    18.382569   0.05106269  0.085496083            3 
   31000    1.2349144   -3.6115099    19.369971  0.052069812  0.085475702            2 
   32000     1.241006   -3.5682035    20.469018  0.053304734  0.085447674            1 
   33000    1.2499875   -3.5735206     21.62553  0.054609923  0.085489352            1 
   34000     1.224041   -3.5755846     22.79529  0.055870809  0.085656703            5 
   35000    1.2440252   -3.5583473    23.766149  0.056586067  0.085877731            1 
   36000    1.2559783   -3.5748554    24.923025  0.057692187  0.086047319            2 
   37000    1.2469668   -3.5977998     25.99857  0.058555338  0.086235685            2 
   38000    1.2439047   -3.6109086    26.954423  0.059110577  0.086338184            2 
   39000    1.2406643    -3.573174    28.141757  0.060131959  0.086551424            1 
   40000    1.2443484   -3.5893872    29.266476  0.060971823  0.086754091            1 
   41000    1.2293943   -3.5984583    30.239487  0.061462371  0.086910213            1 
   42000    1.2173793   -3.5997464    31.307433  0.062117922  0.087036214            2 
   43000    1.2083393    -3.597945    32.346687  0.062687377  0.087182714            1 
   44000    1.2496627   -3.5696747    33.347712  0.063158544  0.087266677            2 
   45000    1.2072834   -3.5954105    34.233942  0.063396189  0.087350449            1 
   46000    1.2394614   -3.5962128    35.410211  0.064148932  0.087378217            6 
   47000    1.2216059   -3.5945067    36.382767  0.064508451  0.087329103            1 
   48000    1.2644211   -3.6184599    37.192125   0.06456966  0.087269312       -1e+20 
   49000    1.2145759   -3.5905924    38.220678  0.065001152  0.087145033            2 
   50000    1.2252206    -3.584153    38.877578  0.064795963  0.086950841            4 
   51000    1.2324814   -3.5947318    39.855413  0.065123223  0.086785699            5 
   52000    1.2307275   -3.5792591    40.826824  0.065427601  0.086618549            1 
   53000    1.2181575   -3.6086764    41.820005  0.065754724  0.086471702            4 
   54000    1.2385018   -3.5859263    43.243275  0.066733449  0.086364603            2 
   55000    1.2082192   -3.6040494    43.844455  0.066430992  0.086246948            3 
   56000     1.217723   -3.6050011    44.454493  0.066152518  0.086073282            1 
   57000    1.2333747    -3.592988    46.005927  0.067260126  0.085908252            6 
   58000    1.2567133   -3.6089052    46.590778  0.066940772  0.085724157            2 
   59000    1.2199811   -3.5858594    48.050743   0.06786828  0.085613586            3 
   60000    1.2542189   -3.6244227    49.016957  0.068079106  0.085553076            3 
   61000    1.2343852   -3.5617744    50.204439  0.068585299  0.085489314            3 
   62000    1.2578491   -3.6363495    51.017354  0.068571712  0.085443708            1 
   63000    1.2408582   -3.6202614     51.77426  0.068484471  0.085382132            2 
   64000    1.2118389   -3.6191496    52.956703   0.06895404   0.08531489            4 
   65000    1.2278506   -3.6060565    53.979982  0.069205105   0.08524473            4 
   66000    1.2107692   -3.6146727    54.820016  0.069217192  0.085175792            2 
   67000    1.2039996   -3.6104677    55.829819  0.069440073  0.085110554            2 
   68000    1.2302578   -3.5604943    56.817792  0.069629647  0.085043369            3 
   69000    1.2403167   -3.6213207    57.791314  0.069796272  0.084981827            2 
   70000    1.2113168   -3.6016233    59.041089   0.07028701  0.084941643            3 
   71000    1.2117101   -3.6124363    59.611403  0.069966436  0.084879786            1 
   72000    1.2162077   -3.6094696    60.594218  0.070132197  0.084819832            2 
   73000    1.2266883    -3.608805    61.661782  0.070390161  0.084715363            2 
   74000    1.2187147   -3.6119697    62.706118  0.070614998  0.084637549            3 
   75000     1.219813   -3.5765679    63.571334  0.070634815  0.084573251            2 
   76000    1.2204136   -3.6176943    64.545509  0.070773584  0.084512735            4 
   77000    1.1940197   -3.6055741    65.856987  0.071273795  0.084463328            1 
   78000    1.2300934    -3.599369    66.982837   0.07156286  0.084434605            3 
   79000    1.2184847   -3.6070826    67.612351  0.071321045  0.084385267            2 
   80000    1.2165713   -3.6256198    68.728307  0.071591986  0.084351942            4 
   81000    1.2378375   -3.6366625    69.268523  0.071263912  0.084309544            2 
   82000    1.2147006   -3.6066566    70.711214   0.07186099  0.084257816            2 
   83000    1.2450109   -3.5941548      71.0689  0.071354317  0.084188608            1 
   84000    1.2050545   -3.6386984    72.109291  0.071536995  0.084098091            2 
   85000    1.2166352   -3.5748199    73.296337  0.071859154  0.084004546            1 
   86000    1.2060966   -3.5724758    74.281326  0.071978029  0.083923007            1 
   87000    1.2140341   -3.5610758    75.104024   0.07193872  0.083841864            2 
   88000     1.223889   -3.6015964    75.563798  0.071556627  0.083761281            1 
   89000    1.1938383   -3.6110198    76.664837  0.071783555  0.083660494            1 
   90000    1.2389251   -3.6543298    77.506542  0.071765316  0.083563837            1 
   91000    1.2242647   -3.5686508    78.550185  0.071932404  0.083475766            4 
   92000    1.2294164   -3.6100322    79.421157  0.071939453   0.08337726            3 
   93000    1.2141683   -3.6335442    79.926028  0.071618305  0.083266214            1 
   94000    1.2134582   -3.6614439    80.948285  0.071762663  0.083162258            1 
   95000    1.2264184   -3.6189634    82.097092  0.072014992    0.0830486            1 
   96000    1.2138933     -3.60826    83.260662   0.07227488  0.082978674            1 
   97000    1.2191058   -3.6195719    84.363427   0.07247717  0.082902805            5 
   98000    1.2104405   -3.5832696    85.375266  0.072598015  0.082836231            5 
   99000    1.2307654   -3.6081389     86.15837   0.07252388  0.082769145            2 
  100000    1.2189766   -3.6324875    86.748327  0.072290272  0.082697322            2 
  101000    1.2283596   -3.5817796    88.272646  0.072832216  0.082626423            1 
  102000     1.202172   -3.6059352    88.694784  0.072463058  0.082559653            2 
  103000    1.2083701   -3.6122522    90.258588  0.073024747   0.08248393            2 
  104000    1.2103731   -3.6221371    90.614589  0.072607843   0.08242335            2 
  105000    1.1830037   -3.5849881    92.160577  0.073143315  0.082381154            2 
  106000    1.2216302   -3.6188702    92.868836  0.073010091   0.08233064            4 
  107000    1.2078898   -3.6136212    93.870219  0.073107647   0.08228643            1 
  108000    1.1914291   -3.6213009    94.434118  0.072865832   0.08223397            2 
  109000    1.2260671   -3.6270988    95.366025  0.072909804  0.082186634            2 
  110000    1.2428436   -3.6314256    96.435987  0.073057565  0.082138427            1 
  111000    1.2031478   -3.6041906    97.601893  0.073274694  0.082069864            1 
  112000    1.2300911   -3.6281665    97.872443  0.072821758  0.082008718            2 
  113000    1.2001144   -3.6559881    98.978894  0.072993284  0.081937019            3 
  114000    1.1971374   -3.6306068    99.852788  0.072991804  0.081866126            3 
  115000    1.1988865   -3.6595314    100.55772  0.072867913  0.081794427            2 
  116000    1.2276027   -3.6415266     101.5833  0.072976507  0.081730695            2 
  117000    1.2115277   -3.6268608    102.97439  0.073343581  0.081676134            2 
  118000    1.2266935   -3.6446824     103.4331  0.073045978  0.081622208            4 
  119000     1.172309   -3.6368143    104.79125  0.073383229  0.081569679            2 
  120000     1.192552   -3.6623245    105.36181  0.073167921   0.08150481            1 
  121000    1.2383461   -3.6459689    106.88825  0.073614497  0.081457286            3 
  122000    1.2044611   -3.6317144    108.20935  0.073913488  0.081425007            1 
  123000    1.1888319   -3.6385908    109.42235  0.074134383  0.081400188            3 
  124000    1.2088823   -3.6043295    110.56153  0.074302101  0.081388626            1 
  125000    1.2141493    -3.632215    111.27088  0.074180585  0.081380032            1 
  126000    1.2197132   -3.6499684    112.06347  0.074116048   0.08136579            1 
  127000    1.1867891   -3.6518321    113.07846  0.074198464  0.081357482            3 
  128000    1.1990499   -3.6427869     114.4218  0.074493358  0.081350135            3 
  129000    1.2130934   -3.6193889    115.50077    0.0746129  0.081350093            3 
  130000    1.2049759   -3.6571086    116.57754  0.074729193  0.081347051            3 
  131000     1.203945    -3.645938    117.47152  0.074727428  0.081352682            2 
  132000    1.1959679   -3.6506067    118.34913  0.074715361  0.081352682            1 
  133000    1.2073213   -3.6622735    119.47018  0.074856005  0.081353315            2 
  134000    1.1641456   -3.6276006    119.92823  0.074582233  0.081343224            2 
  135000    1.1934559   -3.6552722    121.15765   0.07478867  0.081339646            1 
  136000    1.2202288   -3.6462382    122.38239  0.074989208  0.081335099            4 
  137000    1.2202521   -3.6556863    122.93497   0.07477796    0.0813278            2 
  138000     1.202528   -3.6327441    123.65256  0.074669418   0.08131134            1 
  139000    1.1907633   -3.6403339    124.41283  0.074588027    0.0812848            1 
  140000    1.1963269    -3.628528    125.69125   0.07481622    0.0812599            2 
  141000    1.2005151   -3.6612613    126.10914  0.074532589  0.081234518            1 
  142000      1.21552   -3.6666237    126.65576  0.074328497  0.081206633            1 
  143000    1.2130148   -3.6457627    127.94649  0.074560891  0.081179855            4 
  144000    1.1910075   -3.6790469    128.63047  0.074438928  0.081145047            1 
  145000    1.1847836   -3.6671843    129.70855  0.074545143    0.0811095            1 
  146000     1.200815   -3.6483574    130.68749  0.074593318  0.081082247            2 
  147000    1.2079154   -3.6543594    131.37946  0.074478151  0.081062092            1 
  148000    1.1966599   -3.6365466    133.00894   0.07489242  0.081032043            2 
  149000    1.2055274   -3.6414252     133.7711  0.074816052  0.081010938            3 
  150000    1.1995908   -3.6287212    134.82759  0.074904218  0.080993879            3 
  151000    1.2115425   -3.6539896    135.86641  0.074981461  0.080976583            2 
  152000    1.2054386   -3.6832323    136.56187  0.074869446  0.080956925            5 
  153000    1.1921391   -3.6371576    138.09201  0.075213511  0.080939018            1 
  154000    1.1623687   -3.6679057    138.62507  0.075013568  0.080926252            6 
  155000    1.1899437   -3.6617081     139.8508  0.075188601  0.080912743            2 
  156000    1.2047083   -3.6844225    140.78311  0.075204654  0.080897561            2 
  157000     1.222865   -3.6403759    141.80527  0.075268187  0.080886374            2 
  158000    1.1597735   -3.6861078    142.93563   0.07538799  0.080874022            2 
  159000    1.1819631   -3.6754838    143.56191  0.075242089  0.080858347            2 
  160000    1.1997825    -3.637386     144.9737  0.075507136  0.080838727            2 
  161000    1.1847816   -3.6777918    145.02391  0.075064133  0.080827468            3 
  162000    1.1859679   -3.6500991    146.98551  0.075609832  0.080813047            2 
  163000    1.1762396   -3.6573743    147.37392  0.075344541  0.080789114            5 
  164000    1.1932002   -3.6468599    148.03266  0.075219846  0.080771491            1 
  165000    1.1702195   -3.6460294    149.10202  0.075304052  0.080752151            3 
  166000    1.2169329    -3.664244    149.74714  0.075174267  0.080729525            2 
  167000    1.1911421   -3.6569013     150.2274  0.074963772  0.080702602            1 
  168000    1.2034316   -3.6487108    152.20127  0.075496661  0.080674089            3 
  169000    1.1938955   -3.6358178    152.22094  0.075059634  0.080645776            2 
  170000    1.1762887   -3.6515272    153.23817  0.075116748  0.080612328            2 
  171000    1.1717742   -3.6644331    154.32304  0.075206161  0.080580029            3 
  172000    1.2114326   -3.6538195    155.16025  0.075174539   0.08054892            1 
  173000    1.1854378   -3.6192602    155.66148  0.074981443  0.080518415            2 
  174000    1.1804623   -3.6492484    156.68928   0.07504276  0.080495557            2 
  175000    1.1817476   -3.6312772    158.78159  0.075610283  0.080481452            1 
  176000    1.1771499   -3.6646121    159.49443  0.075518195  0.080467148            2 
  177000    1.1876095   -3.6582735    159.79497  0.075233038  0.080449348            2 
  178000    1.1703371   -3.6609888     161.1364   0.07543839   0.08042717            2 
  179000    1.1891413   -3.6843081    161.19571  0.075044555  0.080403688            1 
  180000    1.1718274   -3.6762502    162.38531  0.075178382  0.080376577            5 
  181000    1.1817305   -3.6395024    163.69364  0.075365396   0.08035006            3 
  182000    1.1707143   -3.6887722    163.09073  0.074675242  0.080319712            3 
  183000    1.1705769   -3.6886536    164.15357  0.074751172  0.080282918            4 
  184000    1.1977791   -3.6564602    165.42388  0.074920236  0.080248972            3 
  185000    1.1612953   -3.6614542    166.14491  0.074840049  0.080208177            2 
  186000    1.1799158   -3.6588152    167.11615  0.074872825  0.080165248            2 
  187000    1.1726144   -3.7109474    166.67996  0.074278056  0.080120806            2 
  188000    1.1730071   -3.6910199    168.82058  0.074831817  0.080075162            3 
  189000    1.1601146       -3.679    169.34137  0.074665507  0.080030812            1 
  190000    1.1981053   -3.6658527     170.9346  0.074971314  0.079984891            3 
  191000     1.181017   -3.6852984     171.5119   0.07483067  0.079944016            1 
  192000    1.1796765   -3.6631375    172.54963  0.074891331  0.079901976            1 
  193000    1.1910236   -3.6300035    173.32139  0.074836526  0.079862489            2 
  194000    1.1780262   -3.6687686    174.37856  0.074904881  0.079819968            4 
  195000    1.1575057   -3.6748342    174.76742   0.07468693  0.079776255            1 
  196000    1.1714789   -3.6667036    175.78488   0.07473847  0.079729807            3 
  197000    1.1665033   -3.6619468    176.99933  0.074872813  0.079684656            1 
  198000    1.1761713   -3.6354535    178.47483  0.075115669  0.079643964            2 
  199000    1.2074047   -3.6563075    178.81368  0.074880102  0.079607161            2 
  200000    1.1979936   -3.6786722    178.40811  0.074336712  0.079562818            1 
  201000    1.1700166   -3.6643625    179.19762  0.074294202  0.079521902            2 
  202000    1.1793574   -3.6900321    180.62736  0.074516237  0.079478803            1 
  203000     1.175927   -3.6477193    182.02475  0.074722802  0.079437811            1 
  204000    1.1684613   -3.6743982    182.47356  0.074539854  0.079393365            2 
  205000    1.1784098   -3.6487715    184.56822  0.075027732  0.079348979            1 
  206000    1.1692154   -3.6681715    183.89121   0.07438965  0.079308507            3 
  207000    1.1614489   -3.7113132     184.8373   0.07441115  0.079271147            1 
  208000    1.1658042    -3.696376    186.71334  0.074805025  0.079232701            2 
  209000    1.1645424   -3.6626333    187.93739  0.074935165  0.079201113            1 
  210000    1.1787154   -3.6868764     187.7451  0.074502024  0.079169386            1 
  211000    1.1512416   -3.6679923    189.20426  0.074725219  0.079133273            2 
  212000    1.1774924   -3.6942236    188.78814  0.074209175  0.079092624            2 
  213000    1.1637261   -3.6739301    190.59276  0.074566807   0.07904884            2 
  214000    1.1772842   -3.6863955    191.53675  0.074585962  0.079003564            2 
  215000    1.1818251   -3.6638286    191.61373  0.074268888  0.078963376            3 
  216000    1.1553596   -3.7180402     191.4091  0.073846102  0.078915178            2 
  217000    1.1932132   -3.6886764     193.5817  0.074340132  0.078867074            3 
  218000    1.1863869   -3.6726034    193.93668  0.074134816  0.078821326            2 
  219000    1.1579541   -3.6687045    195.14562  0.074256324  0.078777916            2 
  220000    1.1872053   -3.6927873    196.20974  0.074321871  0.078732698            2 
  221000    1.1653533   -3.7304071    196.80896  0.074211522  0.078692081            1 
  222000    1.1954682   -3.6954406    197.31908  0.074068724  0.078648814            4 
  223000    1.1563847    -3.700165    197.24984  0.073710702  0.078610178            1 
  224000    1.1739283   -3.6739273    199.36445  0.074168322  0.078567742            1 
  225000    1.1720006   -3.7038606    200.64995  0.074314795  0.078531647            3 
  226000    1.1671661   -3.6668991    201.78036  0.074402787   0.07849794            4 
  227000    1.1715056   -3.6830567     202.4547  0.074322577  0.078460009            3 
  228000    1.1565745   -3.6862749    202.83497   0.07413559  0.078426394            2 
  229000    1.1527932   -3.7072075    204.21074  0.074312495    0.0783891            1 
  230000    1.1577727   -3.6742979    205.13324  0.074323637  0.078348965            3 
  231000    1.1698328   -3.6665014    205.72989  0.074217134  0.078316257            1 
  232000    1.1768485   -3.6739743    205.89924  0.073958061  0.078275734            2 
  233000    1.1544057   -3.6829935    207.25692  0.074126222   0.07823649            1 
  234000    1.1683019   -3.6953122    207.30875  0.073827902  0.078197117            2 
  235000    1.1467289   -3.7005692    208.58836  0.073967505  0.078152937            2 
  236000     1.120135    -3.692058    209.12579  0.073843854  0.078106042            2 
  237000    1.1728604   -3.7219293    210.86266  0.074142987  0.078059019            1 
  238000    1.1688279      -3.7011    210.05814   0.07354977  0.078010623            3 
  239000    1.1728833   -3.6885012    212.00988  0.073922553  0.077963698            1 
  240000    1.1593196   -3.7074408    211.45497  0.073421866  0.077918464            1 
  241000    1.1688697   -3.7200842    212.43679  0.073456703  0.077872436            2 
  242000    1.1429026   -3.7081874       214.45  0.073846417   0.07782725            2 
  243000    1.1611521    -3.679887    216.85783  0.074368254  0.077789645            1 
  244000    1.1764753   -3.6910083    216.81207  0.074047837  0.077757356            2 
  245000    1.1725759   -3.6942926    218.40804  0.074288449  0.077727274            2 
  246000    1.1594667   -3.7234964    218.79527   0.07411764  0.077698238            4 
  247000    1.1579088   -3.7176004    219.36808  0.074010822  0.077669188            1 
  248000    1.1445516   -3.7095957    220.49423  0.074090802  0.077637033            1 
  249000    1.1462873   -3.7097882    219.74338  0.073541962  0.077603171            4 
  250000    1.1651056    -3.686048    222.15145  0.074050482  0.077568232            2 
  251000    1.1484087   -3.7198494    222.65385   0.07392226  0.077535472            1 
  252000    1.1615359   -3.6899435    223.93129  0.074051351  0.077502406            2 
  253000    1.1661859   -3.6789782     225.0712  0.074134123  0.077471381            3 
  254000    1.1862248    -3.694982    226.50432  0.074312442  0.077442021            1 
  255000    1.1240364   -3.6751643    226.49498  0.074017967  0.077409838            2 
  256000    1.1551632   -3.7060794    227.21024  0.073961666  0.077378614            4 
  257000    1.1187435     -3.68447    229.03301  0.074264918  0.077348463            2 
  258000    1.1882351   -3.7095612    228.87259  0.073925253  0.077317265            3 
  259000    1.1709115   -3.7203319    229.56007  0.073861028  0.077287946            3 
  260000    1.1644368   -3.7014553    229.90692  0.073688117  0.077255259            3 
  261000     1.126296    -3.745261    230.45391   0.07358043  0.077219648            2 
  262000    1.1418154   -3.7275289    231.08076   0.07349897  0.077183415            1 
  263000    1.1728828   -3.7138554    231.24072   0.07327019  0.077146712            3 
  264000    1.1447499   -3.7109369    233.42239   0.07368131  0.077106678            2 
  265000    1.1460173   -3.7346245     233.7464  0.073505156  0.077066265            1 
  266000    1.1765419   -3.7284162    233.16582  0.073046936  0.077022197            3 
  267000    1.1491075    -3.700421    235.45252  0.073487053  0.076978787            2 
  268000    1.1386103   -3.6954995    236.19199  0.073442784  0.076932483            1 
  269000    1.1307103   -3.6858396    237.06042  0.073438792  0.076889534            2 
  270000    1.1413324   -3.6983409     237.6233  0.073340524  0.076850725            3 
  271000     1.153124   -3.7137748     238.2448  0.073261008  0.076812991            2 
  272000    1.1303085   -3.6988446    239.88418  0.073493927  0.076774631            2 
  273000    1.1490131   -3.7070896    240.86148   0.07352304  0.076739109            1 
  274000    1.1270642   -3.7149337    240.82382  0.073243253  0.076703853            1 
  275000    1.1535013   -3.7165199    242.55685  0.073502075  0.076669121            2 
  276000    1.1668242   -3.7184625    243.70593  0.073582707  0.076635067            2 
  277000    1.1434141   -3.7466947    242.68032  0.073008521  0.076598505            3 
  278000    1.1344865   -3.7203885    244.49466  0.073289767  0.076560128            4 
  279000    1.1543879   -3.7128608    246.07814  0.073500041   0.07652691            1 
  280000    1.1467061   -3.7486436    246.77716  0.073445583  0.076494527            4 
  281000    1.1596268   -3.7204977    247.39862   0.07336851  0.076464674            1 
  282000    1.1499656   -3.7288964    247.43645  0.073119517  0.076433679            6 
  283000    1.1331399   -3.7374444    248.23295  0.073095685  0.076403875            1 
  284000    1.1577209   -3.7124579    250.27244  0.073436749  0.076373462            4 
  285000    1.1448537    -3.710887    252.86249  0.073936399  0.076343469            2 
  286000    1.1300514   -3.6921188    251.84676  0.073381923  0.076314849            3 
  287000    1.1353537   -3.7130557    253.13747  0.073501006  0.076286594            2 
  288000    1.1284259   -3.7294861    252.95981  0.073194389   0.07625737            3 
  289000    1.1489289   -3.7336365    254.11731  0.073274886  0.076228697            3 
  290000    1.1330806   -3.7585259    254.56614  0.073151189   0.07619886            2 
  291000    1.1177185   -3.7393973    255.61508  0.073200193  0.076164973            2 
  292000    1.1085468   -3.7333721    256.94768  0.073329817   0.07612896            1 
  293000    1.1609249   -3.7263819    257.31612  0.073184334  0.076098124            3 
  294000    1.1352382   -3.7394914    257.72843  0.073052275  0.076067921            3 
  295000    1.1266403   -3.7492485    258.66952  0.073070486  0.076033958            1 
  296000    1.1239248   -3.7334872    259.02662  0.072924162  0.075996807            2 
  297000    1.1360348   -3.7473199    259.09173  0.072696894  0.075959674            2 
  298000     1.129086   -3.7275726    260.34286  0.072802813   0.07592123            2 
  299000    1.1693566   -3.7321446    261.84475  0.072977912  0.075884687            3 
  300000    1.1534076   -3.7488234    263.19484  0.073109677  0.075851056            2 
  301000    1.1298611   -3.7080949    264.76065  0.073300292  0.075819711            3 
  302000    1.1364856   -3.6997618    264.94103  0.073107349  0.075792806            2 
  303000    1.1525173    -3.693193    266.83219   0.07338619  0.075766005            1 
  304000    1.1098469   -3.7487142    266.90075  0.073163583  0.075741739            2 
  305000    1.1072572   -3.7650794    266.64587  0.072854063  0.075712949            3 
  306000      1.12924   -3.7451676    268.36065  0.073082965  0.075686713            1 
  307000    1.1389176   -3.7314264    269.99545  0.073288667  0.075659874            2 
  308000    1.1194608   -3.7588333    270.52773  0.073194733  0.075638035            2 
  309000    1.1358004   -3.7401564    271.51925  0.073225257  0.075611972            2 
  310000    1.1403813   -3.7017036    272.75042  0.073320004  0.075586321            2 
  311000     1.124138   -3.7582682    271.98326  0.072878688  0.075560174            2 
  312000    1.1548572   -3.7370596     273.9519  0.073170914  0.075535461            2 
  313000    1.1365543   -3.7011721    276.39113  0.073586562  0.075514376            3 
  314000    1.1347691   -3.7434398      275.991   0.07324602   0.07549259            3 
  315000    1.1215278   -3.7271288    278.25978  0.073613698  0.075470206            2 
  316000    1.1319516   -3.7519003    279.01002  0.073578591  0.075450509            5 
  317000    1.1351466   -3.7769307    278.46576  0.073203406  0.075431715            3 
  318000    1.1277199   -3.7380951    278.42155  0.072961623  0.075412584            2 
  319000    1.1407504   -3.7180252    281.51004  0.073539719  0.075391816            2 
  320000    1.1360052   -3.7152388    283.02916  0.073705509  0.075373481            1 
  321000     1.138639   -3.7365566    282.22496  0.073267123  0.075354284            3 
  322000    1.1293791   -3.7546545    283.05041  0.073253213  0.075335159            3 
  323000    1.1371607   -3.7384712    283.70264  0.073194695  0.075316819            2 
  324000    1.0936578    -3.750676    283.60623  0.072943988  0.075293245            3 
  325000    1.1276618   -3.7378341    284.37689   0.07291715  0.075268124            2 
  326000    1.1307969   -3.7646805    284.88942  0.072824493  0.075242119            2 
  327000    1.1299129   -3.7654248    285.68354  0.072804164  0.075215735            5 
  328000    1.1376576    -3.749857     287.1144   0.07294573  0.075192559            2 
  329000    1.1416151   -3.7391607    288.97483  0.073195246   0.07516805            3 
  330000    1.1206513   -3.8080385    286.75824  0.072413697  0.075144612            4 
  331000    1.1390451   -3.7513784    289.96936  0.073003363  0.075119989            4 
  332000    1.1131497   -3.7561598    289.73482  0.072724604  0.075097492            2 
  333000    1.1187076   -3.7375437    291.29101  0.072895649  0.075074263            2 
  334000     1.155736   -3.7509755    293.07777  0.073123195  0.075051523            2 
  335000    1.1106933   -3.7314933    293.39412  0.072983611  0.075030125            1 
  336000    1.1444436   -3.7642474     292.8565   0.07263306  0.075008303            2 
  337000    1.1092853   -3.7320715    295.07791  0.072966841  0.074984981            3 
  338000    1.0995685   -3.7456951    294.70096  0.072658029  0.074962549            1 
  339000    1.0974459   -3.7459604    295.69855  0.072688927  0.074939064            2 
  340000    1.1195744    -3.744909    296.14942  0.072585642  0.074915534            3 
  341000    1.1028311   -3.7852715    297.86459  0.072791933  0.074890823            3 
  342000    1.1134619    -3.798241    297.58311  0.072510505  0.074864783            3 
  343000    1.0900192   -3.7401187    299.52033   0.07276976  0.074841824            4 
  344000    1.0983377   -3.7406582    299.00592  0.072433605  0.074818971            7 
  345000    1.1220755   -3.7790742    301.89433  0.072921335  0.074795944            3 
  346000    1.1087707   -3.7601461    302.05808   0.07275002  0.074774367            3 
  347000    1.1246977   -3.7921935    302.08244  0.072546214  0.074751958            3 
  348000    1.1142394    -3.748289     302.2735  0.072383501  0.074726117            2 
  349000    1.1123047    -3.760724    303.61737  0.072496985  0.074699819            2 
  350000    1.1253552   -3.7695427     303.8496  0.072345143  0.074673692            4 
  351000    1.1198709    -3.759191    305.50403  0.072531821  0.074645901            2 
  352000    1.1401639   -3.7828532    307.03267  0.072687659   0.07462325            4 
  353000    1.1127856    -3.768639    305.95941  0.072228378  0.074597851            4 
  354000    1.1077403   -3.7472044     308.8202  0.072697787   0.07457451            2 
  355000    1.0911427   -3.7769996    309.26785  0.072598087  0.074551372            2 
  356000    1.1015841   -3.7649381    310.07723  0.072583621  0.074530099            2 
  357000     1.119705   -3.7305957    312.93904  0.073048328  0.074510616            2 
  358000     1.125021   -3.7488577    313.03408  0.072866405  0.074492467            3 
  359000    1.1157246   -3.7772827    313.02926  0.072662317  0.074473671            2 
  360000    1.0710597   -3.7802535    314.05337   0.07269754  0.074453262            5 
  361000    1.0994985   -3.7505113    314.15665  0.072520002  0.074430706            4 
  362000    1.0949015   -3.7499382      315.882  0.072716852  0.074410169            2 
  363000    1.1475914   -3.7470139    316.44415  0.072645582  0.074387413            2 
  364000    1.1002777   -3.7672763    318.06185  0.072816359  0.074364678            2 
  365000     1.119744   -3.7540767    317.95878  0.072593328  0.074345236            2 
  366000    1.1201416   -3.7721242    318.35754  0.072485778  0.074327882            3 
  367000      1.12291   -3.7467312    319.46316  0.072539318  0.074306811            1 
  368000    1.0866029   -3.7633705    320.36269  0.072545899  0.074283882            3 
  369000    1.1346216    -3.772806    320.79782  0.072447566  0.074261107            2 
  370000    1.1025871   -3.7610414    321.03745  0.072305733  0.074239467            1 
  371000    1.0825456   -3.7909537    320.99193  0.072100614  0.074215953            1 
  372000    1.1159409   -3.7871344    322.24179   0.07218678  0.074193261            2 
  373000    1.0895943   -3.7816723    323.53403  0.072281954  0.074170597            3 
  374000    1.1099657   -3.7930491    323.53317  0.072088495  0.074148229            1 
  375000    1.1020328   -3.7769841    325.71056  0.072380124  0.074126444            2 
  376000    1.0970431   -3.8047611    325.40584  0.072120089  0.074104495            4 
  377000    1.1149437   -3.7762624    326.25684  0.072116897  0.074080048            1 
  378000    1.1075292   -3.7968263     328.2757  0.072371186  0.074056664            3 
  379000    1.1149816    -3.769247    327.20543  0.071944905   0.07403402            2 
  380000    1.0847579   -3.7485846      331.009  0.072589694  0.074009486            1 
  381000    1.1041574   -3.7933203    327.92545  0.071724727  0.073983199            1 
  382000    1.1122146   -3.7674035    330.05077  0.072000604  0.073957796            3 
  383000    1.0829961   -3.7627027    331.66994  0.072164913   0.07393389            2 
  384000    1.1175193   -3.7792116    332.37939  0.072130944  0.073909213            2 
  385000     1.101877   -3.8008868    331.45168  0.071742787  0.073884015            6 
  386000    1.1117903   -3.7857316    332.72155  0.071831078  0.073859559            1 
  387000    1.0913811   -3.7633034    335.02668  0.072141833  0.073835931            2 
  388000    1.1153609   -3.7846947    334.43725  0.071829307  0.073810793            4 
  389000    1.0918615   -3.8117005     333.4948  0.071442758  0.073784937            2 
  390000    1.0680724   -3.7751826    336.65735  0.071935331  0.073757653            5 
  391000    1.0965766   -3.8077769    335.12144  0.071424006  0.073731323            1 
  392000    1.1091394   -3.8069882    336.86017   0.07161143  0.073704547            3 
  393000     1.116695   -3.7504706    338.38677   0.07175292  0.073677825            3 
  394000    1.0651409   -3.7895447    338.31962  0.071556602  0.073652255            2 
  395000    1.0889842   -3.7812636    341.41215  0.072027879  0.073626577            2 
  396000    1.1037388   -3.7577432    342.82486  0.072143279  0.073602589            3 
  397000    1.1071069   -3.7901868    342.57324   0.07190874  0.073578856            2 
  398000    1.0775852   -3.8123208    343.02555  0.071822769   0.07355536            2 
  399000    1.0803546   -3.7325555     346.1271  0.072290538  0.073531848            1 
  400000    1.0702095    -3.786491    345.83763  0.072049506  0.073510928            1 
  401000     1.100078   -3.7771958    345.22805  0.071743153  0.073488722            1 
  402000    1.0829921   -3.7827651     347.4887  0.072033313  0.073467608            2 
  403000    1.0907063   -3.8086427    346.37772  0.071624839   0.07344626            4 
  404000    1.1207697   -3.8071071    348.53987  0.071893537  0.073426834            1 
  405000    1.0754881   -3.7674769     349.9885  0.072014095  0.073405657            2 
  406000    1.0908078   -3.7980133    348.64272  0.071560492  0.073387386            3 
  407000     1.085637   -3.7984679    349.93535  0.071649334  0.073366649            4 
  408000     1.084563   -3.8074145    351.36804  0.071766349  0.073347043            3 
  409000    1.0647856   -3.7795971    352.94571  0.071912328  0.073328254            5 
  410000     1.086553   -3.8003197    351.45476  0.071433894  0.073307359            2 
  411000    1.0884712    -3.798831    352.85724  0.071544452  0.073285422            7 
  412000    1.0620601   -3.7911389    353.28872  0.071458075  0.073265238            5 
  413000    1.1205761   -3.7873648    355.43141  0.071717395  0.073243235            1 
  414000    1.0953994   -3.7813222    354.87147  0.071431455  0.073220049            2 
  415000    1.0867361   -3.8319596    357.36763  0.071760568  0.073198106            4 
  416000    1.0793762   -3.8141066    357.31343  0.071577209  0.073176083            4 
  417000    1.1028991   -3.8240122    358.24432   0.07159159    0.0731538            7 
  418000    1.0549377   -3.8243742    358.83695  0.071538468  0.073131332            1 
  419000    1.0999036   -3.8071793    360.02067  0.071603156  0.073109002            2 
  420000     1.091374   -3.7992215    361.55175  0.071736458  0.073088504            4 
  421000    1.0754846   -3.8044809    361.71186  0.071597756  0.073066926            3 
  422000    1.0981002   -3.7872309    362.17715  0.071519974   0.07304646            2 
  423000    1.1011362   -3.8072841    364.71228   0.07185033  0.073026171            3 
  424000    1.0611568   -3.7842585    363.91196  0.071523577  0.073003519            2 
  425000    1.0838126   -3.8144855    363.41523  0.071257889  0.072981981            3 
  426000    1.0572502   -3.7842783    364.16478  0.071237243  0.072958397            2 
  427000    1.0981819   -3.8058884    365.29083   0.07129017   0.07293657            4 
  428000    1.0813597   -3.7702865    366.58169   0.07137494  0.072916071            3 
  429000    1.0933949    -3.771591    367.83709  0.071452427  0.072895905            1 
  430000     1.094757   -3.7917766    368.39438  0.071394259  0.072875627            3 
  431000    1.0852183   -3.7900794    368.03339  0.071158814  0.072854822            4 
  432000    1.0962575    -3.848519    368.06109  0.070999438   0.07283242            3 
  433000    1.0904939   -3.8327755    369.41297  0.071095645   0.07280831            3 
  434000    1.0680581   -3.7980892    370.56721  0.071153458     0.072784            2 
  435000     1.084183   -3.7987532    371.95669  0.071256071  0.072760629            3 
  436000    1.0786191   -3.8164178     370.6259  0.070838283  0.072737582            5 
  437000    1.0638639   -3.8105583    373.84138  0.071289356  0.072714251            2 
  438000    1.0851897   -3.7849966    373.38694  0.071040132  0.072691051            3 
  439000    1.0757462   -3.8057171    373.91354  0.070978272  0.072666459            2 
  440000    1.0885802   -3.8250228    374.60132  0.070947219   0.07264296            1 
  441000    1.0833656   -3.8237344    375.54617  0.070964885  0.072618618            3 
  442000    1.0881777    -3.825117    375.51475  0.070798408  0.072593137            3 
  443000    1.0925137   -3.7860093    377.12576  0.070941641  0.072567457            1 
  444000      1.07799   -3.8246555    377.05055  0.070767745  0.072542367            2 
  445000    1.0610157   -3.8137248    377.65557  0.070722016  0.072517165            1 
  446000    1.0958153   -3.8392613    378.41283  0.070704938  0.072490449            5 
  447000    1.0858319   -3.8081288    378.29476   0.07052475  0.072464554            2 
  448000    1.0933085   -3.8493819    380.71125  0.070816825  0.072438367            2 
  449000    1.0664487   -3.7889772    380.96465  0.070706133  0.072412728            1 
  450000    1.0479904   -3.8250761    380.18883  0.070405339  0.072385251            2 
  451000    1.0995612   -3.8083012    383.87899  0.070931078  0.072358401            3 
  452000    1.0785147   -3.8138764    383.08602  0.070627953  0.072333472            4 
  453000    1.0490904   -3.8415019    383.52878  0.070553492  0.072306266            2 
  454000    1.0741352   -3.8479664     385.1766  0.070700551  0.072280833            4 
  455000    1.0822662   -3.8369814    385.70219  0.070641428  0.072255868            2 
  456000    1.0694776   -3.8233471    386.95206  0.070714923  0.072232908            3 
  457000    1.0658637   -3.8225669    389.50817  0.071026289  0.072209856            2 
  458000     1.064227   -3.8396718    388.59233  0.070704572  0.072187862            2 
  459000    1.0779584   -3.8188303    387.92664  0.070429674  0.072164072            3 
  460000    1.0767774   -3.8279313    389.35401  0.070535146  0.072139329            4 
  461000    1.0552336   -3.8290188     390.4506  0.070580369  0.072115388           10 
  462000    1.0686757    -3.831513    389.36399    0.0702316  0.072092378            3 
  463000    1.0696779   -3.8395047    391.21109  0.070412363  0.072069162            5 
  464000    1.0666317    -3.843187    391.82787  0.070371384  0.072045006            2 
  465000    1.0613918     -3.83099    390.81952   0.07003934  0.072018056            3 
  466000    1.0512067   -3.8375076    393.06252   0.07029015  0.071990809            2 
  467000    1.0576388   -3.8288295    394.67599  0.070427549  0.071964505            3 
  468000    1.0820592   -3.8442284    395.11167  0.070354643  0.071938558            3 
  469000    1.0763652   -3.8393132    395.03838   0.07019161  0.071914182            3 
  470000    1.0588051   -3.8165462     397.5381  0.070485479  0.071888709            2 
  471000    1.0708952   -3.8506102    396.33146  0.070122339  0.071863568            2 
  472000     1.059577    -3.832175    397.40857  0.070163942  0.071838486            3 
  473000     1.057509   -3.8176345    399.72805  0.070424251  0.071814774            2 
  474000    1.0607609   -3.8396769    398.04454  0.069979702  0.071790293            1 
  475000    1.0768634   -3.8243686    401.49347  0.070437451  0.071764677            2 
  476000    1.0896734   -3.8315031     400.9279  0.070190458  0.071740167            4 
  477000    1.0813221   -3.8756861    400.51647  0.069971431  0.071714845            3 
  478000    1.0501597   -3.8291004    402.00305  0.070084214  0.071688148            2 
  479000     1.056997   -3.8484265    401.38501  0.069830377  0.071661918            2 
  480000    1.0666813   -3.8317063    402.25017  0.069835098   0.07163552            2 
  481000    1.0708744   -3.8921551    403.08379  0.069834337  0.071608938            3 
  482000    1.0624666    -3.799597    406.03328  0.070199391  0.071583313            2 
  483000    1.0815722   -3.8325088    407.67176  0.070336743   0.07155833            4 
  484000     1.079252   -3.8393945    406.76594  0.070035457  0.071533225            5 
  485000    1.0712706   -3.8048848    408.50127  0.070189222   0.07150865            2 
  486000    1.0301524    -3.850129    407.77711   0.06992063  0.071485345            2 
  487000    1.0589402   -3.8256577    409.58636  0.070086646  0.071461885            2 
  488000      1.04431   -3.8332407    409.17643  0.069873024  0.071437519            3 
  489000    1.0672506   -3.8212668    411.70628  0.070161261  0.071412964            3 
  490000    1.0424271   -3.8371022    410.17256  0.069757238  0.071388374            4 
  491000    1.0847904   -3.8254781    412.83731  0.070067432  0.071364658            3 
  492000    1.0581983   -3.8160716    413.08467  0.069966915  0.071340662            2 
  493000    1.0721565   -3.8366081    412.46183  0.069719715  0.071318021            3 
  494000     1.056916   -3.8578374    413.72803  0.069792179  0.071293492            3 
  495000    1.0560025    -3.884885    414.47491  0.069776921    0.0712696            1 
  496000    1.0269515   -3.8482517     416.1403  0.069916045  0.071245539            3 
  497000    1.0291367   -3.8568117    417.07263  0.069931696  0.071223513            3 
  498000     1.040525   -3.8566678    417.07466  0.069791609  0.071200499            3 
  499000    1.0666887   -3.8763553    419.10759  0.069991247   0.07117835            2 
  500000    1.0395495    -3.893828    420.01334  0.070002223  0.071155778            2 
  501000    1.0332368   -3.8591066    418.75921  0.069653893  0.071131834            2 
  502000    1.0298956    -3.863043    419.79199  0.069686585  0.071110608            1 
  503000    1.0421224   -3.8566174    420.84615  0.069722688  0.071089127            4 
  504000    1.0295879     -3.85752    423.81115  0.070074595   0.07106762            2 
  505000    1.0594336   -3.8410077    425.11294  0.070150649  0.071047685            2 
  506000     1.023144   -3.8486368    426.23905  0.070197471  0.071027821            2 
  507000    1.0449234   -3.8778313    426.64866  0.070126341  0.071009094            3 
  508000    1.0661685   -3.8678615    425.91817  0.069868467  0.070989095            3 
  509000    1.0420461   -3.8649489    427.53234  0.069995472  0.070969813            1 
  510000    1.0549961   -3.8297938    428.80651  0.070066424  0.070949192            3 
  511000    1.0393211   -3.8531626    428.49722  0.069878867  0.070928594            3 
  512000    1.0398342   -3.8560461    428.46268  0.069736764  0.070907928            2 
  513000    1.0541992   -3.8804907    429.76201  0.069811893  0.070888103            3 
  514000    1.0239325   -3.8186881    433.04984  0.070209119  0.070867526            1 
  515000    1.0301154   -3.8778881    431.24662  0.069781006  0.070846735            2 
  516000     1.031109   -3.8597384    432.69578  0.069879809  0.070827121            3 
  517000    1.0553178   -3.8412152    433.41279  0.069860218  0.070807172            2 
  518000    1.0503631   -3.8478847    433.75684  0.069780701   0.07078497            8 
  519000     1.068896   -3.8604215    432.63538  0.069466182  0.070763415            3 
  520000    1.0456296   -3.8595677    434.94508  0.069702738  0.070740712            2 
  521000    1.0628972   -3.8834236    435.80332  0.069706226  0.070718501            3 
  522000     1.054212   -3.8769549    434.13381  0.069306164  0.070696048            6 
  523000    1.0457642     -3.86715    434.40725  0.069217217  0.070673728            4 
  524000    1.0837068   -3.8927945    435.47032  0.069254186   0.07065054            2 
  525000    1.0490142   -3.8779633    435.85089  0.069182681  0.070626463            4 
  526000    1.0439831    -3.893254    437.12989  0.069253784  0.070602797            2 
  527000    1.0534223   -3.8612621    438.37206  0.069318795  0.070578779            3 
  528000    1.0278395   -3.8921668    437.47486  0.069045905  0.070554358            3 
  529000      1.06277   -3.8738324     438.5666  0.069087366  0.070529623            2 
  530000    1.0594524   -3.8839194    439.16622  0.069051293  0.070504754            1 
  531000     1.036604   -3.8764443    439.76099  0.069014594  0.070480475            2 
  532000    1.0314546   -3.8839046    440.55302  0.069008932  0.070456448            3 
  533000    1.0424595   -3.8528471    441.43451  0.069017277  0.070431322            2 
  534000    1.0290157   -3.8668066    445.36955  0.069502115  0.070406563            2 
  535000    1.0282429   -3.8577601    444.43001  0.069225859  0.070382028            5 
  536000    1.0318017   -3.8710362    443.67398  0.068979164  0.070358026            4 
  537000    1.0334619   -3.8791775    442.67991  0.068696448  0.070332467            2 
  538000    1.0187346   -3.8880492    446.32251  0.069132979  0.070307177            2 
  539000    1.0362445   -3.8334597    446.53665  0.069037825  0.070281588            3 
  540000    1.0292129   -3.8837557     446.0972  0.068842161  0.070256664            1 
  541000    1.0451463   -3.8956815    445.29465  0.068591289  0.070230869            2 
  542000    1.0379745   -3.8744118    446.37663  0.068631093  0.070204232            1 
  543000    1.0338623   -3.9012469     446.4877  0.068521746  0.070177012            3 
  544000     1.046783   -3.8598638    447.76009  0.068590701  0.070150822            2 
  545000    1.0704657   -3.9075711    449.34126  0.068706615  0.070123364            2 
  546000    1.0495325   -3.8923357    450.19232  0.068710672  0.070096424            4 
  547000     1.038542    -3.898411    449.75792  0.068518878  0.070069133            2 
  548000    1.0145904   -3.8591035    450.60107   0.06852206  0.070042863            1 
  549000    1.0446697   -3.8605097    451.03008  0.068462367  0.070015668            3 
  550000    1.0407843   -3.8756659    451.89765   0.06846934  0.069988268            4 
  551000    1.0353431   -3.8917544    451.79732  0.068329904  0.069961203            6 
  552000    1.0312558   -3.9191075    452.60249  0.068327671  0.069934096            4 
  553000    1.0332787   -3.9005631    454.50115  0.068490227  0.069907117            2 
  554000    1.0308481   -3.9015805    452.91364  0.068127805  0.069879031            3 
  555000    1.0307387   -3.9006511    454.43353  0.068233263  0.069850604            3 
  556000    1.0334089    -3.897095     456.4996  0.068420204  0.069823214            2 
  557000    1.0518699   -3.9173057    455.47601  0.068144226  0.069795116            3 
  558000    1.0276561   -3.8980206    455.67081  0.068051197  0.069766013            3 
  559000    1.0520762   -3.8796146    457.29786  0.068172013    0.0697379            1 
  560000    1.0365212   -3.9120372    455.94302  0.067848663  0.069710535            2 
  561000     1.020881   -3.8841562    458.15539  0.068056357  0.069682897            4 
  562000    1.0332967   -3.8748413    460.16311  0.068232964  0.069655066            3 
  563000      1.04123   -3.9244329    458.91811  0.067927488  0.069627756            4 
  564000    1.0480068   -3.8776002    459.86062  0.067946309  0.069600004            2 
  565000    1.0360669   -3.8422619    461.80788  0.068113257  0.069573332            3 
  566000    1.0235599   -3.8990839    460.51781  0.067802975  0.069545321            3 
  567000    1.0340691   -3.8715193    463.84756  0.068172775  0.069517991            2 
  568000    1.0066161   -3.9040096     465.8719   0.06834975  0.069490489            3 
  569000    1.0244253   -3.8876673    464.64121  0.068049387  0.069463361            5 
  570000    1.0434836   -3.8923122    465.46967  0.068051121  0.069435725            3 
  571000    1.0347902    -3.884911    466.19804  0.068038243  0.069409119            3 
  572000    1.0333448   -3.9138728    463.45267  0.067519328  0.069380145            2 
  573000    1.0335408   -3.9058926    467.73732  0.068024625  0.069351789            4 
  574000    1.0414811   -3.9212545    465.40373  0.067567324  0.069322787           11 
  575000    1.0212187   -3.8812146     466.8894   0.06766513  0.069292754            3 
  576000    1.0257407   -3.9122286    466.85171  0.067542204  0.069263911            2 
  577000    1.0394233   -3.8912793    466.46383  0.067369126  0.069234325            3 
  578000    1.0372937   -3.9031599    468.45252   0.06753929  0.069204106            2 
  579000    1.0132909   -3.9297226    468.01314  0.067359405  0.069174487            1 
  580000   0.98753668    -3.877556    470.74487  0.067635757  0.069144863            2 
  581000     1.011816    -3.928513     470.0278  0.067416494  0.069114333            3 
  582000    1.0462432    -3.908002     469.3049  0.067197151   0.06908484            3 
  583000    1.0215838   -3.9335843    470.16644  0.067205037  0.069054182            2 
  584000    1.0086872   -3.9039379    472.10616  0.067366747  0.069022682            5 
  585000    1.0203412   -3.9205096    470.94771  0.067086568  0.068991503            3 
  586000    1.0016986   -3.8809512    471.43168   0.06704091  0.068958955            3 
  587000      1.04237   -3.9112255    473.93942  0.067282711  0.068927051            3 
  588000    1.0211475   -3.9200831    472.71348  0.066994541  0.068896167            2 
  589000    1.0291348   -3.9063039    474.23385  0.067095903  0.068862629            1 
  590000    1.0222501   -3.8802208    471.12128  0.066542554  0.068828927            2 
  591000    1.0059183   -3.8897207    472.50833   0.06662554  0.068795622            2 
  592000    1.0191468   -3.9373973    472.78312  0.066551678  0.068762034            3 
  593000   0.99691871   -3.9494148    475.25738  0.066787153  0.068729788            2 
  594000    1.0060773   -3.9153809    477.16694  0.066942612  0.068697524            3 
  595000    1.0098198   -3.9156816    476.18525  0.066692612  0.068665124            4 
  596000    0.9984481   -3.8927413    476.80489  0.066667351  0.068631362            4 
  597000    1.0345968   -3.9159548    478.32171  0.066767408  0.068597706            2 
  598000    1.0071258   -3.9000058    479.56203  0.066828599  0.068564983            2 
  599000    1.0192391   -3.9227547    478.75807  0.066605185  0.068531293            2 
  600000   0.99459132   -3.9210106    479.42228  0.066586427  0.068496844            4 
  601000     1.022166   -3.9303463    479.71169  0.066515764  0.068462636            3 
  602000    1.0230628   -3.9525571    478.91139  0.066294489  0.068428605            3 
  603000    1.0070483    -3.899661    480.74757  0.066438304  0.068394749            4 
  604000   0.99117168   -3.9088063     481.1736  0.066387086  0.068360408            2 
  605000    1.0013398   -3.9253416    479.03022  0.065982124   0.06832459            4 
  606000   0.98582019   -3.9481769    480.04752  0.066013135  0.068287693            2 
  607000    1.0156012   -3.8934942    482.96003  0.066304232  0.068251157            3 
  608000   0.98742889   -3.9213519    482.27137  0.066100791  0.068215709            3 
  609000    1.0514928   -3.9107506    482.47283  0.066019818  0.068179785            4 
  610000    1.0166001   -3.9052657    484.54265  0.066194351  0.068143866            3 
  611000    1.0285017   -3.9356508    484.57215  0.066090036  0.068107631            4 
  612000   0.98505494   -3.9378152    482.01441  0.065633771  0.068071252            2 
  613000    1.0188562   -3.9271135    484.34938  0.065844125  0.068033697            2 
  614000    1.0157384    -3.937608    483.86076  0.065670571  0.067996407            4 
  615000    1.0167128   -3.9264737    485.10044  0.065731767  0.067959841            3 
  616000    1.0152231   -3.9163563    484.80108  0.065584561  0.067923383            1 
  617000    1.0145717   -3.9441861    487.86654  0.065892294  0.067887109            2 
  618000     1.008327   -3.9275518      486.544  0.065607335  0.067852148            3 
  619000   0.98663078   -3.9459714    487.30249  0.065603459  0.067815331            2 
  620000     1.018047     -3.92778    488.43293  0.065649588  0.067778559            3 
  621000   0.99990692   -3.9471834    488.85344    0.0656003  0.067742431            2 
  622000   0.99201544   -3.9016062     489.6256  0.065598285  0.067706092            2 
  623000    1.0101803    -3.924716    490.42154  0.065599456  0.067670407            7 
  624000    1.0077833   -3.9493276    491.65363  0.065658872  0.067633639            5 
  625000    1.0266965   -3.9397166    489.80982  0.065307976  0.067597008            2 
  626000   0.96014258   -3.9385296    492.64786   0.06558145  0.067559983            2 
  627000     1.019615   -3.9154784     492.6361  0.065475292  0.067523549            4 
  628000   0.97574951   -3.9104931    493.15943  0.065440477  0.067486794            3 
  629000    1.0124314   -3.9294088    492.24178  0.065214862  0.067450004            2 
  630000   0.99286567   -3.9617847    492.47899  0.065142723  0.067413851            6 
  631000    1.0195044   -3.9276213    493.56053   0.06518232  0.067377285            4 
  632000    1.0067886     -3.93735    494.34587  0.065182736  0.067340245            3 
  633000   0.97839353   -3.9346351    493.48367  0.064966255  0.067302293            4 
  634000     0.988792   -3.9029001    496.13493  0.065212267  0.067265602            3 
  635000    1.0102697   -3.9579028    495.06305  0.064968904   0.06722944            2 
  636000    1.0020345   -3.9125778    496.88503  0.065105481  0.067192174            3 
  637000    1.0088764    -3.940434    497.92265  0.065139017  0.067155021            2 
  638000   0.98146178   -3.9416364    497.19122  0.064941382  0.067117931            4 
  639000    1.0046582   -3.9648432     498.1656  0.064966823  0.067081462            3 
  640000    1.0042619   -3.9314288    500.04808  0.065110427  0.067044649            1 
  641000    0.9951605   -3.9429329    500.60655  0.065081454  0.067008599            3 
  642000   0.99142829   -3.9292151    498.54015  0.064711858  0.066971049            2 
  643000   0.98509563    -3.939737    498.84541  0.064650779  0.066933661            3 
  644000   0.99765127   -3.9147869    501.43131  0.064885003  0.066896683            2 
  645000    1.0198769   -3.9461094    501.43703  0.064785147  0.066859063            2 
  646000   0.96890164   -3.9376873    499.70852  0.064461883  0.066821677            4 
  647000    1.0066375   -3.9359025    502.58118  0.064732248  0.066784261            6 
  648000    0.9743844   -3.9192767     501.8455  0.064537744  0.066746538            1 
  649000    1.0262165   -3.9417367    501.12758   0.06434612  0.066709049            8 
  650000   0.98897644   -3.9371504    502.69142  0.064447617  0.066670616            2 
  651000   0.99769687   -3.9841952    504.59107   0.06459179  0.066632726            4 
  652000   0.99869966   -3.9533682    505.17362  0.064567181  0.066595712            2 
  653000   0.98866606   -3.9675448    504.48605  0.064380558  0.066557792            2 
  654000   0.99673793   -3.9439848    505.09101  0.064359201  0.066520036            2 
  655000   0.98521636   -3.9255369    507.28365  0.064539904  0.066481959            4 
  656000   0.98194308   -3.9398024    507.73328  0.064498638  0.066443839            3 
  657000   0.99364328   -3.9344014    506.56161  0.064251853  0.066404702            1 
  658000   0.98781273   -3.9626695    505.95768  0.064077721  0.066366215            3 
  659000   0.97617629   -3.9588572    504.97865  0.063856683   0.06632718            2 
  660000   0.97984094    -3.926239    506.31281  0.063928385  0.066287746            4 
  661000   0.97175272   -3.9569742    506.69338  0.063879649  0.066249232            2 
  662000     1.004051   -3.9486299    507.94624  0.063940866   0.06621082            3 
  663000   0.98211938   -3.9384622     509.2874  0.064012996  0.066171309            6 
  664000   0.98244084   -3.9629123    508.16635  0.063775898  0.066132424            3 
  665000   0.97182388   -3.9392574    510.29624  0.063946897  0.066092645            3 
  666000   0.97944435   -3.9538223    510.61099  0.063890264  0.066052528            3 
  667000   0.98393171   -3.9522404    512.04225  0.063973294  0.066012993            3 
  668000   0.98748492   -3.9429697    510.34883  0.063666271  0.065972884            4 
  669000   0.97474935    -3.964937    511.53217  0.063718507   0.06593199            3 
  670000   0.97532126    -3.948514    511.39612  0.063606482  0.065891888            3 
  671000   0.97268091   -3.9446076    510.98692  0.063460869  0.065851771            3 
  672000   0.99796506   -3.9664121    512.35754  0.063536401  0.065811648            5 
  673000   0.99497767   -3.9533671    513.75614  0.063615173   0.06577251            5 
  674000    1.0047012    -3.958453    512.98389  0.063425308  0.065733161            2 
  675000   0.98234229   -3.9678842    512.37154  0.063255745  0.065693066            6 
  676000   0.97032767   -3.9700234    514.23303  0.063391645  0.065653534            2 
  677000   0.99902677   -3.9695219    515.34974  0.063435468  0.065613408            8 
  678000   0.98652662   -3.9611796    514.45555     0.063232  0.065572413            3 
  679000   0.99380098   -3.9594173    515.12977  0.063221621   0.06553256            2 
  680000   0.98932374   -3.9307401     515.1523  0.063131409  0.065492415            6 
  681000   0.98777837   -3.9769861    516.59239  0.063214928  0.065452645            3 
  682000   0.98469049   -3.9768025    516.68131  0.063133102  0.065412149            3 
  683000   0.99084133   -3.9924835     517.1924  0.063103026  0.065371455            5 
  684000   0.97732295   -3.9625022    518.05158  0.063115446  0.065331592            3 
  685000   0.96625315   -3.9959724    516.10047  0.062785945  0.065293415            6 
  686000    0.9825709   -3.9888711    521.18154  0.063311655  0.065254323            5 
  687000   0.96944869   -3.9838955    519.41078  0.063004704  0.065215637            2 
  688000    0.9701425   -3.9606933    521.27794  0.063139285  0.065177357            3 
  689000   0.97586211   -3.9867552    521.15051  0.063032234   0.06513935            5 
  690000   0.98519519   -3.9639547    523.16492  0.063184169  0.065100931            4 
  691000   0.97357091   -3.9860426    521.59637  0.062903566   0.06506307            4 
  692000    0.9853242   -3.9907134      521.904  0.062849711    0.0650241            2 
  693000    0.9958098   -3.9600266    523.70239  0.062975276  0.064985272            3 
  694000   0.97507674    -3.994657    522.44387  0.062733414  0.064945986            5 
  695000   0.97979286   -3.9826333    523.83147  0.062809528  0.064907195            4 
  696000   0.96377314   -3.9627486     525.3848  0.062905268  0.064868683            3 
  697000   0.96804953   -4.0196245    524.31774  0.062687439  0.064829913            3 
  698000   0.97433458    -3.985473    526.97258  0.062914587  0.064791906            4 
  699000   0.95889157   -3.9779418    526.48439   0.06276638  0.064754614            5 
  700000   0.98342691   -3.9615121    530.01476  0.063096995  0.064718405            5 
  701000   0.95532585   -4.0218823    529.91063  0.062994607  0.064682814            4 
  702000   0.97204562   -4.0044181    528.71233  0.062762622  0.064646629            2 
  703000   0.95807627   -3.9661898    531.05753  0.062951343  0.064611171            2 
  704000   0.96018236   -3.9632414    531.40755  0.062903356  0.064575682            4 
  705000   0.97021521   -3.9829901    533.90747   0.06310963  0.064540636            2 
  706000   0.96536365    -3.992008    534.46731   0.06308632  0.064505842            3 
  707000   0.97747936   -3.9821188    532.64053   0.06278177  0.064470574            2 
  708000   0.95827463   -3.9779301    534.01306  0.062854645  0.064435282            3 
  709000   0.98039597   -3.9886925    533.72174  0.062731752  0.064399953            2 
  710000   0.95891612   -3.9854224    532.05349  0.062447593  0.064365288            2 
  711000   0.97016958   -3.9772921    536.27404  0.062854435  0.064329212            4 
  712000   0.96424267   -3.9852306    536.09726  0.062745466  0.064293855            2 
  713000   0.95444894   -3.9775978    534.02998  0.062415847  0.064257813            3 
  714000   0.97971714   -4.0075933    535.64935  0.062517431  0.064221418            4 
  715000   0.94830354   -4.0081843    536.40316  0.062517851  0.064185755            2 
  716000   0.96378664   -4.0186691    534.77426  0.062240952  0.064149719            3 
  717000   0.96545719    -3.983529    537.25427  0.062442383  0.064113335            4 
  718000   0.96791319   -3.9985326    537.69948  0.062407089  0.064077226            3 
  719000   0.95983893   -3.9725323    538.29285  0.062389064  0.064042109            3 
  720000   0.95270827   -3.9858309    538.79901  0.062360996  0.064006366            3 
  721000   0.97235442   -3.9645443    538.21189  0.062206644  0.063970728            2 
  722000   0.95453659    -4.028561    537.45022  0.062032574  0.063935497            4 
  723000   0.96421079    -3.979741    542.04966  0.062476909  0.063900376            6 
  724000   0.95118787   -3.9737874    542.51289  0.062443933  0.063864888            3 
  725000   0.96372506   -4.0304543    541.50332  0.062241761  0.063829624            4 
  726000   0.95123552   -4.0163813    542.69558  0.062292881   0.06379458            4 
  727000    0.9633572   -4.0289764    541.31086   0.06204847  0.063759685            1 
  728000    0.9870752   -4.0050528    541.95141  0.062036562  0.063725812            7 
  729000   0.97788477   -4.0063089    544.17019  0.062205097   0.06369174            7 
  730000   0.94627071   -4.0215675    544.25984  0.062130118  0.063658112            5 
  731000   0.96745491   -3.9829593    548.19427  0.062493647  0.063624162            6 
  732000   0.97893095   -3.9809071    547.16136  0.062290683  0.063590959            4 
  733000   0.97900129    -4.015169     544.4866  0.061901614  0.063557299            5 
  734000   0.97202261   -3.9844609    545.97174  0.061985893  0.063523646            4 
  735000   0.95876705   -3.9882872    549.30545  0.062279529     0.063491            6 
  736000   0.95939008   -4.0280449    549.14165  0.062176365  0.063458002            3 
  737000   0.95931966   -4.0350728     550.5468  0.062250882  0.063424884            7 
  738000    0.9787876   -3.9962469    549.63292  0.062063337  0.063391847            4 
  739000   0.93657094   -4.0129253    547.74525  0.061766491  0.063359118            5 
  740000   0.94144107   -4.0188839    547.98021  0.061709483  0.063325586            4 
  741000    0.9694908   -3.9889011    552.32081  0.062114351  0.063292995            2 
  742000   0.97350375   -4.0200247     552.0561  0.062000909   0.06326093            6 
  743000   0.94719268   -3.9833158    552.20957  0.061934676   0.06322955            4 
  744000   0.97107923   -3.9802681    555.13747  0.062179376   0.06319753            2 
  745000   0.96588592   -4.0141552    553.93228  0.061961105  0.063165316            3 
  746000   0.94731406   -3.9940186    554.35119  0.061924843  0.063133135            3 
  747000   0.94198513    -3.963276     557.3668  0.062178358  0.063101703            2 
  748000   0.96354739   -3.9906376    556.35286   0.06198227  0.063069802            3 
  749000   0.96186594   -3.9954259    556.93278  0.061964039  0.063037536            2 
  750000   0.95131635   -3.9912602    556.49372  0.061832635  0.063005674            8 
  751000   0.95816929   -4.0039525    555.29992  0.061617834  0.062973938            2 
  752000   0.96626751   -3.9966768    559.69993  0.062023485  0.062942334            2 
  753000   0.95973371   -4.0110724    559.27945  0.061894583  0.062910851            2 
  754000   0.95271384   -4.0272387    557.35858  0.061600197  0.062878991            3 
  755000    0.9656083   -4.0460781     559.0467  0.061704933  0.062846763            5 
  756000   0.94460687   -4.0193807    560.15682  0.061745681  0.062814673            3 
  757000   0.95814671   -4.0044484    559.08928  0.061546597  0.062782352            2 
  758000    0.9564639   -3.9913742    560.05051  0.061571077  0.062749546            3 
  759000   0.94148236   -4.0222451    561.54941  0.061654525  0.062717323            6 
  760000   0.94275468   -4.0007121    561.74669  0.061595032  0.062685074            3 
  761000   0.95440561   -4.0286918    560.33727  0.061359754  0.062652466            5 
  762000   0.94304829   -4.0101947    564.31061  0.061713759  0.062619774            2 
  763000    0.9382911   -4.0384356    562.23618  0.061406311  0.062587656            4 
  764000   0.93336525   -4.0311645    563.98314  0.061516485  0.062555719            5 
  765000   0.94431507   -4.0577829    560.67048  0.061075215  0.062523313            4 
  766000   0.96727952   -4.0209164    562.83966  0.061231468  0.062490548            3 
  767000   0.95996428    -4.024589    564.94254  0.061380111  0.062458193            5 
  768000      0.95232   -4.0196253    565.61975  0.061373671  0.062425877            1 
  769000   0.93120446   -4.0380271    565.50604  0.061281539  0.062392897            2 
  770000   0.95026157   -4.0332885    565.91258   0.06124595  0.062360821            6 
  771000   0.94814978   -4.0285807    565.37613  0.061108531  0.062328113            3 
  772000   0.93635225    -4.035644     563.2853  0.060803681  0.062294763            3 
  773000   0.93415201   -4.0366954    566.98633  0.061124011  0.062261429            6 
  774000   0.93125137   -4.0279156    568.45991  0.061203694  0.062228496            5 
  775000   0.94017623   -4.0590904    566.82768  0.060949212  0.062195778            3 
  776000   0.95713835   -4.0390375    568.69033  0.061070696  0.062163359            3 
  777000   0.96237892   -4.0061949    569.79647  0.061110733  0.062130783            5 
  778000   0.92764242   -4.0531831    566.03082  0.060628837   0.06209791            2 
  779000   0.94478054   -4.0407488    569.13135  0.060882686  0.062064665            2 
  780000   0.95645334   -4.0515518    569.50251  0.060844285  0.062031932            5 
  781000   0.93173798   -4.0379718     572.5975  0.061096617  0.061999335            4 
  782000   0.95092632   -4.0187344    570.87766  0.060835216  0.061966604            2 
  783000   0.94102709   -4.0274473    570.87912  0.060757676  0.061934395            4 
  784000   0.93279147   -4.0418148    570.44876  0.060634434    0.0619013            5 
  785000   0.91983001    -4.041953    570.25612  0.060536743  0.061868006            5 
  786000   0.96505845   -4.0202222    573.07362  0.060758441  0.061835545            1 
  787000   0.91091925   -4.0152631     574.0077  0.060780146   0.06180332            3 
  788000    0.9387138   -4.0232193    574.40308  0.060744826  0.061771519            8 
  789000   0.93558328   -4.0412014    575.78656  0.060813959  0.061739661            3 
  790000   0.93954576    -4.020683    575.74858  0.060732972  0.061708281            1 
  791000   0.93915508   -4.0406265    573.52594  0.060422033  0.061676509            4 
  792000   0.92818018   -4.0377723    576.88546  0.060699228  0.061644301            2 
  793000   0.93660405   -4.0558478    577.13192  0.060648583  0.061612518            4 
  794000   0.94758388   -4.0596217    574.93953    0.0603421  0.061581151            4 
  795000   0.92651612   -4.0640553    576.91865  0.060473653  0.061549395            4 
  796000   0.92964566   -4.0489895    577.89035  0.060499408  0.061516919            7 
  797000   0.93328968   -4.0311745    577.16889  0.060348065  0.061484845            5 
  798000   0.94151975   -4.0491213    577.40511  0.060297108    0.0614525            3 
  799000   0.92479017   -4.0584061    579.60787  0.060451384  0.061420746            9 
  800000   0.95603808   -4.0635859    579.06383  0.060319149  0.061388507            2 
  801000   0.92412157   -4.0530419     579.3359   0.06027215  0.061356533            2 
  802000   0.93977697   -4.0436178    580.63648  0.060332136  0.061324581            4 
  803000   0.94031143   -4.0303962    580.49433  0.060242251  0.061292729            3 
  804000   0.91727934   -4.0611255    583.03888  0.060431062  0.061260875            3 
  805000   0.93119217   -4.0585528    579.80606  0.060021331  0.061228839            2 
  806000   0.92998642   -4.0524529    580.63748  0.060032825  0.061196466            2 
  807000    0.9270371   -4.0359294    583.97659  0.060303242  0.061164513            3 
  808000   0.92191728   -4.0499328     581.1187  0.059933859  0.061132007            2 
  809000    0.9358276   -4.0410338    584.65447  0.060223988  0.061099536            4 
  810000   0.91523005   -4.0347281    584.82749  0.060167438  0.061067581            2 
  811000   0.91129444   -4.0745145    583.28809  0.059935069  0.061035318            4 
  812000   0.90956189     -4.03968    584.86471  0.060023062  0.061003457            6 
  813000   0.94233309   -4.0490062    586.49188  0.060116019  0.060971619            2 
  814000   0.94511428   -4.0860428      587.435  0.060138718  0.060940307            5 
  815000   0.93800897   -4.0664808    586.50378  0.059969712   0.06090849            2 
  816000   0.95635675   -4.0649763    585.11989  0.059754891  0.060877034            5 
  817000   0.93263686   -4.0624405    586.14005  0.059785807  0.060845333            7 
  818000   0.92568104   -4.0384257    588.08076  0.059910428  0.060813909            3 
  819000   0.93576237   -4.0622801    588.63111  0.059893275  0.060782896            3 
  820000   0.89392685   -4.0467246    589.24237  0.059882354  0.060751808            7 
  821000   0.92368523   -4.0612393    588.40032  0.059723946  0.060720843            3 
  822000   0.92532766   -4.0649611     589.6216  0.059775101  0.060689944            3 
  823000   0.93249596   -4.0549423    589.49666   0.05968982   0.06065924            4 
  824000   0.93550688   -4.0599534    593.77141  0.060049697  0.060628796            7 
  825000   0.91933418   -4.0906422    592.74737  0.059873471  0.060598769            3 
  826000    0.9279875     -4.06558    591.61951  0.059687198  0.060568432            3 
  827000   0.93341638   -4.0479532    594.25509  0.059880602   0.06053842            3 
  828000    0.9322642   -4.0614563    592.98516  0.059680471  0.060508728            3 
  829000   0.92500385   -4.0598033    594.46598  0.059757336  0.060478898            5 
  830000   0.90367574   -4.0600838    595.68163  0.059807392  0.060448671            3 
  831000   0.91636478   -4.0612192    596.28063   0.05979549  0.060418839            3 
  832000   0.90156264   -4.0520255    597.48887  0.059844639  0.060389209            6 
  833000   0.91486338   -4.0662655    598.22831  0.059846769  0.060359746            3 
  834000   0.93573992   -4.0586991    597.50159  0.059702397  0.060330142            5 
  835000   0.90188189   -4.0563732    597.36797  0.059617562  0.060300768            1 
  836000   0.89965506   -4.0731344    598.39165   0.05964829  0.060270803            5 
  837000   0.91066635   -4.0741964    598.02932  0.059540951   0.06024089            3 
  838000    0.9367316   -4.0493303    597.85929  0.059452992  0.060210842            4 
  839000   0.91312828   -4.0779004    595.22803  0.059120782  0.060180644            3 
  840000   0.91392594   -4.0557898    598.37507  0.059362606  0.060150086            1 
  841000   0.90398088   -4.0900591    598.70312  0.059324526  0.060120244            4 
  842000   0.90249607   -4.0618791    600.04566  0.059386942  0.060090188            6 
  843000   0.91010216   -4.0600257    599.19476  0.059232381  0.060060085            5 
  844000   0.90986334   -4.0742035    601.26189  0.059366301  0.060030091            2 
  845000   0.90915539   -4.0703716    601.31218  0.059301004  0.060000403            2 
  846000   0.89950312   -4.0896882    602.40412  0.059338467  0.059970346            4 
  847000    0.9260525   -4.0785678    600.50524  0.059081586  0.059940845            3 
  848000   0.91347787   -4.0879813    602.69828  0.059227426  0.059910915            4 
  849000    0.9187963   -4.1083242    601.30925  0.059021324  0.059880596            3 
  850000   0.90814518   -4.1104594    599.95317  0.058818938  0.059849477            5 
  851000   0.92181646   -4.0919159    602.94387  0.059042682  0.059818958            4 
  852000   0.91346757   -4.0776128    605.34434  0.059208171  0.059789209            4 
  853000   0.91633843   -4.1291499    600.82297  0.058697047  0.059758708            5 
  854000   0.91697216   -4.0818576    606.04904  0.059138274  0.059728116            2 
  855000    0.9385934   -4.0433046    603.46871  0.058817613  0.059697919            3 
  856000   0.90331744   -4.0798056    605.72564  0.058968618  0.059667839            4 
  857000   0.92462163   -4.1102104    606.96047  0.059019882  0.059637657            2 
  858000   0.90955316   -4.0721137    607.56124  0.059009444   0.05960777            3 
  859000   0.90064544   -4.0578964    607.27274  0.058912761  0.059577696            3 
  860000   0.90843935   -4.0862777    606.95896  0.058813853  0.059547876            2 
  861000   0.91533414   -4.1216963    607.48892  0.058796837  0.059517343            3 
  862000   0.92628067   -4.1133034    606.26672  0.058610472  0.059487015            4 
  863000    0.8944247   -4.0713472    607.43306  0.058655182  0.059456202            4 
  864000   0.90585302   -4.0803265    611.01907  0.058933166  0.059425962            3 
  865000   0.91432957   -4.0968324    609.93157  0.058760266  0.059395745            3 
  866000   0.89763747     -4.11564    608.46138  0.058550941  0.059365435            3 
  867000   0.88923642   -4.0628091     610.4406  0.058673645  0.059334808            3 
  868000   0.91453393   -4.0805917    609.06899  0.058474366  0.059304673            2 
  869000   0.91507611   -4.0826447    609.90297  0.058487051  0.059274723            3 
  870000   0.93819363   -4.0922662    611.88074  0.058609267  0.059244466            7 
  871000   0.90033452   -4.1257012    611.01318  0.058458973  0.059214282            4 
  872000    0.9044619   -4.0932461    613.70546  0.058649222  0.059184054            3 
  873000   0.90154419   -4.1016263    610.82661  0.058307237  0.059154137            6 
  874000   0.89100205   -4.0741473    614.21872  0.058563951  0.059124207            3 
  875000   0.89727146   -4.1007083    614.19993  0.058495231  0.059093783            4 
  876000   0.89950382   -4.0934607    614.88039  0.058493188  0.059063708            4 
  877000   0.89894106    -4.073981     617.6398  0.058688692  0.059033666            2 
  878000   0.90707554   -4.0907617    616.39796  0.058503983  0.059003486            3 
  879000   0.89258644   -4.1241485    614.08231   0.05821789  0.058973078            6 
  880000   0.90599144   -4.0989161    613.91889  0.058136258  0.058942427            2 
  881000   0.91894622    -4.083929    617.51211  0.058410151  0.058912411            3 
  882000   0.89149086   -4.1059469    613.77817  0.057991135  0.058882393            2 
  883000    0.9073486   -4.1079672    616.61986  0.058193644  0.058852891            2 
  884000   0.89788336   -4.1253842    615.05402  0.057980206  0.058822995            2 
  885000   0.89174426   -4.1117017    618.34839  0.058224895  0.058792859            3 
  886000   0.90019883   -4.1261252     615.1809  0.057861259  0.058762341            6 
  887000   0.90739695   -4.1193208    616.32606  0.057903614  0.058732105            7 
  888000   0.90942245   -4.1220042    616.89015  0.057891342  0.058701187            6 
  889000   0.91239302   -4.1154945    619.02857  0.058026675  0.058670976            5 
  890000   0.88299022     -4.10986    618.66085  0.057927046  0.058640792            7 
  891000   0.89613376   -4.0978708    620.80482  0.058062553  0.058611222            9 
  892000   0.91269806   -4.0918284    620.54279  0.057972981  0.058581265            3 
  893000   0.87966352    -4.094557    618.77217  0.057742831  0.058551223            2 
  894000   0.88162394   -4.0797508    622.00864  0.057979925  0.058521002            2 
  895000   0.90653132   -4.1007687    622.93404  0.058001307   0.05849137            4 
  896000   0.89600288   -4.1057029    622.21452  0.057869654  0.058461946            3 
  897000    0.9172564   -4.0772101    625.08019  0.058071367  0.058432307            6 
  898000   0.90326738   -4.1197281    621.47193  0.057671856  0.058402766            3 
  899000   0.89699823   -4.1006913    622.31961  0.057686282   0.05837207            2 
  900000   0.88255439   -4.1085895    623.33642  0.057716335  0.058341646            4 
  901000   0.90382854   -4.1405551    624.88333   0.05779535  0.058311696            5 
  902000   0.87693198   -4.1429611    623.92218  0.057642477   0.05828121            4 
  903000   0.88713688   -4.1248889    626.10192  0.057779801  0.058252045            5 
  904000   0.86606338   -4.1090789    626.66179  0.057767496  0.058222751            3 
  905000   0.88140402   -4.1081065    626.75687  0.057712419  0.058193212            7 
  906000   0.88647102   -4.1077807    625.29066  0.057513858  0.058163862            2 
  907000   0.87396465   -4.1447961    625.68525  0.057486701  0.058134967            4 
  908000     0.897964   -4.1233527    625.79833  0.057433768  0.058105647            7 
  909000   0.87816718   -4.1068075    628.21045  0.057591717  0.058076434            4 
  910000   0.89393365   -4.1132207    628.13905  0.057521891  0.058047553            4 
  911000   0.89257614   -4.1235495    628.80784  0.057519926  0.058018319            6 
  912000    0.8889817   -4.1305434    626.54444   0.05725004  0.057988709            2 
  913000   0.88066799    -4.125835    627.92902  0.057313712  0.057958794            5 
  914000   0.88549406   -4.1357007    627.63135  0.057223865  0.057928738            2 
  915000   0.88366181   -4.1064051    630.93155   0.05746189  0.057898839            3 
  916000   0.88106983   -4.1551706    627.38468  0.057076481  0.057868313            6 
  917000   0.90625554   -4.1273464    628.12294  0.057081329  0.057838101            2 
  918000   0.87411238   -4.1261367    627.74331  0.056984687  0.057807959            3 
  919000   0.86857929   -4.1616058     628.5926  0.056999692  0.057777688            3 
  920000   0.87990231   -4.1364629    629.52963  0.057022611  0.057746864            5 
  921000   0.88403006   -4.1244257    629.13006  0.056924544  0.057716612            3 
  922000   0.88221825   -4.1323724    629.68821  0.056913251  0.057685985            4 
  923000   0.90155058   -4.1196756    630.83888  0.056955478  0.057655783            3 
  924000   0.88100463     -4.15456      630.952   0.05690404  0.057625627            4 
  925000   0.89370851   -4.1222393    631.77788  0.056916926  0.057595413            3 
  926000   0.88891486   -4.1373343    631.15541  0.056799443  0.057564377            3 
  927000   0.89111535   -4.1208267    631.50864  0.056769925  0.057533618            9 
  928000   0.88129215   -4.1399263    631.62118  0.056718856  0.057502577            4 
  929000   0.87925787   -4.1087446    634.57873  0.056923101  0.057472262            3 
  930000   0.89074206   -4.1520676    632.30417  0.056658079  0.057441785            5 
  931000    0.8986729   -4.1482815    632.95543  0.056655516  0.057410829            3 
  932000    0.8816214   -4.1459509    631.55363  0.056469387  0.057380201            7 
  933000    0.8842327   -4.1580568    633.73923  0.056604075  0.057349257            3 
  934000   0.90767306   -4.1359998    635.26805  0.056679876  0.057318554            4 
  935000   0.88936944   -4.1370219    635.57027  0.056646192  0.057288348            4 
  936000   0.86979896   -4.1159584    636.15271  0.056637528  0.057257873            3 
  937000   0.87178908   -4.1490819    635.78905   0.05654474  0.057227499            5 
  938000   0.87666639   -4.1438743    635.40186  0.056450059  0.057197003            4 
  939000   0.89937298   -4.1009965    636.45384  0.056483301  0.057166205            4 
  940000   0.86690172   -4.1367341    634.75378  0.056272498  0.057135661            5 
  941000   0.90883405   -4.1351881    638.11132  0.056510036   0.05710489            4 
  942000   0.85620471   -4.1757615    637.84091  0.056426124  0.057073919            4 
  943000   0.87710539   -4.1026986    638.30751  0.056407521   0.05704269            3 
  944000   0.86878715   -4.1458586    636.50771  0.056188887  0.057011633            3 
  945000   0.85191567   -4.1570481    635.59859  0.056049258  0.056979981            3 
  946000   0.88267158   -4.1106849    639.39637  0.056324557  0.056948323            4 
  947000   0.86995181   -4.1491183    637.77064   0.05612202  0.056916941            2 
  948000   0.90243762   -4.1356518    639.01411  0.056172127  0.056885664            5 
  949000   0.87323418   -4.1693684    637.85355  0.056011025  0.056854407            7 
  950000    0.8936664   -4.1493468    637.99652  0.055964607  0.056822816            6 
  951000   0.87266488   -4.1392551    639.95616  0.056077476  0.056791399            5 
  952000   0.86318608   -4.1670877    637.54005  0.055807078  0.056759983            6 
  953000   0.87212901   -4.1290455    637.58914   0.05575281  0.056728015            4 
  954000   0.87542257   -4.1634967    635.41353  0.055504326  0.056696473            3 
  955000   0.87218119   -4.1455708    642.94127  0.056103078   0.05666453            2 
  956000   0.86148967   -4.1407502    641.74011  0.055939689  0.056633006            4 
  957000   0.87352316    -4.150105    638.11675  0.055565722  0.056600965            3 
  958000   0.86820338   -4.1467896    639.17704  0.055599951  0.056568819            3 
  959000   0.88714401   -4.1514336    640.29286  0.055638935  0.056536663            5 
  960000   0.85348031    -4.145321    643.68946  0.055875821  0.056505003            3 
  961000   0.88802599    -4.132454    642.13802  0.055683144  0.056473693            6 
  962000   0.85293458   -4.1642114    641.47038  0.055567427  0.056442089            5 
  963000   0.86187188   -4.1670409    640.41789  0.055418647  0.056410348            6 
  964000   0.89246833   -4.1154878    641.61115  0.055464311  0.056378341            3 
  965000   0.87974748   -4.1558727    641.72102  0.055416323  0.056346661            4 
  966000   0.87342257   -4.1526447    643.78985  0.055537426   0.05631485            4 
  967000   0.87249692   -4.1515751     642.7977  0.055394493  0.056282986            3 
  968000   0.89617446   -4.1370059    644.81025  0.055510524  0.056251398            1 
  969000   0.86373279   -4.1610967    642.45683  0.055250846  0.056219604            8 
  970000   0.88679887   -4.1819596    642.94695  0.055235992  0.056187494            6 
  971000   0.86369415   -4.1411689    644.81764  0.055339653  0.056155784            4 
  972000   0.86474168   -4.1734282    645.42299  0.055334619  0.056124221            5 
  973000   0.87047592   -4.1732266    648.03342   0.05550132  0.056092408            7 
  974000   0.86466821   -4.1794876    645.42346  0.055221035  0.056060785            4 
  975000   0.86977408   -4.1827064    647.06054   0.05530432  0.056029097            4 
  976000   0.85998835   -4.1472062    647.89111  0.055318571  0.055997618            4 
  977000    0.8483409   -4.1656638    646.89671  0.055177133  0.055965602            3 
  978000   0.85608547   -4.1213699    648.26807  0.055237565  0.055934016            2 
  979000   0.85589113   -4.1587172    647.26468  0.055095733  0.055902874            5 
  980000   0.84987297   -4.1669095    648.18442  0.055117723  0.055871734            8 
  981000    0.8684226   -4.1734981    649.38049   0.05516314  0.055841012            3 
  982000   0.85218623   -4.1763677    648.80724   0.05505832  0.055810105            5 
  983000    0.8601741   -4.1705692    649.03314   0.05502146  0.055779078            4 
  984000   0.86858372   -4.1988903    647.80873  0.054861851  0.055748741            5 
  985000   0.87378452    -4.177656    650.47304   0.05503156  0.055717422            3 
  986000   0.86266016    -4.167051    650.89396  0.055011322  0.055686888            4 
  987000   0.86147475   -4.1533342    651.69341  0.055023084  0.055656595            4 
  988000   0.84679825   -4.1797952    650.22664  0.054843678  0.055625219            4 
  989000   0.85547343   -4.1943536    652.33395  0.054965786  0.055593719            7 
  990000   0.85813402   -4.1456407    652.52505  0.054926351  0.055562883            4 
  991000    0.8709104   -4.1544146     652.0631   0.05483208  0.055532587            2 
  992000   0.86629767   -4.1707999     653.8273  0.054925008  0.055501997            2 
  993000   0.86386086   -4.1902824     652.7968  0.054783216  0.055470667            3 
  994000    0.8694905   -4.1724734    654.07353  0.054835138  0.055439994            5 
  995000   0.85785331   -4.1609132    654.03166  0.054776521  0.055409804            4 
  996000   0.86332291   -4.1755123     655.6231  0.054854677  0.055379149            2 
  997000   0.83563989   -4.2010481    656.44139  0.054868053  0.055348726            5 
  998000   0.83523219   -4.1863793    655.90239  0.054768069  0.055318259            3 
  999000   0.85073806   -4.1818416    656.38401  0.054753421  0.055287638            5 
 1000000   0.86268913   -4.1869896    656.10958  0.054675798  0.055257041            3 
 1001000   0.85160112   -4.1925787    653.50035  0.054403958  0.055226286            5 
 1002000   0.84656489   -4.1859182    656.56191  0.054604284  0.055195381            7 
 1003000   0.83982269   -4.1736442    655.71093   0.05447914   0.05516439            3 
 1004000   0.87380165   -4.1838212    657.65417  0.054586169  0.055133932            4 
 1005000   0.84381621   -4.1811044    658.01414  0.054561703   0.05510343            8 
 1006000   0.83802733   -4.1671073    655.68499  0.054314528  0.055072824            5 
 1007000   0.84511098   -4.1717076    655.50743  0.054245897  0.055042203            6 
 1008000   0.84407224   -4.1981233    656.79714  0.054298706  0.055011417            4 
 1009000   0.85819346   -4.1929771    656.67069  0.054234447  0.054980634            5 
 1010000   0.85169604   -4.2014883    658.39858  0.054323316   0.05494983            3 
 1011000   0.86010104   -4.1995966    658.34971  0.054265554  0.054919025            5 
 1012000   0.85358411   -4.1782563    657.65024  0.054154334  0.054888505            6 
 1013000   0.83801953   -4.1907938    658.55894  0.054175628  0.054858444            3 
 1014000   0.82980066   -4.1896023    659.96978  0.054238147     0.054828            5 
 1015000   0.84047687   -4.1714546    664.14788  0.054527741  0.054798229            5 
 1016000    0.8452278   -4.2082209    663.50065  0.054420985  0.054768693            4 
 1017000   0.83645729   -4.1815542    664.14434  0.054420218  0.054739086            4 
 1018000   0.86258893   -4.1405905    664.17539  0.054369302  0.054709734            8 
 1019000   0.84068735   -4.1942669     663.7768   0.05428335  0.054680641            4 
 1020000   0.85673118   -4.1699265    662.83114  0.054152871  0.054651431            4 
 1021000   0.84328045   -4.2111249    662.65737  0.054085648  0.054621652            3 
 1022000   0.82954272   -4.1781044    664.40951  0.054175596  0.054591752            3 
 1023000    0.8458558   -4.1699364    667.28709  0.054357046  0.054562178            3 
 1024000   0.82442131   -4.2098586    663.49942  0.053995721  0.054532347            5 
 1025000   0.83057038   -4.1833978    662.45345  0.053858004  0.054502339            5 
 1026000    0.8426124   -4.2007811    664.12256  0.053941078  0.054472624            5 
 1027000   0.84721797   -4.1996691    666.00015  0.054040908  0.054442455            5 
 1028000   0.84658856    -4.179685    666.22468   0.05400654  0.054412719            5 
 1029000   0.82633175   -4.2006056     667.0823   0.05402351  0.054383185            6 
 1030000    0.8419313   -4.1801094    667.35689  0.053993276  0.054353999            6 
 1031000   0.84143784   -4.2084098     667.1106  0.053920999  0.054324242            6 
 1032000   0.82037979   -4.2035771    667.83136  0.053926951  0.054294753            3 
 1033000   0.84993198   -4.2215111    668.15491  0.053900848   0.05426507            7 
 1034000   0.83563698    -4.210532    668.62088  0.053886273  0.054235573            5 
 1035000   0.85063629   -4.2121774    667.88813  0.053775212  0.054206565            4 
 1036000   0.85769812   -4.1975141    669.53815  0.053856029   0.05417754            5 
 1037000   0.86096378    -4.189298    671.70797  0.053978461  0.054148148            6 
 1038000   0.83118023   -4.2185701    671.29536  0.053893334  0.054119437           10 
 1039000   0.84629632    -4.218167    672.54065  0.053941342  0.054090706            5 
 1040000   0.84527198   -4.2419213    670.88134  0.053756518  0.054062092            4 
 1041000   0.84133271   -4.1994532    670.72043  0.053691997  0.054033089            3 
 1042000   0.84298296   -4.2323616    670.75896  0.053643551  0.054004081            2 
 1043000   0.82240891   -4.1952572    673.87519  0.053841099  0.053975029            9 
 1044000    0.8293131   -4.2157301    671.29577  0.053583634  0.053946307            6 
 1045000    0.8490459   -4.2369263      671.891  0.053579825  0.053917498            6 
 1046000    0.8183928   -4.2289514    671.32876  0.053483808  0.053888659            4 
 1047000    0.8439645   -4.2292758    673.00284  0.053565969  0.053859932            4 
 1048000   0.83764681   -4.1928984    672.66349  0.053487873  0.053831091            2 
 1049000   0.82236842   -4.1840639    672.18083   0.05339854  0.053802162            6 
 1050000   0.82306724   -4.1729594    675.45183  0.053607288  0.053773394            5 
 1051000   0.84875096   -4.2070782    674.83667  0.053507506  0.053744569            3 
 1052000   0.83737122   -4.2049184    674.79732  0.053453526  0.053715558            8 
 1053000   0.82522916   -4.2218829    670.43158  0.053057264  0.053686089            6 
 1054000   0.84483403   -4.1833947    674.07934   0.05329533  0.053657057            5 
 1055000   0.84542681   -4.1968038    675.99843    0.0533964  0.053628388            5 
 1056000   0.82236478   -4.2415716    673.18763  0.053124024  0.053599399            4 
 1057000   0.83934071   -4.2255848    675.19137  0.053231738  0.053570303            5 
 1058000   0.83323959   -4.2329741    674.97073  0.053164046  0.053541137            4 
 1059000   0.84505922   -4.2468978    674.48033  0.053075254  0.053511793            7 
 1060000    0.8343828   -4.2090555    675.59615  0.053112905  0.053482213            7 
 1061000   0.82333393   -4.2178889    677.67751   0.05322632  0.053453115            2 
 1062000   0.82651053   -4.2153905      675.229  0.052984071  0.053423444            4 
 1063000   0.83738513   -4.1784391    678.52071  0.053192279  0.053394495            3 
 1064000   0.83086297   -4.2257205    675.82789  0.052931382  0.053365484            3 
 1065000   0.81388744   -4.2407696    678.85487  0.053118535  0.053336225            2 
 1066000   0.83288802   -4.2014506    677.56849  0.052968144  0.053307199            5 
 1067000   0.82300027   -4.2096653     678.9634  0.053027445  0.053278214            4 
 1068000   0.83119804   -4.2282478    679.50955  0.053020408  0.053249197            6 
 1069000   0.82162826   -4.2255697    679.20191  0.052946828  0.053220374            6 
 1070000   0.82885384   -4.2233256    678.99886  0.052881531  0.053191484            6 
 1071000   0.83879292   -4.2304839    679.77304  0.052892393  0.053163023            7 
 1072000   0.83641759   -4.2404823    681.06719  0.052943656  0.053134389            4 
 1073000   0.81195555   -4.2404077    680.20863  0.052827635  0.053105728            7 
 1074000    0.8187276   -4.2306607      683.079  0.053001164  0.053076984            7 
 1075000   0.83286351   -4.2404094    683.14974  0.052957344  0.053048585            5 
 1076000   0.84706419     -4.24483    683.10358  0.052904552  0.053020153            3 
 1077000   0.83786178   -4.2483529    680.25583  0.052635085  0.052991878            2 
 1078000   0.83078035   -4.2480656    680.51036  0.052605934  0.052963522            5 
 1079000   0.82791251   -4.2439924    681.04626  0.052598568  0.052934956            3 
 1080000     0.844586   -4.2231379    682.12095   0.05263279   0.05290645            5 
 1081000    0.8256382   -4.2359768     685.1379  0.052816675  0.052877894            3 
 1082000   0.82672894    -4.252422     682.6475  0.052576055  0.052849651            4 
 1083000   0.81200915   -4.2260535    686.20205  0.052801019   0.05282154            4 
 1084000   0.81753675   -4.2326108    685.16349   0.05267247  0.052793408            6 
 1085000   0.80635345   -4.2419504    686.58224  0.052732891  0.052765568            6 
 1086000   0.80292777   -4.2563438    686.73184  0.052695814    0.0527375            4 
 1087000   0.82478407   -4.2246801    686.56941  0.052634883  0.052709482            9 
 1088000   0.82480272   -4.2468533    685.47604   0.05250276  0.052681244            5 
 1089000   0.81492759   -4.2381777    688.42981  0.052680579  0.052653148            5 
 1090000   0.84833545   -4.2636415     686.7107  0.052500818  0.052625469           15 
 1091000   0.82822073   -4.2530406    685.18317  0.052336019  0.052597378            5 
 1092000   0.80672463   -4.2586707    687.01875  0.052428171  0.052569488            4 
 1093000   0.80381186   -4.2369997    688.26035  0.052474867  0.052541234            3 
 1094000   0.82591257   -4.2545432    690.28254  0.052580937  0.052513466            8 
 1095000    0.8130946   -4.2571616    687.36607  0.052310965  0.052485389            3 
 1096000   0.80003798   -4.2242823    687.75214   0.05229259  0.052457132            2 
 1097000   0.81166323   -4.2410615    689.90108  0.052408165   0.05242902            5 
 1098000   0.82473529   -4.2480308     689.1478  0.052303264  0.052401041            6 
 1099000   0.79912263   -4.2569543    688.86053  0.052233889  0.052373097            5 
 1100000   0.80140061   -4.2595091    689.00352  0.052197236  0.052344934            2 
 1101000   0.81057316   -4.2548755    686.94511  0.051994029  0.052316884            5 
 1102000   0.79503497   -4.2418762     690.8099  0.052239103  0.052288997            7 
 1103000   0.82431827   -4.2393147    690.44339  0.052164052  0.052260677            8 
 1104000   0.83226392   -4.2526517    689.62175  0.052054781  0.052232276            4 
 1105000   0.81611455   -4.2580875    691.64833  0.052160507  0.052204349            5 
 1106000   0.81987334   -4.2453416    691.29373  0.052086628  0.052176365            3 
 1107000   0.82393934   -4.2322461    690.69661  0.051994626  0.052148182            9 
 1108000   0.79500965   -4.2195857    692.19703  0.052060547  0.052119902            4 
 1109000   0.80675223   -4.2780992    690.16639  0.051861015  0.052091991            9 
 1110000    0.8176616   -4.2502523    693.24853  0.052045686  0.052063762            7 
 1111000   0.80637488   -4.2605731    691.96736  0.051902742   0.05203553            4 
 1112000   0.79375124   -4.2898748    692.55746  0.051900289  0.052007052            7 
 1113000   0.81651077   -4.2741326    693.67963  0.051937679  0.051978683            7 
 1114000    0.7932904   -4.2446937    694.66828  0.051965012   0.05195094            2 
 1115000   0.80691845   -4.2602728    693.83907  0.051856433   0.05192317            5 
 1116000   0.82522528    -4.261483    694.59447  0.051866373  0.051895241            6 
 1117000   0.81735182   -4.2571716    692.92731  0.051695562  0.051867463            4 
 1118000   0.81376972   -4.2600394     695.1962   0.05181844  0.051839425            8 
 1119000   0.81158814   -4.2809486    695.15812  0.051769297   0.05181146            5 
 1120000   0.80306779   -4.2798573    696.28902  0.051807219  0.051783818            5 
 1121000    0.8095134    -4.260714    695.31493  0.051688591  0.051756301            3 
 1122000   0.80990977   -4.2622612    697.66157  0.051816813  0.051728836            5 
 1123000   0.79736012   -4.2758672    696.70655  0.051699803  0.051701582            5 
 1124000   0.80580727   -4.2666489    697.20039  0.051690421  0.051674302            4 
 1125000   0.80013954   -4.2490732    697.41086  0.051660064  0.051647211            3 
 1126000   0.80513682   -4.2597482    697.16087  0.051595683  0.051620221           10 
 1127000    0.7996504   -4.2588812      697.783  0.051595904  0.051592838            7 
 1128000   0.79869987   -4.2517438    701.61745   0.05183344  0.051565881            8 
 1129000    0.8031834   -4.2986502    699.99732  0.051667945  0.051538922            9 
 1130000   0.81858987   -4.2734957    698.07836  0.051480705  0.051511599            4 
 1131000   0.81908502   -4.2629472    699.18892  0.051517014  0.051484663            8 
 1132000    0.7982545   -4.2728367    698.71635  0.051436716  0.051457691            7 
 1133000   0.79788711   -4.2756072    698.77001  0.051395264  0.051430397            3 
 1134000   0.81273017   -4.2902558    699.87845  0.051431397  0.051403344            8 
 1135000   0.80934523   -4.2800424    701.03733   0.05147117  0.051376404            8 
 1136000   0.79084792   -4.2633399    701.58436  0.051465989  0.051349333            5 
 1137000   0.79751343   -4.2811032    701.37637   0.05140548  0.051322207           11 
 1138000    0.8091868   -4.2852054    702.26246  0.051425195  0.051295021            9 
 1139000   0.80285739   -4.2718492    699.71599  0.051193737  0.051267738            3 
 1140000   0.80528647   -4.2570834    701.80193  0.051301311  0.051240371            4 
 1141000   0.80086732   -4.2692947    703.31351  0.051366748  0.051213191           10 
 1142000   0.78535974   -4.3098428    701.23689  0.051170234  0.051185861            4 
 1143000   0.79428136   -4.2928864    701.56792    0.0511496  0.051158676            3 
 1144000   0.79591969   -4.2787462     704.2622  0.051301151  0.051131433            6 
 1145000   0.80210227   -4.2762347    704.39701  0.051266158  0.051104339            9 
 1146000    0.7869133   -4.2689686    704.32208  0.051215975  0.051077093            4 
 1147000    0.7972253   -4.2667856    704.50502  0.051184614  0.051050182            7 
 1148000   0.79381823   -4.3094103    703.09972  0.051038017   0.05102274            9 
 1149000   0.80116824   -4.3036291    701.96129   0.05091103  0.050995062            5 
 1150000   0.78345922   -4.2855396    702.16102  0.050881233  0.050967343            5 
 1151000   0.78702447   -4.2902538    703.28457  0.050918373  0.050940137           11 
 1152000    0.7993746   -4.2762365    704.11196  0.050934025  0.050912838            6 
 1153000   0.78146796    -4.289625    705.96562  0.051023823  0.050885674            5 
 1154000   0.79346335   -4.2940767    704.85793  0.050899619  0.050858769            6 
 1155000   0.78912772   -4.2950158    704.26068  0.050812459  0.050831619            2 
 1156000   0.78806497   -4.2732647    707.05905  0.050970231  0.050804083            4 
 1157000    0.8082294   -4.3010639    706.97122  0.050919852  0.050776871            3 
 1158000   0.81869189   -4.2809954    706.61758   0.05085043   0.05074975            3 
 1159000   0.79184332    -4.288754     706.3906  0.050790236  0.050722887            3 
 1160000   0.79807198   -4.3040828     706.3193  0.050741329  0.050695799            4 
 1161000   0.79182497   -4.2990379    706.81145  0.050732949   0.05066859            6 
 1162000   0.78866455   -4.2796241    709.49257  0.050881567  0.050641527            4 
 1163000   0.77971755   -4.2856298    706.85453  0.050648791  0.050614637            3 
 1164000     0.776215   -4.3032869    707.25446  0.050633911  0.050587525            2 
 1165000   0.80941388   -4.3000493    708.18454  0.050656977  0.050560462           11 
 1166000   0.79308437   -4.3110282    706.80664  0.050515054  0.050533459            9 
 1167000   0.77579521   -4.3142597    705.99277  0.050413651  0.050506539            4 
 1168000   0.78506373   -4.3052394    708.53165   0.05055163  0.050479152            2 
 1169000   0.77943773   -4.2901139    708.33594  0.050494435  0.050451856            3 
 1170000   0.77452938   -4.3146519    707.93059  0.050422407  0.050424435            5 
 1171000    0.7889102    -4.304986    708.62999   0.05042912  0.050396898            4 
 1172000   0.78025571   -4.2769031    711.88318  0.050617405  0.050369865            3 
 1173000   0.78644409   -4.3136414    709.27069  0.050388654   0.05034291            4 
 1174000     0.796409   -4.2883618    711.17832  0.050481141  0.050315635            3 
 1175000   0.80072987   -4.2734679    711.59851   0.05046798  0.050288624            7 
 1176000    0.7848095   -4.2990729    708.77603  0.050225059  0.050261472            3 
 1177000    0.7771152   -4.2864618    711.49787  0.050375097  0.050234337            4 
 1178000   0.78099082   -4.3085601     709.3374  0.050179499   0.05020707           11 
 1179000   0.78960867   -4.3070574    710.54597  0.050222362  0.050179482            9 
 1180000   0.77797956   -4.3124204    711.48498  0.050246114  0.050152369            4 
 1181000    0.7746096   -4.3157446    711.49083  0.050203982  0.050125344            4 
 1182000   0.79140884   -4.2779363    711.97574  0.050195695  0.050098188            4 
 1183000   0.78474991   -4.3412665    712.47439   0.05018839  0.050071087            5 
 1184000   0.77683542   -4.3155766    709.06289   0.04990589  0.050043774            4 
 1185000   0.78006074   -4.3108359     712.1408  0.050080225  0.050016386            3 
 1186000   0.77259845   -4.3290657    711.40417   0.04998624  0.049988839            5 
 1187000    0.7757847   -4.3211857    713.17253  0.050068277  0.049961718            7 
 1188000   0.78533788   -4.3109773    713.43726  0.050044701  0.049934381            3 
 1189000   0.78616784   -4.3044623     712.8965  0.049964711  0.049906914            3 
 1190000   0.78100329   -4.3063942    711.78434  0.049844841  0.049879745            5 
 1191000   0.78290348   -4.3293443    713.08951  0.049894312  0.049852522            3 
 1192000   0.78995584   -4.2973289    712.45724  0.049808252  0.049825117            4 
 1193000   0.76662066   -4.3266114    713.84334  0.049863323  0.049797667            3 
 1194000   0.79956664   -4.3186574    714.35845  0.049857513  0.049770209            3 
 1195000   0.77492877   -4.3301931    713.80181  0.049776974  0.049743081           16 
 1196000   0.77604535   -4.3266918    713.47505  0.049712587  0.049715875            3 
 1197000   0.77021044   -4.3180652    713.83554  0.049696153   0.04968845            2 
 1198000   0.78541177   -4.3067833    714.31731  0.049688182  0.049661034           15 
 1199000   0.77146166   -4.3213307    715.10359  0.049701389  0.049633848            3 
 1200000   0.78814678   -4.3152509    715.81897  0.049709651  0.049606472            8 
 1201000   0.77678546   -4.3118782     714.1622  0.049553303  0.049579281            7 
 1202000   0.78476082   -4.3243909    715.54129  0.049607688  0.049552377            2 
 1203000   0.77329314   -4.3226652    714.49184  0.049493754  0.049525237            5 
 1204000   0.78307682   -4.3386107    714.94712  0.049484158  0.049498019            5 
 1205000   0.76678106   -4.3409201    715.66009  0.049492399  0.049470452            4 
 1206000    0.7742911   -4.3028913    713.77123  0.049320842  0.049443096            5 
 1207000   0.78567615     -4.33752    715.94315  0.049429933  0.049416005            6 
 1208000   0.78513186   -4.3292968    714.90959  0.049317714  0.049388674            4 
 1209000   0.77932312   -4.3576425    717.27975  0.049440292  0.049361243            7 
 1210000   0.77530853   -4.3058768    718.88633  0.049510078  0.049333907            4 
 1211000   0.76583613   -4.3334872    719.47989  0.049510039   0.04930687            6 
 1212000   0.77275266   -4.3306585    720.11988  0.049513193  0.049279839            9 
 1213000   0.77298951   -4.3135282    720.35804  0.049488736  0.049253101            5 
 1214000   0.78626911   -4.3331926    717.45686  0.049248824  0.049226219            4 
 1215000   0.76730808   -4.3442044    718.09797  0.049252261  0.049198994            6 
 1216000   0.75311256   -4.3404632    720.14902  0.049352318  0.049172201            4 
 1217000   0.76347415   -4.3223655     719.1508  0.049243413   0.04914502           11 
 1218000   0.77408171   -4.3391157    721.30734   0.04935053  0.049118019            2 
 1219000   0.75430099   -4.3267665     720.2572  0.049238255  0.049091073            5 
 1220000   0.76256945   -4.3389173     719.9073  0.049173996  0.049064382            5 
 1221000    0.7809826   -4.3618559    718.89795  0.049064834  0.049037491            7 
 1222000   0.77585075   -4.3235101    723.46267   0.04933597   0.04901085            4 
 1223000   0.75607058   -4.3214166    725.23795  0.049416595  0.048984633            5 
 1224000   0.76732227   -4.3490544    719.36471  0.048976355  0.048957874            6 
 1225000    0.7670721   -4.3344908    719.27067  0.048929977  0.048931053            3 
 1226000   0.77733969   -4.3269793    722.18396  0.049088088  0.048904258            4 
 1227000   0.77520958   -4.3402578    719.34955  0.048855579  0.048877549            6 
 1228000   0.77305576   -4.3303467    721.70469  0.048975617  0.048850642            4 
 1229000   0.76257381   -4.3457496    722.09889  0.048962496  0.048824193            3 
 1230000   0.76321182   -4.3360606    724.04127  0.049054286  0.048797519            6 
 1231000   0.75088459   -4.3339346    724.67055  0.049057037  0.048770794            3 
 1232000   0.75571857    -4.336272    722.27231  0.048854999  0.048743904            7 
 1233000   0.76976485     -4.34499    723.98561  0.048931172  0.048717135            8 
 1234000   0.75241096   -4.3661885    723.35185   0.04884872  0.048690344           13 
 1235000   0.75321418   -4.3515317    722.63245  0.048760624  0.048663242            2 
 1236000   0.74872859   -4.3641811    723.47379  0.048777898   0.04863623            6 
 1237000   0.75141019   -4.3625912    724.03536  0.048776297  0.048608841            9 
 1238000   0.76501166   -4.3753135    720.42792  0.048494071  0.048581622            5 
 1239000   0.76392888   -4.3707317    721.15799  0.048504035   0.04855423            6 
 1240000    0.7470505   -4.3602345    722.06437  0.048525831  0.048526758            7 
 1241000   0.75576798   -4.3483102    723.51195  0.048583934  0.048499569            8 
 1242000   0.76205633   -4.3505428    724.39121  0.048603812  0.048472402            4 
 1243000   0.76110812    -4.378707     721.9112  0.048398444  0.048445196            5 
 1244000   0.76799792   -4.3486848     725.0016   0.04856656  0.048417986            4 
 1245000   0.75892272   -4.3888826    723.29763  0.048413496  0.048390689            3 
 1246000   0.75443474   -4.3743662    721.42132  0.048249152  0.048363109            6 
 1247000   0.76136613   -4.3497452     723.8934  0.048375661   0.04833538            4 
 1248000   0.75316212   -4.3612842    725.70099  0.048457598  0.048307833            7 
 1249000   0.75624441   -4.3681884    725.38409  0.048397657  0.048280221            5 
 1250000   0.75291652   -4.3444791    725.30159  0.048353439  0.048252902            6 
 1251000   0.76733301   -4.3586418    725.44368  0.048324252   0.04822527           10 
 1252000   0.75516247   -4.3752697    723.61285  0.048163795  0.048197899            7 
 1253000   0.75028013   -4.3437972    726.88507  0.048342981  0.048170672            6 
 1254000   0.76258972   -4.3824951    725.85452  0.048235946   0.04814336            6 
 1255000   0.73882136   -4.3554026    725.88954  0.048199837  0.048116147            9 
 1256000   0.75483711   -4.3719719    724.95027  0.048099142  0.048088874            5 
 1257000   0.76383593   -4.3596664    723.81861  0.047985853  0.048061387            6 
 1258000   0.76619613   -4.3532522    726.12952   0.04810079  0.048034082            4 
 1259000   0.75817608   -4.3756924     725.7095  0.048034783  0.048006984            7 
 1260000   0.75541534   -4.3557434    727.84849  0.048138127  0.047979957            3 
 1261000   0.73405003    -4.385265    727.25204  0.048060537  0.047952456            4 
 1262000   0.76313825   -4.3591454    726.77602  0.047991021  0.047925039            8 
 1263000   0.73868148   -4.3580837    727.21585  0.047982043  0.047897771            6 
 1264000   0.75523425   -4.3866837    724.77068  0.047782877  0.047870259            9 
 1265000   0.75810561   -4.3676202    726.34657  0.047848918  0.047842576            4 
 1266000    0.7574435   -4.3575721    728.60451  0.047959749  0.047815428            6 
 1267000   0.75644623   -4.3533458    728.90676  0.047941776  0.047788265           14 
 1268000   0.74846327   -4.3855324    727.20623  0.047792207  0.047760999            5 
 1269000   0.75709918   -4.3700695    728.27823  0.047824943  0.047733661            5 
 1270000   0.75697242   -4.3658906    731.53743  0.048001144  0.047706628           14 
 1271000   0.74576642   -4.3804494    729.02817  0.047798857   0.04767963            9 
 1272000   0.74914542   -4.3953268    726.68445  0.047607734  0.047652547            4 
 1273000   0.72197355   -4.3819104    728.13459  0.047665265    0.0476252            4 
 1274000   0.74533742   -4.3607817    727.66794  0.047597327  0.047597872            6 
 1275000   0.73951502   -4.3996643    727.10885  0.047523454  0.047570638            6 
 1276000   0.73518697   -4.3751223    729.35899  0.047633163  0.047543174            6 
 1277000   0.73727031   -4.3624128    730.68362  0.047682303  0.047516022           13 
 1278000   0.74481456   -4.3649118    729.84986  0.047590627  0.047489131            3 
 1279000   0.73993621   -4.3655172    731.55054  0.047664226   0.04746181           11 
 1280000   0.73682493   -4.3828093    732.77924  0.047706982  0.047434599            5 
 1281000   0.73946622     -4.38927    730.33448    0.0475107  0.047407382            6 
 1282000   0.76057071   -4.3766821    728.80014  0.047373904  0.047379764           11 
 1283000    0.7455186   -4.3782756    730.30728  0.047434871  0.047352505            5 
 1284000   0.75290104   -4.3985341    727.52457  0.047217327  0.047325426            5 
 1285000   0.73739128   -4.3722817    730.85387  0.047396489  0.047297931            6 
 1286000   0.73988225   -4.3905974    731.11677   0.04737667  0.047270545            3 
 1287000   0.73185794   -4.3818931    728.66454  0.047181076  0.047243092            8 
 1288000   0.74823212   -4.3911708    731.47433  0.047326237  0.047215829            2 
 1289000   0.75222784    -4.371451      732.846    0.0473782  0.047188519            5 
 1290000   0.74451926   -4.3530795    730.39069  0.047182861  0.047161306            6 
 1291000   0.73271587   -4.3744965     730.9396  0.047181745  0.047133917            2 
 1292000   0.73593569   -4.3966233    730.94176  0.047145366  0.047106601           17 
 1293000   0.73255946   -4.3923508    732.23955  0.047192546  0.047079075            6 
 1294000   0.73426298   -4.3845508      732.636  0.047181607  0.047051818           11 
 1295000   0.74090752   -4.4130599     730.0612  0.046979485  0.047024198            7 
 1296000   0.73699605   -4.3896951    730.49857  0.046971359  0.046996374            6 
 1297000   0.74137178   -4.3935265    733.31249   0.04711594  0.046968804            2 
 1298000   0.72913175   -4.4082755    729.41313  0.046829297  0.046941142            5 
 1299000   0.73000514    -4.379893    731.95014  0.046956001  0.046913784            6 
 1300000   0.74350675   -4.3790346    732.56918  0.046959563  0.046886321            6 
 1301000   0.73175499   -4.4053241    731.34132  0.046844819  0.046858845            7 
 1302000    0.7341831   -4.3923247    731.29239  0.046805709   0.04683123            5 
 1303000   0.74499093   -4.3684234    731.95516  0.046812174  0.046803816            3 
 1304000   0.71901149   -4.3925896     731.1493  0.046724777  0.046776164            8 
 1305000   0.74361431   -4.3831001    731.64355  0.046720533  0.046748284            8 
 1306000   0.73383042   -4.3992864    730.78706  0.046630108  0.046720719            2 
 1307000   0.72021635   -4.4131428    734.35395  0.046821853   0.04669328            5 
 1308000   0.72296064   -4.3859386    733.64917  0.046741155  0.046665959            6 
 1309000   0.71424449   -4.4080399    735.50368  0.046823509  0.046638733            3 
 1310000   0.73057393   -4.4051308    734.09209   0.04669797    0.0466115            4 
 1311000   0.72639148   -4.4136788    732.95195  0.046589877  0.046584127           10 
 1312000   0.72863246   -4.3869074    733.89323  0.046614153  0.046557098            4 
 1313000   0.72699237   -4.4282437    731.75053  0.046442659  0.046529762            8 
 1314000   0.73261193   -4.4084704    731.72879  0.046405935  0.046502048           10 
 1315000   0.74205071   -4.4032431    735.10877   0.04658484  0.046474578            6 
 1316000   0.72950471   -4.3849841    736.35962  0.046628649  0.046447387            4 
 1317000   0.71073897   -4.4320629    733.63091  0.046420584  0.046420246           20 
 1318000   0.72627594   -4.4289112    735.19054  0.046483974  0.046392889            4 
 1319000   0.73740795   -4.4152667    736.68116  0.046542909   0.04636579            4 
 1320000   0.73805671   -4.4059781    736.68036  0.046507599  0.046338662            8 
 1321000   0.72029374   -4.4128978    737.98106  0.046554445  0.046311289            5 
 1322000   0.72126925   -4.4017815    737.79141  0.046507275  0.046284155           10 
 1323000   0.72689963   -4.3958877    736.57073  0.046395234   0.04625721            9 
 1324000   0.73290924   -4.4340843    735.44926  0.046289606  0.046230224            5 
 1325000   0.72587058   -4.4561659    734.65944  0.046204996  0.046203025           19 
 1326000   0.71536143   -4.4240882    738.83561  0.046432605   0.04617595            5 
 1327000   0.71452895   -4.4242685    739.70727  0.046452353  0.046148862            5 
 1328000   0.71386749   -4.4156284    735.71161  0.046166642  0.046121926           13 
 1329000   0.72431452   -4.4012024    735.57898  0.046123588  0.046094904            4 
 1330000   0.72388639   -4.4211315    736.13847  0.046123965  0.046067718           11 
 1331000   0.71902638   -4.4446963    737.49697  0.046174366  0.046040473           14 
 1332000   0.73574109   -4.4380885    737.18451  0.046120152  0.046013224            8 
 1333000   0.72311953   -4.4220258    735.99524  0.046011205  0.045985727            4 
 1334000   0.72564402   -4.4311136    737.98842  0.046101226   0.04595861            6 
 1335000   0.72012435   -4.4390003     736.9849  0.046004051  0.045931558            4 
 1336000   0.72779332   -4.4138135    739.88337   0.04615041  0.045904531            7 
 1337000   0.70362704   -4.4215329    740.36764  0.046146076  0.045877829            7 
 1338000   0.71376704   -4.4128343    738.08059  0.045969145  0.045850852            4 
 1339000   0.72571232   -4.4316845    738.92996  0.045987675  0.045824149            4 
 1340000   0.71829858   -4.4198788    741.52141  0.046114515  0.045797389            8 
 1341000   0.73389634   -4.4135579    741.32231  0.046067755  0.045770826            4 
 1342000   0.72426235   -4.4386329     742.6998  0.046118964  0.045744175            6 
 1343000   0.72859181   -4.4235669    740.48581  0.045947246   0.04571741           11 
 1344000   0.72339352   -4.4354539    738.94288  0.045817391  0.045690702            4 
 1345000   0.71685267   -4.4304314    739.80186  0.045836546  0.045663801            3 
 1346000   0.70525142   -4.4323307    739.94307  0.045811235   0.04563695            6 
 1347000   0.71231995   -4.4283328    741.32486  0.045862711  0.045610254            7 
 1348000   0.71549108   -4.4111376    741.04621  0.045811462  0.045583625            6 
 1349000   0.72844546   -4.4525616      737.917  0.045584198  0.045557081            5 
 1350000   0.72015776   -4.4337626    739.56487  0.045652153  0.045530461            6 
 1351000   0.71415063    -4.445344    739.57016  0.045618687  0.045503791            6 
 1352000   0.72646079   -4.4430467    743.09496  0.045802204  0.045477223            6 
 1353000    0.7211856   -4.4490645    740.37381  0.045600752  0.045450514            4 
 1354000   0.70186719   -4.4303206    741.97891  0.045665861  0.045424029            7 
 1355000   0.71962285   -4.4556244    742.99516  0.045694659  0.045397848            5 
 1356000   0.71404774   -4.4394358    742.07565  0.045604452  0.045371625            7 
 1357000    0.6928041    -4.435971    742.97003   0.04562577   0.04534528            7 
 1358000   0.70995239   -4.4431311    742.96368  0.045591782  0.045318906            7 
 1359000   0.70447349   -4.4521183    741.69733  0.045480582  0.045292574            3 
 1360000   0.70910208   -4.4485242    743.26725  0.045543336  0.045266155            4 
 1361000   0.71813918   -4.4325886    744.93176   0.04561179  0.045239872            6 
 1362000   0.71498647   -4.4498883    746.60937  0.045680945  0.045213567            6 
 1363000   0.70533441   -4.4599116    745.31832  0.045568496  0.045187419            6 
 1364000   0.71735105   -4.4544098    746.35615  0.045598494  0.045161306            5 
 1365000    0.7000823   -4.4435068    743.54942  0.045393738  0.045135147           15 
 1366000   0.72408222   -4.4596011     742.7515  0.045311829  0.045108947           16 
 1367000   0.69967255   -4.4500593    745.59722  0.045452159  0.045082777            6 
 1368000   0.70591673   -4.4532695    746.74721  0.045488987  0.045056696            8 
 1369000   0.70479671   -4.4434104    747.15442  0.045480546  0.045030799            6 
 1370000   0.70924104   -4.4694322    745.18016   0.04532726  0.045004734            4 
 1371000    0.7134192   -4.4408418    744.41994  0.045247991  0.044978607            6 
 1372000   0.69700613   -4.4305094    746.27811  0.045327874  0.044952517            5 
 1373000   0.69833004    -4.453915    745.61046  0.045254337  0.044926462            4 
 1374000    0.7152535   -4.4615905    745.30307  0.045202758  0.044900427            7 
 1375000   0.71853256   -4.4753318    746.19778  0.045224108  0.044873957            5 
 1376000   0.70673614   -4.4362507    745.68015  0.045159893  0.044847851            7 
 1377000   0.69442352   -4.4426614    747.81237  0.045256135  0.044821987            7 
 1378000   0.71526068   -4.4528354     746.9746  0.045172629  0.044795982            4 
 1379000   0.68613251   -4.4373411    745.40687  0.045045133  0.044769936            5 
 1380000   0.69615706   -4.4758734    744.37499   0.04495018  0.044743779            4 
 1381000   0.70707116   -4.4480106     745.0316  0.044957253  0.044717603            6 
 1382000   0.70125582   -4.4587997    748.68202   0.04514484  0.044691457            6 
 1383000   0.70346629   -4.4523747    746.29242   0.04496821  0.044665391            8 
 1384000   0.72323842   -4.4524002    748.74798  0.045083573  0.044639649            4 
 1385000   0.70145793   -4.4574615    748.01483  0.045006909  0.044613787           18 
 1386000   0.70882914   -4.4713108    746.37765  0.044876001  0.044587942           10 
 1387000   0.71414557    -4.461438    747.83546  0.044931234  0.044561967           13 
 1388000   0.70548804   -4.4583529    748.30315  0.044926942  0.044536111            7 
 1389000   0.70211443   -4.4542047    749.59068  0.044971843  0.044510297            5 
 1390000    0.7034279   -4.4696572     748.7079  0.044886564   0.04448433           16 
 1391000   0.70256874   -4.4586231    747.74566  0.044796649  0.044458381            9 
 1392000   0.68431159   -4.4682174    749.36971  0.044861693   0.04443248            5 
 1393000   0.69450384   -4.4664455    748.44873  0.044774391  0.044406503           16 
 1394000   0.68614914   -4.4703266    747.61272  0.044692296  0.044380432            3 
 1395000   0.70601645   -4.5108712    747.87651  0.044676016  0.044354354           18 
 1396000   0.69191138   -4.4544321    747.55423  0.044624775  0.044328512            6 
 1397000   0.69965103   -4.4867212    749.07379  0.044683476   0.04430244            5 
 1398000   0.69888503   -4.4728715    749.33072  0.044666829  0.044276524            7 
 1399000    0.6954499   -4.4598152    748.51709  0.044586436  0.044250807           11 
 1400000   0.69580557   -4.4928953    749.90035  0.044636925  0.044225009            6 
 1401000   0.68495534   -4.4840239    750.11122  0.044617608  0.044199246            5 
 1402000   0.68940724   -4.4717664    750.10276  0.044585281  0.044173536            6 
 1403000   0.69654599   -4.4913108     750.4869  0.044576318  0.044147629           14 
 1404000   0.69107168   -4.4650088    753.34609  0.044714274  0.044121889            5 
 1405000   0.69183337   -4.4906225    750.32422  0.044503216  0.044096209            7 
 1406000   0.68380878   -4.4579742    751.41813    0.0445364  0.044070453            6 
 1407000    0.6977623   -4.4619814    750.29417  0.044438176  0.044044916            7 
 1408000   0.69475219   -4.4798291    750.23272  0.044402978  0.044019205            6 
 1409000   0.69560511   -4.4666996    749.70269  0.044340116  0.043993476            3 
 1410000   0.68721672    -4.480098    751.62323  0.044422177   0.04396785            5 
 1411000   0.69916455   -4.4976971    750.10835  0.044301226  0.043942032            4 
 1412000   0.68414712   -4.4803514    748.55126  0.044177954   0.04391603            8 
 1413000   0.68997665   -4.5086981    748.90128  0.044167332  0.043890064           10 
 1414000   0.69019395    -4.465847    752.53158  0.044350046  0.043864071            8 
 1415000   0.67698555   -4.4889422    749.57044  0.044144313  0.043838099            7 
 1416000   0.67922525   -4.4757575    751.07524  0.044201697  0.043812203            9 
 1417000   0.67235482    -4.499746    750.57854  0.044141293  0.043786335            4 
 1418000   0.69124397    -4.485968    751.46501   0.04416226  0.043760591            6 
 1419000   0.69628224   -4.5076997    753.24044  0.044235403  0.043734778            4 
 1420000   0.70177593   -4.4945135    751.71299  0.044114612   0.04370891            5 
 1421000    0.6952533    -4.517494    751.70585  0.044083148  0.043683015           14 
 1422000    0.6870076   -4.4966952    750.07347  0.043956485  0.043657235            6 
 1423000   0.70025835     -4.46817    752.75216  0.044082464  0.043631387           12 
 1424000   0.67702459   -4.4780418    753.47943  0.044094068  0.043605745            7 
 1425000   0.67947688   -4.4932291    752.43607   0.04400211  0.043580035           11 
 1426000   0.68072271   -4.5013338    753.24533  0.044018544  0.043554303            7 
 1427000   0.70038874   -4.4973898    753.59732  0.044008253  0.043528807            6 
 1428000   0.66417829   -4.5102126    753.19993  0.043954244  0.043503274           21 
 1429000   0.68995631   -4.5065183    753.20333  0.043923684   0.04347765            9 
 1430000   0.67808759   -4.5092928    757.59979  0.044149172  0.043452406            5 
 1431000   0.67896498   -4.5219222    754.65379  0.043946762  0.043427119            9 
 1432000   0.70122817   -4.5096677    753.60242  0.043854889  0.043401585            8 
 1433000   0.67714499   -4.5163393    755.13799  0.043913584  0.043376304            5 
 1434000   0.67439438   -4.5024171    754.03865  0.043819076  0.043350918            5 
 1435000   0.68405865   -4.5159928     755.2774  0.043860476  0.043325593            9 
 1436000   0.68353709   -4.5085066    757.40338  0.043953307  0.043300153            7 
 1437000   0.67525447   -4.5060531    754.98782  0.043782638  0.043274859           16 
 1438000   0.67521574   -4.4973981    753.18204  0.043647545  0.043249558            8 
 1439000   0.67536494   -4.4980291     755.4553  0.043748859   0.04322429            5 
 1440000   0.68449558   -4.5073965     755.3164   0.04371044  0.043198893            5 
 1441000    0.6877426   -4.4925089    757.55367  0.043809488  0.043173792           12 
 1442000   0.67297158   -4.5206794    756.64939  0.043726848  0.043148666            5 
 1443000   0.66934755     -4.51886    753.67636  0.043524854  0.043123514           14 
 1444000   0.67683875   -4.5100805    756.21463  0.043641195   0.04309808            7 
 1445000   0.67559777   -4.5172791    757.97038  0.043712248   0.04307284            5 
 1446000   0.66636416   -4.4867368    755.64831  0.043548197  0.043047622           20 
 1447000   0.68435908   -4.5113762    756.76042  0.043582148  0.043022239           29 
 1448000   0.67896242   -4.5249494    753.77004  0.043379952  0.042996846            7 
 1449000   0.68952782   -4.5264103    754.17997  0.043373589  0.042971294            9 
 1450000   0.67518434   -4.5106199    756.52602  0.043478507  0.042945703            4 
 1451000    0.6857635   -4.5268602    757.43005  0.043500463  0.042920235           13 
 1452000   0.65880746   -4.5279195    754.66391  0.043311749  0.042894786            7 
 1453000   0.68093306   -4.5072733    756.40054  0.043381541   0.04286944            5 
 1454000   0.68913698   -4.5250597    756.59082   0.04336261  0.042844128           14 
 1455000   0.68504127   -4.5064645    758.39164  0.043435947  0.042818743            9 
 1456000   0.68920219   -4.5108926    756.28505  0.043285545  0.042793418           11 
 1457000   0.66076669   -4.4975105    755.89214  0.043233364  0.042767859           17 
 1458000   0.67869982   -4.5290779    756.03981  0.043212152  0.042742319            7 
 1459000   0.67406004    -4.524278    755.52897  0.043153357   0.04271695            9 
 1460000   0.68282073   -4.5457682    755.93366  0.043146899  0.042691539           14 
 1461000     0.670664   -4.4990343    757.11701  0.043184862  0.042666073           13 
 1462000   0.66466818   -4.5133259    757.73999  0.043190834  0.042640687           18 
 1463000   0.67310007   -4.5097195    755.62308  0.043040732  0.042615329            9 
 1464000   0.65529866   -4.5245172    755.53329  0.043006221  0.042589908            3 
 1465000   0.66602704   -4.5451954    756.30426   0.04302072  0.042564457            5 
 1466000   0.65890941   -4.5306956    756.39025  0.042996262  0.042538981           10 
 1467000   0.66346187   -4.5221291    757.76021  0.043044775  0.042513507            4 
 1468000   0.65756008   -4.5354954    757.16911  0.042981898  0.042487914           19 
 1469000   0.66667329   -4.5373703    756.45323  0.042912028  0.042462402            6 
 1470000    0.6688914   -4.5318523    756.75015  0.042899669  0.042437046            6 
 1471000   0.66614889   -4.5336383    757.43339  0.042909211  0.042411803           11 
 1472000   0.67771322   -4.5271538    758.22663  0.042924968   0.04238663            5 
 1473000   0.67057622   -4.5041804    760.57672   0.04302878  0.042361661           12 
 1474000   0.64447121   -4.5511838    755.79971  0.042729518  0.042336486           10 
 1475000   0.66038356   -4.5367277    755.79065  0.042700037  0.042311164           22 
 1476000   0.66280865   -4.5093219     759.0273  0.042853845   0.04228581           13 
 1477000   0.65884113   -4.5200303     759.3813  0.042844804  0.042260481            6 
 1478000   0.66882242   -4.5565337    757.22892  0.042694459  0.042235009            9 
 1479000   0.65861202   -4.5431779    756.32458  0.042614637  0.042209559            4 
 1480000   0.65799144   -4.5379479     757.2005  0.042635163  0.042184133           11 
 1481000   0.64238702   -4.5343113    759.55333  0.042738765  0.042158635           13 
 1482000   0.67449736   -4.5292032    759.78851  0.042723151  0.042133373            6 
 1483000   0.65656195   -4.5301411    760.36109  0.042726517  0.042108111            5 
 1484000   0.64232114   -4.5770496    756.87125  0.042501755  0.042082619            9 
 1485000   0.65833656   -4.5478674     758.9558  0.042590112  0.042057091           14 
 1486000   0.65612352   -4.5438657    758.80759   0.04255314  0.042031813            5 
 1487000   0.65243816     -4.53891     759.2619  0.042549983   0.04200663            5 
 1488000   0.66718465   -4.5544674    758.67931   0.04248876  0.041981374            9 
 1489000   0.64549928    -4.562593    758.52568  0.042451628  0.041956143            5 
 1490000   0.65491117   -4.5352013    758.35412  0.042413541  0.041931104            4 
 1491000   0.66514579   -4.5385124    761.26603  0.042547844  0.041906014            6 
 1492000   0.66899891   -4.5593452    758.73689  0.042378066  0.041880862           13 
 1493000   0.65857745   -4.5576487    760.53711  0.042450162  0.041855648            6 
 1494000   0.65847909   -4.5589171    762.34066  0.042522348  0.041830527            6 
 1495000   0.65947952   -4.5703042    761.49336  0.042446676   0.04180552            5 
 1496000   0.64943128   -4.5568015    758.17608  0.042233516  0.041780385            4 
 1497000   0.66065044   -4.5377961    759.05727  0.042254357  0.041755344           10 
 1498000   0.65424292   -4.5528712    760.27359  0.042293814  0.041730384            9 
 1499000   0.66567839   -4.5388862    761.63182  0.042341106  0.041705386            4 
 1500000   0.66652271   -4.5644548    759.66059  0.042203366  0.041680242            7 
 1501000   0.67051316   -4.5659323     760.9778  0.042248379  0.041655329            7 
 1502000   0.63583263   -4.5462239    759.84701  0.042157512  0.041630266            8 
 1503000   0.65713825   -4.5511738    760.57946  0.042170074  0.041605297            8 
 1504000   0.65322303   -4.5528314    761.01815  0.042166342  0.041580352           13 
 1505000   0.64177118   -4.5549845    760.90464   0.04213204   0.04155558           10 
 1506000   0.65782609   -4.5801348    759.43678  0.042022841  0.041530504           18 
 1507000   0.64945995   -4.5771808    761.88144  0.042130139  0.041505579           15 
 1508000    0.6520497   -4.5647191    761.13227  0.042060802   0.04148052           12 
 1509000   0.66063005   -4.5612085    760.07885  0.041974754  0.041455601           11 
 1510000   0.64476289   -4.5509714    760.94854  0.041994952  0.041430631           21 
 1511000   0.65992196   -4.5679087     763.1284  0.042087381  0.041405738            5 
 1512000   0.64432671   -4.5556435    761.54976   0.04197254   0.04138079            5 
 1513000   0.66063751    -4.562655    762.91972  0.042020253  0.041355982            6 
 1514000   0.64885824   -4.5547444    761.22218  0.041899063  0.041331171           14 
 1515000   0.64890373   -4.5625359    761.77353  0.041901734  0.041306263           17 
 1516000   0.63732726   -4.5783411    761.50283  0.041859214  0.041281373           10 
 1517000   0.66123539   -4.5842864     761.8791   0.04185229  0.041256499           12 
 1518000   0.65770254   -4.5695651     761.4613  0.041801784  0.041231717            8 
 1519000   0.66091971    -4.576726    763.13384  0.041866021   0.04120675           15 
 1520000   0.64665408   -4.5638314    761.72931  0.041761476  0.041181818            3 
 1521000   0.64290159   -4.5517815    761.20746  0.041705427  0.041156896            9 
 1522000   0.65529273   -4.5621659    760.84162  0.041657995  0.041131973           23 
 1523000   0.64686262   -4.5788308    761.19465  0.041649959  0.041106928            9 
 1524000   0.64682537    -4.587024    762.72871  0.041706513  0.041081832            6 
 1525000   0.64377362   -4.5877912    760.95664   0.04158233  0.041056625            7 
 1526000   0.65303096   -4.5956807    761.27513  0.041572473   0.04103152           14 
 1527000   0.64274738   -4.5743767    762.98723  0.041638683  0.041006449           10 
 1528000    0.6444445   -4.5668847    761.86689  0.041550332  0.040981463            8 
 1529000   0.64510118   -4.5697225    761.63257  0.041510386  0.040956549           10 
 1530000   0.65514815   -4.6010015    763.32733  0.041575563   0.04093149            3 
 1531000   0.64549083    -4.578107     762.2806  0.041491433  0.040906641            6 
 1532000   0.65610291   -4.5804886    762.90038  0.041498062  0.040881741           10 
 1533000    0.6415067   -4.6073804    761.98385   0.04142117  0.040856963            8 
 1534000   0.63384928   -4.6010226    763.11275  0.041455495  0.040832023            8 
 1535000   0.63828442   -4.5984676    762.83302  0.041413302  0.040807055           11 
 1536000   0.64587537   -4.5990939    761.96173  0.041339069  0.040782205            5 
 1537000   0.63423345   -4.5888989    763.76922  0.041410172  0.040757459           10 
 1538000   0.63170397   -4.6052038    761.88972  0.041281411  0.040732616            4 
 1539000   0.63339133   -4.6093429    763.76835  0.041356311  0.040707685            7 
 1540000   0.62986788   -4.6032454    762.86864  0.041280771  0.040682752           13 
 1541000   0.64269132   -4.5808844    764.00646  0.041315512  0.040657784            9 
 1542000   0.63591752    -4.591109    762.91177  0.041229559  0.040632902           12 
 1543000   0.64571022   -4.5784723    764.08236   0.04126606  0.040608113           16 
 1544000   0.63337226   -4.5861108    761.84835  0.041118758  0.040583344           12 
 1545000   0.64843048   -4.5924646    765.23586  0.041274857  0.040558602            5 
 1546000    0.6275697   -4.5756383    764.76766  0.041222922  0.040533858            9 
 1547000   0.63542751   -4.5670632    766.86678   0.04130935  0.040509139           10 
 1548000   0.63493349   -4.5802542    763.29319  0.041090288  0.040484476            7 
 1549000   0.63502006   -4.5710309    764.70749  0.041139848  0.040459902            7 
 1550000   0.62312254   -4.6014324    762.89382  0.041015797  0.040435304            7 
 1551000   0.63247462   -4.5859724    764.02649  0.041050209   0.04041055           25 
 1552000   0.64901813   -4.5889269    764.30539  0.041038735  0.040385944           17 
 1553000   0.63627716   -4.6170833    762.57042  0.040919211  0.040361378            9 
 1554000   0.65155742   -4.6051586    764.96623  0.041021355  0.040336731           11 
 1555000   0.63713324    -4.593603    766.87923  0.041097494   0.04031227            5 
 1556000    0.6329151   -4.6046217    766.11756  0.041030289  0.040287785           12 
 1557000   0.64004571   -4.5680314    764.93085  0.040940422  0.040263358           14 
 1558000   0.64322953   -4.5931328    766.94171    0.0410217  0.040238969           16 
 1559000   0.63861077   -4.5997836    765.01196  0.040892236  0.040214667           12 
 1560000   0.64563086   -4.6154092    764.52985   0.04084027  0.040190274            9 
 1561000   0.62596786   -4.5855581    766.18235  0.040902325  0.040165956           22 
 1562000   0.61575706   -4.5988243    766.06816  0.040870047  0.040141707            4 
 1563000   0.61576038   -4.6179794    764.82176  0.040777445  0.040117319           15 
 1564000   0.61220738   -4.6058528    765.59702   0.04079268  0.040092897           11 
 1565000   0.61397268   -4.6160536    764.85093  0.040726887  0.040068461           25 
 1566000   0.63088543   -4.6329993    766.64811  0.040796515   0.04004416           11 
 1567000   0.61896778   -4.6200918    765.09266  0.040687761  0.040019851            6 
 1568000   0.62707099   -4.6135189    766.16479  0.040718792  0.039995496            8 
 1569000   0.62750585    -4.615343     766.9571  0.040734921  0.039971216            9 
 1570000   0.63145518   -4.5899978    767.71606   0.04074926  0.039946931            6 
 1571000   0.62028897   -4.6010641    767.46943  0.040710239  0.039922691            9 
 1572000   0.62693786    -4.601559    767.12453  0.040666059    0.0398984            9 
 1573000   0.61871512   -4.6340377    767.29158  0.040649056  0.039874123            8 
 1574000   0.62911761   -4.6179821    767.93593  0.040657345  0.039850047            9 
 1575000   0.63352615   -4.6176688    766.97706  0.040580797  0.039825933            4 
 1576000   0.62080966   -4.6092739    768.69802  0.040646046  0.039801906            6 
 1577000    0.6336762   -4.6109413    767.64948  0.040564864  0.039777886           14 
 1578000   0.62723602   -4.6051256     771.5718  0.040746293  0.039753835           19 
 1579000   0.61685324   -4.5979962    769.92894  0.040633784  0.039729921            7 
 1580000   0.61896941   -4.6196101    770.12696  0.040618511  0.039706095            5 
 1581000   0.60725842   -4.6275215    769.06651  0.040536923  0.039682185           14 
 1582000   0.61879349   -4.6010008    767.63609  0.040435951  0.039658192            7 
 1583000   0.63073628   -4.6437666    769.05246  0.040484969  0.039634383           10 
 1584000   0.61776182   -4.6315648    767.49932    0.0403777  0.039610306            9 
 1585000   0.62673287   -4.6028181      768.982  0.040430179   0.03958622            5 
 1586000   0.61749747   -4.6297075    767.75068  0.040339989  0.039562324            7 
 1587000    0.6140337   -4.6128569     767.5798  0.040305598  0.039538419           24 
 1588000   0.61535399   -4.6068101    769.01777  0.040355677   0.03951458           10 
 1589000   0.62027263    -4.632521     767.4458  0.040247839  0.039490693            9 
 1590000   0.63176576   -4.6326342    768.63584  0.040284898   0.03946668            8 
 1591000   0.61164999   -4.6149634    769.55774  0.040307864  0.039442807           10 
 1592000   0.62780746   -4.6292746    770.17228  0.040314713  0.039418876            5 
 1593000   0.61977981   -4.6138623    770.21756  0.040291774  0.039394867           19 
 1594000   0.60403742   -4.6184006     769.3461  0.040220938  0.039370878           16 
 1595000    0.6106427   -4.6342406    768.46247  0.040149554  0.039346925           14 
 1596000   0.59982296    -4.635828     769.1871  0.040162234  0.039322879           10 
 1597000   0.62119009   -4.6349877    768.22197  0.040086724  0.039298932            9 
 1598000   0.61152243   -4.6321325    767.88127  0.040043871  0.039275032            7 
 1599000   0.61418907   -4.6339676    771.54986   0.04021002  0.039251175            8 
 1600000   0.59856222     -4.63058     766.9655   0.03994612   0.03922722           11 
 1601000    0.6136533   -4.6342505    769.06257  0.040030323  0.039203291           10 
 1602000    0.6166033   -4.6345423    768.59039  0.039980774  0.039179223           14 
 1603000   0.61692598   -4.6317637    769.58533  0.040007555  0.039155238           25 
 1604000   0.62836638   -4.6378551    770.24373  0.040016819  0.039131319           15 
 1605000   0.60423761   -4.6343041    771.11567  0.040037158  0.039107393           13 
 1606000   0.59677985   -4.6531262    767.59976  0.039829792  0.039083469           33 
 1607000   0.61313476   -4.6195944    770.10001  0.039934661  0.039059535           17 
 1608000    0.6030121   -4.6253532    769.61665  0.039884776  0.039035635           19 
 1609000   0.61726353   -4.6232259    771.10656  0.039937154  0.039011889            6 
 1610000   0.60235634   -4.6465316     768.0325  0.039753235  0.038988049            8 
 1611000   0.61237993   -4.6457475    768.49923  0.039752702  0.038964104           20 
 1612000   0.60386674   -4.6496664    767.81215  0.039692522   0.03894015           13 
 1613000    0.6152311    -4.647332    768.44389  0.039700552  0.038916336            9 
 1614000   0.61286077   -4.6399032    771.22298  0.039819443   0.03889264           13 
 1615000   0.60913957   -4.6421569    770.19125  0.039741551   0.03886899            9 
 1616000   0.60583346   -4.6309556    770.07631  0.039711031  0.038845318           15 
 1617000   0.60278446    -4.614475    771.49844  0.039759763  0.038821646           15 
 1618000   0.61349043   -4.6528119    770.37765  0.039677464  0.038798137           15 
 1619000   0.60288904   -4.6367765     771.2956  0.039700206  0.038774523            6 
 1620000    0.6018021   -4.6232333    771.02826  0.039661947  0.038750968            4 
 1621000   0.61455369   -4.6227913    768.99739  0.039533076  0.038727338            7 
 1622000   0.62300388    -4.649664    769.64679  0.039542067   0.03870366           11 
 1623000   0.60241169   -4.6555902    770.02399  0.039537071  0.038679933            5 
 1624000   0.59990691    -4.639966    771.32018  0.039579237  0.038656271           12 
 1625000   0.62026218   -4.6461911    769.51012  0.039462057  0.038632531            7 
 1626000   0.61048673   -4.6484918    769.88217  0.039456856  0.038608804            6 
 1627000   0.60072638    -4.659781    768.81077  0.039377728  0.038585104           14 
 1628000   0.59905285    -4.664978    769.63524  0.039395743  0.038561314           10 
 1629000   0.59449601   -4.6784037    770.80496  0.039431397  0.038537593           18 
 1630000   0.60611051   -4.6767805    770.19535   0.03937604   0.03851386           20 
 1631000   0.59663424   -4.6670963    769.34798  0.039308603  0.038490097           13 
 1632000   0.60481181   -4.6816492    769.87507  0.039311431  0.038466409           13 
 1633000   0.60452758   -4.6359927    772.16568   0.03940425  0.038442933            9 
 1634000   0.61223664   -4.6869551    770.79114  0.039310034  0.038419379           16 
 1635000   0.59975685   -4.6647253    770.58864   0.03927567  0.038395807           10 
 1636000   0.59908832    -4.657104    770.32662  0.039238316  0.038372337           10 
 1637000   0.58906475   -4.6597736    773.29079  0.039365241  0.038348875           11 
 1638000   0.59582474   -4.6621422    771.61703  0.039256055   0.03832552           10 
 1639000   0.59797629   -4.6669664    771.31431  0.039216713  0.038302086            7 
 1640000   0.60092308    -4.682192    772.62222  0.039259259  0.038278568           11 
 1641000    0.6046812   -4.6693584    774.53239  0.039332338  0.038255089           16 
 1642000   0.59612513   -4.6473436    770.10125  0.039083498   0.03823157            8 
 1643000   0.61374398   -4.6628488    771.93692  0.039152816    0.0382081            7 
 1644000   0.59204426   -4.6740482    773.49198  0.039207825  0.038184738            7 
 1645000   0.59692581   -4.6873971     773.4651  0.039182629  0.038161503           12 
 1646000   0.58787824   -4.6660748    772.20719  0.039095139  0.038138218            7 
 1647000   0.58350419   -4.6631624    773.51825  0.039137738  0.038114921            8 
 1648000   0.59513044   -4.6849963    773.10366  0.039093025  0.038091676            8 
 1649000   0.59753153   -4.6826718    772.77841  0.039052881  0.038068372            7 
 1650000   0.60247537   -4.6605917    775.19601  0.039151314  0.038045143           10 
 1651000   0.59622648   -4.6979296    773.57629  0.039045845  0.038021964            9 
 1652000   0.60504124   -4.6762969    774.38587  0.039063048  0.037998804           16 
 1653000   0.59555116   -4.6920105    774.47667  0.039043994  0.037975707            9 
 1654000   0.59461184    -4.673532    775.29892  0.039061816  0.037952762           10 
 1655000   0.58691387   -4.6815801    773.67617  0.038956504  0.037929778           16 
 1656000   0.59516452     -4.68338    774.22289  0.038960492  0.037906712           12 
 1657000   0.58530439    -4.692229    775.42117  0.038997242   0.03788392           23 
 1658000   0.58844177   -4.6978801    777.16128  0.039061182  0.037861118            8 
 1659000   0.59570945   -4.6921476    772.84981  0.038821068  0.037838252           18 
 1660000   0.59132723   -4.6657335    775.38233  0.038924816  0.037815388            7 
 1661000   0.59472914   -4.6708902     775.1865  0.038891556  0.037792523           15 
 1662000   0.58576894   -4.6982244    774.88472  0.038853025  0.037769503           10 
 1663000   0.59858993   -4.6737327    775.58747  0.038864876  0.037746525           11 
 1664000     0.578928   -4.6902126    774.39451  0.038781777  0.037723544           12 
 1665000   0.59011598   -4.7135277    775.37713  0.038807664  0.037700465           12 
 1666000   0.58087051   -4.7197228    773.15286  0.038673112  0.037677384            6 
 1667000   0.58611874   -4.7181247    775.04402  0.038744452   0.03765435           12 
 1668000   0.58091422   -4.6826413     777.2995  0.038833908  0.037631451            4 
 1669000   0.59112659   -4.6997547    774.03257  0.038647522  0.037608566            7 
 1670000   0.59179098   -4.6818873    775.13695  0.038679488  0.037585711            5 
 1671000   0.59180895   -4.6912051    775.51686  0.038675287  0.037562814            9 
 1672000   0.59383496   -4.7078894    773.98712  0.038575913  0.037540037           29 
 1673000   0.58550029   -4.6723249    775.92948  0.038649606  0.037517273            4 
 1674000   0.59103306   -4.6940867    775.35591  0.038597965  0.037494433           18 
 1675000   0.58355791   -4.7081122    775.39573  0.038576902   0.03747162           10 
 1676000   0.59753827   -4.6816009    775.56218  0.038562161  0.037448887           11 
 1677000   0.57640829   -4.6943932    776.14865  0.038568309  0.037426191           15 
 1678000   0.59151243   -4.6766769    776.64302  0.038569876   0.03740343           16 
 1679000   0.59149975   -4.6993197    775.42543  0.038486472  0.037380714           17 
 1680000   0.56872064   -4.7068676     776.3534  0.038509593  0.037358027            9 
 1681000   0.58438512   -4.7026534    776.61303  0.038499555  0.037335281           12 
 1682000   0.58794772   -4.7034093    777.14216  0.038502882  0.037312527           10 
 1683000   0.58071028   -4.7070295    778.37383   0.03854099  0.037289833           12 
 1684000   0.58168951   -4.6894347    775.84772  0.038393098  0.037267148           11 
 1685000   0.58362311   -4.7028613    774.59861  0.038308537  0.037244455            9 
 1686000   0.58576477   -4.7036865    775.13386  0.038312271  0.037221839           11 
 1687000   0.57432897   -4.7120093    776.93175  0.038378371  0.037199309            9 
 1688000   0.57802374   -4.7095513    778.57838  0.038436926  0.037176762            8 
 1689000   0.58630478   -4.6998503    777.22866  0.038347576  0.037154233           35 
 1690000   0.57920452   -4.7079696    775.68807  0.038248918  0.037131705           23 
 1691000   0.57742199    -4.706121    776.19317  0.038251191  0.037109186           25 
 1692000   0.57570541    -4.704454    776.98548  0.038267606  0.037086791            9 
 1693000   0.56824882   -4.6996859    778.18166  0.038303882  0.037064324            9 
 1694000   0.59546335    -4.711003    777.53831  0.038249622   0.03704192            9 
 1695000   0.57072779   -4.7200949    777.41959  0.038221219  0.037019637           18 
 1696000   0.57476468   -4.7110249    777.15277  0.038185573  0.036997201           14 
 1697000    0.5707628   -4.7024643    777.40119  0.038175269  0.036974678           14 
 1698000    0.5815037   -4.7184611    775.49547   0.03805926  0.036952404            9 
 1699000   0.58628244   -4.7148745    779.33033  0.038224952  0.036930009            9 
 1700000   0.57114557   -4.6997391     776.4006  0.038058853  0.036907676            6 
 1701000   0.58079216    -4.698524    780.22999  0.038224083  0.036885425           17 
 1702000   0.57131323   -4.7233005    776.32381  0.038010371  0.036863066           17 
 1703000   0.57942631   -4.7387213    778.01768  0.038070938  0.036840649           13 
 1704000   0.57920008     -4.70753     779.0562  0.038099384  0.036818356           12 
 1705000   0.58130911   -4.7239074    777.82608  0.038016915  0.036796158           15 
 1706000   0.56902079   -4.7187387    779.68374  0.038085372   0.03677399           15 
 1707000   0.56714071   -4.7215695    778.87994  0.038023821  0.036751884            8 
 1708000    0.5809361   -4.7393899    777.02837   0.03791122  0.036729654           10 
 1709000   0.56809239   -4.7086207    780.36189  0.038051584  0.036707447           14 
 1710000   0.57332759   -4.7171242    779.07305  0.037966523  0.036685374            6 
 1711000    0.5611835   -4.7230083    779.64626  0.037972251  0.036663235           11 
 1712000   0.57534426   -4.7320716    780.31218  0.037982485  0.036641137            5 
 1713000   0.57422473   -4.7131841    779.30584  0.037911356  0.036619085            9 
 1714000   0.57376192   -4.7358931    779.70883  0.037908831  0.036597023            8 
 1715000    0.5524786   -4.7231648    777.94366  0.037800955  0.036574968            8 
 1716000   0.57270769   -4.7364059    778.70273  0.037815789  0.036552943            8 
 1717000   0.57384144   -4.7290418    780.66186   0.03788885  0.036530898            6 
 1718000   0.55094085   -4.7175188     780.2903  0.037848773  0.036508938           19 
 1719000   0.57963884   -4.7238973    780.10758  0.037817897  0.036486926           13 
 1720000   0.56615387   -4.7203446    780.34989   0.03780765  0.036464954           13 
 1721000   0.55332881   -4.7467537    779.13531  0.037726869  0.036442973            7 
 1722000   0.55563955   -4.7299667    779.97207  0.037745454  0.036420873           22 
 1723000   0.56232342    -4.730169      778.189  0.037637309  0.036398952           10 
 1724000   0.55508337   -4.7358499    780.23216  0.037714238  0.036377004           16 
 1725000   0.56146759   -4.7414347    781.61542  0.037759199  0.036355162            7 
 1726000   0.56016909   -4.7354555    780.95458  0.037705416  0.036333365            8 
 1727000   0.54088017   -4.7266886    778.56523  0.037568289  0.036311598           13 
 1728000    0.5684063   -4.7472537    780.24482  0.037627547  0.036289661           15 
 1729000   0.57145277   -4.7444815    779.76592  0.037582703   0.03626773           14 
 1730000   0.57134829   -4.7506187    779.87312  0.037566142  0.036245757           16 
 1731000    0.5657476   -4.7435982    779.06626  0.037505597  0.036223823           20 
 1732000   0.56286955   -4.7580613    780.58717   0.03755712  0.036201853           22 
 1733000   0.55983891   -4.7303966    781.69829  0.037588877  0.036180088            6 
 1734000   0.56094532   -4.7498011    780.44157  0.037506804  0.036158243            7 
 1735000   0.55357933   -4.7634838    780.42695  0.037484484  0.036136413           12 
 1736000    0.5656346   -4.7548545    779.76319  0.037431029  0.036114599            8 
 1737000   0.56102169   -4.7610024    781.15622  0.037476311  0.036092761           10 
 1738000   0.53863658   -4.7442793    781.65056   0.03747845  0.036071025           11 
 1739000   0.57231716   -4.7503033    781.56044   0.03745258  0.036049279           21 
 1740000   0.55425435   -4.7400448     781.4333  0.037424967  0.036027512           58 
 1741000   0.56130584   -4.7350349     780.2722  0.037347894  0.036005765           35 
 1742000   0.54783642   -4.7531864    779.61403  0.037294969  0.035984036           28 
 1743000   0.55517064   -4.7516088    781.15636  0.037347311  0.035962372           15 
 1744000   0.54753202   -4.7796817     779.8782  0.037264822  0.035940596           15 
 1745000   0.54664987   -4.7457294    781.54659  0.037323142  0.035918789           17 
 1746000   0.55698987   -4.7372387    782.62615  0.037353291  0.035897063           11 
 1747000    0.5667055   -4.7416342    781.12471   0.03726029  0.035875314           12 
 1748000   0.56110862   -4.7670217    780.00985  0.037185824  0.035853502           16 
 1749000   0.54172024   -4.7533036    778.18801  0.037077759  0.035831678           15 
 1750000   0.53525372   -4.7665702      779.976  0.037141714  0.035809815           15 
 1751000   0.54689105   -4.7457968    779.69776   0.03710726  0.035787912           18 
 1752000   0.54579893   -4.7561639    780.98096  0.037147115   0.03576608           15 
 1753000    0.5606179   -4.7718448    780.39439  0.037098041   0.03574432           22 
 1754000   0.54622859   -4.7734935     778.8408  0.037003079  0.035722521            8 
 1755000   0.55352323    -4.756895    780.68232  0.037069436  0.035700779            9 
 1756000   0.54299878   -4.7895215    780.26481  0.037028512  0.035678853           14 
 1757000   0.54478727   -4.7733831    780.26901  0.037007637  0.035656994           33 
 1758000   0.54438014   -4.7801606    779.97295  0.036972552  0.035635254           14 
 1759000   0.54644102   -4.7656337    780.19536  0.036962069  0.035613439           12 
 1760000   0.55463572   -4.7697628    780.73997  0.036966855  0.035591744            9 
 1761000   0.54340991    -4.775631    782.81024  0.037043831  0.035570222           15 
 1762000   0.54503652   -4.7732612    780.70558  0.036923268  0.035548689           18 
 1763000   0.53977086   -4.7669073    781.08495  0.036920257  0.035527093            7 
 1764000   0.54600066   -4.7775738    782.90983  0.036985536   0.03550555            9 
 1765000   0.54333052   -4.7652464    782.52701  0.036946507   0.03548405           26 
 1766000   0.54888971   -4.7813891     782.6143  0.036929705  0.035462569           20 
 1767000   0.55903465   -4.7823841    782.99201  0.036926618  0.035441168           34 
 1768000   0.55275871   -4.7972541    781.18121  0.036820381  0.035419694           14 
 1769000   0.53691447   -4.7846431    780.21702  0.036754146  0.035398347           11 
 1770000   0.54389142   -4.7981994    783.60239  0.036892768   0.03537692           21 
 1771000   0.53968778   -4.7776381    781.40655  0.036768612  0.035355584           28 
 1772000   0.55325814   -4.7744993    782.53962  0.036801148  0.035334263           11 
 1773000   0.53101564    -4.777578    782.23892  0.036766259  0.035312957           22 
 1774000   0.54206546   -4.7854558    783.34566  0.036797522  0.035291575           13 
 1775000   0.55552924   -4.7963058    783.48266  0.036783223  0.035270276            5 
 1776000    0.5386098   -4.7855639    783.94961  0.036784422  0.035248981            7 
 1777000   0.54560493    -4.771963    784.71022  0.036799391  0.035227786           11 
 1778000   0.54139068   -4.7959099    781.65955  0.036635712  0.035206508           19 
 1779000   0.54396726   -4.7853128    784.15197   0.03673187  0.035185197           14 
 1780000   0.55355332   -4.7806247    782.83458  0.036649559  0.035164004           22 
 1781000   0.53319117   -4.7980995    782.34972  0.036606294  0.035142778           28 
 1782000   0.54076872   -4.7702033    783.25867  0.036628258  0.035121578           14 
 1783000   0.54839635   -4.7910388    781.96146  0.036547086  0.035100379           43 
 1784000   0.54907026   -4.7715019    783.22396  0.036585574   0.03507925           12 
 1785000   0.54603519   -4.7824152    782.58458  0.036535228  0.035058106           12 
 1786000   0.53925741   -4.7829901    784.05986  0.036583607  0.035036973           10 
 1787000   0.54227826   -4.7896748    782.85209  0.036506813  0.035015823           14 
 1788000   0.54486896   -4.7970466    781.67223  0.036431405  0.034994736           19 
 1789000   0.54183149     -4.80369    782.58412  0.036453518  0.034973652            8 
 1790000   0.54306333   -4.7942917    782.52368  0.036430339  0.034952567           12 
 1791000   0.52195428   -4.8208551    784.39499  0.036497068  0.034931488           26 
 1792000   0.54853744   -4.7785245    783.75535  0.036446957  0.034910443            9 
 1793000   0.53372706    -4.810784    784.28133  0.036451075  0.034889417            9 
 1794000   0.54519199   -4.7749075    782.12727  0.036330698  0.034868392           15 
 1795000   0.51513705   -4.7940827    785.03469  0.036445436  0.034847331           16 
 1796000   0.53162546   -4.8018673    783.78985  0.036367384   0.03482633            9 
 1797000   0.53355634   -4.7855073    783.65511  0.036340897  0.034805262           12 
 1798000   0.53498331   -4.8099321    781.44911  0.036218442  0.034784226           21 
 1799000   0.52861225   -4.8080154    781.14043  0.036184011   0.03476308           32 
 1800000    0.5311987   -4.8106069    782.78405  0.036240002  0.034741975            7 
 1801000   0.54161253   -4.7979336    782.37717  0.036201053  0.034720903           16 
 1802000   0.53474073   -4.7930276    781.51061   0.03614089  0.034699699           23 
 1803000   0.54669927   -4.8211397    783.07457   0.03619313  0.034678454           21 
 1804000   0.53666909   -4.8090171    781.93538  0.036120445  0.034657304           13 
 1805000   0.53557899   -4.8042266    781.73995   0.03609141  0.034636228           10 
 1806000   0.53205971   -4.8149635    784.01375  0.036176345  0.034615137            7 
 1807000   0.52429199   -4.7906552    783.81425  0.036147124  0.034594125           14 
 1808000   0.52981344   -4.7964153    783.18935  0.036098329  0.034573025           18 
 1809000    0.5367166   -4.8148431    781.94526  0.036021064  0.034551914           16 
 1810000   0.53012897   -4.8032898    782.34934  0.036019767  0.034530826           29 
 1811000   0.53033053   -4.8142715    781.04015  0.035939635  0.034509669           11 
 1812000   0.53896026   -4.8263085    780.92402   0.03591446  0.034488515           21 
 1813000   0.53579821   -4.8102076     783.9032  0.036031586   0.03446738           23 
 1814000   0.51146013   -4.8153467    780.85001  0.035871463  0.034446273           19 
 1815000   0.53665142   -4.8133286    782.29934  0.035918243  0.034425199           13 
 1816000   0.52579495   -4.8114699    781.67239  0.035869695  0.034404167           12 
 1817000   0.52857207   -4.7977506    785.83383   0.03604081  0.034383132           10 
 1818000   0.51294401   -4.8138001    781.94304   0.03584264  0.034362097           19 
 1819000   0.53567843   -4.8255927    782.43839  0.035845629  0.034340983           25 
 1820000   0.53204983   -4.8278469    782.24817  0.035817224  0.034319874           30 
 1821000   0.52450032   -4.8335805    781.98152  0.035785353  0.034298775           16 
 1822000    0.5309332   -4.8330009    781.47651  0.035742614  0.034277657           32 
 1823000   0.51496376   -4.8147304    782.14883  0.035753741  0.034256547           21 
 1824000   0.51925749    -4.826541    782.98673   0.03577242  0.034235509           16 
 1825000   0.52694245   -4.8125383     783.5457  0.035778343  0.034214522           10 
 1826000   0.53347594   -4.8279131    782.90274  0.035729406   0.03419351           31 
 1827000    0.5157755   -4.8415871    781.53923  0.035647657  0.034172406           18 
 1828000   0.53112809   -4.8302084    781.74461  0.035637519   0.03415135           25 
 1829000    0.5193612   -4.8281234    782.01698  0.035630444  0.034130327           13 
 1830000   0.52448094   -4.8292954     781.4899  0.035586972  0.034109315           11 
 1831000   0.51835502   -4.8173493    783.29216  0.035649561  0.034088294           31 
 1832000   0.53718784   -4.8245764     783.4295  0.035636349  0.034067306           36 
 1833000     0.524524    -4.816506    780.50646  0.035484018  0.034046354           22 
 1834000   0.52350349   -4.8307709    782.58403  0.035559071  0.034025387           36 
 1835000   0.51018271   -4.8390096    779.78069  0.035412384   0.03400441           42 
 1836000   0.51522612   -4.8105399    781.55958  0.035473837  0.033983407           24 
 1837000   0.52557222   -4.8049364    782.96751  0.035518396  0.033962431           20 
 1838000   0.53842826   -4.8384129    781.07521  0.035413276  0.033941443           22 
 1839000   0.51596103   -4.8342237    782.54894    0.0354608  0.033920452           25 
 1840000   0.51999302   -4.8267711    782.51888  0.035440166  0.033899477           44 
 1841000   0.51168002   -4.8494596    781.87656  0.035391841  0.033878488           23 
 1842000   0.51200263    -4.828488    782.54815  0.035403011  0.033857396           22 
 1843000   0.50741076   -4.8417658    782.06552  0.035361979   0.03383637           19 
 1844000   0.53237753   -4.8255294    783.65149  0.035414475  0.033815396           20 
 1845000   0.52248412   -4.8194485    780.90614   0.03527128  0.033794517           19 
 1846000   0.51358135   -4.8361043    780.96882  0.035255003  0.033773644           25 
 1847000   0.53388252   -4.8316742    782.38342  0.035299739  0.033752775           13 
 1848000   0.51238332   -4.8488028    783.35887  0.035324624  0.033731933           10 
 1849000   0.51399908   -4.8446487    783.78041  0.035324518  0.033711032            9 
 1850000   0.51212021   -4.8418123    783.29993   0.03528378   0.03369016           29 
 1851000   0.51892922   -4.8345397    782.19506  0.035214977  0.033669329           20 
 1852000   0.51934741   -4.8499353    779.86801  0.035091253  0.033648458           26 
 1853000    0.5224515   -4.8578952    781.43412  0.035142747  0.033627575           46 
 1854000   0.51471175   -4.8513653     782.0322  0.035150674  0.033606685           55 
 1855000   0.51820126   -4.8474809    781.63888  0.035114056  0.033585783           40 
 1856000   0.52571963   -4.8607926    784.16642  0.035208622  0.033564886           40 
 1857000   0.50076906   -4.8490279       781.05  0.035049812  0.033544001           42 
 1858000   0.51037585   -4.8385527      781.378  0.035045659  0.033523156           43 
 1859000    0.5356267   -4.8407405     783.5402  0.035123731  0.033502409           32 
 1860000   0.50034977   -4.8425401    781.13528    0.0349971  0.033481605           34 
 1861000    0.5121004   -4.8622231    783.52716    0.0350854  0.033460797           12 
 1862000   0.50167192    -4.844268    782.88159  0.035037665  0.033440026           13 
 1863000    0.5030639   -4.8443584    783.11508  0.035029302   0.03341936           18 
 1864000   0.50628032   -4.8468011    781.13099  0.034921807  0.033398647           15 
 1865000   0.51171675   -4.8368272    781.89815  0.034937361  0.033377956           16 
 1866000   0.51126957   -4.8417897    784.68468  0.035043082  0.033357294           24 
 1867000    0.5164552   -4.8403821    782.96902  0.034947733  0.033336697            7 
 1868000   0.50692558   -4.8492719    782.79164  0.034921112  0.033316067           18 
 1869000   0.50814741   -4.8665601    783.98431  0.034955605  0.033295394           15 
 1870000   0.51905713   -4.8634459     781.2098  0.034813271  0.033274607           21 
 1871000     0.504575   -4.8755951    782.03969  0.034831627  0.033253873           12 
 1872000    0.5073946   -4.8626657    779.38666  0.034694919  0.033233158           37 
 1873000   0.50995632   -4.8675213    783.25816  0.034848646  0.033212477           42 
 1874000   0.51368653   -4.8488601    781.46093   0.03475013  0.033191774           30 
 1875000   0.50002476   -4.8525449    781.23799  0.034721688  0.033171184           16 
 1876000    0.5030639   -4.8514925    780.97144   0.03469134  0.033150642           13 
 1877000   0.50243306    -4.863119    782.22231  0.034728393  0.033130032           31 
 1878000   0.50335866   -4.8818893    782.30962  0.034713774   0.03310933           16 
 1879000    0.5082143   -4.8668066    779.49218  0.034570347  0.033088666           18 
 1880000   0.49762352   -4.8684561    781.84706  0.034656341  0.033067973           13 
 1881000   0.49606601   -4.8774378    781.55073  0.034624789  0.033047342           21 
 1882000   0.50259396   -4.8557086    780.44656  0.034557499  0.033026725           21 
 1883000    0.4927515     -4.85291    783.85888  0.034690161  0.033006204           20 
 1884000   0.49917822    -4.871474    783.47767  0.034654886  0.032985627           14 
 1885000   0.50526165   -4.8704019     780.2208   0.03449252  0.032964946           32 
 1886000   0.51289484   -4.8652238    783.29086  0.034609882  0.032944364           33 
 1887000   0.50452228   -4.8602793    783.13135  0.034584497  0.032923805           26 
 1888000   0.50470429   -4.8544728    781.54899  0.034496336  0.032903271           15 
 1889000   0.49305883   -4.8733908    783.11815  0.034547298  0.032882722           10 
 1890000    0.4922457   -4.8779875    780.08012  0.034395067  0.032862082           18 
 1891000   0.49467267   -4.8764771    780.87143   0.03441175  0.032841509           13 
 1892000   0.48741671   -4.8747428    780.94151  0.034396648  0.032820973           27 
 1893000    0.4919773   -4.8783753    781.69582  0.034411684  0.032800347           15 
 1894000   0.51404711   -4.8848533     781.0888  0.034366808  0.032779714           18 
 1895000   0.49128699   -4.8840263    782.27641  0.034400897  0.032759019           16 
 1896000   0.49892421   -4.8558723    781.77513  0.034360721  0.032738386           40 
 1897000   0.49240398   -4.8913723    779.91824  0.034261037  0.032717723           30 
 1898000   0.50267891   -4.8713895    780.62121   0.03427385  0.032697063           44 
 1899000   0.49950098   -4.8994578    781.25081   0.03428343  0.032676377           21 
 1900000   0.48750132   -4.8918184     780.8534  0.034247956  0.032655673           17 
 1901000   0.49481391   -4.8979053    778.65591   0.03413361  0.032634949           43 
 1902000   0.48330421   -4.9024239    780.26722  0.034186261  0.032614211           32 
 1903000   0.49667284    -4.882305    780.52284   0.03417949   0.03259351           17 
 1904000   0.49706443   -4.9011833    780.09541  0.034142831   0.03257279           40 
 1905000   0.47897233    -4.907761    779.75097  0.034109841  0.032552047           23 
 1906000   0.49039778    -4.879517    778.58257  0.034040861  0.032531336           14 
 1907000   0.49072184   -4.8910817    780.17498  0.034092596  0.032510665           30 
 1908000   0.49924167   -4.9019658    780.01674  0.034067817  0.032490008           19 
 1909000   0.48731862    -4.901167    780.65217   0.03407771  0.032469377           21 
 1910000   0.49398476   -4.8833182    778.92025  0.033984304  0.032448755           17 
 1911000   0.48322026   -4.8941732    781.33575  0.034071854  0.032428161           15 
 1912000   0.48562909   -4.9017726    778.16248  0.033915729  0.032407501           50 
 1913000   0.47572499   -4.8991499    780.33868  0.033992798   0.03238683           40 
 1914000   0.48426037    -4.898562    779.34659  0.033931844  0.032366198           49 
 1915000   0.49717226    -4.917554    781.09515  0.033990216  0.032345593           48 
 1916000   0.48664777   -4.8833492    777.80919  0.033829558  0.032324992           18 
 1917000   0.48780532   -4.8900409    779.49654  0.033885261  0.032304366           17 
 1918000   0.47840238   -4.8994709    780.27428  0.033901385  0.032283714           21 
 1919000     0.484631    -4.918492    779.60359  0.033854594  0.032263144           11 
 1920000   0.48760191   -4.9069312    779.01973   0.03381162  0.032242576           27 
 1921000   0.49479547   -4.8954014    780.08133  0.033840071  0.032222022           24 
 1922000   0.48629119   -4.9105805    778.38981  0.033749124  0.032201418           29 
 1923000   0.47194338   -4.9213626    778.74026  0.033746761  0.032180821           27 
 1924000   0.48038894   -4.9027147    779.41595  0.033758487  0.032160223           17 
 1925000   0.49395929   -4.9102001    778.36195  0.033695323  0.032139654           12 
 1926000   0.48562483   -4.9123948    779.13659  0.033711344  0.032119117           30 
 1927000   0.48177603   -4.8871221    779.34056  0.033702671  0.032098593           26 
 1928000   0.49479031   -4.9049909    780.34887  0.033728772  0.032078094           37 
 1929000   0.48778997   -4.9107966    779.52814  0.033675831  0.032057608           30 
 1930000   0.48087318   -4.9222205    779.06248  0.033638276  0.032037149           37 
 1931000    0.4902747   -4.9155349    779.29229  0.033630774  0.032016668           23 
 1932000   0.48237699   -4.9075135    780.53238  0.033666856  0.031996239           55 
 1933000   0.48749216   -4.8954091    780.87145  0.033664056  0.031975888           24 
 1934000   0.48812452   -4.9140719    778.73096  0.033554419  0.031955506           29 
 1935000   0.47635487   -4.9127546     779.0599  0.033551244   0.03193509           21 
 1936000   0.47516675   -4.9139868    778.49123  0.033509437  0.031914657           17 
 1937000   0.47072493   -4.9176339    778.85384  0.033507737  0.031894185           42 
 1938000    0.4901351   -4.9193794     778.4848  0.033474579  0.031873749           28 
 1939000   0.48370191    -4.914241     779.2249  0.033489122   0.03185332           72 
 1940000   0.47577989   -4.9187266    780.53892  0.033528304  0.031832881           60 
 1941000   0.48807888   -4.9163375    779.53449  0.033467907  0.031812512           49 
 1942000   0.47638095   -4.9002163     778.3353  0.033399215  0.031792157           18 
 1943000   0.47603037   -4.9153073    779.37186  0.033426482  0.031771784           36 
 1944000   0.48499555   -4.9240509    779.32672  0.033407353  0.031751431           34 
 1945000     0.478631   -4.9127588    778.65599  0.033361439  0.031731091           24 
 1946000   0.48274182   -4.9311082    777.54868  0.033296877  0.031710799           40 
 1947000   0.47512349   -4.9349376    779.14059  0.033347911  0.031690455           29 
 1948000   0.48407497   -4.9302008    778.84985  0.033318354  0.031670098           21 
 1949000   0.46711741   -4.9155152     779.1787   0.03331532  0.031649744           22 
 1950000   0.47500893   -4.9382984    777.64921  0.033232872  0.031629405           32 
 1951000   0.47440801   -4.9212845    777.84319  0.033224124  0.031609015           20 
 1952000    0.4786752   -4.9175504    779.77131  0.033289417  0.031588685           36 
 1953000   0.47806696   -4.9322985    777.37034  0.033169924  0.031568352           41 
 1954000   0.47909526   -4.9091941    779.01586  0.033223126  0.031548052           17 
 1955000   0.47500095   -4.9462215    778.04533  0.033164762  0.031527773           21 
 1956000     0.463517    -4.925115    779.02564  0.033189572  0.031507533           17 
 1957000   0.46503692   -4.9262232    776.94079  0.033083836  0.031487178           35 
 1958000   0.47133357   -4.9349739    777.12231  0.033074664  0.031466777           16 
 1959000   0.46934203   -4.9491769    777.40858  0.033069958  0.031446424           18 
 1960000   0.47353429   -4.9508646    776.67094  0.033021724   0.03142601           40 
 1961000    0.4684194   -4.9554861    777.42887  0.033037093  0.031405696           26 
 1962000   0.46457977   -4.9523499    778.92882  0.033083963  0.031385416           36 
 1963000   0.47702879   -4.9632785    776.93197  0.032982339  0.031365104           28 
 1964000   0.47357167   -4.9357125    776.19206  0.032934151  0.031344864           32 
 1965000   0.47479272   -4.9309026    778.93501  0.033033716  0.031324647           31 
 1966000   0.47265178   -4.9365726    779.49679  0.033040725  0.031304518           24 
 1967000   0.47598659   -4.9329204    777.84224  0.032953831  0.031284367           16 
 1968000   0.47908906   -4.9478871    778.83064   0.03297894  0.031264231           10 
 1969000   0.46389284    -4.944143    777.88616  0.032922218  0.031244123           59 
 1970000    0.4642768   -4.9591856    778.92727  0.032949546  0.031224032           14 
 1971000   0.46343501   -4.9393286    779.77052  0.032968481  0.031203932           18 
 1972000   0.46113824   -4.9465638    779.21583  0.032928323  0.031183814           33 
 1973000    0.4619442   -4.9527902    777.44169  0.032836699  0.031163714           45 
 1974000   0.45433728   -4.9446506     779.6196  0.032912006  0.031143636           26 
 1975000   0.46703974   -4.9472003    778.78152   0.03285998  0.031123553           29 
 1976000   0.48049983   -4.9414946    779.33635  0.032866749  0.031103496           11 
 1977000   0.45849944   -4.9553754    776.52911  0.032731795  0.031083402           14 
 1978000   0.44586285    -4.947917    779.48094  0.032839608  0.031063367           23 
 1979000   0.46144656   -4.9464748    777.67723  0.032747062  0.031043326           69 
 1980000    0.4617901   -4.9480317    778.12744  0.032749472  0.031023257           26 
 1981000   0.46796583   -4.9513813    776.30611  0.032656323  0.031003165           31 
 1982000   0.46931319    -4.943617    777.34179  0.032683392  0.030983111           26 
 1983000   0.46076069   -4.9526293    779.37913  0.032752527  0.030963078           19 
 1984000   0.45152287   -4.9423638    778.20456  0.032686683  0.030943017           19 
 1985000   0.46030045   -4.9571516     778.9288  0.032700621  0.030922939           75 
 1986000   0.45503147   -4.9488659    776.99322  0.032602938  0.030902907           32 
 1987000   0.46017386   -4.9407935    777.38159  0.032602818  0.030882911           53 
 1988000   0.47008204   -4.9414709    777.50048  0.032591402  0.030862887           30 
 1989000   0.45836883   -4.9739896     776.8331  0.032547055  0.030842883           31 
 1990000   0.46640768   -4.9573329     776.4638  0.032515235  0.030822872           25 
 1991000   0.46052656   -4.9578937     775.4011  0.032454424  0.030802839           42 
 1992000   0.45715419   -4.9607261    777.77186   0.03253731   0.03078281           55 
 1993000    0.4619114   -4.9719355    776.72272  0.032477117  0.030762784           44 
 1994000   0.46226087   -4.9579288    777.98778  0.032513698  0.030742779           42 
 1995000   0.44965174    -4.959273    776.17778  0.032421795  0.030722822           53 
 1996000   0.46327666   -4.9628921    777.46287  0.032459205  0.030702871           46 
 1997000   0.44545234   -4.9592224    777.50939  0.032444892  0.030682925           63 
 1998000   0.45846636   -4.9552488    776.40416  0.032382556  0.030662991           30 
 1999000   0.46363922   -4.9647855    776.33693  0.032363554  0.030643023           21 
 2000000   0.45918853   -4.9661656    777.53816  0.032397423  0.030623111           42 
 2001000   0.46400242   -4.9678217    775.27371  0.032286928  0.030603174           79 
 2002000    0.4405527   -4.9902196    777.13471  0.032348265  0.030583201           42 
 2003000   0.45280206    -4.970141    775.25233    0.0322538  0.030563236           42 
 2004000   0.44201853   -4.9742996    774.79487  0.032218682  0.030543285           43 
 2005000   0.45462845   -4.9842901    776.26906  0.032263884   0.03052328           64 
 2006000   0.45601337   -4.9846479    777.00386  0.032278326  0.030503286           93 
 2007000   0.44787932   -4.9697031    776.61682  0.032246173  0.030483339           29 
 2008000   0.44622412   -4.9734752    776.28687   0.03221642  0.030463406           15 
 2009000   0.44583427   -4.9855119    775.54366  0.032169556  0.030443431           74 
 2010000   0.45317451   -5.0011764    775.08733  0.032134632  0.030423489           66 
 2011000   0.45163415   -4.9811865    773.09808  0.032036221  0.030403539           99 
 2012000   0.45218395   -4.9725866    776.29594  0.032152747  0.030383639           99 
Loop time of 4997.46 on 48 procs for 2000000 steps with 4000 atoms

Performance: 69155.095 tau/day, 400.203 timesteps/s
99.4% CPU use with 48 MPI tasks x no OpenMP threads

MPI task timing breakdown:
Section |  min time  |  avg time  |  max time  |%varavg| %total
---------------------------------------------------------------
Pair    | 330.07     | 359.27     | 377.96     |  52.2 |  7.19
Neigh   | 33.766     | 34.923     | 36.473     |  11.6 |  0.70
Comm    | 327.36     | 344.52     | 376.81     |  58.3 |  6.89
Output  | 4.2925     | 4.2941     | 4.3248     |   0.2 |  0.09
Modify  | 4199.8     | 4208.1     | 4222.5     |   8.1 | 84.20
Other   |            | 46.4       |            |       |  0.93

Nlocal:        83.3333 ave          94 max          75 min
Histogram: 1 3 7 9 8 12 6 0 0 2
Nghost:        2272.15 ave        2290 max        2251 min
Histogram: 1 3 5 6 5 7 8 5 6 2
Neighs:        15353.7 ave       17712 max       13200 min
Histogram: 1 0 8 9 8 9 9 2 0 2
FullNghs:      30707.0 ave       34881 max       27400 min
Histogram: 1 4 6 9 10 10 6 0 0 2

Total # of neighbors = 1473934
Ave neighs/atom = 368.48350
Neighbor list builds = 107996
Dangerous builds = 0

#clear
#
#next RN
#
#jump SELF
Total wall time: 1:23:21
