
units lj                  # Use reduced LJ style units
atom_style atomic         # Uncharged point particles
atom_modify map hash      # Needed for indexing of clusters etc
                          # Used to be able to find where atoms are in relation to each other.

lattice fcc 1.0 spacing 1 1 1
Lattice spacing in x,y,z = 1.5874011 1.5874011 1.5874011
region box block 0 10 0 10 0 10 units lattice
create_box 2 box
Created orthogonal box = (0.0000000 0.0000000 0.0000000) to (15.874011 15.874011 15.874011)
  3 by 4 by 4 MPI processor grid
create_atoms 1 box
Created 4000 atoms
  using lattice units in orthogonal box = (0.0000000 0.0000000 0.0000000) to (15.874011 15.874011 15.874011)
  create_atoms CPU = 0.003 seconds
set type 1 type/fraction 2 0.69 78393
Setting atom values ...
  2781 settings made for type/fraction
mass 1 1.0
mass 2 1.0
pair_style lj/cut  3.5
pair_modify tail  yes
pair_coeff 1  1  1.0  1.0   # Intearaction between 1 and 1 set with epsilon = 1 and sigma = 1
pair_coeff 1  2  1.5  0.8
pair_coeff 2  2  0.5  0.88

write_data data.0
System init for write_data ...
Neighbor list info ...
  update every 1 steps, delay 10 steps, check yes
  max neighbors/atom: 2000, page size: 100000
  master list distance cutoff = 3.8
  ghost atom cutoff = 3.8
  binsize = 1.9, bins = 9 9 9
  1 neighbor lists, perpetual/occasional/extra = 1 0 0
  (1) pair lj/cut, perpetual
      attributes: half, newton on
      pair build: half/bin/atomonly/newton
      stencil: half/bin/3d
      bin: standard
WARNING: Not all mixed pair coeffs generated from mixing. Use write_data with 'pair ij' option to store all pair coeffs. (../write_data.cpp:312)


#############################
#   M E L T   S Y S T E M   #
#############################

velocity all create 2.4 8172548 mom yes dist gaussian # Assign velocities
                                                    # Temperature 2.4, random number seed, zero linear momentum
                                                                                # Gaussian distribution

timestep 0.002   # simulation timestep
thermo 1000       # output thermodynamic data every 1000 steps bf 100

# Define a fix  in this case with index 1 applied to all
# particles in the simulation. This fix is for simulations
# in the anisotropic NPT ensemble. Note that we use the MTK
# correction.
fix 1 all npt temp 2.4 2.4 0.1 iso 5.68 5.68 0.5 mtk yes tchain 5 pchain 5 # Use NPT ensemble
                                                                         # Set temperature and pressure and damping
                                                                         # Numbers of thermostats in chain and in barostat
run 10000          # run for 10000 steps
Per MPI rank memory allocation (min/avg/max) = 3.642 | 3.644 | 3.648 Mbytes
Step Temp E_pair E_mol TotEng Press Volume 
       0          2.4    -4.227286            0  -0.62818599   -3.7882121         4000 
    1000    2.4391085   -3.8892102            0  -0.23146207    5.6656306    3650.4659 
    2000     2.393701   -3.8666207            0  -0.27696692     5.733748    3641.3266 
    3000    2.4176708   -3.9183016            0  -0.29270204    5.5505232    3631.5704 
    4000    2.3234167   -3.9174271            0  -0.43317341    5.8872183    3596.2069 
    5000    2.3493908   -3.8589265            0  -0.33572129     5.539026    3671.7441 
    6000    2.4149295   -3.8195437            0  -0.19805498     5.863834    3656.3833 
    7000     2.436623    -3.849879            0  -0.19585833    5.6321844    3668.7847 
    8000    2.4487069   -3.8566794            0  -0.18453734    5.5554301    3672.5987 
    9000    2.4078152   -3.8426398            0  -0.23181989    5.7591027    3653.1169 
   10000    2.4698092    -3.867685            0  -0.16389744    5.8045092    3638.9792 
Loop time of 2.71119 on 48 procs for 10000 steps with 4000 atoms

Performance: 637358.131 tau/day, 3688.415 timesteps/s
99.6% CPU use with 48 MPI tasks x no OpenMP threads

MPI task timing breakdown:
Section |  min time  |  avg time  |  max time  |%varavg| %total
---------------------------------------------------------------
Pair    | 1.1618     | 1.2675     | 1.4407     |   4.1 | 46.75
Neigh   | 0.21413    | 0.22345    | 0.2497     |   1.5 |  8.24
Comm    | 0.74929    | 0.93594    | 1.0213     |   5.5 | 34.52
Output  | 0.00024184 | 0.00024606 | 0.00032463 |   0.0 |  0.01
Modify  | 0.24481    | 0.26838    | 0.31962    |   4.3 |  9.90
Other   |            | 0.01564    |            |       |  0.58

Nlocal:        83.3333 ave          92 max          74 min
Histogram: 1 3 3 10 1 9 10 6 3 2
Nghost:        1757.50 ave        1784 max        1733 min
Histogram: 3 2 6 10 4 6 7 4 4 2
Neighs:        10499.5 ave       11765 max        8729 min
Histogram: 1 1 1 7 5 11 5 11 2 4

Total # of neighbors = 503974
Ave neighs/atom = 125.99350
Neighbor list builds = 902
Dangerous builds = 190

# Equilibrate just above the melting temperature to avoid step fn in T

fix 1 all npt temp 1.25 1.25 0.1 iso 5.68 5.68 0.5 mtk yes tchain 5 pchain 5
run 2000
Per MPI rank memory allocation (min/avg/max) = 3.644 | 3.646 | 3.650 Mbytes
Step Temp E_pair E_mol TotEng Press Volume 
   10000    2.4698092    -3.867685            0  -0.16389744    5.8045092    3638.9792 
   11000     1.260104   -5.7300487            0   -3.8403653    5.4611503    2782.7715 
   12000    1.2530797   -5.7437785            0   -3.8646289    5.2870445    2784.5438 
Loop time of 0.660075 on 48 procs for 2000 steps with 4000 atoms

Performance: 523576.905 tau/day, 3029.959 timesteps/s
99.7% CPU use with 48 MPI tasks x no OpenMP threads

MPI task timing breakdown:
Section |  min time  |  avg time  |  max time  |%varavg| %total
---------------------------------------------------------------
Pair    | 0.29711    | 0.32215    | 0.36339    |   2.1 | 48.81
Neigh   | 0.041684   | 0.044233   | 0.049688   |   0.7 |  6.70
Comm    | 0.20203    | 0.24357    | 0.27479    |   2.8 | 36.90
Output  | 5.6125e-05 | 5.7687e-05 | 7.4412e-05 |   0.0 |  0.01
Modify  | 0.03961    | 0.045258   | 0.049741   |   1.5 |  6.86
Other   |            | 0.004807   |            |       |  0.73

Nlocal:        83.3333 ave          89 max          77 min
Histogram: 4 3 2 5 5 10 5 7 2 5
Nghost:        2102.15 ave        2116 max        2084 min
Histogram: 3 5 4 1 2 9 6 8 5 5
Neighs:        13706.3 ave       15216 max       11793 min
Histogram: 2 2 2 4 4 14 10 4 2 4

Total # of neighbors = 657902
Ave neighs/atom = 164.47550
Neighbor list builds = 145
Dangerous builds = 12

#############################
# L I N E A R  Q U E N C H  #
#############################

# Define solid atoms. This closely follows ten Wolde  Ruiz-Montero and Frenkel  Faraday Discuss  1996  104  93-110
# Compute components of the per-atom q6 vector
compute q6 all orientorder/atom degrees 1 6 components 6 nnn NULL cutoff 1.3 # compute the Q6 parameter.
                                                                             # Use all neighbours within 1.3 unit cell.

# get number of connections
compute coord_number all coord/atom orientorder q6 0.5

# An atom is solid if it has 8 or more connections (of a possible 14)
variable is_solid atom c_coord_number>=8
group solid dynamic all var is_solid    # Must be dynamic to update
dynamic group solid defined

# do clustering
compute cluster solid cluster/atom 1.3 # Create a cluster where all atoms within are solid and max 1.3 units from another member

# define chunks one chunk per cluster
compute clus_chunks solid chunk/atom c_cluster nchunk every compress yes  # Says which atoms are in which chunk

# count the size of each chunk
compute size_chunks solid property/chunk clus_chunks count


# Find the maximum entry in the vector of chunk sizes
variable max_n equal max(c_size_chunks)


# Thermo style which includes this variable
# thermo_style custom step temp pe vol v_max_n

thermo ${N}  # Print the thermo information every 100 steps
thermo 1000  

# Reset the npt fix at a lower temperature (below freezing)
fix 1  all npt temp  ${temp} ${temp}  0.1  iso  5.68  5.68  0.5  mtk yes tchain  5  pchain  5
fix 1  all npt temp  0.45 ${temp}  0.1  iso  5.68  5.68  0.5  mtk yes tchain  5  pchain  5
fix 1  all npt temp  0.45 0.45  0.1  iso  5.68  5.68  0.5  mtk yes tchain  5  pchain  5

dump dmp2 all dcd ${N} traj.dcd
dump dmp2 all dcd 1000 traj.dcd


compute msd all msd com yes
variable twopoint equal c_msd[4]/6/(step*dt+1.0e-6)
fix 9 all vector 10 c_msd[4]
variable fit equal slope(f_9)/6/(10*dt)
thermo_style custom step temp pe c_msd[4] v_twopoint v_fit v_max_n

fix 1 all npt temp 1.25 ${temp} 0.1 iso 5.68 5.68 0.5 mtk yes tchain 5 pchain 5
fix 1 all npt temp 1.25 0.45 0.1 iso 5.68 5.68 0.5 mtk yes tchain 5 pchain 5
run 2000000 # 5000000  # Run for this many steps
Neighbor list info ...
  update every 1 steps, delay 10 steps, check yes
  max neighbors/atom: 2000, page size: 100000
  master list distance cutoff = 3.8
  ghost atom cutoff = 3.8
  binsize = 1.9, bins = 8 8 8
  4 neighbor lists, perpetual/occasional/extra = 1 3 0
  (1) pair lj/cut, perpetual
      attributes: half, newton on
      pair build: half/bin/atomonly/newton
      stencil: half/bin/3d
      bin: standard
  (2) compute orientorder/atom, occasional
      attributes: full, newton on
      pair build: full/bin/atomonly
      stencil: full/bin/3d
      bin: standard
  (3) compute coord/atom, occasional
      attributes: full, newton on
      pair build: full/bin/atomonly
      stencil: full/bin/3d
      bin: standard
  (4) compute cluster/atom, occasional
      attributes: full, newton on
      pair build: full/bin/atomonly
      stencil: full/bin/3d
      bin: standard
Per MPI rank memory allocation (min/avg/max) = 9.843 | 9.850 | 9.856 Mbytes
Step Temp PotEng c_msd[4] v_twopoint v_fit v_max_n 
   12000    1.2530797   -5.7437785 1.0821199e-30 7.5147215e-33 8.3333333e+20            2 
   13000    1.2384291   -5.7332081   0.58991316 0.0037814945  0.049096037            2 
   14000    1.2704529   -5.7580866    1.1543971 0.0068714112  0.047223242            2 
   15000    1.2715356   -5.7434266    1.7787243 0.0098818013  0.048392104            4 
   16000    1.2402588   -5.7322486     2.424033  0.012625171  0.050238486            4 
   17000     1.242327   -5.7735563    3.0323395  0.014864409    0.0508701            1 
   18000    1.2089545   -5.7165894    3.6500074  0.016898182  0.050950399            3 
   19000    1.2560689   -5.7363041    4.1720416  0.018298427  0.050694745            2 
   20000     1.269963    -5.792333    4.6569298  0.019403874   0.04985948            2 
   21000    1.2320521   -5.7285061    5.2767353  0.020939425  0.049252914            3 
   22000    1.2789659   -5.7968886    5.8280082  0.022075788  0.048962191            2 
   23000    1.2362667   -5.7209484    6.3405668  0.022973068   0.04849346            3 
   24000    1.2346389   -5.6918272    6.9068741  0.023982201  0.048152104            3 
   25000    1.2376232   -5.7871625    7.5363533  0.025121177    0.0480122            3 
   26000    1.2661211   -5.7595401    8.0251194  0.025721536  0.047925784            2 
   27000    1.2467985   -5.7672423    8.5312653  0.026331065   0.04765294            1 
   28000    1.2422996   -5.7646841    9.0863084  0.027042584  0.047412906            2 
   29000    1.2372143   -5.7601934    9.7751576  0.028089533   0.04731801            2 
   30000    1.2110053   -5.7896459    10.184992  0.028291643  0.047216171            2 
   31000    1.2524772   -5.7318548    10.780018  0.028978543  0.047063494            2 
   32000    1.2497166   -5.7841759    11.303651  0.029436591  0.046952638            3 
   33000    1.2322508   -5.7461702    12.060788  0.030456535  0.046922537            1 
   34000    1.2369485   -5.7449536    12.680553  0.031079786  0.047049226            2 
   35000    1.2366525   -5.7881958    13.380934  0.031859367  0.047203734            2 
   36000    1.2638532   -5.7906818    13.822215  0.031995868  0.047362999            2 
   37000    1.2496212   -5.7478102    14.463625  0.032575732  0.047453779            2 
   38000    1.2405626   -5.7452399    15.159209   0.03324388  0.047534052            2 
   39000    1.2429061    -5.848489    15.451862  0.033016798  0.047585719            5 
   40000    1.2040135   -5.7690868     16.10073  0.033543187  0.047622649            1 
   41000    1.2475427   -5.7605265    16.804437  0.034155359  0.047667996            4 
   42000    1.2400643   -5.7703874     17.29939  0.034324186  0.047730518            2 
   43000    1.2637257   -5.7310731    17.965221   0.03481632  0.047756296            1 
   44000    1.2526077   -5.7608994    18.414434  0.034875821  0.047777453            3 
   45000    1.2319293   -5.7971914    18.919745  0.035036564  0.047744259            3 
   46000    1.2344851   -5.7499781    19.439485  0.035216457  0.047711454            3 
   47000    1.2485604   -5.7795873    19.941733  0.035357682  0.047670273            3 
   48000    1.2312144   -5.7745275    20.522996  0.035630201  0.047635546            1 
   49000    1.2418714   -5.7976406    21.087638  0.035863329  0.047597622            2 
   50000    1.2278451   -5.7748597    21.590755  0.035984591  0.047554856            2 
   51000    1.2441409    -5.768254    22.256563  0.036366932  0.047517967            1 
   52000    1.2733931   -5.7850867    22.860813  0.036635919  0.047504174            4 
   53000     1.254802   -5.8316016    23.399789  0.036792121  0.047497027            1 
   54000    1.2354441   -5.7748617    24.105921  0.037200495  0.047510495            2 
   55000    1.2414221   -5.7997379    24.517197  0.037147268  0.047525826            2 
   56000    1.2354001   -5.7949636     25.20699  0.037510402  0.047518854            8 
   57000    1.2265755   -5.8022955    25.658996  0.037513151  0.047507971            4 
   58000    1.2107199   -5.7794691    26.282209  0.037761795  0.047476937            3 
   59000    1.2036216   -5.7654676    26.676783  0.037679072  0.047458167            3 
   60000    1.2128148   -5.7941513    27.326848  0.037953956  0.047425159            2 
   61000    1.2476326   -5.7835987    27.838647  0.038030938  0.047389139            3 
   62000    1.2147088   -5.7732313    28.348148   0.03810235  0.047344837            1 
   63000    1.2467142   -5.8078233     28.81532  0.038115502  0.047301737            2 
   64000    1.2265669    -5.793811    29.339552  0.038202541  0.047252552            4 
   65000    1.2182565   -5.7574552    30.190825  0.038706186  0.047227242            4 
   66000    1.2306868    -5.792008     30.44891  0.038445593  0.047197207            2 
   67000    1.2678009    -5.817863    30.847351  0.038367352  0.047136661            3 
   68000    1.2192344   -5.8298605    31.253971  0.038301434  0.047064295            2 
   69000    1.2310592   -5.8025259    31.859147   0.03847723  0.046987525            3 
   70000    1.2063789   -5.7915401    32.446824  0.038627171  0.046917085            1 
   71000    1.2104833   -5.7982676    33.054571  0.038796445  0.046854381            3 
   72000    1.2608196   -5.7944821    33.578412  0.038863903  0.046808439            5 
   73000    1.2360328   -5.8038075    34.024286  0.038840509  0.046759515            8 
   74000    1.2287747   -5.7818125    34.578757  0.038940042  0.046707116            2 
   75000    1.2116521    -5.805345    35.125381  0.039028201  0.046658263            2 
   76000    1.2327979   -5.7479552    35.932553  0.039399729  0.046620566            3 
   77000    1.2249403   -5.7887799    36.351807  0.039341782  0.046579318            2 
   78000    1.2321654   -5.7965741    36.793325  0.039309107  0.046538594            5 
   79000    1.2364097   -5.8088488    37.346426  0.039394964   0.04649152            6 
   80000    1.2101917   -5.8030649    37.762754  0.039336201  0.046448352            4 
   81000    1.1988756   -5.8169886    38.150154   0.03924913   0.04639158            3 
   82000    1.2292201   -5.8309375    38.735183  0.039365023   0.04634548            3 
   83000    1.2240028   -5.7991008    39.420651  0.039578966  0.046301005            3 
   84000    1.2233067   -5.8140292    39.820276  0.039504242   0.04625207            2 
   85000    1.1948912   -5.8068786    40.470603  0.039677061  0.046209005            6 
   86000    1.1806006   -5.8221547    40.983936  0.039713116  0.046161545            3 
   87000    1.2091086   -5.8355745    41.716992  0.039958805  0.046132594            4 
   88000    1.2125698   -5.8080589    42.045796  0.039816095  0.046106255            1 
   89000    1.2212884   -5.7927836    42.735575  0.040014584   0.04607142            3 
   90000     1.221933   -5.8367799    43.003109  0.039817693  0.046029267            3 
   91000    1.2174446   -5.8461483    43.694475  0.040013255  0.045992818            2 
   92000     1.212055   -5.8157136    44.161342  0.040001216  0.045961608            3 
   93000    1.1998338   -5.8355561      44.6992  0.040053046  0.045928736            3 
   94000    1.2240161   -5.8387107    45.320416  0.040177673  0.045906296            3 
   95000    1.1906368   -5.8321993    45.831747  0.040203287  0.045888388            1 
   96000    1.2419277   -5.8327107    46.652802  0.040497224  0.045874521            3 
   97000    1.2319378   -5.8300094    47.024697  0.040399224  0.045861786            2 
   98000    1.2114098    -5.836397    47.642499  0.040512329  0.045844255            1 
   99000    1.2348853   -5.8330386    48.024965  0.040425054  0.045823989            2 
  100000    1.2196451   -5.8371324    48.372817  0.040310681  0.045794214            2 
  101000    1.2350875   -5.8273049    48.934834  0.040375275  0.045764723            2 
  102000    1.2000721   -5.8169172     49.40914  0.040366944  0.045728116            2 
  103000    1.2228406   -5.8342318    49.937266  0.040402319  0.045690365            3 
  104000    1.2348395   -5.8163216    50.473069  0.040443164  0.045657678            2 
  105000    1.2041214   -5.7878748    51.117517  0.040569458  0.045626394            3 
  106000    1.2114545    -5.747231    51.930738  0.040826051  0.045603644            3 
  107000    1.2282763   -5.8471752    51.999265  0.040497869  0.045585077            4 
  108000    1.1866393   -5.8376122     52.68115  0.040649035  0.045566523            3 
  109000    1.2149869    -5.862571    53.050284  0.040558321  0.045548746            3 
  110000    1.1994666   -5.8284917    53.514574  0.040541344  0.045516794            3 
  111000    1.2035976   -5.8215625    53.720313  0.040330565  0.045474237            4 
  112000    1.2099291   -5.7712781    54.673298  0.040679537   0.04543294            3 
  113000    1.2035416   -5.8043717    54.716335   0.04035128  0.045387292            3 
  114000    1.2166101   -5.8620392     55.04424  0.040237018  0.045339677            2 
  115000    1.2209199   -5.8029464    55.762834   0.04040785  0.045292179            1 
  116000    1.2172885   -5.8232058    56.342207  0.040475723  0.045254309            3 
  117000    1.1885047   -5.8802162    56.621161  0.040328462  0.045209616            1 
  118000    1.2253041   -5.8462514    56.939891  0.040211788  0.045158286            4 
  119000    1.2342201   -5.8226475     57.43293  0.040219139    0.0451058            2 
  120000    1.2203372   -5.8212637    58.359841  0.040527667  0.045055987            2 
  121000    1.2093607   -5.8553805    58.810318  0.040502974  0.045014123            2 
  122000     1.197803   -5.8441654    59.034488  0.040324104  0.044963326            3 
  123000    1.1945323   -5.8733713    59.246708  0.040140046   0.04491017            4 
  124000    1.2274514   -5.8652949    59.976845   0.04030702   0.04486119            3 
  125000    1.2159536   -5.8402293     60.82939  0.040552926   0.04481614            6 
  126000    1.1936627   -5.8136934    61.352502  0.040577052  0.044773664            4 
  127000    1.2261283   -5.8453528    61.870305  0.040597313  0.044738291            2 
  128000    1.1957847   -5.8354345    62.446811  0.040655476  0.044705585            2 
  129000    1.1884166   -5.8568444    63.100737   0.04076275  0.044678273            2 
  130000      1.20528   -5.8255088    63.768521  0.040877257   0.04465226            3 
  131000    1.1995865   -5.8365615    64.162995  0.040816155  0.044630504            1 
  132000    1.2060427   -5.8546689    64.688959  0.040838989  0.044611116            2 
  133000    1.2128527   -5.8857163    65.143276  0.040816589  0.044590544            2 
  134000     1.220329   -5.8335631     65.72113  0.040871349  0.044573888            5 
  135000    1.1840945   -5.8166025    66.116105  0.040812411  0.044550031            2 
  136000    1.2018695   -5.8855892    66.373561  0.040670074  0.044527022            2 
  137000    1.2107153   -5.8800784    67.009914  0.040760288  0.044501899            3 
  138000     1.189701   -5.8525122    67.690876  0.040876132  0.044474449            2 
  139000    1.1868681   -5.8377005    68.041541   0.04079229  0.044450946            2 
  140000     1.184925   -5.8213613     68.43724  0.040736453  0.044427329            3 
  141000    1.1906538   -5.8561354    68.989903  0.040774174  0.044405052            3 
  142000    1.1962116   -5.8842821    69.634867  0.040865532  0.044380278            2 
  143000    1.1981369   -5.8840592    70.033059  0.040811806  0.044358276            2 
  144000    1.1786127   -5.8616395    70.486967  0.040791069  0.044331815            2 
  145000    1.2194916   -5.8345135    71.005805  0.040807934  0.044304247            4 
  146000    1.1853951   -5.8760142    71.042417  0.040549325  0.044276508            2 
  147000    1.2006119   -5.8791404    71.811987  0.040709743   0.04424663            2 
  148000    1.1867378   -5.8718499    72.092305  0.040592514  0.044214676            4 
  149000    1.2074086   -5.8797828    72.530995  0.040565433  0.044182836            2 
  150000    1.1711924   -5.8488217    73.392204  0.040773446  0.044151167            1 
  151000    1.1810847   -5.8794933    73.878934  0.040772038  0.044121102            1 
  152000    1.1844264    -5.877636    74.060826  0.040603523  0.044090429            3 
  153000    1.2075207    -5.905073    74.108774  0.040364256  0.044054086            2 
  154000    1.1788436   -5.8900812    75.102768  0.040640026  0.044020891            3 
  155000    1.1860342   -5.8288189    75.484278  0.040582945  0.043990978            3 
  156000    1.1985182   -5.8523307    76.015348  0.040606489  0.043961145            8 
  157000    1.1917565   -5.8980852    76.518966  0.040615162  0.043925929            2 
  158000    1.1918314   -5.8982737    76.529981  0.040363914  0.043884028            3 
  159000    1.1864674   -5.9098084    77.038418  0.040376529  0.043842627            2 
  160000    1.1957124   -5.8812137    77.974793  0.040611871  0.043803282            5 
  161000    1.2011353   -5.8361508    78.424565  0.040592425  0.043769719            3 
  162000    1.1937357   -5.8430447    79.020605  0.040648459  0.043734207            1 
  163000    1.2080802   -5.8938631    79.107707  0.040443613  0.043697658            4 
  164000    1.1966482   -5.8708173    79.298006  0.040293702  0.043661638            3 
  165000    1.1704231    -5.925095    79.481647  0.040142246  0.043623686            2 
  166000    1.1879861   -5.8793462     80.69441  0.040509242  0.043588861            2 
  167000    1.2138243   -5.8846807    80.792132  0.040315435   0.04355126            2 
  168000    1.1865392    -5.904095    81.360591  0.040357436  0.043519266            2 
  169000    1.1926586   -5.8817138    82.402171  0.040632234  0.043489472            1 
  170000    1.1954959   -5.9153418    82.576922  0.040478883  0.043464258            3 
  171000    1.1976951   -5.8585705    83.574264  0.040728199  0.043436777            2 
  172000    1.1621623   -5.9039931    83.519444  0.040464847  0.043409155            7 
  173000    1.1687859   -5.8911947    84.477436  0.040692407  0.043382786            3 
  174000    1.1863417   -5.9305378    84.588221    0.0405116  0.043359448            2 
  175000      1.20451   -5.8954115    85.092074  0.040520035  0.043333567            2 
  176000     1.182626   -5.8893531    85.952629  0.040697267  0.043307608            2 
  177000    1.1791714   -5.8914492    86.273582  0.040618447  0.043285488            5 
  178000      1.19315   -5.9126929     86.85867  0.040664171  0.043264874            3 
  179000    1.1793031    -5.904947    87.055081  0.040528436  0.043245881            2 
  180000    1.1631471   -5.8916349    87.681029  0.040593069  0.043222388            3 
  181000    1.2027183     -5.90153    88.062743  0.040544541  0.043202916            1 
  182000    1.1823191   -5.8945069    88.935556  0.040721408  0.043183058            2 
  183000    1.1835482   -5.9154777    89.094121  0.040571093  0.043161356            2 
  184000    1.1671122   -5.8967254    89.638866  0.040597312   0.04313796            2 
  185000    1.1644571   -5.8893707    90.074136  0.040573935  0.043114377            9 
  186000    1.1730913   -5.9120232       90.308  0.040460574  0.043084394            2 
  187000    1.1632278   -5.8944855    90.578742  0.040364858  0.043056013            2 
  188000    1.1831176   -5.8783978    91.391405  0.040510374  0.043029499            4 
  189000    1.1756674   -5.8861441    91.838573  0.040493198  0.043002692            2 
  190000     1.183299   -5.9288932    91.964278   0.04033521  0.042976294            2 
  191000     1.209975   -5.9165873    92.731263  0.040458666   0.04295261            3 
  192000    1.1745807   -5.9448214    92.816497  0.040284938  0.042926731            5 
  193000    1.1699674   -5.9370536    93.453419  0.040351217  0.042899962            2 
  194000    1.1707468   -5.8820629    94.386231  0.040543913  0.042872707            2 
  195000    1.1612437   -5.8836774    94.608256  0.040430878  0.042847522            2 
  196000    1.1599485   -5.8921546     94.80495  0.040308227   0.04282248            2 
  197000    1.1768639   -5.9372628    95.134275  0.040242925  0.042797642            3 
  198000    1.1616712   -5.8704422     96.12931  0.040458464  0.042775212            4 
  199000    1.1769587   -5.9422783    96.100106  0.040242925  0.042748065            2 
  200000    1.1888392   -5.8754794    96.917924  0.040382468  0.042725198            1 
  201000    1.1811343    -5.993345    97.027126  0.040226835  0.042701613            3 
  202000    1.1855559   -5.9319548    97.596885  0.040262741  0.042675968            2 
  203000    1.1685347   -5.9402289    98.129185  0.040282916  0.042647969            6 
  204000    1.1876248   -5.9105825    98.613067  0.040283116   0.04262279       -1e+20 
  205000    1.1818014   -5.8980219    99.399724  0.040406392  0.042601227            4 
  206000    1.1689807   -5.9187239    99.269947  0.040157746  0.042578321            5 
  207000    1.1722824    -5.891476      99.9739  0.040247142  0.042553344            2 
  208000    1.1591716   -5.9446813    100.26031  0.040168393  0.042526687            1 
  209000    1.2038425   -5.9271796    100.82206  0.040200185  0.042497754            2 
  210000    1.1484163   -5.9118608    101.18109  0.040151228  0.042471926            3 
  211000    1.1689566   -5.9039869    102.06904  0.040311625  0.042448749            4 
  212000    1.1695523   -5.9235594    102.07134   0.04012238  0.042425413            1 
  213000    1.1583408   -5.9466333    102.34246  0.040040085  0.042399197            2 
  214000     1.156463   -5.9367334    102.99146  0.040105707  0.042371616            2 
  215000     1.153219   -5.9415754    103.30708  0.040041504  0.042345467            4 
  216000    1.1703432   -5.8766018    104.40799  0.040280858   0.04231847            3 
  217000    1.1977938   -5.9193396    104.46603  0.040117524  0.042293765            2 
  218000    1.1969836   -5.9280541    105.34145  0.040268138   0.04226958            3 
  219000    1.1886695   -5.8871577     105.1442  0.040009209  0.042240474            4 
  220000    1.1578474   -5.9431968    105.07472  0.039801032  0.042211192            3 
  221000    1.1773792   -5.9349205    106.20686  0.040047836  0.042182272            3 
  222000    1.1622375   -5.9567411    106.23112  0.039876548  0.042153531            3 
  223000    1.1592506   -5.8951943    107.68432  0.040240778  0.042128191            2 
  224000    1.1445088   -5.9819873     106.9477   0.03978709  0.042101826            2 
  225000    1.1930272   -5.9032153    108.18822  0.040069711  0.042073987            5 
  226000    1.1525176   -5.9329091    108.45795  0.039991869  0.042049195            2 
  227000    1.1604708   -5.9706157    108.40401  0.039795893   0.04202135            2 
  228000      1.18217   -5.9320008    108.88085  0.039795631  0.041994883            3 
  229000    1.1643849   -5.9674483    109.54628  0.039864004  0.041965426            2 
  230000    1.1882887    -5.930371    110.36345  0.039986757  0.041939052            2 
  231000    1.1571148     -5.93755    110.65538  0.039918969   0.04191436            2 
  232000    1.1685928   -5.9160965    111.56833  0.040074832  0.041890722            3 
  233000    1.1975538   -5.9344957    111.56418   0.03990135  0.041867611            4 
  234000    1.1575827   -5.9272276    112.53335  0.040075981  0.041844652            3 
  235000    1.1673282   -5.9539062    112.59068  0.039925774  0.041821536            4 
  236000    1.1663389   -5.9541264    112.50707  0.039727074   0.04179919            4 
  237000    1.1643017   -5.9262139    112.91279  0.039702106  0.041773089            3 
  238000    1.1383185   -5.9216821    113.56791  0.039764673  0.041744859            4 
  239000    1.1620523   -5.8848741    114.35345  0.039872191  0.041719794            2 
  240000    1.1562744    -5.965236    114.08939  0.039614372  0.041694949            6 
  241000    1.1401908   -5.9594986    114.70004  0.039661147  0.041666876            3 
  242000     1.159661   -5.9370907     115.9527  0.039928617  0.041641974            2 
  243000    1.1485106    -5.954057    115.74304  0.039692402  0.041617941            2 
  244000    1.1623161   -5.8995959    116.32527  0.039728575  0.041593791            2 
  245000    1.1566959   -5.9456801    116.95817  0.039781691  0.041569111            4 
  246000    1.1383387   -5.9633433      116.527  0.039473917  0.041542816            2 
  247000    1.1366473   -5.9302032    117.24955  0.039557879  0.041515748            5 
  248000    1.1533489   -5.9186751     117.9072  0.039619355   0.04148917            3 
  249000     1.155734    -5.954185     118.4767  0.039650838  0.041461969            4 
  250000     1.139373   -5.9437378    118.62902  0.039543006  0.041433993            2 
  251000    1.1606486   -6.0035558    118.35429  0.039294252  0.041406114            5 
  252000    1.1568436   -5.9989724    118.88621  0.039314223  0.041376045            2 
  253000    1.1345175   -6.0035396    119.26785  0.039284534  0.041344011            2 
  254000    1.1459028   -5.9272737    120.33892  0.039481273   0.04131677            3 
  255000    1.1349322   -5.9655276     120.4477  0.039361994  0.041289661            4 
  256000    1.1562062    -5.997083    121.33334  0.039496531   0.04126414            1 
  257000    1.1570539   -5.9873056    121.11234  0.039271188  0.041236579            4 
  258000    1.1363026   -5.9424657    122.15206  0.039454799  0.041209967            3 
  259000    1.1447649    -5.990455     122.0233  0.039261034  0.041181445            2 
  260000    1.1352516   -5.9326012    123.27888  0.039512461  0.041154652            2 
  261000      1.13556   -5.9895448    123.46815  0.039421505  0.041128404            2 
  262000    1.1574429   -5.9781361    123.89382  0.039406431  0.041102045            2 
  263000    1.1521008   -5.9441011    124.53085  0.039458445  0.041076683            2 
  264000    1.1496589   -5.9735802    125.03936  0.039469495  0.041051246            2 
  265000     1.137954   -5.9377201    125.38383  0.039428878  0.041029387            3 
  266000    1.1620754   -5.9672315    125.68384  0.039374638  0.041005705            4 
  267000    1.1487422   -5.9660564    126.37451  0.039442731  0.040983121            3 
  268000    1.1395789   -5.9646811    126.52478  0.039342282  0.040962556            4 
  269000    1.1444109   -5.9866182    127.49866  0.039497725    0.0409436            3 
  270000    1.1365093   -6.0077273    127.49409  0.039350029  0.040922727            1 
  271000    1.1185189   -5.9623649    128.40858  0.039486034   0.04090085            2 
  272000    1.1303788   -5.9841923     128.2239  0.039284282  0.040878274            5 
  273000    1.1457664   -5.9694529    128.78667  0.039312171  0.040857312            4 
  274000    1.1527093   -5.9591118    129.14363   0.03927726  0.040834487            3 
  275000    1.1595875    -6.025274    129.33255  0.039191682  0.040811548            7 
  276000    1.1535421   -5.9833846    130.19641  0.039310511   0.04079131            3 
  277000    1.1237388   -5.9676231    131.19138  0.039467925  0.040773793            3 
  278000    1.1452634   -5.9837787     131.6818  0.039472961  0.040755184            4 
  279000    1.1658483   -6.0397887    130.97569  0.039120577  0.040736438            1 
  280000    1.1654777   -5.9898819     132.4244  0.039412024  0.040714933            3 
  281000    1.1483649   -5.9952996    132.14558  0.039189081  0.040695416            2 
  282000    1.1601688   -6.0084394    132.70994  0.039216885  0.040672392            1 
  283000    1.1282919   -5.9907476    133.34636  0.039265714  0.040651263            2 
  284000    1.1300714   -5.9562587    134.24683  0.039391677  0.040631922            2 
  285000    1.1176705   -6.0050288    134.34681  0.039282694  0.040611756            6 
  286000    1.1591764   -6.0190997    134.25149  0.039117568   0.04059174            4 
  287000    1.1161732   -5.9825943    135.63729  0.039383649  0.040573121            7 
  288000    1.1373089   -6.0417038    136.02577  0.039359308  0.040555227            7 
  289000    1.1425641   -5.9676299    136.68983  0.039414598   0.04053895            3 
  290000    1.1421997   -5.9909932    136.83192  0.039319518   0.04052122            4 
  291000    1.1368312   -6.0073561    137.01582  0.039237061  0.040502551            1 
  292000     1.098406   -5.9907241    137.61626  0.039274048  0.040486587            2 
  293000    1.1484068    -5.971396    137.66498  0.039153863  0.040469902            5 
  294000     1.110889   -6.0039021    138.48401  0.039252838  0.040453289            3 
  295000    1.1443143   -6.0033177    138.77384  0.039201649  0.040435551            4 
  296000    1.1438248   -6.0144648    139.30502  0.039218756  0.040416928            4 
  297000    1.1409314   -6.0166067    139.73449  0.039207209  0.040400122            3 
  298000    1.1143697   -5.9909466    140.62957  0.039325943  0.040383416            2 
  299000    1.1282996   -6.0404322     141.0355  0.039307554  0.040369126            4 
  300000    1.1396223   -6.0273895    141.47067  0.039297409  0.040356733            6 
  301000    1.1496569   -6.0402042    141.75686  0.039246085  0.040342766            3 
  302000    1.1104926   -6.0546264    142.37868  0.039287714   0.04032771            4 
  303000    1.1234979   -6.0239792    142.81213  0.039277262  0.040314673            2 
  304000    1.1356291   -5.9710844    143.85617  0.039434258  0.040300384            3 
  305000    1.1489456   -6.0432101    143.57553  0.039228288  0.040285703            2 
  306000     1.141055   -6.0445453    143.73476  0.039143453  0.040271464            2 
  307000    1.1067657   -6.0213987    144.89696  0.039331423  0.040259129            3 
  308000    1.1366219    -6.005712    144.86439  0.039194909  0.040243415            4 
  309000    1.1332597   -6.0325907    146.11568  0.039405524   0.04022895            4 
  310000    1.1344344   -6.0150088    146.04852  0.039260354  0.040215059            3 
  311000    1.1271438   -5.9948485    146.43881  0.039238696   0.04020038            2 
  312000    1.1373762   -6.0320591    146.24848  0.039062095  0.040185213            3 
  313000    1.1503406   -6.0568433    146.58743  0.039027537  0.040170234            5 
  314000    1.1285087   -5.9945197    147.60002  0.039171979  0.040155187            4 
  315000    1.1218769   -6.0349795    147.46075  0.039010779  0.040139644            2 
  316000    1.1439578   -6.0267404    148.36021  0.039124527  0.040123938            3 
  317000    1.1163121   -6.0062682    148.38425  0.039007426    0.0401088            5 
  318000    1.1422469   -5.9860141    149.02627  0.039053005    0.0400929            3 
  319000    1.1204691   -5.9953575    149.79052   0.03913023  0.040077861            3 
  320000    1.1103986   -6.0404531    149.66836  0.038976136  0.040061534            3 
  321000    1.1197094    -6.010007    150.46791  0.039062282  0.040046475            2 
  322000    1.1192961   -6.0096128    150.60393  0.038976173   0.04003086            1 
  323000    1.1473875   -6.0060994    151.32751  0.039042185  0.040015614            6 
  324000    1.1531201   -6.0402334    151.28025  0.038909529  0.039998977            2 
  325000    1.1247751   -6.0168117    151.89721  0.038948003  0.039982969            3 
  326000    1.1169358   -6.0206294    152.57417  0.039001577  0.039966868            4 
  327000    1.1239372   -5.9965731    153.03637  0.039000093  0.039951964            4 
  328000    1.1271441   -6.0487696    152.73683  0.038805088  0.039934914            4 
  329000    1.0950872   -6.0715315    153.09978  0.038779072  0.039918357            4 
  330000    1.0909421   -6.0606327    154.02839  0.038896058  0.039902797            5 
  331000    1.1045201   -6.0363088    154.26034  0.038836943   0.03988665            6 
  332000    1.1132765   -6.0618173    154.54806  0.038792184  0.039869731            2 
  333000    1.1226511   -6.0545182    155.49647   0.03891303  0.039852348            4 
  334000    1.1157753    -6.052087    155.13521   0.03870639  0.039834405            7 
  335000    1.1292418   -6.0609222    155.32821  0.038638858  0.039815962            4 
  336000    1.1012647    -6.044182    156.26487  0.038756169  0.039797098            3 
  337000    1.1073546   -6.0676257    156.29909  0.038649627  0.039777904            3 
  338000    1.1073593   -6.0531289     156.6921  0.038632175  0.039760031            2 
  339000    1.1203523   -6.0619779     157.0656  0.038610029  0.039742185            3 
  340000      1.12278   -6.0192412    157.96237  0.038716266  0.039725167            2 
  341000     1.132956   -6.0555933    158.47025  0.038726845  0.039708428            4 
  342000    1.1088987   -6.0765586    158.56164  0.038635878  0.039691444            2 
  343000    1.1062188   -6.0521788    159.31785   0.03870696  0.039673448            2 
  344000    1.1085615   -6.0428238     160.0496  0.038771706  0.039658009            3 
  345000    1.1142691   -6.0598248    160.14454  0.038682256  0.039642695            4 
  346000    1.1391665   -6.0636904    160.74945  0.038716148  0.039627941            3 
  347000    1.0788364   -6.0346744    161.58795  0.038805943  0.039614723            3 
  348000    1.1037658   -6.0886307    161.52571  0.038679528   0.03960022            3 
  349000    1.1015667   -6.0368503    162.44756  0.038788816  0.039586254            2 
  350000    1.1340989   -6.0348565    162.05745  0.038585107  0.039571176            7 
  351000    1.1372032   -6.0657395    162.75066  0.038639758  0.039554849            3 
  352000    1.0987179   -6.0564907    163.01722  0.038593092  0.039538828            3 
  353000    1.1090711   -6.0498138    163.25289  0.038539398  0.039522677            4 
  354000    1.1175102   -6.0378088    164.06653  0.038622065  0.039507679            7 
  355000    1.1166006   -6.0834746    164.63275  0.038646184  0.039492768            4 
  356000     1.100714   -6.0522334     165.3878  0.038714372  0.039478303            3 
  357000    1.0848563   -6.0573256    165.80874  0.038704188  0.039465552            6 
  358000    1.1178219   -6.0875429    165.91275  0.038620286  0.039451577            2 
  359000    1.1112756   -6.0540573    166.33075  0.038609737  0.039438353            3 
  360000    1.1271302   -6.0753517    167.00328  0.038658166  0.039425225            2 
  361000    1.1199143   -6.0320339    167.38391  0.038638945  0.039411864            3 
  362000    1.1026137   -6.0657583    167.72797  0.038611412  0.039398804            3 
  363000    1.1049174   -6.0407582    168.04243  0.038577233  0.039385377            3 
  364000    1.1108511   -6.1021557    168.37665  0.038547768  0.039371481            4 
  365000    1.1018391   -6.0751484    169.38759  0.038672966  0.039357577            2 
  366000    1.0869262   -6.0801947    169.11765   0.03850584  0.039343443            4 
  367000    1.1171449   -6.0585779    170.10891  0.038626002  0.039330349            3 
  368000    1.0859999   -6.0622846    170.50874  0.038611581  0.039316501            2 
  369000    1.1101349   -6.0335266    171.27514  0.038680023  0.039302763            2 
  370000     1.084031   -6.0966958    171.30324   0.03858181  0.039289099            3 
  371000    1.1149175   -6.0269537    172.12418  0.038662216  0.039276659            3 
  372000    1.1105717   -6.0801289    172.75697  0.038700037  0.039264137            3 
  373000    1.0871193   -6.1174854    172.11367  0.038452562  0.039250918            3 
  374000    1.1263767   -6.0678819    172.65536  0.038470445  0.039237114            4 
  375000    1.0943459   -6.1016519    172.84967  0.038411038  0.039223016            4 
  376000      1.12031    -6.067863    173.44603  0.038441053  0.039208951            7 
  377000    1.0842026    -6.074774     173.7302  0.038401901  0.039195069            1 
  378000    1.0992961   -6.1148696    173.85366  0.038327527  0.039181039            7 
  379000    1.0879026   -6.0497967    174.40951  0.038348616  0.039164369            5 
  380000    1.0902179   -6.0544297    174.52485  0.038272993   0.03914927            4 
  381000     1.086541   -6.0858121    175.17248   0.03831419  0.039132968            3 
  382000    1.0933781   -6.0485248    175.72182  0.038333731  0.039115966            8 
  383000    1.0782081   -6.0639984    175.46446  0.038177645  0.039099948            3 
  384000    1.0899874   -6.0676137    175.49683  0.038085249  0.039082598            4 
  385000    1.1017083   -6.1009122    175.50222  0.037987493  0.039066099            4 
  386000    1.0954408   -6.0719625    176.90223  0.038191327  0.039048956           15 
  387000      1.12671   -6.1159887    176.33256  0.037969975  0.039030947            4 
  388000    1.0824226    -6.058349    177.51862  0.038126851  0.039013187            4 
  389000    1.0760248   -6.0322993    177.32173  0.037986661  0.038994961            5 
  390000    1.0686174   -6.0841754    178.15891  0.038068143  0.038977101            3 
  391000     1.090612   -6.1164016    178.53737  0.038051442  0.038959706            2 
  392000    1.1414966   -6.1198757    179.07988  0.038069703  0.038943373            3 
  393000    1.1181065   -6.1202151    178.90695  0.037936164  0.038927003            4 
  394000    1.0963028   -6.1008133    179.73897  0.038015857  0.038910996           12 
  395000    1.0927174    -6.136729    179.51376  0.037872101  0.038894592            2 
  396000    1.0907868   -6.0982589    179.88304  0.037854176  0.038877425            3 
  397000    1.1181359   -6.0946944    180.99707  0.037992668  0.038858913            5 
  398000    1.0814439   -6.1066615    180.49834  0.037792785  0.038840034            1 
  399000    1.0863525   -6.0689807    181.26236  0.037857636  0.038819449            2 
  400000    1.0775438   -6.1005372    181.43426  0.037798804  0.038799395            4 
  401000    1.0767154   -6.1125202    180.89091  0.037591628   0.03877887            3 
  402000    1.1182867   -6.1017524    181.91247  0.037709882  0.038758201            2 
  403000    1.0991387   -6.1182559    181.79054  0.037591095  0.038738239            2 
  404000    1.0927731    -6.111045    182.92321  0.037731686   0.03871916            3 
  405000     1.117552    -6.075467    182.92597  0.037639089  0.038698962            3 
  406000    1.1046066   -6.0985782    182.98164  0.037557807  0.038677862            2 
  407000    1.0947193   -6.0570209    183.87085  0.037647595  0.038658425            2 
  408000    1.0891765   -6.0988321    183.80751  0.037542384  0.038638192            3 
  409000    1.1145119   -6.1227549    184.70941  0.037634354   0.03861745            2 
  410000    1.0864166   -6.0694819    184.43964  0.037487732  0.038596055            2 
  411000    1.0979596   -6.1150137    184.49374   0.03740749  0.038573914            3 
  412000    1.1031196   -6.1307217    184.53114  0.037324259  0.038552122            2 
  413000    1.0711662    -6.086933    186.15017  0.037560566  0.038529951            3 
  414000    1.0808109   -6.0874212    186.24355  0.037488638  0.038510241            1 
  415000    1.0760015   -6.1521452    185.89846  0.037329009  0.038489637            6 
  416000    1.0811724   -6.1519038    185.23595   0.03710656   0.03846723            4 
  417000    1.0672222   -6.1405363    186.10843  0.037191933  0.038444917            2 
  418000    1.0977476   -6.1258989    186.67435  0.037215779  0.038421954            3 
  419000    1.0908384   -6.1069352    187.21829   0.03723514  0.038399177            4 
  420000    1.0931257   -6.0980474    187.54048  0.037210414   0.03837625            2 
  421000    1.0743526   -6.1679209    187.28361  0.037071183  0.038353235            2 
  422000    1.1022316   -6.1094378    188.13636   0.03715173  0.038329893            2 
  423000    1.0815582   -6.0998517    188.97147  0.037228421  0.038306212            3 
  424000    1.0884622   -6.0837948    189.75545  0.037294703   0.03828305            3 
  425000    1.0965578   -6.1426298    189.75435  0.037206736  0.038259601            3 
  426000    1.0932827   -6.1109798    189.44269  0.037058429  0.038235863            2 
  427000     1.099504   -6.0990443    189.58463  0.036999343  0.038212522            2 
  428000    1.0824097   -6.1502008    190.11675  0.037016502  0.038189403            3 
  429000    1.0786763   -6.1158984    190.59489  0.037023094  0.038166469            3 
  430000     1.070153   -6.1314519    190.60622   0.03693919  0.038143007            2 
  431000    1.0827864   -6.1407679    191.08918  0.036946865  0.038119808            3 
  432000     1.100165   -6.1330043    191.44761   0.03693048  0.038095953            4 
  433000    1.0775893   -6.1047049    192.09667  0.036970106  0.038072325            6 
  434000    1.0793055   -6.1221976    192.76805  0.037013834   0.03804925            4 
  435000     1.096954   -6.1190273    192.79371  0.036933661  0.038025774            3 
  436000    1.0881038   -6.1248248    192.87587  0.036864653  0.038002827            5 
  437000    1.0656936   -6.1263272    192.99607  0.036803218  0.037979073            5 
  438000    1.0983492   -6.1461158    193.34119  0.036784853  0.037955454            4 
  439000    1.0705325   -6.1720584    192.95393   0.03662755   0.03793102            6 
  440000    1.0743562   -6.1473596    193.82134  0.036708586    0.0379062            3 
  441000     1.061624   -6.1687289    193.59813  0.036583169  0.037881175            2 
  442000    1.0909755   -6.1632525    194.26847  0.036626786  0.037855622            4 
  443000    1.0522294     -6.17186    194.16918   0.03652543  0.037829469            4 
  444000    1.0666961   -6.1603462    194.27734  0.036463464  0.037802556            2 
  445000    1.0742973   -6.1114509    195.20618  0.036555464  0.037776778            2 
  446000    1.0576482   -6.1291228    195.62794  0.036552305  0.037750591            2 
  447000    1.0811212   -6.1436782    195.86033  0.036513858  0.037725891            2 
  448000    1.0665569   -6.1489395    195.79138  0.036419528  0.037701054            1 
  449000    1.0642071   -6.1156783    196.05093  0.036386587  0.037676146            5 
  450000     1.064993   -6.1349164    197.14178  0.036507737  0.037652025            3 
  451000    1.0594167   -6.1538398    197.28175  0.036452651  0.037628048            6 
  452000    1.0731136   -6.1452155    198.35738  0.036570313  0.037604831            5 
  453000    1.0951616   -6.1556301    198.14367   0.03645027  0.037581353            2 
  454000    1.0776184   -6.1594503    198.33418  0.036404952  0.037557944            3 
  455000    1.0802913   -6.1613321    199.05203  0.036456415  0.037534007            2 
  456000    1.0610086   -6.1649218    198.36852  0.036251558   0.03751012            6 
  457000    1.0949939   -6.1532503    198.79102  0.036249274  0.037484823            3 
  458000    1.0699282   -6.1966767    199.14957  0.036235365  0.037460807            5 
  459000    1.0674751   -6.1976182    198.94015  0.036118401  0.037435951            2 
  460000    1.0798877   -6.1420744    200.32373  0.036290531  0.037411658            4 
  461000    1.0783038   -6.1506303    200.18237  0.036186256  0.037387383            5 
  462000    1.0746417   -6.1604924    200.82799  0.036224384  0.037363396            6 
  463000    1.0537027    -6.149969    201.38014  0.036245526  0.037339675            3 
  464000    1.0748125   -6.1798232    201.60474  0.036207748  0.037315361            5 
  465000    1.0446334   -6.1328445    202.57128  0.036303098  0.037291898            8 
  466000    1.0788102   -6.1818693     202.5632  0.036223749  0.037267965            7 
  467000    1.0708403   -6.2002256    202.34423  0.036107107  0.037244968            5 
  468000    1.0639161    -6.155886     204.3939  0.036394926  0.037222494            2 
  469000    1.0896517   -6.1930081    203.93105  0.036235083  0.037200555            1 
  470000    1.0786198   -6.1446422    204.22884  0.036210787  0.037179161            4 
  471000    1.0524296   -6.1087399    205.93611  0.036435972   0.03715881            3 
  472000    1.0799232   -6.1738179    205.75539  0.036326869  0.037138709            3 
  473000    1.0845269   -6.1361058    207.51387  0.036559878  0.037119693            4 
  474000    1.0647253   -6.1383031    206.39871  0.036286693  0.037099739            2 
  475000    1.0810379   -6.1246443    207.52955  0.036408692  0.037079221            4 
  476000      1.06021   -6.1136099    206.73991  0.036193961  0.037057931            4 
  477000    1.0710561   -6.1582342    206.46622  0.036070269  0.037036645            5 
  478000    1.0457939   -6.1548452    207.10124  0.036105517   0.03701485            4 
  479000    1.0600721   -6.1724246    208.27291  0.036233978  0.036992478            3 
  480000    1.0858439   -6.1935141    208.18778  0.036143712  0.036971112            4 
  481000    1.0642189   -6.2040368    207.97843  0.036032299  0.036950056            4 
  482000    1.0741381   -6.1848137    208.35813  0.036023191   0.03692906            5 
  483000    1.0873255   -6.1323625    209.77287  0.036192697  0.036908653            6 
  484000    1.0708972   -6.1747575    209.56584  0.036082273  0.036888339            3 
  485000    1.0674065   -6.2129427    209.64332  0.036021189  0.036867365            2 
  486000    1.0621656   -6.1904667    210.47756  0.036090117   0.03684692            5 
  487000    1.0752806   -6.1918947    210.84289  0.036078524  0.036825831            5 
  488000    1.0666531   -6.2219425    210.96167  0.036024876  0.036805608            3 
  489000    1.0758187   -6.2059218    211.16115  0.035985199  0.036785288            4 
  490000    1.0784128   -6.1524586    212.35821  0.036115342  0.036765326            3 
  491000     1.062491   -6.1254547    213.04173  0.036157796  0.036746865            3 
  492000    1.0365972   -6.1831409    212.17268  0.035937107  0.036726982            2 
  493000    1.0666055   -6.2220286     211.7924  0.035799932  0.036706729            6 
  494000    1.0891076   -6.2047812    212.97119  0.035926313  0.036686393            3 
  495000    1.0405184   -6.2006533    212.64851  0.035799413  0.036665961            6 
  496000    1.0373074   -6.1956314    213.17377  0.035815485  0.036645346            4 
  497000    1.0422252   -6.1816535    213.69516  0.035830845  0.036624782            4 
  498000    1.0463143   -6.1705495    214.40666  0.035877955  0.036604484            8 
  499000    1.0482323   -6.1886188     214.8553  0.035880979   0.03658415            2 
  500000    1.0584689    -6.169369    215.17792  0.035862986  0.036563921            4 
  501000     1.066383   -6.1477205    215.76745  0.035889462  0.036544169            5 
  502000    1.0258563   -6.2065359    215.71616  0.035809456  0.036523623            4 
  503000    1.0535615   -6.1724573    215.81896  0.035755295  0.036502671            4 
  504000    1.0398029   -6.1761106    215.77691  0.035677399  0.036481839            3 
  505000    1.0448497   -6.2288952    215.96301   0.03563746  0.036460819            3 
  506000    1.0586635   -6.1809069    217.25168  0.035779262  0.036440324            3 
  507000    1.0678484   -6.2071498    216.83318  0.035639905  0.036419587            4 
  508000    1.0662672   -6.2205485    217.35992  0.035656154  0.036399163            4 
  509000    1.0533235   -6.2114705    217.59555  0.035624681  0.036379067            5 
  510000    1.0428024    -6.213041    217.49835  0.035538946  0.036358102            2 
  511000    1.0756528   -6.2186932    218.65815  0.035658538  0.036337563            2 
  512000    1.0316251   -6.1885806    219.05179   0.03565296  0.036317266            2 
  513000    1.0300593   -6.2417005    218.16334   0.03543914  0.036296797            2 
  514000    1.0235885   -6.2112046    219.12289   0.03552576  0.036275387            4 
  515000    1.0444575   -6.2497756    219.04575  0.035444297  0.036253795            6 
  516000    1.0191001   -6.1908503    219.81538    0.0354999  0.036232149            5 
  517000    1.0538211   -6.2072531    219.41426  0.035366579  0.036210497            4 
  518000    1.0372368   -6.2325879    219.98484  0.035390096  0.036189056            7 
  519000    1.0588632   -6.1973787    220.28067  0.035369407  0.036167177            6 
  520000    1.0526806    -6.213344    220.30222  0.035304843  0.036145547            3 
  521000     1.060045   -6.1867498    221.62806  0.035449146  0.036124365            3 
  522000    1.0441221   -6.1967517    221.88997  0.035423047  0.036104218            4 
  523000    1.0367472   -6.1901348    222.24572  0.035412001  0.036084063            3 
  524000    1.0596927   -6.2040297    222.62471  0.035404694  0.036063554            3 
  525000    1.0416445   -6.2308576    222.19171  0.035268525  0.036042236            5 
  526000    1.0488823   -6.2352901    222.08423  0.035184446  0.036021081            3 
  527000    1.0308166    -6.203241    223.63435    0.0353628  0.036000029            5 
  528000    1.0556709   -6.2485981    221.35227  0.034935648  0.035978762            3 
  529000    1.0464458   -6.2522854    222.73313  0.035087134  0.035956711            3 
  530000    1.0517527    -6.202132    223.10454   0.03507933  0.035935544            4 
  531000    1.0583955   -6.2178106    224.35456  0.035209441  0.035913979            5 
  532000    1.0543705   -6.2064725    224.20628  0.035120031  0.035892256            7 
  533000    1.0420264   -6.2428368    223.64472  0.034966341  0.035870079            4 
  534000    1.0354169   -6.2535557       223.92   0.03494382  0.035848181            4 
  535000    1.0375355   -6.2378132    224.49846  0.034968608  0.035825552            2 
  536000    1.0275566   -6.2037646    224.65167  0.034927188  0.035803004            4 
  537000    1.0423565   -6.2237775    225.33501  0.034968189  0.035780685            4 
  538000    1.0393648   -6.2411579    225.66325  0.034954035  0.035758704            3 
  539000    1.0200122   -6.2270343    226.80021  0.035064968  0.035737006            2 
  540000    1.0337293   -6.2338144    226.91161  0.035017223  0.035715808            6 
  541000    1.0177782     -6.25036    226.47937  0.034885916  0.035694391            3 
  542000    1.0334433   -6.2081524    227.27312  0.034943592  0.035672992            8 
  543000    1.0489036   -6.2451893     227.4543  0.034907044  0.035652632           16 
  544000    1.0230425   -6.2398714    227.52197  0.034853242  0.035631818            3 
  545000    1.0369527   -6.2146245    228.85473  0.034993078  0.035610436            3 
  546000    1.0413884   -6.2403399    228.21315  0.034831067  0.035589759            3 
  547000    1.0420907   -6.2315758    228.93323  0.034877092  0.035568956            7 
  548000    1.0398069   -6.2469158    229.65314  0.034922922  0.035548788            3 
  549000    1.0414954   -6.2340067     229.8532  0.034889678  0.035527962            8 
  550000    1.0429521   -6.2658486    230.16563   0.03487358  0.035506681            2 
  551000    1.0296561   -6.2586689    229.10043  0.034649188   0.03548541            3 
  552000    1.0442212   -6.2445511    230.52707  0.034801792  0.035464346            3 
  553000    1.0342818     -6.25738    230.00941  0.034660851  0.035442994            8 
  554000    1.0580524   -6.2427782    230.55223  0.034679939   0.03542184            3 
  555000    1.0204751   -6.2606912    231.15591  0.034708095  0.035400017            5 
  556000    1.0152978   -6.2610179    230.12778  0.034491573  0.035377682            3 
  557000     1.019016   -6.2487312    231.25121  0.034597727  0.035355453            7 
  558000    1.0375174   -6.2553639     230.9728  0.034494146  0.035333078            3 
  559000    1.0428808   -6.2188749    231.61438  0.034528083  0.035311071            6 
  560000    1.0386273   -6.2936124    231.37986  0.034431527  0.035288658            3 
  561000    1.0219211   -6.2949196    230.97547  0.034310082  0.035265616            4 
  562000    1.0526627   -6.2409838    232.48975   0.03447357  0.035242664            2 
  563000     1.031754   -6.2223299    232.14083  0.034360691  0.035219856            5 
  564000    1.0592573   -6.2391748    232.77692  0.034393753  0.035196828            5 
  565000    1.0329314   -6.2529364    232.48759  0.034290205  0.035173585            2 
  566000    1.0010184    -6.272079    232.50047  0.034231518  0.035150699            3 
  567000    1.0075394   -6.2832795    232.81925  0.034217997  0.035127451            5 
  568000     1.031107   -6.2404998    234.30981  0.034376439  0.035104586            4 
  569000    1.0192035    -6.258441    234.46989  0.034339469  0.035081913            5 
  570000    1.0371274     -6.25667    234.72025  0.034315827  0.035059349            8 
  571000      1.03924   -6.2472966    234.87196  0.034277869  0.035037007            6 
  572000     1.044202   -6.2557476     235.3231  0.034283669  0.035014794            6 
  573000    1.0316883   -6.2376292    235.50222  0.034249887  0.034992114            3 
  574000     1.045405   -6.2689928    234.96457  0.034112162   0.03496888            3 
  575000    1.0241091   -6.2761276      235.376  0.034112464  0.034945764            4 
  576000    1.0310706   -6.2801171    236.12398  0.034161456  0.034923267            2 
  577000    1.0350115   -6.3100134    236.23856  0.034118799  0.034901141            7 
  578000    1.0220675   -6.2453216    236.63328  0.034116678  0.034878966            2 
  579000    1.0265692    -6.256297    236.91526  0.034098338   0.03485726            2 
  580000    1.0035048   -6.2434597    236.92715  0.034041257  0.034834955           10 
  581000     1.033379   -6.2524133    237.29312  0.034035157  0.034812415            3 
  582000     1.024301   -6.2831741    237.53226   0.03401092  0.034790216            3 
  583000    1.0323467   -6.2597817    238.96729  0.034157703  0.034767999            1 
  584000    1.0347964   -6.2742736    238.09753  0.033975104  0.034745758            4 
  585000    1.0172846   -6.2963299    238.72695  0.034006688   0.03472347            6 
  586000    1.0101312   -6.2890825    238.36268  0.033896855  0.034701354            4 
  587000     1.032057   -6.2392527    239.65158  0.034022087  0.034679173            3 
  588000     1.016479   -6.3063551    239.36313  0.033923346  0.034657573            2 
  589000   0.99823342   -6.2431853    240.54532   0.03403301  0.034635599            3 
  590000     1.012682   -6.2733642     239.6437   0.03384798  0.034613804            7 
  591000    1.0129157   -6.2926453    239.40345  0.033756832  0.034591812            5 
  592000    1.0242579   -6.3301959    240.58095  0.033865562  0.034569787            7 
  593000    1.0271514   -6.2674084    241.58305  0.033949276  0.034547619            4 
  594000   0.99309227   -6.3025703    241.22484  0.033841868  0.034526189            5 
  595000    1.0040685   -6.2424508    242.01723   0.03389597   0.03450429            2 
  596000    1.0385075   -6.3089028    241.61738  0.033783191   0.03448183            5 
  597000    1.0074035   -6.2912907    241.59663  0.033723706  0.034459456           15 
  598000    1.0100646   -6.2770607    241.57905  0.033664862  0.034436861            3 
  599000    1.0243579   -6.2388434    242.23574   0.03370002  0.034413858            4 
  600000    1.0324411   -6.2876297    243.02486  0.033753453  0.034391288            5 
  601000    1.0046519   -6.2717813    242.66018  0.033646725   0.03436899            3 
  602000    1.0137919   -6.2667646    242.67875  0.033593403  0.034346534            2 
  603000    1.0015889   -6.3031889    242.65986  0.033535083   0.03432438            7 
  604000     1.014109   -6.2587387    243.72637  0.033626707  0.034301994            5 
  605000    1.0238678   -6.3043079    243.38488  0.033524088  0.034279118            2 
  606000   0.99886989   -6.2834389    243.55194  0.033491741  0.034256803            3 
  607000    1.0237248   -6.2767087    243.65636    0.0334509  0.034234318            7 
  608000   0.99361927   -6.2755184    244.82851  0.033556539  0.034212056            3 
  609000   0.98767786   -6.2758463    245.08767  0.033536901  0.034190191            5 
  610000   0.99421788   -6.3416336    244.60261  0.033415657  0.034168064            3 
  611000    1.0169001   -6.3070018    244.23136  0.033310333   0.03414535            3 
  612000     1.020112   -6.3222924    244.71801  0.033322169  0.034122494           10 
  613000    1.0066863   -6.3173095      244.306    0.0332118    0.0340997            3 
  614000     1.018021   -6.2970514    244.83964  0.033230136  0.034076688            4 
  615000    1.0180551   -6.3060605    244.90046  0.033184344  0.034053618            6 
  616000    1.0250839   -6.3068594    245.94726  0.033272086  0.034030116            6 
  617000    1.0121429   -6.3426694    245.67603  0.033181527    0.0340063            6 
  618000   0.99987931   -6.2922455    246.62485  0.033255779  0.033983131           11 
  619000   0.99797852   -6.3008351    245.86609  0.033099904  0.033960456            8 
  620000     1.007083   -6.3075408    246.35247  0.033111891  0.033937365            2 
  621000   0.99060537   -6.3160877    247.36784  0.033194826  0.033914368            3 
  622000    1.0060816   -6.2884602    247.31918  0.033134938   0.03389129            4 
  623000    0.9947728   -6.3361496    247.05472  0.033046377  0.033867816            9 
  624000    1.0103901   -6.2891017    247.31497  0.033028174  0.033844407            4 
  625000    1.0106511    -6.310905    248.24506  0.033099341  0.033821818            5 
  626000   0.97803978   -6.3242283     248.6414  0.033099228  0.033799203            3 
  627000     1.025231   -6.3642334    248.00635  0.032962034  0.033775944            5 
  628000    1.0191645   -6.3016428    249.46099  0.033102573  0.033753365            6 
  629000   0.97954107   -6.3457368    249.53972  0.033060376  0.033731252            5 
  630000    1.0043106   -6.3342623    249.92585  0.033058975  0.033708911            3 
  631000   0.99351567   -6.3431605      249.488  0.032948758  0.033686493            3 
  632000   0.98137499   -6.3294574    250.71354   0.03305822  0.033664392           10 
  633000     1.034658   -6.2907159    250.85517   0.03302464  0.033642546            9 
  634000     1.015049   -6.3486456    251.04053  0.032996915  0.033620659            4 
  635000   0.98856891   -6.3536124    250.94108  0.032931901  0.033598399            4 
  636000    1.0086017   -6.2828968    253.04217  0.033155421  0.033576947            6 
  637000    1.0056046   -6.3067453    252.63059  0.033049527  0.033555995            6 
  638000   0.98256425   -6.3031563    253.74744  0.033143605  0.033535117            3 
  639000    1.0114109   -6.3191692    253.10693  0.033008207  0.033514452            5 
  640000    1.0053161   -6.2865523    253.47965  0.033005162  0.033493679            2 
  641000    1.0140831    -6.343973    252.49676  0.032825892  0.033472434            3 
  642000   0.99858068   -6.3317704    253.39749  0.032891678  0.033450997            8 
  643000   0.98053107   -6.3660358    253.54241  0.032859307  0.033429867            3 
  644000    1.0115283   -6.3055962    254.15323  0.032887323   0.03340945            3 
  645000    1.0072343   -6.3886554    254.02187  0.032819363  0.033388643            3 
  646000   0.98419559    -6.372492    254.51361  0.032831994  0.033367661            8 
  647000    1.0050521   -6.3376657    255.57068  0.032917398  0.033347045            4 
  648000   0.98543956   -6.3024315    255.72566   0.03288653  0.033326464            2 
  649000   0.99564324   -6.3484206    256.24254  0.032902226  0.033306024            3 
  650000   0.99198932   -6.3661342    254.77621  0.032663617  0.033284924            6 
  651000   0.98535795   -6.3663789    255.56563  0.032714494  0.033263763            3 
  652000    1.0047051   -6.3492756    256.04853  0.032726039  0.033242758            4 
  653000   0.97118113   -6.3494919    256.83258   0.03277598  0.033222076            6 
  654000   0.97574773   -6.3301948     256.7795    0.0327191  0.033201429            5 
  655000   0.99487626   -6.3441993    257.73304  0.032790464   0.03318071            2 
  656000   0.97967808    -6.382562    257.16375   0.03266816  0.033159914            6 
  657000   0.99479619   -6.3215427    257.37491  0.032645219  0.033139443            3 
  658000   0.97427981    -6.353875    258.16432  0.032695583  0.033118977            3 
  659000    1.0250874   -6.3352556    257.86107  0.032607621  0.033098204            5 
  660000   0.98204541   -6.3179599    258.05046  0.032582128  0.033077815            3 
  661000   0.98238132   -6.3428506    258.32795   0.03256782  0.033057082            3 
  662000   0.95839434   -6.3423559    259.05225  0.032609799  0.033036756            3 
  663000   0.96990144   -6.3485045    259.27724  0.032588894  0.033016169            3 
  664000   0.96743805   -6.3553743    258.69182  0.032466343  0.032995405            3 
  665000   0.99334742   -6.3481576    259.64431  0.032536881  0.032974747            3 
  666000   0.99270504   -6.3827763    258.94856  0.032400971  0.032953679            8 
  667000    1.0008822   -6.3411394    258.83963  0.032338785  0.032932254            6 
  668000   0.98871444   -6.3404895    259.97084  0.032431492  0.032911289            5 
  669000    1.0099685   -6.3687137    259.51243  0.032325913  0.032890304            4 
  670000   0.98816314    -6.398604    259.21874  0.032241137  0.032868834            6 
  671000   0.94881333   -6.3705936    259.30007  0.032203188  0.032847147            3 
  672000   0.98318118   -6.3813472      259.521  0.032182664  0.032825563            4 
  673000   0.97051032   -6.3780849    261.26176  0.032350391  0.032804335            5 
  674000   0.98055836   -6.3987288    260.91848  0.032259951  0.032783379           10 
  675000   0.98289849   -6.3766674    261.25502  0.032253706  0.032762268            3 
  676000   0.98121728   -6.3371495    262.16364  0.032318003  0.032741662            3 
  677000    0.9745473   -6.3664724    262.04636  0.032255829  0.032721046            4 
  678000   0.98712375   -6.3778248    261.72681  0.032168979  0.032700133            2 
  679000   0.95555489   -6.3791612    262.13525   0.03217173  0.032679058            3 
  680000   0.99956994   -6.3572801    262.43843  0.032161572  0.032657526            6 
  681000   0.99033198   -6.3723757     261.9272  0.032051786  0.032635996            7 
  682000   0.97883304    -6.402791    262.80432  0.032111964  0.032614608            8 
  683000   0.99095781   -6.3689495    263.77343  0.032183191  0.032593412            4 
  684000    0.9850129   -6.3918444    262.64867  0.031999107  0.032572341            8 
  685000   0.95455293   -6.4308197    262.86456  0.031978656  0.032550885            5 
  686000   0.97343362   -6.4001095    264.17129  0.032090779  0.032529573            5 
  687000   0.97482038   -6.3620965    264.72239  0.032110916  0.032508454            2 
  688000   0.95724547   -6.3819119    264.50231  0.032037586  0.032487311            3 
  689000   0.98004637   -6.3808912    264.22978  0.031958125  0.032466028            6 
  690000   0.99331686   -6.3866631    264.96947  0.032001143  0.032444805            2 
  691000   0.95456387   -6.3949358    264.01749  0.031840025  0.032423266            4 
  692000   0.98275562   -6.3756154    264.78118  0.031885981  0.032401648            5 
  693000   0.97619708   -6.3752032    264.69678  0.031829819  0.032380382            7 
  694000   0.99244504   -6.3986437    264.86904  0.031804639  0.032358882            6 
  695000   0.97671222   -6.3548081    265.70061  0.031858587  0.032337317            5 
  696000   0.97972722   -6.3661848    265.43398  0.031780889  0.032315665            3 
  697000   0.96952671   -6.3773308    265.39458  0.031730581  0.032293823            4 
  698000   0.98491045    -6.381477    266.27676  0.031790445   0.03227209            3 
  699000    0.9637493   -6.3800028    266.88022  0.031816907  0.032250793            5 
  700000   0.96530085   -6.3917351    267.51491  0.031847013  0.032229682            4 
  701000   0.97343103   -6.3659445    267.15358  0.031758628  0.032208548            2 
  702000   0.97323259   -6.4122269    265.93031  0.031568175   0.03218726            4 
  703000   0.95391607   -6.3967646    266.74617  0.031619982  0.032165236            5 
  704000   0.95325906   -6.4037712    267.07053  0.031613462  0.032143285            3 
  705000   0.98019999   -6.4105721    266.01689  0.031444077  0.032121297            6 
  706000   0.98185827   -6.4214255    266.90134  0.031503935  0.032099459            4 
  707000   0.97362217   -6.3848928    267.45592  0.031524743  0.032077429            3 
  708000   0.97840688    -6.408989    267.57692  0.031494458  0.032055348            3 
  709000   0.95193902   -6.3932697    267.67804  0.031461922   0.03203315            4 
  710000   0.97104476   -6.4265846    267.56612  0.031404474  0.032011255            4 
  711000   0.97428565   -6.4174681    268.29598  0.031445849  0.031989249            8 
  712000   0.95539687   -6.3846467    268.83135  0.031464344  0.031967465            5 
  713000   0.98050793    -6.376747    269.70422  0.031522232  0.031946336            4 
  714000   0.96491031   -6.3762858    269.03476  0.031399948  0.031924614            4 
  715000   0.96294759   -6.3867439    269.63681  0.031426202  0.031902841            4 
  716000   0.97840096   -6.3718871    269.48657  0.031364824   0.03188141            7 
  717000   0.94473325   -6.3883453    270.00043  0.031380803  0.031860136            7 
  718000   0.96314262   -6.4103253    270.90553  0.031442146  0.031838924            6 
  719000   0.98167095   -6.4261665    269.90582  0.031282547  0.031817035            4 
  720000   0.98261721   -6.3837605    270.72186  0.031333549  0.031795452            1 
  721000   0.95212861   -6.3868123     270.5247  0.031267303   0.03177357            8 
  722000   0.96644425   -6.4044332    271.47893  0.031334134  0.031751969            8 
  723000   0.96457756   -6.4428467     270.8152  0.031214292   0.03173025            5 
  724000   0.96382199   -6.4297336    271.19989  0.031215457  0.031708795            6 
  725000   0.96702523   -6.4272279    270.53808  0.031096331  0.031686907            8 
  726000   0.96665236   -6.4079992    271.53735  0.031168198  0.031664931            4 
  727000    0.9809608   -6.4591906    270.98057  0.031061505  0.031642935            5 
  728000   0.97353382   -6.4355854    271.45903  0.031073607  0.031620861            3 
  729000   0.96958573    -6.429863    271.71792  0.031060576  0.031599085            3 
  730000   0.96779437   -6.4249891    272.01559  0.031052008  0.031577363            5 
  731000   0.97457997   -6.4190754    272.55526  0.031071051  0.031555578            5 
  732000    0.9516009   -6.4342297    271.82012  0.030944913  0.031533558           12 
  733000   0.97369428    -6.412893    272.80772  0.031014974  0.031511709            6 
  734000   0.98558813   -6.4733766    271.31966  0.030803776  0.031489105            6 
  735000   0.97153117   -6.4475739    272.35412  0.030879151    0.0314666            6 
  736000   0.95063592   -6.4341097    273.14651  0.030926915  0.031444383            3 
  737000     0.964812   -6.4347584    273.75419  0.030953662  0.031422356            5 
  738000   0.94759657   -6.4228296    274.48543   0.03099429  0.031400934           10 
  739000     0.977262   -6.4352365    274.20502  0.030920729  0.031379319            6 
  740000   0.94955208   -6.4536247    273.10177  0.030754704  0.031357741            5 
  741000   0.95824483   -6.4428268    274.59672  0.030881323  0.031335606            8 
  742000   0.97633357   -6.4365966    274.71839  0.030853368  0.031314058            5 
  743000   0.97953278   -6.4329922    274.87699  0.030829631  0.031292572            5 
  744000   0.94231204    -6.417639    275.43244  0.030850407  0.031271526            4 
  745000   0.97130892   -6.4125711    275.69084  0.030837901  0.031250268            4 
  746000   0.95770525   -6.4442984    275.81357  0.030810273  0.031228962            5 
  747000   0.97299425   -6.4258795    275.93058  0.030782082  0.031207986            6 
  748000   0.95988106   -6.4786869    275.34093  0.030675237  0.031186458            4 
  749000   0.96651686   -6.4393922    275.73181  0.030677772  0.031165211            2 
  750000   0.94711726   -6.4458172    275.21286  0.030579207  0.031143554            4 
  751000   0.95928638   -6.4644486    275.49046  0.030569292  0.031121615            6 
  752000    0.9497217   -6.4347841    276.07457   0.03059337  0.031100021            3 
  753000   0.94135269   -6.4492192    276.22687  0.030569596  0.031078335            2 
  754000   0.93744265   -6.4419598    276.56196  0.030566087  0.031056381            3 
  755000   0.97326901   -6.4498072    276.37235  0.030504674  0.031034812            7 
  756000   0.96205811   -6.4471898    276.53061  0.030481769  0.031013213            7 
  757000   0.95335575   -6.4421192    276.60943  0.030450179  0.030991056            4 
  758000   0.95310064   -6.4418248    276.47197  0.030394895  0.030969162            2 
  759000   0.94539822   -6.4174452    278.35327  0.030561405  0.030947702            6 
  760000   0.95991413   -6.4694313    276.84409  0.030355712    0.0309263            5 
  761000   0.93568913   -6.5162425    277.30271  0.030366043  0.030904509            6 
  762000    0.9478754   -6.4628812    278.79288   0.03048916  0.030882476            3 
  763000   0.96844888   -6.4489622    278.02557  0.030365397  0.030860733            4 
  764000   0.95395282    -6.442432     279.0688  0.030439442  0.030839498            3 
  765000   0.94929685   -6.4612344    278.63382  0.030352268  0.030817919            3 
  766000   0.96558464   -6.4584401    277.97065  0.030240498  0.030796514            3 
  767000   0.95680075   -6.4260637    279.43123   0.03035976  0.030775222            4 
  768000   0.92658515   -6.4272442    280.59695  0.030446717  0.030754189            4 
  769000   0.95115191   -6.4608812    278.98405  0.030232341  0.030732645            5 
  770000   0.92725113   -6.4589436    280.01738  0.030304912  0.030711155           10 
  771000   0.94750492   -6.4958738    280.28953  0.030295021  0.030690181            5 
  772000     0.931143   -6.4434817    280.58788  0.030287983  0.030669148            6 
  773000   0.93506656   -6.4528208    281.14792  0.030309176  0.030648107            5 
  774000   0.95162535   -6.4619605    280.91365  0.030244794   0.03062729            5 
  775000    0.9429341   -6.4979913    281.18738  0.030235202  0.030606281            4 
  776000   0.94285876   -6.4845141    281.32108  0.030210598  0.030585351            4 
  777000   0.96040604   -6.4699092    281.49418  0.030190281  0.030564483            2 
  778000   0.93999843   -6.4661937    281.72725   0.03017644  0.030543336            4 
  779000   0.96240191   -6.4324849    283.22327   0.03029774  0.030522354            4 
  780000   0.91704298   -6.4719493    282.37446  0.030168211   0.03050158            4 
  781000   0.93179146   -6.4655299    282.71384  0.030165796  0.030480611            4 
  782000   0.93817582     -6.48019    282.45592  0.030099736  0.030459756            4 
  783000   0.93427077    -6.505418    282.61575  0.030078304  0.030438731            6 
  784000   0.94347629   -6.4845167    282.22171  0.029998056  0.030417684            3 
  785000   0.95073938   -6.5004444    283.11176  0.030054327   0.03039667            7 
  786000   0.94041792   -6.4876658    283.20287  0.030025749  0.030375728            5 
  787000     0.953192   -6.4502804    284.31012  0.030104841  0.030355133            5 
  788000   0.93819305   -6.4557329    284.70073  0.030107945  0.030334638            7 
  789000   0.95014706   -6.4508701    284.27149  0.030024449  0.030313593           11 
  790000   0.94007055   -6.5185246    284.05501  0.029963608  0.030292637            5 
  791000   0.94368166   -6.4583775    284.62012  0.029985264  0.030272142            6 
  792000   0.92601029   -6.4932106    284.80727  0.029967095  0.030251588            4 
  793000   0.95016225   -6.5106761    284.20222  0.029865723  0.030231228            3 
  794000   0.93055438   -6.5299554    283.79873  0.029785761  0.030210722            6 
  795000   0.92015073   -6.5274499    283.62116  0.029729681  0.030189894            8 
  796000   0.93438707   -6.4694856    284.89593  0.029825788  0.030169101            3 
  797000   0.92688868   -6.5186151    284.60823  0.029758284  0.030148204            9 
  798000   0.93125491     -6.49775    284.59903  0.029720032   0.03012731            3 
  799000   0.93684903   -6.5042123    285.96223  0.029825013  0.030106529            5 
  800000   0.91589222   -6.4459474    286.26234  0.029818994   0.03008584            5 
  801000   0.93817038   -6.5135362    286.12899  0.029767893  0.030065191            6 
  802000   0.91944664    -6.524778    285.94247  0.029711395  0.030044555            3 
  803000   0.91488112   -6.4881372    286.94514   0.02977845  0.030024134           17 
  804000   0.91735966   -6.5149231    286.46521  0.029691668   0.03000363            6 
  805000   0.90601835   -6.4932907    286.95469  0.029705454  0.029983145            8 
  806000   0.91983898   -6.4867142    287.43474  0.029718232  0.029962864            8 
  807000   0.92309584   -6.4986281    288.05572   0.02974553  0.029942716            7 
  808000   0.93800021   -6.5024735    287.49321  0.029650702  0.029922482            8 
  809000   0.94607812   -6.5235032    287.93928      0.02966  0.029902293            4 
  810000   0.92010366   -6.4962504    288.83332  0.029715362  0.029882573            3 
  811000   0.92534638   -6.5163319    288.66932   0.02966187  0.029862758            4 
  812000   0.92880584   -6.5310497    288.81175  0.029639958  0.029843057            7 
  813000   0.93305321   -6.4959582    289.83397  0.029708279  0.029823435            3 
  814000   0.94207523   -6.5423929    288.98724  0.029585098  0.029803819            5 
  815000   0.91753479    -6.513252    289.21559  0.029572147  0.029784196            9 
  816000   0.91720151   -6.4898052    289.47486  0.029562384  0.029764628            5 
  817000   0.93606662   -6.5220824    290.11687  0.029591684    0.0297451            4 
  818000   0.92585208    -6.495657    289.50147  0.029492815  0.029725476            5 
  819000     0.928176   -6.5128709    289.17032   0.02942311  0.029705386            8 
  820000   0.91053614   -6.5382387    289.82826  0.029454091  0.029685326            3 
  821000   0.91405517    -6.508442    292.10683  0.029649495  0.029665467            6 
  822000   0.93414539   -6.4838187    291.19694  0.029521182  0.029645763            8 
  823000    0.9212231   -6.5173896    290.12039  0.029376305  0.029625793            5 
  824000   0.92764367   -6.5072435    290.92811  0.029422342  0.029605904            7 
  825000   0.91539217   -6.5175767    291.22687  0.029416855  0.029586417            8 
  826000   0.90396316   -6.5282521    291.13511  0.029371984  0.029566665            4 
  827000   0.91681617   -6.5396356    291.16658   0.02933964  0.029546952            4 
  828000   0.92509943   -6.5274513    291.58705  0.029346523  0.029527129            5 
  829000   0.90671648   -6.5010878    292.34677  0.029387492  0.029507418            6 
  830000   0.90926377   -6.5244993    291.65604  0.029282735  0.029487681            3 
  831000    0.9159571   -6.5373068    291.81248  0.029263185  0.029467852            6 
  832000   0.91832713   -6.5048887     293.5495  0.029401993  0.029448293            4 
  833000   0.91384666   -6.5237936     291.9064  0.029202321  0.029428886            9 
  834000   0.90779853   -6.4654772    293.15699  0.029292265  0.029409374            7 
  835000   0.92423899   -6.5351489    292.75847  0.029217412  0.029389439            6 
  836000    0.9202464   -6.5274949    292.25337  0.029132114  0.029369505            3 
  837000   0.93001811   -6.5183517    292.15113   0.02908713   0.02934921            8 
  838000   0.90990227   -6.5450612    292.97156  0.029134006  0.029329054            4 
  839000   0.92144681   -6.5505852    292.20565  0.029023207   0.02930868            4 
  840000   0.90123052   -6.5401749    292.47861  0.029015735  0.029288324            7 
  841000    0.9229442   -6.5401375    292.08759  0.028942488  0.029267814           14 
  842000   0.93286648   -6.5415726    292.19694  0.028918937  0.029247163            5 
  843000   0.90172363   -6.5292434     292.5866  0.028923152  0.029226631            6 
  844000   0.91918688   -6.5132718    293.04208  0.028933854  0.029206066            5 
  845000   0.89542807    -6.541626    292.51796  0.028847925  0.029185505            6 
  846000   0.91005257   -6.5304765    293.19275  0.028880294   0.02916481            5 
  847000   0.95079258   -6.5498768    293.57311   0.02888362  0.029144396            5 
  848000    0.9073468   -6.5374454    294.09372  0.028900719  0.029123809            9 
  849000    0.9194976   -6.5665761    294.19317   0.02887644  0.029103286            4 
  850000   0.91768786   -6.5547114    292.92218  0.028717861  0.029082564            2 
  851000   0.91612761   -6.5434292    293.96588  0.028786318  0.029061944            6 
  852000   0.90168951   -6.5538894    294.15968  0.028771487  0.029041429            9 
  853000   0.91503866   -6.5614462    294.06651  0.028728655  0.029021053            8 
  854000   0.92785876   -6.5582622    294.53682  0.028740907  0.029000594           13 
  855000   0.93047787   -6.5720569    294.87914  0.028740657  0.028980286            4 
  856000   0.91107962    -6.581112    294.68979  0.028688647  0.028959779            5 
  857000   0.92415066   -6.5669212    295.82454  0.028765513  0.028939469            6 
  858000   0.91829714    -6.550305    296.40343  0.028788212  0.028919485            6 
  859000   0.91419779   -6.5477287    296.54359  0.028768295  0.028899276            3 
  860000   0.89269192   -6.5129937    297.57347  0.028834638  0.028879472            5 
  861000   0.89058671   -6.6097147    295.71303  0.028621083  0.028859512            5 
  862000   0.92316941    -6.536442    297.54416  0.028764903  0.028839572            2 
  863000   0.90012903   -6.5301555    297.19008  0.028697381  0.028820112            5 
  864000   0.92670245   -6.5500596    297.06329  0.028651938  0.028800575            7 
  865000   0.88757881   -6.5536978      297.361  0.028647495  0.028780702            4 
  866000   0.91835045   -6.5907596    296.72422  0.028553139  0.028760547            5 
  867000   0.90445086   -6.5620841    296.79165  0.028526687  0.028740437            3 
  868000   0.88911389   -6.5809259    296.55754  0.028471346  0.028720495            7 
  869000   0.91220458   -6.6205264    296.08072  0.028392858  0.028700208            7 
  870000   0.89268541   -6.5826575    297.32251  0.028479167  0.028679886            4 
  871000   0.90755696   -6.5409483    297.76902   0.02848919  0.028660152            9 
  872000   0.91446648   -6.5699939    298.10416  0.028488548  0.028640603            7 
  873000   0.87783659   -6.5839257    298.79724  0.028522073  0.028621009            8 
  874000   0.89811333   -6.6025147    297.57619  0.028373016   0.02860124            6 
  875000    0.9050018   -6.6005034    297.97299   0.02837838  0.028581209            4 
  876000   0.91419954   -6.5622749    299.72997  0.028513125  0.028561536            7 
  877000   0.90047819   -6.5831708    299.07419    0.0284183  0.028542065            6 
  878000   0.90316372   -6.5657782     299.6353  0.028439189  0.028522497            3 
  879000   0.91447143   -6.5869505    299.17031  0.028362752  0.028502948            8 
  880000   0.92081358   -6.5901103    299.39297  0.028351607   0.02848351            3 
  881000   0.90110659   -6.5685055    299.87591  0.028365107  0.028463845            5 
  882000   0.93463963   -6.5796657    299.19735  0.028268835  0.028444433            4 
  883000   0.89546445   -6.5737721      300.515  0.028361174  0.028425129            6 
  884000   0.90221698   -6.5805096    300.92067  0.028367333  0.028405748            8 
  885000   0.88258639   -6.5761245    300.47128  0.028292964  0.028386336            8 
  886000   0.88684938   -6.6007784     300.2097  0.028236428  0.028366958            4 
  887000   0.91200307   -6.6096096    300.87918  0.028267492  0.028347737            4 
  888000   0.89918086   -6.5352484     302.4061  0.028378951  0.028328656            5 
  889000   0.90024697   -6.5708359    301.03939  0.028218916  0.028309582            4 
  890000   0.89238818    -6.588108    301.28286  0.028210005  0.028290412            5 
  891000    0.9008149   -6.5770495    301.54497  0.028202859  0.028271261            3 
  892000   0.90161003   -6.5729615     301.0692  0.028126793  0.028251963           10 
  893000   0.91228819   -6.5931948    301.55803  0.028140914  0.028232591           10 
  894000   0.89081241   -6.5733232    301.67718  0.028120543  0.028213196            9 
  895000   0.88678671     -6.62062    301.98297  0.028117595  0.028193862            3 
  896000   0.88920604   -6.6134294    301.78334  0.028067647  0.028174265            9 
  897000   0.89991728   -6.5940655    302.51161  0.028104014  0.028154849            7 
  898000   0.91936044   -6.6047835    303.28138  0.028144152  0.028135696            6 
  899000   0.90719603   -6.5920595     302.6351  0.028052939  0.028116394            6 
  900000   0.90190241   -6.5910449    302.17637  0.027979293  0.028096932            7 
  901000   0.90898678   -6.6031021    302.36733  0.027965902  0.028077696            6 
  902000   0.89515845   -6.6448632    301.17543  0.027824781  0.028058089            6 
  903000   0.87995144   -6.6256727    302.17102  0.027885845  0.028038297            7 
  904000   0.88347952   -6.6193841    302.25399  0.027862647  0.028018453            7 
  905000    0.8609325   -6.6018772    302.71657  0.027874454  0.027998633            5 
  906000    0.8815264   -6.5969429    302.77803   0.02784934  0.027978877            4 
  907000   0.88260025   -6.6157274    302.57291   0.02779979  0.027959236            8 
  908000   0.88868531   -6.6106537    303.38478  0.027843684  0.027939653            7 
  909000   0.89771385   -6.5865243    303.41836  0.027816131  0.027920161            3 
  910000   0.90108692   -6.6111975     302.8305  0.027731731  0.027900935           11 
  911000   0.88905266   -6.6386606    303.46705  0.027759518  0.027881557            8 
  912000   0.90664052    -6.639527    303.70813  0.027751109  0.027861843            5 
  913000   0.89950054   -6.6484967     304.2404  0.027769295  0.027842314            6 
  914000   0.89353994   -6.6020824    304.62107  0.027773621  0.027823037            4 
  915000   0.87492742   -6.6103785    304.58347  0.027739843  0.027803851            6 
  916000   0.87032868   -6.6283269    304.18355  0.027673176  0.027784439            6 
  917000   0.89575945    -6.596703    305.12378  0.027728443  0.027765226            7 
  918000   0.89128133   -6.5973202    305.14027  0.027699734  0.027746267            8 
  919000    0.8808663   -6.5831356    305.78074   0.02772767  0.027727277            3 
  920000   0.88229665   -6.6230637    306.33742  0.027747955  0.027708478            7 
  921000   0.89400006   -6.6315628    304.91022  0.027588692  0.027689467            5 
  922000    0.8818951   -6.5966157    305.85486  0.027644149  0.027670391           11 
  923000   0.89695579   -6.6036501     305.4888  0.027581148  0.027651284            4 
  924000   0.88581794   -6.5807032    305.84967  0.027583845   0.02763195            7 
  925000   0.88891598   -6.6545552    306.02784  0.027570075  0.027612454           15 
  926000   0.85690818   -6.6200053     305.4635  0.027489516  0.027593079            8 
  927000   0.87712954   -6.6159481    306.31589  0.027536487  0.027573778            6 
  928000   0.87932596   -6.6036232    306.19018  0.027495526  0.027554499            4 
  929000   0.87751079   -6.6408013    306.80572  0.027521145  0.027535033            4 
  930000   0.86660453   -6.6177984    306.23366  0.027440292  0.027515503            4 
  931000   0.87581275   -6.6297818    305.99116  0.027389112  0.027495917            7 
  932000   0.88086303   -6.6290927    305.86547  0.027348486  0.027476467            4 
  933000   0.86073467   -6.6504643    305.71566  0.027305793  0.027456791            7 
  934000   0.88864596   -6.6279138    306.82068   0.02737515  0.027437065            7 
  935000   0.88059113    -6.577364    306.86566  0.027349881  0.027417771            7 
  936000   0.88774601   -6.6375876    307.84623  0.027407962  0.027398604            4 
  937000   0.86288618   -6.6096876    307.54115  0.027351579   0.02737954            6 
  938000   0.87736901   -6.6148343    307.28514  0.027299675  0.027360531            5 
  939000   0.89212011   -6.6386577    307.71024  0.027308328  0.027341129            6 
  940000   0.87680573   -6.6641345    307.00336   0.02721661  0.027321837            6 
  941000   0.88951547   -6.6032532    307.89406  0.027266566  0.027302765            3 
  942000   0.91238848   -6.5913469     308.3667  0.027279432  0.027283663           10 
  943000   0.87585282   -6.6664373    308.52498  0.027264491  0.027264563            7 
  944000   0.89057761   -6.6377484    307.95696  0.027185466  0.027245327            7 
  945000    0.8843793   -6.6279683    307.70455   0.02713444  0.027226155            4 
  946000   0.85849971    -6.630941    308.28204  0.027156628  0.027207032            9 
  947000   0.88243522   -6.6385079     308.4785  0.027145239  0.027187909            8 
  948000   0.86574431   -6.6276655    309.01792  0.027164022  0.027168771            6 
  949000   0.85979635   -6.6549447    308.31565  0.027073731  0.027149572            6 
  950000   0.85028747    -6.645119    308.32139  0.027045736   0.02713032            5 
  951000   0.87780669   -6.6347878    308.76821  0.027056451  0.027111164            5 
  952000   0.86702971   -6.6670122    308.32491  0.026989225  0.027091959            7 
  953000   0.88033156   -6.6552808    309.31953  0.027047878  0.027072849            7 
  954000   0.86971535    -6.628729    308.71046  0.026966322  0.027053648            3 
  955000   0.88368615   -6.6670534    308.98401  0.026961955  0.027034315            7 
  956000   0.87421037   -6.6532913    309.42385  0.026972093  0.027015231           20 
  957000   0.87462604   -6.6517141    309.17509  0.026922247  0.026996239            6 
  958000   0.87119345   -6.6698428    309.49745  0.026922186  0.026977297            6 
  959000   0.87363469   -6.6317444    310.36766   0.02696973  0.026958304            9 
  960000   0.87583573   -6.6592675    310.05643   0.02691462  0.026939163            9 
  961000    0.8787247   -6.6388275    310.62694  0.026936086  0.026920248           13 
  962000   0.84903969   -6.6384722    311.61703  0.026993852    0.0269014            6 
  963000   0.84291337   -6.6558466    310.75691  0.026891391  0.026882679           12 
  964000    0.8777933   -6.6660127    311.79746  0.026953445  0.026863887            4 
  965000    0.8528044   -6.6910585    310.69917  0.026830671  0.026845089           10 
  966000    0.8461524   -6.6478184     311.6545  0.026885309  0.026826376            5 
  967000   0.86612388   -6.6681267    312.50914  0.026931156  0.026807843            4 
  968000   0.87313625   -6.6753574    311.90352  0.026851198  0.026789147           22 
  969000   0.86565667   -6.6442704    312.64878   0.02688758  0.026770803            7 
  970000   0.86435134   -6.6501278    312.49467  0.026846621  0.026752472            6 
  971000   0.87379157   -6.6714585     312.4889  0.026818478   0.02673384            6 
  972000   0.85835337   -6.6794545    312.26338  0.026771552  0.026715206            4 
  973000   0.86167021   -6.6522048    312.13197  0.026732783  0.026696538            6 
  974000   0.85690337    -6.678493    312.23668  0.026714295  0.026677779            6 
  975000    0.8646593   -6.6892892    311.37084  0.026612892  0.026659006            8 
  976000   0.86454842   -6.6773308    312.31186  0.026665972  0.026640295            7 
  977000   0.86288997   -6.7414927    311.91214  0.026604584  0.026621268            3 
  978000   0.84282885   -6.6547753    312.26392  0.026607355  0.026602448            6 
  979000    0.8743821   -6.7184149    311.24135  0.026493135  0.026583594            4 
  980000   0.86074382   -6.6564562    313.23121  0.026635307  0.026564795           10 
  981000   0.85460101   -6.6450718    313.18442  0.026604182  0.026546027            9 
  982000   0.87244625    -6.692417    312.71829  0.026537533   0.02652721            5 
  983000    0.8715713   -6.7013024    312.89206  0.026525268  0.026508199            5 
  984000   0.87376886   -6.7078357    311.82537  0.026407975  0.026489012            5 
  985000    0.8425567   -6.7148152    312.78727  0.026462544  0.026469845            4 
  986000   0.84923375    -6.708619    313.51955  0.026497596   0.02645102            4 
  987000   0.85777546   -6.7029059    313.17593  0.026441737   0.02643221            4 
  988000   0.88230393   -6.6888801    313.83813  0.026470827  0.026413444            5 
  989000   0.85296302   -6.7394029    312.61366  0.026340888  0.026394696            5 
  990000   0.86554848   -6.7359867     312.7605  0.026326642  0.026375762            5 
  991000   0.85119644   -6.7090845    313.51196  0.026363266  0.026356855            5 
  992000   0.84820546   -6.7411178     312.9502  0.026289499  0.026338055           10 
  993000   0.85060629   -6.7202753    313.94221  0.026346274  0.026319012            9 
  994000   0.85594636   -6.7102812    313.33692  0.026269024  0.026300064            7 
  995000   0.86002827    -6.712654    313.67704  0.026271109  0.026280956            9 
  996000   0.86767807   -6.7075307    313.31638  0.026214557  0.026262112            4 
  997000   0.85169211   -6.6920902     314.6652  0.026301003  0.026243154            5 
  998000   0.84783666   -6.7303749     314.2696  0.026241616  0.026224125           12 
  999000    0.8538254   -6.7544365    313.80897  0.026176924  0.026204916            6 
 1000000   0.83515556   -6.7195208    314.06533  0.026172111    0.0261859            3 
 1001000   0.85874406   -6.7090517    313.92882    0.0261346  0.026166881            9 
 1002000   0.85820927    -6.733789    313.10949  0.026040376  0.026147793            7 
 1003000   0.84223427   -6.7096011    315.64225  0.026224847  0.026129036            5 
 1004000   0.83714172   -6.7269506    314.84817  0.026132816  0.026110102            6 
 1005000   0.85356416   -6.7426253    314.90587  0.026111597  0.026091428            9 
 1006000   0.85528279   -6.7006152    315.97787  0.026174443   0.02607275            7 
 1007000   0.87586545   -6.7128177    315.96607  0.026147473   0.02605415           23 
 1008000    0.8412993   -6.7001633    315.16059  0.026054943  0.026035625            5 
 1009000   0.85149388   -6.7575633    315.27808  0.026038824  0.026016838           17 
 1010000   0.83757883   -6.7702053     315.5701  0.026037137  0.025998023           12 
 1011000    0.8479697   -6.6905516    316.69695  0.026104265  0.025979489           11 
 1012000   0.86183036   -6.7104136    316.59746  0.026070279  0.025960971            5 
 1013000   0.83230426   -6.6890195    316.81661  0.026062571  0.025942602            6 
 1014000   0.84682114   -6.6881691    316.59989  0.026019057  0.025924167            5 
 1015000   0.84106159   -6.7286201    317.07463    0.0260324   0.02590573           10 
 1016000   0.85821012   -6.7100278     317.1876  0.026016043  0.025887244            9 
 1017000   0.83762098   -6.7271096    317.20626  0.025991991  0.025868788            4 
 1018000   0.84816244   -6.7133623    316.90013  0.025941399  0.025850472            6 
 1019000   0.84661048    -6.756947    316.51973  0.025884833  0.025831958            6 
 1020000   0.84353717    -6.701537    317.81713  0.025965452  0.025813547            6 
 1021000   0.81939562   -6.6956198    318.27702  0.025977556   0.02579514           13 
 1022000   0.84155483   -6.7314514    316.89408  0.025839373  0.025776813            5 
 1023000   0.84794756   -6.7253207    317.64189  0.025875032  0.025758282            3 
 1024000    0.8458332   -6.7511709    316.46197  0.025753741  0.025739713            3 
 1025000   0.86928917   -6.7274444    317.53237   0.02581564  0.025721199            5 
 1026000   0.84303581   -6.7044872    317.28358  0.025770271  0.025702797            7 
 1027000   0.83483842   -6.7588182    317.07326  0.025728113  0.025684475            6 
 1028000   0.83739979    -6.744967    317.39866  0.025729463  0.025665865            5 
 1029000    0.8537642   -6.7831843    317.29628  0.025696168  0.025647176            6 
 1030000   0.84149569   -6.7664939    317.20323  0.025663691  0.025628523           12 
 1031000   0.84630038   -6.7648541    317.61605  0.025672167  0.025609895            8 
 1032000   0.83865659   -6.7479544     318.2755  0.025700541  0.025591396           10 
 1033000   0.85928247   -6.7519359    317.23369  0.025591618  0.025572897           14 
 1034000   0.84157482   -6.7409104    317.88553  0.025619401  0.025554419            8 
 1035000   0.83815895    -6.746257    319.21007  0.025701294  0.025536008           11 
 1036000   0.84677923   -6.7366649    318.38713  0.025610291  0.025517854            7 
 1037000   0.85023386   -6.7401871    318.77432  0.025616708  0.025499545            7 
 1038000   0.83025589   -6.7611725    318.56398  0.025575143  0.025481276           11 
 1039000   0.85025177   -6.7554415    318.94217  0.025580861  0.025463017            7 
 1040000   0.83536984   -6.7388791    319.24107  0.025580214  0.025444845            6 
 1041000   0.82645537   -6.7372948    320.07971  0.025622776   0.02542678           13 
 1042000   0.84083121   -6.7231361    319.52378  0.025553725  0.025408854           12 
 1043000   0.83794256    -6.754827    319.63491  0.025538104  0.025390973           13 
 1044000   0.84096533    -6.760678     319.9925  0.025542186  0.025373027            9 
 1045000   0.83101191   -6.7390009     319.8405  0.025505622  0.025354991            8 
 1046000   0.84465254   -6.7943152    318.79048  0.025397584  0.025336849            6 
 1047000   0.83195945   -6.7713954    319.84452   0.02545722  0.025318691            6 
 1048000   0.82862773   -6.7624021    320.54455  0.025488593  0.025300618           16 
 1049000   0.84829844   -6.7777977    320.26575  0.025442147  0.025282657           11 
 1050000   0.83235559   -6.7672561    320.37834  0.025426852  0.025264753            5 
 1051000   0.81218182   -6.7121138    320.74573  0.025431789   0.02524677           18 
 1052000   0.82437916   -6.7854469    320.39164  0.025379566  0.025228734            9 
 1053000   0.82881712   -6.7642438    320.60754  0.025372549  0.025210513           16 
 1054000   0.83459999   -6.7835185    320.07657  0.025306497  0.025192378            5 
 1055000   0.82323452    -6.781049    320.44401  0.025311533  0.025174326            9 
 1056000   0.82541609   -6.7692018    322.58047  0.025456161  0.025156426           13 
 1057000   0.83059175   -6.7756518    321.36405  0.025336175  0.025138515            4 
 1058000   0.83873038   -6.7621521    321.28687  0.025306149  0.025120746            4 
 1059000   0.82814775   -6.7966823    321.26926  0.025280867  0.025103095           10 
 1060000   0.82155842   -6.7893285    320.74485   0.02521579  0.025085331            5 
 1061000   0.82505776   -6.7472994    321.48242  0.025249955   0.02506746            9 
 1062000   0.82903206   -6.7778624    322.00869  0.025267474  0.025049643            5 
 1063000    0.8313984    -6.755617    320.85772  0.025153475  0.025031877            4 
 1064000   0.82664697   -6.7769258    321.76871  0.025201183  0.025014124            9 
 1065000   0.83792146   -6.7686512     322.7415  0.025253638  0.024996499           12 
 1066000   0.83626156   -6.7645213    322.38152  0.025201807  0.024978776            7 
 1067000   0.84307199   -6.8240783    322.08358  0.025154918  0.024961096            8 
 1068000   0.82544785   -6.8071652    322.15456  0.025136904  0.024943174           13 
 1069000   0.81500209   -6.8082206    321.65836  0.025074708  0.024925242            8 
 1070000    0.8400735   -6.8030584    321.44982  0.025035033  0.024907398           14 
 1071000    0.7835727    -6.808106    322.43599   0.02508839  0.024889539           10 
 1072000   0.83304415   -6.8149368    322.51361  0.025071021  0.024871798            7 
 1073000   0.84189209   -6.8393929    322.47974  0.025045025  0.024853979           10 
 1074000   0.81699281   -6.7788739    323.18521  0.025076444  0.024836173            4 
 1075000   0.82739203   -6.7810384    323.13642  0.025049335  0.024818671            6 
 1076000    0.8175648   -6.7952614    323.43657  0.025049301   0.02480108            8 
 1077000   0.83063334    -6.783774    323.25332  0.025011863  0.024783523            6 
 1078000    0.8342108    -6.770605    323.54691  0.025011357  0.024765952            8 
 1079000   0.81999169   -6.7842062    323.63397    0.0249949  0.024748337            8 
 1080000   0.80931247   -6.7895492    324.23002  0.025017748  0.024730909           10 
 1081000   0.82889638   -6.7661792    323.49528  0.024937965  0.024713404           11 
 1082000   0.82369546   -6.8055005       322.93   0.02487138  0.024695827            4 
 1083000   0.82245933   -6.8072615    323.66965  0.024905329  0.024678179            8 
 1084000   0.82941264   -6.7821764    324.06354  0.024912634   0.02466055           11 
 1085000   0.83611271   -6.7854294    324.27394  0.024905832  0.024642917            9 
 1086000   0.83244579   -6.7546289    325.32332  0.024963423  0.024625417            7 
 1087000   0.80247864   -6.7853136     323.5705   0.02480608   0.02460803            7 
 1088000   0.83118793   -6.7883084    325.06647  0.024897861  0.024590446            8 
 1089000   0.81725604   -6.8016313    323.23833  0.024735104  0.024572915            8 
 1090000   0.84009725   -6.7711286    324.20681  0.024786454  0.024555299           13 
 1091000   0.81523652    -6.800801    324.56342  0.024790973  0.024537547           16 
 1092000   0.82169094   -6.8118488    324.39964  0.024755772  0.024519801            9 
 1093000   0.79431975   -6.8126306    324.76809  0.024761214  0.024502118           11 
 1094000   0.82300241   -6.8266789    323.77437  0.024662886  0.024484421            8 
 1095000   0.82120203   -6.8209077    323.24076  0.024599753  0.024466603            8 
 1096000   0.81284778   -6.8057792    324.75153  0.024692178  0.024448893            6 
 1097000   0.81804617     -6.80941    324.79711  0.024673132  0.024431288            6 
 1098000   0.81854525   -6.8376603    323.89394  0.024582115  0.024413667            8 
 1099000   0.80592601   -6.8208149    325.66243  0.024693845  0.024395983           13 
 1100000   0.79789958   -6.8067188    324.69158  0.024597847  0.024378243           12 
 1101000   0.82887181   -6.7956258    325.18398  0.024612774  0.024360746            6 
 1102000   0.80961968     -6.81477    325.12633   0.02458608  0.024343283            9 
 1103000   0.79675434   -6.8347238     325.3795  0.024582918   0.02432571           24 
 1104000   0.79056114    -6.835982    324.84894  0.024520602  0.024308182            7 
 1105000   0.81833955   -6.8539194     325.3792  0.024538401  0.024290564            6 
 1106000   0.81359279   -6.8317032    324.69627  0.024464758  0.024272806           14 
 1107000   0.80832621   -6.8457661    325.41264  0.024496586  0.024255187            8 
 1108000   0.80526188   -6.8220233     325.5882  0.024487681  0.024237559           16 
 1109000   0.82844022   -6.8564098    325.15633  0.024433148  0.024219967            7 
 1110000   0.80555767   -6.8462474    326.17856   0.02448788  0.024202321            6 
 1111000   0.81556113   -6.8406888    325.56828  0.024420063  0.024184664           14 
 1112000   0.80493656   -6.8358874    325.57492    0.0243986  0.024166946           26 
 1113000   0.79270515   -6.8725847    325.30511  0.024356478  0.024149281           15 
 1114000   0.79954677   -6.8803245    324.93799  0.024307151  0.024131572           12 
 1115000   0.80710877   -6.8722063     325.3421  0.024315553  0.024113875            9 
 1116000   0.81058871   -6.8585704    324.97086  0.024266044  0.024096135            6 
 1117000   0.80780945    -6.871199    325.56793  0.024288864  0.024078418            7 
 1118000   0.79680876   -6.8745618    325.82844  0.024286557  0.024060719           10 
 1119000   0.80481456   -6.8141942    326.01296  0.024278594  0.024043102            8 
 1120000   0.80049027   -6.8399449    326.15512  0.024267494  0.024025473            7 
 1121000   0.79819418   -6.8082416    326.39662  0.024263799  0.024007941            9 
 1122000    0.8148815   -6.8169749    325.54048  0.024178586  0.023990411           11 
 1123000   0.80610678   -6.8241928    326.06738  0.024196155  0.023972789            7 
 1124000   0.80878284   -6.8364798    325.79262  0.024154257  0.023955228            8 
 1125000   0.81590242   -6.8437906     326.0901  0.024154822  0.023937812            6 
 1126000   0.80979145    -6.844164    326.52951   0.02416589  0.023920393           11 
 1127000   0.79722586   -6.8498456    325.95235  0.024101771    0.0239029           23 
 1128000   0.79479619   -6.8372653    327.14922  0.024168825  0.023885397            7 
 1129000   0.83201109   -6.8715725    326.45817   0.02409641  0.023867823            7 
 1130000   0.81738477   -6.8600904    325.89615   0.02403364  0.023850135           10 
 1131000   0.79200559   -6.8354404    326.91518  0.024087472  0.023832603            4 
 1132000   0.81134742   -6.8585942    327.28416  0.024093357  0.023815169            6 
 1133000   0.78734767   -6.8477732    326.77248  0.024034458  0.023797639           12 
 1134000   0.80366123   -6.8447364    326.91578  0.024023793  0.023780089            7 
 1135000   0.78926028   -6.8677534    326.40114  0.023964841  0.023762524           16 
 1136000   0.78305255   -6.8847657    326.58417  0.023957172  0.023744909           15 
 1137000   0.80892328   -6.8789879     327.2341  0.023983737  0.023727278            8 
 1138000   0.79251445   -6.8889082    326.65229  0.023920056  0.023709676            8 
 1139000   0.80029142   -6.8416574    328.28681  0.024018643  0.023692011            8 
 1140000   0.81299067   -6.8765058    326.92713  0.023898182  0.023674287           19 
 1141000   0.78906402   -6.8774696    327.02025  0.023884038  0.023656654           26 
 1142000   0.80633291    -6.917955    327.08865  0.023868115  0.023638835            9 
 1143000   0.79103616   -6.8796075    326.31655  0.023790941  0.023621016            8 
 1144000   0.79380225   -6.9018554    327.14558  0.023830535  0.023603261            6 
 1145000   0.80253823    -6.898145    326.74869  0.023780836  0.023585469           11 
 1146000   0.80202301    -6.905691    326.47218  0.023739978  0.023567652           11 
 1147000   0.78529876   -6.9047159    327.09023  0.023764184  0.023549727           18 
 1148000   0.78979315   -6.8718793    326.95823  0.023733902  0.023531817           20 
 1149000   0.79943225   -6.8943705    327.35399  0.023741949  0.023514015           10 
 1150000   0.82136116   -6.8858266    326.61718  0.023667911  0.023496211           12 
 1151000   0.79362161   -6.9105504    326.80243  0.023660761  0.023478412           11 
 1152000   0.78160602   -6.8879186    327.41484  0.023684523  0.023460623            6 
 1153000   0.77942471   -6.8917371    326.55098  0.023601545  0.023442742           21 
 1154000   0.80316692   -6.8670273    327.46159   0.02364685   0.02342479           10 
 1155000   0.79192342   -6.8844155    326.89683   0.02358563  0.023406823            8 
 1156000    0.7931132   -6.8586821    326.53655  0.023539255  0.023388824           10 
 1157000   0.79545843   -6.8694758    327.05547  0.023556286  0.023370992            8 
 1158000   0.79123301   -6.8775432    327.09464  0.023538762  0.023353045           17 
 1159000   0.77652235   -6.8729188     327.1573  0.023522958  0.023335148           13 
 1160000   0.78734235   -6.8943129    326.77525  0.023475233   0.02331735           11 
 1161000   0.79944935   -6.9023506      327.212  0.023486362  0.023299439           12 
 1162000   0.79132204   -6.8785983     328.1346  0.023532315  0.023281659           23 
 1163000   0.78906085   -6.8831116    327.45044  0.023463058  0.023263906            7 
 1164000   0.78790385   -6.8867369    326.90796  0.023404063  0.023246048            7 
 1165000   0.78761177   -6.9416399    327.16648  0.023402466  0.023228157            6 
 1166000   0.78434087   -6.8911525    327.65644  0.023417413   0.02321034           16 
 1167000   0.79197568   -6.8935096    327.21725  0.023365985  0.023192535           14 
 1168000   0.78801893   -6.9382874    326.34383  0.023283664  0.023174628           14 
 1169000   0.78454328   -6.9083396    327.15876  0.023321839  0.023156637           16 
 1170000   0.78680406    -6.866559    327.86505  0.023352212  0.023138706            8 
 1171000   0.79610691   -6.9248403    326.67209  0.023247373  0.023120905            8 
 1172000   0.80410785   -6.8983356    327.59831  0.023293395  0.023103006           10 
 1173000   0.77171077   -6.9446598    326.90134  0.023224022  0.023085097            6 
 1174000   0.79688116   -6.9135708    327.48314  0.023245538  0.023067189            7 
 1175000   0.77891104   -6.9243848    328.01668  0.023263595   0.02304933            8 
 1176000   0.77274232   -6.8959787    327.65721   0.02321834  0.023031466           14 
 1177000   0.77924355   -6.9427713    327.51431  0.023188495  0.023013658            8 
 1178000   0.79906573   -6.9059128    327.73019  0.023184082  0.022995919            8 
 1179000   0.77430678   -6.9186417    328.60868  0.023226512  0.022978238            5 
 1180000   0.77788158   -6.8854775    328.89399  0.023226977  0.022960514            8 
 1181000    0.7779862   -6.9292005    328.07068  0.023149215  0.022942776           18 
 1182000   0.80103573   -6.9261904    327.60341  0.023096687  0.022925034           11 
 1183000   0.77748275   -6.9014808    329.13239  0.023184868  0.022907349            8 
 1184000   0.78594748   -6.9391442    328.20233  0.023099826  0.022889742           11 
 1185000   0.78081198   -6.8982836    328.72833  0.023117323  0.022872152            8 
 1186000   0.79304365   -6.9041086    328.74489  0.023098995  0.022854522           11 
 1187000   0.77844068   -6.8708686     329.1552  0.023108341  0.022837004            6 
 1188000   0.76448433   -6.9376404    329.06899  0.023082842  0.022819511           15 
 1189000   0.76394359   -6.9232918    328.16317  0.022999942  0.022801879            8 
 1190000   0.78912956   -6.9352155    328.84592  0.023028426  0.022784286           10 
 1191000   0.75585487   -6.8884258    328.64428  0.022994982  0.022766674            6 
 1192000   0.75880994   -6.9124735    329.47046  0.023033449  0.022749037            6 
 1193000   0.80338177    -6.888591    329.14206  0.022991203  0.022731508            9 
 1194000   0.78021912   -6.9134503    328.68698  0.022940185  0.022713894            9 
 1195000     0.768437   -6.9198323     329.3293  0.022965781   0.02269622            9 
 1196000   0.78103672   -6.9331652    327.53138  0.022821305  0.022678488           15 
 1197000    0.7761238   -6.9228044      329.512  0.022940128   0.02266087           19 
 1198000    0.7897526   -6.9428297    328.44681  0.022846884  0.022643324           17 
 1199000   0.79033493   -6.9599751    328.09049  0.022803064   0.02262577            9 
 1200000   0.77892811   -6.9788309    328.51048  0.022813227  0.022608106           10 
 1201000   0.76051091   -6.9465607    329.16021  0.022839315  0.022590398           23 
 1202000   0.77246064   -6.9408533    329.67042  0.022855686  0.022572818           17 
 1203000   0.79702289   -6.9535328    330.10522  0.022866807  0.022555307           19 
 1204000   0.75874959   -6.9323605    329.51065  0.022806662  0.022537827            9 
 1205000   0.79394894   -6.9585651    329.61496  0.022794949  0.022520314            8 
 1206000   0.79256172   -6.9355318    329.73204  0.022784138  0.022502856            9 
 1207000   0.77408241   -6.9722156    329.00843  0.022715302  0.022485433            9 
 1208000   0.77970844   -6.9525814     329.0086  0.022696509  0.022467895            6 
 1209000   0.77431607   -6.9238211      329.531  0.022713744  0.022450552           10 
 1210000   0.76564121   -6.9315483    329.74347  0.022709606  0.022433082           24 
 1211000   0.77274103   -6.9136032    330.47995  0.022741533  0.022415735            8 
 1212000   0.77342677   -6.9405469    329.86456  0.022680457  0.022398359            8 
 1213000   0.75847054   -6.9428729    330.42585  0.022700319   0.02238103            6 
 1214000    0.7821633   -6.9268009    330.23176  0.022668298  0.022363812           14 
 1215000   0.76966006   -6.9545707    330.11791  0.022641832  0.022346543           13 
 1216000   0.76108744   -6.9485118    330.94207  0.022679692  0.022329301           10 
 1217000    0.7449093   -6.9238227    330.53704  0.022633322  0.022312084            8 
 1218000   0.76919644     -6.92478     330.6249  0.022620751  0.022294876           12 
 1219000    0.7637347    -6.983441    330.38072  0.022585502  0.022277663            9 
 1220000   0.75572874   -6.9556501    329.59079  0.022513032  0.022260454           12 
 1221000   0.76553662   -6.9737652     329.9927  0.022522025   0.02224319           12 
 1222000   0.78068953   -6.9554166    331.48565  0.022605404  0.022225959           11 
 1223000   0.76708432   -6.9818015    330.55646  0.022523607  0.022208854           12 
 1224000   0.75527236   -6.9595946    329.85371   0.02245736  0.022191682           12 
 1225000   0.77577935   -6.9779321     330.5044  0.022483292  0.022174482           15 
 1226000   0.78510034   -6.9646849    330.21192  0.022445073   0.02215714            9 
 1227000   0.76542578   -6.9803979    329.64348  0.022388174  0.022139837           15 
 1228000   0.75546236   -6.9769431    330.10603  0.022401332  0.022122394            6 
 1229000   0.75250813   -6.9721985     329.9205  0.022370525  0.022105037           20 
 1230000   0.74650687   -6.9434393    330.56403  0.022395937  0.022087678           14 
 1231000   0.77327472    -6.987968    329.72785  0.022321138   0.02207041           27 
 1232000   0.75860297   -6.9815842    330.15477  0.022331897  0.022053086           17 
 1233000   0.76779406   -7.0151227    329.46482  0.022267154  0.022035649           13 
 1234000   0.75122728   -6.9820003    329.42912  0.022246699  0.022018255           15 
 1235000   0.75587803   -6.9684962    330.55502  0.022304657  0.022000927           21 
 1236000   0.76219548   -6.9837875    330.06125   0.02225332   0.02198355           17 
 1237000   0.77084768   -6.9669346    331.00819  0.022299123  0.021966276            8 
 1238000   0.77398759   -6.9745112    330.44644  0.022243299  0.021949027           10 
 1239000    0.7572368   -6.9804532    330.58796  0.022234864  0.021931721            9 
 1240000   0.77498469   -6.9803239    329.53301  0.022146035  0.021914253            9 
 1241000   0.75347149   -6.9764255    330.39186  0.022185862   0.02189691           10 
 1242000   0.75471491   -6.9717322    329.81635  0.022129385  0.021879623            7 
 1243000    0.7507327   -6.9754819    330.24267  0.022140163  0.021862285           10 
 1244000   0.76809105   -6.9677856     330.8133  0.022160591  0.021845021            6 
 1245000   0.76131281   -6.9762079    331.69253  0.022201642  0.021827844           10 
 1246000   0.75697532   -6.9731169    331.83462  0.022193327  0.021810654           11 
 1247000   0.75053561   -6.9665296    331.48287  0.022152023  0.021793573            9 
 1248000   0.75838492    -7.007746    330.36775  0.022059812  0.021776483            6 
 1249000   0.76236457   -6.9883812    330.78061  0.022069696  0.021759379            8 
 1250000      0.75558   -6.9777736    331.35295  0.022090197  0.021742192           15 
 1251000   0.74980225   -7.0018515    330.78713  0.022034848  0.021724946            4 
 1252000   0.74387168   -6.9884065    330.54387  0.022001056  0.021707784            6 
 1253000    0.7535386   -6.9932734    332.06752  0.022084831  0.021690695            8 
 1254000   0.74511818   -7.0171178     330.8098  0.021983639  0.021673532           27 
 1255000   0.75540648   -6.9996914    331.35181  0.022002112  0.021656442           13 
 1256000   0.74699777   -7.0160223    330.15457   0.02190516  0.021639241           12 
 1257000   0.75963753   -7.0163892    331.17352  0.021955285  0.021621981           15 
 1258000   0.74774487   -6.9926824    330.60946  0.021900468  0.021604818            9 
 1259000   0.74983553   -6.9970301    330.60697  0.021882908  0.021587602           15 
 1260000   0.74082213   -7.0106914    331.67434  0.021936134  0.021570521           13 
 1261000   0.74510917   -6.9905496    331.26885  0.021891941  0.021553481           13 
 1262000    0.7567288   -7.0015076    331.95126  0.021919655  0.021536551           11 
 1263000   0.73781667   -7.0253813     332.0006  0.021905556  0.021519542           11 
 1264000   0.75292012   -6.9754111    330.93911  0.021818243  0.021502492            8 
 1265000   0.76031693   -6.9754252    332.26897  0.021888601    0.0214855           11 
 1266000   0.74640289   -7.0118271    331.73526  0.021836181  0.021468547           22 
 1267000   0.75227068   -7.0207035    331.94468   0.02183272  0.021451558           14 
 1268000   0.77076953   -7.0288957    330.94862  0.021750041  0.021434555           19 
 1269000   0.74821805   -7.0046313    331.95464  0.021798965  0.021417627           29 
 1270000   0.73977228   -7.0145905    331.86829  0.021776135  0.021400698           24 
 1271000   0.75214387   -7.0011089    332.09923  0.021774143  0.021383907           16 
 1272000   0.74697253   -6.9973926    332.61831  0.021791032  0.021367166           14 
 1273000   0.73852136   -6.9978202    332.37791  0.021758177  0.021350431           32 
 1274000   0.73396574    -6.986384    331.91493  0.021710814  0.021333714            6 
 1275000   0.73790465   -6.9850942    332.55237  0.021735449   0.02131693           11 
 1276000   0.73835216   -7.0043835    332.67815  0.021726629  0.021300224           16 
 1277000   0.74335007   -7.0319397    331.14875  0.021609812  0.021283462           15 
 1278000   0.74944999   -7.0442212    331.09135   0.02158916  0.021266588           10 
 1279000   0.74213804   -7.0254518    332.18539  0.021643562  0.021249695           11 
 1280000   0.73667691   -7.0230456    331.59079  0.021587942  0.021232874           26 
 1281000   0.74513234   -7.0214034    332.16386   0.02160837  0.021216116           34 
 1282000   0.73500349   -6.9990383    332.76563  0.021630631  0.021199298           14 
 1283000   0.74989701    -7.021718    332.02854  0.021565897  0.021182554           11 
 1284000   0.75269571   -7.0115276    332.73646  0.021595045  0.021165825           10 
 1285000   0.73967223    -7.057639    332.30105  0.021550003  0.021149139           19 
 1286000   0.74677516   -7.0242598     332.9265  0.021573775  0.021132428           12 
 1287000    0.7430423    -7.014395    332.76586  0.021546611  0.021115799           20 
 1288000   0.75230245   -7.0432146    332.52019  0.021513988  0.021099152           27 
 1289000   0.73216905   -7.0175195    333.04939   0.02153151  0.021082567           21 
 1290000    0.7353027   -7.0348856     333.3915  0.021536919  0.021065994           12 
 1291000   0.74975229   -7.0347693    332.99994  0.021494961  0.021049405           13 
 1292000   0.72859613   -7.0138659    333.64534  0.021519952  0.021033016           17 
 1293000   0.71484583   -7.0324109    333.31069  0.021481741  0.021016551            7 
 1294000   0.74627777    -7.042611    333.30159  0.021464554  0.021000046           20 
 1295000   0.73733619   -7.0398046    333.33032  0.021449827  0.020983523           14 
 1296000   0.74427501   -7.0350903    333.62613  0.021452297  0.020966993           14 
 1297000   0.71779778   -7.0440081    333.61426  0.021434995  0.020950511           20 
 1298000    0.7319816   -7.0352521    332.95834   0.02137637  0.020933966           21 
 1299000   0.73483812   -7.0713783    332.72559  0.021344983  0.020917457           26 
 1300000   0.73031611   -7.0395212    332.73605  0.021329234  0.020900875           33 
 1301000   0.72806659   -7.0670208     332.1981  0.021278382  0.020884355           25 
 1302000   0.73039614    -7.064872    332.29238  0.021268073  0.020867818           27 
 1303000   0.72837229   -7.0419318    333.21553  0.021310791  0.020851308           34 
 1304000   0.72777407   -7.0603535    333.45625  0.021309832  0.020834878           26 
 1305000   0.72322666   -7.0592142    333.94215  0.021324531  0.020818455           21 
 1306000   0.72339466   -7.0530135    332.72384  0.021230464  0.020801996           18 
 1307000    0.7246171   -7.0428822    332.67738  0.021211259  0.020785552           17 
 1308000   0.72026943   -7.0408165    333.75824  0.021263904  0.020769158           28 
 1309000   0.73858576   -7.0839272      332.716  0.021181309  0.020752696           30 
 1310000   0.72221841   -7.1061481    333.27072  0.021200428  0.020736123           32 
 1311000   0.72460664   -7.0514448     333.3318  0.021188139  0.020719638            5 
 1312000   0.73213671   -7.0622318    333.47825  0.021181291  0.020703223           24 
 1313000   0.72707127   -7.0851787    332.05558  0.021074866  0.020686745           12 
 1314000   0.72702474   -7.0681895    333.26967  0.021135824  0.020670233           27 
 1315000   0.74100652     -7.10932    331.83546  0.021028863    0.0206537           13 
 1316000    0.7322952   -7.0580723    333.36625  0.021109819  0.020637185           18 
 1317000   0.73256062   -7.0689692    332.90581  0.021064655  0.020620703            8 
 1318000   0.72192487   -7.0728492    332.58839  0.021028604  0.020604245           30 
 1319000   0.73742165   -7.0670592    332.64717  0.021016374  0.020587781           13 
 1320000   0.72270037    -7.071096    333.15895  0.021032762  0.020571375           14 
 1321000   0.72245619   -7.1083761    331.86247  0.020935054  0.020554899           11 
 1322000   0.72422399   -7.0756334    332.72947   0.02097387   0.02053843           22 
 1323000    0.7321218    -7.040231    333.59271  0.021012391     0.020522           32 
 1324000   0.74050828   -7.0480576    331.92659  0.020891654  0.020505481           24 
 1325000    0.7252841   -7.0829976    333.13227  0.020951715  0.020489012           24 
 1326000   0.72444929   -7.0594387    333.43801  0.020955129  0.020472633           24 
 1327000     0.727533   -7.0395625    333.17508  0.020922826  0.020456324           28 
 1328000   0.72259836   -7.0789907     333.2245  0.020910172  0.020440002           14 
 1329000   0.74474323   -7.0636833    333.15804  0.020890271  0.020423604           17 
 1330000   0.71391595   -7.0890703    333.30305   0.02088365  0.020407236            7 
 1331000   0.73646056   -7.0807457    332.96444   0.02084676  0.020390862           21 
 1332000    0.7128783   -7.0777423    333.11202  0.020840342  0.020374523           15 
 1333000   0.72962214   -7.0792557    332.83582  0.020807441  0.020358133           15 
 1334000   0.72810605    -7.077684    333.78182  0.020850938  0.020341735           11 
 1335000   0.71011845   -7.1032618    333.03424  0.020788654  0.020325416           18 
 1336000   0.71441301   -7.0818737    333.28143  0.020788512  0.020308964           48 
 1337000    0.7248495   -7.1140783    332.83016  0.020744837  0.020292505           25 
 1338000   0.71402939   -7.1097036    332.34959  0.020699401  0.020276078           20 
 1339000   0.71873185   -7.1044355    333.48526  0.020754621  0.020259588           23 
 1340000   0.71312702   -7.0957318    333.04825  0.020711956  0.020243107           16 
 1341000   0.71354457   -7.0709627    333.54188  0.020727186  0.020226714           15 
 1342000   0.72050389   -7.1162969    333.18559  0.020689617  0.020210389           34 
 1343000   0.71966295   -7.1072033    333.36017  0.020685044  0.020194008           17 
 1344000   0.70193722   -7.1027537    332.97782  0.020645946  0.020177685           18 
 1345000   0.70315568   -7.1330363    333.28078  0.020649367  0.020161279           12 
 1346000   0.69879507   -7.1003844    332.93442  0.020612581  0.020144915           18 
 1347000    0.7224551   -7.1125984    333.12383  0.020608997  0.020128533           18 
 1348000   0.72446373   -7.1118921    332.67694  0.020566082  0.020112177           17 
 1349000   0.71730846   -7.1345919    332.51656  0.020540929  0.020095865           10 
 1350000   0.72847068   -7.1000981    332.79512  0.020542909  0.020079584            9 
 1351000   0.72106223   -7.1167478     332.3853  0.020502424  0.020063355           16 
 1352000   0.72338477   -7.1127307    333.51897  0.020557136  0.020047106           13 
 1353000   0.72085663   -7.1375887    332.61417  0.020486214  0.020030784           32 
 1354000   0.73480322   -7.1170512      333.118  0.020502093  0.020014409           11 
 1355000   0.72671588   -7.1428402    333.74184  0.020525328  0.019998083           34 
 1356000   0.71722772    -7.128832    332.66775  0.020444183  0.019981778           23 
 1357000   0.71700539    -7.142653    332.65183   0.02042814  0.019965472           11 
 1358000   0.69230874   -7.1299427    333.47174  0.020463411  0.019949222           15 
 1359000   0.70760312   -7.1268923    333.05944  0.020423071  0.019932952           17 
 1360000   0.71797323   -7.1276291    333.70345  0.020447515  0.019916679           17 
 1361000    0.7070348   -7.1157878    333.53863    0.0204224  0.019900466           18 
 1362000   0.70620539   -7.1163154    333.43697  0.020401185  0.019884301           35 
 1363000   0.71229186   -7.1257316    333.40936  0.020384529   0.01986818           19 
 1364000   0.71236593   -7.1345815    334.18222  0.020416802  0.019852069           14 
 1365000   0.71736931   -7.1431096    332.96293  0.020327407  0.019835904           11 
 1366000   0.71932755   -7.1315684    333.12036   0.02032213  0.019819772           13 
 1367000    0.7050532   -7.1172742    333.72212  0.020343948  0.019803714           20 
 1368000   0.71121223   -7.1191064    334.59353  0.020382159  0.019787634           30 
 1369000   0.69514819   -7.1262895    333.72725  0.020314539  0.019771702           21 
 1370000   0.70672589   -7.1087727    334.14846  0.020325332  0.019755806           23 
 1371000    0.7141242   -7.1302246    334.34404  0.020322395  0.019739911           25 
 1372000   0.69151122   -7.1174643    334.29466  0.020304583  0.019723994           15 
 1373000    0.7178198   -7.1397678    333.34702  0.020232278  0.019708088           16 
 1374000   0.70857594   -7.1175463    334.02592  0.020258729  0.019692242           10 
 1375000   0.69678026   -7.1454452    334.84495  0.020293634   0.01967638            9 
 1376000   0.69197711   -7.1086672    335.15088  0.020297413   0.01966057           15 
 1377000   0.69624696   -7.1180681    334.20614  0.020225498  0.019644796           16 
 1378000   0.70882292   -7.1351378    334.57845  0.020233336  0.019629043           15 
 1379000   0.70691709    -7.113567    335.26359  0.020260067  0.019613278           15 
 1380000   0.70846281   -7.1195439    334.55926  0.020202854  0.019597547            8 
 1381000   0.71184085   -7.1482779    334.59529  0.020190399  0.019581733           29 
 1382000   0.70601317   -7.1192717    334.65359  0.020179305  0.019566001           15 
 1383000   0.70063864   -7.1460948    334.32022  0.020144626  0.019550176           17 
 1384000   0.71214685   -7.1421964    334.06995  0.020115002  0.019534446           15 
 1385000   0.68550241   -7.1512985    333.86679  0.020088255  0.019518655           25 
 1386000   0.70861048    -7.159495    334.24459  0.020096476  0.019502798           12 
 1387000   0.69754775   -7.1519735    333.46655  0.020035241  0.019487045           12 
 1388000   0.69928253   -7.1672788     334.2459  0.020067597  0.019471265           17 
 1389000   0.69418093    -7.165761     333.7424  0.020022942  0.019455489           26 
 1390000   0.69389617   -7.1668788     333.4912  0.019993477  0.019439672           23 
 1391000    0.7182478   -7.1454379    334.20512  0.020021874  0.019423899           16 
 1392000   0.70384459   -7.1661573    333.76688  0.019981255  0.019408153           10 
 1393000   0.70249917   -7.1642302    333.52821  0.019952633  0.019392307           20 
 1394000   0.70109803   -7.1742271    333.05915  0.019910279  0.019376454           40 
 1395000   0.69722454   -7.1872761    332.66539  0.019872484  0.019360624           42 
 1396000   0.69761705   -7.1849221    333.63906  0.019916372  0.019344777           26 
 1397000   0.68673852   -7.1686389    333.86019  0.019915306  0.019328977           24 
 1398000   0.69086209   -7.1653806    334.09246  0.019914906  0.019313144           27 
 1399000   0.69433054   -7.1862509    333.93696  0.019891408  0.019297325           31 
 1400000   0.69404526   -7.2171284    333.45864  0.019848728  0.019281479           18 
 1401000   0.69781388   -7.1902512    334.39336  0.019890159  0.019265613           24 
 1402000   0.71861735   -7.1877616    332.74634  0.019778075  0.019249693           44 
 1403000   0.68947987   -7.1720337    333.63727  0.019816896  0.019233893           47 
 1404000   0.71106189   -7.1922946    332.55971  0.019738824  0.019218074           59 
 1405000   0.70905107   -7.1999819    333.92562   0.01980579  0.019202253           76 
 1406000   0.68893239   -7.1776769    333.27257  0.019752997   0.01918646           27 
 1407000   0.68113832   -7.1760782    333.57138  0.019756656  0.019170639           43 
 1408000   0.69671333   -7.2176811    333.37785   0.01973117  0.019154796           62 
 1409000   0.69114719   -7.1610229    333.75408  0.019739418   0.01913905           84 
 1410000    0.6716372   -7.1905273    333.79098  0.019727599  0.019123312           28 
 1411000    0.6787166    -7.188381     333.2033   0.01967891  0.019107572           50 
 1412000   0.67828502   -7.1940103    333.82487  0.019701657  0.019091824           30 
 1413000   0.69162531    -7.178982    333.68323   0.01967936   0.01907608           30 
 1414000   0.69388378   -7.2288036      333.021  0.019626415   0.01906036           38 
 1415000   0.67223166   -7.1912536    333.62644    0.0196482  0.019044635           38 
 1416000   0.68655705   -7.1710504    334.39612  0.019679621   0.01902898           39 
 1417000   0.68214029   -7.2060828    334.29689  0.019659897  0.019013319           40 
 1418000   0.67546154   -7.1794384    334.19067   0.01963979  0.018997647           60 
 1419000     0.687814   -7.2035268    333.49509  0.019585101  0.018981986           35 
 1420000   0.67836317   -7.1978924    333.08663  0.019547337  0.018966286           35 
 1421000   0.67089245   -7.1944683    333.64369   0.01956625  0.018950637           39 
 1422000   0.68068787   -7.2073391    333.61428  0.019550766  0.018934956           60 
 1423000   0.67094109    -7.175117    333.32193  0.019519907  0.018919275           54 
 1424000    0.6643614   -7.2125926    333.20391  0.019499292  0.018903635           67 
 1425000   0.67191453   -7.1928195    333.67786  0.019513325  0.018887969          101 
 1426000   0.69504539   -7.1958788    333.65866  0.019498519  0.018872389           75 
 1427000   0.69158741   -7.2012673     334.0736  0.019509087  0.018856784           44 
 1428000   0.69282508   -7.1997339    333.50264  0.019462106  0.018841191           48 
 1429000   0.68423516   -7.2118442    333.39123  0.019441989  0.018825582           37 
 1430000   0.67963365   -7.1974981    334.06079  0.019467412  0.018810022           24 
 1431000    0.6832763   -7.2445734    333.37754  0.019414019   0.01879438           32 
 1432000   0.68205305   -7.2287482    332.99755  0.019378349  0.018778782           48 
 1433000   0.68979358   -7.2306559    333.94219   0.01941976  0.018763225           52 
 1434000   0.67834491   -7.2393091    333.86787  0.019401899  0.018747685           69 
 1435000   0.67140979   -7.1916566    333.91621  0.019391185  0.018732176           51 
 1436000   0.67991248   -7.2123097    333.93319  0.019378667  0.018716686           44 
 1437000    0.6802371   -7.2133567    333.11858  0.019317941  0.018701179           52 
 1438000   0.67029862   -7.2099359    334.22233  0.019368471  0.018685751           22 
 1439000    0.7030501   -7.2139132    333.46724  0.019311283    0.0186703           56 
 1440000   0.67257629   -7.1955302    333.59037  0.019304998  0.018654851           24 
 1441000    0.6710987   -7.2156126    333.86447  0.019307453  0.018639477           86 
 1442000    0.6917404   -7.1823302    334.79877  0.019348057   0.01862407           31 
 1443000   0.68451406   -7.2273489    333.69147  0.019270702  0.018608671           32 
 1444000   0.67658512   -7.1900297    333.96879   0.01927336  0.018593337           22 
 1445000   0.68107267   -7.2131095    334.10986  0.019268158  0.018578047           58 
 1446000   0.67037338   -7.2107773    334.51845   0.01927838  0.018562776           24 
 1447000   0.66894552   -7.2295282    333.44441  0.019203203  0.018547426           56 
 1448000    0.6638697   -7.2272496     334.3611  0.019242697  0.018532048           40 
 1449000   0.68257982    -7.232085    333.04698   0.01915384    0.0185167           86 
 1450000   0.66433671   -7.2181465    333.77591  0.019182524  0.018501377           95 
 1451000   0.68339237   -7.2211268    333.30687  0.019142365  0.018486055           40 
 1452000   0.69306774   -7.2154986    333.10663   0.01911769  0.018470705           43 
 1453000   0.68338956   -7.2267404    333.06517  0.019102155  0.018455417          113 
 1454000   0.67589467   -7.2241805    333.70977  0.019125961  0.018440131           49 
 1455000   0.69228388   -7.2293015    333.00726  0.019072581  0.018424822           30 
 1456000   0.65793468   -7.2334758    333.69442  0.019098811  0.018409539           91 
 1457000   0.66559002   -7.2639158    332.89333  0.019039884  0.018394246           71 
 1458000   0.65846867   -7.2518542    333.39741  0.019055636  0.018378926           60 
 1459000    0.6511643     -7.22868    333.34335  0.019039487  0.018363655           66 
 1460000   0.65431075   -7.2665942    334.09792  0.019069516  0.018348406           66 
 1461000   0.66575159   -7.2459156    333.87035  0.019043484  0.018333156           87 
 1462000    0.6821167   -7.2482379    334.06196   0.01904138   0.01831789           51 
 1463000   0.67104064   -7.2551741    332.68063  0.018949683  0.018302636           58 
 1464000   0.66835391    -7.279951    332.94742  0.018951925  0.018287353          148 
 1465000   0.67552394   -7.2465253    333.74665  0.018984451  0.018272052          142 
 1466000   0.65797237   -7.2618829    332.96623  0.018927139  0.018256783           84 
 1467000   0.66817318   -7.2509366     332.9889  0.018915525    0.0182415           69 
 1468000   0.66299567   -7.2778266    332.63188  0.018882373  0.018226264          174 
 1469000   0.65901519   -7.2670959    333.72245  0.018931385  0.018210988          121 
 1470000   0.67169917   -7.2614044    332.97824  0.018876317  0.018195695          144 
 1471000   0.67315813   -7.2796421    333.40073  0.018887419  0.018180354          177 
 1472000   0.67878995   -7.2632545    332.84623  0.018843197  0.018165054           48 
 1473000   0.66576805    -7.286609     333.0972  0.018844603  0.018149765          213 
 1474000   0.65004519    -7.268231    332.07865  0.018774234  0.018134471          145 
 1475000   0.65872685   -7.2902871     332.6281  0.018792548    0.0181192          217 
 1476000   0.66603443   -7.2924781    332.63096  0.018779978  0.018103951          172 
 1477000   0.66501733    -7.286375    332.92056  0.018783602   0.01808871          151 
 1478000   0.66795448   -7.2947734    332.73066  0.018760186  0.018073489          203 
 1479000   0.65328035   -7.3184477    332.70272  0.018745928  0.018058268          107 
 1480000    0.6510626   -7.2768698    333.12943  0.018757288  0.018043025           48 
 1481000   0.65789751   -7.2943722    332.82685  0.018727597  0.018027806          140 
 1482000   0.65950427   -7.3146326    332.19673  0.018679528  0.018012559          180 
 1483000   0.66156008   -7.2992421    332.18019  0.018666003   0.01799734          118 
 1484000   0.66538881   -7.2992921    332.39741  0.018665623   0.01798212          107 
 1485000   0.65994762   -7.2966162    332.98308  0.018685919  0.017966932          190 
 1486000   0.66027193   -7.3019317    331.88164  0.018611577  0.017951761          134 
 1487000   0.65295408   -7.3076142    333.67667  0.018699657  0.017936612          133 
 1488000   0.65551393   -7.3137074     332.7539  0.018635411  0.017921454           96 
 1489000   0.65729488   -7.2861787    332.75872  0.018623165  0.017906332           81 
 1490000   0.66228733    -7.287827    332.86843  0.018616803    0.0178912           46 
 1491000   0.66425618   -7.3155765    332.25295  0.018569917  0.017876037           95 
 1492000   0.63836029   -7.2903266    332.93759   0.01859571  0.017860933          110 
 1493000    0.6487171   -7.2958771    332.85179  0.018578466  0.017845832          144 
 1494000   0.67113372    -7.276452    333.11448  0.018580683  0.017830734          154 
 1495000   0.66713405   -7.2844689    333.31817  0.018579608  0.017815707          158 
 1496000    0.6534639   -7.2921241    332.10165  0.018499424  0.017800725          231 
 1497000   0.64821992   -7.3093441    332.63316  0.018516653  0.017785698          201 
 1498000   0.65637503    -7.292182    332.62669  0.018503932  0.017770679          298 
 1499000   0.66401221   -7.2691683    332.86628  0.018504908  0.017755671          235 
 1500000   0.65473248   -7.3002737    333.23373  0.018512985  0.017740699          332 
 1501000    0.6625686   -7.3051104    332.89158  0.018481656   0.01772576          351 
 1502000   0.65296748   -7.3068044    332.86122  0.018467666  0.017710803          336 
 1503000   0.64503523   -7.3172434    331.98009  0.018406525  0.017695812          332 
 1504000   0.65130838   -7.2833505    332.76866   0.01843798  0.017680858          299 
 1505000   0.66993792   -7.2984955    332.81817   0.01842847   0.01766587          169 
 1506000   0.64296458    -7.302568     332.4037  0.018393299  0.017650917          347 
 1507000   0.65124284   -7.2997898    332.60717  0.018392345  0.017635975          402 
 1508000   0.64455521    -7.317872    332.76954  0.018389121  0.017621044          364 
 1509000   0.65309788     -7.32297     332.5868  0.018366843  0.017606122          211 
 1510000   0.64100775   -7.3458738    332.09549  0.018327565  0.017591206          322 
 1511000   0.64222303   -7.3157348    332.38613  0.018331465   0.01757621          390 
 1512000   0.63582031   -7.3477033    331.42528  0.018266384  0.017561217          294 
 1513000   0.65718584   -7.3203073     331.7448   0.01827191  0.017546266          298 
 1514000    0.6462184   -7.3407496    331.99891  0.018273828   0.01753132          369 
 1515000   0.66009461   -7.3008278    331.84142  0.018253103  0.017516377          275 
 1516000   0.63758503   -7.3128908    332.36989  0.018270113   0.01750148          176 
 1517000   0.65902463   -7.3339617    332.77784  0.018280479  0.017486606          301 
 1518000   0.64666963   -7.2744329    333.18589  0.018290837  0.017471778          239 
 1519000   0.63865632   -7.3265503    332.70637  0.018252489  0.017457005          309 
 1520000   0.64926302   -7.3251257     332.3031  0.018218372  0.017442244          272 
 1521000   0.64930733   -7.3302414    332.65239  0.018225531  0.017427464          248 
 1522000    0.6369902   -7.3279104    332.12771  0.018184828  0.017412663          252 
 1523000   0.62933832   -7.3520711     331.4198  0.018134154  0.017397848          254 
 1524000   0.63843558   -7.3349587    331.36787  0.018119415  0.017383008          207 
 1525000   0.64573172   -7.3338972    332.25423  0.018155969  0.017368228          204 
 1526000    0.6473032   -7.3501681    332.30559  0.018146876  0.017353469          201 
 1527000   0.65224489   -7.3379591    332.65192  0.018153892  0.017338666          283 
 1528000   0.63871321   -7.3476734    332.45024  0.018131012  0.017323923          230 
 1529000   0.64006995    -7.352536    332.24669   0.01810806  0.017309175          269 
 1530000   0.64173649   -7.3176782    332.25571  0.018096716  0.017294406          199 
 1531000    0.6399246   -7.3527617    331.63303  0.018051003  0.017279672          281 
 1532000   0.63685351   -7.3395166    331.90282  0.018053896   0.01726493          343 
 1533000    0.6482176   -7.3640546     332.1337  0.018054669  0.017250197          316 
 1534000   0.63626738   -7.3565492      331.126  0.017988157  0.017235459          285 
 1535000   0.64163681   -7.3424659    331.57729  0.018000938  0.017220791          299 
 1536000   0.63814074   -7.3441973    331.71426  0.017996651   0.01720607          297 
 1537000   0.63858575   -7.3674549    331.22265  0.017958287   0.01719139          280 
 1538000   0.63041904   -7.3604052    331.35737   0.01795391   0.01717667          216 
 1539000   0.63949677   -7.3669756    332.34609  0.017995781  0.017161959          313 
 1540000   0.64126495   -7.3885145      331.533  0.017940097   0.01714724          300 
 1541000   0.63687061   -7.3856583    332.25749  0.017967634  0.017132549          288 
 1542000   0.64089881   -7.3933593    331.54493  0.017917473  0.017117861          409 
 1543000   0.63711334   -7.3872308    332.23532  0.017943148   0.01710317          301 
 1544000   0.62595041   -7.3817084     332.2922  0.017934596  0.017088523          325 
 1545000   0.63688239   -7.3566709    331.90838  0.017902286  0.017073889          304 
 1546000   0.63373888   -7.4001101    331.06479  0.017845234  0.017059236          380 
 1547000   0.64515669   -7.3761632    331.62554  0.017863906  0.017044568          319 
 1548000   0.62300137   -7.3860115    331.27191  0.017833329  0.017029933          413 
 1549000   0.62541891   -7.3672203    331.63284  0.017841233  0.017015261          283 
 1550000   0.66126974   -7.3965113     330.8836  0.017789441  0.017000664          395 
 1551000   0.63557135   -7.3923409     331.0989  0.017789539  0.016986035          307 
 1552000   0.61847592   -7.3783775    331.25178  0.017786285  0.016971427          233 
 1553000     0.623953   -7.3881682    330.95509  0.017758912  0.016956848          305 
 1554000   0.63473809   -7.4110873     330.7611  0.017737082  0.016942299          302 
 1555000   0.64877329   -7.3782001     331.4775  0.017764068  0.016927729          364 
 1556000   0.63192592   -7.4000183    331.71961  0.017765618  0.016913207          360 
 1557000   0.62779546   -7.4030628    331.29459   0.01773146  0.016898653          376 
 1558000   0.63377697   -7.3976714    330.70171  0.017688367  0.016884107          262 
 1559000   0.63287419   -7.3734983    331.73829  0.017732429  0.016869578          296 
 1560000    0.6201449   -7.3890193    331.57202   0.01771218  0.016855063          325 
 1561000   0.64081894    -7.398924    331.20227  0.017681095  0.016840547          334 
 1562000   0.62662682   -7.4059425    330.44822  0.017629547   0.01682605          338 
 1563000    0.6288967   -7.3976965    331.44384   0.01767135  0.016811549          334 
 1564000   0.63497254   -7.3959716    330.64365  0.017617415  0.016797086          347 
 1565000   0.62991231   -7.4068264    330.41196  0.017593821  0.016782616          346 
 1566000   0.62429593   -7.3996579    330.84514  0.017605637  0.016768122          298 
 1567000   0.62713587   -7.3711964    331.55631  0.017632222  0.016753663          297 
 1568000   0.62262392   -7.4233842    330.20016  0.017548903  0.016739209          344 
 1569000   0.63066604   -7.4012844    330.87474  0.017573547  0.016724762          232 
 1570000   0.62412677   -7.4369444    330.85701  0.017561412  0.016710312          376 
 1571000   0.62869079   -7.4407992    330.74995  0.017544555  0.016695881          438 
 1572000   0.62462946   -7.4138515     330.9633  0.017544704  0.016681461          408 
 1573000   0.62625019   -7.3915973    331.58618  0.017566549  0.016667112          400 
 1574000   0.62057555   -7.4094818    331.15403  0.017532509  0.016652781          349 
 1575000   0.61189989    -7.418557    331.04229  0.017515465   0.01663846          383 
 1576000   0.62413085   -7.3956844    331.46642  0.017526778  0.016624165          446 
 1577000   0.62939635   -7.4035086    331.43571  0.017514041  0.016609887          366 
 1578000    0.6245044    -7.405954    331.35087  0.017498462  0.016595643          475 
 1579000    0.6240503   -7.4165892    330.85653   0.01746129  0.016581386          426 
 1580000   0.62472063    -7.410557    331.15161  0.017465802  0.016567142          361 
 1581000   0.61235695   -7.4188115    331.30291   0.01746273  0.016552909          578 
 1582000   0.63010486   -7.4140384    331.73485  0.017474444   0.01653867          295 
 1583000   0.63766452     -7.41317    330.69575  0.017408704  0.016524447          474 
 1584000   0.62322347   -7.4106465    331.38329  0.017433885  0.016510255          344 
 1585000   0.61899531    -7.402491    331.32415  0.017419777  0.016496095          320 
 1586000   0.61585958   -7.4114323     331.5142  0.017418779  0.016481937          298 
 1587000   0.61655107   -7.4205767    331.05887  0.017383893   0.01646778          483 
 1588000   0.63544879   -7.4190972     330.9718  0.017368378  0.016453656          296 
 1589000   0.60658969   -7.4026647    331.05741  0.017361937  0.016439532          329 
 1590000   0.61034047   -7.4086287    331.30375  0.017363928  0.016425392          316 
 1591000   0.62475659   -7.4275358    330.82733  0.017328061  0.016411282          320 
 1592000   0.61405544    -7.439827    331.08491  0.017330659  0.016397158          449 
 1593000   0.63016285   -7.4092969    331.53835    0.0173435  0.016383034          222 
 1594000   0.61205082   -7.4381699     330.8189  0.017295007  0.016368912          296 
 1595000   0.59957796    -7.410934    330.28163  0.017256093  0.016354778          311 
 1596000   0.61398427   -7.4360678    331.00912  0.017283266  0.016340633          340 
 1597000   0.62529833   -7.4297026    331.60311   0.01730344  0.016326526          252 
 1598000   0.61245695   -7.4428305    330.27869  0.017223545  0.016312429          462 
 1599000   0.61073255   -7.4212792    330.49951  0.017224282  0.016298349          389 
 1600000   0.62462906   -7.4234197    330.65264  0.017221492  0.016284272          371 
 1601000   0.60950982   -7.4434564    330.79624   0.01721821  0.016270214          384 
 1602000   0.60709741   -7.4073054    330.56376  0.017195368  0.016256147          374 
 1603000   0.62152771   -7.4357411    330.57176  0.017185057  0.016242111          407 
 1604000   0.61488211   -7.4187353      330.786  0.017185474  0.016228083          233 
 1605000   0.60432576   -7.4356913    331.14701   0.01719351  0.016214058          401 
 1606000   0.61661998   -7.4559228    330.51997  0.017150268  0.016200055          422 
 1607000   0.60296627   -7.4353669    330.08477  0.017117028  0.016186033          405 
 1608000   0.62518574   -7.4143602    330.34421  0.017119829  0.016172021          547 
 1609000   0.61482944   -7.4420539     330.1496  0.017099109  0.016158016          306 
 1610000   0.61668948   -7.4437547    329.64173  0.017062201  0.016144034          373 
 1611000    0.6247845   -7.4279939    330.65324  0.017103934  0.016130071          455 
 1612000   0.61416162   -7.4525026    329.94462   0.01705669  0.016116092          337 
 1613000   0.60905244   -7.4535671    330.55753  0.017077781  0.016102147          404 
 1614000   0.61575496   -7.4486331    330.00512  0.017038678  0.016088215          379 
 1615000    0.6183445   -7.4534917    330.44813  0.017050987  0.016074272          403 
 1616000   0.60667563   -7.4663268    330.39656  0.017037776  0.016060358          426 
 1617000   0.60259519   -7.4459392    329.95585  0.017004527  0.016046451          359 
 1618000   0.61584538   -7.4749682     330.1424  0.017003626  0.016032573          376 
 1619000   0.59983596   -7.4482003    329.54286  0.016962264   0.01601868          509 
 1620000   0.61466802    -7.461814    330.49132  0.017000582  0.016004787          380 
 1621000   0.60576664   -7.4561205    329.51792  0.016940053  0.015990882          460 
 1622000   0.60612502    -7.462177    330.17179  0.016963203  0.015977032          379 
 1623000   0.59945693   -7.4750536     329.5753  0.016922125  0.015963202          488 
 1624000   0.61130692   -7.4579646    329.69924  0.016918065  0.015949355          341 
 1625000   0.60794191   -7.4552891     330.3294  0.016939969  0.015935546          362 
 1626000   0.61390471   -7.4682483    330.55955  0.016941346  0.015921732          504 
 1627000   0.60141559   -7.4544006    330.42192  0.016923884  0.015907948          420 
 1628000   0.60807344    -7.450772     329.9773   0.01689073  0.015894167          468 
 1629000   0.59745711   -7.4682811    329.72039  0.016867219  0.015880372          603 
 1630000   0.60722474   -7.4631251     329.2023  0.016830383  0.015866618          435 
 1631000   0.59730527   -7.4709991    330.38543  0.016880514  0.015852867          387 
 1632000   0.60770249   -7.4703071     329.5032  0.016825123  0.015839105          345 
 1633000   0.60174725   -7.4537846    330.40774  0.016860979  0.015825367          552 
 1634000   0.60217414   -7.4817445    329.28541  0.016793422  0.015811624          566 
 1635000   0.59051792   -7.4694235    329.55157  0.016796716  0.015797911          523 
 1636000   0.60385173   -7.4646056    330.46469  0.016832961   0.01578424          493 
 1637000   0.60841917   -7.4781499    329.37979   0.01676745  0.015770576          438 
 1638000   0.60107816    -7.489356    330.29836  0.016803946  0.015756925          515 
 1639000    0.5924646   -7.4689223    329.97055  0.016777026  0.015743284          395 
 1640000   0.58828428   -7.4810035    329.62445   0.01674921  0.015729628          516 
 1641000   0.59073373   -7.4548726    329.62052  0.016738804  0.015716024          558 
 1642000   0.59708279    -7.461856    329.57284  0.016726189  0.015702434          585 
 1643000   0.59960044   -7.4731349    330.15437  0.016745505  0.015688875          344 
 1644000   0.58793198   -7.4599024    329.29591  0.016691804  0.015675322          411 
 1645000   0.59549046   -7.4643838    329.94148  0.016714361  0.015661743          311 
 1646000   0.59095618   -7.4630913    330.03713  0.016709049  0.015648165          407 
 1647000   0.58984739   -7.4703174    330.04247  0.016699174  0.015634618          529 
 1648000   0.57786306    -7.487291    330.21028  0.016697526  0.015621072          494 
 1649000   0.59029745   -7.4997771     329.7382  0.016663543  0.015607551          408 
 1650000   0.59224449   -7.4940524     329.5473  0.016643803  0.015594049          518 
 1651000   0.60798339   -7.4690943    329.65308  0.016639061  0.015580587          425 
 1652000   0.59043182   -7.4899388    329.77692  0.016635236  0.015567094          359 
 1653000   0.58952632   -7.4587171    329.98789  0.016635808  0.015553641          450 
 1654000   0.59121489   -7.4749175    330.07347  0.016630062  0.015540181          525 
 1655000   0.60233323   -7.4639293    330.33548  0.016633206  0.015526733          417 
 1656000   0.59285047    -7.464051    329.24842  0.016568459  0.015513325          560 
 1657000   0.58231448       -7.482    330.14511  0.016603556  0.015499896          375 
 1658000   0.59880299   -7.4890933    329.56729    0.0165645  0.015486495          615 
 1659000   0.59231642   -7.4756515    329.72292  0.016562333   0.01547309          557 
 1660000   0.58706607   -7.4878017    329.49773  0.016541051   0.01545969          766 
 1661000   0.59202238   -7.4962908    329.73715  0.016543104  0.015446304          361 
 1662000   0.59325665   -7.4944357    328.96307  0.016494338   0.01543293          664 
 1663000   0.58741461   -7.4724075    330.62677  0.016567788  0.015419598          652 
 1664000   0.60498526    -7.505285    329.93261  0.016523067  0.015406257          524 
 1665000   0.59197525   -7.5201772    329.57515  0.016495253  0.015392945          591 
 1666000   0.58553465    -7.494715    329.33829  0.016473504  0.015379611          502 
 1667000   0.59183102   -7.4766612    329.20279  0.016456848  0.015366303          556 
 1668000   0.59824051    -7.503892    330.20817  0.016497211  0.015353014          594 
 1669000   0.57400543   -7.4912373    329.50951  0.016452442  0.015339743          595 
 1670000   0.59263282   -7.5052952    329.18458  0.016426376  0.015326474          612 
 1671000    0.5754038   -7.4825726    329.67866  0.016441186  0.015313223          689 
 1672000   0.58477447   -7.5099795    329.12619  0.016403817  0.015299974          568 
 1673000   0.57402909   -7.4976126    329.49773  0.016412519  0.015286757          420 
 1674000    0.5737287   -7.4826668    329.83287  0.016419398  0.015273561          634 
 1675000   0.57738252   -7.4877895    329.79696  0.016407809  0.015260365          577 
 1676000   0.60341208   -7.5011253    329.32944  0.016374773  0.015247187          454 
 1677000   0.58680422   -7.4986856    329.73055  0.016384941  0.015234004          664 
 1678000   0.58906486   -7.4917661    329.22712  0.016350175  0.015220822          647 
 1679000   0.57082992   -7.5009317    328.58607   0.01630862   0.01520764          581 
 1680000    0.5566194    -7.513625    329.42668  0.016340609  0.015194454          554 
 1681000    0.5802421   -7.5372791    329.02057  0.016310756  0.015181282          534 
 1682000   0.57326145   -7.5016807    329.22784  0.016311328  0.015168101          561 
 1683000   0.58938722   -7.4946146     329.3897   0.01630965  0.015154954          521 
 1684000    0.5820211   -7.5172456    329.67812  0.016314238  0.015141837          496 
 1685000   0.57818775   -7.5198001      328.867  0.016264441   0.01512873          690 
 1686000   0.57236114   -7.4917857    329.13401  0.016267992  0.015115631          382 
 1687000   0.59560062   -7.5052332    329.29422  0.016266262  0.015102551          412 
 1688000   0.58690914    -7.519461    329.73924  0.016278596  0.015089517          668 
 1689000   0.57836793   -7.5058708    328.56907  0.016211223  0.015076459          569 
 1690000    0.5867563   -7.5218972    329.09734   0.01622768  0.015063425          562 
 1691000   0.57599689   -7.5264382    328.66479  0.016196767  0.015050378          481 
 1692000    0.5651721    -7.515888    329.12842  0.016210029  0.015037354          542 
 1693000   0.58009292    -7.530125     328.7878  0.016183688  0.015024328          608 
 1694000   0.57051575   -7.5106339    328.98402  0.016183787  0.015011315          484 
 1695000   0.57212572   -7.5132769    328.93236  0.016171699   0.01499835          587 
 1696000   0.57891887   -7.5246742    329.36056  0.016183204  0.014985355          515 
 1697000   0.56931671   -7.5265554    328.79537  0.016145913  0.014972363          523 
 1698000   0.57889179   -7.5270901    328.73293   0.01613334  0.014959388          627 
 1699000   0.56637035   -7.5216425    328.38708  0.016106881  0.014946414          701 
 1700000   0.57151524   -7.5215445    329.36635  0.016145409  0.014933482          460 
 1701000   0.57712128   -7.5220771    328.99193  0.016117575  0.014920569          543 
 1702000   0.55943477    -7.505936    328.64751  0.016091241  0.014907662          486 
 1703000   0.57612926   -7.5110406    328.91045  0.016094659  0.014894764          443 
 1704000   0.57021343   -7.5142534    329.54538  0.016116265  0.014881874          516 
 1705000   0.56878987   -7.5151605    328.70149  0.016065566   0.01486898          571 
 1706000   0.56971284   -7.5143222    328.64195  0.016053241   0.01485611          468 
 1707000   0.55944309   -7.5494489    328.84551  0.016053774  0.014843261          588 
 1708000   0.57680006   -7.5323587    329.20586  0.016061957  0.014830415          423 
 1709000   0.58540001   -7.5211312    328.79859  0.016032699  0.014817596          423 
 1710000   0.58428312   -7.5361064    328.58101   0.01601272  0.014804778          497 
 1711000   0.57658079   -7.5302398    328.23607  0.015986561  0.014791969          523 
 1712000   0.57203439   -7.5299019     329.3174  0.016029858  0.014779179          521 
 1713000   0.55101904   -7.5218023     328.4925  0.015980371  0.014766403          561 
 1714000   0.56761531    -7.551911    328.58018   0.01597531  0.014753647          579 
 1715000   0.57440485   -7.5343961    328.66116   0.01596993  0.014740869          549 
 1716000   0.56154182   -7.5316281    328.74242   0.01596457  0.014728126          511 
 1717000   0.56344348   -7.5358597    328.49323  0.015943177  0.014715398          665 
 1718000   0.57433554   -7.5276065    328.57859  0.015938038  0.014702683          417 
 1719000   0.56076867   -7.5573962    328.10262  0.015905692  0.014689982          583 
 1720000   0.57122634   -7.5439501    328.26619   0.01590437  0.014677291          551 
 1721000   0.57762019   -7.5450226    328.94798  0.015928142  0.014664616          453 
 1722000   0.56553367   -7.5445514    328.96236  0.015919588  0.014651939          476 
 1723000   0.55348168   -7.5236725    328.60237  0.015892937  0.014639285          546 
 1724000   0.56182502   -7.5404967    328.98421  0.015902176  0.014626634          502 
 1725000    0.5712579   -7.5449168    328.65251  0.015876933     0.014614          665 
 1726000   0.57917146   -7.5425925    328.37624  0.015854396  0.014601378          591 
 1727000   0.56906786   -7.5379593    328.34927  0.015843914  0.014588759          642 
 1728000   0.56279465    -7.536582    328.13123   0.01582423  0.014576167          632 
 1729000   0.56809776   -7.5496336    328.75255  0.015845024  0.014563565          600 
 1730000   0.55424522     -7.54303    328.16518  0.015807571     0.014551          664 
 1731000   0.55759164   -7.5617985    329.47185  0.015861345  0.014538447          569 
 1732000    0.5706472   -7.5466421    328.73064  0.015816524  0.014525902          595 
 1733000   0.57133105   -7.5609206    328.70197  0.015806019  0.014513371          707 
 1734000   0.55680756   -7.5497791    328.55679  0.015789926  0.014500851          637 
 1735000   0.55998002   -7.5457894    328.36979  0.015771844  0.014488363          588 
 1736000   0.56347103   -7.5479336    328.79295  0.015783072  0.014475854          651 
 1737000   0.56772013   -7.5516003    328.28922  0.015749819  0.014463376          553 
 1738000   0.54569936    -7.564511    328.66119  0.015758592  0.014450932          542 
 1739000   0.56099351   -7.5449685    328.56274  0.015744812  0.014438489          370 
 1740000   0.56449115   -7.5491866    328.76244  0.015745327  0.014426076          576 
 1741000    0.5586444   -7.5605761    328.29679  0.015713995  0.014413675          597 
 1742000   0.56019339   -7.5539095    328.13976  0.015697463  0.014401263          536 
 1743000   0.55392402   -7.5590762    328.96717  0.015728016  0.014388866          544 
 1744000   0.56277541   -7.5639825    328.38892  0.015691367  0.014376505          590 
 1745000   0.55919225   -7.5568296    328.31226  0.015678713  0.014364141          485 
 1746000   0.56922034   -7.5482356    328.67349  0.015686975  0.014351808          602 
 1747000   0.55369584   -7.5634867    328.61301   0.01567511  0.014339488          683 
 1748000   0.55418171   -7.5569947    328.81932  0.015675978  0.014327167          499 
 1749000   0.54531076   -7.5425946    329.17358  0.015683895  0.014314844          416 
 1750000   0.55723552   -7.5494773    328.46331   0.01564111  0.014302531          512 
 1751000   0.55765616   -7.5370951    328.96385  0.015655999  0.014290254          597 
 1752000   0.53466216   -7.5551835    328.55401  0.015627569  0.014277959          523 
 1753000   0.55710235   -7.5423387    328.38519  0.015610629  0.014265679          607 
 1754000   0.55075633   -7.5512859    328.47825   0.01560615  0.014253407          590 
 1755000   0.55060111   -7.5788454    327.52289  0.015551894  0.014241151          484 
 1756000   0.53553821   -7.5941487    328.01594  0.015566436  0.014228901          548 
 1757000   0.54685814   -7.5754355    327.79856  0.015547266  0.014216665          594 
 1758000   0.54590569   -7.5638499    327.69014  0.015533283  0.014204446          368 
 1759000   0.54352515   -7.5761614    327.97041   0.01553773  0.014192259          502 
 1760000   0.56115617    -7.559251    328.17307  0.015538497  0.014180082          636 
 1761000   0.55104362   -7.5616891    328.49941  0.015545117  0.014167907          621 
 1762000   0.55065454   -7.5934014    328.24601   0.01552431  0.014155745          646 
 1763000   0.54806952   -7.5754768     327.7518  0.015492144  0.014143592          623 
 1764000   0.54456941   -7.5694461    328.61652  0.015524212  0.014131454          512 
 1765000   0.55033958   -7.5771665    328.68324  0.015518567  0.014119298          560 
 1766000   0.53867079   -7.5654375    327.77032  0.015466701   0.01410719          691 
 1767000   0.56250051   -7.5568863    328.65761  0.015499793  0.014095078          573 
 1768000   0.53437247   -7.5583147    327.77584  0.015449464  0.014082997          519 
 1769000   0.54468648   -7.5778289    327.50079  0.015427774  0.014070915          615 
 1770000   0.53990135   -7.5718349    327.71437  0.015429113  0.014058838          640 
 1771000   0.54648202   -7.5519373    327.94577   0.01543129  0.014046782          530 
 1772000   0.54022625   -7.5943713    327.73855  0.015412836  0.014034738          598 
 1773000   0.54991552   -7.5502399    328.45786  0.015437951  0.014022694          620 
 1774000   0.55142775   -7.5745894    328.43705  0.015428272  0.014010655          547 
 1775000   0.54397121   -7.5740448    328.24058  0.015410356  0.013998639          534 
 1776000   0.53937751   -7.5768431    327.77316  0.015379747  0.013986634          541 
 1777000   0.54119936   -7.5607825    327.97741   0.01538067  0.013974643          619 
 1778000   0.55159581   -7.5834556     328.1207  0.015378736  0.013962665          678 
 1779000   0.54331841   -7.5955756    327.99288  0.015364103  0.013950693          487 
 1780000   0.53809859   -7.5744335    328.30721  0.015370188  0.013938738          515 
 1781000   0.53452265   -7.5783491    328.02506  0.015348356  0.013926787          547 
 1782000   0.54751169   -7.5823477    328.19516  0.015347698  0.013914854          522 
 1783000   0.53684206   -7.5675583    328.36327  0.015346947  0.013902935          479 
 1784000   0.52745644   -7.5698865    327.75013  0.015309703  0.013891018          516 
 1785000   0.54851716   -7.5796748    327.30826  0.015280498  0.013879124          560 
 1786000    0.5440591    -7.579898    327.76534  0.015293269   0.01386724          508 
 1787000   0.53544335   -7.5806649    328.27235  0.015308354  0.013855367          540 
 1788000   0.54459846   -7.5782004    327.37921  0.015258166  0.013843496          570 
 1789000   0.53569497    -7.587248    327.91111  0.015274413  0.013831637          622 
 1790000   0.54537966    -7.574069    327.58366  0.015250636  0.013819773          539 
 1791000    0.5283507   -7.5875581    328.11918  0.015267038  0.013807938          553 
 1792000   0.53669357   -7.5749269    327.43995  0.015226932  0.013796116          719 
 1793000   0.53216621   -7.5891757    327.66002  0.015228668  0.013784289          683 
 1794000   0.54254414   -7.5842151    327.52579  0.015213944  0.013772475          594 
 1795000   0.54600838   -7.6017801    328.20237  0.015236879   0.01376067          676 
 1796000   0.52492478   -7.5918039    327.51075  0.015196304  0.013748895          645 
 1797000   0.53655598   -7.5852879    327.40156  0.015182784  0.013737126          594 
 1798000   0.53750317   -7.6057142    327.86691  0.015195908  0.013725363          514 
 1799000   0.53746668    -7.593512    327.70041  0.015179749  0.013713608          558 
 1800000   0.53950096   -7.5876476    328.22688  0.015195689  0.013701885          651 
 1801000   0.52856536   -7.5874523    327.29955  0.015144344  0.013690153          655 
 1802000   0.52792482   -7.6223897    327.39854  0.015140517  0.013678431          654 
 1803000   0.52151946   -7.5988278    327.26591   0.01512599   0.01366671          477 
 1804000   0.51639259   -7.5992003    327.57462  0.015131865  0.013654994          643 
 1805000   0.54015052   -7.5946393    328.25927  0.015155091  0.013643304          658 
 1806000   0.52984495   -7.5984661    327.71908  0.015121774  0.013631638          410 
 1807000    0.5335441   -7.6124539    327.80616  0.015117421  0.013620006          743 
 1808000   0.53384968   -7.6010172    327.49522  0.015094728  0.013608384          645 
 1809000   0.52518426   -7.5982438    327.62027  0.015092144  0.013596768          447 
 1810000   0.52447273   -7.6216647    327.57227  0.015081596  0.013585161          561 
 1811000   0.53729804    -7.614403    327.49744  0.015069825   0.01357356          651 
 1812000   0.52256282   -7.5960805    327.68967  0.015070349   0.01356196          674 
 1813000   0.53852288   -7.6020611    327.23731  0.015041244  0.013550391          761 
 1814000   0.52238278   -7.5991032     327.4132  0.015041033  0.013538828          587 
 1815000   0.52644065   -7.6119169    327.32598  0.015028741  0.013527263          563 
 1816000   0.52688875   -7.6252833    327.45998  0.015026614  0.013515726          734 
 1817000   0.52728342   -7.6094839    327.51267  0.015020761   0.01350419          672 
 1818000   0.52987367   -7.6123474    326.99454  0.014988749  0.013492664          664 
 1819000   0.52720102   -7.6172663    327.17042  0.014988566  0.013481152          687 
 1820000   0.52741855    -7.610523    327.66993  0.015003202  0.013469654          597 
 1821000   0.52136499   -7.6029822    327.57178  0.014990471  0.013458152          672 
 1822000    0.5141021   -7.6206438    327.18526  0.014964566  0.013446666          675 
 1823000   0.51519912   -7.5976611     327.5717  0.014974022  0.013435194          691 
 1824000   0.52056183    -7.601015    327.27551   0.01495228  0.013423743          724 
 1825000   0.53618661   -7.6305867    326.98184  0.014930678  0.013412304          672 
 1826000   0.53027423   -7.6121871     327.2089  0.014932863  0.013400872          735 
 1827000   0.53114233   -7.6131854    327.99679  0.014960627  0.013389449          685 
 1828000   0.52618721   -7.6203898    327.26862  0.014919248  0.013378041          701 
 1829000   0.51540361   -7.5975541     327.3328  0.014914015  0.013366652          685 
 1830000   0.51904392   -7.6075687    327.52654  0.014914688  0.013355261          736 
 1831000   0.52287069   -7.6227512    326.86851  0.014876593  0.013343882          712 
 1832000   0.51944523   -7.6317549    327.86228  0.014913677   0.01333252          689 
 1833000   0.51519501    -7.614867    326.93695  0.014863473  0.013321158          672 
 1834000   0.51203369   -7.6405924    327.05586  0.014860771   0.01330982          730 
 1835000   0.53268125   -7.6296672    327.13263  0.014856159  0.013298487          757 
 1836000   0.51165563   -7.6304921    327.30769  0.014856014  0.013287176          714 
 1837000   0.51980235   -7.6230007    326.82556  0.014826055  0.013275884          679 
 1838000   0.51964956   -7.6265309     327.3535  0.014841925  0.013264593          636 
 1839000    0.5097123   -7.6125727    327.40095  0.014836005  0.013253322          725 
 1840000   0.52493724   -7.6339508    327.16217  0.014817127  0.013242052          713 
 1841000    0.5248679   -7.6108007    327.55328  0.014826782  0.013230808          648 
 1842000   0.51879565     -7.62783    326.80173  0.014784733   0.01321955          660 
 1843000   0.51012714    -7.608488     327.5854  0.014812145  0.013208305          737 
 1844000   0.51661186   -7.6297227    326.58952  0.014759107  0.013197077          676 
 1845000   0.51444365   -7.6264754    326.98151  0.014768813  0.013185848          569 
 1846000   0.50222015   -7.6290072    326.89454  0.014756886  0.013174629          678 
 1847000   0.51464374    -7.635162    326.83023  0.014745995  0.013163425          673 
 1848000   0.50912904   -7.6180074    326.84557  0.014738707  0.013152224          744 
 1849000   0.51007034   -7.6342536    327.01729  0.014738475  0.013141045          706 
 1850000   0.51540285   -7.6205006     326.7982   0.01472064  0.013129871          620 
 1851000   0.51531893     -7.62742    327.25897  0.014733431   0.01311871          729 
 1852000   0.51158843   -7.6340032    326.26664  0.014680824   0.01310757          645 
 1853000   0.51742643   -7.6452267    326.49316  0.014683089  0.013096425          720 
 1854000   0.51749063    -7.634937    327.13301  0.014703929  0.013085293          764 
 1855000   0.51083888    -7.642467     326.9659  0.014688495  0.013074182          763 
 1856000   0.51043813   -7.6267675    327.26288  0.014693915  0.013063086          779 
 1857000   0.50310606   -7.6456397    326.85049  0.014667496  0.013051993          635 
 1858000   0.50302976   -7.6429655    326.42569   0.01464055  0.013040904          727 
 1859000   0.52030616   -7.6418177     326.4583  0.014634136  0.013029838          849 
 1860000   0.50346072   -7.6340253    326.87536  0.014644954  0.013018783          784 
 1861000   0.51254406   -7.6276015     326.7213  0.014630186  0.013007727          681 
 1862000   0.52129128   -7.6313505    327.03916  0.014636554  0.012996704          736 
 1863000   0.51900989   -7.6381442    327.06462  0.014629836  0.012985681          762 
 1864000   0.50970561   -7.6324343    326.42394  0.014593345  0.012974665          756 
 1865000   0.51378954   -7.6544332    326.14239   0.01457294  0.012963661          652 
 1866000   0.50977774   -7.6300987    326.76999  0.014593158  0.012952665          819 
 1867000    0.5113644   -7.6495031    326.44881  0.014571006  0.012941683          789 
 1868000   0.51412446   -7.6429655    326.52614  0.014566655  0.012930713          841 
 1869000   0.50065591   -7.6391603    326.58756    0.0145616  0.012919771          771 
 1870000   0.50512145   -7.6386802      326.979  0.014571256  0.012908826          758 
 1871000   0.49829282   -7.6357105    326.73472  0.014552589  0.012897894          727 
 1872000   0.51062424   -7.6464453    326.28574  0.014524828  0.012886969          680 
 1873000   0.51752486   -7.6607085    326.78545  0.014539306  0.012876069          831 
 1874000   0.51001003   -7.6414207    326.41185  0.014514935  0.012865172          783 
 1875000   0.50221822   -7.6368661    326.73676  0.014521634    0.0128543          791 
 1876000   0.50313622   -7.6488508    326.40969  0.014499364  0.012843428          681 
 1877000   0.50573603   -7.6647598    326.78581  0.014508338   0.01283256          803 
 1878000   0.50826283   -7.6455492    326.44492  0.014485486   0.01282171          734 
 1879000   0.50767998   -7.6620264    326.61794   0.01448545  0.012810869          793 
 1880000   0.49755245   -7.6445179    326.55062  0.014474761  0.012800041          676 
 1881000   0.49152131   -7.6613808    326.92753  0.014483764  0.012789226          763 
 1882000   0.51143482   -7.6656821    326.26716  0.014446828  0.012778414          652 
 1883000   0.50081189   -7.6604009     326.7438   0.01446025  0.012767626          731 
 1884000   0.49443311   -7.6609525    326.78152  0.014454243  0.012756849          778 
 1885000   0.49757461   -7.6658648    327.07211  0.014459421  0.012746083          795 
 1886000   0.50876656   -7.6505941    326.56272  0.014429247  0.012735334          686 
 1887000   0.49656439   -7.6456391    327.26897   0.01445279  0.012724589          616 
 1888000   0.50485436   -7.6728278    326.50222  0.014411291  0.012713855          745 
 1889000   0.49206636   -7.6616708    326.52026  0.014404458  0.012703131          840 
 1890000   0.49807763   -7.6637416    326.12067  0.014379218  0.012692421          807 
 1891000   0.50008807   -7.6691034    326.29901  0.014379473  0.012681719          617 
 1892000   0.51305708   -7.6478479    326.57694  0.014384115  0.012671023          720 
 1893000   0.50347813   -7.6729876    326.67218  0.014380709  0.012660349          860 
 1894000   0.48061986   -7.6648606     326.6013  0.014369997  0.012649668          826 
 1895000   0.49121453   -7.6684121    325.98977  0.014335522  0.012639011          844 
 1896000   0.50290742   -7.6656112    326.48618  0.014349779   0.01262837          767 
 1897000   0.50382933   -7.6532924    326.32583  0.014335171  0.012617728          743 
 1898000   0.48600606   -7.6771253    326.58804  0.014339131  0.012607096          774 
 1899000   0.50558997   -7.6513077    326.37533  0.014322245  0.012596477          790 
 1900000   0.49209548    -7.665528    326.16797  0.014305613  0.012585859          741 
 1901000   0.48271621   -7.6766682    325.91527   0.01428701  0.012575245          710 
 1902000   0.49374939   -7.6678098    326.16145  0.014290284  0.012564653          637 
 1903000   0.50644251   -7.6635363    326.13494  0.014281614  0.012554072          662 
 1904000   0.50162087   -7.6715656    326.68804  0.014298321  0.012543501          728 
 1905000   0.49545838   -7.6639172    325.65666  0.014245698  0.012532929          767 
 1906000   0.49938894   -7.6834952    326.69835  0.014283768  0.012522382          808 
 1907000   0.50043092    -7.672181    326.67972  0.014275464  0.012511844          733 
 1908000   0.48840632   -7.6862063    326.47852  0.014259195  0.012501318          760 
 1909000   0.48312198   -7.6720296    326.64652  0.014259059  0.012490806          682 
 1910000    0.4971602   -7.6703092    325.84095  0.014216446  0.012480302          790 
 1911000   0.48770572   -7.6722503    326.84476   0.01425278  0.012469813          773 
 1912000   0.49073914    -7.667294     326.5757  0.014233599  0.012459324          759 
 1913000   0.49575068   -7.6728115    326.08234  0.014204667  0.012448861          822 
 1914000   0.48267974   -7.6937452    326.47568  0.014214371  0.012438408          809 
 1915000   0.49085655   -7.6619256    326.12475  0.014191678  0.012427961          739 
 1916000   0.48108268    -7.671578    326.81761  0.014214405  0.012417521          736 
 1917000   0.48782216   -7.6797954    326.45281  0.014191132  0.012407103          730 
 1918000   0.47488175   -7.6703099    326.21895  0.014173573  0.012396686          795 
 1919000   0.49413339   -7.6874849    326.50056  0.014178416  0.012386277          636 
 1920000   0.47940247    -7.682359    326.73279  0.014181111  0.012375886          758 
 1921000   0.48818984   -7.6862589    326.04058    0.0141437  0.012365501          706 
 1922000   0.48263205   -7.6814843    326.12172   0.01413986  0.012355131          868 
 1923000   0.49090334   -7.6972403    326.01183  0.014127744  0.012344771          696 
 1924000    0.4825726   -7.6866119     326.1155  0.014124892  0.012334412          689 
 1925000   0.48356013    -7.692267    325.74094   0.01410134   0.01232407          734 
 1926000   0.48861889   -7.6735935    326.09506   0.01410934  0.012313738          744 
 1927000   0.48061253   -7.7049321    325.54029  0.014078027  0.012303413          767 
 1928000   0.49745531   -7.6863764    326.14079   0.01409668  0.012293097          791 
 1929000   0.49235539   -7.6876095    326.22549  0.014093032  0.012282795          836 
 1930000   0.47416433   -7.6709052    325.99364  0.014075719  0.012272503          729 
 1931000   0.48149415   -7.6847667      325.951  0.014066589  0.012262234          851 
 1932000   0.49133784   -7.6923367    325.76219  0.014051164  0.012251976          807 
 1933000    0.4766987   -7.6759863    325.95847  0.014052357  0.012241712          596 
 1934000   0.48011399   -7.6861456    326.18252  0.014054745  0.012231458          762 
 1935000   0.47523317   -7.6913648    326.23256  0.014049637   0.01222121          859 
 1936000    0.4741615   -7.7090587    326.44427  0.014051492   0.01221098          850 
 1937000   0.47079644   -7.6941679     325.6879  0.014011698  0.012200767          738 
 1938000   0.46887684   -7.7047371     325.9717  0.014016671  0.012190563          823 
 1939000   0.48576952   -7.7008943    325.83228   0.01400345  0.012180361          814 
 1940000   0.48755787   -7.6999203    325.80376  0.013995007  0.012170182          892 
 1941000   0.48184348   -7.7023305    326.12724  0.014001685  0.012160017          892 
 1942000   0.47243194   -7.6890252    325.99188  0.013988666  0.012149866          676 
 1943000   0.48172439    -7.685147     326.0979  0.013986014  0.012139724          793 
 1944000    0.4729692   -7.6757175    325.21772  0.013941089  0.012129585          765 
 1945000   0.47836731    -7.692382    325.98573  0.013966827  0.012119452          779 
 1946000   0.48411768   -7.6886701    325.93529  0.013957489  0.012109327          773 
 1947000   0.47826404   -7.7020668    325.81648  0.013945236  0.012099219          694 
 1948000   0.48214253   -7.6910123    325.73962  0.013934789   0.01208912          765 
 1949000   0.47230626   -7.6931713     325.8316  0.013931572  0.012079035          799 
 1950000   0.46891079   -7.6995841    326.05018  0.013933768  0.012068958          850 
 1951000   0.47938307   -7.7038839    325.55931   0.01390566   0.01205889          748 
 1952000   0.46931959   -7.7087855    326.26469   0.01392865  0.012048842          780 
 1953000   0.46180333   -7.7009276    326.54219  0.013933359   0.01203879          775 
 1954000   0.48097249    -7.677733    326.16204  0.013910015  0.012028755          714 
 1955000   0.46374259   -7.7013081     326.1694  0.013903214  0.012018731          816 
 1956000    0.4736592    -7.694667    325.60161  0.013871916  0.012008713          797 
 1957000    0.4718326   -7.6950303    325.69773  0.013868921  0.011998716          812 
 1958000   0.48175584   -7.6940067    325.75039  0.013864079   0.01198872          760 
 1959000   0.47485482   -7.7017837     325.6869  0.013854301  0.011978745          761 
 1960000    0.4744158   -7.6892854    325.85607  0.013854425  0.011968775          786 
 1961000   0.47372428   -7.7208271    325.64549  0.013838411  0.011958813          828 
 1962000   0.46423362   -7.7059878    325.76002  0.013836222  0.011948859          720 
 1963000   0.46657996   -7.7101094    325.80507  0.013831086  0.011938916          796 
 1964000   0.47311496   -7.6999488     325.5115  0.013811588  0.011928973          835 
 1965000   0.46376858    -7.707161    325.94322  0.013822868  0.011919047          803 
 1966000   0.48270074   -7.7114114    325.97894  0.013817351  0.011909139          801 
 1967000   0.48847898   -7.7066665    325.96897  0.013809904  0.011899241          831 
 1968000   0.47345287   -7.6944331    325.41052   0.01377924  0.011889344          641 
 1969000    0.4710788   -7.7038622    325.70052  0.013784515  0.011879468          753 
 1970000   0.46178674   -7.7017095      325.609  0.013773646  0.011869598          833 
 1971000   0.46368133   -7.6932662    325.75879  0.013772991  0.011859726          790 
 1972000   0.46639368   -7.7131963    325.53079  0.013756372  0.011849873          816 
 1973000   0.45591123   -7.7024792    325.47276  0.013746949  0.011840025          847 
 1974000    0.4639717   -7.7182127    325.12546  0.013725323  0.011830195          784 
 1975000   0.46561658   -7.7254145    325.63485  0.013739867  0.011820383          713 
 1976000    0.4663796   -7.7005182    325.66464   0.01373417  0.011810573          756 
 1977000   0.45631406   -7.7043212    325.91755  0.013737883  0.011800781          778 
 1978000   0.45945633   -7.7136142    325.43272  0.013710512  0.011790986          815 
 1979000   0.45768857   -7.7134456    325.42441  0.013703234   0.01178121          841 
 1980000   0.45978963   -7.7184777    325.60937  0.013704098  0.011771444          837 
 1981000   0.45489668   -7.7251933    325.62151  0.013697691   0.01176169          787 
 1982000   0.46695559   -7.7120816    325.55742  0.013688085  0.011751941          743 
 1983000   0.45309415   -7.7239481    325.12323  0.013662936  0.011742205          783 
 1984000    0.4563216   -7.7198185    325.39248  0.013667359  0.011732466          714 
 1985000   0.46564329   -7.7242559    325.43444  0.013662235  0.011722754          749 
 1986000   0.46842722   -7.7068867    325.39675  0.013653774  0.011713051          756 
 1987000    0.4644928   -7.7243471    325.63741  0.013656996  0.011703353          679 
 1988000   0.46888861   -7.7221263    325.76155   0.01365533  0.011693669          801 
 1989000   0.45504043   -7.7274259    325.42409  0.013634326  0.011683988          798 
 1990000   0.45286047   -7.7279568    325.57266  0.013633696  0.011674311          773 
 1991000   0.46925621   -7.7215043    325.29915    0.0136154  0.011664655          685 
 1992000   0.46012735    -7.724377    325.33838  0.013610207  0.011655012          792 
 1993000    0.4566117   -7.7190149    325.49967  0.013610122   0.01164538          750 
 1994000   0.46105084   -7.7368774    325.29206   0.01359462  0.011635741          857 
 1995000   0.45869291   -7.7202753    325.89038  0.013612798  0.011626127          767 
 1996000   0.45953506   -7.7158084    325.31683  0.013582032  0.011616529          794 
 1997000   0.45051998   -7.7330517    325.08198  0.013565431  0.011606927          880 
 1998000   0.45070363   -7.7182505    325.57611  0.013579251  0.011597334          806 
 1999000   0.45682329   -7.7124788    325.28648  0.013560384  0.011587761          806 
 2000000   0.44592845   -7.7339897    325.60498  0.013566874  0.011578193          790 
 2001000   0.45821102    -7.728905    325.88348  0.013571692  0.011568639          726 
 2002000   0.45486556   -7.7283982    325.12476  0.013533332    0.0115591          779 
 2003000   0.45858199   -7.7353382    324.94089  0.013518925  0.011549572          799 
 2004000   0.45036251   -7.7235431    325.84006   0.01354957  0.011540043          799 
 2005000   0.45243126   -7.7324635      324.824  0.013500582  0.011530526          804 
 2006000   0.44154896   -7.7342745    325.26208  0.013512051  0.011521021          834 
 2007000   0.44779086   -7.7353883    325.46543  0.013513762  0.011511532          880 
 2008000   0.44755103   -7.7251377    325.15072  0.013493971  0.011502046          823 
 2009000   0.45348105   -7.7217776    325.09752  0.013485047  0.011492564          848 
 2010000   0.44863362   -7.7328216    325.53289  0.013496388  0.011483098          826 
 2011000   0.44278934   -7.7416576     325.4026  0.013484278  0.011473639          779 
 2012000   0.44750555   -7.7359522    325.34337  0.013475123  0.011464185          867 
Loop time of 5245.16 on 48 procs for 2000000 steps with 4000 atoms

Performance: 65889.337 tau/day, 381.304 timesteps/s
99.4% CPU use with 48 MPI tasks x no OpenMP threads

MPI task timing breakdown:
Section |  min time  |  avg time  |  max time  |%varavg| %total
---------------------------------------------------------------
Pair    | 386.51     | 420.75     | 456.7      |  86.1 |  8.02
Neigh   | 36.502     | 37.92      | 39.522     |  11.0 |  0.72
Comm    | 337.74     | 370.4      | 406.78     |  88.8 |  7.06
Output  | 5.1554     | 5.1572     | 5.2091     |   0.3 |  0.10
Modify  | 4338.8     | 4360.9     | 4376.2     |  14.8 | 83.14
Other   |            | 50.06      |            |       |  0.95

Nlocal:        83.3333 ave          88 max          77 min
Histogram: 2 3 2 5 5 7 7 6 5 6
Nghost:        2424.06 ave        2438 max        2407 min
Histogram: 4 2 3 3 11 3 4 8 5 5
Neighs:        16806.0 ave       19183 max       14380 min
Histogram: 3 3 8 4 4 7 5 6 5 3
FullNghs:      33612.0 ave       35501 max       31079 min
Histogram: 2 2 4 4 4 12 4 5 5 6

Total # of neighbors = 1613375
Ave neighs/atom = 403.34375
Neighbor list builds = 106895
Dangerous builds = 0

#clear
#
#next RN
#
#jump SELF
Total wall time: 1:27:29
