
units lj                  # Use reduced LJ style units
atom_style atomic         # Uncharged point particles
atom_modify map hash      # Needed for indexing of clusters etc
                          # Used to be able to find where atoms are in relation to each other.

lattice fcc 1.0 spacing 1 1 1
Lattice spacing in x,y,z = 1.5874011 1.5874011 1.5874011
region box block 0 10 0 10 0 10 units lattice
create_box 2 box
Created orthogonal box = (0.0000000 0.0000000 0.0000000) to (15.874011 15.874011 15.874011)
  3 by 4 by 4 MPI processor grid
create_atoms 1 box
Created 4000 atoms
  using lattice units in orthogonal box = (0.0000000 0.0000000 0.0000000) to (15.874011 15.874011 15.874011)
  create_atoms CPU = 0.003 seconds
set type 1 type/fraction 2 0.99 78393
Setting atom values ...
  3965 settings made for type/fraction
mass 1 1.0
mass 2 1.0
pair_style lj/cut  3.5
pair_modify tail  yes
pair_coeff 1  1  1.0  1.0   # Intearaction between 1 and 1 set with epsilon = 1 and sigma = 1
pair_coeff 1  2  1.5  0.8
pair_coeff 2  2  0.5  0.88

write_data data.0
System init for write_data ...
Neighbor list info ...
  update every 1 steps, delay 10 steps, check yes
  max neighbors/atom: 2000, page size: 100000
  master list distance cutoff = 3.8
  ghost atom cutoff = 3.8
  binsize = 1.9, bins = 9 9 9
  1 neighbor lists, perpetual/occasional/extra = 1 0 0
  (1) pair lj/cut, perpetual
      attributes: half, newton on
      pair build: half/bin/atomonly/newton
      stencil: half/bin/3d
      bin: standard
WARNING: Not all mixed pair coeffs generated from mixing. Use write_data with 'pair ij' option to store all pair coeffs. (../write_data.cpp:312)


#############################
#   M E L T   S Y S T E M   #
#############################

velocity all create 2.4 6583654 mom yes dist gaussian # Assign velocities
                                                    # Temperature 2.4, random number seed, zero linear momentum
                                                                                # Gaussian distribution

timestep 0.002   # simulation timestep
thermo 1000       # output thermodynamic data every 1000 steps bf 100

# Define a fix  in this case with index 1 applied to all
# particles in the simulation. This fix is for simulations
# in the anisotropic NPT ensemble. Note that we use the MTK
# correction.
fix 1 all npt temp 2.4 2.4 0.1 iso 5.68 5.68 0.5 mtk yes tchain 5 pchain 5 # Use NPT ensemble
                                                                         # Set temperature and pressure and damping
                                                                         # Numbers of thermostats in chain and in barostat
run 10000          # run for 10000 steps
Per MPI rank memory allocation (min/avg/max) = 3.642 | 3.644 | 3.648 Mbytes
Step Temp E_pair E_mol TotEng Press Volume 
       0          2.4   -2.7429598            0   0.85614022   -1.7792645         4000 
    1000    2.4380216   -1.4968252            0     2.159293    5.5959787    4265.9696 
    2000    2.3680155   -1.5209431            0    2.0301921    5.6795365    4203.6743 
    3000    2.3551882   -1.4819745            0    2.0499247    5.6601753    4257.3058 
    4000      2.39879   -1.4697546            0    2.1275309    5.7393463    4251.0323 
    5000    2.3628174   -1.5252346            0    2.0181055    5.5460867    4233.1892 
    6000    2.3765436   -1.5003631            0    2.0635611      5.56052    4266.5244 
    7000    2.4359467   -1.5058508            0    2.1471558    5.5891096    4267.3212 
    8000    2.4113138   -1.5087359            0    2.1073306    5.5183757    4264.0329 
    9000    2.4385616   -1.4919425            0    2.1649855    5.9114806    4197.8238 
   10000    2.3749283   -1.4965936            0    2.0649083    5.7739169    4225.2598 
Loop time of 2.34831 on 48 procs for 10000 steps with 4000 atoms

Performance: 735848.185 tau/day, 4258.381 timesteps/s
99.6% CPU use with 48 MPI tasks x no OpenMP threads

MPI task timing breakdown:
Section |  min time  |  avg time  |  max time  |%varavg| %total
---------------------------------------------------------------
Pair    | 1.0118     | 1.0815     | 1.1395     |   2.9 | 46.06
Neigh   | 0.20256    | 0.21064    | 0.22215    |   0.7 |  8.97
Comm    | 0.73584    | 0.80767    | 0.88733    |   3.6 | 34.39
Output  | 0.00024783 | 0.0002526  | 0.00031557 |   0.0 |  0.01
Modify  | 0.20776    | 0.23359    | 0.25271    |   2.5 |  9.95
Other   |            | 0.0146     |            |       |  0.62

Nlocal:        83.3333 ave          97 max          75 min
Histogram: 6 3 8 10 11 4 2 1 2 1
Nghost:        1587.29 ave        1629 max        1560 min
Histogram: 4 7 7 6 6 11 4 1 1 1
Neighs:        9029.17 ave       10746 max        7746 min
Histogram: 1 8 5 10 9 5 5 1 2 2

Total # of neighbors = 433400
Ave neighs/atom = 108.35000
Neighbor list builds = 913
Dangerous builds = 247

# Equilibrate just above the melting temperature to avoid step fn in T

fix 1 all npt temp 1.25 1.25 0.1 iso 5.68 5.68 0.5 mtk yes tchain 5 pchain 5
run 2000
Per MPI rank memory allocation (min/avg/max) = 3.643 | 3.645 | 3.649 Mbytes
Step Temp E_pair E_mol TotEng Press Volume 
   10000    2.3749283   -1.4965936            0    2.0649083    5.7739169    4225.2598 
   11000    1.2629544   -2.3292181            0  -0.43526001    5.6210182     3316.823 
   12000    1.2444881   -2.3362545            0  -0.46998898    5.5281494    3322.2252 
Loop time of 0.561366 on 48 procs for 2000 steps with 4000 atoms

Performance: 615641.380 tau/day, 3562.739 timesteps/s
99.7% CPU use with 48 MPI tasks x no OpenMP threads

MPI task timing breakdown:
Section |  min time  |  avg time  |  max time  |%varavg| %total
---------------------------------------------------------------
Pair    | 0.2549     | 0.27109    | 0.29062    |   1.7 | 48.29
Neigh   | 0.038187   | 0.039564   | 0.04154    |   0.3 |  7.05
Comm    | 0.18099    | 0.2029     | 0.22179    |   2.2 | 36.14
Output  | 5.185e-05  | 5.3597e-05 | 6.8196e-05 |   0.0 |  0.01
Modify  | 0.039856   | 0.043113   | 0.04714    |   0.9 |  7.68
Other   |            | 0.004643   |            |       |  0.83

Nlocal:        83.3333 ave          91 max          75 min
Histogram: 1 5 3 5 5 9 9 4 6 1
Nghost:        1857.19 ave        1884 max        1834 min
Histogram: 2 6 9 4 2 9 6 5 3 2
Neighs:        11490.4 ave       12848 max        9887 min
Histogram: 2 4 1 4 9 6 10 7 3 2

Total # of neighbors = 551538
Ave neighs/atom = 137.88450
Neighbor list builds = 142
Dangerous builds = 13

#############################
# L I N E A R  Q U E N C H  #
#############################

# Define solid atoms. This closely follows ten Wolde  Ruiz-Montero and Frenkel  Faraday Discuss  1996  104  93-110
# Compute components of the per-atom q6 vector
compute q6 all orientorder/atom degrees 1 6 components 6 nnn NULL cutoff 1.3 # compute the Q6 parameter.
                                                                             # Use all neighbours within 1.3 unit cell.

# get number of connections
compute coord_number all coord/atom orientorder q6 0.5

# An atom is solid if it has 8 or more connections (of a possible 14)
variable is_solid atom c_coord_number>=8
group solid dynamic all var is_solid    # Must be dynamic to update
dynamic group solid defined

# do clustering
compute cluster solid cluster/atom 1.3 # Create a cluster where all atoms within are solid and max 1.3 units from another member

# define chunks one chunk per cluster
compute clus_chunks solid chunk/atom c_cluster nchunk every compress yes  # Says which atoms are in which chunk

# count the size of each chunk
compute size_chunks solid property/chunk clus_chunks count


# Find the maximum entry in the vector of chunk sizes
variable max_n equal max(c_size_chunks)


# Thermo style which includes this variable
# thermo_style custom step temp pe vol v_max_n

thermo ${N}  # Print the thermo information every 100 steps
thermo 1000  

# Reset the npt fix at a lower temperature (below freezing)
fix 1  all npt temp  ${temp} ${temp}  0.1  iso  5.68  5.68  0.5  mtk yes tchain  5  pchain  5
fix 1  all npt temp  0.45 ${temp}  0.1  iso  5.68  5.68  0.5  mtk yes tchain  5  pchain  5
fix 1  all npt temp  0.45 0.45  0.1  iso  5.68  5.68  0.5  mtk yes tchain  5  pchain  5

dump dmp2 all dcd ${N} traj.dcd
dump dmp2 all dcd 1000 traj.dcd


compute msd all msd com yes
variable twopoint equal c_msd[4]/6/(step*dt+1.0e-6)
fix 9 all vector 10 c_msd[4]
variable fit equal slope(f_9)/6/(10*dt)
thermo_style custom step temp pe c_msd[4] v_twopoint v_fit v_max_n

fix 1 all npt temp 1.25 ${temp} 0.1 iso 5.68 5.68 0.5 mtk yes tchain 5 pchain 5
fix 1 all npt temp 1.25 0.45 0.1 iso 5.68 5.68 0.5 mtk yes tchain 5 pchain 5
run 500000 # 5000000  # Run for this many steps
Neighbor list info ...
  update every 1 steps, delay 10 steps, check yes
  max neighbors/atom: 2000, page size: 100000
  master list distance cutoff = 3.8
  ghost atom cutoff = 3.8
  binsize = 1.9, bins = 8 8 8
  4 neighbor lists, perpetual/occasional/extra = 1 3 0
  (1) pair lj/cut, perpetual
      attributes: half, newton on
      pair build: half/bin/atomonly/newton
      stencil: half/bin/3d
      bin: standard
  (2) compute orientorder/atom, occasional
      attributes: full, newton on
      pair build: full/bin/atomonly
      stencil: full/bin/3d
      bin: standard
  (3) compute coord/atom, occasional
      attributes: full, newton on
      pair build: full/bin/atomonly
      stencil: full/bin/3d
      bin: standard
  (4) compute cluster/atom, occasional
      attributes: full, newton on
      pair build: full/bin/atomonly
      stencil: full/bin/3d
      bin: standard
Per MPI rank memory allocation (min/avg/max) = 9.809 | 9.815 | 9.820 Mbytes
Step Temp PotEng c_msd[4] v_twopoint v_fit v_max_n 
   12000    1.2444881   -2.3362545 5.9164568e-34 4.1086504e-36 8.3333333e+20            2 
   13000    1.2612746    -2.312399    1.1974344 0.0076758615   0.10066965            3 
   14000    1.2429011   -2.3333367     2.460104  0.014643475   0.10554914            1 
   15000    1.2894617   -2.2985325    3.7769742  0.020983189   0.10641318            1 
   16000     1.253102   -2.3230417    5.0864293  0.026491819   0.10754693            2 
   17000    1.2467059   -2.3257579     6.412935  0.031435955   0.10813665            3 
   18000    1.2346661   -2.3136783    7.7242582  0.035760454   0.10828233            2 
   19000    1.2407211   -2.3120241    9.0139009  0.039534652    0.1084314            3 
   20000    1.2619856   -2.3365176    10.299592  0.042914965   0.10826801            2 
   21000    1.2368702   -2.3246731    11.539172  0.045790365    0.1081299            2 
   22000    1.2510461   -2.3186715    12.817555  0.048551342    0.1079467            1 
   23000    1.2431043   -2.3383813    14.005802  0.050745659    0.1075927            1 
   24000    1.2281266   -2.3428192     15.37833  0.053396978   0.10733844            2 
   25000    1.2435438   -2.3178292    16.773179  0.055910595   0.10718519            3 
   26000     1.265263    -2.332804    17.812716  0.057092037   0.10705905            1 
   27000    1.2145473   -2.3519174    19.121715  0.059017637   0.10701079            2 
   28000    1.2210041   -2.3249656    20.309626  0.060445314   0.10670923            1 
   29000    1.2042468   -2.3463085    21.419395  0.061549985   0.10627016            1 
   30000    1.2216018   -2.3465731    22.792177  0.063311603   0.10584859            1 
   31000    1.2292092   -2.3839388    23.891837  0.064225366   0.10557089            1 
   32000    1.2126421    -2.359884    25.094095  0.065349204   0.10532593            1 
   33000    1.2354662   -2.3265427    26.247098  0.066280551   0.10494847            1 
   34000    1.2096731   -2.3512739    27.345251  0.067022674   0.10454066            2 
   35000    1.2143412   -2.3444598    28.889715  0.068785035   0.10424372            5 
   36000    1.2106356    -2.335416    30.200713  0.069909057   0.10415317            2 
   37000    1.2147735   -2.3503752    31.312914   0.07052458   0.10401574            2 
   38000    1.2055395   -2.3549011     32.35273  0.070948969   0.10383861            2 
   39000    1.1969504   -2.3659421    33.174745  0.070886206   0.10358348            1 
   40000    1.1881024   -2.3718214    34.363257  0.071590118   0.10328977            3 
   41000    1.2438243   -2.3458934     35.62064  0.072399673   0.10297908            1 
   42000    1.1888929   -2.3787516    36.893118  0.073200631   0.10275621            1 
   43000    1.2121647   -2.3685497    38.365548  0.074351836   0.10263496       -1e+20 
   44000    1.2229716   -2.3621703    39.773196  0.075328021   0.10262093            2 
   45000    1.2255413    -2.351003    40.891932  0.075725799   0.10264218            1 
   46000    1.1960012   -2.3590712    42.121161  0.076306451   0.10264652            1 
   47000    1.1890042   -2.3316601    43.622294  0.077344493    0.1026317            2 
   48000    1.2055897   -2.3471545    44.853438  0.077870551   0.10268578            3 
   49000    1.2041271   -2.3800534    46.113461  0.078424252   0.10276296            2 
   50000    1.1685422   -2.3596838    47.307861  0.078846434   0.10281305            1 
   51000    1.1856437   -2.3894308    48.531845  0.079300399   0.10288067            2 
   52000    1.1865594   -2.4089215    49.836668  0.079866454   0.10292294            4 
   53000    1.1980792   -2.3474336    51.227374  0.080546185   0.10294775            1 
   54000    1.1554504   -2.4100124    52.714474  0.081349496   0.10307156            1 
   55000    1.2076303   -2.4180521    53.888656  0.081649478   0.10320758            2 
   56000    1.1971773   -2.3939123    55.151995   0.08207142   0.10333411            1 
   57000    1.1974572   -2.4100499    56.480639  0.082574032   0.10343653            1 
   58000    1.1598457   -2.3832071    57.556756  0.082696488   0.10352409            1 
   59000    1.1659045    -2.403894    58.646875  0.082834568   0.10354859            2 
   60000    1.1759255   -2.3864638    59.460678  0.082584274   0.10354778            2 
   61000    1.1345372   -2.4025695    60.472799  0.082613112   0.10348475            1 
   62000    1.1582098   -2.4040764    61.591049  0.082783667   0.10338226            2 
   63000     1.168729   -2.3982854    62.703383  0.082940982   0.10327284            2 
   64000    1.1868904   -2.4231963    63.931275  0.083243847   0.10313626            2 
   65000    1.1728956   -2.4076157    64.985038  0.083314151   0.10301474            2 
   66000    1.1765538   -2.4413483    66.211851  0.083600821   0.10291685            1 
   67000    1.1874168   -2.4314618    67.154629  0.083525658   0.10279821            2 
   68000    1.1327404   -2.4247828    68.241484  0.083629268   0.10265281            2 
   69000    1.1593189   -2.3988506    69.665874  0.084137528    0.1025048            1 
   70000    1.1636135   -2.4260117    70.671388  0.084132604    0.1023601            5 
   71000    1.1544165   -2.4032744    71.534084  0.083960192   0.10220165            2 
   72000    1.1475463   -2.4055229     72.86693  0.084336724   0.10203725            1 
   73000    1.1555404   -2.4363335    74.444384  0.084982173   0.10188679            1 
   74000    1.1415138   -2.4107167    75.241311  0.084731206    0.1017395            2 
   75000    1.1502887   -2.4332242    76.425657  0.084917396    0.1015828            2 
   76000    1.1295707   -2.4112796    77.184872  0.084632534   0.10140896            2 
   77000    1.1551105   -2.3976455    78.375333  0.084821789   0.10124337            1 
   78000    1.1562923   -2.4410127    78.977541  0.084377714   0.10108499            2 
   79000    1.1376094   -2.4506701    80.841189  0.085275515   0.10096861            1 
   80000    1.1172432   -2.4243201    82.065539  0.085484936   0.10087196            2 
   81000     1.157158   -2.4421361    83.054402  0.085446915   0.10078523            2 
   82000    1.1469737   -2.4017723    84.424811  0.085797572   0.10067025            2 
   83000    1.1174988   -2.4565303    85.306929  0.085649526   0.10054853            2 
   84000    1.1503036   -2.4410607    86.430728  0.085744769    0.1004035            2 
   85000    1.1182725   -2.4431858    87.347218  0.085634527   0.10027872            1 
   86000    1.1237756    -2.459847    87.953198  0.085225966   0.10012648            2 
   87000    1.1146464    -2.449601     88.85679  0.085111867  0.099928736            3 
   88000    1.1421918   -2.4205468    89.428164  0.084685761  0.099724463            1 
   89000     1.123328   -2.4271491    91.211823  0.085404328  0.099543416            3 
   90000    1.1348978   -2.4285859    92.027815  0.085210939  0.099368198            1 
   91000    1.1384191   -2.4497132    94.120839  0.086191244  0.099221625            3 
   92000     1.117363   -2.4661848    94.723224  0.085800021  0.099096442            2 
   93000    1.1202133   -2.4621474    96.282241  0.086274409  0.098989854            2 
   94000    1.1289111   -2.4550598    97.469175  0.086408843  0.098882301            4 
   95000    1.1043531   -2.4668664    98.037178  0.085997524  0.098764767            2 
   96000    1.1118648   -2.4522874    98.547682  0.085544863  0.098632349            1 
   97000    1.1105773   -2.4629269    99.821112  0.085756969  0.098489741            3 
   98000    1.1212931   -2.4768209    100.90432  0.085802996   0.09835002            1 
   99000    1.0932333   -2.4550476    102.41545  0.086208289  0.098208129            1 
  100000    1.1201577   -2.4363927    103.55233  0.086293605  0.098094829            2 
  101000    1.1212468   -2.4633982    104.52616  0.086242703  0.097972234            3 
  102000     1.099842   -2.4785955    104.64116   0.08549114  0.097834519            2 
  103000    1.1136532   -2.4383939    106.26374  0.085973897  0.097688417            1 
  104000    1.1029447   -2.4622511    107.20418  0.085900787  0.097538415            2 
  105000    1.1113583   -2.4849108    108.04883  0.085753042  0.097405434            3 
  106000     1.083636   -2.4851141    109.14193  0.085803404  0.097259838            3 
  107000    1.0783437   -2.4935493    110.12522  0.085767302  0.097113666            2 
  108000    1.0749813   -2.4454921    111.16371  0.085774469  0.096972174            1 
  109000    1.0777201   -2.4985052    111.70094  0.085398274   0.09682816            1 
  110000    1.0958795   -2.4698386    113.30857  0.085839827   0.09667113            1 
  111000    1.0899542   -2.4746955    114.13484  0.085686814  0.096511783            1 
  112000    1.0614184   -2.4852807    114.96938  0.085542695  0.096354584            3 
  113000    1.1068702   -2.4675142    116.31764  0.085779971  0.096195541            1 
  114000     1.089964   -2.5059763    117.58326  0.085952678  0.096048663            4 
  115000    1.1011909   -2.4829219    118.38966  0.085789608  0.095908933            4 
  116000     1.078503   -2.5020138    119.07045  0.085539114  0.095772296            1 
  117000    1.0680395   -2.5142954    119.74619  0.085289309  0.095635185            1 
  118000    1.0716106   -2.4963434    121.97904  0.086143388  0.095507788            2 
  119000    1.0870489   -2.4897434     122.2628  0.085618207  0.095380514            1 
  120000    1.0647384   -2.4943157    123.25638  0.085594706  0.095237442            2 
  121000    1.0736338   -2.4652532    124.26471  0.085581757  0.095105439            1 
  122000      1.07584   -2.4896478    124.68891  0.085170019  0.094963367            4 
  123000    1.0794116   -2.4861781    126.21634  0.085512423  0.094826713            2 
  124000    1.0717907   -2.5145202     126.3934    0.0849418  0.094679088            3 
  125000    1.0324997   -2.4828964    127.41381   0.08494254  0.094539178            2 
  126000     1.060733   -2.5006356    128.38387  0.084909964  0.094387075            6 
  127000    1.0462471   -2.4947202    129.50714  0.084978435  0.094241754            3 
  128000     1.077824   -2.4923284    130.19591  0.084762964  0.094093771            3 
  129000    1.0723471   -2.5357144    130.95987  0.084599397  0.093941851            3 
  130000    1.0698889   -2.5245954    131.47925  0.084281569  0.093784197            2 
  131000    1.0415026   -2.5240384     133.2045  0.084735687  0.093630676            3 
  132000    1.0503328   -2.5034742    134.20339   0.08472436  0.093474674            2 
  133000    1.0558965   -2.5283955    134.22153  0.084098705  0.093325005            1 
  134000    1.0660833   -2.5144856    135.63061  0.084347395  0.093166529            2 
  135000    1.0577952     -2.52767    135.78101  0.083815441  0.093006992            1 
  136000    1.0564112   -2.5417198    137.21158  0.084075724  0.092850495            4 
  137000    1.0747945   -2.5148913    138.90219  0.084490382  0.092695032            3 
  138000    1.0595134   -2.5641005      138.778  0.083803138  0.092547679            1 
  139000    1.0513261   -2.5275818    140.13874  0.084016032  0.092403296            1 
  140000    1.0432064    -2.527886    141.52199  0.084239277  0.092262648            1 
  141000    1.0419028   -2.4959474     141.9522    0.0838961  0.092120644            6 
  142000    1.0519403   -2.5415659    142.61407  0.083693705  0.091975139            2 
  143000    1.0144158   -2.5192991    144.18766  0.084025445  0.091827314            2 
  144000    1.0153663   -2.5154858    144.86808  0.083835694  0.091685454            1 
  145000    1.0354155   -2.5165736    145.87208  0.083834529  0.091552084            2 
  146000     1.049967   -2.5223421    147.16614  0.083998938  0.091427788            2 
  147000    1.0238424   -2.5665781    147.71562  0.083739011  0.091302965            1 
  148000    1.0233692   -2.5371347     149.4212  0.084133561  0.091181847            3 
  149000    1.0271184   -2.5705741    149.79746  0.083779339  0.091067951            1 
  150000    1.0236849   -2.5453927    151.27776  0.084043197  0.090944466            2 
  151000    1.0248235    -2.541711    152.25762  0.084027384  0.090825709            4 
  152000    1.0377648   -2.5618678    152.46167  0.083586442  0.090705111            2 
  153000    1.0196058   -2.5688798    153.11387  0.083395352  0.090583921            2 
  154000    1.0279892   -2.5892938    153.64507  0.083141273  0.090455597            1 
  155000    1.0497976   -2.5964543    154.17416  0.082889334  0.090323765            1 
  156000    1.0017865   -2.5939047    155.86772   0.08326267  0.090194611            2 
  157000    1.0316767   -2.5743788    156.37406  0.083001095  0.090065448            2 
  158000   0.98773395   -2.5771231    157.29618   0.08296212  0.089933546            3 
  159000    1.0079942   -2.5733625    158.08929  0.082856023  0.089794827            3 
  160000    1.0005403   -2.5345339     158.7511  0.082682866    0.0896552            1 
  161000    1.0061869   -2.5778577    159.00408  0.082300249  0.089507466            3 
  162000    1.0127731   -2.5622715    159.42998  0.082011306  0.089355166            2 
  163000    1.0137651   -2.5722856    160.48979  0.082049995  0.089208019            3 
  164000     1.007594   -2.5601719     161.4752  0.082050408  0.089064217            7 
  165000    1.0077702   -2.5524874    162.02338  0.081829991  0.088914827            1 
  166000   0.99679367   -2.5706637     163.6061  0.082131574  0.088772175            1 
  167000    1.0012669   -2.5592528    163.18376  0.081429022   0.08862414            2 
  168000     1.014122   -2.5644774    165.29001  0.081989093  0.088475961            2 
  169000    1.0001271   -2.5701876    165.88861  0.081799116  0.088331986            2 
  170000    1.0009334   -2.5829702    167.02883  0.081876879  0.088194175            1 
  171000    0.9964786   -2.5846892    167.31958  0.081539755   0.08806049            1 
  172000   0.98909501   -2.5742909    168.11273  0.081449967   0.08792075            1 
  173000   0.98073964   -2.5531531    168.99659  0.081404909  0.087774238            2 
  174000    1.0208542   -2.5796662    169.48813  0.081172474  0.087626659            1 
  175000   0.98284784   -2.5823124    170.53241  0.081205908   0.08748034            2 
  176000    1.0134605   -2.6161491    171.54692  0.081224869  0.087340483            2 
  177000   0.97010293   -2.5921975    170.97203  0.080495306  0.087198018            2 
  178000   0.98435015   -2.5982164    172.46678  0.080742876  0.087056507            4 
  179000   0.96628458    -2.606136    173.38943  0.080721335  0.086913924            3 
  180000   0.99509754    -2.585761      174.315  0.080701388  0.086772184            1 
  181000   0.94503307   -2.6073581    174.82619  0.080490879  0.086628249            3 
  182000   0.96673842   -2.6031436    175.82975  0.080508127  0.086488589            2 
  183000   0.97831999   -2.6074451     177.1283  0.080659515   0.08634541            3 
  184000   0.97063411   -2.6068925    176.63647  0.079998402  0.086200217            3 
  185000   0.97800306   -2.6054095    176.96795  0.079715292  0.086048272            2 
  186000   0.96783086     -2.59904    178.45698  0.079953846  0.085900749            4 
  187000   0.97187304   -2.6428272    179.28513  0.079895332  0.085756712            2 
  188000   0.97666466   -2.5995712    179.70179  0.079655047  0.085609868            2 
  189000   0.98146689   -2.6114016    180.35008  0.079519437   0.08545999            3 
  190000   0.95788959   -2.6016876    181.43429  0.079576443  0.085308844            5 
  191000   0.96941346   -2.6252799      182.288  0.079532284  0.085159781            1 
  192000   0.96093637   -2.6151143    183.09906  0.079470078  0.085014963            2 
  193000    0.9669861   -2.6289918    183.68532  0.079311452  0.084865897            4 
  194000    0.9750739   -2.6348664    183.50776  0.078826358  0.084714955            2 
  195000   0.94445846   -2.6285503    184.58518  0.078882554  0.084562989            2 
  196000   0.97082431   -2.6403126     185.8535  0.079019345  0.084412338            2 
  197000   0.95501493   -2.6320536    186.07048  0.078710015  0.084264544            4 
  198000   0.96656364   -2.6482123    186.60488  0.078537406  0.084115209            3 
  199000   0.97005082   -2.6483076    187.25399  0.078414566    0.0839747            3 
  200000   0.92426599   -2.6652758    187.87021  0.078279253  0.083832068            4 
  201000   0.92779336   -2.6517532     188.7376  0.078249421  0.083686414            2 
  202000   0.95540847   -2.6313223    189.58672  0.078212342  0.083539141            4 
  203000   0.92693746   -2.6607742    190.30675  0.078122639  0.083389482            4 
  204000   0.94170182   -2.6173835    191.75711  0.078332154  0.083240208            2 
  205000   0.94445003   -2.6399117     191.7198  0.077934877  0.083092038            3 
  206000   0.94021902   -2.6629747    192.48124  0.077864579  0.082942179            3 
  207000   0.95104622   -2.6449027     193.3026  0.077819081  0.082796688            2 
  208000   0.94740997   -2.6493662    193.65585  0.077586476  0.082652866            1 
  209000   0.93012272   -2.6357159    194.93245  0.077724263  0.082510157            4 
  210000   0.93134107   -2.6509793    195.86862  0.077725643  0.082371413            3 
  211000   0.94540229   -2.6456927      196.706  0.077687995  0.082231315            2 
  212000   0.93304269   -2.6594096    197.05578  0.077459032  0.082089847            6 
  213000   0.94620099   -2.6722266    196.66034  0.076940665  0.081948937            3 
  214000   0.92171186   -2.6611997    197.62912  0.076958379  0.081807686            2 
  215000   0.94474911   -2.7008497    198.66678  0.077002629   0.08166603            3 
  216000   0.91916244   -2.6815541    199.64404  0.077023165  0.081532955            5 
  217000   0.93126574   -2.6526477    200.51245   0.07700171  0.081403448            3 
  218000   0.90784773   -2.6720292     201.1553  0.076894228  0.081273629            2 
  219000   0.93331622   -2.6914842    200.93613  0.076459713  0.081141142            2 
  220000   0.91368645    -2.687407     202.3466  0.076646439  0.081003092            2 
  221000   0.90263456   -2.6491404    203.29048  0.076655533  0.080866791            3 
  222000   0.91945614   -2.6712961     203.9063  0.076541405  0.080729501            3 
  223000   0.91985024   -2.6686037    203.75552  0.076141822  0.080590514            4 
  224000   0.90391403   -2.7035535    204.46848  0.076067143  0.080452862            5 
  225000   0.92983775   -2.7008326    205.02546  0.075935356  0.080314449            2 
  226000    0.9038306   -2.6753576    206.11662  0.076001704   0.08017935            5 
  227000   0.89944655   -2.7016554    206.15929   0.07568256  0.080043067            2 
  228000   0.91380817    -2.687323    206.64761  0.075529096  0.079904103            3 
  229000   0.90074971   -2.7187265    207.25894   0.07542174  0.079763138            2 
  230000   0.89434759   -2.6969172     208.5097  0.075546993  0.079623822            3 
  231000   0.90867391    -2.696951    208.12099  0.075079721  0.079486558            3 
  232000   0.89936325   -2.7118834    208.95961   0.07505733   0.07934622            5 
  233000   0.89442205   -2.7210545    210.07524  0.075134207  0.079207429            3 
  234000    0.8947254    -2.724782    211.09172  0.075175113  0.079073781            4 
  235000    0.8821422   -2.7303173    211.15818  0.074878788  0.078940604            3 
  236000    0.8806931   -2.7206303    212.19287  0.074926861  0.078807458            2 
  237000   0.89342271   -2.6936616    213.02534  0.074903425  0.078672837            4 
  238000   0.89915038   -2.6773226    213.64593  0.074805997  0.078540221            1 
  239000   0.88527702   -2.7137835      214.851   0.07491318  0.078410262            2 
  240000   0.87896751   -2.7322462    215.72075  0.074903039  0.078278156            3 
  241000   0.87441781   -2.7137785    215.16426  0.074399812  0.078145347            2 
  242000   0.88103279   -2.7113154    215.88688  0.074341212  0.078012966            5 
  243000   0.86979542   -2.7282751    215.79715  0.074004511  0.077881463            3 
  244000   0.87413998   -2.7134755    217.36656  0.074237213  0.077751196            3 
  245000   0.87931567   -2.7648836    217.32063   0.07391858  0.077623978            2 
  246000   0.87403522   -2.7384059    218.24289  0.073930518  0.077497141            4 
  247000   0.88533264     -2.74359    218.72141  0.073792648   0.07737139            2 
  248000   0.86055099   -2.7231827    220.67571  0.074151784  0.077246873            2 
  249000   0.87702168   -2.7596106     220.3069  0.073730555  0.077121016            6 
  250000    0.8786392   -2.7444595    221.07136  0.073690455  0.076995289            4 
  251000   0.87272893   -2.7369487      221.191  0.073436588  0.076869729            2 
  252000   0.84749193   -2.7171812    222.71793  0.073650107  0.076743123            1 
  253000   0.85941852   -2.7255093    222.42594  0.073262826  0.076613434            5 
  254000   0.85696535   -2.7717552    222.32579  0.072941532  0.076483441            3 
  255000   0.84763364   -2.7577998    223.12814  0.072917691  0.076352565            2 
  256000    0.8491929   -2.7447543    224.12151  0.072956221  0.076222676            2 
  257000   0.86036661   -2.7595364     225.0581  0.072976038  0.076094743            4 
  258000   0.85692977    -2.753175    225.56918  0.072858261  0.075968108            5 
  259000   0.84988974   -2.7633942    225.10566   0.07242782  0.075840412            2 
  260000   0.83557769   -2.7619241    225.82278  0.072379095  0.075712948            3 
  261000   0.85293888   -2.7668172    226.08832  0.072186563  0.075585225            3 
  262000   0.84580318   -2.7718077     227.0715   0.07222376  0.075457122            6 
  263000    0.8584958   -2.7861266    227.90449  0.072213083  0.075327659            3 
  264000    0.8367242   -2.7574726    229.23044  0.072358095  0.075200537            2 
  265000   0.85030591   -2.7701705    229.85795  0.072282374  0.075073029            4 
  266000     0.833146   -2.7711908    229.27431   0.07182779  0.074947056            3 
  267000   0.83086186   -2.7698665    230.25879  0.071866039  0.074819747            3 
  268000   0.86690662   -2.7918514    230.45183  0.071657907  0.074693376            5 
  269000   0.84910807   -2.7729428    230.47766  0.071399524   0.07456787            6 
  270000   0.83255079   -2.8001928    232.59808   0.07178953  0.074442156            1 
  271000   0.84151537   -2.7523655    232.55115  0.071510194  0.074318438            2 
  272000   0.85415926   -2.8149334    233.21965    0.0714521  0.074195033            4 
  273000   0.83212991   -2.7837886    233.54008  0.071288181  0.074071008            4 
  274000   0.81419434   -2.7929717    233.87482  0.071129811  0.073946477            3 
  275000   0.81331382   -2.7820717    234.36279  0.071019028  0.073819974            4 
  276000   0.80832125   -2.8004569    234.75509  0.070880159  0.073693832            2 
  277000   0.82860899    -2.771578    235.91675  0.070973753  0.073570814            2 
  278000   0.82837937   -2.8103505    236.67522  0.070945811  0.073448901            5 
  279000   0.82069917   -2.8049619    236.87232  0.070750393  0.073328932            1 
  280000    0.8332903   -2.7845004     237.4221  0.070661339   0.07321047            3 
  281000   0.82280247   -2.8211273    238.71861  0.070794367  0.073090148            3 
  282000    0.8221634   -2.8050577    238.48153  0.070473265  0.072970788            4 
  283000   0.82186679   -2.8156716    237.30184  0.069876867  0.072851236            3 
  284000   0.81050545   -2.8080751    239.98745  0.070418853  0.072731761            3 
  285000   0.82383871    -2.831129    239.38327  0.069995108  0.072610824            4 
  286000   0.80274453   -2.8063029    240.36982  0.070037825  0.072491746            4 
  287000   0.80878854    -2.819069    240.36936  0.069793658   0.07237326            6 
  288000   0.81461931   -2.8334279    241.56485  0.069897237  0.072255679            6 
  289000   0.80282916   -2.8205467      241.761  0.069711937   0.07213915           10 
  290000   0.79934356   -2.8290084    242.24843  0.069611618  0.072020699            4 
  291000   0.80632355   -2.8259053    244.07991  0.069896882  0.071905833            4 
  292000   0.79917753   -2.8364461    244.97162  0.069911993  0.071794354            3 
  293000   0.79622075   -2.8278929    245.83138  0.069917912  0.071684823            4 
  294000   0.82038559   -2.8139486    244.95474  0.069431617  0.071575333            9 
  295000   0.79739851   -2.8129743    245.51661  0.069354974  0.071461436            3 
  296000   0.79996884   -2.8483989    245.01716  0.068980057  0.071347593            3 
  297000   0.77753568   -2.8648118     246.7564  0.069235802  0.071232418            6 
  298000   0.79599717   -2.8265878    246.90158  0.069044066  0.071116874            2 
  299000   0.80186582   -2.8340771    247.72282  0.069042034   0.07100185            3 
  300000   0.78595202   -2.8378344    247.34528  0.068707023  0.070882593            5 
  301000   0.78108036   -2.8542397    246.49523   0.06824342  0.070764794            4 
  302000   0.78845208   -2.8453822    247.83886  0.068388207  0.070643571            3 
  303000   0.78990081   -2.8441342    248.30131  0.068289688  0.070524528            4 
  304000   0.76912639   -2.8603315     249.5396  0.068404495  0.070404163            4 
  305000    0.7944932   -2.8611222    248.91121  0.068008528  0.070285076            4 
  306000   0.78507942   -2.8496513    250.59632  0.068245186  0.070168015            6 
  307000   0.78948901   -2.8655517    250.05315  0.067875447  0.070052787            7 
  308000   0.78151306   -2.8552545    251.36352  0.068009609  0.069938414            5 
  309000   0.78200526   -2.8611936     251.0746  0.067711598  0.069824189            3 
  310000   0.77461303   -2.8792063     251.8233  0.067694435  0.069707544            5 
  311000    0.7722365    -2.877956    252.84748  0.067751201   0.06959166            6 
  312000   0.76821607   -2.8566079     251.9514  0.067294713  0.069475081            5 
  313000   0.76004225   -2.8755967    253.33689  0.067448585  0.069357709            6 
  314000    0.7626868   -2.8729479    253.68988  0.067327462  0.069239916            2 
  315000    0.7561968   -2.8525815     253.7726  0.067135608  0.069124462            7 
  316000   0.76105843    -2.903184    254.49605  0.067113938  0.069010015           12 
  317000   0.73674169   -2.8739529    255.62469  0.067198921  0.068894274            2 
  318000   0.77593933   -2.8791383    255.64375  0.066992598  0.068781089            4 
  319000   0.75496075    -2.881545    255.67826  0.066791604  0.068668641            4 
  320000   0.74919609   -2.8965969    256.65628  0.066837574  0.068556187            3 
  321000   0.74883529   -2.8874888    257.08773  0.066741362  0.068443293            6 
  322000   0.76690544    -2.873863    256.37111   0.06634863  0.068329865            3 
  323000   0.74102957    -2.885722    257.51783  0.066439068  0.068215971            3 
  324000   0.77047991   -2.9090142    257.11814  0.066131209  0.068100174            6 
  325000   0.74884007   -2.9059776    258.25153  0.066218341  0.067984219            6 
  326000   0.74630445   -2.8878261    257.37275  0.065790581  0.067866991            3 
  327000   0.74025868   -2.9030562    258.10372  0.065775666  0.067751034            6 
  328000   0.72916324   -2.8795667    259.37611  0.065898401  0.067635604            2 
  329000   0.73193224   -2.9175988    259.04169  0.065613398  0.067518733            3 
  330000     0.748408   -2.9075074    259.31362  0.065483237  0.067400553            7 
  331000   0.74001183   -2.9105204    259.33933  0.065291876   0.06728245            6 
  332000   0.74355274   -2.9302544    259.93241  0.065244079  0.067162765            4 
  333000   0.74414196   -2.9215868    259.40578  0.064916362  0.067044246            5 
  334000   0.73090778   -2.9143271    260.53596  0.065003982  0.066922873            4 
  335000   0.74503136   -2.9052237    262.29787  0.065248227  0.066805637            5 
  336000   0.73573588   -2.9330032    261.68089  0.064901014   0.06668985            4 
  337000   0.72161434   -2.9129952    262.53264   0.06491905  0.066574444            4 
  338000   0.72162375   -2.9522837    262.17747  0.064639416   0.06645736            5 
  339000   0.72586008   -2.9463215    263.11121  0.064678272  0.066340879            4 
  340000   0.73501529   -2.9464528    262.05831  0.064229978   0.06622392           13 
  341000   0.72355239   -2.9407096    263.71006  0.064445273  0.066106027            6 
  342000    0.7363701   -2.9525075    262.20416  0.063889902  0.065986439            6 
  343000   0.72107396   -2.9478076    263.92411  0.064121503  0.065866099            5 
  344000   0.71548424   -2.9227982    263.20181  0.063760129  0.065745142            4 
  345000   0.71738772    -2.941395    263.05858   0.06354072  0.065625862            4 
  346000   0.70984949   -2.9614688    264.33952  0.063665588  0.065503866            2 
  347000   0.73715464   -2.9629397      264.547  0.063531941  0.065383078            3 
  348000   0.69942894    -2.964558    264.88441  0.063430174  0.065262231            7 
  349000   0.71485752   -2.9552608    265.02174  0.063281217   0.06514159            2 
  350000   0.70872615   -2.9564634    266.36508  0.063420258  0.065020653            5 
  351000   0.70702057   -2.9500185    266.55529   0.06328473  0.064900061            6 
  352000   0.72028033   -2.9590036    266.96335  0.063201551   0.06478065            2 
  353000   0.69749966   -2.9549905    266.21378  0.062845558  0.064658664            3 
  354000   0.70135937   -2.9578093    266.14114  0.062650927   0.06453714            3 
  355000   0.70359088   -2.9945293    266.81689  0.062633073  0.064415314            7 
  356000   0.69683528   -2.9505283    267.02572  0.062506021  0.064295097            5 
  357000   0.69956729   -2.9509761    266.80707  0.062279896  0.064174529            3 
  358000   0.68656187   -2.9808836    267.36276  0.062235278  0.064052576            9 
  359000   0.68365682    -2.953999    267.53905  0.062102842  0.063932177            4 
  360000   0.68352359   -2.9985902    267.79293  0.061989105  0.063810632            7 
  361000   0.69120941   -2.9722547    268.65434  0.062016238  0.063688844            8 
  362000   0.67954968   -3.0026207      269.451  0.062028316   0.06356938            8 
  363000    0.6883219   -2.9868089    268.81294  0.061710959  0.063448113            5 
  364000   0.67663939   -2.9780461    269.60534  0.061722835  0.063327636            3 
  365000   0.68000487   -2.9789806    269.68123  0.061571057  0.063206725            4 
  366000   0.69086172   -2.9965181    269.22283  0.061298459  0.063084911            5 
  367000   0.69706515   -3.0017025    269.48533  0.061191037  0.062965188            3 
  368000   0.67436179   -2.9854764    270.05744  0.061154312  0.062843975           10 
  369000   0.68500092   -3.0207416    270.34085  0.061052586  0.062722337            4 
  370000   0.68642961   -3.0284105    270.63424  0.060953659  0.062600934            8 
  371000   0.66924969    -2.995143    270.29609  0.060713406  0.062479878            9 
  372000   0.67877099   -2.9869369    270.99159  0.060706001  0.062358936            4 
  373000   0.67419554   -3.0050782    271.80028  0.060723923  0.062238145            4 
  374000   0.66164061   -3.0365623    271.68322  0.060535476  0.062118095           10 
  375000   0.67201847   -3.0088721    270.82371  0.060183047  0.061998124            7 
  376000   0.65440097   -3.0208264    271.74883   0.06022802  0.061877862            5 
  377000   0.65916892   -3.0089788     271.5561  0.060025662  0.061757647            7 
  378000   0.64237647   -3.0165848    273.34644   0.06026156   0.06163905            6 
  379000   0.66652769   -3.0210105    273.38832  0.060111768  0.061519295            7 
  380000   0.64804353   -3.0231138    274.21392  0.060134631  0.061400495            3 
  381000   0.67905269   -3.0304938    273.86871  0.059901293  0.061282694            4 
  382000   0.66248623   -3.0313549    273.87255   0.05974532  0.061164782            5 
  383000   0.66266293   -3.0519078    274.33941  0.059690906  0.061046857            5 
  384000   0.64941746   -3.0389992    273.89845  0.059439767   0.06092926            5 
  385000   0.65571524   -3.0104146    274.84318  0.059489866  0.060811259           11 
  386000    0.6602833   -3.0440619    273.78799  0.059107942  0.060693452            4 
  387000   0.63746248   -3.0550776     274.2844  0.059062102  0.060573508            9 
  388000    0.6592522   -3.0357855    275.13147  0.059091811  0.060454211            4 
  389000   0.65282699    -3.040966    275.44273  0.059006582  0.060335008            9 
  390000    0.6458089   -3.0621511    275.12934  0.058788321  0.060216256            5 
  391000   0.64930544   -3.0515174    275.78261  0.058777196  0.060097004            3 
  392000   0.64863215   -3.0619394    275.20189  0.058503802  0.059978809            8 
  393000   0.65586722   -3.0600427    276.16752  0.058559694  0.059861276            6 
  394000   0.64236705   -3.0650786    276.74013  0.058532177  0.059744812            6 
  395000   0.64673219    -3.058774    277.27363  0.058496547  0.059627937            7 
  396000    0.6367445   -3.0589879    276.15512   0.05811345  0.059510381           12 
  397000   0.64207398   -3.0716676    275.88915   0.05791124  0.059392828            8 
  398000   0.62403071    -3.088642    277.14486  0.058028655  0.059275293            7 
  399000   0.63053781   -3.0832842    277.21172  0.057897186  0.059157475            7 
  400000   0.62749331   -3.0771283    277.28085  0.057766844  0.059039372           11 
  401000   0.61980725   -3.0817633    276.79391  0.057521593  0.058922435            8 
  402000   0.62643194    -3.048513    278.31576  0.057693979  0.058805175            6 
  403000   0.60853112   -3.0723491    278.27036  0.057541431  0.058689127            6 
  404000   0.63587963   -3.0732862    279.17615   0.05758584  0.058573656            5 
  405000   0.62289397   -3.0681569    278.23666  0.057250341  0.058457959            5 
  406000   0.60594771    -3.107618    278.48597  0.057160503  0.058341496            7 
  407000   0.60243254   -3.0805582    278.25774   0.05697333  0.058223931            6 
  408000   0.62471854   -3.0996282    277.98022  0.056777006     0.058106           11 
  409000   0.62118386   -3.1030843    279.05401  0.056856971  0.057987835           12 
  410000   0.61161671   -3.1124986     278.0784  0.056519999  0.057870159           10 
  411000   0.60120361    -3.109751    279.37027  0.056644418  0.057751657           12 
  412000   0.60980498   -3.1068919    278.94916  0.056421756   0.05763262            7 
  413000   0.61174348   -3.0871203    277.83759  0.056060854  0.057514478            9 
  414000     0.610077   -3.1003818    279.82245   0.05632497  0.057396585            6 
  415000   0.60693665   -3.1239065    279.31864   0.05608808  0.057278403            9 
  416000   0.61261167   -3.1254543    279.29842  0.055949202  0.057159527            5 
  417000   0.59540534   -3.1268545    279.67031   0.05588935  0.057041605            5 
  418000   0.60366392   -3.1299633    280.30853   0.05588288  0.056924186            6 
  419000   0.60107189   -3.1201807    280.22549  0.055732993  0.056808256            4 
  420000   0.59797854   -3.1376366    279.76742  0.055509409  0.056691077           12 
  421000   0.58914918   -3.1482545    279.57633  0.055339733  0.056574691           11 
  422000   0.59648265    -3.141714    281.36735  0.055562273  0.056458396           10 
  423000   0.58488373   -3.1575997    279.62387  0.055087444  0.056342363            5 
  424000   0.59406839   -3.1408696    279.80465  0.054993052  0.056225926           12 
  425000   0.58643024   -3.1506276     280.8033  0.055059471  0.056109324           14 
  426000   0.58490053   -3.1600892     281.7068  0.055106964  0.055993537            6 
  427000   0.59167516   -3.1442916    281.63977  0.054964826  0.055877753            8 
  428000   0.57731861   -3.1472693    281.43239  0.054796025  0.055762571           28 
  429000   0.58882374    -3.152987    282.37494  0.054851387  0.055647757            6 
  430000   0.58291494   -3.1442286    281.88191  0.054628276  0.055533564           27 
  431000   0.58548015   -3.1476172    282.22783  0.054568412  0.055419147            6 
  432000   0.57484013   -3.1561732    282.61991  0.054517729  0.055305073            8 
  433000   0.58542038   -3.1746797    282.43263  0.054355779  0.055190571            6 
  434000     0.579138   -3.1553547    282.08719  0.054164207  0.055076655            7 
  435000    0.5755147   -3.1682697    282.76597  0.054169726  0.054962771           10 
  436000   0.56536032   -3.1745874    283.77625  0.054238579  0.054849027            6 
  437000   0.57158658   -3.1682257    282.90236  0.053947819  0.054734255           11 
  438000   0.57072847   -3.1591563    282.86059  0.053816703   0.05462004            4 
  439000   0.55553038   -3.1871295    281.77308  0.053487676  0.054505016           14 
  440000   0.56352341   -3.1609886    282.97583  0.053593907   0.05438946           11 
  441000   0.55733142   -3.1614632    282.71824  0.053423703   0.05427409            9 
  442000   0.57108445   -3.1866806    283.06137  0.053367528  0.054158448           14 
  443000   0.55141449   -3.1851226    282.87412  0.053211835  0.054043093            5 
  444000   0.55790178   -3.1858464    282.34313  0.052992329  0.053927746            6 
  445000   0.56547609   -3.1895889    281.97901  0.052805059  0.053812047           12 
  446000   0.55530258   -3.2110808    282.23605  0.052734687   0.05369555           10 
  447000   0.56704424   -3.1941872    282.69748  0.052702737  0.053579057            3 
  448000   0.55994298   -3.2216612    282.48594  0.052545747  0.053462344           10 
  449000   0.55630871   -3.2143573     281.9463  0.052328564  0.053345316           14 
  450000    0.5524063   -3.2028363      282.583  0.052330185  0.053228001           10 
  451000   0.55094835    -3.208532     282.0661  0.052118644   0.05311207           25 
  452000   0.55149971    -3.215044    282.74538  0.052128573  0.052995584            9 
  453000   0.52730711   -3.2198772    282.55857  0.051979134  0.052878184           11 
  454000    0.5503289   -3.2206593    282.86599  0.051921071  0.052761554            5 
  455000   0.54408852   -3.2318295    283.06218  0.051842889  0.052644902           15 
  456000   0.53841638   -3.2094336      282.334  0.051596126  0.052529477           16 
  457000   0.54457515   -3.2191377     282.5939  0.051530616  0.052414692           10 
  458000   0.54118491   -3.2191088     283.3992  0.051564628  0.052299371            7 
  459000   0.54311508   -3.2247342    282.85145  0.051352841  0.052184352           16 
  460000   0.52764941   -3.2240918    283.49474  0.051357743   0.05206936           10 
  461000   0.52249717   -3.2257257    284.13228  0.051361584  0.051955217           12 
  462000   0.53841669   -3.2443945    283.27588  0.051095938  0.051841197           11 
  463000   0.52105857   -3.2434375     283.0956  0.050953131  0.051726632           29 
  464000   0.53574198   -3.2382558    283.63288  0.050939814  0.051611995           28 
  465000   0.52162262   -3.2319555    283.12418  0.050739101  0.051497785           16 
  466000   0.53385176   -3.2337132    283.85438  0.050760798  0.051383437           12 
  467000   0.51347594   -3.2424819    283.79644  0.050641763  0.051269749            9 
  468000   0.51839246   -3.2520446    283.67791  0.050512449  0.051155209            5 
  469000   0.52350751   -3.2573053    282.95905  0.050277017  0.051040291           28 
  470000   0.52380542   -3.2531493    282.46853  0.050083072  0.050924734            6 
  471000   0.50886311   -3.2634786    283.02557  0.050075295   0.05080989           13 
  472000   0.49945918   -3.2431471    283.61685  0.050073597  0.050695337           11 
  473000   0.51980829   -3.2804244    283.70338  0.049982977  0.050581448           11 
  474000   0.51157496    -3.264022    283.06062  0.049764525  0.050467643           15 
  475000   0.51262091   -3.2815508    283.04345  0.049656745  0.050353734           12 
  476000   0.50804707   -3.2697562    283.73098  0.049672791  0.050240733           14 
  477000   0.50738393   -3.2833869    284.63574   0.04972672  0.050128087           13 
  478000   0.51691834   -3.2829269    284.57736   0.04961251  0.050015184           15 
  479000   0.50247807   -3.2877658    284.21271  0.049445495  0.049902607           26 
  480000   0.51256754    -3.292729    283.92075  0.049291796  0.049790059           25 
  481000   0.49809989   -3.2866072    284.06657  0.049214582  0.049677897           12 
  482000   0.50223897   -3.2919963    284.07441  0.049113832  0.049566011           19 
  483000   0.48985797   -3.2897609    284.50964  0.049087239  0.049454451           47 
  484000   0.48845164   -3.2965152    284.80285  0.049036304  0.049342976            9 
  485000   0.49758666   -3.2987433    284.13201  0.048819933  0.049231772           12 
  486000   0.49610712   -3.3170814    284.97618  0.048864229  0.049120979           10 
  487000    0.4929275   -3.3048716    284.92735  0.048755536    0.0490101           17 
  488000   0.48469107   -3.3119698     284.8243   0.04863803  0.048899268            9 
  489000   0.48298735   -3.3173913    284.68902  0.048515511  0.048788393           29 
  490000   0.50257408   -3.3238221    284.34727  0.048358379  0.048677262           29 
  491000    0.4735141   -3.3098317    283.55677  0.048125724  0.048566175           24 
  492000   0.47158874   -3.3149338    284.31387  0.048156142  0.048455598           19 
  493000   0.49049516   -3.3237571    284.57597  0.048102767  0.048345033           10 
  494000   0.47834888   -3.3176198    284.59398  0.048008431  0.048235063           13 
  495000   0.48544655   -3.3216017    284.29232   0.04786066  0.048125203           14 
  496000   0.47590535   -3.3499354    283.88197  0.047695223  0.048015097           11 
  497000   0.48988802   -3.3339482    284.22464  0.047656714  0.047904868            6 
  498000     0.468473   -3.3332946    283.99126  0.047521964  0.047795032           13 
  499000   0.47552068   -3.3420146    284.05191  0.047436858  0.047685078           11 
  500000   0.47030546    -3.337308    283.78546  0.047297576  0.047575025           16 
  501000   0.46313808   -3.3365411    283.95482   0.04723134  0.047465559           35 
  502000   0.46872749   -3.3336076    283.82333  0.047115426  0.047356584           24 
  503000   0.46652107   -3.3528226    283.75294  0.047010096  0.047246686           26 
  504000   0.45664556   -3.3509856     283.7217  0.046911657  0.047136762           15 
  505000   0.46603463   -3.3503585    283.00055   0.04669976  0.047026725           15 
  506000   0.46370752   -3.3599334    283.40365  0.046673855  0.046916693           18 
  507000   0.45695033   -3.3599901    283.10973  0.046533487  0.046806673           33 
  508000   0.45103505   -3.3581742     283.2378  0.046462893  0.046696762           49 
  509000      0.45985   -3.3781164    283.23694   0.04637147  0.046586831           48 
  510000   0.45444101    -3.361581    283.55204  0.046332033   0.04647741           20 
  511000   0.45179903   -3.3858616    283.27916  0.046196862  0.046367567           33 
  512000   0.43262624   -3.3800845    283.17948  0.046090411  0.046257516           50 
Loop time of 1221.93 on 48 procs for 500000 steps with 4000 atoms

Performance: 70707.797 tau/day, 409.189 timesteps/s
99.4% CPU use with 48 MPI tasks x no OpenMP threads

MPI task timing breakdown:
Section |  min time  |  avg time  |  max time  |%varavg| %total
---------------------------------------------------------------
Pair    | 76.28      | 82.336     | 86.926     |  25.2 |  6.74
Neigh   | 8.1736     | 8.4892     | 8.767      |   4.7 |  0.69
Comm    | 75.686     | 80.928     | 88.536     |  32.2 |  6.62
Output  | 0.85396    | 0.85444    | 0.86306    |   0.1 |  0.07
Modify  | 1032.5     | 1038.2     | 1041.5     |   5.9 | 84.96
Other   |            | 11.15      |            |       |  0.91

Nlocal:        83.3333 ave          92 max          75 min
Histogram: 1 4 9 4 9 5 1 10 4 1
Nghost:        2163.92 ave        2181 max        2143 min
Histogram: 1 3 3 6 8 5 5 12 3 2
Neighs:        14314.5 ave       16263 max       12438 min
Histogram: 2 4 7 3 11 4 8 4 3 2
FullNghs:      28627.1 ave       31860 max       25663 min
Histogram: 1 4 6 10 6 5 5 8 2 1

Total # of neighbors = 1374102
Ave neighs/atom = 343.52550
Neighbor list builds = 27174
Dangerous builds = 0

#clear
#
#next RN
#
#jump SELF
Total wall time: 0:20:25
