
units lj                  # Use reduced LJ style units
atom_style atomic         # Uncharged point particles
atom_modify map hash      # Needed for indexing of clusters etc
                          # Used to be able to find where atoms are in relation to each other.

lattice fcc 1.0 spacing 1 1 1
Lattice spacing in x,y,z = 1.5874011 1.5874011 1.5874011
region box block 0 10 0 10 0 10 units lattice
create_box 2 box
Created orthogonal box = (0.0000000 0.0000000 0.0000000) to (15.874011 15.874011 15.874011)
  3 by 4 by 4 MPI processor grid
create_atoms 1 box
Created 4000 atoms
  using lattice units in orthogonal box = (0.0000000 0.0000000 0.0000000) to (15.874011 15.874011 15.874011)
  create_atoms CPU = 0.027 seconds
set type 1 type/fraction 2 0.2 78393
Setting atom values ...
  836 settings made for type/fraction
mass 1 1.0
mass 2 1.0
pair_style lj/cut  3.5
pair_modify tail  yes
pair_coeff 1  1  1.0  1.0   # Intearaction between 1 and 1 set with epsilon = 1 and sigma = 1
pair_coeff 1  2  1.5  0.8
pair_coeff 2  2  0.5  0.88

write_data data.0
System init for write_data ...
Neighbor list info ...
  update every 1 steps, delay 10 steps, check yes
  max neighbors/atom: 2000, page size: 100000
  master list distance cutoff = 3.8
  ghost atom cutoff = 3.8
  binsize = 1.9, bins = 9 9 9
  1 neighbor lists, perpetual/occasional/extra = 1 0 0
  (1) pair lj/cut, perpetual
      attributes: half, newton on
      pair build: half/bin/atomonly/newton
      stencil: half/bin/3d
      bin: standard
WARNING: Not all mixed pair coeffs generated from mixing. Use write_data with 'pair ij' option to store all pair coeffs. (../write_data.cpp:312)


#############################
#   M E L T   S Y S T E M   #
#############################

velocity all create 2.4 9580093 mom yes dist gaussian # Assign velocities
                                                    # Temperature 2.4, random number seed, zero linear momentum
                                                                                # Gaussian distribution

timestep 0.002   # simulation timestep
thermo 1000       # output thermodynamic data every 1000 steps bf 100

# Define a fix  in this case with index 1 applied to all
# particles in the simulation. This fix is for simulations
# in the anisotropic NPT ensemble. Note that we use the MTK
# correction.
fix 1 all npt temp 2.4 2.4 0.1 iso 5.68 5.68 0.5 mtk yes tchain 5 pchain 5 # Use NPT ensemble
                                                                         # Set temperature and pressure and damping
                                                                         # Numbers of thermostats in chain and in barostat
run 10000          # run for 10000 steps
Per MPI rank memory allocation (min/avg/max) = 3.642 | 3.644 | 3.648 Mbytes
Step Temp E_pair E_mol TotEng Press Volume 
       0          2.4   -7.0365901            0   -3.4374901   -3.6176696         4000 
    1000    2.4101645   -4.8521144            0   -1.2377715    5.9760112    4429.4258 
    2000    2.4148462   -4.8382562            0   -1.2168924    5.5441771    4477.9538 
    3000     2.425091   -4.7710343            0   -1.1343072    5.7167563     4506.162 
    4000      2.41873   -4.8608307            0   -1.2336426    5.8251311    4436.5647 
    5000    2.3387659   -4.8090568            0    -1.301785    5.7827368    4471.4189 
    6000     2.404645   -4.8193091            0   -1.2132434    5.6593895    4474.1298 
    7000    2.4128334     -4.85745            0   -1.2391047    5.7487512    4453.4437 
    8000    2.4159835   -4.8222824            0   -1.1992131    5.6378433    4477.3234 
    9000    2.4380658   -4.8311157            0   -1.1749313    5.7833889    4466.9318 
   10000    2.3496612   -4.8026858            0   -1.2790752    5.6051291    4490.5257 
Loop time of 2.30105 on 48 procs for 10000 steps with 4000 atoms

Performance: 750960.173 tau/day, 4345.834 timesteps/s
99.6% CPU use with 48 MPI tasks x no OpenMP threads

MPI task timing breakdown:
Section |  min time  |  avg time  |  max time  |%varavg| %total
---------------------------------------------------------------
Pair    | 0.93516    | 1.0409     | 1.1592     |   4.0 | 45.24
Neigh   | 0.19291    | 0.20394    | 0.23172    |   1.5 |  8.86
Comm    | 0.6897     | 0.80501    | 0.91462    |   5.5 | 34.98
Output  | 0.00023867 | 0.00024435 | 0.00031106 |   0.0 |  0.01
Modify  | 0.20097    | 0.23623    | 0.27535    |   4.3 | 10.27
Other   |            | 0.01471    |            |       |  0.64

Nlocal:        83.3333 ave          90 max          74 min
Histogram: 1 3 3 6 5 7 4 2 13 4
Nghost:        1524.46 ave        1551 max        1499 min
Histogram: 2 2 6 3 9 13 6 6 0 1
Neighs:        8485.06 ave        9511 max        7335 min
Histogram: 1 2 7 8 3 7 7 6 5 2

Total # of neighbors = 407283
Ave neighs/atom = 101.82075
Neighbor list builds = 903
Dangerous builds = 188

# Equilibrate just above the melting temperature to avoid step fn in T

fix 1 all npt temp 1.25 1.25 0.1 iso 5.68 5.68 0.5 mtk yes tchain 5 pchain 5
run 2000
Per MPI rank memory allocation (min/avg/max) = 3.642 | 3.645 | 3.648 Mbytes
Step Temp E_pair E_mol TotEng Press Volume 
   10000    2.3496612   -4.8026858            0   -1.2790752    5.6051291    4490.5257 
   11000    1.2342709   -6.5235244            0   -4.6725809    5.9837568    3634.7509 
   12000    1.2324514   -6.5630024            0   -4.7147875    5.5509861    3646.9177 
Loop time of 0.512317 on 48 procs for 2000 steps with 4000 atoms

Performance: 674582.464 tau/day, 3903.834 timesteps/s
99.6% CPU use with 48 MPI tasks x no OpenMP threads

MPI task timing breakdown:
Section |  min time  |  avg time  |  max time  |%varavg| %total
---------------------------------------------------------------
Pair    | 0.21923    | 0.24627    | 0.27223    |   2.1 | 48.07
Neigh   | 0.032624   | 0.034308   | 0.037275   |   0.6 |  6.70
Comm    | 0.13909    | 0.17203    | 0.20079    |   2.7 | 33.58
Output  | 4.9722e-05 | 5.0957e-05 | 6.456e-05  |   0.0 |  0.01
Modify  | 0.048575   | 0.055078   | 0.06051    |   1.3 | 10.75
Other   |            | 0.004584   |            |       |  0.89

Nlocal:        83.3333 ave          91 max          76 min
Histogram: 2 0 11 8 6 2 6 4 8 1
Nghost:        1751.83 ave        1779 max        1719 min
Histogram: 1 1 3 3 9 9 10 9 1 2
Neighs:        10481.6 ave       11577 max        9452 min
Histogram: 2 4 8 9 5 5 3 3 6 3

Total # of neighbors = 503118
Ave neighs/atom = 125.77950
Neighbor list builds = 142
Dangerous builds = 15

#############################
# L I N E A R  Q U E N C H  #
#############################

# Define solid atoms. This closely follows ten Wolde  Ruiz-Montero and Frenkel  Faraday Discuss  1996  104  93-110
# Compute components of the per-atom q6 vector
compute q6 all orientorder/atom degrees 1 6 components 6 nnn NULL cutoff 1.3 # compute the Q6 parameter.
                                                                             # Use all neighbours within 1.3 unit cell.

# get number of connections
compute coord_number all coord/atom orientorder q6 0.5

# An atom is solid if it has 8 or more connections (of a possible 14)
variable is_solid atom c_coord_number>=8
group solid dynamic all var is_solid    # Must be dynamic to update
dynamic group solid defined

# do clustering
compute cluster solid cluster/atom 1.3 # Create a cluster where all atoms within are solid and max 1.3 units from another member

# define chunks one chunk per cluster
compute clus_chunks solid chunk/atom c_cluster nchunk every compress yes  # Says which atoms are in which chunk

# count the size of each chunk
compute size_chunks solid property/chunk clus_chunks count


# Find the maximum entry in the vector of chunk sizes
variable max_n equal max(c_size_chunks)


# Thermo style which includes this variable
# thermo_style custom step temp pe vol v_max_n

thermo ${N}  # Print the thermo information every 100 steps
thermo 1000  

# Reset the npt fix at a lower temperature (below freezing)
fix 1  all npt temp  ${temp} ${temp}  0.1  iso  5.68  5.68  0.5  mtk yes tchain  5  pchain  5
fix 1  all npt temp  0.45 ${temp}  0.1  iso  5.68  5.68  0.5  mtk yes tchain  5  pchain  5
fix 1  all npt temp  0.45 0.45  0.1  iso  5.68  5.68  0.5  mtk yes tchain  5  pchain  5

dump dmp2 all dcd ${N} traj.dcd
dump dmp2 all dcd 1000 traj.dcd


compute msd all msd com yes
variable twopoint equal c_msd[4]/6/(step*dt+1.0e-6)
fix 9 all vector 10 c_msd[4]
variable fit equal slope(f_9)/6/(10*dt)
thermo_style custom step temp pe c_msd[4] v_twopoint v_fit v_max_n

fix 1 all npt temp 1.25 ${temp} 0.1 iso 5.68 5.68 0.5 mtk yes tchain 5 pchain 5
fix 1 all npt temp 1.25 0.45 0.1 iso 5.68 5.68 0.5 mtk yes tchain 5 pchain 5
run 5000000 # 5000000  # Run for this many steps
Neighbor list info ...
  update every 1 steps, delay 10 steps, check yes
  max neighbors/atom: 2000, page size: 100000
  master list distance cutoff = 3.8
  ghost atom cutoff = 3.8
  binsize = 1.9, bins = 9 9 9
  4 neighbor lists, perpetual/occasional/extra = 1 3 0
  (1) pair lj/cut, perpetual
      attributes: half, newton on
      pair build: half/bin/atomonly/newton
      stencil: half/bin/3d
      bin: standard
  (2) compute orientorder/atom, occasional
      attributes: full, newton on
      pair build: full/bin/atomonly
      stencil: full/bin/3d
      bin: standard
  (3) compute coord/atom, occasional
      attributes: full, newton on
      pair build: full/bin/atomonly
      stencil: full/bin/3d
      bin: standard
  (4) compute cluster/atom, occasional
      attributes: full, newton on
      pair build: full/bin/atomonly
      stencil: full/bin/3d
      bin: standard
Per MPI rank memory allocation (min/avg/max) = 9.775 | 9.780 | 9.785 Mbytes
Step Temp PotEng c_msd[4] v_twopoint v_fit v_max_n 
   12000    1.2324514   -6.5630024 1.0286746e-30 7.1435735e-33 8.3333333e+20            2 
   13000    1.2209298   -6.5539829   0.55935499 0.0035856087  0.045512344            2 
   14000    1.2698805   -6.5366914    1.0998992 0.0065470187  0.045267353            2 
   15000    1.2205203   -6.5512518    1.5936102 0.0088533897  0.044024811            1 
   16000    1.2417635   -6.5340684    2.1636247  0.011268878  0.043925089            2 
   17000    1.2315977   -6.6114565    2.6547878  0.013013665  0.043986419            1 
   18000    1.2400304    -6.580805    3.1789405  0.014717317  0.043852729            2 
   19000    1.2527534   -6.5975069    3.7194935  0.016313568  0.043850442            1 
   20000    1.2585812   -6.5665305    4.2510195  0.017712581  0.043839857            3 
   21000    1.2234969   -6.5455976    4.7901189  0.019008408  0.043891944            1 
   22000    1.2905229   -6.5203789    5.4028056  0.020465172  0.044096537            1 
   23000    1.2555296   -6.5699629    5.9818078  0.021673216  0.044555458            2 
   24000    1.2413405   -6.5680732    6.5721147  0.022819842   0.04496746            1 
   25000    1.2505901   -6.5540982    6.9582547  0.023194182  0.045118757            3 
   26000     1.243928   -6.5670823    7.4264995  0.023802883  0.044836667            3 
   27000    1.2497434   -6.5932429    7.8985097  0.024378116  0.044552051            1 
   28000     1.244791   -6.5871674    8.3377214  0.024814647  0.044214332            2 
   29000    1.2526664   -6.5227023    8.8996258  0.025573637  0.043945642            3 
   30000      1.25692   -6.5387442    9.4020551  0.026116819  0.043722748            1 
   31000    1.2396548   -6.5979414    9.9902606  0.026855539  0.043646516            2 
   32000    1.2599252   -6.5405658    10.545579  0.027462444   0.04355629            1 
   33000     1.250204   -6.5711928    11.061262  0.027932479  0.043572584            2 
   34000    1.2778854   -6.5923057    11.472004  0.028117656  0.043534529            1 
   35000    1.2541174   -6.5566098    12.023467  0.028627302  0.043473807            1 
   36000    1.2319843   -6.5884222    12.528729  0.029001686   0.04342926            2 
   37000    1.2327182    -6.546458    12.990377  0.029257606  0.043362015            2 
   38000     1.261576   -6.5620137    13.490023  0.029583384   0.04326951            2 
   39000    1.2552706    -6.579224    13.897899  0.029696364  0.043147349            2 
   40000    1.2751343   -6.5669225    14.412778  0.030026621  0.043023446            2 
   41000    1.2381341   -6.5918619    15.020757  0.030529994  0.042958519            1 
   42000     1.249412   -6.5710006    15.524561  0.030802701  0.042930151            4 
   43000    1.2500112   -6.5456489    16.013809  0.031034514  0.042872849            1 
   44000    1.2490655    -6.567067    16.377107  0.031017248  0.042826684            2 
   45000    1.2332664   -6.5508941     17.10052  0.031667629  0.042783951            2 
   46000    1.2309678   -6.5645214    17.566353  0.031823102  0.042760996            1 
   47000     1.244424   -6.5808062    18.094247  0.032081998  0.042740909            1 
   48000    1.2426335   -6.5622449    18.499675   0.03211749  0.042723644            1 
   49000    1.2226609    -6.600296    18.905733  0.032152607  0.042662706            2 
   50000     1.257182   -6.5356792    19.511953  0.032519921  0.042603256            2 
   51000    1.2533579    -6.587056     19.83962   0.03241768  0.042543876            1 
   52000    1.2460555   -6.6003559    20.377287  0.032655908  0.042483412            2 
   53000    1.2224316    -6.574916    20.765905  0.032650794  0.042418968            1 
   54000    1.2284845   -6.5751165    21.303574  0.032875886  0.042337597            2 
   55000    1.2511509   -6.5722918     21.78976  0.033014788  0.042273505            1 
   56000      1.24962   -6.5850148    22.386061  0.033312591  0.042222955            2 
   57000    1.2531496   -6.5737164    22.986618  0.033606166  0.042186192            1 
   58000     1.248737   -6.5502708    23.585275  0.033886889  0.042176797            5 
   59000    1.2585858   -6.5866808     23.96053  0.033842556  0.042170889            2 
   60000    1.2564812   -6.5710985    24.574269  0.034130929   0.04217181            2 
   61000    1.2623591   -6.5888311    24.967043  0.034107982  0.042171065            3 
   62000    1.2213897   -6.5311507    25.613662  0.034426965  0.042161176            1 
   63000    1.2353065   -6.5868269    26.091405   0.03451244  0.042162703            5 
   64000    1.2376059   -6.5818172    26.620977   0.03466273  0.042160292            2 
   65000    1.2487643   -6.5480941    27.106593  0.034752043  0.042170174            2 
   66000    1.2446732   -6.6244103    27.304453  0.034475319  0.042150771            2 
   67000    1.2429184   -6.5836192    27.853664   0.03464386   0.04212379            2 
   68000    1.2338584   -6.5837177    28.485371  0.034908543  0.042101033            4 
   69000    1.2547995   -6.6038903    29.016757  0.035044392  0.042085176            3 
   70000    1.2219905   -6.6149332    29.572784  0.035205695  0.042088019            1 
   71000    1.2231385   -6.5603248    30.108193  0.035338255  0.042088984            2 
   72000    1.2179128   -6.5799961    30.416949  0.035204801  0.042073927            2 
   73000    1.2243187   -6.6331527    30.901454  0.035275632  0.042060987            2 
   74000     1.240961   -6.6170646    31.650745  0.035642731  0.042063204            1 
   75000    1.2091172   -6.6220491    31.955547  0.035506164  0.042064752            2 
   76000    1.2349914   -6.5897404    32.420811  0.035549135  0.042049725            3 
   77000    1.2566049   -6.5366219    33.009894  0.035724993  0.042032578            2 
   78000    1.2257797   -6.5583747    33.379975  0.035662366  0.042014285            3 
   79000    1.2544725   -6.5813515    33.862477  0.035719912   0.04199295            1 
   80000    1.2313329    -6.585275    34.436215  0.035871057  0.041986895            2 
   81000    1.2443091   -6.5860568    34.949267  0.035956036   0.04197886            5 
   82000    1.2386217   -6.5966035    35.553213  0.036131313  0.041982441            1 
   83000    1.2385178   -6.5946247    36.097657  0.036242627  0.041985215            2 
   84000     1.241745   -6.5762682    36.670803  0.036379765  0.041996861            2 
   85000    1.2572625    -6.566745    37.172526  0.036443653    0.0420028            2 
   86000    1.2394127   -6.6160084    37.370637  0.036211858  0.041990451            3 
   87000    1.2377996   -6.5763694    37.999708  0.036398188  0.041980742            1 
   88000    1.2478427   -6.5255905    38.596283   0.03654951  0.041965669            1 
   89000    1.2247469    -6.599127    38.697932  0.036234019  0.041957061            2 
   90000    1.2535596   -6.6359995    39.452483  0.036530077  0.041943448            3 
   91000    1.2505535   -6.6053896    39.995552  0.036625963  0.041934645            2 
   92000    1.2594096   -6.5689487    40.568121  0.036746486   0.04193317            2 
   93000    1.2418201    -6.590857    41.046015  0.036779583   0.04193242            2 
   94000    1.2336812   -6.5911637    41.806639  0.037062623  0.041935255            4 
   95000    1.2340078   -6.5684514    42.339676  0.037140066  0.041949822            2 
   96000    1.2367797    -6.586397    42.789157  0.037143365   0.04196174            2 
   97000      1.23282    -6.612041    43.230674  0.037139754  0.041964143            2 
   98000    1.2520725   -6.6265481     43.64775  0.037115434  0.041970224            3 
   99000    1.2137813   -6.6106816    44.365759  0.037344915  0.041980655            2 
  100000    1.2133347   -6.5775212    44.880855  0.037400712  0.041991148            2 
  101000     1.257505   -6.5803994    45.065875  0.037183065  0.041996235            2 
  102000    1.2076556   -6.6003506    45.567971  0.037228735   0.04199013            2 
  103000    1.2431695   -6.6393712    46.361875  0.037509607  0.041994235            1 
  104000    1.2396502   -6.6349934    46.869848  0.037555968   0.04200842            6 
  105000    1.2095809   -6.5887411    47.306084  0.037544511  0.042020959            1 
  106000    1.2597997   -6.5919605    48.033025  0.037761812  0.042036979            6 
  107000    1.1982459   -6.5830297    48.699187  0.037927715  0.042056756            3 
  108000    1.2316279   -6.5712396    48.933208  0.037757104  0.042071279            3 
  109000    1.1979073   -6.6103194    49.237156  0.037643086  0.042078594            2 
  110000    1.2542802   -6.5980335      49.7492  0.037688788  0.042078193            3 
  111000    1.2375997   -6.5905194    50.245278   0.03772168  0.042080922            2 
  112000    1.2323128   -6.6123003    50.554946  0.037615287   0.04207905            2 
  113000     1.215363   -6.5836309    51.147709  0.037719549   0.04206677            2 
  114000    1.1866888   -6.6228746    51.345888  0.037533544  0.042053464            1 
  115000    1.2214627   -6.5823186    52.191254  0.037819749  0.042041404            1 
  116000    1.2338245   -6.6286649    52.213448  0.037509661  0.042034933            1 
  117000    1.2241487   -6.5898018    52.902384   0.03767976   0.04201764            3 
  118000    1.2398673   -6.6180617     52.97403  0.037411038  0.041998314            2 
  119000    1.2138429   -6.5722671    54.062921  0.037859188  0.041983295            2 
  120000    1.2119488   -6.6159708    54.448683  0.037811585  0.041971328            2 
  121000    1.2054681   -6.6428106    54.849713  0.037775284  0.041957559            3 
  122000    1.2473862   -6.5503422     55.61851  0.037990785  0.041948574            4 
  123000    1.2437196   -6.5984946     55.92038  0.037886436    0.0419322            1 
  124000    1.2207232   -6.6041347    56.471982  0.037951601   0.04191756            1 
  125000    1.2090406    -6.612881    56.854665   0.03790311  0.041906363            1 
  126000    1.2117357   -6.5875594    57.518981  0.038041654  0.041894596            3 
  127000    1.2428088   -6.6113208    57.857683  0.037964359  0.041886183            1 
  128000    1.2257034   -6.5949516    58.417711  0.038032364  0.041878933            1 
  129000    1.2522978   -6.5698619    59.103154  0.038180332  0.041870011            2 
  130000    1.2312028   -6.6145906    59.302771  0.038014597  0.041863233            1 
  131000    1.2185169   -6.5841214    59.692193  0.037972133  0.041847872            2 
  132000    1.2368011   -6.5732253    60.216882  0.038015708  0.041829566            1 
  133000     1.217939   -6.5971628     60.63145   0.03798963  0.041815882            4 
  134000    1.2310753   -6.5963552    61.402532  0.038185654  0.041807618            1 
  135000    1.1967129   -6.5959083    61.757475  0.038121898  0.041797075            1 
  136000    1.2485437   -6.6123355    62.327224  0.038190701  0.041786673            2 
  137000    1.2399219   -6.6597846    62.710111  0.038144836   0.04177885            2 
  138000    1.2189093   -6.5450545    63.526064   0.03836115  0.041772496            1 
  139000    1.2235909   -6.6309662    63.694935  0.038186412  0.041765774            2 
  140000    1.2212435   -6.5963418    64.480866  0.038381468   0.04176252            4 
  141000    1.2439561   -6.6064455    65.117968  0.038485797  0.041761593            1 
  142000     1.211716   -6.5513343    66.077937  0.038778132  0.041769191            3 
  143000     1.222184   -6.6014775     66.43818  0.038716888  0.041781135            3 
  144000    1.2370466   -6.6023164    66.650408  0.038570838  0.041790469            2 
  145000    1.2243186   -6.5756518     67.22765  0.038636581  0.041792882            1 
  146000    1.2179672   -6.6065724    67.817855  0.038708821  0.041793318            1 
  147000    1.2118267   -6.6324084    68.228464  0.038678267  0.041793373            2 
  148000    1.2021566   -6.5843403    68.591178  0.038621159  0.041793683            1 
  149000    1.2388216   -6.6196351     68.94226  0.038558311  0.041788374            2 
  150000    1.2280731   -6.6071641    69.511976  0.038617764  0.041783285            2 
  151000    1.1985402   -6.6079638     69.83229  0.038538791  0.041775126            2 
  152000    1.2289307   -6.5969686     70.26777  0.038523996  0.041762419            1 
  153000    1.2319289   -6.6145693    70.743543  0.038531341  0.041751832            2 
  154000    1.2458325   -6.5935377    71.116364  0.038482881  0.041741772            2 
  155000    1.2309986   -6.6491203    71.298354  0.038332448  0.041728923            2 
  156000    1.2296632   -6.6181432     72.10655  0.038518456  0.041718746            1 
  157000    1.2076965   -6.6242827    72.608504  0.038539545  0.041713406            2 
  158000    1.2321335   -6.6618185    73.246715  0.038632234  0.041709435            4 
  159000    1.2604267   -6.6276706    73.685875  0.038619431  0.041701463            2 
  160000    1.2296119   -6.5649552    74.337529  0.038717463  0.041698568            1 
  161000    1.2183238    -6.642347    74.504751  0.038563536   0.04169195            1 
  162000    1.2098308   -6.6137318    74.836916  0.038496356  0.041683097            2 
  163000     1.244362   -6.6405368    75.278236  0.038485806  0.041669936            1 
  164000    1.2487065   -6.6149912    76.085531  0.038661347  0.041660568            2 
  165000    1.2009856   -6.5968956    76.796846  0.038786286  0.041654503            4 
  166000    1.2215893   -6.6215006    77.358521  0.038834599  0.041648923            2 
  167000    1.2393739    -6.628235    77.679191  0.038762071  0.041644324            2 
  168000    1.2219143   -6.6217605    78.142947  0.038761382  0.041638593            1 
  169000    1.2239243   -6.6367119    78.714708  0.038813959  0.041634035            2 
  170000    1.2249256   -6.6264767    79.101142  0.038775069  0.041629849            3 
  171000    1.2365522   -6.6194634    79.587887   0.03878552  0.041624966            1 
  172000    1.2366671   -6.5848539    80.298034  0.038904086  0.041622347            1 
  173000    1.2282229   -6.6190309    80.889247  0.038963991  0.041619182            1 
  174000    1.2311493   -6.6086875     81.67049  0.039114219  0.041616828            2 
  175000    1.2216185   -6.6153931    82.055706  0.039074146  0.041618741            2 
  176000    1.2107459    -6.644786    82.625119  0.039121742    0.0416221            2 
  177000    1.2195419   -6.6189042    83.013505  0.039083571  0.041624015            3 
  178000    1.2481059   -6.6574709    83.138356  0.038922451  0.041624774            3 
  179000    1.2413548   -6.6122925    83.756454  0.038992763  0.041621965            2 
  180000    1.2541547   -6.6613031    83.845126  0.038817188  0.041618499            3 
  181000    1.2260571   -6.6440827    84.185046  0.038759229   0.04160924            2 
  182000    1.2187122   -6.6327552    84.449107  0.038667174  0.041596998            4 
  183000    1.2253213   -6.5896791    84.957813  0.038687529  0.041580622            4 
  184000    1.2201953    -6.688851    85.398822  0.038677003  0.041564937            3 
  185000    1.1999702   -6.5915721     85.83938  0.038666387  0.041548627            2 
  186000    1.2280351   -6.5963777     86.29073  0.038660721  0.041533694            2 
  187000    1.2283517    -6.620342    86.863535   0.03870924  0.041518162            1 
  188000    1.2328653   -6.6253396    87.405147  0.038743416  0.041503092            3 
  189000    1.2288877   -6.6241373    87.830693  0.038726055  0.041488928            3 
  190000    1.2492553   -6.5895951    88.103428  0.038641854  0.041474526            1 
  191000    1.2530434   -6.6275054     88.92561  0.038798259  0.041460388            2 
  192000    1.2463973   -6.5531975    89.331169  0.038772209   0.04144378            4 
  193000    1.2350495   -6.6142754    89.770715  0.038761103  0.041428413            2 
  194000    1.2135078   -6.6163939    90.051505  0.038681918   0.04141031            3 
  195000    1.2283085    -6.651296    90.240212  0.038564193  0.041394083            2 
  196000    1.2246651   -6.5875007    91.088721  0.038728198   0.04137785            3 
  197000    1.2090493   -6.6446638    91.199873  0.038578626  0.041361399            2 
  198000    1.1840691   -6.6116502    91.996894  0.038719231  0.041344112            2 
  199000    1.2080615   -6.6207809    92.322352  0.038660951  0.041328908            2 
  200000    1.2171365   -6.5943516    92.668817  0.038612007  0.041313617            1 
  201000     1.257973    -6.570848    93.682966  0.038840367  0.041297888            2 
  202000    1.2343457   -6.6742297    93.445783   0.03855024  0.041282951            1 
  203000    1.2131369   -6.6084183    93.793179  0.038502947  0.041264244            1 
  204000    1.2286458   -6.6302434    94.022942  0.038408065  0.041242823            3 
  205000    1.2001967   -6.6144791    95.046029  0.038636597  0.041223765            1 
  206000    1.2500774   -6.5904418    95.522702   0.03864187  0.041206254            2 
  207000      1.21942   -6.5971486    96.291699  0.038764774  0.041190558            3 
  208000     1.223117   -6.6375314    96.436369  0.038636366  0.041174031            3 
  209000    1.2243791    -6.671476    96.900105  0.038636406  0.041158701            2 
  210000    1.2373798   -6.6322389    97.346726  0.038629653  0.041141828            1 
  211000     1.235761   -6.6089822    97.810601  0.038629779  0.041125698            2 
  212000    1.2292343   -6.6144863    98.180144  0.038592824   0.04110889            2 
  213000    1.2092779   -6.6588802    98.249674  0.038438839  0.041091342            1 
  214000    1.2076614   -6.6360527     98.91447  0.038518096  0.041074857            2 
  215000    1.1926266    -6.638926    99.620645  0.038612653  0.041057952            1 
  216000    1.1987844    -6.659195    99.837292  0.038517474  0.041039613            3 
  217000    1.2319742   -6.6718341    100.05315   0.03842287  0.041021136            2 
  218000    1.2236567   -6.6025331    101.38243  0.038754751  0.041003617            2 
  219000     1.218678   -6.5950615    101.47262  0.038612109  0.040987677            2 
  220000    1.2563071   -6.6566121    101.62786  0.038495401  0.040969065            2 
  221000    1.2356081   -6.6174012    102.59098  0.038684382  0.040952446            2 
  222000    1.1908473   -6.5997561    102.79362  0.038586195  0.040939257            3 
  223000    1.2134228   -6.6072743    103.68703  0.038747022  0.040923999            2 
  224000    1.2022452   -6.6023973    104.10872  0.038730923  0.040912192            5 
  225000     1.232855    -6.638705    104.64292  0.038756636  0.040901575            2 
  226000    1.2288425   -6.6254385    105.46474  0.038888177  0.040892065            1 
  227000    1.2115594   -6.6483174    105.32533  0.038665687  0.040884188            2 
  228000    1.2092962   -6.6298396    106.11584   0.03878503  0.040875025            2 
  229000    1.2446409   -6.6115206    106.81108   0.03886866  0.040866793            1 
  230000    1.2007099   -6.6238819    107.11606  0.038810166  0.040859738            1 
  231000    1.2160125    -6.610437    107.57909  0.038809195  0.040850642            3 
  232000    1.1982564   -6.6008269    108.29782  0.038900078  0.040841225            1 
  233000    1.2199729    -6.656767    109.09014  0.039016503  0.040837209            1 
  234000    1.2164427   -6.6493436    109.23886  0.038902726   0.04083325            5 
  235000    1.2112868   -6.6238112    110.06209  0.039029109    0.0408289            3 
  236000    1.2012808   -6.6113325    110.39346  0.038980742  0.040825529            1 
  237000    1.2046668   -6.6370137    110.60944   0.03889221  0.040820299            4 
  238000     1.226629   -6.6428684     111.1324  0.038911906   0.04081406            2 
  239000    1.2352092   -6.6591783    111.04422  0.038718348   0.04080522            3 
  240000    1.1980975   -6.6499177    111.84631  0.038835525  0.040795774            1 
  241000    1.2115596   -6.6316691    112.48569  0.038895468  0.040788044            3 
  242000    1.2095332   -6.6493031    112.62935  0.038784211  0.040779266            2 
  243000    1.2340911   -6.6348719    113.19978  0.038820227  0.040771739            2 
  244000    1.2033592   -6.6471413    113.65603  0.038816949  0.040763242            1 
  245000    1.2187385    -6.606255    114.19248  0.038840979  0.040756891            3 
  246000    1.2090255   -6.6249572    114.83031  0.038899156  0.040750322            1 
  247000    1.2189291   -6.5767354    115.56751  0.038990388  0.040743013            1 
  248000    1.2044473   -6.5988849    115.88868  0.038941088   0.04073491            2 
  249000    1.2274321   -6.6362638    116.33923  0.038935484  0.040727558            2 
  250000    1.2080372   -6.6130609     116.7311  0.038910365  0.040720801            2 
  251000    1.2387732   -6.6089391    117.01831  0.038850699  0.040713779            2 
  252000    1.2021628   -6.6188496    117.49446  0.038853988  0.040705143            1 
  253000    1.1779406   -6.6545774    117.79786  0.038800348  0.040696156            1 
  254000    1.2034653   -6.6223398    118.15103  0.038763462  0.040686606            1 
  255000     1.206681   -6.6306057    118.53617  0.038737311  0.040675381            1 
  256000    1.1943148   -6.6280482    119.42826  0.038876385  0.040665721            3 
  257000    1.2337241   -6.6974159    119.31846  0.038689513  0.040655296            1 
  258000    1.1939636   -6.6192324    119.89123  0.038724557  0.040645356            2 
  259000    1.2071547   -6.6811866    120.33371  0.038717409  0.040636896            2 
  260000    1.2173151   -6.6022954     121.0455  0.038796634  0.040626908            3 
  261000     1.218797   -6.6416097    121.60313  0.038826032  0.040616422            1 
  262000     1.215224   -6.6303589     122.1679  0.038857475  0.040605954            3 
  263000    1.2245823   -6.6332153    122.49826  0.038814405  0.040596688            2 
  264000    1.1839101        -6.63    123.04892  0.038841199  0.040587874            4 
  265000    1.2015998   -6.7109196    123.38831  0.038801357   0.04057696            1 
  266000    1.2224725   -6.6763326    123.77043  0.038775197   0.04056812            2 
  267000    1.2201144    -6.633671    124.52587  0.038865751   0.04055875            3 
  268000    1.2272464   -6.6665597    124.61797  0.038749369  0.040550172            2 
  269000     1.215064   -6.6455882    125.44055  0.038860146  0.040542002            1 
  270000    1.2113088   -6.6818129    125.96155  0.038877023  0.040533052            2 
  271000    1.2222463   -6.6336998    125.91181   0.03871827  0.040522992            1 
  272000    1.2059743    -6.664626    126.25617  0.038681426  0.040512449            6 
  273000    1.2142547   -6.6643374    127.12249  0.038804179  0.040502434            2 
  274000    1.2400588   -6.6154911    128.00024  0.038929512  0.040494354            2 
  275000    1.2338809   -6.6570401    127.42365  0.038613228  0.040484851            2 
  276000    1.2216859   -6.6653494    128.16714  0.038697808  0.040472261            1 
  277000    1.1793622    -6.656075    128.17762  0.038561257  0.040459158            1 
  278000    1.1902275   -6.6684848    128.68371  0.038574255  0.040443878            1 
  279000    1.2062899   -6.6010827    129.13088  0.038569559  0.040428854            2 
  280000     1.197989   -6.6006328    128.91167   0.03836657  0.040414126            3 
  281000     1.206054   -6.6215737    130.10168  0.038582942  0.040399822            2 
  282000     1.193376   -6.6492391    130.19508  0.038473723  0.040386368            2 
  283000    1.1905463   -6.6521889    130.76888  0.038506736    0.0403717            4 
  284000    1.2148161   -6.6239876    130.15489  0.038190989  0.040355024            2 
  285000    1.2187757   -6.6469596    131.56433  0.038469102  0.040337618            2 
  286000    1.2129453   -6.6450294    131.60969  0.038347811  0.040322539            1 
  287000    1.2156232   -6.6175567    132.82167  0.038566105  0.040308572            2 
  288000    1.2274753   -6.6548547    133.07992  0.038506922  0.040294489            2 
  289000     1.216774   -6.6426617    133.03855  0.038361751  0.040280045            2 
  290000    1.2037802   -6.6340615    133.79771  0.038447617  0.040266165            2 
  291000    1.2079458   -6.6467564     134.5886  0.038541983  0.040252951            2 
  292000     1.204161   -6.6150418    135.05687  0.038543626  0.040240177            2 
  293000    1.2097624    -6.639604    135.75123  0.038609565  0.040229023            2 
  294000    1.2303459   -6.6673992    136.16857  0.038596535  0.040216965            3 
  295000    1.1872587   -6.6823261    136.48014  0.038553711  0.040205515            1 
  296000    1.1942409   -6.6448526    136.89554  0.038540411  0.040194941            1 
  297000    1.2057749   -6.6471726    137.66307  0.038626002   0.04018453            1 
  298000    1.1902463   -6.6388605    138.16274  0.038636112  0.040174736            2 
  299000    1.2072354   -6.6869148    138.45352  0.038587938   0.04016452            5 
  300000    1.1862527   -6.6730962    138.85254   0.03857015  0.040154916            1 
  301000    1.1994866   -6.6727072    139.87106  0.038723992  0.040144603            3 
  302000    1.1901721   -6.6086758    139.68185  0.038543556  0.040134053            2 
  303000    1.2243829   -6.6366248    140.58033  0.038663458  0.040124054            2 
  304000    1.2028137   -6.6675236    140.09512  0.038403267   0.04011309            1 
  305000    1.2070909   -6.6723529     141.0652  0.038542405  0.040102929            1 
  306000    1.1902416   -6.6967223    141.05574  0.038413873  0.040090471            1 
  307000    1.1883235   -6.6516961    141.20515  0.038329303  0.040078247            1 
  308000    1.1942239   -6.6250399    142.05949   0.03843601  0.040065812            1 
  309000    1.1817039   -6.6603882    142.38797  0.038400208  0.040053033            5 
  310000    1.1789913   -6.6829302    142.65143  0.038347158  0.040039993            1 
  311000    1.2168625    -6.664355    142.79724  0.038262925  0.040027358            5 
  312000    1.1950535   -6.6633415    143.49904  0.038327735  0.040013602            1 
  313000    1.2090861   -6.6329622    143.99685   0.03833782  0.040001335            1 
  314000    1.2124958   -6.6617916    144.70079  0.038402545   0.03998807            2 
  315000    1.1846842   -6.6375787    144.99925   0.03835959  0.039975214            1 
  316000    1.2324599   -6.6495879    145.80608  0.038450972  0.039962115            2 
  317000    1.2054798   -6.6064923    146.10418  0.038408039    0.0399497            1 
  318000    1.2081416    -6.623557    146.37722   0.03835881  0.039938728            1 
  319000    1.2175802   -6.6841948    146.70772    0.0383249  0.039926698            2 
  320000    1.1842007   -6.7084891    147.30512  0.038360709   0.03991511            4 
  321000    1.2177285    -6.650098    148.22191  0.038479209  0.039904349            1 
  322000    1.2153013   -6.6520011    148.81656  0.038513603  0.039893861            1 
  323000    1.1994961     -6.65956     149.2736  0.038512282  0.039883824            2 
  324000     1.206564   -6.6439849    150.02887  0.038587673  0.039874867            3 
  325000    1.1763134   -6.6568078    150.33946   0.03854858   0.03986627            3 
  326000    1.2058113   -6.6543689    150.65305  0.038510493   0.03985773            3 
  327000    1.2073995   -6.6768636    151.37894  0.038577711  0.039849787            3 
  328000    1.2137928   -6.6320924    152.19526  0.038667495  0.039841542            1 
  329000    1.1749914   -6.6355582    151.80721  0.038451675  0.039833464            1 
  330000    1.1668789   -6.6252106    152.41773  0.038489326  0.039824682            4 
  331000    1.2074382   -6.6417254    152.90739  0.038496323  0.039817091            1 
  332000    1.1758882   -6.6437011    152.93265   0.03838671  0.039808428            1 
  333000    1.1959825   -6.6692624    153.88977  0.038510954  0.039799619            2 
  334000    1.2001014   -6.6481786    154.47953  0.038542796  0.039792519            3 
  335000     1.177056    -6.676475    155.19359  0.038605369  0.039785392            3 
  336000    1.1894499   -6.6462192    155.38545  0.038538058  0.039777394            2 
  337000    1.2021916   -6.6055218    156.26336  0.038640791  0.039769589            1 
  338000    1.2033025   -6.6905266    155.80031  0.038412305   0.03976087            1 
  339000     1.209105   -6.6927918    156.52883  0.038478079  0.039751392            2 
  340000    1.2272741   -6.6898662    156.93502  0.038464465  0.039742512            5 
  341000    1.1930423   -6.6434594    157.64784  0.038525866  0.039736025            1 
  342000    1.1975756   -6.6629862    158.23603  0.038556538  0.039728939            3 
  343000    1.1982681   -6.6346955    158.29575  0.038458637  0.039719956            2 
  344000    1.2188264   -6.6667736    159.20442  0.038566962  0.039712422            3 
  345000    1.1881124   -6.6842073    158.95911   0.03839592  0.039704129            2 
  346000    1.1874242   -6.6852495    159.73932  0.038472862  0.039695397            3 
  347000    1.1753431   -6.6749182    160.43267  0.038528499  0.039687642            2 
  348000    1.2196798   -6.6631018    160.61331  0.038461042  0.039679424            2 
  349000    1.1901744   -6.6603798    161.32127  0.038519883  0.039671821            2 
  350000    1.2189753    -6.686099    161.42056  0.038433466  0.039663077            1 
  351000    1.2019906   -6.6713352    160.89467  0.038199114  0.039653891            2 
  352000    1.1766878   -6.6476086    162.13936  0.038385265  0.039644271            2 
  353000    1.1863449   -6.6922418    162.07481  0.038261287  0.039635093            1 
  354000     1.186012   -6.7064884    162.82919  0.038330789  0.039625557            3 
  355000    1.2027647   -6.6435076    163.93319  0.038481969  0.039616963            2 
  356000     1.190691   -6.6716445    164.01439  0.038392882  0.039609108            1 
  357000    1.1753542    -6.682798    164.45834  0.038388967  0.039602376            2 
  358000    1.2050634   -6.6953629    164.93859  0.038393526  0.039594677            2 
  359000    1.2040482   -6.6618311    165.74405   0.03847355   0.03958678            1 
  360000    1.2086733   -6.6521082    166.09649  0.038448262  0.039578643            2 
  361000    1.1924289   -6.6521893    166.43264  0.038419353  0.039570233            2 
  362000    1.1797872   -6.6134837    167.70683  0.038606544  0.039563836            3 
  363000    1.1937581   -6.6738582     166.7575  0.038282254   0.03955715            2 
  364000    1.2027607    -6.643238    167.53805  0.038355781  0.039548612            1 
  365000    1.1950001   -6.7013768    167.61715  0.038268756  0.039540079            2 
  366000    1.1957746   -6.6934458    168.14663  0.038284752  0.039530442            3 
  367000    1.2002485    -6.677668    169.05543  0.038386793   0.03952149            1 
  368000    1.1754027   -6.6829152    168.48466  0.038153229  0.039511814            4 
  369000    1.1821277   -6.6782607    169.98724  0.038389169  0.039502912            1 
  370000    1.1905226   -6.6819578    169.62593  0.038204038  0.039494299            4 
  371000    1.2044674   -6.6591519    170.57349  0.038313903  0.039485617            4 
  372000    1.2014212   -6.6818997    170.73602  0.038247316  0.039476385            3 
  373000    1.1969771    -6.642652    171.64351  0.038347523  0.039467591            2 
  374000    1.1942453   -6.6872951    171.45215  0.038202351  0.039460218            2 
  375000    1.1764545    -6.674472    172.35167  0.038300371  0.039451501            3 
  376000    1.1663883   -6.7055594    172.89522  0.038318975  0.039443255            2 
  377000    1.2067404   -6.6967767    173.30843  0.038308671  0.039435314            3 
  378000    1.1833538   -6.6782483    173.88603  0.038334663  0.039427709            1 
  379000    1.1894844   -6.6710829     173.9937  0.038257189  0.039419243            2 
  380000    1.1923649    -6.698006    173.90015  0.038135998  0.039410344            2 
  381000    1.1997129   -6.6576595    174.72065  0.038215365   0.03940103            1 
  382000    1.1845493    -6.720871    175.19982  0.038219855   0.03939257            1 
  383000    1.1869492   -6.6636874    175.86274  0.038264303  0.039385279            3 
  384000    1.1889814   -6.6870828    175.65484  0.038119539  0.039376194            3 
  385000    1.1708238    -6.674371    176.39775  0.038181331  0.039366847            1 
  386000    1.1900775   -6.6832007    176.21643  0.038043271  0.039357109            2 
  387000    1.1954092   -6.6889981    176.94161  0.038101123  0.039347402            2 
  388000    1.1771441   -6.6800996    177.95917   0.03822147  0.039337062            1 
  389000    1.1769642   -6.6514247    177.86808  0.038103702   0.03932731            2 
  390000    1.1646649   -6.7061367    178.64078  0.038171108   0.03931752            2 
  391000    1.2039252   -6.6816774    179.10162    0.0381717  0.039308538            2 
  392000    1.1992018   -6.6846962    179.32231   0.03812124  0.039297862            2 
  393000    1.2064927   -6.6930577    179.43071  0.038047223  0.039287829            1 
  394000    1.2017517   -6.7076092    179.72997  0.038013954  0.039277069            1 
  395000    1.1806726    -6.669276    180.43957   0.03806742  0.039265965            3 
  396000    1.1851509   -6.6644386    181.30599  0.038153617   0.03925502            1 
  397000    1.1835807   -6.6705331    181.16604  0.038028135  0.039243773            2 
  398000    1.1803475   -6.7257092    181.03443  0.037905032   0.03923258            2 
  399000    1.1690709   -6.6964602    181.65363  0.037939354  0.039221882            2 
  400000    1.2122482   -6.7015438    182.16498  0.037951037  0.039210322            1 
  401000    1.2029537   -6.6966935     182.8128  0.037991022   0.03919781            4 
  402000    1.1713166   -6.6710518    182.78146  0.037890021  0.039186403            2 
  403000    1.1998402   -6.6846836    182.56367  0.037750965    0.0391739            3 
  404000     1.168911   -6.6516777    184.16568   0.03798797  0.039161441            1 
  405000    1.1793318   -6.6988559    183.82434  0.037823939  0.039149363            3 
  406000    1.1705872   -6.6849505    184.29147  0.037826657  0.039137178            1 
  407000    1.1730893   -6.6931068    185.00347  0.037879498  0.039124744            2 
  408000    1.1791205   -6.7034957    185.22844  0.037832605  0.039113465            1 
  409000    1.2056151   -6.6659667     186.6689  0.038033598  0.039102574            2 
  410000     1.169637   -6.6557932    186.98761  0.038005611  0.039092499            2 
  411000    1.1716199   -6.6824819    187.42959  0.038002756  0.039082133            2 
  412000    1.2063851   -6.6347204    187.65501  0.037956111   0.03907239            5 
  413000    1.1660465   -6.6618314    188.41995  0.038018553  0.039063336            2 
  414000    1.2061415   -6.6847649    189.11474  0.038066573  0.039053529            5 
  415000    1.1996482   -6.7099805    188.62764  0.037877036  0.039044542            2 
  416000    1.1757023   -6.6883031     189.7922  0.038019272  0.039035863            2 
  417000     1.180797   -6.7012143    190.07467  0.037984546  0.039027812            2 
  418000    1.1872174   -6.6610516    190.75719  0.038029743  0.039018921            5 
  419000    1.1713699   -6.7351269    190.78994  0.037945493  0.039010635            2 
  420000    1.1706996   -6.7146852    192.11594  0.038118241  0.039003223            1 
  421000    1.1941552   -6.7129242    192.21123  0.038046562  0.038995603            2 
  422000    1.2211673   -6.6677983    193.01335    0.0381148  0.038988316            1 
  423000    1.1844862   -6.6701049    193.42336  0.038105469  0.038981273            2 
  424000    1.1792948   -6.6516297    193.45586  0.038021984   0.03897312            3 
  425000    1.1891288   -6.6869825    193.78944  0.037997929  0.038965643            2 
  426000    1.1798164   -6.6579768    194.05574  0.037960825  0.038957197            1 
  427000    1.1852999   -6.6862102    194.05687  0.037872146  0.038949348            2 
  428000     1.200209   -6.6639469    195.87098  0.038136873  0.038940882            1 
  429000    1.1770236   -6.7088774    195.28365  0.037933887  0.038933057            1 
  430000    1.1871532   -6.7269515    195.33806  0.037856214  0.038924998            2 
  431000    1.1972559   -6.6843439    196.86091  0.038062821  0.038916311            1 
  432000    1.1850522   -6.6955761     196.8588  0.037974305   0.03890832            4 
  433000    1.1640168    -6.659234    197.53692  0.038017113  0.038901038            2 
  434000    1.1836099     -6.70766     197.8944  0.037998157  0.038893082            2 
  435000     1.207887   -6.7028038     197.8283  0.037898141  0.038884776            1 
  436000    1.1580779   -6.7062326    197.71611  0.037789777  0.038876147            2 
  437000    1.2051971   -6.7100934    198.59989  0.037871833   0.03886728            3 
  438000    1.1891274    -6.671705    199.98557  0.038049004  0.038859662            3 
  439000    1.2092869   -6.6905572    199.49002  0.037868265  0.038851286            5 
  440000    1.1795417   -6.6669987     200.4237  0.037959033  0.038843709            1 
  441000    1.1522618   -6.7079063    200.81362   0.03794664  0.038835974            4 
  442000    1.1729766   -6.7184046    201.58163  0.038005587  0.038828696            2 
  443000    1.2078242    -6.703858    201.27952  0.037862964   0.03882107            1 
  444000    1.1906033    -6.674333    202.20357  0.037951121  0.038813311            1 
  445000    1.1672996    -6.692225    202.16804  0.037859183  0.038805632            2 
  446000    1.2004998   -6.6756346    202.99096  0.037928057  0.038797143            1 
  447000      1.16231   -6.7144125    202.44884  0.037742141  0.038788195            2 
  448000     1.196524   -6.7064799     203.7071  0.037891946  0.038779923            1 
  449000    1.1556831   -6.6683333    204.72161  0.037995845  0.038772177            2 
  450000    1.1817789   -6.6736119    205.16376  0.037993288  0.038765108            1 
  451000    1.1742332   -6.6740188     205.9968  0.038062971  0.038758736            2 
  452000     1.172619   -6.6876576    206.94666  0.038153883  0.038753694            4 
  453000    1.1867329    -6.715988    206.82166  0.038046663    0.0387479            3 
  454000    1.2196073    -6.718085    206.81333  0.037961331  0.038742353            1 
  455000    1.1918225    -6.740522    207.55987  0.038014628  0.038736677            1 
  456000    1.1707425   -6.6891613    208.17724  0.038044087  0.038731684            2 
  457000    1.2155788   -6.6823242    208.09285  0.037945451  0.038726112            6 
  458000     1.175058    -6.703391    209.20845  0.038065585  0.038721209            2 
  459000    1.1625283   -6.7214866    209.14574  0.037971267  0.038715955            4 
  460000    1.1856012   -6.7404149    209.47925   0.03794914  0.038709964            1 
  461000    1.1882334   -6.7069793    210.27589  0.038010826   0.03870431            2 
  462000    1.1561749   -6.6958581    211.09934  0.038077082  0.038699421            1 
  463000    1.1833809   -6.6993171    211.32363   0.03803521  0.038694643            1 
  464000    1.1894993   -6.6955255    211.46319  0.037978303  0.038689766            3 
  465000    1.1561539   -6.6923588    211.14149  0.037838976  0.038684338            2 
  466000    1.1776883   -6.7072149    212.05812  0.037921695  0.038678464            2 
  467000    1.1754752   -6.6812133    213.10777  0.038027796   0.03867243            7 
  468000    1.2021826   -6.6935678    213.29173  0.037979297  0.038667048            1 
  469000    1.1656652   -6.7259991    213.61973  0.037956597  0.038662283            1 
  470000    1.1716113   -6.6930244    214.24342  0.037986422  0.038657278            3 
  471000    1.1746982   -6.6997225    215.51086  0.038130018  0.038652887            2 
  472000    1.1784495   -6.7067326    215.85826  0.038110569  0.038648319            1 
  473000    1.1660162   -6.7308434    216.49234   0.03814171  0.038644656            2 
  474000    1.2076878   -6.6662423    217.60479  0.038256819  0.038641068            2 
  475000    1.1814784   -6.7137691    217.02705  0.038074922  0.038637362            2 
  476000    1.1489017   -6.7511775    217.01313  0.037992494  0.038633044            1 
  477000    1.1624643   -6.7042046    217.71843  0.038036064  0.038629071            2 
  478000     1.175667   -6.6915204     218.4657  0.038086768  0.038624871            3 
  479000    1.1676275   -6.6803561    218.89187  0.038081398  0.038620815            3 
  480000    1.1657161   -6.7270835    218.75714   0.03797867  0.038616351            2 
  481000    1.1679306   -6.6886354    219.54797  0.038036723  0.038612265            2 
  482000    1.1868326   -6.7065564    220.20267  0.038071001   0.03860765            2 
  483000    1.1963927   -6.7320468    220.33913  0.038015723  0.038603983            1 
  484000    1.1720716   -6.7195668    220.65392  0.037991377  0.038599488            2 
  485000    1.1780659   -6.7240414    221.28325  0.038021177  0.038594831            2 
  486000    1.1702292   -6.7512455    221.61801  0.038000344   0.03859013            2 
  487000      1.18788   -6.7274175    221.30058  0.037867998  0.038585455            2 
  488000    1.2094472   -6.7263893    221.01703   0.03774198  0.038580431            3 
  489000     1.183418   -6.7036318    222.13444  0.037855222  0.038574707            1 
  490000    1.1440083   -6.6961814     223.0313  0.037930492   0.03856943            1 
  491000    1.1736036   -6.7281892    223.67736  0.037962892  0.038563908            2 
  492000    1.1555075   -6.7239052    224.03007  0.037945472  0.038557722            1 
  493000    1.1756752   -6.6911453    224.14926  0.037888651  0.038552149            2 
  494000    1.1714532   -6.7077899    223.96002   0.03778003   0.03854538            2 
  495000    1.1811576   -6.7389824    223.76184  0.037670344  0.038537906            2 
  496000    1.1527737   -6.7106819    224.39288  0.037700417  0.038530084            2 
  497000    1.1681306   -6.7212663    225.29466  0.037775764  0.038522347            2 
  498000    1.1903159   -6.6826239     225.5656  0.037745248  0.038514764            2 
  499000    1.1921896    -6.707323    225.51506  0.037661166  0.038506703            3 
  500000     1.176326   -6.7267278    225.95829  0.037659715  0.038499055            2 
  501000    1.1800414   -6.7145207    226.31306  0.037643557  0.038490484            1 
  502000    1.1552908   -6.7179477    225.61793  0.037453176  0.038481404            3 
  503000    1.1540217     -6.73648     226.8727  0.037586597    0.0384717            7 
  504000    1.1987314   -6.6872554    227.18735  0.037564046  0.038462823            2 
  505000    1.1582918   -6.7379265    227.09552  0.037474508   0.03845388            1 
  506000    1.1668772   -6.7319491    227.99932  0.037549295  0.038445439            3 
  507000    1.1645928   -6.7454307    228.54862  0.037565519  0.038437131            4 
  508000     1.167854   -6.6887146    230.16716   0.03775708  0.038429057            1 
  509000    1.1724766   -6.7453567    229.53248  0.037578992  0.038420834            2 
  510000    1.1933672    -6.717856    230.27867  0.037627234   0.03841169            1 
  511000     1.173042   -6.7394711     230.3874  0.037571331  0.038403083            3 
  512000    1.1583381   -6.7366604    230.80734  0.037566299  0.038394795            4 
  513000     1.165368   -6.6724979    231.34849  0.037580977  0.038387079            3 
  514000    1.1908834    -6.702362    231.89344  0.037596212  0.038379391            2 
  515000    1.1784686   -6.7318717    232.68144  0.037650718  0.038371798            2 
  516000    1.1963803   -6.6877406    233.20291  0.037661968  0.038364938            1 
  517000     1.148611   -6.7174822    233.01769  0.037559267  0.038357375            2 
  518000    1.1734173    -6.721168    233.92952  0.037633449  0.038349611            2 
  519000    1.1800687   -6.6845995     234.3794  0.037633172  0.038341781            3 
  520000    1.1486141   -6.7106734    234.94592  0.037651589  0.038333896            3 
  521000    1.1796107   -6.7294816    234.10982  0.037445589  0.038326131            2 
  522000    1.1749249   -6.7009423    235.80831  0.037645005  0.038318294            1 
  523000    1.1411914   -6.6926274    236.46691  0.037677965  0.038310596            2 
  524000    1.1816453     -6.70362    236.84335  0.037665928  0.038303826            3 
  525000    1.1761012    -6.708692    236.18554  0.037489768  0.038296935            3 
  526000    1.1529879   -6.7011174    237.48981  0.037625128  0.038289662            3 
  527000    1.1598976   -6.7450426    237.25347  0.037516361  0.038282064            1 
  528000    1.1618998   -6.6833674      237.491  0.037482797  0.038274721            4 
  529000    1.1329375   -6.6977941    238.79888  0.037617971  0.038266993            1 
  530000     1.176793    -6.705516    238.22164  0.037456232  0.038259564            3 
  531000    1.1829662   -6.7134216    238.73637  0.037466474   0.03825186            1 
  532000    1.1868917     -6.72002    238.86998  0.037416977  0.038243762            2 
  533000    1.1827392   -6.7239255    239.88817  0.037505968  0.038235646            3 
  534000    1.1826399   -6.6894679    240.74491  0.037569431  0.038227603            2 
  535000    1.1735251   -6.7184566    240.00505  0.037383964  0.038220017            2 
  536000    1.1748403    -6.750087    240.54256  0.037397786  0.038212513            3 
  537000     1.161248   -6.7322539    241.23616   0.03743578  0.038204566            2 
  538000    1.1593153   -6.7348629    241.67007  0.037433405  0.038196141            3 
  539000    1.1631833   -6.7693876    240.83052  0.037234156  0.038187953            3 
  540000    1.1680744   -6.7445119    241.18223   0.03721948  0.038179712            2 
  541000    1.1572513   -6.7386902    242.37258  0.037334039  0.038171514            2 
  542000    1.1843808   -6.7148439    244.11066  0.037532389  0.038162848            4 
  543000    1.1591785   -6.7295284    243.25907  0.037332577  0.038154696            2 
  544000    1.1643391   -6.6909597    244.74746  0.037491952  0.038147087            1 
  545000    1.1631709   -6.7335342    244.73778  0.037421679  0.038139563            1 
  546000    1.1556602   -6.7361622    245.07971  0.037405327  0.038132232            2 
  547000    1.1604344   -6.7309854     245.4681  0.037396115  0.038124186            4 
  548000    1.1769385   -6.7324932    246.12924  0.037428413  0.038116058            3 
  549000    1.1702042   -6.7599571    246.51812  0.037419266  0.038108148            1 
  550000    1.1581649   -6.7393079     245.7837  0.037239955  0.038099685            5 
  551000    1.1640445   -6.7334842    245.89011  0.037188461  0.038091262            2 
  552000    1.1721678   -6.7152349    247.86605  0.037419392  0.038083695            2 
  553000    1.1421866   -6.7423069    248.00556  0.037372749    0.0380764            2 
  554000    1.1596842   -6.7591502    247.93157  0.037294159   0.03806932            2 
  555000    1.1782861   -6.7093432    249.70237  0.037492848  0.038062336            2 
  556000    1.1475113   -6.7341583    249.77337  0.037436056  0.038055727            2 
  557000     1.158373   -6.7020909     249.7863  0.037370781  0.038049071            3 
  558000    1.1356284    -6.717815     250.6256  0.037429152  0.038042106            1 
  559000    1.1624458   -6.7040749    250.58192  0.037355682  0.038034519            1 
  560000    1.1722143   -6.7244972    251.04482  0.037357861    0.0380267            2 
  561000    1.1576298   -6.7302284    251.63793  0.037379371  0.038019622            1 
  562000    1.1542712   -6.7340466    252.56019  0.037449613  0.038012071            3 
  563000    1.1469667   -6.7125394    252.30225  0.037344915  0.038005196            4 
  564000    1.1390004   -6.7362786    251.87838  0.037216073  0.037997918            2 
  565000    1.1467021   -6.7445449    251.94482  0.037160003  0.037990484            3 
  566000    1.1343969   -6.7500743    252.84872  0.037227433  0.037983241            4 
  567000    1.1644676   -6.7123846    254.09644  0.037345155   0.03797547            1 
  568000    1.1865392   -6.7541481    254.42761  0.037327994  0.037968075            2 
  569000    1.1412778   -6.7069302    254.13178  0.037219066  0.037960752            2 
  570000    1.1368136   -6.7262851     255.0488  0.037287836  0.037953663            1 
  571000     1.172282   -6.7092694    255.38886  0.037272162  0.037946381            1 
  572000    1.1627531    -6.738359    256.03356  0.037300927   0.03793879            2 
  573000    1.1273115   -6.7264569    255.83602  0.037207101  0.037930561            2 
  574000    1.1325036   -6.7130111     256.3968  0.037223694    0.0379227            1 
  575000     1.160568    -6.739764    255.92729  0.037090911  0.037914754            3 
  576000    1.1671348   -6.7732876    257.29077   0.03722378    0.0379065            3 
  577000     1.166156   -6.7461547    257.10099  0.037131859  0.037898041            1 
  578000    1.1455205   -6.7407379     256.8861  0.037036634  0.037889663            3 
  579000    1.1568842   -6.7341534    258.19131  0.037160523  0.037881418            3 
  580000    1.1694802   -6.7142951    258.75386  0.037177279  0.037872922            2 
  581000     1.143408   -6.7351243    258.52709  0.037080764   0.03786457            4 
  582000    1.1505971   -6.7510162    258.56109  0.037021921  0.037856472            2 
  583000    1.1245432   -6.7608379    259.53957  0.037098281  0.037848129            3 
  584000    1.1835728   -6.7611639    260.13857   0.03712023   0.03784001            1 
  585000    1.1891147   -6.7160728     260.2577  0.037073746  0.037831999            2 
  586000    1.1762214   -6.7352432     261.1572  0.037138396  0.037823673            3 
  587000    1.1863847   -6.7345369    260.67691  0.037006943  0.037815258            3 
  588000    1.1635445   -6.7273153    261.33973  0.037037943  0.037806512            4 
  589000    1.1584028   -6.7149499    262.03288  0.037073129  0.037798511            2 
  590000    1.1684794   -6.7265336    262.17262  0.037030031   0.03779036            3 
  591000    1.1839896    -6.702519    263.16388  0.037107146  0.037782283            1 
  592000    1.1516586    -6.738021    264.08947  0.037174756  0.037774433            4 
  593000    1.1322879   -6.7333787    263.93664  0.037090591   0.03776668            2 
  594000    1.1724749   -6.7526704    264.02803  0.037040969   0.03775828            3 
  595000    1.1636871   -6.7250211    264.75462  0.037080479  0.037750209            2 
  596000    1.1589638   -6.7734569    264.70327  0.037011083  0.037741979            3 
  597000    1.1370797   -6.7524085    266.00863    0.0371313  0.037734078            1 
  598000    1.1585554   -6.7391981    265.40606  0.036985237  0.037726001            5 
  599000    1.1582198   -6.7231174    266.44934  0.037068633  0.037717966            3 
  600000    1.1360208   -6.7033914     266.9632  0.037078222   0.03770934            1 
  601000     1.143632   -6.7670075    266.69495  0.036979333   0.03770094            2 
  602000    1.1615953   -6.7206442     267.0913  0.036972771  0.037692183            2 
  603000    1.1424035   -6.7230842    267.46463   0.03696305   0.03768373            2 
  604000    1.1790829   -6.7162312    266.86327  0.036818884  0.037675248            2 
  605000    1.1685612   -6.7378222    268.55763  0.036991409  0.037666534            2 
  606000    1.1621421   -6.7564432    267.40178  0.036771422  0.037656642            2 
  607000    1.1516984    -6.727176    267.68211  0.036749329  0.037646444            3 
  608000       1.1644   -6.7409926    269.11316  0.036885027  0.037636079            1 
  609000    1.1594971   -6.7635654    267.66706  0.036626582  0.037625712            2 
  610000    1.1255696   -6.7676037    268.63848  0.036699246  0.037615213            1 
  611000    1.1533473   -6.7080878    269.96957  0.036820728  0.037605262            3 
  612000    1.1557554   -6.7742725    270.19623  0.036791426  0.037595503            3 
  613000    1.1704722   -6.7553852    269.91064  0.036692583  0.037585479            1 
  614000    1.1927645   -6.7438706    270.66119  0.036734689  0.037575671            3 
  615000    1.1538526    -6.756623    270.90456  0.036707935  0.037565787            1 
  616000    1.1399425   -6.7089688    271.25019  0.036695101  0.037555819            3 
  617000    1.1700468   -6.7496616    271.45355  0.036663095   0.03754575            3 
  618000    1.1412711   -6.7240283    271.81925  0.036653081  0.037536278            1 
  619000    1.1679811   -6.7558696    273.02921   0.03675676  0.037526985            2 
  620000    1.1448588    -6.758414    272.95653  0.036687705  0.037517306            1 
  621000    1.1471922   -6.7254051    273.40004  0.036688143  0.037507353            3 
  622000    1.1296479   -6.7845646    273.57277    0.0366523  0.037497814            4 
  623000    1.1611321   -6.7261521    274.75932  0.036752184  0.037487859            2 
  624000    1.1831245   -6.7763431    275.25805  0.036759889   0.03747825            2 
  625000    1.1504668   -6.7596024    275.58917  0.036745223  0.037468689            2 
  626000    1.1714308   -6.7428296    275.79569  0.036714016  0.037459411            1 
  627000    1.1286871   -6.7535361    275.83741  0.036661006  0.037450503            3 
  628000    1.1445395   -6.7451891    277.11204  0.036771767  0.037442225            3 
  629000    1.1614543   -6.7598291    278.24451  0.036863343  0.037433929            2 
  630000     1.169867   -6.7397931    277.85081  0.036752752  0.037425767            2 
  631000    1.1361557   -6.7245916    279.25978  0.036880584  0.037417248            1 
  632000    1.1658331   -6.7882132    277.53517  0.036594828  0.037408693            3 
  633000    1.1457016   -6.7464437    279.72516  0.036825324   0.03739957            1 
  634000    1.1555151   -6.7680127    278.90448  0.036659369  0.037390842            4 
  635000    1.1305527   -6.7428181    279.13588  0.036632005  0.037381989            4 
  636000    1.1602339   -6.7728722    279.86478  0.036669913  0.037373057            4 
  637000    1.1549291   -6.7484219    280.20717  0.036657139  0.037364124            2 
  638000    1.1581305    -6.767993    281.10362  0.036716773  0.037355443            2 
  639000    1.1328876    -6.744571    281.47374  0.036707582  0.037347018            3 
  640000    1.1318689   -6.7564694    281.05568  0.036595792  0.037338162            1 
  641000    1.1581903   -6.7442935    281.41867  0.036585891  0.037328906            1 
  642000    1.1431025   -6.7254818    282.71238   0.03669683  0.037319502            3 
  643000    1.1619079   -6.7664481    281.52246  0.036485544  0.037310276            2 
  644000    1.1366753    -6.743046    281.74516  0.036457707  0.037300781            4 
  645000    1.1246175   -6.7641575    281.49898  0.036369377   0.03729045            1 
  646000    1.1751183   -6.7847633    281.53856  0.036318184  0.037280364            1 
  647000    1.1657657   -6.8168063    282.81496  0.036426451  0.037270271            1 
  648000    1.1336581   -6.7981422    283.24327  0.036425318   0.03726049            3 
  649000    1.1494251   -6.7251005    284.42647  0.036521118  0.037251099            2 
  650000    1.1444898   -6.7774019    284.57131  0.036483502  0.037241872            1 
  651000    1.1450914   -6.7809252    284.28974  0.036391416  0.037232386            1 
  652000    1.1587498   -6.7540515    285.81554  0.036530616   0.03722263            2 
  653000    1.1298899   -6.7750619    286.12298  0.036513908  0.037213346            1 
  654000    1.1403686   -6.7367171    285.81165  0.036418407  0.037204108            1 
  655000    1.1565721   -6.7778648    287.24116  0.036544677  0.037194887            1 
  656000    1.1477703   -6.7429456      287.057  0.036465575  0.037185828            2 
  657000    1.1521507   -6.7840038    287.73749  0.036496384  0.037176973            2 
  658000    1.1415883   -6.7494539    288.49278  0.036536573  0.037168262            3 
  659000    1.1707293   -6.7603497    288.93504  0.036537056  0.037159611            3 
  660000     1.133348   -6.7904322    288.96108  0.036484985  0.037151037            3 
  661000    1.1339205   -6.7941754    289.00718  0.036435601  0.037142325            1 
  662000     1.166123   -6.7696148    289.78476  0.036478444  0.037133391            3 
  663000    1.1390487   -6.7873714    288.65885  0.036281906   0.03712454            1 
  664000     1.128037   -6.7811181    289.83623  0.036375029  0.037115174            1 
  665000    1.1435274   -6.7630997    291.28673  0.036502097  0.037105851            2 
  666000    1.1451931   -6.7605981    291.53311  0.036478117   0.03709746            1 
  667000    1.1341019    -6.792242    291.21947  0.036384241  0.037088462            2 
  668000    1.1384903   -6.7512893    291.62267  0.036380073  0.037079152            2 
  669000    1.1702866   -6.7978133    291.97085  0.036369064  0.037069772            1 
  670000    1.1754879   -6.7274329    291.72624  0.036284359  0.037060756            3 
  671000    1.1399584   -6.7667614     291.8625  0.036247206  0.037051517            4 
  672000    1.1407415   -6.7815876    293.48661  0.036394669  0.037042317            2 
  673000    1.1461703   -6.7875248    293.54371  0.036347661   0.03703298            6 
  674000    1.1453841   -6.7696051    293.79824  0.036325203   0.03702324            2 
  675000    1.1193613   -6.8001425    293.25398  0.036204195  0.037013651            1 
  676000    1.1405924   -6.8003008    293.17788  0.036141258  0.037004037            3 
  677000    1.1325993   -6.7607112    295.69044  0.036397149  0.036994913            1 
  678000    1.1280398   -6.8265066    294.38321  0.036182793  0.036985803            2 
  679000    1.1536948   -6.7551846    295.90345  0.036316083   0.03697642            2 
  680000    1.1527856   -6.7752994    295.73502  0.036242037  0.036966917            2 
  681000    1.1570209   -6.7830463    296.14892  0.036239466  0.036957214            2 
  682000    1.1427617    -6.773371    296.68188  0.036251451  0.036947489            4 
  683000    1.1418007   -6.7525887    297.60331  0.036310799   0.03693776            4 
  684000    1.1498819   -6.7842216    295.98759  0.036060866  0.036928268            3 
  685000     1.142112   -6.7790176    296.51195  0.036072013  0.036918434            2 
  686000    1.1476965   -6.7700835    296.56744  0.036026171   0.03690875            3 
  687000    1.1554108   -6.8182796    297.31425   0.03606432  0.036898477            1 
  688000    1.1431318   -6.7548614    297.80765  0.036071663  0.036888188            1 
  689000    1.1461648   -6.7624162    298.13064  0.036058374   0.03687788            1 
  690000    1.1347377   -6.7934731    298.21154  0.036015886  0.036867659            1 
  691000    1.1203396   -6.7891628    298.30844  0.035975451  0.036857407            1 
  692000    1.1499452   -6.7675304    300.09391  0.036138476  0.036847095            2 
  693000    1.1387944   -6.7570825    299.76939  0.036047305  0.036837204            2 
  694000    1.1159455   -6.7955248    299.73465  0.035991193  0.036827375            3 
  695000    1.1521478   -6.7523955    301.20428  0.036115621  0.036817123            2 
  696000    1.1620246   -6.7953697    301.33332  0.036079181   0.03680697            3 
  697000    1.1409385   -6.7847362    301.10958  0.036000667  0.036797187            2 
  698000    1.1356846    -6.737919    302.51789  0.036117227  0.036787151            2 
  699000    1.1376332   -6.7664834    302.45597  0.036058175  0.036776992            2 
  700000    1.1423859   -6.7901921    301.95562  0.035947098    0.0367667            3 
  701000    1.1215857   -6.7422179    303.23412  0.036047803  0.036756409            4 
  702000    1.1272733   -6.7951142    302.43396  0.035901467  0.036745806            2 
  703000    1.1275562   -6.7811263    303.03534  0.035921686  0.036735299            2 
  704000    1.1226416   -6.7831424    304.22208  0.036011136  0.036724369            4 
  705000    1.1396196   -6.8054669    303.45161  0.035868985  0.036713854            2 
  706000    1.1210927   -6.7774905    304.34396  0.035923508   0.03670317            4 
  707000    1.1198033    -6.795338    303.84171  0.035813497  0.036692256            2 
  708000    1.1802678   -6.7668157     305.6822  0.035979543  0.036681819            2 
  709000    1.1355549   -6.7994386    303.81739  0.035709613  0.036671606            3 
  710000    1.1546757   -6.7944988    304.92792  0.035789662  0.036660942            3 
  711000     1.143598   -6.8041196     305.3645  0.035790495  0.036650783            1 
  712000    1.1249298   -6.7965627    305.79686  0.035790831  0.036639737            2 
  713000    1.1568405   -6.7892035    306.33457   0.03580348  0.036629316            3 
  714000    1.1198919   -6.7797732    306.44277  0.035765963  0.036618491            3 
  715000    1.1390383   -6.7589026    307.14182  0.035797414  0.036607509            2 
  716000    1.1502418   -6.8094199    307.53738  0.035793457  0.036597237            4 
  717000    1.1409209   -6.7659313    308.38956   0.03584258  0.036586843            2 
  718000    1.1627556    -6.782537    307.94406  0.035740954  0.036576324            2 
  719000    1.1530046   -6.7807288    308.22775  0.035724125  0.036565718            1 
  720000    1.1580699   -6.7730592    307.45423   0.03558498  0.036554934            1 
  721000    1.1285432    -6.803542    308.77993   0.03568885  0.036543394            2 
  722000    1.1476614   -6.7892678    309.41888  0.035713168  0.036531725            1 
  723000    1.1402366   -6.7717154    310.08363   0.03574039  0.036520641            2 
  724000    1.1334028   -6.7869767    310.33181  0.035719592  0.036509727            2 
  725000    1.1287486   -6.7751733    310.25355  0.035661328  0.036498748            1 
  726000    1.1178568   -6.7768398     311.3022  0.035732576  0.036487767            4 
  727000    1.1345692   -6.7621892    311.34658  0.035688513  0.036476761            2 
  728000    1.1428361   -6.7679373    310.84558  0.035582141  0.036465735            3 
  729000    1.1259426   -6.8079485    312.14904  0.035682332  0.036455083            1 
  730000    1.1384716   -6.8211789    311.60473  0.035571317  0.036444464            3 
  731000    1.1478361   -6.7920693     312.4299  0.035616724  0.036433751            1 
  732000     1.147822   -6.7692481    312.74015  0.035603387   0.03642307            4 
  733000    1.1376027   -6.8200822    312.98001  0.035582084  0.036412344            1 
  734000    1.1259597   -6.7886595    313.79379  0.035625998  0.036401598            4 
  735000    1.1390058   -6.8313793    313.22661  0.035513221  0.036390538            2 
  736000    1.1637174   -6.7729018    314.14903   0.03556941  0.036379236            2 
  737000    1.1071487   -6.7509077    315.98184  0.035728386  0.036368415            4 
  738000    1.1247698   -6.7823911    314.90718  0.035558624  0.036358075            1 
  739000    1.1304955   -6.7896211    315.93138  0.035626001  0.036347272            4 
  740000     1.145555   -6.8045996    315.25928  0.035502171  0.036336746            1 
  741000    1.1510153   -6.8269117    316.34887  0.035576796  0.036325908            1 
  742000    1.1102505   -6.8156578    315.28439  0.035409298  0.036314817            2 
  743000     1.129526   -6.7795121    315.54894  0.035391312  0.036303799            2 
  744000    1.1511668   -6.7993241    316.82972    0.0354872   0.03629287            4 
  745000    1.1483192   -6.7869397    316.56413  0.035409858  0.036281538            5 
  746000     1.152504   -6.7914602    316.91346  0.035401414  0.036270214            1 
  747000    1.1512659   -6.7652515    317.84196  0.035457603  0.036259274            2 
  748000    1.1285793   -6.8009063    317.67862  0.035392004   0.03624818            3 
  749000    1.1557594   -6.7753782    319.75829  0.035576133  0.036237255            3 
  750000    1.1385667   -6.7548612    319.62072  0.035513414   0.03622642            2 
  751000    1.1544703    -6.761834    319.37918  0.035439323  0.036215684            1 
  752000    1.1395155   -6.7913427    318.43746   0.03528784  0.036204744            2 
  753000    1.1297396   -6.8230513    319.19817  0.035325162   0.03619333            4 
  754000    1.1348012   -6.8228667    319.51904  0.035313775  0.036182049            2 
  755000     1.137093   -6.7824523    321.81377  0.035520284  0.036171402            4 
  756000    1.1071227   -6.7677773    321.69431  0.035460131  0.036160865            2 
  757000    1.1320639   -6.7939793    321.49031  0.035390831  0.036150182            2 
  758000    1.1473169   -6.7952731    321.58288  0.035354318  0.036139937            1 
  759000    1.1210731   -6.7704596    322.81509  0.035443026  0.036129478            3 
  760000    1.1248351   -6.7768024    323.78431  0.035502665  0.036119101            1 
  761000    1.1504596    -6.783405    324.19713  0.035501219  0.036108929            2 
  762000    1.1268586   -6.8048719    322.71317  0.035292341  0.036098433            4 
  763000    1.1388922    -6.751492     324.7501  0.035468557  0.036088166            2 
  764000    1.1359804    -6.768072    324.59217  0.035404905  0.036078313            2 
  765000    1.1293649   -6.7634387    325.74963  0.035484709  0.036068501            1 
  766000    1.1349993   -6.8131063     325.0644  0.035363838  0.036058958            2 
  767000    1.1335321   -6.8276569    325.04919  0.035316079  0.036048986            2 
  768000    1.1510097   -6.8352823    326.43486  0.035420449  0.036038921            1 
  769000    1.1260376   -6.7934032    326.78342  0.035412161  0.036029052            2 
  770000    1.1405205   -6.7987238    327.22981  0.035414482  0.036019469            3 
  771000     1.132275   -6.7808504    327.39859   0.03538679  0.036009712            1 
  772000    1.1200426   -6.8020842    327.67639  0.035370941  0.036000131            3 
  773000    1.1217868   -6.7992623    328.29541  0.035391916  0.035990443            4 
  774000    1.1335367   -6.8211666    327.97961  0.035312189  0.035980643            2 
  775000    1.1270396   -6.7971854    328.94182  0.035370088  0.035971097            1 
  776000    1.1225625   -6.8039211    329.23804  0.035356319   0.03596176            2 
  777000     1.157093   -6.8165504    330.08613  0.035401773  0.035952363            2 
  778000    1.1457818   -6.7886743    330.76665  0.035429162  0.035942705            2 
  779000    1.1480458   -6.7981032    329.82348  0.035282786  0.035933377            1 
  780000    1.1258268   -6.8156308    331.00122  0.035363379  0.035923959            1 
  781000    1.1271886   -6.8136295    330.45178  0.035259473    0.0359146            1 
  782000    1.1193035   -6.8229823    330.95751  0.035268277  0.035905501            2 
  783000    1.1244281   -6.8221553    331.72641  0.035305067  0.035896534            1 
  784000    1.1342029   -6.8377077     332.4488  0.035336819  0.035887326            2 
  785000    1.1389509   -6.7954968    333.89047  0.035444848  0.035878457            2 
  786000    1.1202558   -6.8223589     333.4947  0.035357792  0.035869313            4 
  787000     1.136191   -6.7990494    334.19367  0.035386878  0.035860539            3 
  788000    1.1244626   -6.8449283    333.17262  0.035233991  0.035851693            3 
  789000    1.1084899   -6.7932876    335.78007   0.03546473  0.035842893            2 
  790000    1.1201411   -6.8077436    335.68678  0.035409997  0.035834175            2 
  791000    1.1475845   -6.8146771    335.71907  0.035368633   0.03582561            2 
  792000    1.1373995   -6.8374896    336.25952  0.035380841  0.035817126            5 
  793000     1.132437   -6.8067829    335.90294  0.035298754  0.035808506            1 
  794000    1.1289704   -6.8098448    337.42078    0.0354136  0.035800348            3 
  795000    1.1339974   -6.8074857    337.71116  0.035399492  0.035791762            2 
  796000    1.1294069   -6.8286263    337.55242  0.035338403  0.035783136            2 
  797000    1.1258607   -6.7677302    339.09269  0.035455111  0.035774774            3 
  798000    1.1421456    -6.818415      338.415  0.035339912  0.035766946            2 
  799000     1.125587   -6.7902766    340.24048  0.035486074  0.035759234            2 
  800000    1.1295502   -6.8051613    340.84209  0.035504384  0.035751714            4 
  801000    1.1278018   -6.7811659    341.68773  0.035548036  0.035744603            2 
  802000    1.1086617   -6.7853691    342.60955  0.035599496  0.035737928            2 
  803000    1.1269955    -6.791539    342.01739   0.03549371  0.035731016            2 
  804000    1.1374451   -6.8191347    341.60814  0.035407145  0.035724143            5 
  805000    1.1241228   -6.8157388     342.2515  0.035429762  0.035717013            1 
  806000    1.1025056   -6.8044517    342.51513  0.035413061   0.03570972            3 
  807000    1.1184669    -6.786571    342.68003  0.035386207  0.035702573            2 
  808000    1.1143281   -6.7941897    343.87216  0.035465363  0.035695821            1 
  809000    1.1268167   -6.8029368    344.60373  0.035496882  0.035689361            3 
  810000    1.1270139   -6.8393932    343.64615  0.035354543  0.035682942            2 
  811000    1.1315321    -6.828678    344.64347  0.035413427  0.035676507            2 
  812000    1.1337449   -6.8279936    345.85709  0.035494365  0.035670067            2 
  813000    1.1329902   -6.8169769    344.46945  0.035308472  0.035663303            1 
  814000    1.1308013   -6.8574778    344.50953  0.035269198  0.035655931            1 
  815000     1.115259    -6.786469    345.12322  0.035288672  0.035648616            1 
  816000    1.1206332   -6.8308787    346.16076  0.035351385  0.035641165            3 
  817000    1.1359447   -6.8298978    346.31388  0.035323733  0.035633823            2 
  818000     1.105307   -6.8300971    347.54834   0.03540631  0.035626548            2 
  819000      1.13109   -6.7984235     347.5451  0.035362749  0.035619375            1 
  820000    1.1109482    -6.836037    347.79116   0.03534463  0.035612006            1 
  821000    1.1398179   -6.8377224     347.5077  0.035272807  0.035604643            2 
  822000    1.1210332    -6.813354    347.70357  0.035249754  0.035597648            2 
  823000    1.1458961   -6.8136491    348.19305  0.035256486  0.035590026            1 
  824000    1.1344918   -6.7804925     349.1246  0.035307909  0.035582621            2 
  825000    1.1051854   -6.7920197    350.08046  0.035361662  0.035575039            2 
  826000    1.1208117   -6.8244645    349.03316  0.035213192  0.035567232            2 
  827000    1.1453975   -6.7777973    349.42661  0.035210259  0.035559714            2 
  828000    1.1052353   -6.8060114     349.4986   0.03517498  0.035551614            1 
  829000    1.1316081   -6.8022417    350.32889  0.035216012  0.035543858            2 
  830000    1.1164842   -6.7924886    351.25577  0.035266644  0.035535806            2 
  831000    1.1059555    -6.852211    350.02322  0.035100604  0.035527836            2 
  832000    1.1192991   -6.8086971    351.37717  0.035194027   0.03551956            3 
  833000    1.1039132   -6.8333867    352.17574  0.035231667  0.035511609            2 
  834000    1.1106467   -6.7872273    352.14566  0.035186416  0.035503665            4 
  835000    1.1090054   -6.8079851     353.2757  0.035257056  0.035495901            2 
  836000    1.1098353   -6.7782647     354.5051   0.03533743  0.035488225            3 
  837000    1.1306196   -6.8642095    353.26552  0.035171796  0.035480793            3 
  838000     1.095529   -6.8841537    352.63082  0.035066708  0.035473206            2 
  839000    1.0972726   -6.8453196     354.3035  0.035191051  0.035465643            1 
  840000     1.083324   -6.8009417    354.38988  0.035157726  0.035458116            2 
  841000     1.141588   -6.8206341    353.73557  0.035051087  0.035450145            3 
  842000    1.1067764    -6.831508      355.237  0.035158056  0.035442392            2 
  843000    1.1163634   -6.8272064    355.39349   0.03513182  0.035434857            2 
  844000     1.123659   -6.8147439    356.62343  0.035211634  0.035427601            2 
  845000    1.1207279   -6.8521016     356.3454  0.035142544  0.035420185            2 
  846000    1.1210343   -6.8298384    356.89309  0.035154953  0.035412812            2 
  847000    1.1261306   -6.8512963    356.54523  0.035079224  0.035405335            3 
  848000    1.1256692   -6.8633857    357.15624  0.035097901  0.035398162            2 
  849000    1.1210925   -6.8343722    358.18275  0.035157318  0.035390656            2 
  850000    1.1211545   -6.8067922    359.13028  0.035208851  0.035383944            2 
  851000    1.1294174   -6.8307292    359.20752  0.035175042  0.035377078            3 
  852000     1.113808   -6.8512954    358.36928  0.035051769  0.035369945            3 
  853000    1.1368503   -6.8291376    360.64842  0.035233335  0.035363136            2 
  854000    1.1097635   -6.8050729    361.62398  0.035287273  0.035356566            2 
  855000    1.1173369   -6.8032464    361.50153  0.035234068  0.035350298            3 
  856000    1.1139414   -6.7881476    362.63995  0.035303733  0.035343964            2 
  857000    1.1058546   -6.8363869    362.52919  0.035251768  0.035337915            5 
  858000    1.1072715   -6.8209566    362.22309  0.035180953  0.035331755            4 
  859000    1.1078642   -6.7851277    363.47492   0.03526144  0.035325533            3 
  860000    1.1192597   -6.8096208    363.54992  0.035227706  0.035318797            1 
  861000    1.1282529    -6.826872    363.31096  0.035163663  0.035312536            2 
  862000    1.1034806   -6.8181219    363.34589  0.035126246  0.035306057            3 
  863000    1.1254875   -6.8541223    363.36043  0.035086948  0.035299188            2 
  864000    1.1130757   -6.8422037    364.36324  0.035143059  0.035292531            2 
  865000    1.1132812   -6.8499614    364.36486  0.035102588   0.03528566            3 
  866000    1.1057639   -6.7970502    366.03852  0.035223106  0.035278805            2 
  867000    1.1048191   -6.8278511    365.22493   0.03510428  0.035272063            3 
  868000    1.1121224   -6.8151034     365.7355  0.035112856  0.035265693            2 
  869000    1.1417556   -6.8086566    366.78156  0.035172761  0.035259598            2 
  870000    1.1288879   -6.8263399    366.36606  0.035092534  0.035252987            2 
  871000    1.1049384   -6.8415103    367.19163  0.035131231  0.035246554            2 
  872000    1.1201322   -6.8280882    367.70002  0.035139527  0.035240068            3 
  873000    1.1320542   -6.8526931    367.28495  0.035059655  0.035233178            3 
  874000    1.1209657   -6.8741595    367.79351  0.035068031  0.035226532            3 
  875000     1.113921   -6.8340741    368.74561  0.035118629  0.035219838            2 
  876000    1.1036647   -6.8083766    369.20402  0.035122148  0.035213635            2 
  877000    1.0952227    -6.820254    369.43715  0.035104252  0.035207463            2 
  878000    1.1061765   -6.8062254    370.53316  0.035168295  0.035201582            3 
  879000    1.0992459   -6.7844839    371.34208  0.035204975   0.03519565            2 
  880000    1.1210354   -6.8393644    370.63524  0.035098034  0.035189494            2 
  881000    1.1236829   -6.8339944    371.31851  0.035122825  0.035183268            1 
  882000    1.1305595    -6.811941    370.70859  0.035025377  0.035177287            2 
  883000    1.1086644   -6.8293112    372.49397  0.035154207  0.035171055            4 
  884000    1.1075216   -6.8396021    370.82823  0.034957412  0.035164759            1 
  885000    1.0944975   -6.8437061     372.7904  0.035102674  0.035158366            1 
  886000    1.1073078   -6.8262499    371.98252  0.034987069   0.03515226            2 
  887000    1.1168465   -6.8324227    372.83969  0.035028156  0.035146148            2 
  888000    1.1280444   -6.8514294    373.21936   0.03502434  0.035139749            3 
  889000    1.1091129   -6.8478523    373.07686  0.034971584  0.035133439            4 
  890000    1.1218477   -6.8503841    373.33721  0.034956668  0.035127162            2 
  891000    1.1033995   -6.8342191    373.97541  0.034977124  0.035120919            4 
  892000    1.1225768   -6.8256467    375.09156  0.035042186   0.03511488            2 
  893000    1.1021726    -6.845759    375.42927   0.03503446  0.035108949            1 
  894000    1.1106548   -6.8291718    374.80277  0.034936872    0.0351028            1 
  895000    1.1139737   -6.8641614     375.4871  0.034961555  0.035096615            1 
  896000    1.1163981   -6.8129581    376.75173  0.035040154  0.035090517            3 
  897000    1.1194947   -6.8340045    376.29124  0.034958309  0.035084583            4 
  898000    1.0881568   -6.8855105    376.26897  0.034917313  0.035078097            2 
  899000    1.1413552   -6.8293168    377.86575  0.035026488  0.035071686            2 
  900000    1.0958376   -6.8393554    377.30148  0.034935322  0.035065562            2 
  901000    1.0987554   -6.8063224    378.03242  0.034964153  0.035059499            2 
  902000    1.1194635   -6.8506371    379.30407  0.035042874  0.035053246            2 
  903000    1.1156267   -6.8563803    377.97664  0.034881565   0.03504684            1 
  904000    1.1287827    -6.839867     379.3299  0.034967727  0.035040481            2 
  905000    1.1241092   -6.8435864    378.86536  0.034886313  0.035034108            2 
  906000    1.1516598   -6.8615719    379.14844  0.034873845  0.035027643            4 
  907000    1.1235198   -6.8497469    380.81544  0.034988556   0.03502112            3 
  908000    1.1238114   -6.8170575    380.88094  0.034956033  0.035014995            5 
  909000    1.1098401   -6.8913406    380.30047  0.034864363  0.035008785            1 
  910000    1.1022534   -6.8289526    380.65122  0.034858171    0.0350025            1 
  911000    1.1121692   -6.8681392    381.51685   0.03489909  0.034996463            3 
  912000    1.1127253   -6.8207049    382.79004   0.03497716   0.03499073            3 
  913000    1.1218315   -6.8790584    382.06673   0.03487283  0.034984672            2 
  914000     1.097529   -6.8227683    383.39731  0.034955991  0.034978627            2 
  915000    1.1012768    -6.840494     384.2378  0.034994336   0.03497289            2 
  916000    1.0979912    -6.811749    382.39653  0.034788622  0.034966837            2 
  917000    1.1185578   -6.8643264    383.09042  0.034813742  0.034960705            1 
  918000    1.1051892   -6.8259215    384.25917  0.034881915  0.034954678            1 
  919000    1.0786986   -6.8436827    384.04827  0.034824834  0.034948547            2 
  920000    1.1308371   -6.8906107    385.24327  0.034895223  0.034942343            2 
  921000    1.1091222   -6.8583057    385.52926  0.034883212  0.034936372            3 
  922000    1.1337779   -6.8464146    385.87387  0.034876524  0.034930752            3 
  923000    1.0987726   -6.8022616    386.46629  0.034892225  0.034925014            1 
  924000    1.0842399   -6.8481702    385.61464  0.034777655  0.034919068            2 
  925000     1.096083    -6.847111    387.29397  0.034891349  0.034913085            2 
  926000    1.1351262   -6.8544324    387.34594  0.034858346  0.034907124            3 
  927000    1.1072641   -6.8592976    388.89411  0.034959917  0.034901204            2 
  928000    1.1128127   -6.8253741    388.08054  0.034849187  0.034895547            1 
  929000    1.0847211   -6.8700292    387.10084  0.034723793  0.034889595            3 
  930000     1.083735   -6.8662837    388.56978  0.034818081  0.034883122            4 
  931000    1.1369748   -6.8872969    388.08144  0.034736971  0.034876673            2 
  932000    1.0818661   -6.8295699    389.40472  0.034818018  0.034870555            2 
  933000    1.1171829   -6.8736849    389.29431  0.034770839   0.03486416            2 
  934000    1.1083911   -6.8618619    387.96082  0.034614634  0.034857446            2 
  935000    1.0998634   -6.8639203    390.25715  0.034782277  0.034851224            5 
  936000    1.1040746   -6.8475871    389.82052  0.034706243  0.034845033            2 
  937000    1.0887829   -6.8335602    390.93424  0.034768254  0.034838869            2 
  938000    1.1143993   -6.8489744    391.05624  0.034742025  0.034832955            2 
  939000    1.0985232   -6.8523374    391.19797  0.034717605  0.034826668            1 
  940000    1.0906391   -6.8155244    393.54889  0.034889086  0.034820651            3 
  941000    1.0903353   -6.8711472    391.56887  0.034676662  0.034814618            2 
  942000    1.0953059   -6.8658837    393.03601   0.03476964  0.034808563            3 
  943000     1.118204   -6.8336132    392.77679  0.034709861  0.034802436            2 
  944000    1.1144362   -6.8671607     392.2363   0.03462538  0.034795963            1 
  945000    1.1030667   -6.8377702    392.83648  0.034641665  0.034789337            2 
  946000    1.1062579   -6.8934693     393.6659   0.03467811    0.0347826            2 
  947000    1.1034353   -6.8392993    393.87772   0.03466013  0.034776053            4 
  948000    1.1262979   -6.8641995     392.9762  0.034544322  0.034769226            2 
  949000    1.1007041   -6.8782725    393.14542   0.03452278  0.034762561            3 
  950000    1.1076833   -6.8779372    394.25242  0.034583546    0.0347559            2 
  951000    1.0954744   -6.8431733    394.78631  0.034593963  0.034749393            3 
  952000    1.0977375   -6.8441606    396.08414  0.034671231  0.034742698            4 
  953000    1.0995116   -6.8911834    394.97474   0.03453784   0.03473592            2 
  954000    1.0970796   -6.8142079    396.33701  0.034620633  0.034729087            3 
  955000    1.1160803   -6.8998202    395.52106  0.034513181  0.034722253            2 
  956000    1.1028135   -6.8373833    397.52902  0.034652111  0.034715538            2 
  957000    1.1156512   -6.8118075    398.06604  0.034662665  0.034709127            2 
  958000    1.0872644   -6.8597411    397.27874  0.034557998  0.034702521            4 
  959000    1.1124908   -6.8476191     397.4018  0.034532655  0.034696224            5 
  960000    1.0961438   -6.8877473     396.4884  0.034417396  0.034689524            1 
  961000    1.0851931   -6.8836967    397.51644  0.034470728  0.034682755            6 
  962000    1.1012742   -6.8723643    397.72379  0.034452858  0.034675907            2 
  963000    1.1100443   -6.8727246    397.77368  0.034421399  0.034668936            2 
  964000     1.067014   -6.8748762    399.34029  0.034521118  0.034661785            2 
  965000    1.1100439   -6.8658676    398.07188   0.03437581  0.034654858            2 
  966000    1.0878339   -6.8643789    399.42078  0.034456589  0.034647928            2 
  967000    1.1047655   -6.8881717    400.20107    0.0344882  0.034640933            3 
  968000    1.0811677   -6.8317183    399.97259  0.034432902  0.034633739            4 
  969000    1.1011456   -6.8370478    400.43361  0.034437015   0.03462716            4 
  970000    1.0862455   -6.8654644    400.60453  0.034416197  0.034620218            3 
  971000    1.0895569   -6.8675132    400.88915  0.034405179  0.034613557            2 
  972000    1.1258907   -6.8658565    402.35895  0.034495795  0.034606693            2 
  973000    1.0936299   -6.8811125     401.2527  0.034365596  0.034599764            1 
  974000    1.0848567   -6.8604356    401.48078  0.034349828  0.034592809            3 
  975000    1.0944897   -6.8986212    401.70682  0.034333916  0.034585577            4 
  976000    1.1141159   -6.8491293    402.23236   0.03434361  0.034578562            1 
  977000    1.1006916   -6.8594832    402.09658  0.034296877  0.034571479            4 
  978000    1.0852671   -6.9002654    403.77162  0.034404535  0.034564446            3 
  979000      1.10562   -6.8572777    403.40883  0.034338511  0.034557412            1 
  980000    1.1279688   -6.8657718    404.65537   0.03440947  0.034550789            1 
  981000    1.0795162   -6.8240709    405.36889  0.034435006  0.034544402            1 
  982000    1.0846388   -6.8547581    405.07936   0.03437537  0.034537665            5 
  983000    1.0919111   -6.8644793    404.81413  0.034317915  0.034530806            3 
  984000    1.0845823   -6.8766402     405.0571  0.034303616  0.034523877            2 
  985000    1.0821924   -6.8658761    405.82371  0.034333647  0.034516656            1 
  986000    1.0880666   -6.8717127    406.16842   0.03432796  0.034509518            3 
  987000    1.0567098    -6.887087     406.2487  0.034299958  0.034502382            3 
  988000    1.0876211   -6.8703736    406.78878  0.034310795  0.034495388            2 
  989000    1.1007781   -6.8564107     407.4437  0.034331286  0.034488575            5 
  990000    1.1187475   -6.8283952    406.05762  0.034179934  0.034481846            3 
  991000    1.0935018   -6.8500988    408.57945  0.034357505  0.034474965            4 
  992000    1.0975289   -6.8777557    408.08284  0.034281152  0.034467985            2 
  993000    1.0904569   -6.8488343    407.46331  0.034194638  0.034461123            2 
  994000    1.1024826   -6.8777286     408.8942  0.034280198  0.034453894            2 
  995000    1.0797727   -6.8793172    409.20682  0.034271928  0.034446738            2 
  996000    1.0942399     -6.89711    408.46163   0.03417517  0.034439374            2 
  997000    1.0852526   -6.8414117     408.8913  0.034176805  0.034432178            2 
  998000    1.0837746   -6.8782295    408.94774  0.034147273   0.03442508            2 
  999000    1.1017255    -6.854333    409.45211  0.034155164  0.034417886            2 
 1000000    1.1052303   -6.9162745    408.48596  0.034040496  0.034410373            2 
 1001000    1.0994297   -6.8735162    410.31537  0.034158789  0.034402604            2 
 1002000    1.0876637    -6.919019    410.99523   0.03418124  0.034395237            7 
 1003000    1.0982517   -6.8716421    410.96159  0.034144366  0.034387781            1 
 1004000    1.1181892   -6.8845069    411.78648  0.034178825  0.034380328            2 
 1005000    1.0744347   -6.8967866    411.99671  0.034162248   0.03437341            1 
 1006000    1.0874751   -6.9041035    411.09303  0.034053432  0.034366266            3 
 1007000     1.062898   -6.8812155    413.25736  0.034198722  0.034359041            2 
 1008000     1.096564   -6.8779816    412.17339  0.034075181  0.034351797            3 
 1009000    1.0687717   -6.8635578    413.57451  0.034157128  0.034344466            2 
 1010000    1.1009942   -6.8737795    413.47205  0.034114856  0.034337094            3 
 1011000    1.0663094   -6.8456192    413.58598  0.034090503  0.034329668            5 
 1012000    1.0878333   -6.8881876    414.37053   0.03412142  0.034322804            1 
 1013000     1.104692   -6.8953288    415.25569  0.034160554   0.03431582            1 
 1014000    1.1016077   -6.8762499    415.12133  0.034115822  0.034308666            2 
 1015000    1.1010405   -6.8508244    414.72788  0.034049908  0.034301617            2 
 1016000    1.1007201   -6.8971754    415.24513   0.03405882   0.03429471            2 
 1017000    1.1017914   -6.8910529    414.75076  0.033984821  0.034287711            1 
 1018000    1.0710382   -6.8633799    416.00583  0.034054178  0.034280414            3 
 1019000    1.0842582   -6.8747004    417.33235   0.03412924  0.034273248            1 
 1020000    1.0574736   -6.8572409    417.19145  0.034084268  0.034266298            2 
 1021000    1.0562735   -6.8882537    415.97273  0.033951414  0.034259192            1 
 1022000    1.1141678    -6.904545    416.93719  0.033996836  0.034252143            2 
 1023000    1.0960022   -6.8939078    417.43067  0.034003802  0.034245355            1 
 1024000    1.1000371   -6.8538012    417.98079  0.034015364  0.034238387            2 
 1025000    1.0793173   -6.8858259    418.76683  0.034046084  0.034231582            1 
 1026000    1.1014591   -6.8905022    418.53346  0.033993946  0.034224661            4 
 1027000    1.0898671   -6.8969672    418.65386  0.033970615  0.034217663            3 
 1028000    1.1025644    -6.890985    419.38138  0.033996545  0.034210431            3 
 1029000    1.0751467     -6.90379    419.79632   0.03399711  0.034203259            3 
 1030000    1.1182647   -6.8920664    419.60539  0.033948656  0.034195895            3 
 1031000    1.0721686   -6.9154733    419.82646  0.033933597  0.034188661            2 
 1032000    1.0762673   -6.8941249    420.65497  0.033967617   0.03418146            2 
 1033000    1.0821452   -6.8885505    421.01961   0.03396415  0.034174242            4 
 1034000    1.0791981   -6.8768265    419.97225  0.033846893  0.034167017            2 
 1035000    1.0735048   -6.8787075     421.3449  0.033924711  0.034159662            2 
 1036000    1.0723455   -6.8613933    422.52779  0.033987113  0.034152355            2 
 1037000    1.0848395   -6.9042364    422.21063  0.033928852  0.034145452            2 
 1038000    1.0793155   -6.8652147    423.02525  0.033961565  0.034138229            1 
 1039000    1.0848166   -6.9278445    422.98064    0.0339253  0.034131109            3 
 1040000    1.0848502   -6.9078892    423.76469  0.033955504  0.034124113            2 
 1041000    1.0719659   -6.9152265    423.38104  0.033892175  0.034117037            3 
 1042000    1.0734083    -6.869656    423.81219  0.033894129  0.034110199            3 
 1043000    1.0833996    -6.907481    425.20794  0.033973149  0.034103242            2 
 1044000    1.1028233   -6.8483067    424.70577  0.033900525   0.03409662            3 
 1045000    1.0789773   -6.8687266    426.19877  0.033987142  0.034089872            2 
 1046000     1.074989   -6.9076478    425.30715  0.033883616  0.034083176            4 
 1047000     1.085078   -6.8624543    425.89446  0.033897999  0.034076393            2 
 1048000    1.0889932   -6.9008719    428.24139  0.034052273  0.034069803            2 
 1049000    1.0865194   -6.9142434    426.48286  0.033880113  0.034063173            2 
 1050000    1.0927392   -6.9014136    427.84969  0.033956324  0.034056522            1 
 1051000    1.0638084   -6.9060734    425.75421  0.033757866  0.034049809            3 
 1052000    1.0504146   -6.8725175    429.62902  0.034032717  0.034043019            2 
 1053000     1.079236   -6.8784642    427.28801  0.033815132  0.034036468            4 
 1054000    1.0983848   -6.8730877    427.36931  0.033789477  0.034029729            2 
 1055000    1.0478293   -6.9204565    428.41228  0.033839832  0.034022786            4 
 1056000      1.07372   -6.8611666    428.08334  0.033781829  0.034015708            2 
 1057000    1.0910118   -6.8952379    428.66155  0.033795455  0.034008438            2 
 1058000    1.0809512   -6.9344393    429.77839   0.03385148   0.03400106            4 
 1059000    1.0635394   -6.8888612    429.82324  0.033823044  0.033993898            2 
 1060000    1.1118964   -6.8616495    428.97211  0.033724222  0.033986679            3 
 1061000    1.0789107    -6.877539    430.72496   0.03383011  0.033979451            2 
 1062000    1.0805648   -6.9177944     429.7394   0.03372092  0.033972138            1 
 1063000    1.0878709   -6.9143153    430.33964  0.033736253  0.033964919            1 
 1064000    1.0861121   -6.8758966    430.83334  0.033743213  0.033957797            3 
 1065000    1.0886109   -6.9005363    430.99901  0.033724492  0.033950736            3 
 1066000     1.091617   -6.9406183    432.05001  0.033775016  0.033943875            3 
 1067000    1.0851518   -6.8631261    432.02981  0.033741785  0.033937047            2 
 1068000     1.079924   -6.9062994    433.18114  0.033800027  0.033929976            4 
 1069000    1.0776282   -6.9366033    432.36411  0.033704717  0.033922827            2 
 1070000    1.0706382   -6.8698407    432.34302  0.033671575  0.033915359            5 
 1071000    1.0863383   -6.8968209    432.84508    0.0336792  0.033908042            2 
 1072000    1.0756744    -6.889748    433.23367   0.03367799  0.033900994            2 
 1073000    1.0828003   -6.9116218    432.59892  0.033597307  0.033893796            2 
 1074000    1.0799189   -6.8858116    434.06626  0.033679878  0.033886728            2 
 1075000    1.0952387   -6.9210372    435.98029  0.033796922  0.033879772            2 
 1076000    1.0820575   -6.8844267    434.32415  0.033637248  0.033872815            3 
 1077000     1.082142   -6.8763944    435.76879  0.033717795  0.033865687            5 
 1078000    1.0965803   -6.8579736    435.64136  0.033676667  0.033858827            4 
 1079000    1.0702341   -6.8926148    437.16242   0.03376293  0.033851854            3 
 1080000    1.0541897   -6.9016326    435.55154  0.033607372  0.033844735            1 
 1081000    1.0659989   -6.9040946    436.21489   0.03362742  0.033837676            4 
 1082000    1.0789793   -6.9100899      435.124  0.033512323  0.033830279            2 
 1083000    1.0904109   -6.9051255    436.60226  0.033595126   0.03382279            1 
 1084000    1.0901474   -6.8659009    436.58774  0.033563018  0.033815358            3 
 1085000    1.0959579    -6.920962     436.7436  0.033544055  0.033807822            4 
 1086000    1.0815791   -6.9069658    437.70962  0.033587294  0.033800135            2 
 1087000    1.0936709   -6.9124055    437.54711  0.033543936  0.033792565            4 
 1088000     1.077137    -6.887419    438.32527  0.033572707  0.033785366            2 
 1089000    1.0891485   -6.9119801    437.74253  0.033497285  0.033778079            2 
 1090000    1.0719709    -6.929349    437.09211  0.033416828  0.033770397            2 
 1091000    1.0597725   -6.8641945    439.20852  0.033547855  0.033762823            3 
 1092000    1.0835159   -6.9140747    438.92933  0.033495828  0.033755578            2 
 1093000    1.0960181   -6.9466183    439.81016  0.033532339  0.033748435            2 
 1094000    1.0796896   -6.9552814    438.78083  0.033423281  0.033741149            4 
 1095000    1.0568014   -6.8863968    442.10095   0.03364543   0.03373389            1 
 1096000    1.0649432   -6.8733546    442.21613  0.033623489  0.033726745            1 
 1097000     1.060743   -6.9223229    439.67348  0.033399687  0.033719537            1 
 1098000    1.0893822   -6.9175552    441.30127  0.033492811  0.033712312            1 
 1099000    1.1070332   -6.8878813    442.35337  0.033542111  0.033705155            2 
 1100000    1.0643644   -6.8732299    442.80459  0.033545802  0.033698405            3 
 1101000    1.0794618   -6.9184972    443.52691  0.033570005  0.033691576            2 
 1102000    1.0468893   -6.8881785    442.98953  0.033498906  0.033684798            2 
 1103000    1.0651795   -6.8896547    443.70087  0.033522278  0.033678116            3 
 1104000    1.0669655   -6.9079236    444.96762  0.033587532  0.033671359            2 
 1105000    1.0756223   -6.9081867    445.42959  0.033591975  0.033664426            4 
 1106000    1.0699338   -6.8741757    445.18532  0.033543198  0.033657536            2 
 1107000    1.0768874   -6.9338001    444.48045  0.033459835  0.033650723            4 
 1108000    1.0530262   -6.8991912    446.00074  0.033543979  0.033643744            3 
 1109000    1.0784325   -6.9227285    443.44781  0.033321897  0.033636844            4 
 1110000    1.0760454   -6.8692256    445.77393  0.033466512  0.033629761            4 
 1111000    1.0486199   -6.9013813    445.95651  0.033450083  0.033622692            4 
 1112000    1.0663333   -6.9239391    446.63778  0.033471057  0.033615794            2 
 1113000    1.0693902   -6.8663585    447.29446  0.033490151   0.03360887            1 
 1114000    1.0703119   -6.9036119    446.04127  0.033366343  0.033601901            1 
 1115000    1.0778007   -6.9183276    447.29302  0.033429971  0.033594759            2 
 1116000    1.0610572   -6.8923009    448.05941  0.033457244  0.033587607            2 
 1117000    1.0895072   -6.9135823    448.78594  0.033481494  0.033580656            2 
 1118000    1.0718646   -6.8889213    447.64086  0.033366194   0.03357372            3 
 1119000    1.0719858   -6.9227058    449.50723  0.033475367  0.033566908            2 
 1120000    1.0576444   -6.9041088    448.67883  0.033383841    0.0335601            2 
 1121000    1.0729655   -6.9098301    449.25745  0.033397075   0.03355333            2 
 1122000     1.063076   -6.9118053    449.24895  0.033366677  0.033546508            2 
 1123000    1.0844358   -6.8927917    451.46453  0.033501375  0.033539612            2 
 1124000    1.0741439   -6.9155576    450.92969  0.033431916  0.033533143            2 
 1125000    1.0709495    -6.938942    450.36681  0.033360505  0.033526776            2 
 1126000    1.0696816   -6.9447661    451.24018  0.033395514  0.033520072            2 
 1127000    1.0556158   -6.9210282    451.35913  0.033374677  0.033513139            1 
 1128000     1.098054   -6.9000359    451.30397  0.033341014  0.033506413            2 
 1129000    1.0898197   -6.9425251    452.78994  0.033421165   0.03349947            3 
 1130000    1.0654553   -6.8796726     453.9581  0.033477736  0.033492656            5 
 1131000    1.0698672   -6.9309239    451.71712  0.033283018  0.033485976            4 
 1132000    1.0753162   -6.8868371    452.26029  0.033293602  0.033479041            2 
 1133000    1.0749244   -6.8689651    454.51066  0.033429734  0.033472207            5 
 1134000    1.0686744   -6.9066815    453.01752  0.033290529  0.033465374            2 
 1135000    1.0459438   -6.9030882    455.33619  0.033431438  0.033458607            4 
 1136000    1.0967975   -6.9632565    453.71732  0.033283254  0.033451691            2 
 1137000    1.0716264   -6.9002532    453.89332  0.033266881  0.033444579            2 
 1138000    1.0623147   -6.9162118    454.49882  0.033281987  0.033437695            2 
 1139000    1.0760174   -6.9102241    454.44612  0.033248911  0.033430493            1 
 1140000    1.0526578   -6.9007165    453.50507  0.033150955  0.033423455            1 
 1141000    1.0650474    -6.893464    454.67893  0.033207635  0.033416337            1 
 1142000    1.0621724   -6.9490603     453.2862  0.033076926  0.033409083            6 
 1143000    1.0898617    -6.907482    455.13231  0.033182583  0.033401741            3 
 1144000    1.0830561   -6.9083239    456.50705  0.033253719  0.033394506            3 
 1145000    1.0795175   -6.8773077    455.96229  0.033185029  0.033387271            3 
 1146000    1.0650636   -6.9073533    455.73892  0.033139829  0.033380118            3 
 1147000    1.0678478   -6.9608665    455.49037  0.033092878  0.033372645            4 
 1148000     1.086422   -6.9428886    455.11232  0.033036608  0.033365273            2 
 1149000      1.07442   -6.9110548     457.1119  0.033152879  0.033357769            4 
 1150000    1.0649512    -6.904954    457.67894   0.03316514  0.033350311            2 
 1151000    1.0465797   -6.9091208    458.28595  0.033180274  0.033342958            3 
 1152000    1.0646003   -6.9351933    456.67338  0.033034822  0.033335721            4 
 1153000    1.0581221   -6.8997513      458.136  0.033111882  0.033328239            3 
 1154000    1.0695141   -6.9355236    456.71741  0.032980749  0.033320812            1 
 1155000    1.0499412   -6.9132257    459.05434  0.033120804  0.033313578            2 
 1156000    1.0715018   -6.9185355    459.08667  0.033094483  0.033306461            1 
 1157000    1.0723311   -6.9553686    458.22658  0.033003931  0.033299399            3 
 1158000    1.0510635   -6.9156027    458.48789  0.032994235  0.033291958            2 
 1159000    1.0608638   -6.9248069     460.3916  0.033102646  0.033284886            1 
 1160000    1.0580731   -6.9160904    461.80905  0.033175937  0.033277631            4 
 1161000    1.0694759   -6.8842875    461.16852  0.033101387  0.033270416            1 
 1162000    1.0845383   -6.8983045    461.80646  0.033118651  0.033263461            2 
 1163000    1.0608931   -6.9607737    460.77361  0.033016166  0.033256293            2 
 1164000    1.0656203   -6.9157697    462.34261   0.03310013  0.033249063            4 
 1165000    1.0825828   -6.9105472    463.01771  0.033120008  0.033241914            3 
 1166000    1.0600308   -6.9329391    462.15868  0.033030208  0.033234668            1 
 1167000    1.0729536   -6.9233276    462.07982  0.032996274  0.033227299            2 
 1168000    1.0662599   -6.9485845    460.30352   0.03284129  0.033219929            3 
 1169000    1.0636628   -6.9566282    463.27892  0.033025301   0.03321279            2 
 1170000    1.0506836   -6.9308916    463.46937  0.033010639  0.033205577            4 
 1171000    1.0600686   -6.9414903    463.05344  0.032952849  0.033198351            2 
 1172000    1.0569431   -6.9422126    462.65471  0.032896381  0.033190965            2 
 1173000    1.0523935   -6.9152413    463.44667    0.0329246  0.033183763            1 
 1174000    1.0618129   -6.9375898    465.81754  0.033064845  0.033176551            2 
 1175000    1.0601379   -6.9641596    463.63377  0.032881828   0.03316918            2 
 1176000    1.0879967   -6.9256634    463.64813  0.032854885  0.033161712            2 
 1177000    1.0526051   -6.9013299    465.36986  0.032948872  0.033154249            2 
 1178000    1.0658275    -6.908028     465.8339  0.032953728  0.033146842            2 
 1179000    1.0432113   -6.9567302    464.76977  0.032850563  0.033139293            2 
 1180000    1.0607412   -6.9755247    465.08625  0.032845074  0.033131686            3 
 1181000    1.0628098   -6.9046539    466.00616  0.032882173   0.03312397            3 
 1182000    1.0483214   -6.9260052    465.91188  0.032847707  0.033116344            3 
 1183000    1.0794102   -6.9134994    465.68201  0.032803748  0.033108608            2 
 1184000    1.0497615   -6.9498742    466.32623  0.032821384  0.033100858            2 
 1185000    1.0780848   -6.9584779    466.42691  0.032800768  0.033093082            1 
 1186000    1.0596293   -6.9745156    465.29273  0.032693418   0.03308524            3 
 1187000    1.0752341   -6.9581036    466.60666   0.03275812  0.033077333            1 
 1188000    1.0692448   -6.9643912    468.03474   0.03283072  0.033069603            1 
 1189000    1.0744023   -6.8875258    468.32821  0.032823676  0.033062104            3 
 1190000    1.0388125   -6.9391558    469.02537  0.032844914  0.033054877            1 
 1191000    1.0487046   -6.8879964    469.19035   0.03282888  0.033047716            3 
 1192000    1.0620562   -6.9148534    470.89231  0.032920324  0.033040539            2 
 1193000    1.0722188   -6.9570794    469.23262  0.032776796  0.033033262            2 
 1194000     1.072414   -6.9510725    469.61848  0.032776275  0.033025839            5 
 1195000     1.067849   -6.9192516    470.80895  0.032831865  0.033018626            3 
 1196000    1.0627058   -6.9133256    471.76904   0.03287131  0.033011526            5 
 1197000    1.0591999   -6.9121232    471.54308  0.032828118  0.033004654            2 
 1198000    1.0735275     -6.91594    471.79577  0.032818293  0.032997644            4 
 1199000     1.063448   -6.9548263    471.62085  0.032778764  0.032990552            3 
 1200000    1.0760565    -6.888545    473.97588  0.032914992  0.032983488            1 
 1201000    1.0725845   -6.9204077    473.17441  0.032831974  0.032976727            2 
 1202000    1.0588772    -6.934574    474.08939  0.032868094  0.032969912            2 
 1203000     1.075965   -6.9221044    475.34881  0.032928014  0.032962969            1 
 1204000    1.0750556   -6.9278976    474.11049  0.032814957  0.032955943            2 
 1205000    1.0577938   -6.9435858    473.42394  0.032740245  0.032948615            3 
 1206000    1.0613232   -6.9521155    474.93705  0.032817652  0.032941486            3 
 1207000     1.039989   -6.9478336    475.06287  0.032799148  0.032934496            2 
 1208000    1.0794368   -6.9326333    475.42256   0.03279681  0.032927568            2 
 1209000    1.0705271     -6.98025    473.95037  0.032668208  0.032920319            3 
 1210000     1.057367   -6.9382662    475.36928  0.032738931  0.032913031            2 
 1211000    1.0746281   -6.9199668    475.95618  0.032752283  0.032905937            1 
 1212000    1.0544892    -6.919429     476.2487  0.032745372  0.032898718            3 
 1213000    1.0769422    -6.964986    476.02942  0.032703313  0.032891325            2 
 1214000    1.0568991   -6.9503727    475.93161   0.03266966  0.032884064            3 
 1215000    1.0729761   -6.9438185    475.86873  0.032638459  0.032876792            2 
 1216000    1.0590488   -6.9517415    476.45805  0.032652005   0.03286962            2 
 1217000    1.0522764   -6.9007008    477.97454  0.032729015   0.03286238            1 
 1218000     1.057324   -6.9632388    478.05444  0.032707611  0.032855405            2 
 1219000    1.0531052   -6.9935424    478.53513   0.03271364   0.03284833            3 
 1220000    1.0676564   -6.9256968    479.10504  0.032725754  0.032841463            2 
 1221000    1.0697351   -6.9387141    479.63914  0.032735404  0.032834527            4 
 1222000    1.0430211    -6.969776    478.30638  0.032617729  0.032827356            2 
 1223000    1.0696361   -6.9404593    480.00693  0.032706932  0.032820281            3 
 1224000    1.0488394   -6.9673515    478.98697  0.032610769  0.032813118            2 
 1225000    1.0550664   -6.9593265    478.71906  0.032565923  0.032805829            4 
 1226000    1.0575617   -6.9586432    479.69901  0.032605969  0.032798628            4 
 1227000    1.0379321   -6.9053623    480.52374  0.032635407  0.032791574            2 
 1228000    1.0805453   -6.9359702     480.8242  0.032629221  0.032784393            2 
 1229000    1.0367918   -6.9643566    481.17406  0.032626394  0.032777361            3 
 1230000    1.0701245   -6.9771196    480.49211  0.032553666  0.032770197            3 
 1231000    1.0565309   -6.9620676    480.76388  0.032545619  0.032762822            1 
 1232000    1.0548438   -6.9812976    480.53652  0.032503823  0.032755405            2 
 1233000    1.0460889    -6.983705    480.44908  0.032471552   0.03274788            3 
 1234000    1.0398444   -6.9516322    482.80983  0.032604661  0.032740525            1 
 1235000    1.0578144    -6.905402    481.98723  0.032522755  0.032733116            3 
 1236000     1.060187   -6.9499624     482.1316  0.032506176  0.032725774            1 
 1237000    1.0437456   -6.9481724    481.61174  0.032444876  0.032718355            2 
 1238000    1.0620234   -6.9289346    483.50617  0.032546188  0.032710975            2 
 1239000     1.031292    -6.954379    482.05548  0.032422349  0.032703575            2 
 1240000    1.0308366   -6.9397188    483.33727  0.032482343  0.032696103            3 
 1241000    1.0615205   -6.9431118    483.27754  0.032452158  0.032688492            3 
 1242000    1.0563346    -6.923303    483.16338  0.032418369  0.032681053            3 
 1243000    1.0553168   -6.9652106    484.88886  0.032507968  0.032673459            3 
 1244000    1.0532014   -6.9467067    484.31124  0.032443143  0.032665973            2 
 1245000    1.0667539    -6.923807    485.11381  0.032470804  0.032658508            2 
 1246000    1.0411381   -6.9542985    484.34985   0.03239365  0.032651013            4 
 1247000    1.0639548   -6.9667087    484.20749  0.032358159  0.032643594            2 
 1248000    1.0658059   -6.9459228    485.25389  0.032402103   0.03263625            5 
 1249000    1.0456934   -6.9099227    486.48271  0.032458147  0.032628964            2 
 1250000    1.0720696   -6.9092725     486.0698  0.032404653  0.032621664            4 
 1251000    1.0744696   -6.9577068    484.66336  0.032285063  0.032614316            2 
 1252000    1.0608532   -6.9362923    485.55616  0.032318701  0.032606825            2 
 1253000    1.0454562   -6.9343202    487.33538  0.032411238  0.032599403            2 
 1254000    1.0674962   -6.9842201    486.78733  0.032348972  0.032591842            3 
 1255000     1.057797   -6.9630323    486.78062   0.03232275  0.032583986            4 
 1256000    1.0635271   -6.9459395    488.22509  0.032392854  0.032576288            1 
 1257000    1.0469639   -6.9651418    487.57032  0.032323676  0.032568584            2 
 1258000    1.0786537   -6.9884291    486.26041  0.032211209  0.032560815            2 
 1259000    1.0565138   -6.9797815    488.90466  0.032360648  0.032553227            2 
 1260000    1.0386892   -6.9491493    487.01094  0.032209718  0.032545517            1 
 1261000     1.055357    -6.996893    487.60972  0.032223746  0.032537693            6 
 1262000    1.0771602   -6.9440502    489.93286  0.032351615  0.032530121            2 
 1263000    1.0444629   -6.9342183    489.62832  0.032305907  0.032522439            2 
 1264000    1.0528641   -6.9952957    488.18791  0.032185384  0.032514701            3 
 1265000     1.043822   -6.9558185    489.24467  0.032229556  0.032506879            2 
 1266000    1.0543149   -6.9636347    489.02773  0.032189819  0.032499146            3 
 1267000    1.0559097   -6.9369874    490.53861  0.032263786  0.032491638            3 
 1268000    1.0581964   -6.9605041    489.76317   0.03218738  0.032483987            4 
 1269000    1.0623355   -6.9919118     490.0865  0.032183248  0.032476357            2 
 1270000    1.0310586    -6.951617    490.10986   0.03215944  0.032468823            2 
 1271000    1.0447916   -6.9321165    491.77013  0.032242993  0.032461289            1 
 1272000    1.0507495   -7.0095528     490.2187  0.032116005  0.032453633            2 
 1273000    1.0306441    -6.930949     493.1191  0.032280643    0.0324464            3 
 1274000    1.0309903   -6.9636854    492.20261  0.032195356  0.032439169            2 
 1275000    1.0488424   -6.9579208     494.9027  0.032346582  0.032431902            3 
 1276000    1.0454214   -6.9909428    492.26165   0.03214875  0.032424643            3 
 1277000    1.0589637   -6.9448489    495.11234  0.032309602  0.032417536            4 
 1278000    1.0676779   -6.9405426    495.55216  0.032312999  0.032410439            1 
 1279000    1.0604145   -6.9336529    494.06169  0.032190624  0.032403368            2 
 1280000    1.0508765   -6.9311786    495.00226   0.03222671  0.032396249            2 
 1281000     1.030281   -6.9544757    495.71838  0.032248138  0.032389123            2 
 1282000    1.0457058   -6.9452651    496.54023  0.032276406  0.032381882            3 
 1283000    1.0509938   -7.0105168    497.18153  0.032292903  0.032374724            1 
 1284000    1.0551814   -6.9947597    496.75008  0.032239751  0.032367627            3 
 1285000    1.0667221   -7.0139456    496.87497   0.03222276  0.032360668            1 
 1286000    1.0430666      -7.0042    496.62664  0.032181612  0.032353581            3 
 1287000     1.054959   -6.9244392    498.58407  0.032283351  0.032346671            1 
 1288000    1.0511257   -6.9440957    498.72178  0.032267196  0.032339729            1 
 1289000    1.0692669   -6.9262345     499.9415  0.032321018  0.032332989            2 
 1290000    1.0317356   -7.0226066    496.90567  0.032099849  0.032325867            2 
 1291000    1.0425338   -6.9379596    499.08492  0.032215654  0.032318634            2 
 1292000     1.017795   -6.9720032    499.82441  0.032238417  0.032311453            3 
 1293000    1.0493367   -6.9778016    497.96284  0.032093506  0.032304244            2 
 1294000    1.0427918   -6.9538823    499.00299   0.03213569  0.032297099            2 
 1295000    1.0180993   -6.9533924    499.96545  0.032172809  0.032290097            3 
 1296000    1.0627063    -6.948559    500.25933  0.032166881   0.03228301            3 
 1297000    1.0539731   -6.9845724    499.33475  0.032082675  0.032275898            5 
 1298000    1.0484658   -7.0050274    501.91927  0.032223887  0.032268873            2 
 1299000    1.0606653   -6.9730877    502.34436  0.032226351  0.032261899            1 
 1300000    1.0488279   -6.9898622    500.46417  0.032081037  0.032255036            3 
 1301000    1.0557098   -6.9939678    502.93205  0.032214453  0.032248058            4 
 1302000    1.0423258   -6.9797136    501.36763  0.032089582  0.032240966            3 
 1303000    1.0470922   -6.9710955    502.01021   0.03210605  0.032233817            3 
 1304000    1.0383623   -7.0107783    500.88161  0.032009305  0.032226637            2 
 1305000     1.046423   -6.9882762    502.54123  0.032090755  0.032219354            2 
 1306000    1.0441086   -6.9537249    503.21598  0.032109238  0.032212166            4 
 1307000    1.0377502    -6.997362    503.64831  0.032112236  0.032205029            4 
 1308000    1.0422973   -6.9894599    503.79296  0.032096901  0.032197929            3 
 1309000    1.0126532   -6.9601902    505.01528  0.032150196  0.032191011            2 
 1310000    1.0706805   -6.9897204     505.3911  0.032149561  0.032184055            5 
 1311000    1.0248314   -6.9796129    504.94179  0.032096478  0.032177393            2 
 1312000    1.0334891    -6.955859    506.73959  0.032186204  0.032170671            1 
 1313000    1.0506956   -6.9749762    505.67212   0.03209394  0.032163877            2 
 1314000    1.0414695   -6.9497046    505.86425  0.032081701  0.032157136            2 
 1315000    1.0537808   -6.9709204    506.73699   0.03211261   0.03215051            2 
 1316000    1.0367311   -6.9492333    507.49726  0.032136351  0.032143748            2 
 1317000     1.040451    -6.942491     505.8706  0.032009023  0.032137184            2 
 1318000    1.0463562     -6.97425    507.27832  0.032073743  0.032130506            2 
 1319000    1.0366112   -6.9348066    507.62776  0.032071504  0.032124064            1 
 1320000    1.0571784   -6.9638431    508.27233  0.032087899  0.032117483            6 
 1321000     1.045022   -6.9821774     508.4235  0.032073145  0.032110778            1 
 1322000     1.029294   -6.9834609    509.41546  0.032111413  0.032103985            1 
 1323000    1.0368802   -6.9874022    507.16807  0.031945583   0.03209725            3 
 1324000    1.0301404    -6.949277    509.12977  0.032044925  0.032090465            2 
 1325000    1.0317081    -7.006687    509.09021  0.032018252  0.032083877            5 
 1326000    1.0446743   -6.9483258    509.95686  0.032048571  0.032077221            7 
 1327000    1.0674861   -6.9793691    510.72973  0.032072955  0.032070622            2 
 1328000    1.0630966   -6.9958807     510.3776  0.032026707  0.032063992            2 
 1329000    1.0356609    -6.987518    510.39283  0.032003564   0.03205739            2 
 1330000    1.0498096   -6.9877817    511.59904  0.032055078  0.032050852            3 
 1331000    1.0284439   -7.0156314    511.45954   0.03202226  0.032044375            2 
 1332000    1.0383302   -6.9611453    511.55661  0.032004293   0.03203787            1 
 1333000    1.0103042   -6.9856366    510.42379  0.031909464   0.03203127            5 
 1334000    1.0504176   -6.9695364    511.19439  0.031933683  0.032024585            5 
 1335000    1.0487207   -7.0039792    511.60211  0.031935213  0.032017824            5 
 1336000    1.0325874   -7.0259888    511.98853  0.031935412  0.032011107            6 
 1337000    1.0361469   -6.9768571    511.62037  0.031888579  0.032004296            2 
 1338000     1.024437   -6.9931297     514.1117  0.032019912  0.031997616            3 
 1339000    1.0230743   -7.0225873    510.95712  0.031799671  0.031990894            4 
 1340000     1.067187   -6.9565402    514.55894  0.031999934   0.03198415            3 
 1341000    1.0303612   -6.9744216    513.13907  0.031887837  0.031977492            3 
 1342000    1.0239371   -6.9793144    513.44559  0.031883109  0.031970924            4 
 1343000    1.0501299   -6.9768827    514.37179   0.03191684  0.031964173            1 
 1344000    1.0292933   -6.9599284    516.14553  0.032003071  0.031957556            4 
 1345000    1.0345097   -6.9654045    515.34903  0.031929927  0.031951075            2 
 1346000    1.0762875   -6.9602231    514.58347  0.031858808    0.0319444            2 
 1347000    1.0231851   -6.9938087    514.15745  0.031808801  0.031937611            5 
 1348000    1.0292532   -6.9401588    515.22907  0.031851451  0.031930665            3 
 1349000    1.0384414   -6.9602013     515.0833  0.031818835  0.031923706            2 
 1350000    1.0294173   -6.9914951    516.19446  0.031863856  0.031916811            3 
 1351000    1.0471931   -6.9914104    515.48614  0.031796579  0.031909918            2 
 1352000    1.0335613   -7.0366665    514.98442  0.031742136  0.031903022            3 
 1353000    1.0316074   -6.9929686    516.27947   0.03179844  0.031896005            2 
 1354000    1.0444832   -6.9644988    515.97734   0.03175636  0.031888978            3 
 1355000    1.0269312   -7.0176426    514.83609  0.031662736  0.031881821            1 
 1356000    1.0668267   -6.9942553    515.58909  0.031685662  0.031874614            1 
 1357000    1.0193499   -6.9649417    516.22766  0.031701527  0.031867359            3 
 1358000    1.0174881   -6.9747778    517.94487  0.031783559  0.031860108            2 
 1359000    1.0507471   -7.0307124    515.49004  0.031609642  0.031852817            2 
 1360000    1.0237829    -6.990143    516.23367  0.031631965  0.031845458            2 
 1361000    1.0361559   -6.9818722    517.09426  0.031661417  0.031838087            5 
 1362000    1.0575766   -6.9860634     516.6794  0.031612788  0.031830735            3 
 1363000    1.0113883   -6.9951724    517.82004  0.031659332  0.031823263            3 
 1364000    1.0441077   -7.0181949    517.32315  0.031605764  0.031815878            5 
 1365000    1.0471049    -6.961517    520.01164  0.031746742  0.031808654            1 
 1366000    1.0311177   -6.9715525    519.43899  0.031688567  0.031801475            3 
 1367000    1.0400003   -7.0113793    518.11447  0.031584642  0.031794161            3 
 1368000    1.0450864   -7.0384914    518.66673  0.031595196  0.031786827            1 
 1369000    1.0434402   -6.9997586    518.98805  0.031591676  0.031779735            2 
 1370000    1.0350388   -6.9735984    520.11671   0.03163727   0.03177256            2 
 1371000    1.0316988   -6.9972929    521.05531  0.031671244  0.031765591            2 
 1372000    1.0414863   -6.9626517    521.62438  0.031682725    0.0317584            4 
 1373000    1.0480399   -7.0026404     522.7016   0.03172503  0.031751289            4 
 1374000    1.0316923   -6.9882759    521.76098  0.031644892  0.031744249            2 
 1375000    1.0399304    -6.962423     523.6737    0.0317378   0.03173715            2 
 1376000    1.0183095    -7.002114    521.83612  0.031603447  0.031730182            2 
 1377000    1.0164321   -7.0048572    522.24188  0.031605052  0.031723068            2 
 1378000    1.0333415   -7.0013388    522.22645  0.031581184  0.031715935            2 
 1379000    1.0341887   -7.0262733    521.69443  0.031526132   0.03170883            3 
 1380000    1.0431444   -6.9951432    522.50125  0.031552008  0.031701626            3 
 1381000    1.0326144   -6.9955763    523.62044  0.031596695  0.031694473            6 
 1382000     1.026734   -6.9861949    523.46431  0.031564418  0.031687334            2 
 1383000    1.0390502   -6.9925563    524.75586  0.031619418  0.031680091            2 
 1384000    1.0258804   -7.0032804    522.17633  0.031441253  0.031672859            2 
 1385000    1.0225994   -6.9987783    523.32263  0.031487523  0.031665463            2 
 1386000    1.0272059    -7.026066    524.13732  0.031513788  0.031658157            2 
 1387000   0.99831384   -6.9867043     523.2613  0.031438434  0.031650842            1 
 1388000    1.0355441   -7.0063372    524.53912  0.031492503  0.031643478            2 
 1389000    1.0217204   -7.0047686    523.48659  0.031406683  0.031636157            2 
 1390000    1.0103522   -6.9921195    523.44885  0.031381826  0.031628869            1 
 1391000    1.0295509   -7.0021476    525.15115  0.031461248  0.031621514            2 
 1392000     1.027062   -7.0200153    525.40265  0.031453703  0.031614314            2 
 1393000    1.0007456   -7.0034252    526.35917  0.031488344  0.031607124            4 
 1394000    1.0371814   -7.0109304    526.08636  0.031449448  0.031599956            1 
 1395000    1.0188874   -6.9964351     526.9971  0.031481308  0.031592755            2 
 1396000    1.0140708   -7.0095916    526.22587  0.031412719  0.031585508            2 
 1397000    1.0382978   -7.0162481    526.79477  0.031424169  0.031578171            7 
 1398000    1.0282319   -6.9995568    525.97106   0.03135259  0.031570929            3 
 1399000    1.0290087   -7.0103234    526.58789  0.031366922  0.031563549            1 
 1400000    1.0209686   -7.0021454    526.96736  0.031367105  0.031556298            3 
 1401000    1.0295588    -7.015731    527.90185    0.0314003  0.031549186            3 
 1402000    1.0269989   -7.0418849    527.92096   0.03137904  0.031542068            2 
 1403000    1.0208382   -7.0220933    528.19088  0.031372706  0.031534714            2 
 1404000      1.02553   -7.0074432    528.77456  0.031385005   0.03152734            5 
 1405000    1.0364055   -7.0206854    528.12001  0.031323844   0.03152005            2 
 1406000    1.0122538   -7.0158056    528.17356  0.031304739  0.031512749            3 
 1407000    1.0438963    -7.011553    529.39356  0.031354748  0.031505513            3 
 1408000    1.0316246   -7.0091616    529.37069  0.031331125  0.031498314            1 
 1409000    1.0413103   -7.0342511    529.94642   0.03134294  0.031490988            2 
 1410000    1.0214994   -7.0188288    530.07101  0.031328074  0.031483638            2 
 1411000    1.0204885    -6.999177    530.09626  0.031307363  0.031476346            4 
 1412000    1.0152509   -7.0116017    531.18792  0.031349618  0.031469266            2 
 1413000    1.0291504   -7.0273021    530.81941  0.031305698  0.031462137            3 
 1414000    1.0394038   -6.9972067    531.32383  0.031313286  0.031455048            2 
 1415000     1.020442    -7.014105    532.24227  0.031345245  0.031447871            3 
 1416000    1.0142521    -7.004388    531.95626  0.031306277  0.031440636            3 
 1417000    1.0087874   -7.0024868    530.89423  0.031221726  0.031433425            2 
 1418000    1.0227678   -6.9953208    530.37432  0.031169154  0.031426146            5 
 1419000   0.99121221   -7.0074743    531.57519  0.031217711   0.03141877            4 
 1420000    1.0494479   -7.0303788     532.7376  0.031263944  0.031411491            1 
 1421000    1.0179718   -6.9793906    531.31951  0.031158779  0.031404126            3 
 1422000    1.0406297   -7.0079064     533.1279  0.031242845  0.031396795            4 
 1423000    1.0174688   -6.9552811    533.73855   0.03125665  0.031389489            3 
 1424000    1.0342251   -7.0201028     531.1072  0.031080712   0.03138227            3 
 1425000    1.0048721   -7.0058105    533.31435  0.031187974  0.031374787            3 
 1426000    1.0045474    -7.030919    533.44911  0.031173978  0.031367394            2 
 1427000    0.9942577   -7.0151583    532.75792  0.031111769  0.031360042            5 
 1428000    1.0275692   -7.0317465    533.99425  0.031162129  0.031352625            2 
 1429000    1.0352492   -7.0144286     532.4612  0.031050922  0.031345346            5 
 1430000   0.99001626   -7.0313164    533.93802  0.031115269   0.03133801            2 
 1431000    1.0212918   -7.0202073     533.5404   0.03107037  0.031330606            5 
 1432000    1.0175411   -6.9982219    535.27907  0.031149853  0.031323302            5 
 1433000    1.0079167   -7.0377327    534.00107  0.031053795  0.031316026            3 
 1434000    1.0399905   -7.0003751    536.15175  0.031157122  0.031308748            1 
 1435000     1.045927   -7.0313509    534.22786  0.031023685  0.031301211            2 
 1436000    1.0218136   -7.0243406    536.61435  0.031140573   0.03129369            2 
 1437000    1.0075416   -7.0006632    534.44866  0.030993312  0.031286092            4 
 1438000    1.0271547   -7.0119646    535.56502  0.031036452  0.031278474            3 
 1439000    1.0074127   -7.0164055    536.75692  0.031083908  0.031271133            2 
 1440000    1.0190214   -7.0400686    537.60552  0.031111431  0.031263719            2 
 1441000    1.0376294   -7.0141508    536.57954  0.031030508  0.031256272            2 
 1442000    1.0283944   -7.0121143    536.78351  0.031020776  0.031248966            3 
 1443000    1.0136552   -7.0179494    536.84384  0.031002763  0.031241653            2 
 1444000    1.0346187   -7.0382687    536.03352  0.030934529  0.031234095            5 
 1445000    1.0173604   -6.9965206    539.68148  0.031123499   0.03122676            1 
 1446000    1.0196824   -7.0255219    537.45019  0.030973386  0.031219396            2 
 1447000    1.0469274   -7.0381272    538.09809  0.030989293  0.031211873            3 
 1448000    1.0360251    -7.033647    536.75635  0.030890674  0.031204356            1 
 1449000    1.0206137   -7.0572787    537.95407  0.030938237  0.031196931            3 
 1450000    1.0105652   -7.0031237    539.70267  0.031017395  0.031189367            4 
 1451000    1.0047778   -7.0207437    538.89453  0.030949606  0.031181932            5 
 1452000    1.0454711   -7.0140852    539.90218  0.030986122  0.031174493            1 
 1453000    1.0142298   -6.9931365    540.60904  0.031005336  0.031167082            5 
 1454000     1.001378   -7.0118405    541.77687  0.031050944  0.031159693            3 
 1455000    1.0159059   -7.0276582    537.85413  0.030804933  0.031152278            4 
 1456000    0.9990663   -6.9952766    542.27394  0.031036741  0.031144913            5 
 1457000    1.0199823    -6.992874    540.50816  0.030914445   0.03113758            2 
 1458000    1.0126179   -7.0005852    542.05201  0.030981482  0.031130151            1 
 1459000     1.016879    -7.035819    542.09464  0.030962682  0.031122915            4 
 1460000    1.0456993   -7.0387263    541.04419  0.030881518  0.031115598            2 
 1461000     1.013055   -7.0488109    540.06796  0.030804698  0.031108208            2 
 1462000     1.020466   -7.0116386    543.69734  0.030990501   0.03110103            5 
 1463000    1.0467698   -7.0442754    540.71495  0.030799439  0.031093864            4 
 1464000     1.021106   -7.0023025    544.63619  0.031001605  0.031086737            1 
 1465000    1.0236076   -7.0163261    544.50002  0.030972697  0.031079651            3 
 1466000    1.0225287    -7.014323    543.42119  0.030890245  0.031072475            2 
 1467000    1.0080041   -7.0109095     545.6211  0.030994155  0.031065313            3 
 1468000   0.99756771   -7.0329357    542.91756  0.030819571  0.031058018            9 
 1469000      1.01443   -7.0569541    544.49089  0.030887843  0.031050565            2 
 1470000    1.0068062   -7.0274701    545.16545  0.030905071  0.031043344            2 
 1471000    1.0156206   -7.0413659    544.20092   0.03082942  0.031035994            2 
 1472000    1.0344278   -6.9949958    545.52653  0.030883522  0.031028696            5 
 1473000    1.0110184   -7.0519102    545.61636  0.030867638  0.031021433            2 
 1474000    1.0027265   -7.0103941     544.8438  0.030803019  0.031014179            1 
 1475000    1.0082094   -7.0349793    546.33838  0.030866575  0.031006994            2 
 1476000    1.0194496   -7.0538237    546.23481  0.030839816  0.030999876            3 
 1477000    1.0009903   -7.0265327    546.35752  0.030825858  0.030992683            2 
 1478000    1.0133302    -7.025687    547.24595  0.030855094  0.030985503            2 
 1479000    1.0210534   -7.0125582    547.63319  0.030856051  0.030978468            1 
 1480000     1.010523   -7.0335691    548.55705  0.030887221  0.030971331            2 
 1481000   0.99560719   -7.0239649    548.13229  0.030842465  0.030964147            3 
 1482000    1.0345522   -7.0228898    549.05376  0.030873469  0.030956899            4 
 1483000    1.0256125   -7.0278762    549.27976   0.03086535  0.030949784            3 
 1484000   0.99842716   -7.0166151    550.67222  0.030922744  0.030942731            2 
 1485000    1.0241857   -6.9725688    551.47357   0.03094689  0.030935787            2 
 1486000      1.00422   -7.0372839    549.73879  0.030828779  0.030928736            2 
 1487000   0.99451379    -7.023134    548.85575   0.03075856  0.030921716            3 
 1488000   0.99626212   -7.0094253    548.57319  0.030722065  0.030914545            2 
 1489000    1.0222207   -7.0236567    549.35695  0.030745296  0.030907367            7 
 1490000     1.027822   -7.0127961    550.08695   0.03076549  0.030900184            2 
 1491000    1.0278719    -7.067215    549.88502  0.030733569  0.030893032            3 
 1492000     1.009554   -7.0581203    550.31663  0.030737077  0.030885912            2 
 1493000   0.99642754   -7.0432312    551.71091  0.030794313  0.030878731            2 
 1494000    1.0091863   -7.0207105    550.61146  0.030712375  0.030871591            3 
 1495000    1.0148289   -7.0253707    552.33346  0.030787818   0.03086442            3 
 1496000    1.0256157   -7.0252263    551.02663  0.030694443  0.030857332            4 
 1497000     1.003051   -7.0453246    552.27604  0.030743489  0.030850214            3 
 1498000    1.0294377   -7.0163999    553.42077  0.030786647  0.030843209            2 
 1499000    1.0254975   -6.9866423    553.35717  0.030762574  0.030836259            2 
 1500000    1.0205527    -7.049279    551.87416  0.030659675  0.030829088            2 
 1501000    1.0187993   -7.0355984    554.48575  0.030784241  0.030821942            3 
 1502000    1.0081982   -7.0474467    552.65117   0.03066196  0.030814824            3 
 1503000    1.0215701   -7.0059342    552.92424    0.0306567  0.030807785            2 
 1504000    1.0062128   -7.0335137    556.14764  0.030814918  0.030800676            3 
 1505000    1.0093963   -7.0273546    553.87908  0.030668831  0.030793625            4 
 1506000   0.99571106    -7.068129    553.85792  0.030647295  0.030786456            3 
 1507000    1.0074689   -7.0425647    553.49087  0.030606661  0.030779281            3 
 1508000    1.0253799   -7.0745825    555.86246  0.030717422  0.030772069            5 
 1509000    1.0173185   -7.0346968    554.20923  0.030605767   0.03076483            2 
 1510000    1.0010134   -7.0372758    556.10065  0.030689881  0.030757728            2 
 1511000    1.0097119   -7.0612664    555.25888  0.030623146  0.030750724            2 
 1512000    1.0262175   -7.0751828    555.97704  0.030642474  0.030743634            1 
 1513000    1.0401879   -7.0406162    556.17785  0.030633281  0.030736442            3 
 1514000    1.0212974    -7.034648    557.20438   0.03066955  0.030729318            2 
 1515000    1.0069495   -7.0526208    556.97366  0.030636615   0.03072228            2 
 1516000    1.0177221    -7.050834    558.95219  0.030725164  0.030715311            2 
 1517000    1.0119424   -7.0253634    557.47897  0.030623982  0.030708401            3 
 1518000   0.98818395   -7.0659974    557.76992   0.03061978  0.030701512            2 
 1519000    1.0179223   -7.0578309    558.07679  0.030616458  0.030694596            3 
 1520000   0.99259623   -7.0030229    559.13162  0.030654146  0.030687791            3 
 1521000    1.0185197   -7.0324168    559.97612  0.030680261  0.030680911            1 
 1522000    1.0077083   -7.0198048     558.0776  0.030556154  0.030674063            2 
 1523000   0.99130097   -7.0678459    560.04775  0.030643891   0.03066724            2 
 1524000    1.0190552   -7.0382671    560.01924  0.030622224  0.030660409            2 
 1525000    1.0317885   -7.0533915    560.39332  0.030622586  0.030653717            2 
 1526000    1.0137109   -7.0602593    559.03462  0.030528321  0.030646938            3 
 1527000   0.98977302   -7.0712707    559.82889  0.030551675  0.030640155            2 
 1528000    1.0106388   -7.0092505    560.99492  0.030595272   0.03063329            5 
 1529000    1.0053588   -7.0564029    561.37979  0.030596239  0.030626311            1 
 1530000    1.0025409    -7.083906    560.08036  0.030505466   0.03061947            6 
 1531000    1.0191984   -7.0393281    560.30302   0.03049766  0.030612476            2 
 1532000    1.0101851   -7.0453546    562.77865  0.030612416  0.030605557            4 
 1533000   0.99188682   -7.0324758    561.20722  0.030507025  0.030598705            4 
 1534000    1.0038983   -7.0536636    561.48645  0.030502306  0.030591933            2 
 1535000   0.99311135   -7.0635925    562.40837  0.030532485  0.030584971            2 
 1536000    1.0106732   -7.0745886    562.46562  0.030515713  0.030578048            2 
 1537000    1.0149634   -7.0758741    563.74365  0.030565151  0.030571171            2 
 1538000    1.0442239   -7.0679445     563.9663  0.030557342  0.030564369            1 
 1539000     1.005993   -7.0500693    563.09786  0.030490463  0.030557473            3 
 1540000    1.0077721   -7.0465958    563.85365  0.030511561  0.030550649            2 
 1541000     1.007875   -7.0834596    564.01489   0.03050048  0.030543803            5 
 1542000    0.9676434   -7.0387364    564.61953  0.030513377   0.03053693            2 
 1543000   0.98637016   -7.0610699    564.00454  0.030460388  0.030530053            2 
 1544000    1.0056243     -7.08581    563.85981  0.030432848  0.030522915            4 
 1545000    1.0120042   -7.0510945    563.53623  0.030395697  0.030515807            1 
 1546000   0.99945318   -7.0404119    563.68037  0.030383806  0.030508636            2 
 1547000    1.0213573   -7.0759339    563.91033  0.030376553   0.03050142            2 
 1548000   0.99518633    -7.058665    564.48863  0.030388061  0.030494264            1 
 1549000   0.99090959   -7.0761787    563.50642  0.030315603  0.030487149            2 
 1550000    1.0159651     -7.06377    563.88672   0.03031649  0.030479878            5 
 1551000     1.010221   -7.0527339    563.62416  0.030282837  0.030472588            2 
 1552000    1.0192864   -7.0461985    564.77197  0.030324955  0.030465413            4 
 1553000    1.0233303   -7.0533471    563.27815  0.030225271  0.030458189            2 
 1554000    1.0130389   -7.0620233    562.86252  0.030183533  0.030450847            1 
 1555000    1.0032931       -7.059    566.47589  0.030357765  0.030443656            2 
 1556000    1.0233639   -7.0518146    565.63286  0.030293105  0.030436336            1 
 1557000     0.979682   -7.1157862    566.62339  0.030326664  0.030428921            3 
 1558000   0.97846173   -7.0868443    564.87972  0.030213934  0.030421484            5 
 1559000    1.0140934   -7.0537845    566.38766  0.030275158  0.030414112            5 
 1560000    1.0010583   -7.0448592    565.86684   0.03022793  0.030406786            2 
 1561000    1.0015463   -7.0582052    568.48888  0.030348541  0.030399564            4 
 1562000   0.99790638   -7.0484775    567.18814  0.030259717  0.030392352            2 
 1563000    0.9949685   -7.1005877    564.70393  0.030107909  0.030384903            4 
 1564000    1.0054934   -7.0844824    567.30656  0.030227332  0.030377493            2 
 1565000    1.0107565   -7.0602936      568.783  0.030286635  0.030370133            2 
 1566000    1.0011622   -7.0707533    568.33825  0.030243628  0.030362913            2 
 1567000    1.0009128   -7.0267721    570.18576  0.030322578  0.030355737            1 
 1568000   0.99630789    -7.090258    568.60639  0.030219302  0.030348611            2 
 1569000    1.0056032   -7.1059201    567.66578  0.030150084   0.03034133            3 
 1570000   0.97619505   -7.0445494    569.25236  0.030215093  0.030334202            4 
 1571000   0.99491241   -7.0839232    569.80551  0.030225202  0.030327065            2 
 1572000   0.99795312   -7.0998993    570.38152   0.03023651  0.030319934            1 
 1573000    0.9947069    -7.070554    569.52886  0.030172116  0.030312866            2 
 1574000    1.0087218   -7.1083622    571.31577  0.030247553  0.030305711            2 
 1575000    1.0031879   -7.0696308    570.50598  0.030185502  0.030298651            3 
 1576000    1.0071285   -7.0888998    568.81533  0.030076953  0.030291506            3 
 1577000    1.0227799   -7.0096197    571.81188  0.030216227   0.03028433            3 
 1578000   0.99743989   -7.0575303    571.16351  0.030162838  0.030277147            3 
 1579000   0.99482394   -7.0549042     571.7756   0.03017604  0.030270046            5 
 1580000   0.99422004    -7.111966    570.20413  0.030074057  0.030262783            4 
 1581000   0.99789976   -7.0339117    570.62993  0.030077479  0.030255538            4 
 1582000    1.0043485   -7.0944761    570.72288  0.030063363  0.030248325            1 
 1583000    1.0082096   -7.0322763    572.30783  0.030127808  0.030241229            2 
 1584000    1.0152315   -7.0331767    572.16179  0.030101104   0.03023404            2 
 1585000   0.99863584   -7.0085512    574.14631  0.030186451  0.030226861            2 
 1586000   0.99931157   -7.0383279    572.05449  0.030057508  0.030219688            5 
 1587000   0.99886674   -7.0496801    572.54468  0.030064308  0.030212514            3 
 1588000   0.99810391   -7.0587345    572.85576    0.0300617  0.030205251            2 
 1589000    1.0093874   -7.0829767    571.50758  0.029972078  0.030197883            4 
 1590000    1.0055619   -7.0868859    571.94013  0.029975898  0.030190551            2 
 1591000     1.005842   -7.0621085    572.68898   0.02999628  0.030183178            3 
 1592000   0.97359442   -7.0672393    572.58301  0.029971891  0.030175718            4 
 1593000    1.0050607   -7.0875945    572.06961  0.029926219  0.030168205            2 
 1594000   0.99376426   -7.0469815    573.76325  0.029995988  0.030160636            2 
 1595000    0.9997692   -7.1082504    572.66235  0.029919663  0.030153081            2 
 1596000   0.99155314   -7.0635626    574.10618  0.029976304  0.030145571            2 
 1597000   0.98578492   -7.0754666    574.17935  0.029961352  0.030138023            2 
 1598000   0.99247468   -7.0881865    574.03485  0.029935067  0.030130546            5 
 1599000   0.97076229      -7.0631    574.67906   0.02994992  0.030123097            2 
 1600000   0.98382161   -7.0475155    575.32284  0.029964731  0.030115723            3 
 1601000   0.99673806   -7.0513684     574.9192  0.029925005  0.030108435            2 
 1602000   0.99766291   -7.0828698    574.98768  0.029909887  0.030101031            2 
 1603000   0.99366682   -7.0519825    575.29247  0.029907074  0.030093671            3 
 1604000    1.0187502     -7.05627    577.77948  0.030017637  0.030086346            2 
 1605000    1.0209951   -7.0804048    576.21736  0.029917828     0.030079            2 
 1606000   0.99376218   -7.0541899    575.79336  0.029877198  0.030071601            4 
 1607000   0.98985544   -7.0545418     576.3172  0.029885771  0.030064179            4 
 1608000   0.99357871   -7.0823616    575.42329  0.029820859  0.030056665            2 
 1609000    1.0079215   -7.0372587    576.29217  0.029847326  0.030049168            1 
 1610000   0.98834975   -7.0498455    578.01676  0.029918052  0.030041704            1 
 1611000   0.99913021    -7.118365     575.4568   0.02976706  0.030034115            2 
 1612000   0.99837751   -7.1002574    578.28237  0.029894664  0.030026548            2 
 1613000   0.99738926   -7.1071882    577.69658  0.029845866  0.030019111            2 
 1614000   0.99641147   -7.0386799    577.75516  0.029830399  0.030011847            2 
 1615000   0.97850196   -7.0592266    578.79565  0.029865617  0.030004506            1 
 1616000    0.9789799   -7.0598562    579.82116  0.029900019  0.029997174            6 
 1617000   0.97346345   -7.0589914    579.06114  0.029842359  0.029989778            3 
 1618000   0.98397393   -7.1105095    579.25514  0.029833907   0.02998238            2 
 1619000   0.97991297   -7.0865471    579.45249  0.029825638  0.029974993            4 
 1620000    1.0048722    -7.044203    579.86627  0.029828512  0.029967715            4 
 1621000   0.98686957   -7.0920533     579.4858  0.029790551  0.029960301            5 
 1622000    1.0008913   -7.0672856    579.40236  0.029767898  0.029952958            2 
 1623000    1.0056746   -7.0508102    579.23024  0.029740719  0.029945551            2 
 1624000   0.98051714   -7.0797905    578.37671  0.029678608  0.029938175            2 
 1625000    1.0037506   -7.0812583    581.34236  0.029812429  0.029930776            5 
 1626000   0.99712048   -7.0614492    581.20202  0.029786902  0.029923402            3 
 1627000   0.98697988   -7.0951577      581.167    0.0297668  0.029916002            3 
 1628000   0.99136074   -7.0487991    580.47819  0.029713257  0.029908636            6 
 1629000   0.96160526    -7.066598    581.60392  0.029752605  0.029901414            1 
 1630000   0.99737744    -7.110392    581.21212  0.029714321  0.029894093            1 
 1631000   0.98071511   -7.0728286    582.07073  0.029739972  0.029886785            3 
 1632000   0.99448609   -7.1126384    581.83345  0.029709633  0.029879435            2 
 1633000    0.9957776   -7.0924898    582.50092  0.029725501  0.029872089            1 
 1634000   0.97402492   -7.0523314    582.19351  0.029691631  0.029864665            4 
 1635000    1.0026769   -7.0682868    582.26911  0.029677325  0.029857298            2 
 1636000    0.9718636   -7.0573502     583.1525  0.029704182   0.02984993            2 
 1637000    1.0024922   -7.0889983    583.52199  0.029704846  0.029842608            3 
 1638000   0.96220707   -7.0705859    582.41257  0.029630269   0.02983529            2 
 1639000    0.9866886   -7.0712633    582.96663  0.029640361  0.029827897            7 
 1640000   0.99514594   -7.0706589    583.03658  0.029625843  0.029820461            1 
 1641000   0.99666319   -7.0609762    583.94163  0.029653749  0.029813006            3 
 1642000   0.99123333   -7.0251069     584.6213  0.029670184  0.029805494            2 
 1643000   0.98850171   -7.0974896    583.00947  0.029570373   0.02979802            1 
 1644000   0.97679622   -7.0831046    583.91257  0.029598164  0.029790466            3 
 1645000   0.98242716   -7.0864223    582.28002  0.029497468  0.029782874            2 
 1646000   0.97554189   -7.0718048    585.12288  0.029623475  0.029775379            3 
 1647000   0.98263472   -7.0765206    583.97151  0.029547233  0.029767791            3 
 1648000   0.99980766    -7.085408    584.92975  0.029577758  0.029760191            4 
 1649000   0.98990917   -7.0908423    583.53521  0.029489348  0.029752574            2 
 1650000   0.99395738   -7.0977953    584.56091  0.029523278  0.029744872            3 
 1651000    0.9760538   -7.1225111    583.08496  0.029430898  0.029737224            3 
 1652000   0.97892621   -7.1083544    585.01647  0.029510516  0.029729586            2 
 1653000    1.0051415   -7.1252463    585.41576  0.029512793  0.029721814            2 
 1654000   0.98690975   -7.0901891    584.62102  0.029454908  0.029714126            4 
 1655000   0.98133353   -7.0763829    583.46091  0.029378696  0.029706533            3 
 1656000   0.99132053   -7.0955351    585.86664  0.029482017  0.029698887            1 
 1657000   0.98313254   -7.0870178    584.52144  0.029396572  0.029691278            4 
 1658000   0.98747654   -7.0826972    587.53368  0.029530241  0.029683739            3 
 1659000    1.0024125   -7.0686802    588.03127  0.029537436  0.029676217            2 
 1660000    0.9997337   -7.1046579    587.39938  0.029487921  0.029668763            2 
 1661000   0.96737259    -7.101853    585.49338  0.029374542  0.029661258            2 
 1662000   0.99209829   -7.0944273    585.67179  0.029365814  0.029653615            2 
 1663000   0.99514553   -7.1313275    587.02601  0.029416015  0.029645989            5 
 1664000   0.98446646   -7.1028641     588.2729  0.029460782  0.029638464            2 
 1665000   0.99944578   -7.0978429    587.84606  0.029421725  0.029630897            3 
 1666000    1.0064326   -7.0850577    588.42408  0.029432977  0.029623418            2 
 1667000   0.98103247   -7.0875641    587.44404  0.029366329  0.029615974            6 
 1668000   0.99026153   -7.0880773    588.61402  0.029407175  0.029608458            3 
 1669000   0.98219667   -7.0869217    590.63683  0.029490555  0.029601047            4 
 1670000   0.99436729   -7.0891046     589.5448  0.029418403  0.029593681            2 
 1671000   0.97614306   -7.0835342    590.72011  0.029459411  0.029586365            2 
 1672000   0.97211954   -7.1140311    590.45288  0.029428473   0.02957904            2 
 1673000   0.97588038    -7.073504    589.82051  0.029379384  0.029571666            2 
 1674000   0.98566216   -7.0957209    590.29245  0.029385327  0.029564253            9 
 1675000   0.96762944    -7.074266    590.41436  0.029373849  0.029556995            5 
 1676000   0.97731659   -7.1193608    590.85153   0.02937806  0.029549623            4 
 1677000   0.96007803   -7.1096599     590.8669  0.029361305  0.029542174            1 
 1678000    1.0018895   -7.0828949     591.5792  0.029379181  0.029534849            1 
 1679000   0.98451093   -7.0821828    592.01598  0.029383362  0.029527565            3 
 1680000   0.96967664   -7.1019764    591.57714  0.029344104  0.029520199            2 
 1681000   0.97636455    -7.108637    591.61716  0.029328632  0.029512803            2 
 1682000    0.9840663   -7.1217796    592.54105  0.029356968  0.029505279            2 
 1683000   0.98204778   -7.1017449    592.54369  0.029339656  0.029497861            2 
 1684000   0.99269947    -7.084387    591.72985   0.02928196  0.029490603            4 
 1685000   0.99817721   -7.1275163     592.3192  0.029293729  0.029483369            5 
 1686000   0.98714834   -7.1241907    593.51683  0.029335549  0.029476026            3 
 1687000   0.99139269   -7.0929661    594.99809   0.02939133  0.029468726            5 
 1688000   0.95207921   -7.1385538     593.0495   0.02927772  0.029461426            3 
 1689000   0.97377459   -7.1419003    594.70339  0.029341987  0.029454031            5 
 1690000   0.99298989   -7.1398069    594.87022  0.029332851  0.029446694            2 
 1691000   0.98188378   -7.1333469     596.4246  0.029392105  0.029439414            3 
 1692000   0.98476194   -7.1216394    595.16428  0.029312661  0.029432129            4 
 1693000   0.98931472   -7.1439804     594.7057  0.029272775  0.029424711            3 
 1694000   0.97857089   -7.0966173     596.7916  0.029358107   0.02941732            6 
 1695000   0.99738031    -7.126837    593.90312  0.029198777  0.029409909            5 
 1696000   0.97380898   -7.1297306    594.58691  0.029215159  0.029402559            2 
 1697000   0.99710397    -7.113511     596.3211  0.029283102  0.029395214            3 
 1698000   0.99635765   -7.1272467    596.51634  0.029275439  0.029387929            2 
 1699000   0.98715309   -7.1261143    595.92566  0.029229236  0.029380644            2 
 1700000   0.97914952   -7.1389569    594.62322  0.029148197  0.029373179            2 
 1701000   0.99296013   -7.1082081    595.13413  0.029156091  0.029365672            4 
 1702000   0.97766538   -7.0794018    595.00264  0.029132522  0.029358178            4 
 1703000   0.99572161   -7.1172003     597.7983  0.029252216  0.029350753            4 
 1704000   0.99591742   -7.1079306    594.36455  0.029067124  0.029343316            3 
 1705000   0.97654087    -7.137821    597.46577   0.02920165  0.029335909            2 
 1706000   0.98497146   -7.0960893    597.24147  0.029173577  0.029328433            4 
 1707000    0.9752597   -7.1247524    595.47217  0.029070112  0.029320993            3 
 1708000   0.99852924    -7.041791    597.27405  0.029141006  0.029313642            2 
 1709000   0.98439217   -7.1009534    598.90964  0.029203708  0.029306436            3 
 1710000   0.96974714   -7.1294126    597.14841    0.0291008  0.029299035            2 
 1711000   0.97370022   -7.0988461    598.30902  0.029140319   0.02929161            2 
 1712000   0.97525799   -7.1171429    598.33637  0.029124629  0.029284211            3 
 1713000   0.98518114   -7.0992758    598.50724  0.029115939  0.029276911            3 
 1714000    0.9875541    -7.106047    598.41574  0.029094503  0.029269533            2 
 1715000   0.98338751   -7.1113049    599.25373  0.029118257  0.029262124            4 
 1716000   0.97198491   -7.1381346     598.4673  0.029063097  0.029254719            4 
 1717000    1.0008384   -7.1170483    599.56575  0.029099483  0.029247289            4 
 1718000   0.98128082   -7.0641418     601.1695  0.029160337  0.029239933            2 
 1719000   0.99016987   -7.0546631    602.74843  0.029219916  0.029232676            2 
 1720000    0.9885164   -7.0991983    600.68401  0.029102908  0.029225328            3 
 1721000   0.98718237   -7.0968365    600.51646  0.029077884   0.02921798            2 
 1722000    0.9730092   -7.1185975     600.8931  0.029079225  0.029210647           10 
 1723000    1.0070923   -7.0801619    601.27584  0.029080859  0.029203243            2 
 1724000   0.99997571   -7.0739785    600.44482  0.029023821  0.029195959            4 
 1725000    0.9809352    -7.151466    599.17906  0.028945848  0.029188585            3 
 1726000   0.95908558    -7.133317    600.06498  0.028971851  0.029181052            3 
 1727000   0.97512017   -7.1033057    600.54586  0.028978279  0.029173547            2 
 1728000   0.97858188   -7.1068086     600.6987   0.02896888   0.02916613            3 
 1729000   0.99036335   -7.1040507    602.61492  0.029044482  0.029158619            2 
 1730000   0.96356283   -7.1411833     601.2741  0.028963107  0.029151091            2 
 1731000   0.97178409   -7.1297701    601.35051  0.028950053  0.029143581            2 
 1732000   0.98729154   -7.1125232     602.2377  0.028976025  0.029136091            4 
 1733000   0.98157819   -7.1117519    601.25348  0.028911977  0.029128602            1 
 1734000   0.96487532   -7.1172933    602.55521  0.028957863  0.029121121            3 
 1735000     0.980873   -7.1425728    602.42023  0.028934689  0.029113641            2 
 1736000   0.96113435    -7.135423    603.26448  0.028958548  0.029106201            2 
 1737000   0.97994336   -7.1289088    602.58753    0.0289094  0.029098688            1 
 1738000   0.95671464    -7.117582    602.69535  0.028897936  0.029091278            2 
 1739000   0.98103737   -7.1346165      602.755  0.028884177  0.029083686            5 
 1740000   0.95133734    -7.146712    602.10958  0.028836666  0.029076227            3 
 1741000   0.95429273   -7.0979261    604.66356  0.028942349  0.029068815            3 
 1742000   0.98048142   -7.1210613    602.70058   0.02883183  0.029061329            4 
 1743000   0.97497708   -7.1265696    603.72234  0.028864139  0.029053888            3 
 1744000   0.96293591    -7.115979    603.59684  0.028841592  0.029046494            2 
 1745000   0.96629949   -7.1213198    604.96174  0.028890245  0.029039037            3 
 1746000   0.96011445   -7.1110895    606.12107  0.028929032  0.029031659            3 
 1747000   0.97109724   -7.1458812     605.8756  0.028900763  0.029024337            2 
 1748000   0.95594096   -7.1112095    606.77885  0.028927291   0.02901689            2 
 1749000   0.96815935   -7.1255223    607.08206  0.028925198  0.029009573            3 
 1750000   0.96985162   -7.1032095    606.86266  0.028898222  0.029002273            3 
 1751000   0.96132028   -7.1172765    606.81507  0.028879453   0.02899504            2 
 1752000   0.97937898   -7.1287043     607.1619  0.028879466   0.02898769            2 
 1753000   0.93791961   -7.1346869    607.38337   0.02887352  0.028980292            2 
 1754000   0.97701181   -7.1239994    606.69035  0.028824133  0.028972997            2 
 1755000   0.96030799   -7.1156274      608.002  0.028869991    0.0289657            3 
 1756000   0.97148052   -7.1274282    607.69989  0.028839213   0.02895836            1 
 1757000   0.97513192   -7.1249578    607.28421  0.028803083   0.02895115            3 
 1758000   0.95171557   -7.1037504    608.91843  0.028864165  0.028943985            2 
 1759000   0.98278066   -7.1187431    608.64105  0.028834615  0.028936801            3 
 1760000   0.97530153   -7.1869152    608.67517  0.028819847  0.028929588            3 
 1761000   0.98464682   -7.1261919    610.41184  0.028885664  0.028922344            4 
 1762000   0.96466824   -7.1534525    609.43662  0.028823147  0.028915123            4 
 1763000   0.97263482   -7.1580364    609.44951  0.028807407  0.028907951            3 
 1764000   0.97941636   -7.1191704    610.26916  0.028829798  0.028900852            3 
 1765000   0.99213925   -7.1365617    610.78636  0.028837883  0.028893784            2 
 1766000   0.96314341   -7.1283905     609.6144  0.028766251  0.028886489            2 
 1767000   0.96411667   -7.1250619    609.40637  0.028740161  0.028879102            2 
 1768000   0.95443219    -7.106152     610.2716  0.028764687  0.028871742            2 
 1769000   0.96746799   -7.0732176     611.0392  0.028784587  0.028864463            2 
 1770000   0.97323981   -7.1279509    612.03004  0.028814974  0.028857219            4 
 1771000   0.95855746   -7.1020812    611.71956  0.028784094  0.028850049            5 
 1772000    0.9756274   -7.1313988    610.77205  0.028723291  0.028842825            3 
 1773000   0.94093169   -7.1251049    612.29054  0.028778461  0.028835606            5 
 1774000    0.9736703   -7.1404774    611.87488  0.028742713  0.028828401            4 
 1775000   0.96722872   -7.1540249      612.131  0.028738545  0.028821301            2 
 1776000   0.95625863   -7.1055769    613.62694  0.028792555  0.028814057            2 
 1777000   0.94553114   -7.1113703    615.00411  0.028840936  0.028806893            4 
 1778000    0.9566953   -7.1196994    612.16605  0.028691697  0.028799746            5 
 1779000   0.96184299   -7.1203147    614.15261  0.028768625  0.028792627            2 
 1780000   0.96371147   -7.1427652    613.03276  0.028700035  0.028785484            6 
 1781000    0.9825375   -7.1362437    612.65128  0.028666072   0.02877836            2 
 1782000   0.97520588   -7.1330139    614.36904  0.028730314  0.028771246            3 
 1783000   0.97335727   -7.1607079    613.32016  0.028665179  0.028764119            4 
 1784000   0.98046954   -7.1383962    615.92192  0.028770643  0.028757057            2 
 1785000   0.97958119   -7.1305402    613.82454  0.028656608   0.02874994            3 
 1786000   0.97089873   -7.1115555    616.17184  0.028750086   0.02874278            4 
 1787000   0.97363228   -7.1207205    613.13233  0.028592256   0.02873557            3 
 1788000   0.95886946   -7.1526051    613.21732  0.028580226  0.028728256            1 
 1789000   0.95575055   -7.1176463    614.10992  0.028605828  0.028720999            2 
 1790000   0.96631285   -7.1347742       615.37   0.02864851  0.028713674            4 
 1791000   0.95566145   -7.1039911    615.55869  0.028641294   0.02870655            3 
 1792000     0.969442    -7.096078    615.92799  0.028642484   0.02869941            4 
 1793000   0.97639989   -7.1592721    615.67756  0.028614871  0.028692283            5 
 1794000   0.95605204   -7.0968585     616.6708  0.028645058  0.028685239            4 
 1795000   0.96243085   -7.1015567    614.69547  0.028537394  0.028678126            3 
 1796000   0.97586408   -7.1106267    615.77685   0.02857168  0.028671016            2 
 1797000   0.96081849   -7.1428745    615.16574  0.028527441  0.028663717            2 
 1798000   0.96222496   -7.1465407    614.31869  0.028472316  0.028656375            4 
 1799000   0.95822126   -7.1065609    616.86718   0.02857454  0.028649067            5 
 1800000    0.9757342   -7.2070313    613.71183  0.028412585  0.028641764            2 
 1801000   0.96595033   -7.1355778    616.76503  0.028538082  0.028634565            3 
 1802000   0.98225201   -7.1139439    617.39063  0.028551176  0.028627395            5 
 1803000   0.96392066     -7.16161    617.67415  0.028548445  0.028620284            2 
 1804000   0.94322572   -7.1166803    618.55853  0.028573472  0.028613197            5 
 1805000   0.95902412   -7.1197017    620.63961  0.028653722  0.028606123            3 
 1806000   0.95159828   -7.1430065    617.71912  0.028503097  0.028599034            2 
 1807000   0.97684617   -7.1378817    617.42914  0.028473951  0.028591989            2 
 1808000   0.94034869   -7.1295052    619.81348  0.028568099  0.028584739            3 
 1809000    0.9719132   -7.1499548     617.4528   0.02844356  0.028577408            4 
 1810000   0.97051757   -7.1723023    617.27105  0.028419477  0.028570168            3 
 1811000    0.9712954    -7.128649    617.57638  0.028417834  0.028562917            1 
 1812000   0.97286203   -7.1400057    617.98356  0.028420878  0.028555738            4 
 1813000   0.96475569    -7.157919    618.67358  0.028436918  0.028548608            2 
 1814000   0.96630087   -7.1142374    618.33335  0.028405611  0.028541449            2 
 1815000    0.9457594   -7.1508855     619.8343  0.028458875  0.028534328            2 
 1816000   0.97549621   -7.1554572    618.79675  0.028395593  0.028527045            2 
 1817000    0.9535325   -7.1575854    620.07914  0.028438779    0.0285198            4 
 1818000   0.93084716   -7.1070918    620.08109  0.028423226  0.028512676            4 
 1819000   0.96812427   -7.1645577    619.35061  0.028374135  0.028505439            4 
 1820000   0.98437545   -7.1371877    622.12381  0.028485523  0.028498244            5 
 1821000   0.95108891   -7.1300777    620.74435  0.028406752  0.028491018            3 
 1822000   0.95886744    -7.175375    618.92827  0.028308099  0.028483719            1 
 1823000   0.95535502   -7.1367779    619.82935  0.028333761  0.028476367            3 
 1824000   0.96873633   -7.1542422    621.78931  0.028407772  0.028469082            2 
 1825000   0.93302673   -7.1685667    621.05145  0.028358514  0.028461784            3 
 1826000    0.9734541   -7.1337593    621.47065  0.028362114  0.028454456            4 
 1827000   0.95482159   -7.1426769    621.98686  0.028370136  0.028447139            4 
 1828000   0.94562155   -7.1714548    619.98734  0.028263464  0.028439926            2 
 1829000   0.95337258   -7.1245458    622.49935  0.028362464  0.028432662            2 
 1830000   0.96860926   -7.1397497    622.50336  0.028347147  0.028425457            2 
 1831000   0.96098995   -7.1604158    622.43021  0.028328337  0.028418283            2 
 1832000   0.93688705    -7.121689    624.35346  0.028400357  0.028411095            2 
 1833000   0.94648652   -7.1751528    622.03515  0.028279467   0.02840385            2 
 1834000    0.9559616   -7.1539076    621.50391  0.028239909  0.028396569            5 
 1835000    0.9414089   -7.1436477    621.24098  0.028212579  0.028389327            2 
 1836000   0.96261211   -7.1701395    624.26981  0.028334686  0.028382073            3 
 1837000   0.96127075   -7.1550467    624.43088  0.028326569  0.028374892            4 
 1838000   0.96424056    -7.128973    624.30748  0.028305562  0.028367758            2 
 1839000   0.94303062   -7.1691123    622.87234  0.028225138  0.028360549            4 
 1840000   0.96038386   -7.1615416    623.40815  0.028234065  0.028353308            4 
 1841000    0.9561113   -7.1331127    626.31847  0.028350465  0.028346214            2 
 1842000    0.9678512   -7.1353097    624.47199  0.028251538  0.028339128            6 
 1843000   0.95417356   -7.1871107    623.81722  0.028206603  0.028331979            3 
 1844000   0.94616466   -7.1576544    625.37264  0.028261598  0.028324811            3 
 1845000   0.94849722    -7.167202    625.10846  0.028234348  0.028317654            2 
 1846000   0.95647357   -7.1427887    624.44809  0.028189242  0.028310478            4 
 1847000   0.96494929   -7.1333783    625.27016   0.02821107  0.028303287            2 
 1848000   0.94830902   -7.1542293    625.09105  0.028187728  0.028296064            3 
 1849000    0.9493462   -7.1655474     626.4282  0.028232747  0.028288825            2 
 1850000   0.95997006   -7.1536706    625.70668  0.028184986  0.028281694            1 
 1851000   0.95885877   -7.1449816    627.57431  0.028253841  0.028274483            5 
 1852000   0.96316457   -7.1664345     624.7791   0.02811281   0.02826729            2 
 1853000   0.97257797   -7.1661018    625.10262  0.028112188  0.028260034            3 
 1854000   0.94851045   -7.1771412    624.68801   0.02807839  0.028252752            2 
 1855000   0.94513132   -7.1668295    626.15621   0.02812921  0.028245495            1 
 1856000   0.94375304   -7.1794582    626.65822  0.028136594  0.028238241            4 
 1857000   0.94711088   -7.1433561     628.6177  0.028209375   0.02823108            4 
 1858000   0.95264733   -7.1862328    626.34079   0.02809207  0.028223838            2 
 1859000   0.96982551   -7.1549198    628.99515  0.028195945   0.02821659            2 
 1860000   0.95616353   -7.1422498    627.66741    0.0281213   0.02820943            3 
 1861000   0.94467071   -7.1512258    625.57012  0.028012275  0.028202208            2 
 1862000   0.96117962   -7.1724116     629.2356  0.028161278  0.028195001            4 
 1863000   0.96866597   -7.1709574    628.13859  0.028097092  0.028187773            4 
 1864000   0.95411887   -7.1708829    628.62382  0.028103712  0.028180538            4 
 1865000   0.95078337   -7.1451721    629.13552  0.028111507  0.028173343            4 
 1866000   0.95944461   -7.1594283    627.34588  0.028016518  0.028166075            4 
 1867000     0.961812   -7.1544573    628.48229  0.028052236  0.028158738            2 
 1868000   0.97532855   -7.1708816    629.34427  0.028075672  0.028151461            2 
 1869000   0.96353924   -7.1223195    630.68467  0.028120415   0.02814423            5 
 1870000   0.94896766   -7.1867445    627.11032  0.027946093  0.028136958            2 
 1871000   0.94892495   -7.1659299    629.75232  0.028048829  0.028129705            7 
 1872000   0.95170468   -7.1833665    626.93811   0.02790857    0.0281224            1 
 1873000   0.96667911   -7.1490239    629.41521   0.02800388  0.028115086            2 
 1874000    0.9530399   -7.1410745    629.96558  0.028013411  0.028107849            3 
 1875000   0.95799399   -7.1605227    628.54191  0.027935196  0.028100648            4 
 1876000   0.95865164   -7.1608607    629.13995   0.02794687   0.02809335            3 
 1877000   0.96237101   -7.1872068    629.93839   0.02796743  0.028086038            2 
 1878000   0.95393947   -7.1412614    630.40567  0.027973272  0.028078742            7 
 1879000    0.9516942    -7.163468     633.0675  0.028076437  0.028071589            1 
 1880000   0.96084231   -7.1835127    628.64625  0.027865525  0.028064383            3 
 1881000   0.95775393   -7.1564664    631.53727  0.027978791  0.028057164            4 
 1882000   0.95588616   -7.1725818    632.29769  0.027997595  0.028049995            4 
 1883000   0.95976845   -7.1802156    633.18024  0.028021785  0.028042823            1 
 1884000   0.93095913   -7.1558046    632.10264  0.027959246  0.028035655            2 
 1885000   0.93899778   -7.1743446    630.87421  0.027890107  0.028028489            4 
 1886000   0.96019476   -7.1706138    633.67529  0.027999085  0.028021231            3 
 1887000   0.95261092   -7.2113627    631.58399  0.027891892  0.028014017            2 
 1888000   0.96696564   -7.1542697    631.66869  0.027880857  0.028006765            3 
 1889000   0.95560157   -7.1498962    633.40582  0.027942731  0.027999626            2 
 1890000   0.95064644    -7.158575    634.19915  0.027962925  0.027992472            1 
 1891000    0.9611568   -7.1432657     632.6347  0.027879195  0.027985246            2 
 1892000   0.94917432   -7.1701174    634.26793  0.027936396  0.027978049            5 
 1893000    0.9210712   -7.1883574    633.15082  0.027872461  0.027970857            2 
 1894000    0.9577414   -7.1592476    633.64615  0.027879539  0.027963593            3 
 1895000   0.93303683   -7.1777083    634.22433  0.027890252  0.027956292            1 
 1896000   0.96567782    -7.152799    633.97315  0.027864502  0.027949047            3 
 1897000   0.95414714   -7.1452121    634.45961  0.027871183  0.027941948            2 
 1898000   0.95589958   -7.1151155    635.79696  0.027915216  0.027934832            5 
 1899000   0.97429753   -7.1700464    634.59393  0.027847724  0.027927828            6 
 1900000   0.95241354   -7.1776967    635.98234  0.027893962  0.027920742            5 
 1901000   0.94203044   -7.1459317    636.06232  0.027882795  0.027913613            2 
 1902000   0.94769322   -7.1458951    635.83357  0.027858113  0.027906548            4 
 1903000   0.95590701   -7.2001089    634.81525  0.027798881  0.027899419            3 
 1904000   0.93391272    -7.163712    635.34422  0.027807432  0.027892262            2 
 1905000   0.94818737   -7.1737277    635.56459  0.027802476  0.027885129            4 
 1906000   0.92202983   -7.1514975     638.9282  0.027934951  0.027878005            3 
 1907000   0.95916469   -7.1184699    638.88964  0.027918617  0.027870971            1 
 1908000   0.95102841   -7.1698962    635.54542  0.027757924  0.027863777            3 
 1909000   0.93739725   -7.1723238    637.30551  0.027820216  0.027856708            5 
 1910000   0.94782108   -7.1887738    635.43204  0.027723911  0.027849545            3 
 1911000   0.94398627   -7.1737096    637.17483  0.027785402  0.027842413            3 
 1912000   0.94134531   -7.1947976    638.54163  0.027830441  0.027835259            3 
 1913000   0.96292385   -7.1782794    637.44723  0.027768219  0.027828101            5 
 1914000   0.91683531   -7.1640109    637.37933  0.027750754     0.027821            4 
 1915000    0.9363999   -7.1791379    638.37062    0.0277794  0.027813978            2 
 1916000   0.94580533   -7.2081261    639.90553   0.02783166  0.027807021            3 
 1917000   0.95187835   -7.1914911    639.99512  0.027821036  0.027800029            4 
 1918000   0.92234807   -7.1549896    640.23032   0.02781675   0.02779308            2 
 1919000    0.9650213   -7.2162371    638.67645  0.027734777  0.027786088            5 
 1920000   0.93241215   -7.1823793    638.70866   0.02772173  0.027778981            2 
 1921000   0.94099852   -7.1972344    637.82742  0.027669071  0.027771904            3 
 1922000   0.93402616   -7.1869067    638.34238  0.027677002  0.027764847            3 
 1923000   0.94519681   -7.2265926    639.55836  0.027715304  0.027757744            3 
 1924000   0.93847299    -7.195314    639.65776  0.027705204  0.027750666            5 
 1925000   0.94858319   -7.1801195    639.34693  0.027677356  0.027743632            2 
 1926000   0.95595932   -7.2145915    638.52184  0.027627286  0.027736552            5 
 1927000   0.93436814   -7.1369272    641.73624  0.027751956  0.027729544            2 
 1928000   0.92788276   -7.1708059    640.48836  0.027683626  0.027722489            3 
 1929000   0.94377034   -7.1482884    640.59993  0.027674094  0.027715515            3 
 1930000   0.93366994   -7.1677985    642.06504  0.027723015  0.027708498            4 
 1931000   0.92375054   -7.1851658    640.94812  0.027660457  0.027701383            2 
 1932000   0.94788941   -7.1963045    639.69166  0.027591945  0.027694219            3 
 1933000   0.96561247   -7.1589586    641.72336  0.027665259  0.027687135            8 
 1934000   0.94075264   -7.2094882    641.34634   0.02763471  0.027680157            3 
 1935000   0.95093732   -7.1852342    641.83523  0.027641483  0.027673116            3 
 1936000   0.94480818   -7.1648403    643.57076   0.02770191  0.027666014            2 
 1937000   0.92799967   -7.2106796    640.94245  0.027574533  0.027658916            2 
 1938000   0.92975974   -7.1853428    643.18142   0.02765658  0.027651776            2 
 1939000   0.92705495   -7.1565883    641.99161  0.027591182  0.027644639            3 
 1940000   0.94278242   -7.2066012    642.49864  0.027598739  0.027637514            5 
 1941000   0.95525907   -7.1795933    642.53624  0.027586134   0.02763043            6 
 1942000   0.92809994   -7.1919942    641.71871  0.027536848  0.027623375            2 
 1943000    0.9407803   -7.1782773    641.47328   0.02751215  0.027616202            3 
 1944000   0.94805855   -7.1898799    642.29305  0.027533138  0.027609037            4 
 1945000   0.96963917   -7.1996481    642.56956   0.02753083  0.027601869            3 
 1946000   0.94550019   -7.1495487    645.96587  0.027662122  0.027594848            4 
 1947000     0.937111   -7.1674202    643.95761  0.027561959  0.027587882            2 
 1948000   0.96394548    -7.172107    645.07766  0.027595725  0.027580838            2 
 1949000   0.93752752   -7.1678004    644.15072  0.027541933  0.027573747            2 
 1950000   0.95898708   -7.1418564    644.79386  0.027555293  0.027566699            1 
 1951000   0.93091498   -7.1984483    646.75112   0.02762477   0.02755968            3 
 1952000   0.92931256   -7.2036144    643.22994  0.027460294  0.027552567            3 
 1953000   0.95491383   -7.2095194    644.70586   0.02750921  0.027545423            3 
 1954000   0.92862611   -7.1984747     643.9815   0.02746424  0.027538313            2 
 1955000   0.93992688   -7.1367698    645.63276  0.027520578  0.027531286            6 
 1956000   0.95905565   -7.1990474    644.04071  0.027438681  0.027524201            3 
 1957000   0.95959344   -7.1757307    646.16314  0.027515038  0.027517066            3 
 1958000   0.94242694   -7.2245824    646.06314  0.027496729  0.027509965           10 
 1959000   0.92611289   -7.2045882    644.46293  0.027414622  0.027502789            2 
 1960000     0.943308   -7.2214005    645.41089  0.027440939  0.027495564            3 
 1961000   0.92774942   -7.1585353    645.04522  0.027411407  0.027488396            2 
 1962000   0.94026855   -7.2159552    645.51051  0.027417198  0.027481191            6 
 1963000   0.93820267    -7.202207    644.04451  0.027340996  0.027473978            3 
 1964000   0.93960142   -7.2045731    646.57933  0.027434629  0.027466798            2 
 1965000   0.95069778   -7.2353434    645.39097   0.02737027  0.027459555            3 
 1966000   0.92042946   -7.1832063    647.19256  0.027432713  0.027452338            1 
 1967000   0.92213792   -7.2107069    643.97406  0.027282412   0.02744511            6 
 1968000   0.94664718   -7.1848889    646.09714  0.027358449  0.027437927            3 
 1969000   0.94292026   -7.1937315    646.71167  0.027370563  0.027430678            2 
 1970000   0.90957161   -7.1975089    647.84291  0.027404522  0.027423477            2 
 1971000   0.93077063    -7.170607    646.95012  0.027352872  0.027416366            3 
 1972000   0.94712087   -7.1965018    646.58508  0.027323575  0.027409189            3 
 1973000   0.94835395   -7.1973958    646.84069  0.027320522  0.027402043            4 
 1974000   0.95103667   -7.2029435    646.75904  0.027303235  0.027394823            5 
 1975000   0.93483861   -7.1996204    647.27455  0.027311162  0.027387589            3 
 1976000   0.92995976   -7.2104601    648.71233  0.027357976   0.02738043            3 
 1977000   0.94084569   -7.1986144    647.46564  0.027291588  0.027373185            5 
 1978000   0.94465486   -7.2217988    647.30318  0.027270946  0.027365949            2 
 1979000   0.93142951   -7.2191949    646.25245  0.027212921  0.027358757            2 
 1980000   0.92066764   -7.2207012    647.30198  0.027243349  0.027351515            4 
 1981000   0.94099106   -7.1844792    649.54703  0.027324038  0.027344287            4 
 1982000   0.92817761   -7.2439522    649.73937  0.027318339  0.027337151            4 
 1983000    0.9394123   -7.2105711    648.93897  0.027270927  0.027330001            3 
 1984000   0.93356502   -7.1840164     649.0876  0.027263424  0.027322898            3 
 1985000   0.91926922   -7.1779443    649.71791  0.027276151  0.027315848            4 
 1986000    0.9251787   -7.1707191    649.79043  0.027265459  0.027308832            3 
 1987000    0.9362155   -7.2268952    649.37384  0.027234266  0.027301747            1 
 1988000   0.91799532   -7.2382548    651.59705   0.02731376  0.027294665            2 
 1989000   0.94318694   -7.2038156    651.66726  0.027302969  0.027287611            2 
 1990000   0.90885829   -7.1872106    648.39233  0.027152108   0.02728046            3 
 1991000   0.90607671   -7.2100579    651.43232  0.027265709  0.027273308            3 
 1992000   0.93743056   -7.2397768    648.78966  0.027141468  0.027266183            5 
 1993000   0.92705918   -7.2100061    650.28825  0.027190511  0.027258944            4 
 1994000   0.95749939   -7.2249185    650.20483  0.027173388    0.0272518            2 
 1995000   0.93680775   -7.1932395    652.21934  0.027243915  0.027244683            6 
 1996000   0.94726505   -7.1993762    652.42901   0.02723902  0.027237502            2 
 1997000   0.93903678   -7.2115241    650.89932  0.027161547  0.027230266            3 
 1998000     0.944563   -7.1991552    652.23398  0.027203619  0.027223079            2 
 1999000   0.92242813   -7.2054714    651.49355  0.027159144  0.027215906            5 
 2000000   0.93090835   -7.1787041    652.26171  0.027177571   0.02720878            2 
 2001000   0.91458447   -7.2148517    651.13555   0.02711709  0.027201661           12 
 2002000   0.92994166   -7.2030957    650.03889  0.027057896  0.027194457            1 
 2003000    0.9299427   -7.1886708    651.10172  0.027088605  0.027187242            5 
 2004000   0.94464051   -7.2090716     652.7791   0.02714484  0.027180028            4 
 2005000   0.91574609   -7.2073976    652.09802  0.027102993  0.027172827            5 
 2006000   0.91686778   -7.2182002     651.9036  0.027081406  0.027165599            3 
 2007000   0.92859863   -7.2111666    652.12726  0.027077199  0.027158302            4 
 2008000   0.94722253   -7.2075029    652.33807  0.027072463  0.027151039            4 
 2009000   0.94622996   -7.1747643    652.34655  0.027059339   0.02714388            2 
 2010000   0.95141933   -7.2094611    653.23419  0.027082678  0.027136595            4 
 2011000   0.92822075    -7.222133     651.0612  0.026979164  0.027129308            4 
 2012000   0.93294054   -7.2318318    653.06034  0.027048556  0.027121999            7 
 2013000   0.94373333   -7.2105625    652.08667  0.026994812  0.027114739            3 
 2014000    0.9168203   -7.2211894    652.69045  0.027006391  0.027107534            4 
 2015000   0.92562337   -7.1827999    654.28497  0.027058932  0.027100349            2 
 2016000   0.93030776   -7.2062891    653.40099   0.02700897  0.027093119            7 
 2017000   0.93085115   -7.2387081    653.14195  0.026984876  0.027085822            3 
 2018000   0.94136308   -7.2404344    652.87078  0.026960307   0.02707844            2 
 2019000   0.93621544   -7.1936811    655.50886  0.027055839  0.027071166            3 
 2020000   0.90492394   -7.2012481    653.96986  0.026978955  0.027063963            5 
 2021000   0.94178183   -7.2184157     654.2192  0.026975886  0.027056706            3 
 2022000   0.93690896   -7.2164803    655.34174  0.027008809  0.027049482            7 
 2023000   0.93190425   -7.2067781    654.19165  0.026948082  0.027042217            3 
 2024000   0.93539838   -7.1915361     654.4126  0.026943865  0.027035027            3 
 2025000   0.94045601   -7.1758401     656.8551  0.027031074  0.027027913            7 
 2026000   0.95015163   -7.2381752    655.00988  0.026941835  0.027020778            2 
 2027000   0.93058641   -7.1630923    656.95719    0.0270086  0.027013659            6 
 2028000    0.9193415   -7.2246379    656.06679  0.026958694  0.027006501            2 
 2029000   0.95790382   -7.2117707    657.92274  0.027021634  0.026999277            4 
 2030000   0.91433288   -7.2246508    657.06522  0.026973121  0.026992096            2 
 2031000   0.93891992   -7.2276344    656.19128  0.026923982  0.026984925            2 
 2032000   0.92444073   -7.2149029     655.9728  0.026901772  0.026977859            2 
 2033000    0.9389645   -7.2190144    656.79319  0.026922167  0.026970784            4 
 2034000   0.93602676   -7.2396963    656.33726  0.026890251  0.026963736            4 
 2035000   0.94637991   -7.2149718    658.19149  0.026952968  0.026956681            4 
 2036000   0.91623917   -7.2077711    658.58307  0.026955757   0.02694962            2 
 2037000   0.93131726   -7.1982579    658.54003  0.026940764  0.026942544            6 
 2038000   0.93619365   -7.2329831    657.90342  0.026901514  0.026935496            3 
 2039000   0.91248033   -7.1927894    656.05137  0.026812627  0.026928398            3 
 2040000   0.93388163   -7.1989968    659.53692  0.026941868  0.026921317            8 
 2041000    0.9137277   -7.2236187    659.10046  0.026910847  0.026914244            2 
 2042000   0.92323624   -7.2129037    658.34435  0.026866812  0.026907142            2 
 2043000    0.9240665    -7.220464    659.39269  0.026896423  0.026900091            3 
 2044000   0.91013898   -7.1963877    659.45235  0.026885696  0.026892985            5 
 2045000   0.92659442   -7.2218978    658.23207  0.026822823  0.026885868            3 
 2046000   0.94035725   -7.2489226    659.43959  0.026858895  0.026878755            3 
 2047000   0.93072189   -7.2221548     658.4607  0.026805923  0.026871706            4 
 2048000    0.9235961   -7.2247795     659.0422  0.026816496  0.026864651            7 
 2049000   0.93078628   -7.2408958    660.29428  0.026854331  0.026857613            3 
 2050000   0.92089824   -7.1844263    662.20999  0.026919105  0.026850659            3 
 2051000   0.91573994   -7.2125754    660.45248  0.026834572  0.026843689            5 
 2052000   0.93162441   -7.2156933    660.78958  0.026835184  0.026836698            1 
 2053000   0.92180276   -7.2133668    661.29637  0.026842684   0.02682971            5 
 2054000   0.94697193   -7.2580389    660.34594  0.026791056  0.026822572            2 
 2055000    0.9208786   -7.2364459    661.32813  0.026817848  0.026815494            2 
 2056000   0.92624299   -7.2431569     659.6886  0.026738351   0.02680846            5 
 2057000    0.9118345   -7.2468985    659.87927  0.026733077  0.026801385            4 
 2058000   0.94049751   -7.2176665    661.42834  0.026782813  0.026794394            3 
 2059000   0.94775485   -7.2338182    660.99008  0.026752067  0.026787439            3 
 2060000   0.92264057   -7.2608854     662.5865  0.026803661   0.02678044            3 
 2061000   0.93051789   -7.1917145    663.45218  0.026825658  0.026773407            5 
 2062000   0.93374543   -7.2372574    663.26603  0.026805126  0.026766424            2 
 2063000    0.9365166   -7.2324829    662.06972  0.026743809  0.026759408            2 
 2064000   0.91403025   -7.2371321    661.35979  0.026702188  0.026752429            2 
 2065000   0.91650975   -7.2617822    662.26288  0.026725701  0.026745369            4 
 2066000   0.93893018   -7.2180342    661.55308  0.026684135    0.0267384            3 
 2067000   0.91890456   -7.2127657    664.80315  0.026802256  0.026731485            3 
 2068000   0.93063833   -7.2036237    664.03917  0.026758509  0.026724549            2 
 2069000   0.92778795   -7.2268322    661.67217  0.026650241  0.026717625            3 
 2070000    0.9265808   -7.2349938    664.26976  0.026741939  0.026710645            2 
 2071000   0.92614793   -7.2308748    662.69585  0.026665695  0.026703706            2 
 2072000   0.93262501   -7.2194916     663.8277  0.026698347  0.026696645            2 
 2073000   0.91910201   -7.2162248    663.10679  0.026656488  0.026689614            2 
 2074000   0.90052017   -7.2251848    662.66018   0.02662569  0.026682625            7 
 2075000   0.92268042   -7.2061488    665.26648  0.026717529  0.026675667           10 
 2076000   0.93059167   -7.2453912    663.49565  0.026633576   0.02666866            2 
 2077000   0.92583376   -7.2296869    665.80925  0.026713579  0.026661703            8 
 2078000   0.95116267   -7.2611356    666.10981  0.026712777  0.026654778            4 
 2079000   0.89242037   -7.2548522    665.51019  0.026675894  0.026647855            5 
 2080000   0.90807071   -7.2210963    664.53724  0.026624088  0.026640977            2 
 2081000   0.91170529   -7.2184544    665.79297   0.02666158   0.02663405            2 
 2082000   0.93505963   -7.2700561    665.01507  0.026617638  0.026627182            4 
 2083000   0.92789701   -7.2297667    665.33726  0.026617749  0.026620234            1 
 2084000   0.90340127   -7.2119149    667.03982  0.026673057  0.026613345            2 
 2085000   0.92320505   -7.2544191    665.12451  0.026583714  0.026606384            2 
 2086000   0.90931734   -7.2475374    666.49913  0.026625884  0.026599467            2 
 2087000   0.91460932   -7.2381695    666.66264  0.026619655  0.026592595            4 
 2088000   0.91937146   -7.2787174    667.37745  0.026635435  0.026585519            2 
 2089000    0.9231837    -7.218184    667.66891  0.026634311   0.02657859            4 
 2090000    0.9277299   -7.2330014    667.52988  0.026616024  0.026571735            3 
 2091000    0.9110222   -7.2288421    667.97411  0.026620999  0.026564908            2 
 2092000   0.90501958   -7.2346713    667.42572  0.026586429  0.026558088            4 
 2093000   0.93330435   -7.2109111    669.46669  0.026654988  0.026551266            4 
 2094000   0.92855752   -7.2160258    669.46454  0.026642174  0.026544489            2 
 2095000   0.90600772   -7.2139287    668.70856  0.026599386  0.026537727            5 
 2096000   0.91211522   -7.2154877    669.63768  0.026623636  0.026530972            2 
 2097000   0.90424814   -7.2191367    668.59081  0.026569338  0.026524093            4 
 2098000   0.92085931   -7.2294594    668.04449  0.026534973  0.026517224            4 
 2099000   0.93579109   -7.2605008    667.73858  0.026510187  0.026510343            2 
 2100000   0.93259891   -7.2696294    668.45276  0.026525903  0.026503468            3 
 2101000   0.91610018   -7.2906655    668.40618   0.02651143  0.026496548            3 
 2102000   0.89825223   -7.2296853    669.47599   0.02654123  0.026489607            3 
 2103000   0.89571678    -7.257424    669.42409  0.026526553    0.0264827            7 
 2104000   0.88938012   -7.2424389    668.64809   0.02648321   0.02647575            1 
 2105000   0.91578279    -7.241066    669.61731  0.026508999  0.026468857            3 
 2106000   0.91653376   -7.2294677     670.3594  0.026525776  0.026461934            2 
 2107000   0.94123314   -7.2547425    669.16557  0.026465969  0.026455077            3 
 2108000   0.88763093   -7.2566846    669.39864  0.026462628  0.026448202            2 
 2109000   0.93403634   -7.2493694    670.16119  0.026480211  0.026441338            2 
 2110000   0.93675086   -7.2469427    668.28919  0.026393728   0.02643449            6 
 2111000   0.90863327   -7.2557336    669.86309  0.026443356  0.026427548            3 
 2112000   0.90095385   -7.3042059    668.25439  0.026367361  0.026420517            2 
 2113000   0.89888099   -7.2603743    670.40978  0.026439887  0.026413549            3 
 2114000   0.90169053    -7.266383    670.48753  0.026430445  0.026406609            5 
 2115000   0.90132369   -7.2417916    670.86837  0.026432954  0.026399714            2 
 2116000   0.89312338   -7.2722396    671.78888  0.026456714    0.0263928            3 
 2117000   0.91671046   -7.2351027    672.47264  0.026471132  0.026385956            4 
 2118000   0.91917252   -7.2564806    670.14321  0.026366982  0.026379141            5 
 2119000   0.90898171   -7.2419635    674.79498  0.026537477  0.026372367            2 
 2120000   0.89608925   -7.2362922      674.403  0.026509552  0.026365608            4 
 2121000   0.91738165   -7.2593339    672.18397  0.026409868  0.026358873            2 
 2122000   0.92252477   -7.2480075    672.61047  0.026414172  0.026352002            5 
 2123000   0.90403281   -7.2675856    670.27775  0.026310165  0.026345147            4 
 2124000   0.92930021   -7.2156013     672.5626  0.026387422  0.026338299            2 
 2125000    0.9000288   -7.2192498    672.46167  0.026371046  0.026331437            5 
 2126000   0.89613694   -7.2470039     673.6105  0.026403673  0.026324561            7 
 2127000   0.87730649   -7.2201896    672.00721  0.026328444  0.026317614            2 
 2128000   0.93470817   -7.2494928    673.10982  0.026359251  0.026310681            3 
 2129000   0.90406371   -7.2736607    671.42164  0.026280791  0.026303776            3 
 2130000   0.90410833   -7.2687753    671.94882  0.026289078  0.026296832            9 
 2131000   0.92227242   -7.2327427    672.63801  0.026303692    0.0262899            4 
 2132000   0.88929831   -7.2778766    672.04758  0.026268276  0.026282966            2 
 2133000   0.92203511   -7.2742005    673.50501  0.026312901  0.026276059            4 
 2134000    0.8962278    -7.227876    672.20241  0.026249704  0.026269131            2 
 2135000   0.89828832   -7.2756115    674.81637  0.026339437  0.026262246            3 
 2136000   0.90475474   -7.2542972    673.76768  0.026286192  0.026255365            2 
 2137000   0.90349269   -7.2576138    672.58735  0.026227864  0.026248381            1 
 2138000   0.89095775   -7.2851846     673.6988  0.026258918  0.026241429            2 
 2139000   0.93121033   -7.2964212    673.43648  0.026236422  0.026234555            4 
 2140000   0.91356575   -7.2563253    674.84312  0.026278938  0.026227654            2 
 2141000    0.8993239   -7.2756054    674.53289  0.026254589  0.026220815            4 
 2142000   0.89808639   -7.2561777    676.53662  0.026320285  0.026214009            7 
 2143000   0.91711782     -7.21765    675.72149  0.026276306  0.026207236            3 
 2144000   0.89506226   -7.2542138    674.30052   0.02620882  0.026200372            3 
 2145000    0.9079929   -7.2751485    674.62321  0.026209138  0.026193456            4 
 2146000   0.91373663   -7.2606731    676.45037  0.026267877  0.026186653            3 
 2147000   0.89143719   -7.3009348    675.15818  0.026205488  0.026179816            5 
 2148000   0.93374401   -7.2993297    676.65407  0.026251322  0.026172936            3 
 2149000   0.91466007   -7.2225037    678.16702  0.026297775   0.02616612            8 
 2150000   0.90162767   -7.2545378    677.60815  0.026263882  0.026159343            3 
 2151000   0.91511861   -7.2235557    677.06185  0.026230507  0.026152553            1 
 2152000    0.8823862   -7.2266624    677.65196  0.026241169  0.026145848            2 
 2153000   0.90610889   -7.2459623    677.52765   0.02622417  0.026139133            1 
 2154000   0.91389843    -7.268488    676.98332  0.026190936  0.026132332            2 
 2155000   0.91158629   -7.2564219    676.80212  0.026171776  0.026125563            3 
 2156000   0.90594139    -7.238919    678.03123  0.026207144  0.026118842            3 
 2157000     0.904927   -7.2119271    677.99224  0.026193488  0.026112108            8 
 2158000   0.90893025   -7.2650592    678.18806  0.026188912  0.026105435            4 
 2159000   0.90065167   -7.2717985    678.56415  0.026191298  0.026098725            5 
 2160000   0.91241721    -7.262469    677.38799  0.026133796  0.026092017            3 
 2161000   0.90991221   -7.3069931    677.73694  0.026135159  0.026085248            2 
 2162000   0.89295108   -7.3033579     677.6473  0.026119615  0.026078396            4 
 2163000   0.91009513   -7.2816089    678.08974  0.026124585  0.026071573            2 
 2164000   0.89264174    -7.290303    679.56784  0.026169433  0.026064764            3 
 2165000   0.91177098   -7.2599501    680.17584  0.026180748  0.026058022            2 
 2166000   0.89645278   -7.2676733    679.58447  0.026145909  0.026051383            4 
 2167000   0.90063215   -7.2469387    679.91081  0.026146393  0.026044679            2 
 2168000   0.89462171    -7.240661    679.53813  0.026120008  0.026038036            4 
 2169000   0.90718898   -7.2840572     680.1766  0.026132496   0.02603132            3 
 2170000   0.89711776   -7.2717364    678.70844  0.026064072  0.026024563            3 
 2171000   0.91060976   -7.2643148    681.24843  0.026149564  0.026017831            2 
 2172000    0.9118209   -7.2576369    681.19543  0.026135491  0.026011149            3 
 2173000   0.90438632   -7.2448393    681.93914  0.026151984  0.026004473            2 
 2174000   0.89468978   -7.2445089    682.17509  0.026148999  0.025997839            4 
 2175000   0.90509535   -7.2553104    682.22307  0.026138815  0.025991205            3 
 2176000   0.91847415   -7.2531618    681.48516  0.026098543  0.025984638            3 
 2177000   0.89042915   -7.2533927    682.18654  0.026113403  0.025977963            2 
 2178000   0.90037567   -7.2642213    683.46463  0.026150315  0.025971333            2 
 2179000   0.89102178   -7.2506092    683.44718  0.026137647  0.025964671            5 
 2180000   0.92130078   -7.2476352     683.0532  0.026110596  0.025958051            4 
 2181000    0.9033763   -7.2671002    682.94987  0.026094676  0.025951354            3 
 2182000   0.90462351   -7.3113262    682.29497  0.026057706  0.025944668            3 
 2183000   0.89932651   -7.2421339    682.51389  0.026054126  0.025937924            3 
 2184000   0.91968536   -7.2735886    682.99573  0.026060582  0.025931224            2 
 2185000   0.89958903   -7.2728345    682.47221  0.026028688  0.025924541            5 
 2186000   0.87719183   -7.3076192    681.39192  0.025975599  0.025917818            4 
 2187000   0.89060833    -7.248234     683.8022  0.026055563   0.02591114            3 
 2188000   0.89681724   -7.3060237    684.36262  0.026064999   0.02590445            2 
 2189000   0.87896337   -7.2632378    682.87464  0.025996446  0.025897806            2 
 2190000   0.89235783   -7.2540719    682.48997  0.025969938  0.025891094            3 
 2191000   0.88634707   -7.2460509    683.26315  0.025987492  0.025884385            2 
 2192000   0.90708932   -7.2689174    682.87022  0.025960699  0.025877696            2 
 2193000   0.87819086    -7.262626    685.12359  0.026034488  0.025871068            4 
 2194000   0.90313578   -7.3082032    684.75724  0.026008707  0.025864395            3 
 2195000   0.89505924    -7.305862    683.55356   0.02595116  0.025857751            6 
 2196000   0.90011354   -7.2980574    684.84102  0.025988199  0.025851065            3 
 2197000    0.9053004   -7.2958125    684.72044  0.025971796  0.025844421            3 
 2198000   0.88529407   -7.3103524    684.63712  0.025956821  0.025837754            4 
 2199000   0.89669785   -7.3003763    684.04185  0.025922459  0.025831035            4 
 2200000   0.89119169   -7.2608888    687.38469  0.026037299  0.025824412            3 
 2201000   0.87595104   -7.2487634    687.56366  0.026032245  0.025817773            5 
 2202000   0.90641195   -7.2675686    685.29408  0.025934532  0.025811179            7 
 2203000   0.91016916    -7.292834    685.24806  0.025921019  0.025804535            5 
 2204000   0.88682191   -7.2947003    686.31652  0.025949657  0.025797826            4 
 2205000    0.9037373   -7.2567406    686.69194  0.025952076  0.025791207            3 
 2206000   0.87792054   -7.2559844    686.59064  0.025936486  0.025784576            1 
 2207000   0.91235863   -7.2851692    685.89802  0.025898581  0.025777889            1 
 2208000   0.89284114   -7.2784657    685.66219  0.025877951  0.025771211            4 
 2209000    0.9010191   -7.2956628      685.622   0.02586472  0.025764549            3 
 2210000   0.90910131   -7.2749561    686.38277  0.025881703  0.025757886            2 
 2211000   0.88208527   -7.2825987    686.64156  0.025879751  0.025751208            3 
 2212000   0.89705951   -7.2829583    686.43191  0.025860153  0.025744562            3 
 2213000   0.88685663    -7.299196    686.43107  0.025848436  0.025737885            2 
 2214000   0.89650718   -7.3058656     686.5441  0.025841015  0.025731232            7 
 2215000   0.89346107    -7.288312    687.43907   0.02586302  0.025724597            4 
 2216000   0.89065691   -7.2778441    687.26243  0.025844706  0.025717945            4 
 2217000   0.90653048   -7.3100765    686.76264  0.025814263  0.025711253            4 
 2218000   0.91223087   -7.2693437     687.3037  0.025822952  0.025704573            2 
 2219000   0.89961212   -7.2838239    687.35031  0.025813065  0.025697897            3 
 2220000    0.8997913   -7.2580345    687.61795  0.025811485  0.025691229            3 
 2221000   0.90290015   -7.3084788     687.8332  0.025807939  0.025684547            6 
 2222000     0.900105   -7.2832202    686.89599  0.025761176  0.025677811            5 
 2223000   0.87675593    -7.283062    688.62405  0.025814367  0.025671153            1 
 2224000   0.92065072   -7.2878136    688.23802  0.025788295  0.025664585            2 
 2225000   0.90417086   -7.2897825    688.72596   0.02579498  0.025657989            4 
 2226000   0.88838374    -7.267067    687.47662  0.025736621  0.025651415            5 
 2227000   0.90218801   -7.3058477     689.0819  0.025785133  0.025644881            2 
 2228000   0.89041088   -7.2944688    688.17286   0.02573956  0.025638308            3 
 2229000   0.89689682   -7.2916997    689.13968  0.025764157  0.025631752            3 
 2230000   0.87831272   -7.3085034    689.04635  0.025749116  0.025625158            3 
 2231000   0.90555689   -7.3105781     690.7179  0.025800011  0.025618596            3 
 2232000   0.89501611   -7.2719049    691.93466  0.025833881  0.025612119            4 
 2233000   0.89350484   -7.2848369    691.45166  0.025804286  0.025605654            5 
 2234000   0.88531535     -7.28568    693.31453  0.025862225  0.025599168            3 
 2235000   0.88466593   -7.2729828    691.36551  0.025777983  0.025592741            6 
 2236000   0.89491365   -7.2771049    691.09975   0.02575655  0.025586289            3 
 2237000   0.89642226   -7.2632575    691.62937  0.025764766  0.025579851            2 
 2238000   0.87022872   -7.2571942    692.33161  0.025779402  0.025573441            2 
 2239000   0.89951195   -7.2784059    692.78743  0.025784853  0.025567035            3 
 2240000   0.86880327   -7.2830457    691.41386  0.025722242  0.025560563            9 
 2241000   0.90880048   -7.2862404    692.99797   0.02576967  0.025554102            4 
 2242000   0.89233838   -7.2909482    692.29861  0.025732182  0.025547657            6 
 2243000   0.90002963   -7.3008544     690.9968  0.025672343  0.025541227            4 
 2244000   0.91411166    -7.265449    693.52595  0.025754826  0.025534767            6 
 2245000   0.88589834   -7.2887353    693.57712  0.025745253  0.025528336            5 
 2246000     0.879615   -7.2759561    693.11585  0.025716676  0.025521894            2 
 2247000   0.88936544   -7.3071055    692.68336  0.025689192  0.025515474            1 
 2248000   0.90845952   -7.3035955    693.97556  0.025725666  0.025509015            4 
 2249000   0.88030772   -7.2927871    692.36845  0.025654678  0.025502569            3 
 2250000   0.90767842   -7.3363252    691.39536  0.025607236  0.025496074            2 
 2251000   0.89389832   -7.2764307    694.33419  0.025704657  0.025489594            2 
 2252000   0.91645765    -7.320374    692.16403  0.025612938  0.025483104            4 
 2253000   0.87964055   -7.2918998     693.3539   0.02564558  0.025476582            2 
 2254000   0.88964866   -7.2976434    696.29646  0.025742993  0.025470153            5 
 2255000   0.90147659   -7.3167763    693.46313  0.025626871  0.025463741            3 
 2256000   0.88962349    -7.269881     694.0579  0.025637482  0.025457296            7 
 2257000   0.88732388   -7.2772814    695.44947  0.025677502  0.025450874            5 
 2258000   0.88440163   -7.3095768    695.49072  0.025667653  0.025444421            2 
 2259000   0.88237655   -7.3210014    694.17622  0.025607799  0.025437976            2 
 2260000   0.87829519    -7.307328    695.26478  0.025636607  0.025431475            2 
 2261000    0.9225114   -7.3239168    694.41082  0.025593794  0.025424996            2 
 2262000   0.88282896   -7.3165636    695.11323  0.025608357   0.02541848            5 
 2263000   0.88343842   -7.2899132    695.90817  0.025626314  0.025411996            3 
 2264000   0.88440915   -7.3035124    694.81019   0.02557458  0.025405497            1 
 2265000   0.88762755   -7.3064048    694.76602  0.025561664   0.02539898            3 
 2266000   0.87860937   -7.3109479    693.86025  0.025517073  0.025392473            1 
 2267000   0.89265168   -7.3003246     695.3144  0.025559271  0.025385933            3 
 2268000   0.88199655   -7.3161558    695.81349  0.025566339  0.025379374            1 
 2269000   0.86623272   -7.3077591    695.12091  0.025529635  0.025372773            3 
 2270000   0.88322242   -7.3280913     695.1213  0.025518403  0.025366208            5 
 2271000    0.8836092   -7.2978153    696.90528  0.025572629   0.02535974            3 
 2272000   0.89052644   -7.2922665    696.16499  0.025534221  0.025353274            5 
 2273000   0.88435278   -7.3416813    694.35417  0.025456598   0.02534674            6 
 2274000   0.88851899   -7.3189265    695.30523  0.025480256  0.025340152            4 
 2275000   0.89488388   -7.3367936    694.10235  0.025424994  0.025333518            2 
 2276000   0.90002976   -7.3227508    696.75275  0.025510865  0.025326864            5 
 2277000   0.89581947   -7.3158563    696.56047  0.025492624  0.025320259            9 
 2278000   0.90239082   -7.2710931    696.82096  0.025490963  0.025313678            6 
 2279000   0.91144694   -7.2775076    696.91837   0.02548334  0.025307134            4 
 2280000   0.89815223   -7.2954619    694.57055   0.02538635  0.025300577            2 
 2281000   0.86606617    -7.299608    695.85507  0.025422149  0.025293967            1 
 2282000   0.87600456   -7.3267849    695.47777  0.025397231  0.025287294            3 
 2283000   0.86338744   -7.3282372    696.11463  0.025409353  0.025280693            4 
 2284000   0.87554321    -7.321185    695.94768  0.025392136  0.025274092            3 
 2285000   0.90336409   -7.3067876    697.48095  0.025436942  0.025267496            4 
 2286000   0.89318235   -7.2966682      696.274  0.025381817  0.025260892            3 
 2287000   0.89881344   -7.3067368    697.39305  0.025411494  0.025254255            2 
 2288000   0.87482895     -7.29667    696.81757  0.025379428  0.025247629            2 
 2289000   0.87707789   -7.3195943    697.34792  0.025387648  0.025241032            2 
 2290000   0.87719503   -7.2619914    697.89799  0.025396579  0.025234429            2 
 2291000   0.90162136   -7.3300239    695.87122  0.025311771  0.025227802            3 
 2292000   0.88379459   -7.3114607    696.35144  0.025318188   0.02522118            2 
 2293000   0.88987156   -7.3005613     697.3641  0.025343949   0.02521449            2 
 2294000   0.86573688   -7.3063416     697.6484  0.025343229  0.025207831            3 
 2295000   0.91015875   -7.3172879     697.0764  0.025311416  0.025201167            5 
 2296000   0.89380569   -7.3338786    697.49531  0.025315596  0.025194489            3 
 2297000    0.8880954   -7.3163143    696.74266   0.02527727  0.025187802            8 
 2298000   0.89208217   -7.3197671    696.51189  0.025257901  0.025181114            7 
 2299000   0.90166089    -7.309153    699.37052  0.025350534  0.025174413            6 
 2300000   0.87769269   -7.3078412    696.92121  0.025250768  0.025167684            3 
 2301000   0.88831905   -7.3006932    697.16937  0.025248782  0.025160903            3 
 2302000   0.87619964   -7.3143401    698.00208  0.025267958  0.025154107            3 
 2303000   0.87906027   -7.2931622    697.44277  0.025236748  0.025147352            4 
 2304000   0.86838463   -7.2838549    697.36569  0.025223007  0.025140634            2 
 2305000   0.87388476   -7.2950187    697.70564  0.025224354  0.025133842            3 
 2306000   0.89995453    -7.336552    696.88971   0.02518393  0.025127055            3 
 2307000    0.8756497   -7.2858381    696.03526  0.025142149  0.025120245            3 
 2308000    0.8749561   -7.3426182     698.6892   0.02522708  0.025113443            6 
 2309000   0.87581008   -7.3187042    697.51576  0.025173804  0.025106678            3 
 2310000   0.86955983   -7.3377685    697.48579  0.025161825  0.025099875            6 
 2311000   0.88213371   -7.2806143    700.24754  0.025250524  0.025093183            3 
 2312000   0.88418451    -7.331111    697.39958  0.025136951  0.025086456            4 
 2313000   0.85661251   -7.3369738    698.52872  0.025166765    0.0250797            5 
 2314000   0.88178823   -7.3038228    699.46341   0.02518955  0.025072974            4 
 2315000   0.88456807   -7.3026312    699.01028  0.025162357  0.025066208            9 
 2316000    0.8943636   -7.3412912    699.02012  0.025151846  0.025059425            6 
 2317000   0.88566923   -7.3132473    697.11341  0.025072414  0.025052653            3 
 2318000   0.88530434    -7.317863    699.37425  0.025142877  0.025045892            2 
 2319000   0.89921835   -7.3117283    698.38045  0.025096322   0.02503911            3 
 2320000   0.86266703   -7.3120658    698.74783  0.025098701  0.025032322            2 
 2321000    0.8882716   -7.3313298    699.27724  0.025106895  0.025025533            3 
 2322000   0.89153296   -7.3276464    699.32302  0.025097725  0.025018753            4 
 2323000   0.86998381   -7.3389822    696.16608  0.024973672  0.025011883            3 
 2324000   0.87171331   -7.3381715    699.37324  0.025077927  0.025005044            4 
 2325000   0.88809105   -7.3397797    698.39456  0.025032063   0.02499822            5 
 2326000   0.86842573   -7.3166042    699.11316  0.025047046  0.024991381            4 
 2327000   0.89537856   -7.3259473     697.5267  0.024979469  0.024984552            3 
 2328000   0.86635441   -7.3154826    697.85472  0.024980481  0.024977704            4 
 2329000   0.88024824   -7.2879631    699.62169  0.025032979   0.02497085            4 
 2330000   0.87959701   -7.3327456    698.80217  0.024992924  0.024963993            2 
 2331000   0.86855912   -7.3510805    698.44505  0.024969436  0.024957076            3 
 2332000   0.88459022   -7.2895413    698.95403  0.024976916   0.02495018            4 
 2333000   0.89950994     -7.28591    699.19471  0.024974807  0.024943307            7 
 2334000   0.88001199   -7.2983372     700.8183  0.025022076  0.024936498            5 
 2335000   0.88932198   -7.2895697    701.07232  0.025020425  0.024929705            3 
 2336000   0.87811131   -7.2972321    699.09091  0.024939031  0.024922924            2 
 2337000   0.88338691   -7.3457044    699.87023  0.024956148  0.024916151            5 
 2338000    0.8822328   -7.3272327    700.53005  0.024968992  0.024909331            5 
 2339000   0.87253594   -7.3220331    703.01307  0.025046782  0.024902441            4 
 2340000   0.87571325   -7.3549542    699.03274  0.024894328  0.024895559            3 
 2341000    0.8829539    -7.328838    699.81662  0.024911598   0.02488865            5 
 2342000   0.89818397   -7.3438582    699.34942  0.024884338  0.024881738            3 
 2343000   0.88073054   -7.3543019    698.78809  0.024853752   0.02487482            8 
 2344000   0.89843718   -7.3504263    699.60165  0.024872072  0.024867921            4 
 2345000   0.86280778   -7.3195153    699.80232  0.024868597  0.024861089            4 
 2346000   0.87249322   -7.3394828    701.26628  0.024909999  0.024854244            1 
 2347000   0.87405164   -7.3437178    699.34584  0.024831197  0.024847393            3 
 2348000   0.88471113    -7.309618    701.98408  0.024914256  0.024840611            4 
 2349000   0.88718601   -7.3513402    702.71078   0.02492943  0.024833812            5 
 2350000   0.88722581    -7.313956    702.04403  0.024895178  0.024826981            2 
 2351000   0.86645493    -7.340648    700.94355  0.024845582  0.024820119            2 
 2352000    0.8702549   -7.3448194    701.67913   0.02486108  0.024813265            2 
 2353000   0.88461869   -7.3449705     701.1729  0.024832586  0.024806408            3 
 2354000   0.89425222    -7.353373    699.89713  0.024776874  0.024799589            5 
 2355000    0.8683992   -7.3045626    703.10594  0.024879899  0.024792732            5 
 2356000   0.89219783   -7.3342864    701.00965  0.024795191  0.024785848            3 
 2357000   0.88549534   -7.3548443    701.48002  0.024801302  0.024778926            3 
 2358000   0.87938483   -7.3095015      703.125  0.024848919  0.024772075            5 
 2359000   0.86561606   -7.3459047    703.03629  0.024835251   0.02476518            2 
 2360000   0.85931821     -7.32537     701.3747  0.024766056  0.024758344            2 
 2361000   0.88974069   -7.3372902    701.25633  0.024751388  0.024751452            4 
 2362000   0.86558393   -7.3278461    703.12162  0.024806718   0.02474458            4 
 2363000    0.8741561   -7.3409981    702.49401  0.024774087  0.024737758            3 
 2364000   0.86791647   -7.3013975    703.38367  0.024794969   0.02473091            3 
 2365000   0.87793009   -7.3424338    702.99275   0.02477071  0.024724085            3 
 2366000   0.87221283   -7.3415554    705.49963  0.024848536  0.024717211            2 
 2367000   0.88800415   -7.3271923    702.69534  0.024739309  0.024710389            4 
 2368000   0.85457045    -7.338643    703.13602   0.02474437  0.024703526            3 
 2369000   0.88281385   -7.3541469    703.72319   0.02475458  0.024696666            3 
 2370000   0.87209628   -7.3080624    703.22332  0.024726558  0.024689746            3 
 2371000   0.87895174   -7.2956197    703.27569   0.02471797  0.024682858            6 
 2372000   0.88055242   -7.2758613     704.9973  0.024768033  0.024676007            2 
 2373000   0.88367668   -7.3457994    703.18118  0.024693819  0.024669113            4 
 2374000   0.86751461   -7.3288062    703.72064  0.024702353  0.024662145            2 
 2375000   0.85696912   -7.3445973    702.89448  0.024662964  0.024655216            5 
 2376000   0.87689035   -7.3430106    702.27793   0.02463096  0.024648254            2 
 2377000   0.86316063   -7.3572618    701.25033  0.024584572  0.024641235            3 
 2378000   0.85502706   -7.3706173    701.78268  0.024592889    0.0246342            2 
 2379000   0.85560052   -7.3534942    701.25181  0.024563956  0.024627157            4 
 2380000    0.8796919   -7.3402138    702.49109  0.024597027  0.024620155            2 
 2381000   0.87057038   -7.3222805    702.57845  0.024589754   0.02461319            6 
 2382000   0.87418441   -7.3410853    703.99125  0.024628857  0.024606304            2 
 2383000   0.86823184   -7.3506383    703.39353   0.02459762   0.02459936            2 
 2384000   0.86765811   -7.3201694    704.42731  0.024623438  0.024592473            7 
 2385000   0.88335924   -7.3452392     703.1873  0.024569787  0.024585537            7 
 2386000   0.86893349   -7.3175772    704.67885  0.024611583  0.024578664            4 
 2387000   0.86867116    -7.357777     703.9635  0.024576299  0.024571761            3 
 2388000   0.86313334   -7.3545692    702.75792  0.024523936  0.024564818            2 
 2389000   0.86344566   -7.3454526    704.43699  0.024572241  0.024557872            7 
 2390000   0.88358548    -7.330908    705.85112  0.024611267  0.024550971            6 
 2391000   0.88396771   -7.3678076    704.77179  0.024563355  0.024544016            8 
 2392000   0.85998882   -7.3560224    705.19759   0.02456792  0.024537098            3 
 2393000   0.87688203   -7.3606546     705.8436  0.024580151  0.024530162            2 
 2394000   0.85679569   -7.3841711    706.93454  0.024607858  0.024523216            4 
 2395000   0.89030549   -7.3225692    705.91443  0.024562089  0.024516302            2 
 2396000   0.87562007   -7.3734729    705.72099  0.024545109  0.024509428            3 
 2397000   0.87501455   -7.3335552    705.91486   0.02454161  0.024502535            2 
 2398000    0.8861674   -7.2817146    708.20255  0.024610876  0.024495688            4 
 2399000   0.87399984   -7.3181491    706.16627  0.024529883  0.024488865            1 
 2400000   0.86558755   -7.3433384    705.92824  0.024511397  0.024481949            6 
 2401000   0.88064224   -7.3225579    704.26144  0.024443338   0.02447501            2 
 2402000   0.85910187   -7.3478999    705.86864   0.02448892  0.024468116            7 
 2403000   0.89211775   -7.3774701     704.8412  0.024443099  0.024461218            3 
 2404000   0.87481221   -7.3201811    707.13251  0.024512358   0.02445425            2 
 2405000   0.86215133   -7.3368044    705.77612  0.024455167  0.024447329            4 
 2406000   0.87806882   -7.3216479    704.61998  0.024404959   0.02444042            3 
 2407000   0.85212204   -7.3367719     704.4944  0.024390472  0.024433539            4 
 2408000   0.88518808   -7.3602215    706.74761   0.02445832  0.024426617            3 
 2409000   0.86554213    -7.364605    704.50437  0.024370568  0.024419623            5 
 2410000   0.85200806   -7.3450514    705.80148  0.024405307   0.02441262            6 
 2411000   0.86923752   -7.3475246    706.75263   0.02442806  0.024405702            3 
 2412000    0.8769428   -7.3640172      706.601  0.024412693   0.02439876            4 
 2413000    0.8761927   -7.3735849    707.79343  0.024443757  0.024391792            4 
 2414000   0.86658303   -7.3094571    708.07879  0.024443482   0.02438487            4 
 2415000   0.86768804   -7.3538469    707.03425  0.024397317  0.024377987            2 
 2416000   0.86314183   -7.3669873    707.35853  0.024398404  0.024371025            5 
 2417000   0.88528394   -7.3438622     706.0278  0.024342429  0.024364063            1 
 2418000   0.86788505   -7.3429195    709.15571  0.024440161  0.024357116            3 
 2419000   0.88031777    -7.318548    706.74451  0.024346993  0.024350189            4 
 2420000   0.87050202   -7.3282815    706.01923  0.024311957  0.024343264            2 
 2421000   0.86715911   -7.3362306    705.96018  0.024299882  0.024336335            4 
 2422000   0.88528714   -7.3508953    707.52818  0.024343799  0.024329366            2 
 2423000   0.86191548   -7.3587613    706.99132  0.024315288  0.024322375            2 
 2424000    0.8734292   -7.3460539    706.69921  0.024295215  0.024315367            3 
 2425000   0.85451806   -7.3703336    707.51949  0.024313385  0.024308358            6 
 2426000   0.85791753   -7.3566086    706.89086  0.024281769  0.024301336            2 
 2427000   0.87928744   -7.3717252    705.86796  0.024236642  0.024294256            5 
 2428000   0.86028746   -7.3589619    706.53688  0.024249618  0.024287204            5 
 2429000    0.8594302   -7.3686709    706.20066    0.0242281  0.024280183            4 
 2430000   0.85980251   -7.3689123    707.03629  0.024246786  0.024273115            3 
 2431000   0.86283403    -7.367891    706.40502  0.024215173  0.024266067            4 
 2432000   0.85760348   -7.3473474    706.87328  0.024221261  0.024259026            4 
 2433000   0.85405895   -7.3770551    708.26975  0.024259137  0.024251978            4 
 2434000   0.87206237   -7.3697342    707.37751  0.024218622  0.024244934            6 
 2435000   0.86184747   -7.3790524    707.04571  0.024197321  0.024237889            3 
 2436000   0.86941664   -7.3527956    707.30582  0.024196286  0.024230888            6 
 2437000   0.87428458   -7.3506393    708.00066  0.024210117  0.024223907            3 
 2438000   0.85431435   -7.3664906    709.41113  0.024248398  0.024216908            2 
 2439000   0.84716059   -7.3712945    706.18246  0.024128142  0.024209913           10 
 2440000    0.8594478   -7.3275003    708.08539  0.024183244  0.024202932            4 
 2441000   0.86448143   -7.3772741    708.83262  0.024198847  0.024195971            5 
 2442000   0.85451481   -7.3557582    709.32849  0.024205859  0.024189001            2 
 2443000   0.84862148   -7.3848291    708.47408  0.024166806  0.024181999            3 
 2444000   0.87520049   -7.3603196    707.58203  0.024126501  0.024174993            3 
 2445000   0.86398455    -7.382095    710.56933   0.02421845  0.024167984            3 
 2446000   0.85825209   -7.3498239    708.83211  0.024149363  0.024161041            2 
 2447000   0.85936175   -7.3436316    707.96924  0.024110109   0.02415409            4 
 2448000   0.84838975   -7.3420107     709.8067   0.02416281  0.024147126            4 
 2449000   0.87277902    -7.368796    708.83912  0.024120019  0.024140172            5 
 2450000   0.86668686   -7.3734372    709.51269  0.024133085  0.024133212            5 
 2451000   0.85377621   -7.3508727    711.18907  0.024180235  0.024126252            5 
 2452000   0.84561807   -7.3363423    710.41076  0.024143922  0.024119313            4 
 2453000   0.84476362   -7.3584746    710.34729  0.024131923  0.024112413            3 
 2454000   0.87221858   -7.3714576    710.44649  0.024125458  0.024105495            4 
 2455000   0.85960181   -7.3689774    711.37171  0.024147037  0.024098593            5 
 2456000   0.85636425   -7.3485225    711.09745  0.024127899  0.024091657            2 
 2457000   0.84328716   -7.3667448    710.96605  0.024113623  0.024084733            6 
 2458000    0.8541347   -7.3726737    711.33558  0.024116341  0.024077787            3 
 2459000   0.85138977    -7.383272    709.33608  0.024038772  0.024070793            4 
 2460000    0.8603126   -7.3673649    711.39432  0.024098724   0.02406382            2 
 2461000   0.85935688    -7.386928    709.48731  0.024024357  0.024056883            5 
 2462000   0.85604243   -7.3695264    710.18356  0.024038165  0.024049894            3 
 2463000   0.87463422   -7.3506309    711.20809   0.02406307  0.024043004            5 
 2464000   0.85067471   -7.3690455     711.2492  0.024054694  0.024036121            2 
 2465000   0.84416565   -7.3836946    709.34132  0.023980437  0.024029216            2 
 2466000   0.85484542    -7.381946    711.07807  0.024029402  0.024022318            4 
 2467000   0.86137704   -7.3501338    713.16441  0.024090137  0.024015457            6 
 2468000   0.86791835   -7.3507116    713.19103  0.024081275  0.024008604            3 
 2469000   0.86423613   -7.3724214    712.33585  0.024042657  0.024001755            5 
 2470000   0.86050072   -7.3677216    711.90728  0.024018464   0.02399491            4 
 2471000   0.84590454   -7.3493939    711.26713  0.023987155  0.023988052            4 
 2472000   0.84437007   -7.3702446    709.89283  0.023931123   0.02398116            3 
 2473000   0.85062493   -7.3815123    711.48824  0.023975207  0.023974269            2 
 2474000   0.85771045   -7.3490587    712.66944  0.024005303  0.023967345            3 
 2475000    0.8771437   -7.3467537    713.98918   0.02404004  0.023960441            4 
 2476000   0.83664772   -7.3674738    714.16944  0.024036397  0.023953554            4 
 2477000   0.85788362   -7.3908858    713.00631  0.023987563  0.023946675            6 
 2478000   0.85368324   -7.3959854    711.32789  0.023921438  0.023939783            5 
 2479000   0.86870426   -7.4020177    712.53286  0.023952295  0.023932883            5 
 2480000   0.86925242   -7.3590694    713.64939  0.023980154  0.023926035            2 
 2481000   0.85896595   -7.3711836    712.96962  0.023947656  0.023919175            3 
 2482000   0.83253938   -7.3839196    714.31482  0.023983173  0.023912303            3 
 2483000    0.8552426   -7.3775592    714.42839  0.023977325   0.02390541           12 
 2484000   0.86756396     -7.41351    714.09548  0.023956504  0.023898535            8 
 2485000   0.85780046   -7.3832702    713.72628  0.023934483  0.023891671            3 
 2486000   0.84044515   -7.4219066    712.81432  0.023894285  0.023884789            4 
 2487000   0.86299963   -7.3897381    713.70209  0.023914425  0.023877915            3 
 2488000   0.84328598   -7.3839886    714.51069  0.023931896  0.023871048            3 
 2489000   0.82569322   -7.3979281    713.45024  0.023886776  0.023864205            3 
 2490000   0.85405009   -7.3576515    714.49744   0.02391223  0.023857404            2 
 2491000   0.83635204   -7.3951919     712.6263  0.023840034  0.023850575            3 
 2492000   0.85198981   -7.3872868     713.4113  0.023856718   0.02384372            5 
 2493000   0.86414136   -7.3997639    715.25233  0.023908689  0.023836869            4 
 2494000   0.85113119   -7.4118492    713.05253  0.023825599  0.023830017            2 
 2495000   0.84181149   -7.3884439    716.21058  0.023921529  0.023823134            3 
 2496000   0.86897806    -7.363787    715.19762  0.023878126  0.023816313            8 
 2497000   0.85759019   -7.3978723    714.64937  0.023850266  0.023809495            6 
 2498000   0.84574118   -7.3952049    715.42874  0.023866718    0.0238027            4 
 2499000   0.85596604   -7.3977399    717.31541  0.023920082  0.023795886            9 
 2500000   0.84866668   -7.4012671     716.2848   0.02387616   0.02378905            2 
 2501000   0.84018159   -7.3832196    714.37948  0.023803128  0.023782224            4 
 2502000   0.83544489   -7.3607484    718.44167  0.023928912  0.023775456            4 
 2503000   0.84002925   -7.3943266    717.38642   0.02388422  0.023768658            4 
 2504000   0.84797488   -7.3861749    716.00458  0.023828693  0.023761835            4 
 2505000    0.8400221   -7.3584376    716.16016  0.023824357  0.023755023            2 
 2506000   0.86379311   -7.3762879    717.68671  0.023865613  0.023748254            3 
 2507000   0.87376147   -7.4004152    715.79713  0.023793283  0.023741453            4 
 2508000   0.85697948   -7.3953109    717.07659  0.023826309  0.023734671            5 
 2509000   0.85675738   -7.3845104    715.50954  0.023764765  0.023727883            2 
 2510000   0.85568618   -7.3907261    716.36318  0.023783638  0.023721057            2 
 2511000   0.83258986   -7.3786872    715.02634    0.0237298  0.023714243           11 
 2512000   0.86249033   -7.4134905    714.97586  0.023718679  0.023707407            3 
 2513000   0.85910683   -7.3680596    717.80583  0.023803085  0.023700637            3 
 2514000   0.84225631   -7.3716714     717.6656  0.023788968   0.02369388            3 
 2515000   0.84060365   -7.3880225    717.02964  0.023758437  0.023687099            2 
 2516000   0.84575565   -7.4008768    716.07832  0.023717485  0.023680304            4 
 2517000   0.82773162   -7.3783704     718.2236  0.023779089  0.023673531            2 
 2518000   0.86685272   -7.4113335    717.41426   0.02374286  0.023666738            4 
 2519000   0.86031417   -7.3897492    718.48299   0.02376879  0.023660031            3 
 2520000    0.8488109   -7.3922865    719.76306  0.023801688   0.02365326            4 
 2521000   0.81867091   -7.3918582    718.29781  0.023743812  0.023646473            2 
 2522000   0.85227339   -7.3904332    718.35506  0.023736289  0.023639692            5 
 2523000   0.85150943   -7.4057429     717.5939  0.023701741  0.023632944            4 
 2524000   0.84466929   -7.3781191    721.31075  0.023815067  0.023626242            3 
 2525000   0.85914393   -7.4024993    719.16478  0.023734811  0.023619513            1 
 2526000   0.83165379   -7.3689928    719.36329  0.023731964  0.023612726            2 
 2527000    0.8400972   -7.3910317    720.17818  0.023749445  0.023605986            3 
 2528000   0.84828633   -7.3731238    720.29336  0.023743848  0.023599261            4 
 2529000   0.83172388   -7.4040732    718.77977  0.023684584  0.023592562            4 
 2530000   0.85452554   -7.3764936    720.09575  0.023718569  0.023585807            3 
 2531000   0.86739047   -7.3771127    719.46199  0.023688331  0.023579092            6 
 2532000   0.84964478   -7.3788767    718.51821  0.023647914   0.02357232            3 
 2533000   0.84413112   -7.3881786    718.56897  0.023640248  0.023565541            4 
 2534000   0.85181387    -7.395794    718.10025  0.023615504  0.023558757            2 
 2535000   0.82775407   -7.3930588    718.82767  0.023630101  0.023551943            3 
 2536000   0.83497635   -7.3943018     718.0556  0.023595413  0.023545167            4 
 2537000   0.83948848   -7.3855773    719.87689  0.023645937  0.023538441            6 
 2538000   0.85027538   -7.3684983    720.54609  0.023658592  0.023531732            4 
 2539000   0.83355453   -7.3686974     721.2045  0.023670884  0.023525031            1 
 2540000   0.85853744    -7.372247    719.79592  0.023615352  0.023518365            5 
 2541000   0.83184245   -7.3670325    719.46874  0.023595328  0.023511658            4 
 2542000   0.85743312   -7.3873686    719.76761  0.023595844  0.023504975            7 
 2543000   0.85015263   -7.3769969    720.62065  0.023614519  0.023498282            5 
 2544000   0.85192406   -7.3855915    719.59599  0.023571672  0.023491529            7 
 2545000   0.86064368    -7.409152    718.60067  0.023529819  0.023484765            4 
 2546000   0.85505465   -7.4220056    718.45547  0.023515824  0.023477971            3 
 2547000   0.85191905   -7.4109331    719.25117  0.023532626   0.02347122            4 
 2548000   0.85449974   -7.3932007    719.68452  0.023537563   0.02346444            3 
 2549000   0.85881544    -7.426829    720.80027  0.023564805  0.023457689            2 
 2550000   0.83919786   -7.4125155     719.8676  0.023525085  0.023450919            5 
 2551000   0.84818756    -7.426017     720.6545  0.023541569  0.023444152            2 
 2552000   0.85329076    -7.412119    720.73288  0.023534903  0.023437435            2 
 2553000   0.83840539   -7.3456022    722.92732  0.023597314  0.023430774            3 
 2554000   0.85232832   -7.3739439    721.42159  0.023538945  0.023424123            4 
 2555000   0.83543471   -7.4274807    720.47336  0.023498805  0.023417432            5 
 2556000    0.8418183   -7.3883784    722.51648  0.023556223  0.023410775            1 
 2557000   0.82940159   -7.4177723    721.95306  0.023528649  0.023404092            3 
 2558000    0.8361555   -7.4141761     721.6345  0.023509073  0.023397378            4 
 2559000   0.84155715   -7.4039268    720.67706  0.023468707  0.023390663            6 
 2560000    0.8533512   -7.3789651    721.40972  0.023483389  0.023383964            3 
 2561000   0.83919111   -7.3823658    723.22125  0.023533166  0.023377328            4 
 2562000   0.84119354   -7.3800498     722.3285  0.023494942  0.023370657            7 
 2563000   0.83485505   -7.3838782    720.53012  0.023427303   0.02336397            3 
 2564000   0.83748444   -7.4146378    721.43124  0.023447453  0.023357254            4 
 2565000   0.83466331   -7.4025355    721.88999  0.023453216   0.02335054            2 
 2566000    0.8406209   -7.3829422    722.25233  0.023455844  0.023343845            3 
 2567000   0.82967005   -7.4513098     721.1923  0.023412294  0.023337154            6 
 2568000   0.85137079   -7.4135628    723.50685  0.023478286  0.023330438            3 
 2569000   0.84293345    -7.401279    721.56606  0.023406191   0.02332371            3 
 2570000   0.83766423   -7.3767821      722.654   0.02343236  0.023317021            3 
 2571000    0.8431874   -7.4324725    722.76977  0.023426999   0.02331028            3 
 2572000   0.82199793     -7.39279    722.25712   0.02340128   0.02330356            2 
 2573000    0.8477776   -7.4176135    724.07137  0.023450945  0.023296849            5 
 2574000   0.84594366   -7.4352188    721.38224  0.023354774  0.023290143            4 
 2575000   0.84908757    -7.417921    721.33316  0.023344115  0.023283409            2 
 2576000   0.83896852   -7.4164802    722.65356  0.023377768  0.023276666            3 
 2577000   0.83485701   -7.4139485    720.71897  0.023306137   0.02326997            6 
 2578000   0.81685062   -7.4191772    720.59459  0.023293076  0.023263264            8 
 2579000   0.82284075   -7.4360152    721.38578  0.023309609  0.023256501            6 
 2580000   0.85869532   -7.4240145    721.92477  0.023317984  0.023249763            3 
 2581000   0.82837409   -7.4304591    722.74825  0.023335537  0.023243029            4 
 2582000   0.83523859   -7.3798334    724.37151  0.023378889   0.02323628            3 
 2583000   0.84513312   -7.4197884    722.76371  0.023317967  0.023229549            1 
 2584000   0.84615346   -7.3889291    724.07685  0.023351292  0.023222816            9 
 2585000   0.82277961    -7.435409    724.20919  0.023346524  0.023216101            6 
 2586000   0.84075263   -7.4080243    722.76433  0.023290936  0.023209371            3 
 2587000   0.83195183   -7.4323034    723.28111   0.02329858  0.023202587            3 
 2588000   0.83941837   -7.4515198    722.95797  0.023279172  0.023195838            3 
 2589000   0.84111524    -7.445573    723.31286  0.023281604  0.023189049            4 
 2590000   0.83903526   -7.4236488    721.97887  0.023229693  0.023182255            4 
 2591000   0.84292709    -7.411724    726.08268  0.023352717  0.023175543            3 
 2592000   0.82780764   -7.4046533     724.4298  0.023290567  0.023168854            5 
 2593000   0.83852955    -7.430708     725.2663  0.023308468  0.023162173            3 
 2594000   0.81550456   -7.4048202    724.74341  0.023282685  0.023155504            7 
 2595000   0.83086797   -7.4109276     724.7971  0.023275437  0.023148798            2 
 2596000   0.83202833   -7.4159858    723.55179  0.023226496  0.023142085            4 
 2597000   0.83901847   -7.4099211    723.96487  0.023230807  0.023135359            6 
 2598000   0.84378182   -7.4080681    724.35851  0.023234491  0.023128649            2 
 2599000   0.85076313   -7.4136226    724.14227  0.023218618  0.023121985            5 
 2600000   0.84985085   -7.3894015    724.80486  0.023230925  0.023115338            3 
 2601000   0.84020495   -7.3816063    727.18038  0.023298103  0.023108722            2 
 2602000   0.83971253   -7.4233452    725.97163  0.023250436  0.023102105            2 
 2603000   0.83561546   -7.4428101    725.26329  0.023218827  0.023095449            3 
 2604000   0.83195531   -7.4379503    724.23308  0.023176942  0.023088793            2 
 2605000    0.8240844   -7.4212336    727.50769  0.023272799  0.023082187            5 
 2606000    0.8351007    -7.441688    726.95353  0.023246148    0.0230756            6 
 2607000   0.82998405   -7.4356666    727.58452  0.023257401   0.02306901            6 
 2608000   0.83153685   -7.4199483    727.79831  0.023255314  0.023062421            6 
 2609000   0.83836806   -7.4421083     727.2233  0.023228034  0.023055826            2 
 2610000   0.83013131   -7.4062285    727.73675  0.023235528  0.023049269            2 
 2611000    0.8341003   -7.4488322    725.37038  0.023151104  0.023042657            3 
 2612000   0.82084011   -7.4249906     726.9045  0.023191185  0.023036029            3 
 2613000    0.8211404   -7.4404199    727.69853  0.023207633  0.023029416            4 
 2614000   0.84121058   -7.3978158    727.79787  0.023201922  0.023022809            4 
 2615000   0.83350699   -7.4341747    726.45926  0.023150391   0.02301621            3 
 2616000    0.8247487   -7.4454145    724.78176  0.023088104  0.023009599            4 
 2617000   0.81480886   -7.4187924    726.07276  0.023120391  0.023002985            3 
 2618000    0.8224246   -7.4238317    725.78787  0.023102491  0.022996385            5 
 2619000   0.82281311   -7.4699594    727.53208  0.023149169  0.022989789            5 
 2620000   0.83824426    -7.449452    726.94457  0.023121647  0.022983182            7 
 2621000   0.82448151   -7.4219813    727.13623  0.023118919  0.022976621            4 
 2622000   0.84606402   -7.4220119      728.091  0.023140446  0.022970039            5 
 2623000   0.83806142   -7.4644801    727.37087  0.023108746   0.02296344            4 
 2624000   0.81223802   -7.4349776    727.41257  0.023101263  0.022956803            4 
 2625000   0.81384817   -7.4447233    728.23568  0.023118593  0.022950242            5 
 2626000   0.84856371   -7.4571472    729.59883  0.023153047  0.022943687            6 
 2627000   0.83191868   -7.4259421    729.21103  0.023131932  0.022937143            4 
 2628000   0.82418857    -7.422629    727.50749  0.023069111  0.022930637            6 
 2629000   0.82319364   -7.4142964    731.59638  0.023189945  0.022924149            3 
 2630000    0.8323778   -7.4379363    729.65477  0.023119606  0.022917641            6 
 2631000   0.83444482   -7.4670865    728.62994  0.023078359  0.022911107            3 
 2632000   0.81839211   -7.4274717    728.75186   0.02307345  0.022904543            3 
 2633000   0.83391888   -7.4226677    727.91284  0.023038133  0.022897968            3 
 2634000   0.84407577   -7.4527885    726.87002  0.022996394  0.022891421            6 
 2635000   0.83803437   -7.4553599    728.02671  0.023024248  0.022884859            5 
 2636000   0.83505135   -7.4092389    729.72219  0.023069113  0.022878296            3 
 2637000   0.83176349   -7.4247478    730.08651  0.023071878  0.022871758            3 
 2638000   0.82647939   -7.4217288    730.38413  0.023072534  0.022865201            5 
 2639000   0.82945087   -7.4205376    730.65044    0.0230722  0.022858687            5 
 2640000   0.83482343   -7.4286861    730.30111  0.023052434  0.022852153            3 
 2641000   0.82811196   -7.4474514    727.74731  0.022963123  0.022845614            3 
 2642000   0.81981948   -7.4340456    729.36672  0.023005511  0.022839075            2 
 2643000   0.79961338   -7.4703767    730.54436  0.023033938  0.022832507            3 
 2644000   0.81655252   -7.4050828    732.74014  0.023094432  0.022826015            3 
 2645000   0.82853985   -7.4372333    731.38088  0.023042876  0.022819556            3 
 2646000   0.82772727    -7.415135    732.63354  0.023073619  0.022813084            4 
 2647000   0.82084619   -7.4581592    730.94985  0.023011896  0.022806595            4 
 2648000   0.82491693   -7.4482313    731.60345  0.023023774  0.022800161            6 
 2649000   0.83134061   -7.4512506    729.95736  0.022963299   0.02279364            2 
 2650000   0.82800767   -7.4400883    730.34739  0.022966899  0.022787134            4 
 2651000   0.80698601   -7.4357178    731.24384  0.022986415  0.022780615            4 
 2652000   0.83678588   -7.4624432    730.16614  0.022943883  0.022774095            9 
 2653000   0.84218959   -7.4335672    731.17886  0.022967046   0.02276759            4 
 2654000    0.8218619   -7.4482725    730.43094  0.022934908  0.022761109            3 
 2655000   0.81496412   -7.4607064    730.62361  0.022932317  0.022754606            2 
 2656000   0.83439176   -7.4684837    731.85619  0.022962355  0.022748084            9 
 2657000   0.82237254   -7.4677213    731.63077  0.022946643  0.022741605            3 
 2658000   0.83183195   -7.4604515    730.05593  0.022888636  0.022735107            3 
 2659000   0.81116922   -7.4211019    732.55697  0.022958411   0.02272858            3 
 2660000     0.814445   -7.4191982    732.37172  0.022943976  0.022722118            2 
 2661000   0.83054881   -7.4404139    731.19668  0.022898556  0.022715671            2 
 2662000   0.82630469   -7.4618962    731.98581  0.022914657  0.022709136            3 
 2663000   0.82862598   -7.4280273    733.22863  0.022944944  0.022702611            4 
 2664000   0.81812619   -7.4486126    731.38138  0.022878547   0.02269608            8 
 2665000   0.82703276   -7.4648406    731.50189   0.02287373  0.022689507            8 
 2666000   0.82273382   -7.4435971    731.09184  0.022852333  0.022682943            5 
 2667000   0.80927208   -7.4547314    732.81807  0.022897702  0.022676423            3 
 2668000   0.82257275     -7.44193    731.49812  0.022847892  0.022669916            2 
 2669000   0.82401998   -7.4122846    733.24952  0.022894015   0.02266345            4 
 2670000    0.8425178   -7.4418231    732.09311  0.022849348  0.022656981            3 
 2671000    0.8245675   -7.4530026     732.1775  0.022843426  0.022650508            6 
 2672000    0.8227482   -7.4318618    732.14636  0.022833906  0.022644054            3 
 2673000   0.82848192   -7.4359221     733.0844  0.022854608  0.022637578            3 
 2674000    0.8297749   -7.4288547     732.8296   0.02283812  0.022631134            4 
 2675000   0.83712845   -7.4583096    733.46382   0.02284934  0.022624637            2 
 2676000   0.82098766   -7.4717315    731.98926  0.022794882  0.022618156            2 
 2677000   0.84285219   -7.4825748    732.95345  0.022816382  0.022611649            6 
 2678000   0.80824897   -7.4518985    732.41786  0.022791196  0.022605167            3 
 2679000   0.82957688   -7.4423339    734.60089  0.022850594   0.02259868            3 
 2680000    0.8168192   -7.4476819    732.32684  0.022771357  0.022592208            3 
 2681000   0.83145178   -7.4339284    733.32134  0.022793775   0.02258571            5 
 2682000   0.82400811   -7.4345276    733.18247  0.022780962  0.022579223            2 
 2683000   0.83259406   -7.4772058    733.46326  0.022781192  0.022572747            2 
 2684000   0.82772285   -7.4476138    734.07595  0.022791727  0.022566243            4 
 2685000   0.82209465   -7.4801617    733.84099  0.022775946  0.022559744            4 
 2686000   0.82498599   -7.4607533    733.81326  0.022766606  0.022553229            3 
 2687000   0.81514264   -7.4367537    732.15542  0.022706718  0.022546753            5 
 2688000   0.82180243   -7.4415438    733.90686  0.022752569  0.022540302            8 
 2689000   0.82614469   -7.4581521    733.70022  0.022737704  0.022533793            7 
 2690000   0.82860658   -7.4448147    734.05863  0.022740354   0.02252733            5 
 2691000   0.82615006   -7.4402298    734.22205  0.022736964   0.02252089            4 
 2692000   0.81836443   -7.4679355    732.18686  0.022665517  0.022514388            3 
 2693000   0.82189823   -7.4603221    732.77012  0.022675149  0.022507874            7 
 2694000   0.82199967   -7.4516557    733.97045  0.022703862  0.022501388            3 
 2695000   0.82208407    -7.453456    734.51304  0.022712215   0.02249492            3 
 2696000   0.81301864   -7.4633667    733.77471  0.022680969  0.022488464            3 
 2697000   0.83083125   -7.4635881    731.35872  0.022597909   0.02248199            3 
 2698000   0.83875209   -7.4354598    734.60268  0.022689729  0.022475514            4 
 2699000   0.82602676   -7.4465383    734.56524  0.022680167  0.022469111            2 
 2700000   0.82358998   -7.4576222    735.06549  0.022687207  0.022462666            8 
 2701000   0.82216045   -7.4820326      735.693  0.022698167   0.02245622            3 
 2702000   0.81208041   -7.4280746    736.51955  0.022715259  0.022449795            7 
 2703000   0.81996236   -7.4559523    734.78113   0.02265326  0.022443377            6 
 2704000   0.80724045   -7.4661509    735.08399  0.022654216  0.022436935            4 
 2705000    0.8201671   -7.4614291    734.92366  0.022640901  0.022430473            3 
 2706000   0.81635362   -7.4542812    736.36196  0.022676828  0.022424064            6 
 2707000   0.82229161   -7.4625035     735.1643  0.022631582   0.02241766            7 
 2708000   0.81575275   -7.4914845     733.8733  0.022583497  0.022411244            4 
 2709000   0.83630934   -7.4743085    735.70232  0.022631424  0.022404839            4 
 2710000   0.83423177   -7.4429726    737.00728  0.022663201   0.02239845            1 
 2711000   0.82273724   -7.4417792    737.72575  0.022676926  0.022392065            5 
 2712000    0.8074968    -7.465562    736.11015  0.022618921  0.022385661            4 
 2713000   0.80848723   -7.4493584    737.49667  0.022653172  0.022379283            2 
 2714000   0.80616341   -7.4932695    737.48507  0.022644469  0.022372856            3 
 2715000   0.81476025    -7.471722    736.04415  0.022591901  0.022366383            3 
 2716000   0.80780172   -7.4671094    737.06675  0.022614959   0.02235997            6 
 2717000   0.80856233   -7.4582288     736.4364  0.022587302  0.022353566            4 
 2718000   0.81324124   -7.4758359    735.50543  0.022550449  0.022347138            6 
 2719000   0.80830018   -7.4813854    737.55874  0.022605086  0.022340726            8 
 2720000    0.8094204   -7.4529506    737.66109  0.022599911  0.022334324            5 
 2721000   0.82842308   -7.4986647    736.37585  0.022552243   0.02232794            6 
 2722000   0.80455695   -7.4636876    738.27819  0.022602198  0.022321555            7 
 2723000   0.80274972   -7.4719865    737.06624  0.022556807  0.022315153            7 
 2724000   0.80643591   -7.4767507    736.93084  0.022544385  0.022308771            2 
 2725000    0.8109242   -7.4652487    736.74607  0.022530461  0.022302403            3 
 2726000   0.82817022   -7.4575688    737.54405   0.02254659  0.022296069            3 
 2727000   0.82042979   -7.4831398    736.65423   0.02251113  0.022289669            6 
 2728000   0.83848703   -7.4667825    738.17699  0.022549395   0.02228329            3 
 2729000   0.82816478   -7.4735576    737.31355  0.022514766  0.022276937            4 
 2730000   0.81729595   -7.4762504     736.0797  0.022468855  0.022270545            6 
 2731000   0.79870425   -7.4393678    739.53799  0.022566154  0.022264172            3 
 2732000   0.80044616   -7.4863193    736.03832  0.022451144  0.022257773            5 
 2733000   0.82038836   -7.4748737     736.7348  0.022464166  0.022251355            2 
 2734000   0.80395323   -7.4670645    737.14633  0.022468493  0.022244932            2 
 2735000   0.80486745   -7.4893112    737.45631  0.022469723  0.022238508            4 
 2736000   0.83069729   -7.4596479    738.28305  0.022486691  0.022232113            4 
 2737000   0.81382789   -7.4504881    736.88219  0.022435823  0.022225757            2 
 2738000    0.8235447   -7.4947736    735.87531  0.022396984  0.022219398            5 
 2739000    0.8065095   -7.4614248    739.73797  0.022506328  0.022213029            3 
 2740000   0.80705404   -7.5075619    736.91005  0.022412106  0.022206601            3 
 2741000   0.81041805   -7.4885718    738.60898  0.022455581  0.022200144            5 
 2742000   0.81304136   -7.4853055    737.40227  0.022410718  0.022193699            5 
 2743000   0.80972477   -7.4736386    739.26192  0.022459045  0.022187314            4 
 2744000   0.79914715   -7.4659898    738.31244  0.022422025   0.02218099            3 
 2745000   0.82009368   -7.4567159    738.09197  0.022407164   0.02217466            7 
 2746000   0.82462268   -7.4678909    740.33762  0.022467153  0.022168316            4 
 2747000   0.82038829    -7.482225    738.06974  0.022390175  0.022161975            7 
 2748000   0.80411883    -7.443642    739.90733  0.022437752  0.022155598            2 
 2749000   0.81429433   -7.4603532    739.06375  0.022404018  0.022149281            3 
 2750000   0.81522675   -7.4788778    738.24102   0.02237094  0.022142951            4 
 2751000    0.8293228   -7.4638749    737.38811  0.022336972  0.022136593            4 
 2752000   0.79281418   -7.4748424    740.51754  0.022423617  0.022130234            3 
 2753000   0.80599092   -7.4844379    739.49608  0.022384553  0.022123863            4 
 2754000   0.81094668   -7.4898067    737.73858  0.022323244  0.022117462            7 
 2755000   0.79205803   -7.4972837    740.19786   0.02238953  0.022111095            2 
 2756000   0.80159847   -7.4594347    741.11746  0.022409212  0.022104756            5 
 2757000   0.81773765   -7.4773884    741.30422  0.022406729  0.022098424            5 
 2758000   0.81529955   -7.4572196    740.18036  0.022364647  0.022092092           10 
 2759000   0.82054725   -7.4699563    739.80667  0.022345254  0.022085813            2 
 2760000   0.82274846   -7.4873299    739.52783  0.022328739  0.022079526            4 
 2761000   0.82088017   -7.4744869    739.07759  0.022307062  0.022073221            9 
 2762000   0.81994005   -7.4399463    740.08147  0.022329274  0.022066917            4 
 2763000   0.81854192   -7.4841456    739.26547  0.022296582  0.022060648            5 
 2764000   0.80358965   -7.4841615    740.68723  0.022331381  0.022054347            4 
 2765000   0.79252311    -7.455784    740.43467  0.022315692  0.022048065            5 
 2766000   0.80266305   -7.4217648    742.44598  0.022368221  0.022041781            6 
 2767000   0.79488373    -7.453811    740.98458  0.022316124  0.022035529            4 
 2768000   0.80463603   -7.4429324    744.62827  0.022417759   0.02202931            5 
 2769000   0.81386181     -7.46938    740.91754  0.022297988  0.022023072            5 
 2770000   0.81508001   -7.4704159    742.24998  0.022330023  0.022016808            3 
 2771000   0.81073476   -7.4976026    742.25812   0.02232221  0.022010509            4 
 2772000   0.81232588   -7.4839007    742.92649   0.02233425  0.022004226            2 
 2773000   0.80781398   -7.4599046    742.22456  0.022305102  0.021997969            3 
 2774000   0.80481169   -7.4928479    741.74487   0.02228265  0.021991697            3 
 2775000    0.8109623   -7.4541024    740.78855  0.022245902  0.021985455            2 
 2776000   0.81293463   -7.5093519    741.02824  0.022245084  0.021979213            4 
 2777000   0.82269476   -7.4815032    742.07011  0.022268338   0.02197293            3 
 2778000   0.80242836   -7.4574648    743.40911  0.022300489  0.021966636            3 
 2779000   0.81038557   -7.4386924    744.42573   0.02232295  0.021960399            8 
 2780000   0.80442438   -7.4837237    741.04211  0.022213493   0.02195416            9 
 2781000    0.8126391   -7.4765724    742.09433  0.022237035    0.0219479            3 
 2782000   0.81832719   -7.4426219    743.45893  0.022269918  0.021941664            5 
 2783000   0.80073238   -7.4822669    744.09635  0.022281002  0.021935415            2 
 2784000   0.79754536   -7.4725423    742.80575  0.022234368  0.021929185            3 
 2785000   0.80871564   -7.4860874    742.00615  0.022202458  0.021922923            8 
 2786000   0.79722501   -7.4801948    743.87957  0.022250526   0.02191672            3 
 2787000   0.79182954   -7.4877107      743.358  0.022226946  0.021910517            1 
 2788000   0.78986463     -7.52215    741.31963  0.022158047  0.021904294            3 
 2789000   0.79176653   -7.5073009    743.41404  0.022212682  0.021898057            4 
 2790000   0.81174492   -7.4880666     742.7562  0.022185072  0.021891828            5 
 2791000   0.80705373   -7.4860904    744.59821  0.022232121  0.021885592            6 
 2792000   0.79633936   -7.4855316    743.92468  0.022204056  0.021879384            8 
 2793000    0.8036513   -7.4831609    742.80349  0.022162653  0.021873101            4 
 2794000   0.79382193   -7.4884963    742.63931  0.022149824  0.021866848            5 
 2795000   0.81429292   -7.4498964    743.61998  0.022171138  0.021860619            3 
 2796000   0.81165888    -7.490531    743.20517  0.022150846  0.021854395            2 
 2797000   0.81973136    -7.521815    742.65394  0.022126503  0.021848118            5 
 2798000   0.80959626    -7.509463    742.76818  0.022121997  0.021841871            7 
 2799000   0.78891812   -7.4934329    742.68195  0.022111526  0.021835583            2 
 2800000   0.81277234   -7.4964882    743.79364  0.022136716  0.021829322            3 
 2801000   0.80891967   -7.5172912    742.66426  0.022095212  0.021823056            9 
 2802000   0.79322732   -7.4887265    744.25387  0.022134602  0.021816773            6 
 2803000   0.78823457   -7.4868859    743.89133  0.022115927  0.021810504            3 
 2804000   0.81315966   -7.5077568    742.70892  0.022072899  0.021804223            7 
 2805000   0.81507749   -7.5045538    742.08105  0.022046377  0.021797942           18 
 2806000   0.80937567   -7.5035208     744.8065  0.022119461  0.021791635            1 
 2807000   0.79119569   -7.5041797    741.69157  0.022019106  0.021785278            3 
 2808000    0.7891478   -7.4893352    742.96143   0.02204895  0.021778947            6 
 2809000   0.78776718   -7.4927669    741.60484  0.022000856  0.021772635            5 
 2810000   0.81978574   -7.5257578    741.13996   0.02197924  0.021766314            9 
 2811000    0.8033958   -7.4726197    743.90632  0.022053431  0.021759981            3 
 2812000   0.80375547   -7.4999682      743.704  0.022039592  0.021753678            3 
 2813000    0.7909606   -7.5073296    744.03798  0.022041651  0.021747362            4 
 2814000   0.81054292   -7.4807143    742.04824  0.021974895  0.021741024            3 
 2815000   0.80705813   -7.5216816    743.23396  0.022002189  0.021734699            2 
 2816000   0.79455927   -7.4964505    742.92962   0.02198537  0.021728378            3 
 2817000   0.80805951   -7.4732881    743.19285  0.021985352  0.021722044            3 
 2818000   0.81147818    -7.489557    743.03335  0.021972834  0.021715743            4 
 2819000   0.79878378   -7.5182717    742.32429  0.021944079  0.021709408            5 
 2820000   0.80212175   -7.5111961    742.68888  0.021947071  0.021703059            3 
 2821000   0.79481563   -7.4930951    742.54432  0.021935021  0.021696748            3 
 2822000   0.80194641   -7.4832768    743.00452  0.021940837  0.021690436            3 
 2823000   0.80796183   -7.5176956    742.51295  0.021918555  0.021684122            6 
 2824000   0.79423375    -7.485654    743.25367  0.021932651  0.021677786            4 
 2825000   0.79029549   -7.4813929    742.84778  0.021912914  0.021671483            4 
 2826000   0.80872974   -7.5057451     743.4604  0.021923225  0.021665202            6 
 2827000   0.80094518   -7.5244222    743.39226  0.021913461  0.021658908            2 
 2828000   0.81478208   -7.5201127    743.64271  0.021913093  0.021652597            5 
 2829000   0.80196507   -7.5092363    744.32874  0.021925555  0.021646291            3 
 2830000   0.78405954    -7.488765    744.26791  0.021916016   0.02163999            4 
 2831000   0.78580171   -7.4871293    744.06955  0.021902436  0.021633684            3 
 2832000   0.79672163   -7.4768782    743.78554  0.021886345  0.021627399            3 
 2833000   0.79389501   -7.4773112    746.31157  0.021952923  0.021621119            7 
 2834000   0.78314899    -7.483171    744.59626  0.021894738  0.021614829            4 
 2835000   0.80446208   -7.5070518    744.05579  0.021871128  0.021608529            3 
 2836000    0.7891893   -7.5070077    744.60401  0.021879525  0.021602202            3 
 2837000    0.7885716   -7.5153475    744.17777  0.021859293  0.021595884            2 
 2838000   0.79772922   -7.5036168    742.73751    0.0218093  0.021589563            3 
 2839000   0.80841243   -7.5036543    743.62687  0.021827723  0.021583271            4 
 2840000   0.79438476   -7.4916727    746.10051  0.021892621   0.02157698            2 
 2841000   0.79840563   -7.5084787    744.97623  0.021851937   0.02157066            3 
 2842000   0.80448647   -7.5016048    744.65229  0.021834749  0.021564347            4 
 2843000   0.77655786   -7.5180307    746.41704  0.021878797  0.021558046            2 
 2844000   0.81181531   -7.5271251    744.63637  0.021818928  0.021551726            4 
 2845000   0.79392654   -7.5150701    745.87918  0.021847662  0.021545382            5 
 2846000    0.7958047   -7.5053299    743.75798  0.021777875  0.021539029            5 
 2847000   0.79223342   -7.5151661    744.03936  0.021778462   0.02153269            6 
 2848000   0.78797411   -7.5036462    746.27888  0.021836344  0.021526362            6 
 2849000   0.81000101   -7.5136155    744.04565  0.021763357  0.021520038            6 
 2850000   0.80145585   -7.4786572    744.98998  0.021783333  0.021513731            8 
 2851000   0.79424722   -7.5097978    744.36325  0.021757373  0.021507414            5 
 2852000   0.79029408   -7.4849405    745.01002  0.021768643  0.021501106            3 
 2853000   0.80349632   -7.5298508    745.90548  0.021787168  0.021494805            3 
 2854000   0.81476687   -7.4688648    745.00114  0.021753128  0.021488502            2 
 2855000   0.78715882   -7.4927603    745.36702  0.021756189  0.021482221            4 
 2856000   0.78882963    -7.525181    745.77146  0.021760372  0.021475932            3 
 2857000   0.80558176   -7.5053308    746.84916   0.02178419  0.021469662            3 
 2858000   0.77927055   -7.4976699    745.41031  0.021734614  0.021463431            6 
 2859000   0.78979646   -7.5153597    748.48218   0.02181655  0.021457185            2 
 2860000   0.79141822   -7.5121817    747.59155   0.02178297  0.021450945           11 
 2861000   0.79051003   -7.5067838    747.23762  0.021765048  0.021444714            2 
 2862000   0.77805538   -7.4904162    747.26443  0.021758224  0.021438503            3 
 2863000   0.80484023   -7.4836188    750.30151  0.021839024  0.021432331            3 
 2864000   0.79657905   -7.4997748     748.1466  0.021768697  0.021426173            4 
 2865000   0.80573462   -7.5030234    748.12389  0.021760439  0.021420007            6 
 2866000   0.80988586    -7.491812    747.67457  0.021739781  0.021413805            3 
 2867000   0.78508429    -7.493066    747.09714  0.021715415  0.021407597            4 
 2868000   0.79841622   -7.5234481    745.72732  0.021668042  0.021401373            4 
 2869000   0.79592624   -7.5296007    744.38857  0.021621604  0.021395147            3 
 2870000   0.78381513   -7.5092379    747.09176   0.02169256  0.021388901            3 
 2871000   0.79593779    -7.559054    746.06304  0.021655145  0.021382649            4 
 2872000   0.79556414   -7.5082523    746.71229  0.021666443  0.021376368            4 
 2873000   0.77974034   -7.5171394    747.67484  0.021686821  0.021370095            4 
 2874000   0.79793332   -7.5654887    746.51733  0.021645712  0.021363814            2 
 2875000   0.79782366   -7.4995318    747.27472  0.021660137   0.02135755            2 
 2876000   0.79339441   -7.5155573    748.19905  0.021679388  0.021351319            2 
 2877000   0.78081292     -7.51304    747.11046  0.021640321  0.021345098            4 
 2878000   0.79376494   -7.5102081    746.14341  0.021604801  0.021338854            5 
 2879000   0.79128366   -7.5049409     748.3684    0.0216617  0.021332613            3 
 2880000    0.7791051   -7.5003032    747.10841   0.02161772  0.021326345            2 
 2881000   0.79386412   -7.4799518    748.32786  0.021645489  0.021320096            3 
 2882000   0.79242136   -7.5392507    746.61599   0.02158848  0.021313839            4 
 2883000   0.78181133   -7.5419087    745.60907  0.021551887  0.021307542            2 
 2884000   0.80297158   -7.5483089    746.60405  0.021573164  0.021301275            4 
 2885000   0.81308695   -7.5090904     747.2838  0.021585321  0.021295001            4 
 2886000   0.77289833   -7.4958499    747.11311  0.021572912   0.02128878            4 
 2887000   0.81327751   -7.5298726    748.50004  0.021605474  0.021282543            2 
 2888000   0.79121851   -7.5279395    747.19065   0.02156021  0.021276294            8 
 2889000   0.77243078   -7.5604943     746.5304  0.021533702  0.021270015            2 
 2890000   0.79140752   -7.5477337    748.19656  0.021574295  0.021263749            3 
 2891000   0.77185048   -7.5264579    748.24954   0.02156836  0.021257498            5 
 2892000   0.79173145   -7.5459358    749.12884  0.021586239  0.021251267            4 
 2893000   0.78986921   -7.5323696     746.1247  0.021492243   0.02124502            4 
 2894000    0.8071831   -7.5405442    748.57047  0.021555243  0.021238782            5 
 2895000   0.77221168   -7.5145358    749.53094  0.021575444  0.021232574            3 
 2896000   0.79823344   -7.5287596    748.43578  0.021536481  0.021226335            3 
 2897000   0.78242379   -7.5415462    748.19345  0.021522076  0.021220103            4 
 2898000   0.78777379   -7.5220352    747.51672   0.02149519  0.021213903            5 
 2899000   0.79593084   -7.5588709    748.44335  0.021514411  0.021207702            5 
 2900000   0.78245122   -7.5162955    748.68589  0.021513962  0.021201447            6 
 2901000   0.77088752    -7.538471    749.05354  0.021517107  0.021195247            5 
 2902000   0.80257287   -7.5704544    748.77687  0.021501748  0.021189027            3 
 2903000   0.79575493   -7.5315942    748.17482  0.021477059  0.021182817            4 
 2904000   0.80134347   -7.5313708    748.34231   0.02147447  0.021176609            4 
 2905000   0.77620958   -7.5261564    750.42738   0.02152689  0.021170376            3 
 2906000   0.78583337    -7.520283    748.48888  0.021463893   0.02116417            5 
 2907000   0.77989175   -7.5250807    748.66621  0.021461593  0.021157969            5 
 2908000   0.78460827    -7.531212    749.77252  0.021485916  0.021151771            4 
 2909000   0.78093883   -7.5444734    747.11543  0.021402413  0.021145537            5 
 2910000   0.80206455   -7.5604883      747.829  0.021415492  0.021139303            4 
 2911000   0.78565717   -7.5540788    748.20075  0.021418778  0.021133095            6 
 2912000   0.78439622   -7.5404765    747.70155  0.021397137  0.021126864            5 
 2913000   0.79156594   -7.5475304    749.73244   0.02144789  0.021120629            3 
 2914000   0.79741494   -7.5234253    749.29183  0.021427929  0.021114392            3 
 2915000   0.78524407   -7.5287727    749.64306  0.021430619  0.021108188            9 
 2916000   0.78622309   -7.5215973    751.73021  0.021482916  0.021102014            5 
 2917000   0.76040592   -7.5236417    748.87652  0.021394027  0.021095815            5 
 2918000   0.78194144   -7.5454982    748.41639  0.021373555  0.021089628            3 
 2919000   0.77452534    -7.525672     750.4152  0.021423296  0.021083453            5 
 2920000   0.78642143   -7.5213122    751.02319   0.02143331  0.021077274           10 
 2921000   0.77761563   -7.5168018    750.21096    0.0214028   0.02107112            4 
 2922000   0.79449939   -7.5467796    748.67035  0.021351539  0.021064968            4 
 2923000   0.77156026   -7.5079613    751.44272  0.021423273  0.021058781            5 
 2924000   0.77982648   -7.5271296    750.60057  0.021391945  0.021052615            7 
 2925000   0.79236497   -7.5278961    750.08343  0.021369898  0.021046446            5 
 2926000   0.78286656   -7.5197409    751.89995   0.02141433  0.021040298            4 
 2927000   0.79470447   -7.5512016    751.26427  0.021388916  0.021034136            5 
 2928000   0.78902062   -7.5279556    750.15247  0.021349968  0.021027979            3 
 2929000   0.78457831   -7.5319536    750.68634  0.021357868   0.02102182            3 
 2930000   0.78323193   -7.5369118    748.53374  0.021289355  0.021015638            4 
 2931000   0.76926515   -7.5357536    749.82498  0.021318804  0.021009474            5 
 2932000   0.76405749   -7.5631264    751.86027   0.02136938  0.021003323            4 
 2933000   0.78383184   -7.5591879     751.4685  0.021350963   0.02099716            3 
 2934000    0.8068158   -7.5402363    751.57307  0.021346656  0.020991025            5 
 2935000   0.78358929   -7.5376123    751.17652  0.021328124  0.020984871            2 
 2936000   0.77167232   -7.5311116    749.29616  0.021267489   0.02097869            2 
 2937000   0.77436303   -7.5661979    749.25877  0.021259187  0.020972511            3 
 2938000   0.78210268   -7.5417741    750.93812  0.021299584  0.020966316            2 
 2939000   0.77887692    -7.554835    750.29826  0.021274193  0.020960128            2 
 2940000   0.78705688    -7.557657    750.30156  0.021267051  0.020953959            2 
 2941000   0.77845545   -7.5568483    748.88364  0.021219643  0.020947763            4 
 2942000   0.80126592   -7.5293641    751.82006  0.021295606  0.020941594            2 
 2943000    0.7988501   -7.5543049    751.18791   0.02127047  0.020935473            5 
 2944000    0.7962522   -7.5496896    750.51593  0.021244223  0.020929326            4 
 2945000   0.77559835   -7.5807602    752.20273   0.02128474   0.02092318            5 
 2946000   0.78562389   -7.5880177    751.62451   0.02126116  0.020917009            4 
 2947000   0.78452428   -7.5627032    752.42679  0.021276631   0.02091085            3 
 2948000   0.77034666    -7.533565     751.2226  0.021235374  0.020904714            4 
 2949000   0.79482634   -7.5452124    750.36048  0.021203811  0.020898529            3 
 2950000   0.77906607   -7.5682425    750.00592  0.021186608   0.02089232            4 
 2951000   0.79040962   -7.5274456    751.22746  0.021213924  0.020886123            3 
 2952000   0.77983305   -7.5677909    750.03922  0.021173194  0.020879939            3 
 2953000   0.75975988   -7.5338671    752.37279  0.021231877   0.02087375            3 
 2954000   0.77711605    -7.548636     750.3719  0.021168244   0.02086757            6 
 2955000   0.78443082   -7.5450105    750.62098  0.021168104  0.020861389            4 
 2956000   0.77352076   -7.5492237    750.68461  0.021162737  0.020855231            2 
 2957000   0.78403662   -7.5490458    750.68496   0.02115559  0.020849075            6 
 2958000   0.78263045   -7.5305049    752.50963  0.021199843  0.020842909            3 
 2959000   0.77696025   -7.5657525    750.29125  0.021130203   0.02083671            4 
 2960000   0.76491893   -7.5517823    751.81581  0.021165986  0.020830536            3 
 2961000   0.78433032   -7.5675176    750.28662    0.0211158  0.020824365            3 
 2962000   0.79637895   -7.5714071    751.44684  0.021141313  0.020818188            4 
 2963000   0.76958302   -7.5375531    751.38712  0.021132499  0.020812017            2 
 2964000   0.78686925   -7.5694659    749.19863  0.021063839  0.020805817            5 
 2965000   0.76570142   -7.5623974    752.75814  0.021156777  0.020799663            3 
 2966000   0.75920829   -7.5490522    752.52425  0.021143073  0.020793529            2 
 2967000   0.79044598   -7.5733327     752.3602  0.021131339  0.020787385            6 
 2968000   0.76900323   -7.5668455    750.87671  0.021082567  0.020781225            3 
 2969000   0.76942992   -7.5717847    751.18505  0.021084121  0.020775068            4 
 2970000   0.77324282   -7.5539483    754.03824  0.021157077  0.020768926            4 
 2971000   0.78036586   -7.5627013    751.55991  0.021080442  0.020762798            4 
 2972000   0.79150991   -7.5720496    752.04198  0.021086866  0.020756655            6 
 2973000   0.77363914   -7.5451979    752.59304  0.021095219  0.020750513            4 
 2974000   0.79410723   -7.5575432    750.66925   0.02103422  0.020744387            3 
 2975000   0.77997484   -7.5762629    752.65153  0.021082676  0.020738222            4 
 2976000   0.75756134     -7.54841    751.95847  0.021056185  0.020732115            3 
 2977000   0.78544173   -7.5397863    751.51003  0.021036559     0.020726            5 
 2978000   0.78271001   -7.5656345    752.82838  0.021066386  0.020719876            3 
 2979000   0.75274548   -7.5252012    753.09901  0.021066885  0.020713758           10 
 2980000   0.76645048   -7.5400986    750.87046  0.020997496  0.020707635            2 
 2981000   0.79576503   -7.5709781    751.78519  0.021016023  0.020701495            4 
 2982000    0.7635931     -7.54676    752.52975  0.021029783  0.020695358            7 
 2983000   0.75347326    -7.570262    753.14576  0.021039942  0.020689212            3 
 2984000    0.7743298    -7.573686    753.22766  0.021035178  0.020683053            4 
 2985000   0.77429546   -7.5513831    751.72406  0.020986155  0.020676893            7 
 2986000   0.77143663   -7.5805208    752.66321  0.021005336   0.02067075            5 
 2987000   0.75890535   -7.5607616    752.97992   0.02100714  0.020664606            2 
 2988000   0.78166003   -7.5650661     752.9314  0.020998756  0.020658491            4 
 2989000   0.77966231   -7.5589817    752.98325  0.020993176  0.020652341            3 
 2990000    0.7847457   -7.5233761    752.09003  0.020961261  0.020646221            5 
 2991000   0.77774771   -7.5563371    754.35242  0.021017286  0.020640123            3 
 2992000   0.78249469   -7.5677259    753.01984  0.020973146  0.020634013            5 
 2993000   0.77815485   -7.5531447    752.53363  0.020952601  0.020627869            8 
 2994000   0.76433455   -7.5448672    752.88357  0.020955343  0.020621727            7 
 2995000   0.78250895   -7.5689499    753.04735  0.020952904  0.020615566            5 
 2996000   0.79148732   -7.5493496    752.50942  0.020930947  0.020609382            3 
 2997000   0.78928158   -7.5780517     752.9836  0.020937148  0.020603198            4 
 2998000   0.76886249   -7.5710623    752.74237  0.020923459  0.020597032            2 
 2999000    0.7719918   -7.5546485    753.19977  0.020929192   0.02059087            2 
 3000000    0.7665114   -7.5723007    753.05328  0.020918147  0.020584737            3 
 3001000   0.77993754   -7.5896837    751.03105  0.020855022  0.020578558            4 
 3002000   0.76861839   -7.5616429    752.56476   0.02089065   0.02057238            4 
 3003000   0.77572635   -7.5605081    751.97001  0.020867189  0.020566202            6 
 3004000    0.7639753   -7.5649269    751.14614  0.020837387  0.020560023            4 
 3005000   0.76619018   -7.5589387    751.77503  0.020847893  0.020553859            4 
 3006000    0.7721851   -7.5889457    753.70559  0.020894477  0.020547714            7 
 3007000   0.77548594   -7.5476664    752.91133  0.020865518  0.020541533            2 
 3008000   0.77972963   -7.5469983    754.07076  0.020890701   0.02053541            3 
 3009000   0.75961697   -7.5457381    752.18781  0.020831611  0.020529245            3 
 3010000   0.77744672   -7.5815256    753.91045  0.020872382  0.020523126            2 
 3011000    0.7877155   -7.5866602    753.43902  0.020852403   0.02051698            4 
 3012000   0.77067321   -7.5520229    753.08552  0.020835699   0.02051084            4 
 3013000   0.75701068   -7.5615511    754.11194  0.020857173   0.02050471            3 
 3014000   0.79484543   -7.5454894    752.73939  0.020812303  0.020498567            3 
 3015000   0.77064566   -7.6064239    752.43943   0.02079711  0.020492418            7 
 3016000   0.77035963   -7.5710006    752.84335  0.020801375  0.020486245            4 
 3017000   0.76178383   -7.5944405    753.16573  0.020803384  0.020480057            3 
 3018000   0.77310705   -7.5756428     754.5431  0.020834523  0.020473898            4 
 3019000   0.76519051   -7.5910042    753.28961  0.020793022  0.020467728            5 
 3020000   0.77265154   -7.5812162    751.98753  0.020750208  0.020461538            4 
 3021000   0.77600688   -7.6048231    751.49551  0.020729767  0.020455356            4 
 3022000   0.73956718   -7.5613774     753.5611  0.020779867   0.02044917            2 
 3023000   0.76879681   -7.5804037    754.51338  0.020799244  0.020443021            4 
 3024000   0.76995704   -7.6080812    753.57823  0.020766596   0.02043687            4 
 3025000   0.77023039   -7.5948975    754.12104  0.020774684   0.02043073            4 
 3026000   0.75354729   -7.6062692     752.3446  0.020718897  0.020424563            3 
 3027000    0.7759954   -7.5742059     754.3869  0.020768277  0.020418416            5 
 3028000   0.77823508   -7.5470709    755.35297  0.020788005  0.020412295            4 
 3029000   0.76662849   -7.5529148    752.92176  0.020714256  0.020406164            5 
 3030000   0.75682465   -7.5389729    754.04489  0.020738308  0.020400033            2 
 3031000   0.77084853   -7.5527122    753.07572   0.02070482  0.020393908            2 
 3032000   0.78586466   -7.5635909    753.97078  0.020722592  0.020387784            4 
 3033000   0.75636716   -7.5552278     753.7564  0.020709869  0.020381657            3 
 3034000   0.77952587   -7.5872505    753.57792  0.020698141  0.020375543            4 
 3035000    0.7590692   -7.5906094    752.96264  0.020674427  0.020369416            2 
 3036000   0.77142784   -7.6008368    752.51106  0.020655222   0.02036327            4 
 3037000   0.76751578    -7.573479    754.65286  0.020707191  0.020357129            4 
 3038000   0.74661249    -7.583771    754.61741  0.020699402  0.020350993            1 
 3039000   0.76516716   -7.5657143    754.54022  0.020690475  0.020344856            4 
 3040000   0.77668612   -7.5603265    755.07795  0.020698409  0.020338747            2 
 3041000   0.77229734   -7.5542199    755.55278  0.020704614  0.020332632            2 
 3042000   0.74691734   -7.5393925    755.48988  0.020696085  0.020326552            4 
 3043000   0.75527751   -7.5715786    756.37176  0.020713434   0.02032044            4 
 3044000    0.7760215   -7.5973066    754.35363  0.020651381  0.020314321            5 
 3045000   0.77650343   -7.5825386    755.04739  0.020663585  0.020308178            7 
 3046000   0.74029266   -7.5803098    755.47998  0.020668636  0.020302037            6 
 3047000   0.75930289   -7.5765875    753.64711  0.020611725  0.020295926            4 
 3048000   0.76062507   -7.5841327    755.37014  0.020652071  0.020289825            9 
 3049000   0.77137552   -7.5661345    755.73716  0.020655328  0.020283707            3 
 3050000   0.76265119   -7.6102644    755.00549  0.020628565   0.02027761            5 
 3051000   0.75152597   -7.5788592    755.83356  0.020644422  0.020271506            5 
 3052000   0.76457617   -7.5723771    755.68063  0.020633482  0.020265429            7 
 3053000   0.75948798   -7.5547859    755.57354    0.0206238  0.020259385            3 
 3054000   0.76750489   -7.5991354    756.47922   0.02064176  0.020253337            5 
 3055000   0.76699451   -7.6035686    754.91319  0.020592286  0.020247259            5 
 3056000   0.75831616   -7.5665109    756.63005  0.020632364  0.020241193            5 
 3057000   0.76299387   -7.5679378    756.81286  0.020630598  0.020235162            2 
 3058000   0.77139665   -7.5985641    756.92596  0.020626934   0.02022914            5 
 3059000   0.77006656   -7.5718916    757.05886  0.020623811   0.02022311            9 
 3060000   0.76049407   -7.6064061    755.33182  0.020570039  0.020217069            4 
 3061000    0.7726005    -7.579671    755.84026   0.02057716  0.020211013            3 
 3062000   0.77772305   -7.5912673     757.1402  0.020605819  0.020204971            4 
 3063000   0.77644577   -7.5761066    757.57444  0.020610905  0.020198911            7 
 3064000   0.77730405    -7.584918      753.252  0.020486619  0.020192857            6 
 3065000   0.76078288   -7.6008502    755.89885  0.020551899  0.020186791            2 
 3066000   0.76668816   -7.6028822    756.86496  0.020571455  0.020180716            4 
 3067000    0.7625473   -7.6074957    756.08485  0.020543551  0.020174661            5 
 3068000   0.76101298   -7.5943292    755.37167  0.020517483  0.020168602            8 
 3069000   0.75896847   -7.5938823    755.03982  0.020501787  0.020162551            8 
 3070000   0.75526824   -7.6107456    755.20131  0.020499493  0.020156468            6 
 3071000   0.76611628   -7.6143047    756.09962  0.020517194  0.020150415            6 
 3072000     0.756827   -7.5845033    754.86311  0.020476972  0.020144345            3 
 3073000   0.76642888   -7.5811974    758.09297  0.020557896  0.020138331            3 
 3074000   0.76706795   -7.5890525    757.26858   0.02052886  0.020132283            4 
 3075000   0.76120719   -7.5959882    755.94806  0.020486397  0.020126252            5 
 3076000   0.75620704   -7.5771776    757.16534  0.020512715  0.020120197            2 
 3077000   0.74351833   -7.5909781    758.29638   0.02053668  0.020114174            4 
 3078000   0.74764054   -7.5635939    755.94768   0.02046642  0.020108168            4 
 3079000   0.76819803   -7.5953801    758.59661  0.020531466   0.02010217            5 
 3080000   0.75539017   -7.6066172    758.11848  0.020511864  0.020096153            3 
 3081000   0.75884467    -7.611909    756.29566  0.020455903  0.020090155            3 
 3082000   0.74753109   -7.5870427     756.4831  0.020454334  0.020084151            6 
 3083000   0.74948026   -7.6083641    756.07409  0.020436644  0.020078123            6 
 3084000    0.7485237   -7.6265351    757.94325  0.020480524  0.020072087            7 
 3085000   0.74272645    -7.600003    757.44247  0.020460359  0.020066069            4 
 3086000   0.73129348   -7.6188924    756.50522  0.020428419  0.020060042            4 
 3087000   0.76195708   -7.6041563    757.38277  0.020445491  0.020054008            6 
 3088000   0.75349884   -7.6146251     760.0598  0.020511113  0.020048012            5 
 3089000    0.7648791    -7.591379    757.79957  0.020443498  0.020042006            5 
 3090000   0.74744329   -7.6110944    757.36589  0.020425186  0.020035986            5 
 3091000   0.74830804   -7.5820413    757.68058  0.020427062  0.020029993            3 
 3092000   0.76526943   -7.5920238     756.1169  0.020378312  0.020024015            6 
 3093000   0.75624277   -7.5919476    758.53591  0.020436898  0.020018016            2 
 3094000   0.76381293   -7.5685516     758.7804  0.020436878  0.020012032            2 
 3095000   0.76763055   -7.5971426    756.65456  0.020373036  0.020006015            3 
 3096000   0.75790506   -7.6148508    757.09099  0.020378203  0.019999992            4 
 3097000   0.75256338   -7.5989417    756.23841  0.020348682  0.019993953           11 
 3098000   0.77847412   -7.6308363    756.93415  0.020360828  0.019987919           12 
 3099000   0.75138816   -7.6497457    756.99684  0.020355944  0.019981874            4 
 3100000   0.75682812   -7.5948185     757.8646  0.020372704  0.019975836            3 
 3101000   0.76161085   -7.6080193    757.41796  0.020354132  0.019969815           10 
 3102000   0.78634591   -7.5983905    757.38052  0.020346564    0.0199638            4 
 3103000   0.75186329   -7.6084543    759.02418  0.020384149  0.019957774            5 
 3104000   0.75532336   -7.6110994     757.8267  0.020345433  0.019951769            7 
 3105000   0.75517704    -7.622428    757.74503  0.020336689   0.01994574            5 
 3106000    0.7519991   -7.6493706    757.13064  0.020313657  0.019939718            4 
 3107000   0.75138463   -7.6289684    757.82481  0.020325738  0.019933671            3 
 3108000   0.75657629   -7.6101663    759.13042  0.020354205  0.019927645            3 
 3109000   0.75623162    -7.623769    758.70651  0.020336295  0.019921613            6 
 3110000   0.74842435   -7.6127856    756.42206  0.020268544   0.01991558            6 
 3111000   0.74818764   -7.6154394     757.2264  0.020283575  0.019909528            4 
 3112000    0.7508171   -7.6020463    757.84946  0.020293741  0.019903503            3 
 3113000   0.76497938   -7.6149729    758.17831  0.020296025  0.019897486            3 
 3114000   0.76043063    -7.586321    758.52257   0.02029872  0.019891474            5 
 3115000    0.7568643   -7.6257704    757.88017  0.020275018  0.019885479            8 
 3116000   0.75066968   -7.6010919    759.06317  0.020300149   0.01987949            7 
 3117000   0.75694457   -7.6093332    758.54286  0.020279726  0.019873503            6 
 3118000   0.76876366   -7.5871271    760.02457  0.020312823  0.019867508            7 
 3119000   0.74351284   -7.6297688    758.19101  0.020257321   0.01986151            4 
 3120000   0.75036184   -7.6064274    758.22797  0.020251815  0.019855478            5 
 3121000   0.75591662   -7.6249359    756.86813  0.020209018  0.019849458            4 
 3122000   0.74967157   -7.6207619    759.71182  0.020278449  0.019843437            3 
 3123000   0.74754826   -7.6135187    758.28116  0.020233781   0.01983742            3 
 3124000   0.74912479   -7.6284325    757.34202  0.020202252  0.019831406            3 
 3125000   0.75635665   -7.6161508    758.17632  0.020218035  0.019825407            2 
 3126000   0.74326865   -7.6204371     758.7143  0.020225909  0.019819423            5 
 3127000   0.75329243   -7.6016358    759.55671  0.020241891  0.019813426            8 
 3128000   0.76299883   -7.6038223    757.11299  0.020170316  0.019807457            6 
 3129000   0.74575419   -7.6200275    759.27051   0.02022133  0.019801469            4 
 3130000   0.74696518   -7.6037313     758.7151  0.020200083   0.01979547            7 
 3131000   0.75814971   -7.6158853    756.76564  0.020141745  0.019789475            3 
 3132000   0.74078312   -7.6038757    758.02271  0.020168761  0.019783486            6 
 3133000   0.74468127   -7.6264542    758.07633   0.02016375  0.019777486            3 
 3134000    0.7371115   -7.6091032    759.64294  0.020198972   0.01977147            6 
 3135000   0.76245159   -7.6231377    758.36778  0.020158633   0.01976544            9 
 3136000    0.7517328   -7.6113634    757.30218  0.020123889  0.019759443            4 
 3137000   0.74854077   -7.6235698    758.66642  0.020153714  0.019753448            5 
 3138000   0.74115735    -7.624747    757.62164  0.020119546  0.019747471            7 
 3139000   0.77571973   -7.6125121    758.63211  0.020139963  0.019741473            3 
 3140000   0.75864094   -7.6075671    758.22474  0.020122737  0.019735456            3 
 3141000   0.74753817   -7.6219559     757.3326  0.020092661  0.019729459            6 
 3142000   0.74945498   -7.6461992    759.07275   0.02013242  0.019723425            4 
 3143000   0.74705043    -7.644317    757.38926  0.020081378  0.019717359           10 
 3144000    0.7469104   -7.6281049    756.54837  0.020052703  0.019711321            4 
 3145000   0.74593042   -7.5986414    757.91174  0.020082452  0.019705281            6 
 3146000   0.74555125   -7.6329752    758.03266  0.020079271  0.019699252            3 
 3147000   0.76135484   -7.6393078     758.8877  0.020095533  0.019693231            4 
 3148000   0.72819643   -7.6144806    758.57578  0.020080892  0.019687222            4 
 3149000   0.75699986   -7.6115347    759.17539  0.020090383  0.019681214            8 
 3150000   0.75881999   -7.6031296    758.65061  0.020070122  0.019675228            3 
 3151000   0.73996854   -7.6120949    759.80875  0.020094381  0.019669219            8 
 3152000   0.74543746   -7.6215411    757.69168  0.020032035  0.019663196            5 
 3153000   0.74827418   -7.6060047    758.29949  0.020041746  0.019657186            5 
 3154000   0.73971638   -7.6273913    759.55723  0.020068623  0.019651201            9 
 3155000    0.7620857     -7.61874    758.25345  0.020027825  0.019645203            5 
 3156000   0.75285956   -7.6200032    759.38284    0.0200513  0.019639239            3 
 3157000   0.74994426   -7.6081477    759.54593  0.020049254  0.019633266            6 
 3158000    0.7607629   -7.6352491    758.47343  0.020014604  0.019627295            3 
 3159000   0.74009609   -7.6305549    758.75547  0.020015708  0.019621336            8 
 3160000   0.74729116   -7.6219051    759.71108  0.020034575  0.019615374            4 
 3161000   0.73592365   -7.6171606    758.99588  0.020009382  0.019609408            4 
 3162000   0.74503348   -7.6399289    758.94823  0.020001798  0.019603451            5 
 3163000   0.74339947   -7.6145384    761.06671  0.020051288  0.019597494            7 
 3164000    0.7425808   -7.6341993    758.27113  0.019971321   0.01959156            6 
 3165000    0.7413205   -7.5970316    760.13875  0.020014185   0.01958561            3 
 3166000   0.74975641   -7.6180891    760.15497  0.020008291   0.01957967            7 
 3167000   0.75499972   -7.6198462    759.45445   0.01998354   0.01957373            4 
 3168000   0.72513429   -7.6227757    759.64343  0.019982203  0.019567801            4 
 3169000   0.73098148   -7.5704793    759.72298  0.019977989  0.019561873            4 
 3170000   0.76010798   -7.6073754    761.30932  0.020013389  0.019555983            8 
 3171000   0.75334156   -7.6258262    758.92879  0.019944518  0.019550081            6 
 3172000   0.75489828   -7.6208318    759.83908  0.019962145  0.019544172            3 
 3173000   0.74277314   -7.6106398    760.61959  0.019976352  0.019538273            2 
 3174000   0.73752727   -7.6181567    761.69707  0.019998348  0.019532363            5 
 3175000   0.73223621   -7.5998398    762.18286    0.0200048  0.019526463            3 
 3176000   0.75152281   -7.6308366    761.54861  0.019981859  0.019520581            6 
 3177000   0.74187786   -7.6129033    760.96615  0.019960291  0.019514716            9 
 3178000   0.73696846    -7.651621    760.31188  0.019936854  0.019508832            3 
 3179000    0.7370309   -7.6230744    762.88847  0.019998125  0.019502962            4 
 3180000   0.74036334   -7.6116427    761.29795  0.019950156  0.019497098            4 
 3181000   0.73319031   -7.6517178    759.40091  0.019894187  0.019491218            6 
 3182000   0.73123117    -7.625242    761.76874  0.019949946  0.019485348            4 
 3183000   0.73765096    -7.601619    762.06561  0.019951451  0.019479489            5 
 3184000   0.74885737    -7.623741    762.01389  0.019943831  0.019473649            3 
 3185000   0.75042387   -7.6221016    762.37788  0.019947093  0.019467799            4 
 3186000   0.74477147   -7.6232794    761.77184   0.01992498  0.019461955            7 
 3187000   0.74921075   -7.6131628    761.31339  0.019906741  0.019456069            3 
 3188000   0.73775535   -7.6277038    762.89661  0.019941881  0.019450182            2 
 3189000   0.73098639    -7.647847    760.64292  0.019876736   0.01944429            2 
 3190000   0.72896062   -7.6301451    760.93927  0.019878246  0.019438386            7 
 3191000    0.7594767   -7.6544876    760.98755  0.019873278  0.019432484            4 
 3192000   0.74329771    -7.627603    759.75568  0.019834891   0.01942657            5 
 3193000   0.74462273   -7.6238951    760.74051  0.019854382  0.019420664            4 
 3194000   0.72710605   -7.6723075    760.56498  0.019843586  0.019414767            3 
 3195000   0.72253072   -7.6274799    762.47758  0.019887261  0.019408873            4 
 3196000   0.73982169   -7.6414501    761.32921  0.019851095  0.019402988            2 
 3197000   0.74817399   -7.6356832    760.96636  0.019835428  0.019397092            6 
 3198000   0.73570795   -7.6346849    760.72388  0.019822907  0.019391184            3 
 3199000   0.73971795   -7.6339773    761.35316  0.019833103  0.019385302            9 
 3200000   0.75712582   -7.6345059    761.14734  0.019821545  0.019379419            3 
 3201000   0.73872003   -7.6463995    761.17529  0.019816081  0.019373531            6 
 3202000    0.7419434   -7.6400853     761.3849  0.019815347  0.019367652            3 
 3203000   0.72492434   -7.6314869    762.13797  0.019828753  0.019361749            4 
 3204000   0.75545503    -7.651163    762.03139  0.019819793  0.019355862            5 
 3205000    0.7540347   -7.6659194    759.31579     0.019743  0.019349958            3 
 3206000   0.73909616   -7.6414822    759.04103    0.0197297  0.019344034            5 
 3207000   0.73557389   -7.6264502    761.08546  0.019776672  0.019338123            8 
 3208000   0.73762039   -7.6600764    761.03306  0.019769147  0.019332213            7 
 3209000   0.73089847   -7.6484369    760.21877   0.01974184  0.019326288            6 
 3210000   0.73626594   -7.6915774    760.97415    0.0197553  0.019320378            6 
 3211000   0.72486619   -7.6561952    760.35275  0.019733021  0.019314457            4 
 3212000   0.74402582   -7.6480213     760.2133  0.019723259  0.019308531            4 
 3213000   0.73322351   -7.6425703     759.9299   0.01970977  0.019302613            3 
 3214000   0.74149844   -7.6513071    761.43119  0.019742563  0.019296672            2 
 3215000   0.76010698   -7.6569199    762.02753   0.01975188  0.019290761           10 
 3216000   0.72002177   -7.6190206    760.36304  0.019702608  0.019284855            6 
 3217000   0.73210344   -7.6401083    761.88302  0.019735857  0.019278949           13 
 3218000   0.74806233   -7.6425374    761.34319  0.019715744  0.019273015            5 
 3219000   0.72138688   -7.6294768    761.21372  0.019706268  0.019267098            2 
 3220000   0.74169624    -7.648915    760.92589  0.019692699  0.019261188            6 
 3221000   0.73474928   -7.6468635     761.1574  0.019692575  0.019255308            2 
 3222000   0.73118149   -7.6315517    761.75676  0.019701965  0.019249398            5 
 3223000   0.73981669   -7.6663508    761.00178  0.019676331  0.019243516           10 
 3224000    0.7404033    -7.660047    761.53058  0.019683896  0.019237605           10 
 3225000   0.74880816   -7.6464157    761.33649  0.019672778  0.019231715            4 
 3226000   0.74498171   -7.6450079     761.3431   0.01966685  0.019225827            4 
 3227000   0.74478992   -7.6621595    760.64995  0.019642856  0.019219944            6 
 3228000   0.75078685   -7.6609352    763.12416  0.019700644  0.019214073            4 
 3229000   0.74398092   -7.6905866    760.47754   0.01962624  0.019208184            4 
 3230000   0.72252632   -7.6648403    761.57359  0.019648441    0.0192023            2 
 3231000   0.74816425   -7.6560547     761.5229  0.019641053  0.019196417            7 
 3232000   0.73332016   -7.6547346    759.97753   0.01959513  0.019190518            4 
 3233000   0.73936924   -7.6742198    761.96194  0.019640219  0.019184615            7 
 3234000    0.7478994   -7.6565211    761.15084  0.019613246  0.019178732            3 
 3235000   0.74301092   -7.6493639    761.50951  0.019616422  0.019172844            3 
 3236000   0.72151851   -7.6654851    760.94133  0.019595728  0.019166942            3 
 3237000   0.73469622   -7.6489584    761.42551   0.01960214  0.019161035            4 
 3238000   0.73629211   -7.6708362    760.58059  0.019574341  0.019155119            3 
 3239000   0.72725297   -7.6480019    761.87584  0.019601622  0.019149197            3 
 3240000   0.74154153   -7.6835938    760.06707   0.01954905  0.019143272            3 
 3241000   0.72668455   -7.6827411    760.77605  0.019561248  0.019137323            4 
 3242000   0.72860296    -7.647356    761.83734  0.019582494  0.019131385            9 
 3243000   0.73865875   -7.6562572    760.98518  0.019554558  0.019125455           11 
 3244000   0.74528999    -7.633872    761.74823  0.019568132  0.019119538            3 
 3245000   0.74658037   -7.6629311    762.02347   0.01956917  0.019113638            7 
 3246000   0.71427178   -7.6415387    762.83354  0.019583938  0.019107751            4 
 3247000   0.71248852   -7.6530758    761.31777  0.019539004  0.019101867            5 
 3248000   0.72644453   -7.6509017    760.72164  0.019517694  0.019095968            4 
 3249000   0.72004107   -7.6571706    761.10247  0.019521454  0.019090058            6 
 3250000   0.72559541   -7.6380079    761.66878  0.019529969  0.019084184            6 
 3251000   0.71279448   -7.6384976    762.75866  0.019551898  0.019078293            6 
 3252000   0.72430902   -7.6733772    761.93354  0.019524742  0.019072422            5 
 3253000   0.72578399   -7.6677948    762.05461  0.019521842  0.019066547            5 
 3254000   0.71848894   -7.6661318    761.83488  0.019510215  0.019060695            4 
 3255000   0.72389726   -7.6730651     761.3173   0.01949097  0.019054834            8 
 3256000   0.71567821   -7.6861027    759.44851  0.019437155  0.019048952            4 
 3257000   0.74086161    -7.675954    761.97588  0.019495852  0.019043069            4 
 3258000   0.71765369   -7.6502118    762.30261  0.019498225  0.019037163            3 
 3259000   0.72647746   -7.6649891    762.39984  0.019494729  0.019031283            4 
 3260000   0.72215218   -7.6384273     761.5645  0.019467395  0.019025426           12 
 3261000   0.72381904   -7.6627006    761.25876  0.019453612  0.019019573            5 
 3262000   0.73473541   -7.6569916    759.87318  0.019412252  0.019013708            6 
 3263000   0.73909286   -7.6613668    761.88439  0.019457666  0.019007843            8 
 3264000   0.73774238      -7.6914    761.70683  0.019447172  0.019001958            6 
 3265000   0.74055169   -7.6574909    762.70642  0.019466728  0.018996095            4 
 3266000   0.73407267   -7.6628576    762.43417  0.019453821  0.018990224            6 
 3267000   0.72323754   -7.6482487    761.02092  0.019411818  0.018984375            8 
 3268000   0.73313087   -7.6548365    762.78632  0.019450896  0.018978545            3 
 3269000    0.7250284   -7.6393264    764.15846  0.019479924  0.018972711            4 
 3270000   0.73054879   -7.6572405    764.19384  0.019474868  0.018966905            5 
 3271000   0.72491174   -7.6522586    762.88072  0.019435461  0.018961102            3 
 3272000   0.73366401    -7.676136     763.3979  0.019442693  0.018955302            3 
 3273000   0.73128898   -7.6391419    763.26786  0.019433442  0.018949494            3 
 3274000   0.72506346   -7.6481984    762.29138  0.019402652  0.018943678            3 
 3275000   0.73421093   -7.6587743    763.54689  0.019428674  0.018937879            6 
 3276000   0.72868074   -7.6439863    763.75051  0.019427923  0.018932083            3 
 3277000   0.73205338   -7.6602011     761.9024  0.019374997  0.018926297            2 
 3278000   0.71523285   -7.6689413    762.53688  0.019385216  0.018920499            4 
 3279000   0.71689998   -7.6841843    764.92128  0.019439902  0.018914701            4 
 3280000   0.71245361    -7.663317    763.33006  0.019393548  0.018908902            3 
 3281000   0.73832205   -7.6952039    763.92177  0.019402666  0.018903107            2 
 3282000   0.72672384    -7.668165    763.36487  0.019382614  0.018897315            3 
 3283000   0.72024985   -7.6805644    764.14819  0.019396593  0.018891531           13 
 3284000   0.73610655   -7.6656223    763.01833  0.019362016  0.018885731            7 
 3285000    0.7311329   -7.6696508    762.47059  0.019342227  0.018879944            4 
 3286000     0.735172   -7.6696675    765.13927  0.019404019  0.018874175            5 
 3287000   0.73387754   -7.6767138     764.3235  0.019377434  0.018868392            4 
 3288000    0.7262929   -7.6782827    762.69695  0.019330316  0.018862604            6 
 3289000   0.72687254   -7.6669948    764.14386  0.019361099  0.018856807           20 
 3290000   0.72884092   -7.6918342    763.64234  0.019342511  0.018851011            5 
 3291000   0.72189067   -7.6734568     763.9895  0.019345424  0.018845223            8 
 3292000   0.73433747   -7.6601719    764.42303  0.019350522  0.018839427            4 
 3293000   0.73724201   -7.6979349    765.06355  0.019360855  0.018833651            5 
 3294000   0.73205462   -7.6874858    763.41674  0.019313316  0.018827865            3 
 3295000   0.72097436     -7.65718     763.0093   0.01929715  0.018822061            4 
 3296000   0.72509948   -7.6965171    763.36725  0.019300345  0.018816255           10 
 3297000   0.72382741    -7.697892    761.90427  0.019257514  0.018810444            6 
 3298000   0.72242659    -7.682229    764.02836  0.019305346  0.018804653            7 
 3299000   0.71618768   -7.7031387    764.59048  0.019313693  0.018798853            5 
 3300000    0.7500707   -7.6967159    764.16674   0.01929714  0.018793062            7 
 3301000   0.73439003   -7.7008834    763.82773  0.019282736  0.018787279            8 
 3302000   0.72606887   -7.6916849    762.63438  0.019246779  0.018781498            7 
 3303000   0.72535372   -7.6922008    763.10194  0.019252748  0.018775706            7 
 3304000   0.71245452   -7.6677667    764.24583  0.019275773   0.01876994            7 
 3305000   0.72161481   -7.6754383    764.83865  0.019284888  0.018764183            4 
 3306000   0.71723009   -7.6972216    764.93654  0.019281522  0.018758413            6 
 3307000   0.69821868   -7.7169492    762.64425  0.019217928  0.018752629            4 
 3308000   0.73030689   -7.7116672    762.40155  0.019206004  0.018746824            2 
 3309000    0.7332698   -7.6972618    763.21391  0.019220659  0.018741037            3 
 3310000   0.73645048   -7.6957493    764.78847  0.019254493  0.018735271            4 
 3311000   0.70822271   -7.6970787    764.45968  0.019240403  0.018729499            7 
 3312000   0.70840999    -7.691055    764.09326  0.019225374  0.018723716            4 
 3313000   0.70958075   -7.6965563    764.22814  0.019222964  0.018717951            4 
 3314000    0.7047281   -7.6732023    764.42988  0.019222236  0.018712175            3 
 3315000   0.71224897   -7.6963812     764.1935  0.019210495  0.018706409            5 
 3316000   0.72920366   -7.7040333    761.99704  0.019149503   0.01870065            5 
 3317000   0.71064384    -7.685461    763.69758  0.019186453  0.018694902            4 
 3318000   0.72631094   -7.7069543    762.95827  0.019162102  0.018689166            4 
 3319000   0.70711637   -7.6961343    763.40239   0.01916748  0.018683403            4 
 3320000   0.72344261   -7.7087657    764.21795  0.019182177  0.018677635            6 
 3321000   0.72091201   -7.6841818    764.59811  0.019185941  0.018671879            3 
 3322000   0.72022517   -7.6763552    765.67605  0.019207206  0.018666109            5 
 3323000   0.72444311   -7.6795883    763.32157  0.019142381  0.018660355            6 
 3324000   0.72356963   -7.7068087    763.70406  0.019146211  0.018654626            7 
 3325000   0.71385022   -7.7092647    765.36018   0.01918196  0.018648894            6 
 3326000   0.71466196   -7.6909141     764.8287  0.019162876  0.018643156            9 
 3327000    0.7319766    -7.701106    764.19712  0.019141296  0.018637425           11 
 3328000     0.712242   -7.7136998    763.57227  0.019119899  0.018631691            6 
 3329000   0.71679781   -7.6795613    765.04392  0.019150994   0.01862596            6 
 3330000   0.70911398   -7.6974563    765.70985  0.019161908   0.01862023            6 
 3331000   0.71273104   -7.7008844    765.04423  0.019139503  0.018614539            4 
 3332000   0.71908767   -7.6984031    765.49049   0.01914492  0.018608838            4 
 3333000   0.70812768   -7.6932904    765.32746    0.0191351  0.018603139            3 
 3334000   0.73094813   -7.7075338    767.32406  0.019179266  0.018597443            8 
 3335000    0.7052549   -7.6791985    765.12289  0.019118513  0.018591753            3 
 3336000   0.73977049   -7.7210414    765.04043  0.019110722  0.018586047            3 
 3337000   0.71266178   -7.6947353    764.78623  0.019098647  0.018580348            5 
 3338000   0.72478429   -7.6773862    764.30554  0.019080925  0.018574635            4 
 3339000   0.72191745   -7.7135732    764.16544  0.019071714   0.01856894            3 
 3340000   0.72011846   -7.7025351    765.22089  0.019092338  0.018563234            3 
 3341000    0.7034032   -7.6999706    765.03861  0.019082077  0.018557535            1 
 3342000   0.71577025    -7.711756    764.94512  0.019074035  0.018551831            4 
 3343000   0.71345516   -7.6862578    765.68578  0.019086793  0.018546145            4 
 3344000   0.73410556   -7.7058642    763.18431  0.019018748  0.018540484            4 
 3345000   0.72609646    -7.667324    764.88326  0.019055388  0.018534782            2 
 3346000   0.69973304   -7.6726253    765.46798  0.019064255  0.018529093            8 
 3347000   0.72375697   -7.6611097    766.82003  0.019092223  0.018523411            3 
 3348000   0.72253606   -7.6756966    766.30719  0.019073755  0.018517744            3 
 3349000   0.70881022   -7.6799793     765.2285  0.019041219  0.018512086            4 
 3350000   0.72030525   -7.6698997    766.32267  0.019062753  0.018506402            2 
 3351000   0.70639878   -7.6783037    764.18698  0.019003953  0.018500734            5 
 3352000   0.71502871   -7.6943358    766.36413   0.01905241  0.018495062            4 
 3353000   0.71337315   -7.6910578    765.56474   0.01902686  0.018489378            7 
 3354000    0.7107618   -7.6829048    767.74235  0.019075292  0.018483696            4 
 3355000   0.72088877   -7.6970863    765.67842  0.019018341  0.018478022            9 
 3356000    0.7175593   -7.6994623    764.94251  0.018994401  0.018472339           10 
 3357000   0.71742556   -7.6864339     767.4414  0.019050774  0.018466687            5 
 3358000   0.71349755   -7.7071198    766.65013  0.019025465  0.018461053            5 
 3359000   0.72412079   -7.6983765    764.93987  0.018977371  0.018455418            4 
 3360000   0.72233762   -7.6926363    765.60278  0.018988164  0.018449772            4 
 3361000   0.70810047   -7.7084103    766.13386  0.018995682  0.018444117            5 
 3362000   0.69238046   -7.6998424    766.29534  0.018994035  0.018438475            5 
 3363000   0.72165796   -7.7102684    767.18443  0.019010418  0.018432854            4 
 3364000   0.71014825   -7.7010684    768.27491   0.01903178  0.018427219            5 
 3365000   0.70607471   -7.6894938    767.30932  0.019002212   0.01842158            8 
 3366000   0.70481288   -7.6913578    767.61859  0.019004223  0.018415947            4 
 3367000   0.70912818    -7.709564    768.18871   0.01901269  0.018410349            3 
 3368000   0.71723153    -7.699952    766.36469  0.018961913  0.018404724            2 
 3369000   0.71085172   -7.7014866    766.45616  0.018958548    0.0183991            6 
 3370000   0.70654408    -7.679987    766.58486  0.018956104  0.018393473            4 
 3371000   0.70722649   -7.7053852    766.44413  0.018947002  0.018387839            4 
 3372000   0.70450155   -7.7069596    765.51635  0.018918455  0.018382178            6 
 3373000   0.72518454   -7.7141516    764.55535  0.018889104  0.018376543            5 
 3374000    0.7189225   -7.7216006    765.64475  0.018910412  0.018370924            3 
 3375000   0.70298359   -7.7073561    767.75963  0.018957028  0.018365285            3 
 3376000   0.71335751   -7.7289927    765.78505  0.018902672  0.018359654            2 
 3377000   0.70269292    -7.721715    766.09761  0.018904788  0.018354004            2 
 3378000   0.70987298   -7.7549785    766.73089  0.018914814   0.01834836            4 
 3379000   0.70617702   -7.7319582    767.02548  0.018916481   0.01834273            6 
 3380000   0.70796153   -7.7180227    766.33154  0.018893776  0.018337101            2 
 3381000   0.70735254   -7.7122956    767.11965  0.018907612  0.018331482            4 
 3382000   0.72751347   -7.7115239    767.27681  0.018905894  0.018325865            4 
 3383000   0.70807978   -7.6921689    764.78292  0.018838874  0.018320277            3 
 3384000   0.71179368   -7.7041488    764.93293  0.018837001  0.018314673            4 
 3385000   0.70892242   -7.7187575    765.57504  0.018847244  0.018309056            4 
 3386000   0.69116279   -7.7032133    767.32367  0.018884713  0.018303439            4 
 3387000   0.69911268   -7.6936808    766.98491  0.018870803  0.018297827            8 
 3388000   0.71606181   -7.7116058    769.02931  0.018915518  0.018292236            4 
 3389000   0.71909372   -7.6604358    768.97655  0.018908639  0.018286656            3 
 3390000   0.71766608    -7.678759    767.58911  0.018868955  0.018281062           10 
 3391000   0.69574504   -7.6981685    766.38467  0.018833792  0.018275463            6 
 3392000   0.69893483   -7.7004012    768.94674  0.018891184  0.018269866            9 
 3393000   0.70879112   -7.7268621    766.27371  0.018819965  0.018264269            6 
 3394000   0.70506809   -7.7447589    766.30888  0.018815284   0.01825866            4 
 3395000   0.71450994   -7.7309609     767.3056  0.018834207  0.018253041            4 
 3396000   0.73362194    -7.711645    767.16308  0.018825164  0.018247433            3 
 3397000   0.71230647   -7.7433434     766.8198  0.018811201  0.018241835            4 
 3398000   0.72389272    -7.692724    768.93286  0.018857486  0.018236245            6 
 3399000   0.70679561   -7.7286543    767.94035  0.018827605  0.018230681            3 
 3400000   0.68983126   -7.7404724    768.06892  0.018825219  0.018225099            5 
 3401000   0.70309693   -7.7145466     766.9971  0.018793421  0.018219524            7 
 3402000   0.70516255   -7.7107054    767.57599  0.018802077  0.018213976            4 
 3403000    0.6913126   -7.7212931    768.01044  0.018807191  0.018208434            3 
 3404000   0.71897304    -7.715557    767.08654  0.018779048  0.018202884           11 
 3405000   0.69037235   -7.7263383    767.77779   0.01879045  0.018197326            7 
 3406000   0.70087975   -7.7338177    767.28164  0.018772794  0.018191773            3 
 3407000   0.69789788   -7.7079779    769.65268  0.018825278  0.018186214            4 
 3408000   0.72396806     -7.69738    770.43848  0.018838969  0.018180676            8 
 3409000   0.70514641   -7.7253272    769.92933  0.018820997  0.018175144            3 
 3410000   0.71091508   -7.7304524    769.14553  0.018796323  0.018169605            4 
 3411000   0.70540947   -7.7146707    767.76889   0.01875718  0.018164067            3 
 3412000   0.70459286   -7.7451165    768.28063  0.018764181  0.018158519            9 
 3413000   0.68736159   -7.7360298    769.04435  0.018777331  0.018152957            4 
 3414000   0.70009608   -7.7101518    768.03274  0.018747138  0.018147397            7 
 3415000   0.70092163   -7.6771431    768.48556  0.018752698  0.018141843            3 
 3416000   0.69945636   -7.7172678    768.03473   0.01873621  0.018136292            8 
 3417000   0.67944482   -7.7225231    768.44562  0.018740748  0.018130748            6 
 3418000   0.70714664   -7.7270334    768.12208  0.018727377  0.018125207            2 
 3419000   0.69603703   -7.7102739    767.56755  0.018708383   0.01811966            8 
 3420000   0.68789297    -7.723885    769.55025  0.018751225  0.018114109            3 
 3421000   0.70675299   -7.7103768    767.87229  0.018704869  0.018108575            3 
 3422000   0.71088728   -7.7002668    768.28035   0.01870934  0.018103033            6 
 3423000   0.69376385   -7.7254011    768.37024  0.018706063  0.018097487            3 
 3424000   0.70236684   -7.7239936    767.95644  0.018690529  0.018091947            3 
 3425000   0.71009248   -7.7455367    765.57546   0.01862714  0.018086407            6 
 3426000   0.70438989   -7.6983494    768.83321  0.018700944  0.018080879            5 
 3427000   0.71589349   -7.7409169    767.87442  0.018672173  0.018075346            7 
 3428000   0.70832395   -7.7347758    767.76813  0.018664142  0.018069815            4 
 3429000   0.69277919   -7.7271955    768.58468  0.018678543   0.01806428            7 
 3430000   0.69154703   -7.7357956    767.28314  0.018641476  0.018058736            8 
 3431000   0.69640486   -7.7232506    767.03341  0.018629977  0.018053191            6 
 3432000   0.72339174   -7.7239422    769.05495  0.018673634  0.018047636            7 
 3433000    0.7037281   -7.7375071    767.92978  0.018640882  0.018042094            4 
 3434000   0.69762375   -7.7221949    767.78499   0.01863194  0.018036545            7 
 3435000   0.70502704   -7.7580232     766.0977  0.018585582     0.018031            8 
 3436000    0.7060604   -7.7256531    768.35104  0.018634823  0.018025455           13 
 3437000   0.69540133   -7.7155347    767.19539  0.018601382  0.018019923            5 
 3438000   0.69334719   -7.7734425    768.42569  0.018625792  0.018014373            6 
 3439000   0.69944619   -7.7262766    768.10168  0.018612525  0.018008824            5 
 3440000   0.71127577   -7.7404021    768.12442  0.018607665   0.01800327            5 
 3441000     0.709334   -7.7149821    767.22871  0.018580565  0.017997717            8 
 3442000   0.70719951    -7.711561    767.70106  0.018586603  0.017992179           11 
 3443000   0.70497753   -7.7537561    767.41471  0.018574274  0.017986642            6 
 3444000   0.69436236   -7.7311668    767.22277  0.018564237  0.017981112            5 
 3445000   0.69332839   -7.7680786    767.59207  0.018567781  0.017975587            4 
 3446000    0.6955654   -7.7535495    768.73288  0.018589981  0.017970078           10 
 3447000   0.69585824   -7.7071676    769.78585  0.018610044  0.017964575            1 
 3448000   0.68588817   -7.7253779    769.64906   0.01860134  0.017959072            4 
 3449000   0.71640233    -7.724144     769.3726  0.018589267  0.017953586            4 
 3450000   0.69420439   -7.7259021     768.7794  0.018569551  0.017948095            6 
 3451000   0.70139469   -7.7159836    769.12907  0.018572614  0.017942629            4 
 3452000   0.69906754   -7.7007417    770.71368  0.018605487   0.01793716            3 
 3453000   0.69733465   -7.7182918     768.7757  0.018553328  0.017931693            5 
 3454000   0.69696797   -7.7343494    768.27685  0.018535921  0.017926202            7 
 3455000   0.71955544   -7.7035837    769.81801  0.018567728  0.017920726            5 
 3456000   0.70564237      -7.7306    767.98031  0.018518044  0.017915242            5 
 3457000   0.69564387   -7.7342886    767.69298  0.018505761  0.017909757            6 
 3458000    0.7012324   -7.7161951    768.11893  0.018510674   0.01790428            4 
 3459000   0.69812005   -7.7223249    767.75881  0.018496647  0.017898779            4 
 3460000   0.69398864   -7.7453686    769.33252  0.018529203  0.017893268            5 
 3461000   0.69336556   -7.7686136    768.05552  0.018493102  0.017887763            2 
 3462000   0.68916377   -7.7557478     768.4894  0.018498204  0.017882251            7 
 3463000   0.69952542   -7.7589691    768.13486  0.018484331  0.017876723            3 
 3464000   0.69154864   -7.7492869    768.71376  0.018492922  0.017871214            3 
 3465000   0.69376995   -7.7389927    767.61604  0.018461184  0.017865696            5 
 3466000   0.70069913   -7.7558703    767.65353  0.018456759  0.017860181            3 
 3467000   0.69333751   -7.7326369    767.05243  0.018436988  0.017854669            5 
 3468000   0.69223998   -7.7327643    771.16008  0.018530375  0.017849177            3 
 3469000   0.67390425   -7.7340489    769.24993  0.018479147  0.017843696            4 
 3470000   0.69442653   -7.7431116    770.14582  0.018495337  0.017838218            5 
 3471000    0.6952707   -7.7469781     769.9953  0.018486395  0.017832742            7 
 3472000   0.69467496    -7.734555    769.55131  0.018470413  0.017827272            4 
 3473000   0.70266201   -7.7248535    769.60976  0.018466498  0.017821786            8 
 3474000   0.68751186   -7.7486914    770.14709  0.018474071  0.017816327            4 
 3475000   0.68272687   -7.7360638    769.11105   0.01844391  0.017810861            9 
 3476000    0.6966219   -7.7202513    770.94104  0.018482476  0.017805397            5 
 3477000   0.69896233   -7.7471716    769.10315  0.018433112  0.017799939           11 
 3478000   0.69211248   -7.7362821    770.83112  0.018469214  0.017794482            5 
 3479000   0.68880243   -7.7155541     769.6107  0.018434672  0.017789043            3 
 3480000    0.7059945   -7.7489856    770.67928  0.018454964  0.017783603            4 
 3481000   0.71659397   -7.7158178    770.81853  0.018452995  0.017778159            3 
 3482000   0.69529655   -7.7457217    768.91854  0.018402224  0.017772716            5 
 3483000    0.7154529   -7.7317049    769.47413  0.018410234  0.017767268            7 
 3484000   0.69125764   -7.7406036    770.02802  0.018418198  0.017761837           10 
 3485000   0.69315926   -7.7354138    770.03837   0.01841316  0.017756401            4 
 3486000   0.69790383   -7.7509308    770.36288  0.018415636  0.017750974            5 
 3487000   0.68059708   -7.7433494    770.84099  0.018421781  0.017745549            3 
 3488000   0.69675231   -7.7281654    769.16818  0.018376533  0.017740116            4 
 3489000   0.69056794   -7.7344204     768.9487  0.018366024  0.017734677            3 
 3490000   0.68386644   -7.7363242     771.4226  0.018419833  0.017729241            6 
 3491000   0.70080764   -7.7200685    771.39253  0.018413839  0.017723833            5 
 3492000   0.70453236   -7.7222997    770.51131  0.018387536  0.017718418           12 
 3493000   0.68454752   -7.7296503    770.43128  0.018380363     0.017713            3 
 3494000   0.68431738   -7.7338211    770.75484  0.018382819  0.017707578            3 
 3495000    0.7008794   -7.7713961    771.23959  0.018389118  0.017702152            4 
 3496000   0.69333522      -7.7571    769.14968  0.018334041  0.017696708            5 
 3497000   0.68204584   -7.7437921    769.07532  0.018327026  0.017691257            5 
 3498000   0.70121403   -7.7572259    769.43224   0.01833029  0.017685818            5 
 3499000   0.70038355   -7.7704441    770.13113  0.018341696  0.017680377            4 
 3500000   0.69915522   -7.7600165    769.05774  0.018310899  0.017674927            4 
 3501000   0.69066672   -7.7756871    768.84091  0.018300507  0.017669472            5 
 3502000   0.68536765   -7.7798038    769.02679  0.018299705  0.017664029            3 
 3503000   0.68967457   -7.7622676      770.651  0.018333119  0.017658595            8 
 3504000    0.6864663   -7.7610768    769.40847  0.018298337  0.017653161            8 
 3505000   0.70586326   -7.7452453    769.54986  0.018296478  0.017647718            4 
 3506000    0.6890237   -7.7475953    771.50833   0.01833781  0.017642293            4 
 3507000   0.68309374   -7.7229464    770.52052  0.018309109  0.017636892            4 
 3508000   0.70969772   -7.7517399    770.34775  0.018299785  0.017631476            3 
 3509000   0.68041784   -7.7821554    768.47494  0.018250094  0.017626035            9 
 3510000   0.69197784   -7.7713629    768.17778  0.018237839  0.017620591           11 
 3511000   0.69315097   -7.7471303    771.18858  0.018304106  0.017615156            9 
 3512000      0.68701   -7.7790764    770.89048  0.018291821  0.017609728            6 
 3513000   0.69154266   -7.7722871    771.23069  0.018294684  0.017604312            6 
 3514000   0.69656164   -7.7591861     770.2635  0.018266541  0.017598895            3 
 3515000    0.6772044    -7.791664    769.27334   0.01823787  0.017593469            9 
 3516000   0.69823917   -7.7775061    769.00984  0.018226437  0.017588039           10 
 3517000   0.68053124   -7.7715772    770.88433   0.01826567  0.017582632            8 
 3518000   0.68251869    -7.770312    769.30622  0.018223096   0.01757722            6 
 3519000   0.67611349   -7.7958421    768.35485  0.018195388  0.017571804            4 
 3520000   0.68356406   -7.7732713    770.18153  0.018233464   0.01756638            3 
 3521000   0.69612605   -7.7778635     771.2825  0.018254343  0.017560979            4 
 3522000   0.70130891    -7.765484    770.83498  0.018238571  0.017555573            2 
 3523000   0.67226504   -7.7672092    770.35848  0.018222123   0.01755017            4 
 3524000    0.6725658   -7.7548944    772.38274  0.018264821  0.017544777            4 
 3525000   0.68736908   -7.7551186    770.79889  0.018222196  0.017539398            4 
 3526000    0.6728684   -7.7625255    770.50059  0.018209978  0.017534006            4 
 3527000   0.68556222   -7.7622409    770.56692  0.018206382   0.01752861            4 
 3528000   0.68295166   -7.7900307    768.55727  0.018153753   0.01752321           10 
 3529000   0.69290179    -7.778537    770.87128  0.018203251  0.017517799            5 
 3530000   0.68951334   -7.7841482    770.06448  0.018179048  0.017512406            6 
 3531000   0.69020719   -7.7474073    770.90015  0.018193622  0.017507023            5 
 3532000   0.68491444   -7.7636549    770.65029  0.018182576  0.017501655            4 
 3533000    0.6856306   -7.7829071    769.29582  0.018145481  0.017496274            4 
 3534000   0.69217953   -7.7681629     769.5017  0.018145201  0.017490883            5 
 3535000   0.69621304   -7.7679015    769.48758  0.018139736  0.017485491            5 
 3536000    0.6714893   -7.7741584    770.76089  0.018164614  0.017480101            4 
 3537000   0.67941314   -7.7640003    770.64037  0.018156639  0.017474736            3 
 3538000   0.68387818   -7.7439527     770.5749  0.018149965  0.017469374            5 
 3539000   0.70332351   -7.7604631    769.71634  0.018124619     0.017464            6 
 3540000   0.67656312   -7.7540535    771.34103  0.018157746  0.017458629            6 
 3541000   0.67166896   -7.7760978     769.9622  0.018120168  0.017453262            6 
 3542000   0.67049249    -7.786003    770.13659  0.018119156  0.017447895            3 
 3543000   0.67165882   -7.7811859    771.07795  0.018136183  0.017442514            3 
 3544000   0.68351391   -7.7832492    771.82106  0.018148539  0.017437147            8 
 3545000   0.69029699   -7.7678767    768.78278  0.018071998  0.017431787            4 
 3546000   0.68369271   -7.7777701    770.11273  0.018098156  0.017426429            3 
 3547000   0.68937452   -7.7747205     771.0939  0.018116105  0.017421082            5 
 3548000   0.68380193   -7.7646165    771.68538  0.018124891  0.017415749            2 
 3549000   0.67347957   -7.7673078     771.4132  0.018113393  0.017410409            8 
 3550000   0.68938933   -7.7676868     771.3048  0.018105746  0.017405072            6 
 3551000   0.69201161   -7.7782936    771.98731  0.018116665  0.017399729            9 
 3552000   0.69288257    -7.774951    770.78137  0.018083272  0.017394395            4 
 3553000   0.67822811   -7.7869753    770.92532  0.018081558   0.01738906            3 
 3554000   0.67860242    -7.758018    771.03388  0.018079016  0.017383741            6 
 3555000   0.67790708   -7.7811016    771.97392  0.018095966  0.017378411            4 
 3556000   0.67795981   -7.7738941    771.55751  0.018081119  0.017373086            5 
 3557000   0.67009115   -7.7481211    772.06607   0.01808795  0.017367763           12 
 3558000   0.67483427   -7.7629839    770.67762  0.018050347  0.017362457           11 
 3559000   0.67530329   -7.7692476    770.50936  0.018041335   0.01735714            6 
 3560000   0.69740469   -7.7937799    772.70797  0.018087733  0.017351815            6 
 3561000   0.66447303   -7.7973738    772.23124  0.018071498  0.017346503            6 
 3562000   0.68068994   -7.7651192    773.04717  0.018085513  0.017341189            7 
 3563000   0.69221998   -7.7731005    771.75478   0.01805021  0.017335881            4 
 3564000   0.67493517   -7.7661693    771.62559  0.018042125  0.017330584            3 
 3565000   0.67779698   -7.7833338    771.46342  0.018033273  0.017325282            5 
 3566000   0.68129072    -7.793337    771.50028  0.018029077  0.017319987            3 
 3567000   0.67665027   -7.7461299    772.96439  0.018058228  0.017314701            2 
 3568000   0.69719745    -7.791099    770.57813  0.017997434  0.017309398            7 
 3569000   0.68592756   -7.7954931    771.23098  0.018007635  0.017304093            5 
 3570000   0.68012747   -7.8111418    771.09053  0.017999312  0.017298791            6 
 3571000   0.69405658   -7.7639716    771.44457  0.018002534  0.017293495            7 
 3572000   0.68362173    -7.773335    771.93459  0.018008926  0.017288212            7 
 3573000   0.69860497   -7.7779106    773.32311   0.01803627  0.017282921           10 
 3574000   0.67285288   -7.7927228    773.26502  0.018029869  0.017277619            6 
 3575000    0.6672931   -7.7751405    773.34233  0.018026628  0.017272311            6 
 3576000   0.67821318    -7.806426    770.88991  0.017964437  0.017267016            6 
 3577000   0.68463364   -7.7862113     769.9832  0.017938291  0.017261711            9 
 3578000   0.69080423   -7.7796267    772.70247   0.01799661  0.017256418            3 
 3579000   0.66832879   -7.8121084    771.54888  0.017964722  0.017251117            5 
 3580000   0.66308286    -7.765754    771.22833  0.017952242  0.017245819            9 
 3581000   0.68418012   -7.8051401    772.73165  0.017982213  0.017240515            4 
 3582000   0.68207465   -7.7949697    770.72079  0.017930411  0.017235203            5 
 3583000   0.67277214   -7.7938048    770.69727   0.01792486  0.017229908            7 
 3584000   0.68321272   -7.8075383    771.32381  0.017934426  0.017224611            3 
 3585000     0.672836   -7.8038606    771.53139  0.017934249  0.017219318            3 
 3586000   0.67288755   -7.7936917     773.0844  0.017965338  0.017214015            8 
 3587000    0.6687541   -7.7913395    772.29761   0.01794205  0.017208726            3 
 3588000   0.68827646   -7.7981693    771.32834  0.017914538  0.017203439            3 
 3589000   0.69205789   -7.7890968     772.0773  0.017926937  0.017198159            5 
 3590000    0.6687183   -7.7957791    771.84428  0.017916534  0.017192869            3 
 3591000   0.68355607   -7.7969588    772.24722  0.017920895  0.017187588            6 
 3592000   0.68203397   -7.7899231    772.31701  0.017917525  0.017182303            6 
 3593000   0.66762731   -7.7830051    771.79262  0.017900376  0.017177026           12 
 3594000   0.68673296    -7.784015    772.71877   0.01791687  0.017171754            6 
 3595000   0.67709783   -7.8105347    774.05676  0.017942901  0.017166477            3 
 3596000   0.68440434   -7.8146533    770.13086  0.017846933  0.017161184            6 
 3597000   0.67552136   -7.8035339    771.00415  0.017862203  0.017155884            4 
 3598000   0.67031249   -7.7756518    772.03441  0.017881101  0.017150603            4 
 3599000   0.67386526   -7.8017375    770.65102  0.017844101  0.017145314            4 
 3600000   0.67531696   -7.8375238    770.84666  0.017843673  0.017140017            6 
 3601000   0.66366445   -7.7877463    771.77155  0.017860121  0.017134707            6 
 3602000   0.68427903   -7.8209926    771.99231   0.01786027   0.01712941            4 
 3603000   0.68006438   -7.8041278    771.86397  0.017852344  0.017124119            2 
 3604000   0.67976743   -7.8131568    774.34714  0.017904808  0.017118833            5 
 3605000   0.68183194   -7.7897909    770.92084  0.017820639  0.017113555            6 
 3606000   0.67209375   -7.8182746    771.24435  0.017823173  0.017108295            6 
 3607000   0.67395417   -7.8136027    772.71731  0.017852262  0.017103034            6 
 3608000   0.66239025   -7.8022543    771.68589  0.017823492  0.017097768            6 
 3609000   0.67802809   -7.7928901    772.67357  0.017841359  0.017092511            5 
 3610000   0.66307565   -7.7981658    773.91725  0.017865126  0.017087247            8 
 3611000   0.68355796    -7.825713    772.13859  0.017819131  0.017081977            3 
 3612000   0.66749575   -7.7876462    772.09046  0.017813087  0.017076713            2 
 3613000   0.65882952   -7.7875613     772.8711  0.017826163   0.01707145            1 
 3614000   0.67965042   -7.8127506    772.00351  0.017801225  0.017066199            2 
 3615000   0.68540998   -7.7724186    771.95235  0.017795121  0.017060951            3 
 3616000   0.66120731    -7.795024    771.67135  0.017783724  0.017055702            4 
 3617000    0.6772568    -7.794123    772.47133  0.017797238  0.017050448            2 
 3618000   0.68082796    -7.803618    772.30632  0.017788519   0.01704521            5 
 3619000   0.67558787   -7.8193176    770.76042  0.017748006  0.017039946            8 
 3620000   0.67182558   -7.8137479     773.2605  0.017800656  0.017034678            8 
 3621000   0.66134792   -7.8266762    771.74068  0.017760763  0.017029407            7 
 3622000   0.66820928   -7.8417804    769.20772  0.017697582  0.017024135            5 
 3623000   0.65848508   -7.8041518    771.16791  0.017737784  0.017018864            3 
 3624000   0.66503769   -7.8151224    772.25524  0.017757893  0.017013608            4 
 3625000   0.67545302   -7.8038436    772.58067  0.017760475  0.017008361            2 
 3626000   0.67066754   -7.8342494    772.21269   0.01774712  0.017003109            7 
 3627000   0.66335789   -7.8228462    771.47659  0.017725314   0.01699786            5 
 3628000   0.66675141   -7.8182668    772.88241   0.01775272  0.016992618            4 
 3629000    0.6766518   -7.8318304    773.63633   0.01776514  0.016987372            4 
 3630000   0.67156626   -7.8029539    773.33544  0.017753339  0.016982128            7 
 3631000   0.67390059   -7.8258761    772.75889  0.017735217  0.016976887            4 
 3632000    0.6705043   -7.8102289    772.46052  0.017723489  0.016971638            9 
 3633000   0.66140685   -7.8198118     773.1585   0.01773462   0.01696639            4 
 3634000   0.67601669   -7.8253901    772.56625  0.017716159  0.016961148            4 
 3635000   0.66658014     -7.82217    773.14575   0.01772457  0.016955927            6 
 3636000   0.66755896   -7.8233323    771.70878  0.017686762  0.016950693            6 
 3637000   0.68215607   -7.7965285    772.11699  0.017691252  0.016945465            6 
 3638000   0.64962163   -7.7732953    773.69884  0.017722623  0.016940245            4 
 3639000   0.68670886   -7.7871655    772.76628  0.017696397  0.016935037            3 
 3640000   0.66056967   -7.8389108    771.19329  0.017655524  0.016929827            3 
 3641000   0.65865323   -7.8043168    772.30383  0.017676093    0.0169246            4 
 3642000    0.6779526   -7.8323309    774.04545  0.017711089  0.016919371            6 
 3643000   0.67243172   -7.8258728    771.93211  0.017657885  0.016914139            4 
 3644000   0.67851508   -7.8105053    771.74114  0.017648672  0.016908908            6 
 3645000   0.65468089   -7.8382812    771.58828  0.017640336  0.016903682            4 
 3646000   0.66788375   -7.8238622    770.97877  0.017621566  0.016898449            6 
 3647000   0.65513783   -7.8391016    773.02132  0.017663406  0.016893226            3 
 3648000   0.66004098   -7.8064375    773.55019  0.017670646  0.016888019            3 
 3649000   0.67106001   -7.8081915     772.5317  0.017642544  0.016882813            8 
 3650000    0.6631871   -7.7971455    773.49661   0.01765974  0.016877615            7 
 3651000   0.67609381   -7.8251904    774.02136   0.01766688  0.016872417            5 
 3652000   0.66363767   -7.8122902    773.23007  0.017643987   0.01686723            8 
 3653000   0.67777634    -7.797631    773.94444  0.017655453  0.016862042            9 
 3654000   0.68037222   -7.8125654    772.32065  0.017613589  0.016856856            6 
 3655000   0.67307164   -7.8254611    772.71631  0.017617791  0.016851673            6 
 3656000   0.66734487   -7.8291735    772.37082  0.017605097  0.016846484            6 
 3657000   0.66719877   -7.7948904    774.20112  0.017641991  0.016841294           11 
 3658000   0.66891901   -7.8112096     773.5428   0.01762217  0.016836119            9 
 3659000   0.66721927   -7.7837516    772.90774  0.017602891  0.016830947            7 
 3660000     0.665539   -7.8060349    775.35801  0.017653871  0.016825772            4 
 3661000   0.66212079   -7.8126343    774.08828  0.017620147  0.016820604           11 
 3662000   0.67526668   -7.8195886     772.3149   0.01757498  0.016815427            9 
 3663000   0.67233974   -7.8055385    773.59158  0.017599226  0.016810265            5 
 3664000   0.66458118   -7.8193596    772.35702  0.017566344  0.016805094            9 
 3665000   0.66274291    -7.805607    773.74383  0.017593084  0.016799939           14 
 3666000    0.6710705   -7.7931695    774.12719  0.017596999   0.01679479            4 
 3667000   0.68301655   -7.8079907    774.36816  0.017597677  0.016789651            8 
 3668000    0.6579339   -7.7966796    773.63598  0.017576245  0.016784508            7 
 3669000   0.66271854   -7.8060282    773.39438  0.017565967  0.016779358            3 
 3670000   0.67861364   -7.8190222    773.85525  0.017571645  0.016774198            3 
 3671000   0.65922072   -7.8250929    774.07945  0.017571948   0.01676904            4 
 3672000   0.66609679    -7.811659     773.8219  0.017561318  0.016763858            3 
 3673000   0.66602799   -7.8123404    774.23525  0.017565915  0.016758687            6 
 3674000   0.67212044   -7.8151087    772.12455  0.017513259  0.016753501            7 
 3675000   0.65931924   -7.8109708    774.16544  0.017554772  0.016748324            4 
 3676000   0.65700533   -7.8072069    773.34254  0.017531342   0.01674315            4 
 3677000   0.66324299   -7.8164494    773.88046  0.017538765  0.016737968            8 
 3678000    0.6712446   -7.8191078    773.27599  0.017520301  0.016732788            5 
 3679000   0.66102708   -7.8143039    773.50942  0.017520826  0.016727609            4 
 3680000   0.66176036   -7.8194034    771.91153  0.017479881  0.016722437            3 
 3681000   0.65936756   -7.8100242    773.03439  0.017500552  0.016717256            5 
 3682000    0.6570871   -7.8383929    772.69338  0.017488081  0.016712087            6 
 3683000   0.66026675    -7.812494    773.96187  0.017512034  0.016706922           10 
 3684000   0.65130096   -7.8360296    771.84009  0.017459285  0.016701745            4 
 3685000   0.66870528   -7.8311121    774.31802  0.017510584  0.016696581           13 
 3686000   0.65686135   -7.7934162    772.62569  0.017467573  0.016691414            7 
 3687000   0.66672812   -7.8331851    772.25525  0.017454463  0.016686261            9 
 3688000   0.66646447   -7.8147987    772.31379  0.017451053  0.016681099           13 
 3689000   0.65759015   -7.8521693    771.90357  0.017437055  0.016675933            7 
 3690000   0.66486254   -7.8187144    773.78142  0.017474738  0.016670768           10 
 3691000   0.65504407   -7.8224792    771.47431  0.017417915  0.016665623            5 
 3692000   0.65990376   -7.8129766    773.52615   0.01745951  0.016660481            5 
 3693000   0.65755778   -7.8156933    774.47626  0.017476222  0.016655331           13 
 3694000   0.66919172   -7.8303474    773.27078  0.017444297  0.016650182            5 
 3695000   0.64913226   -7.8257122     772.2265  0.017416024  0.016645044            5 
 3696000   0.66420327   -7.8505061    772.77938  0.017423778  0.016639885            4 
 3697000   0.64662799   -7.8153691    772.95922  0.017423118  0.016634735            7 
 3698000   0.67136532   -7.8255913    773.83393  0.017438118  0.016629587            9 
 3699000   0.66297477   -7.8250134    774.65693  0.017451945  0.016624457            3 
 3700000    0.6694912   -7.8245096    772.73768  0.017404002   0.01661933            8 
 3701000   0.66503653   -7.8217848    773.32258  0.017412469  0.016614202            6 
 3702000   0.65179961   -7.8442395    772.56917  0.017390806  0.016609071            4 
 3703000   0.65486872   -7.8153526    773.79944  0.017413796  0.016603946            5 
 3704000   0.64408849   -7.8143351    774.08741  0.017415573  0.016598823            5 
 3705000   0.66351604   -7.8438939    772.78312  0.017381537  0.016593703            5 
 3706000   0.65534886    -7.844401    772.88809  0.017379207  0.016588584            8 
 3707000    0.6680969   -7.8295039    773.03549  0.017377832  0.016583449            3 
 3708000   0.66181441   -7.8001604    774.11452  0.017397396  0.016578304            5 
 3709000   0.66105262    -7.845619    772.82142  0.017363652  0.016573166            5 
 3710000   0.66479293   -7.8330638    773.95974   0.01738454  0.016568039            6 
 3711000   0.66435156   -7.8246398    772.48654  0.017346774  0.016562912           12 
 3712000   0.66989813    -7.823647    772.11392  0.017333736  0.016557796            4 
 3713000   0.65212315    -7.823082    772.71076  0.017342463  0.016552682            5 
 3714000   0.66624599   -7.8204052    772.23565  0.017327133  0.016547559            5 
 3715000   0.65434653   -7.8061914    774.04152  0.017362977  0.016542442            4 
 3716000   0.66646221   -7.7994625     774.1053  0.017359735  0.016537333           10 
 3717000   0.67925531   -7.8227124    773.96996   0.01735203  0.016532232            4 
 3718000   0.66007191   -7.8155839     773.0189  0.017326047  0.016527121           11 
 3719000   0.66259426   -7.8036599    772.75136  0.017315393  0.016522004            5 
 3720000   0.65509128   -7.8183172    773.57771   0.01732925  0.016516892            6 
 3721000    0.6588574   -7.8498501    773.09955  0.017313884  0.016511789            5 
 3722000   0.65602531   -7.8299946    774.07302  0.017331028  0.016506684            7 
 3723000   0.65082846   -7.8492111    773.79048  0.017320048  0.016501576            7 
 3724000   0.65454017   -7.8392566    773.20808  0.017302365  0.016496465            4 
 3725000   0.65206877    -7.861178    773.80777  0.017311136  0.016491342            4 
 3726000   0.65461684   -7.8446464     774.3352  0.017318286  0.016486239            5 
 3727000   0.66898003   -7.8503987    773.44431  0.017293719  0.016481144            5 
 3728000   0.66110884   -7.8319076    772.73771  0.017273286  0.016476044            5 
 3729000   0.65766348   -7.8218434    773.68578   0.01728984  0.016470957            3 
 3730000   0.65493508   -7.8340854     772.9512  0.017268794  0.016465869            5 
 3731000   0.66026742   -7.8061986    773.64346  0.017279627  0.016460779            6 
 3732000   0.66443104   -7.8263583    773.66766  0.017275537  0.016455706           10 
 3733000   0.65306664   -7.8531593    773.02121  0.017256479   0.01645061            7 
 3734000   0.64723707   -7.8383031    772.82849  0.017247556  0.016445512            9 
 3735000   0.64724775   -7.8720146    773.10114  0.017249021  0.016440412            3 
 3736000   0.65833761      -7.8431    772.57937  0.017232766  0.016435316            6 
 3737000   0.65177352   -7.8240616    773.63399  0.017251672  0.016430222           11 
 3738000   0.63739908   -7.8331158    772.91841  0.017231104  0.016425126            6 
 3739000   0.65248367   -7.8643896    773.60515  0.017241801  0.016420037            2 
 3740000   0.65885771   -7.8312256     775.0003  0.017268278   0.01641495            3 
 3741000   0.65076539   -7.8468173     774.4796  0.017252063  0.016409863            2 
 3742000   0.65503796   -7.8448075    772.19656   0.01719661  0.016404787            6 
 3743000   0.66586579   -7.8580033    774.25858  0.017237924  0.016399694            8 
 3744000   0.65005453   -7.8492228    773.19231  0.017209587  0.016394613            7 
 3745000   0.65251684   -7.8538238    775.46157  0.017255487  0.016389533            7 
 3746000   0.66289906   -7.8382783    773.65902  0.017210781  0.016384457            4 
 3747000    0.6524063   -7.8555105    773.23395  0.017196734  0.016379385            4 
 3748000   0.65235274   -7.8488874    773.87103  0.017206311  0.016374322            5 
 3749000   0.67784438   -7.8596457     773.1676  0.017186085  0.016369245            3 
 3750000   0.64718062   -7.8514925    773.59409   0.01719098  0.016364176            3 
 3751000   0.65400176   -7.8392118    773.66662  0.017188008  0.016359102            4 
 3752000    0.6377115   -7.8434077    773.11798  0.017171242  0.016354033            6 
 3753000   0.64254127   -7.8570363    773.82963  0.017182468  0.016348968            7 
 3754000   0.65122713   -7.8469507    774.81069  0.017199669  0.016343905            4 
 3755000   0.66567769   -7.8598806    772.99387  0.017154768  0.016338841            4 
 3756000   0.67184509   -7.8518148    773.03766  0.017151173  0.016333772            2 
 3757000    0.6593747   -7.8680141    773.15366  0.017149181   0.01632869           20 
 3758000   0.64448037   -7.8512121    772.44124  0.017128819  0.016323609            8 
 3759000   0.66116681    -7.846459    773.96219  0.017157981  0.016318537            7 
 3760000   0.65216552   -7.8727418    774.83868  0.017172843  0.016313456            3 
 3761000   0.64132907    -7.844025    772.30474  0.017112132  0.016308379            3 
 3762000   0.63938136   -7.8567393    774.65157  0.017159569  0.016303297            6 
 3763000   0.64537815     -7.86346    772.37767  0.017104652  0.016298219           10 
 3764000   0.64313035    -7.852065     773.8065  0.017131742  0.016293149            5 
 3765000   0.65901746   -7.8858742    773.40981  0.017118411  0.016288073            4 
 3766000   0.65273217   -7.8574207    773.65765   0.01711935     0.016283            8 
 3767000   0.65702028   -7.8475195    774.25713  0.017128067  0.016277931            5 
 3768000   0.65610199   -7.8703896    773.79796  0.017113366  0.016272866            9 
 3769000   0.64241671   -7.8597525    773.02635  0.017091765  0.016267791            9 
 3770000   0.64348364   -7.8888393    772.20783  0.017069139  0.016262709            5 
 3771000    0.6429132   -7.8775294    772.94674  0.017080941  0.016257627            4 
 3772000   0.65001981   -7.8884788    772.53729  0.017067367  0.016252551            5 
 3773000   0.65098325   -7.8555873    772.88527  0.017070529  0.016247461            4 
 3774000   0.66161559   -7.8447356    772.22915  0.017051518  0.016242383            7 
 3775000   0.63480901   -7.8783027    770.60852  0.017011226    0.0162373            5 
 3776000   0.65041009     -7.87268    772.63343  0.017051409  0.016232209            5 
 3777000   0.64870125    -7.873734    770.61126  0.017002278  0.016227115            3 
 3778000   0.65570025   -7.8757564    772.69515  0.017043743  0.016222025            5 
 3779000   0.66617009   -7.8766189    771.69516  0.017017182  0.016216938            7 
 3780000   0.65443746   -7.8759725    771.16831  0.017001065  0.016211852           10 
 3781000   0.64018502   -7.8885884    771.65956  0.017007396  0.016206776            5 
 3782000   0.65404344   -7.8735138    772.55531  0.017022636  0.016201701           10 
 3783000    0.6371298   -7.8842351     771.8275  0.017002104  0.016196619            8 
 3784000   0.64745961   -7.8727148    773.00792  0.017023606  0.016191543            5 
 3785000   0.63358776   -7.8771529    773.28248  0.017025154  0.016186476            7 
 3786000   0.64394234   -7.8718224    773.74421   0.01703082  0.016181406           16 
 3787000   0.65506212   -7.8751259    772.39919  0.016996725  0.016176341            6 
 3788000   0.65638318   -7.8764498    773.30593  0.017012186  0.016171279            9 
 3789000   0.65654569   -7.8764388    772.65253  0.016993326  0.016166216           15 
 3790000   0.65705872   -7.8902625    772.16531  0.016978129  0.016161159            7 
 3791000   0.64219072   -7.8676494    772.00514   0.01697013  0.016156101           10 
 3792000   0.64357264   -7.8920145    771.08175  0.016945362  0.016151045           12 
 3793000   0.63552297   -7.8797317    772.01104  0.016961311  0.016145976            7 
 3794000   0.62231935   -7.8832792    773.03931  0.016979426  0.016140911           16 
 3795000   0.64746271   -7.8835585    773.14352   0.01697724  0.016135847           15 
 3796000   0.64469628   -7.8943348     772.4682  0.016957943  0.016130791           20 
 3797000   0.64446665   -7.8583879    772.08831  0.016945139  0.016125747            7 
 3798000   0.65296298   -7.8708307    772.70122  0.016954125  0.016120697            6 
 3799000   0.66005475    -7.864148    772.96084  0.016955357  0.016115657            4 
 3800000   0.64808054   -7.8862362    771.65659  0.016922294  0.016110618            7 
 3801000    0.6357734   -7.8613108    773.65796   0.01696172  0.016105586            8 
 3802000   0.63330584   -7.8585353    774.79126  0.016982099  0.016100554            4 
 3803000    0.6471942   -7.8787804    772.55883  0.016928715  0.016095523            5 
 3804000   0.65859851   -7.8551351    774.23884  0.016961068  0.016090499            6 
 3805000   0.63062342   -7.8389811    773.40091  0.016938259  0.016085484            6 
 3806000   0.64658578   -7.8780212    772.67285  0.016917868  0.016080462            5 
 3807000   0.65147321   -7.8731646    772.95564  0.016919614  0.016075435            4 
 3808000   0.64450473   -7.8679406    772.74036  0.016910459  0.016070413            6 
 3809000   0.64332236    -7.889554    771.95212  0.016888775  0.016065388            3 
 3810000   0.62912015   -7.8795226    773.61547  0.016920723   0.01606037            8 
 3811000   0.65221015   -7.8821327    772.18995  0.016885112  0.016055343            4 
 3812000   0.65068921   -7.8717221    772.73225  0.016892538  0.016050318            4 
 3813000   0.63852149   -7.8706173    772.78913  0.016889351    0.0160453            7 
 3814000   0.65252168   -7.8626268    773.29381  0.016895949  0.016040288            6 
 3815000   0.63386418   -7.8647874    772.70568  0.016878674  0.016035273            5 
 3816000   0.64380063   -7.8586902    772.08851  0.016860773  0.016030264            5 
 3817000   0.63095795   -7.8477458    773.48268  0.016886793  0.016025241            5 
 3818000    0.6321831   -7.8829314    772.01608   0.01685036  0.016020217            5 
 3819000   0.63048848   -7.8962128    772.23293  0.016850679  0.016015188            3 
 3820000   0.63858142   -7.8851219    772.24945  0.016846628  0.016010155            4 
 3821000   0.64398154   -7.8917778    772.33513  0.016844088  0.016005126            7 
 3822000   0.64518031    -7.879896    771.78715  0.016827733  0.016000103            7 
 3823000    0.6424093   -7.8729477    773.06356  0.016851154  0.015995097            8 
 3824000   0.65548263   -7.8812004    772.69779  0.016838777   0.01599009            5 
 3825000   0.64351924   -7.8718456    773.14659  0.016844152  0.015985075            9 
 3826000   0.63567371   -7.8804879    772.58867  0.016827598  0.015980056            5 
 3827000   0.63500285   -7.8754821    771.91741  0.016808584   0.01597504            8 
 3828000   0.64024191    -7.878084    771.82486  0.016802178  0.015970035            9 
 3829000   0.64944381   -7.8815609    772.32956  0.016808774  0.015965031            6 
 3830000   0.64194108   -7.8743293    772.30779  0.016803912  0.015960036            4 
 3831000   0.62961178   -7.8933289    772.83035  0.016810892  0.015955036            4 
 3832000   0.64157325    -7.867983     772.4068  0.016797295  0.015950034            5 
 3833000   0.63495999   -7.8837659    772.36917  0.016792094   0.01594504            4 
 3834000    0.6492199   -7.8922878    774.28617  0.016829381  0.015940049            5 
 3835000   0.64411745   -7.8780862    773.59783  0.016810035  0.015935049            6 
 3836000   0.64849333     -7.89542    773.80729  0.016810204  0.015930055            2 
 3837000    0.6431663   -7.8826929    772.41285  0.016775537  0.015925064            4 
 3838000   0.63025649   -7.8836737     772.2849  0.016768388  0.015920064            6 
 3839000   0.64073089   -7.8784469     772.3357  0.016765123   0.01591507            5 
 3840000   0.63482679   -7.8746766    772.56742  0.016765786  0.015910077            4 
 3841000   0.62914269   -7.8668354    774.29264  0.016798851  0.015905091            6 
 3842000   0.63767913   -7.8619658    772.94104  0.016765162   0.01590012            6 
 3843000   0.62377661   -7.8982005     772.7294   0.01675621  0.015895141            7 
 3844000   0.63413486    -7.869974    772.56021  0.016748184  0.015890163            6 
 3845000   0.63258763   -7.8704545    772.20748  0.016736183   0.01588517            5 
 3846000   0.64291434   -7.8759875    773.65415  0.016763177  0.015880199            4 
 3847000   0.64198358   -7.8897439    772.25963  0.016728612  0.015875218            4 
 3848000    0.6443423   -7.8868591    774.08773  0.016763854  0.015870236            4 
 3849000   0.63767488   -7.8749724    774.19805  0.016761887  0.015865266            7 
 3850000   0.62673903   -7.8847456    772.74576  0.016726099   0.01586029            3 
 3851000   0.63290795   -7.8922233    772.57859  0.016718138  0.015855311            5 
 3852000   0.65426135   -7.8846918    772.95629  0.016721969  0.015850333            4 
 3853000   0.64667099   -7.9077372    772.52302  0.016708258   0.01584536            4 
 3854000   0.63236503   -7.8910974    772.82196  0.016710387  0.015840383           10 
 3855000   0.66005536   -7.8995157    772.62012  0.016701689   0.01583541            4 
 3856000   0.62318523    -7.886783    773.34268  0.016712973  0.015830444            4 
 3857000   0.63357927   -7.8936362    772.89033  0.016698866  0.015825468            5 
 3858000    0.6329714   -7.8978051    772.85751  0.016693829  0.015820492            4 
 3859000   0.61991147   -7.8885444    772.08459  0.016672812  0.015815519            4 
 3860000   0.63735844    -7.873635    772.21153  0.016671233  0.015810545            6 
 3861000   0.63199133   -7.8996584     772.5635  0.016674512  0.015805572            8 
 3862000   0.63434201   -7.8966491     772.4035  0.016666742  0.015800604            3 
 3863000   0.62943656   -7.8900924    772.43464  0.016663099  0.015795633            9 
 3864000   0.62952937   -7.8859839    772.83154  0.016667347  0.015790673            7 
 3865000   0.62525693   -7.8933594    772.73575  0.016660969  0.015785712           10 
 3866000   0.63504075   -7.8945164     773.6298  0.016675931   0.01578074            3 
 3867000   0.62444238   -7.8898948    772.64909  0.016650485  0.015775767            5 
 3868000   0.63591481   -7.8695164    772.65142   0.01664623  0.015770792            2 
 3869000   0.64579474   -7.9054185    772.38722  0.016636237  0.015765826            7 
 3870000   0.64740637   -7.9092693     771.4352  0.016611438  0.015760852            4 
 3871000   0.62322189   -7.9064555    772.35049  0.016626851  0.015755888            5 
 3872000   0.63790717   -7.9042839    772.24565  0.016620301  0.015750927            4 
 3873000   0.63326563   -7.9069263    773.67112   0.01664668  0.015745964            3 
 3874000    0.6229427    -7.893722    773.01732   0.01662832  0.015741012            3 
 3875000   0.63859952   -7.8879804    771.98966  0.016601928  0.015736061            7 
 3876000   0.63813056   -7.8961852     771.7293  0.016592047  0.015731112            8 
 3877000   0.62805347   -7.8928366    773.52284  0.016626319  0.015726163            7 
 3878000    0.6268459   -7.8755431    772.71525  0.016604677  0.015721231            2 
 3879000    0.6350646    -7.890318     773.0573  0.016607745  0.015716302            6 
 3880000   0.62273963   -7.8864802    773.10021  0.016604386  0.015711377            3 
 3881000   0.64046772   -7.8985176    773.80549  0.016615251  0.015706439            5 
 3882000   0.63911333   -7.8843422    773.45329  0.016603411  0.015701509            4 
 3883000   0.63273066   -7.8851938    773.49149  0.016599955  0.015696574            5 
 3884000   0.61924207   -7.8881366     772.1425  0.016566737  0.015691633            7 
 3885000   0.62614157   -7.9067955    772.55877  0.016571402  0.015686691            6 
 3886000   0.63921915   -7.8908809     772.6526   0.01656915  0.015681751            6 
 3887000   0.62950798   -7.8986588    772.06525  0.016552295  0.015676813           11 
 3888000   0.62867488     -7.90724    770.86013  0.016522208  0.015671879            2 
 3889000   0.62591466   -7.8968657    771.54541  0.016532644  0.015666948            7 
 3890000   0.63206886   -7.9052019    772.51029  0.016549064  0.015662016            6 
 3891000   0.62042646   -7.8927972    772.42301  0.016542941  0.015657095            8 
 3892000   0.62335829   -7.8954746    772.52483  0.016540871  0.015652167            5 
 3893000   0.61689688   -7.9207532    770.88391  0.016501496   0.01564724            6 
 3894000   0.63550284   -7.8919636    772.01331  0.016521429  0.015642326            6 
 3895000   0.63031197   -7.8676738    771.90547   0.01651488  0.015637425            8 
 3896000   0.63935389   -7.8795954    774.48848   0.01656589   0.01563252            4 
 3897000   0.62786552    -7.879396    772.92645  0.016528237  0.015627623            4 
 3898000   0.63555792   -7.9025266    772.94557  0.016524405   0.01562272            3 
 3899000   0.63570841   -7.8947591     772.6352  0.016513533  0.015617822           12 
 3900000   0.63295157   -7.8832111    770.97462  0.016473817   0.01561293           16 
 3901000   0.62079972   -7.9025404    773.75311  0.016528948  0.015608024           10 
 3902000   0.63273207   -7.8840668    772.92502  0.016507027  0.015603127            5 
 3903000   0.62395071   -7.9024546    772.80386  0.016500211  0.015598209           13 
 3904000   0.62254467   -7.8829765    774.20646  0.016525923  0.015593308            3 
 3905000    0.6143038   -7.9169869     773.9675  0.016516592  0.015588413            4 
 3906000   0.63216303   -7.8971993    771.91149  0.016468499  0.015583519            5 
 3907000    0.6264804   -7.8979582    772.57937  0.016478529  0.015578627            6 
 3908000   0.64036271   -7.9297443    773.00061  0.016483295  0.015573736            5 
 3909000   0.62459731   -7.9089101    772.29155  0.016463962  0.015568847            3 
 3910000   0.62938331   -7.8921989    772.75732  0.016469679  0.015563955            9 
 3911000   0.61800267   -7.8970247    770.77654  0.016423262  0.015559049            4 
 3912000   0.62045264   -7.9194688    771.76343  0.016440087  0.015554153            6 
 3913000   0.62400512   -7.9148138    772.17334  0.016444615  0.015549254            5 
 3914000   0.62898505    -7.909274     772.7438  0.016452559  0.015544356            6 
 3915000   0.61969415   -7.9090193    772.95699  0.016452895  0.015539459            6 
 3916000   0.61097838   -7.9025034    773.23341  0.016454575  0.015534575            7 
 3917000   0.62525063   -7.9053208    772.87684  0.016442789  0.015529688           10 
 3918000   0.63066734   -7.9066005    771.79365  0.016415553  0.015524808           11 
 3919000    0.6289858   -7.9173223    772.79736  0.016432707  0.015519927            3 
 3920000   0.62183281    -7.922997    771.57781   0.01640259  0.015515039           10 
 3921000   0.62061284   -7.9089389    772.47009   0.01641737  0.015510155            5 
 3922000   0.61230629   -7.9234737    771.75268  0.016397941  0.015505267            5 
 3923000   0.61524933   -7.9123101    773.01659  0.016420609  0.015500378           11 
 3924000   0.63157354    -7.910189    772.65341  0.016408712  0.015495494            6 
 3925000   0.63198357   -7.9232735    772.57934  0.016402958  0.015490605            7 
 3926000   0.60540498   -7.9108299    771.24967  0.016370557  0.015485717            4 
 3927000   0.62838512    -7.928169    773.01333  0.016403814  0.015480836            7 
 3928000   0.61117395   -7.9357785    772.09508  0.016380157  0.015475954            8 
 3929000   0.61773002   -7.9016155    772.50638  0.016384712  0.015471074           19 
 3930000   0.62559326   -7.9077169    773.30634  0.016397505  0.015466197            4 
 3931000   0.60945855   -7.9022013     772.4955  0.016376145  0.015461315            9 
 3932000   0.62315762   -7.9241437    772.30051  0.016367847  0.015456422            3 
 3933000   0.62662317   -7.9271747    771.74431  0.016351901  0.015451532            3 
 3934000   0.61983222   -7.9152354    773.60158  0.016387087  0.015446638            4 
 3935000   0.62289942   -7.9172202     771.9505  0.016347956  0.015441734            3 
 3936000     0.623527   -7.9524982     772.3628  0.016352532  0.015436835            4 
 3937000   0.61552602   -7.9351735    772.98075  0.016361459  0.015431941            7 
 3938000   0.62574121   -7.9355272    772.62988  0.016349879  0.015427033            8 
 3939000   0.62470357   -7.9438889    770.15997  0.016293475  0.015422132            7 
 3940000   0.60912794   -7.9466014    770.71772  0.016301136  0.015417233            6 
 3941000   0.62682869   -7.9178302     770.6428  0.016295416  0.015412339           12 
 3942000   0.61161325   -7.9588707     772.0842  0.016321753  0.015407443            9 
 3943000   0.62254754   -7.9251665    772.27282    0.0163216  0.015402548            5 
 3944000   0.63013094    -7.945769    771.82274  0.016307952  0.015397654            6 
 3945000   0.61977825   -7.9298751    770.59615  0.016277908  0.015392763            4 
 3946000    0.5993019    -7.932357    770.68934  0.016275751  0.015387868            5 
 3947000   0.63112559   -7.9504936    771.28184  0.016284136  0.015382973            4 
 3948000   0.62081339   -7.9462663    772.73899  0.016310769  0.015378095            5 
 3949000   0.61725726   -7.9366845    771.36673  0.016277681  0.015373208            7 
 3950000   0.61499512    -7.946649    772.42474  0.016295881  0.015368326            4 
 3951000   0.61837552   -7.9439344    771.07217  0.016263228  0.015363443            9 
 3952000   0.63056814   -7.9471002    770.56488  0.016248416   0.01535856            4 
 3953000   0.62314632   -7.9502324    769.74984  0.016227124  0.015353678            7 
 3954000    0.6065239   -7.9480023    770.92959  0.016247884  0.015348795            7 
 3955000   0.62035716   -7.9437056    772.30985  0.016272858  0.015343913            4 
 3956000   0.61878012   -7.9355396    772.19775  0.016266383   0.01533904            4 
 3957000   0.62377154   -7.9361502    771.87359  0.016255446  0.015334159            5 
 3958000   0.62609816   -7.9553979    772.02321  0.016254489  0.015329285            2 
 3959000   0.60380909   -7.9411208    772.72675  0.016265192  0.015324409           10 
 3960000   0.60403713   -7.9231413    771.73521  0.016240219  0.015319539            5 
 3961000   0.63525082   -7.9509697    769.23563  0.016183532  0.015314679           10 
 3962000   0.62337013   -7.9434826    771.97195  0.016237001  0.015309806           11 
 3963000   0.63150378   -7.9344735    769.05918  0.016171654  0.015304939            8 
 3964000    0.6185598   -7.9554499    770.57499  0.016199441  0.015300077            8 
 3965000   0.62210896   -7.9523876    773.10327  0.016248493  0.015295212            7 
 3966000   0.60342072    -7.933251    770.98884  0.016199967  0.015290355            6 
 3967000   0.61895383   -7.9531122     772.1573  0.016220429  0.015285501            5 
 3968000   0.61293053   -7.9579241    771.18865  0.016195998   0.01528064            9 
 3969000   0.61566757   -7.9154395    772.26869  0.016214594  0.015275786            5 
 3970000   0.61081512   -7.9433462    770.80059  0.016179693  0.015270927            9 
 3971000   0.61475937   -7.9407483    772.16031  0.016204153  0.015266065            5 
 3972000   0.61244695    -7.957336    770.53905  0.016166059  0.015261204           12 
 3973000   0.61284077   -7.9384505    770.16393  0.016154122   0.01525634            7 
 3974000   0.62768028   -7.9547241    771.84361   0.01618528  0.015251486            9 
 3975000   0.62167998   -7.9238527    770.91682  0.016161778  0.015246632            7 
 3976000   0.61876996   -7.9551337    770.05665  0.016139685  0.015241767            4 
 3977000     0.602858   -7.9562738     770.2572  0.016139829  0.015236905            6 
 3978000   0.61643931   -7.9729267    771.78527  0.016167783   0.01523205            7 
 3979000   0.60603039   -7.9402302    770.99948  0.016147262  0.015227198            7 
 3980000   0.60936465   -7.9507329    770.41682  0.016131006  0.015222346            5 
 3981000   0.60223157   -7.9466751    771.68155  0.016153428  0.015217495            5 
 3982000   0.60445393   -7.9225409    770.93743  0.016133799  0.015212651           10 
 3983000   0.61384908   -7.9427354    771.40776  0.016139588  0.015207802           12 
 3984000    0.6120533   -7.9538184    771.23749  0.016131976  0.015202954            6 
 3985000   0.61069406   -7.9588912    772.49954  0.016154319  0.015198104           15 
 3986000   0.61831728    -7.946728    772.74577  0.016155414  0.015193258           11 
 3987000   0.60732041   -7.9388214    770.44366  0.016103245  0.015188416            9 
 3988000   0.61056815   -7.9431436    772.35482  0.016139143  0.015183572           10 
 3989000   0.61124346   -7.9714733    769.75518  0.016080788  0.015178722            5 
 3990000   0.61341884   -7.9447426    770.57692  0.016093921  0.015173876           11 
 3991000   0.60231697   -7.9431021    771.87356  0.016116962  0.015169041            4 
 3992000   0.61411023   -7.9581783    771.20928  0.016099058  0.015164222            8 
 3993000   0.62142711   -7.9509465     770.5825  0.016081945  0.015159397           12 
 3994000   0.59490686   -7.9462324    770.94864  0.016085558  0.015154573            7 
 3995000   0.61867055   -7.9682072    771.12464  0.016085203  0.015149758           10 
 3996000   0.63520881   -7.9611015    770.97307  0.016078017  0.015144934           13 
 3997000   0.60636276   -7.9520205    770.85889  0.016071614  0.015140106            6 
 3998000   0.60126321   -7.9710675     770.2764  0.016055453  0.015135273            5 
 3999000   0.61592298   -7.9489539    771.63596  0.016079769  0.015130434            7 
 4000000   0.61092237   -7.9581642     770.4562  0.016051171  0.015125603            8 
 4001000   0.62180252   -7.9504356    771.01899  0.016058881  0.015120774            9 
 4002000   0.61084455   -7.9639216    770.15051  0.016036784  0.015115944            7 
 4003000   0.59974267   -7.9499799    770.56309  0.016041367  0.015111115            4 
 4004000   0.61503058   -7.9630095    771.05083  0.016047511  0.015106297            7 
 4005000   0.61173512    -7.963667    770.54088  0.016032894  0.015101479            9 
 4006000   0.61652382   -7.9434027    770.77358  0.016033732  0.015096661            7 
 4007000   0.60693458   -7.9527917    770.03676  0.016014407  0.015091841            6 
 4008000    0.6013638    -7.989311    769.42432  0.015997678  0.015087019           11 
 4009000   0.60286091    -7.979894    771.22205  0.016031056  0.015082191           13 
 4010000   0.61093412   -7.9578843    770.96226   0.01602166  0.015077376            7 
 4011000   0.61816539   -7.9768719    770.65663  0.016011315  0.015072553            6 
 4012000   0.60497485   -7.9588241    770.85906  0.016011529  0.015067733            5 
 4013000   0.60771036   -7.9795707    769.60405  0.015981478  0.015062917            6 
 4014000   0.61942084   -7.9593561    769.65339  0.015978521    0.0150581           10 
 4015000   0.60707028   -7.9627549    770.66997  0.015995641  0.015053283           10 
 4016000   0.62581554   -7.9739851    770.73307  0.015992967   0.01504847            6 
 4017000   0.60512419   -7.9600243    769.93997  0.015972533  0.015043671           12 
 4018000    0.6056764   -7.9557462    772.48715  0.016021386  0.015038868            4 
 4019000   0.60495816   -7.9505763    770.26847  0.015971396   0.01503407           11 
 4020000   0.61240135   -7.9463776    769.64805  0.015954562  0.015029271            6 
 4021000   0.60052195   -7.9756012    771.26687  0.015984143  0.015024484           10 
 4022000   0.60346906    -7.972525    770.65008  0.015967389  0.015019691            5 
 4023000   0.61396989   -7.9617016    769.79194  0.015945645  0.015014905            3 
 4024000    0.6071805   -7.9437324    770.51417  0.015956639  0.015010116            4 
 4025000   0.60267446   -7.9612223    770.69494  0.015956417  0.015005335            5 
 4026000   0.60285317   -7.9674089    771.00147  0.015958798  0.015000557            7 
 4027000   0.61810631   -7.9629158    770.50527  0.015944567  0.014995774            5 
 4028000   0.60441973   -7.9551929    771.18981  0.015954771  0.014991002            5 
 4029000   0.60801603   -7.9619404    770.53665  0.015937301  0.014986234            5 
 4030000    0.6045761   -7.9679812    770.31228  0.015928707  0.014981457            5 
 4031000   0.60909685   -7.9633581    770.96604  0.015938271  0.014976682            8 
 4032000   0.59838764   -7.9686368    770.99787  0.015934976  0.014971913            9 
 4033000   0.60271401   -7.9885336     770.2222  0.015914997  0.014967136            5 
 4034000   0.60861902   -7.9640249    771.67341  0.015941031   0.01496236            5 
 4035000   0.61330282   -7.9690306    771.33181  0.015930025  0.014957598            9 
 4036000   0.60982647   -7.9581671    771.17791    0.0159229  0.014952832            8 
 4037000    0.6098247   -7.9430264    772.21271  0.015940317   0.01494808            7 
 4038000   0.60791495   -7.9432376    770.21246   0.01589509  0.014943325            4 
 4039000   0.59522524   -7.9649863    770.66516  0.015900494   0.01493857            6 
 4040000   0.60244662   -7.9382667    771.80125  0.015919993  0.014933826           18 
 4041000   0.59528986   -7.9564482    771.89581  0.015918003  0.014929084            6 
 4042000   0.60630213   -7.9723289    770.98575  0.015895303  0.014924338            9 
 4043000    0.5967958   -7.9358204    772.16628  0.015915704  0.014919599            5 
 4044000   0.59275052   -7.9609447    771.03011  0.015888355  0.014914852            7 
 4045000   0.61058565   -7.9566502    770.54484   0.01587443  0.014910106            4 
 4046000   0.60153876   -7.9429825    769.90011  0.015857228  0.014905364            6 
 4047000   0.61584661   -7.9556433    769.96612  0.015854669  0.014900622            4 
 4048000    0.5993662   -7.9698233    771.21994  0.015876563  0.014895878            4 
 4049000   0.61428823   -7.9540037    772.25099  0.015893863  0.014891138            8 
 4050000   0.58366458   -7.9524295    771.54113  0.015875332  0.014886406            5 
 4051000   0.59894745    -7.956613    770.10539  0.015841878  0.014881683           10 
 4052000   0.61663671   -7.9557007    770.90944  0.015854505  0.014876949            4 
 4053000   0.60452222   -7.9621641    772.28586  0.015878893  0.014872225            7 
 4054000   0.60355371   -7.9745898    770.94578   0.01584743    0.0148675            9 
 4055000    0.5996072    -7.966566    771.88724   0.01586287  0.014862773            7 
 4056000   0.60648992   -7.9655532    770.06134  0.015821444  0.014858058            6 
 4057000   0.59550515   -7.9691157    771.68535  0.015850903  0.014853339            6 
 4058000   0.59921055   -7.9666129    770.88769  0.015830616  0.014848615            8 
 4059000   0.59310577   -7.9581912    769.60125  0.015800305  0.014843902           11 
 4060000   0.60124378   -7.9812741    771.55798  0.015836576  0.014839181            7 
 4061000   0.60163425   -7.9782534    770.39405  0.015808792  0.014834462            5 
 4062000   0.60794745   -7.9608311    771.19123  0.015821255  0.014829749            6 
 4063000   0.60112308   -7.9447833    770.82981  0.015809948  0.014825034            8 
 4064000   0.59119409   -7.9554618    771.03128  0.015810189  0.014820321           14 
 4065000   0.60718713   -7.9661547    771.32029  0.015812224  0.014815608            5 
 4066000   0.59319965   -7.9699343    770.25821  0.015786568  0.014810891           12 
 4067000   0.58901729    -7.982587    770.68192  0.015791368  0.014806163            5 
 4068000   0.59930436    -7.976846    770.45017  0.015782739   0.01480144            5 
 4069000   0.59405264   -7.9632402    770.08648  0.015771412  0.014796726            6 
 4070000   0.60637117   -7.9818245    771.79113  0.015802439  0.014792016            6 
 4071000   0.59272662   -7.9622048    770.70383  0.015776301  0.014787303            4 
 4072000   0.59228002   -7.9653745    769.65843  0.015751032    0.0147826            5 
 4073000   0.58709482   -7.9813888    771.19861  0.015778677  0.014777892            5 
 4074000   0.59093016   -7.9746581    770.87566  0.015768198  0.014773186            6 
 4075000   0.60889528   -7.9762766     768.1635  0.015708865  0.014768482            4 
 4076000   0.60101571   -7.9877977    771.52613   0.01577376  0.014763782            7 
 4077000    0.5936231   -7.9555583    769.57512  0.015730012  0.014759081            7 
 4078000   0.59923011   -7.9613587    770.89265  0.015753078  0.014754374           16 
 4079000    0.6077914   -7.9816083    771.00052   0.01575142   0.01474967            6 
 4080000   0.60363463   -7.9730548    770.36781  0.015734637  0.014744975           10 
 4081000   0.60709617   -7.9765649    770.81655  0.015739944  0.014740276           12 
 4082000   0.60013709   -7.9664341    770.97126  0.015739247   0.01473559            9 
 4083000   0.60411302    -7.982675    770.51375  0.015726054  0.014730898            6 
 4084000   0.60730538    -7.981002    770.28282  0.015717491  0.014726203            5 
 4085000    0.5945461   -7.9692526    771.64974  0.015741529  0.014721511            9 
 4086000   0.59521446   -7.9858908    769.34469  0.015690665  0.014716824            9 
 4087000    0.6004884   -7.9608363    772.63851  0.015753986  0.014712141            7 
 4088000   0.61220168   -7.9841993    772.05929  0.015738325  0.014707453            6 
 4089000    0.5907122   -7.9713286    771.44441  0.015721945  0.014702775            6 
 4090000   0.59538451   -7.9655047    770.45102  0.015697861  0.014698094           10 
 4091000   0.60752693   -7.9638645    769.44283  0.015673487  0.014693411            7 
 4092000   0.58944265   -7.9818043    769.98835  0.015680766   0.01468873            6 
 4093000    0.5893358   -8.0012078    770.78408  0.015693136  0.014684045            5 
 4094000   0.59423276   -8.0064896     769.8078  0.015669431  0.014679361            4 
 4095000   0.59842655   -7.9813832    770.72903  0.015684351  0.014674686            7 
 4096000   0.60787938   -7.9761513    771.08606  0.015687786  0.014670007           22 
 4097000   0.59233628   -7.9651712    771.06944  0.015683619  0.014665334            7 
 4098000    0.5935949   -7.9800771    769.98795    0.0156578  0.014660655            9 
 4099000   0.59382897   -7.9920007    769.07345  0.015635388  0.014655977           11 
 4100000    0.5905579    -7.965955    770.30651  0.015656636  0.014651295            7 
 4101000   0.60915454   -7.9785648    769.37424  0.015633875  0.014646612            6 
 4102000   0.60300202   -7.9915062    769.60165  0.015634683  0.014641934            8 
 4103000   0.59384619   -7.9764783    771.36869  0.015666762  0.014637268            5 
 4104000   0.59010063   -7.9933294    769.75156  0.015630108  0.014632592           16 
 4105000   0.59758598   -7.9700814    770.89252  0.015649462   0.01462792            7 
 4106000   0.58989247   -7.9806548    771.17922   0.01565147  0.014623257            7 
 4107000   0.60013049   -7.9827379    770.28395  0.015629493  0.014618581            7 
 4108000   0.58404844   -7.9922202    769.76167  0.015615094  0.014613914            8 
 4109000   0.59350682   -8.0059176    770.25115  0.015621221  0.014609244            8 
 4110000   0.59959341   -7.9786831    768.85624  0.015589137  0.014604578            7 
 4111000   0.59866809   -7.9660817    768.07644  0.015569538  0.014599911           10 
 4112000   0.59751949   -7.9970857    769.86636  0.015602026  0.014595241           11 
 4113000   0.58935782   -8.0035822    770.14731  0.015603925   0.01459057            8 
 4114000   0.59353219   -7.9919778    770.84048  0.015614173  0.014585908            6 
 4115000   0.60250171   -7.9911115    768.64584  0.015565934  0.014581241           13 
 4116000   0.59338087   -7.9873234    769.55555  0.015580571  0.014576585           18 
 4117000   0.60275519   -7.9809478    769.53075  0.015576284  0.014571934           10 
 4118000   0.60252807   -7.9859775    770.21741  0.015586397   0.01456728            6 
 4119000   0.58883607   -7.9823752    770.19312  0.015582122  0.014562635            5 
 4120000   0.58840987   -7.9838169    769.14327  0.015557105  0.014557989            8 
 4121000   0.59696376   -7.9813021    770.78522  0.015586533  0.014553346            4 
 4122000   0.58700759   -7.9991551    770.01737  0.015567228  0.014548697            4 
 4123000   0.60256457   -7.9988859    771.27297   0.01558883  0.014544047            6 
 4124000   0.59108958   -8.0001832    769.94915    0.0155583  0.014539401            7 
 4125000   0.60146812   -7.9802662    770.46224  0.015564894  0.014534749            8 
 4126000   0.59088118   -7.9944505    770.95705  0.015571115  0.014530102            7 
 4127000    0.5795285   -7.9896814    770.20008  0.015552057  0.014525457            5 
 4128000   0.60150969   -8.0033625    770.31482  0.015550606  0.014520814            5 
 4129000   0.59044914   -7.9862829    768.99473  0.015520197  0.014516173            8 
 4130000   0.58706074   -8.0098462    770.32633  0.015543308  0.014511527            8 
 4131000   0.59465903   -7.9857248    771.13985  0.015555956  0.014506894            9 
 4132000   0.59500013   -8.0004449    771.58076  0.015561083  0.014502265            8 
 4133000   0.57781366   -7.9922038    769.21735  0.015509665  0.014497629            5 
 4134000   0.58611797   -7.9869977    769.24664  0.015506504   0.01449299            6 
 4135000   0.60445585    -7.986189    770.42636  0.015526529  0.014488357           11 
 4136000   0.59052661   -7.9850599    769.48759   0.01550386  0.014483727            7 
 4137000   0.59093945   -7.9834689    769.65772   0.01550354  0.014479101            4 
 4138000   0.60093195   -7.9738302    769.78591  0.015502375  0.014474481            6 
 4139000   0.58926644   -7.9848474    770.94385  0.015521943  0.014469859            3 
 4140000   0.58902335   -7.9916425    768.99314  0.015478928  0.014465233            4 
 4141000   0.58964592   -7.9832462    769.38768   0.01548313  0.014460611            3 
 4142000   0.59174483   -7.9983669    768.54982  0.015462535  0.014455991            3 
 4143000   0.58365092   -7.9976822    767.97608  0.015447262  0.014451372            3 
 4144000   0.59378051   -8.0063715    769.57268  0.015475641  0.014446753            7 
 4145000   0.58414782   -8.0020778    769.47813  0.015470007  0.014442137            5 
 4146000   0.58908606   -8.0083001    770.01893  0.015477145  0.014437511            5 
 4147000   0.58737633   -8.0173313    768.31563  0.015439186  0.014432891            6 
 4148000   0.59428504   -7.9794987    769.34775  0.015456199  0.014428275            2 
 4149000    0.5982708   -8.0108081    769.46224  0.015454773  0.014423663            5 
 4150000   0.58372385   -7.9859745    769.26634  0.015447115  0.014419051            5 
 4151000   0.58916068   -7.9908024    770.74166  0.015473012  0.014414446            5 
 4152000   0.58219307   -8.0052363    769.83007  0.015450989  0.014409843            4 
 4153000   0.58225472   -7.9797357    770.04904  0.015451662  0.014405234           10 
 4154000   0.58195909   -7.9962687    769.62418  0.015439419  0.014400629            4 
 4155000   0.59160527   -8.0012389    769.39828  0.015431173  0.014396022            9 
 4156000   0.57566573   -8.0054102    769.80054  0.015435526  0.014391433            9 
 4157000   0.59206189   -8.0095361    770.72784  0.015450402  0.014386841            9 
 4158000   0.58811425   -7.9838379    769.72653  0.015426618  0.014382252            6 
 4159000   0.58010918   -8.0024948     771.8308  0.015465072  0.014377672           10 
 4160000   0.58313106   -7.9843012    769.89029  0.015422482    0.0143731            8 
 4161000   0.58590675   -7.9970261    771.07243   0.01544245  0.014368528            6 
 4162000   0.58381245   -7.9912501    770.54909  0.015428262  0.014363953            5 
 4163000     0.575444   -7.9928432    772.60039  0.015465618  0.014359387            7 
 4164000     0.582549   -7.9954307    770.83293  0.015426532  0.014354819            6 
 4165000     0.598074   -8.0257212     770.1463   0.01540909  0.014350256            7 
 4166000   0.59487631   -7.9869387    772.02555  0.015442982  0.014345683            8 
 4167000   0.59036655   -7.9958723     770.6881  0.015412529  0.014341118            8 
 4168000   0.58645762   -7.9998064    771.83084  0.015431679  0.014336548           13 
 4169000   0.58097928   -8.0196902    770.23273  0.015396033  0.014331988            3 
 4170000   0.57635918   -7.9912582    771.24596  0.015412589  0.014327424            5 
 4171000   0.58733208   -8.0111903    770.71907  0.015398367  0.014322866            7 
 4172000   0.59727523   -8.0167077    770.78947  0.015396082  0.014318302            6 
 4173000   0.58708049   -8.0023119    769.93937  0.015375417  0.014313731            7 
 4174000   0.58571238   -7.9944205    768.41504    0.0153413  0.014309169            7 
 4175000   0.58244017    -7.994694     769.9366  0.015367996  0.014304599            6 
 4176000   0.59649881   -7.9889202    770.73835  0.015380315  0.014300036            6 
 4177000   0.59580626   -8.0297393    769.21119  0.015346165  0.014295468            6 
 4178000   0.59177713   -8.0091572    769.22264  0.015342721  0.014290901           10 
 4179000   0.58467665   -8.0072534    769.02452  0.015335099  0.014286332            8 
 4180000   0.58274717   -7.9929476     769.2865  0.015336653  0.014281761            6 
 4181000   0.58779532   -8.0150447    770.60754  0.015359315  0.014277201            8 
 4182000   0.59499828   -8.0215281    768.75131  0.015318654  0.014272639            8 
 4183000   0.57443005   -8.0013681    771.82554  0.015376236  0.014268077            5 
 4184000   0.58083422   -8.0056664    769.80438  0.015332305  0.014263521           14 
 4185000   0.58327353   -8.0441005    769.06348  0.015313888  0.014258961            5 
 4186000   0.59273528   -8.0160057    770.31069  0.015335059  0.014254397            9 
 4187000    0.5863813   -8.0129001    769.89605  0.015323144  0.014249844           10 
 4188000   0.58617513   -8.0464825    769.84419  0.015318453  0.014245291           10 
 4189000   0.59512974   -7.9996575    769.95426  0.015316986  0.014240743            9 
 4190000   0.57656593   -8.0158476    769.08865  0.015296115  0.014236202           14 
 4191000   0.59007857    -8.034862    770.78318  0.015326159  0.014231662            8 
 4192000   0.58092823   -8.0171803     770.4691  0.015316259  0.014227123            5 
 4193000   0.58070811   -8.0092181    770.52774  0.015313772  0.014222578            4 
 4194000   0.58053257   -8.0443589    769.97955  0.015299228  0.014218039            8 
 4195000   0.58574578   -8.0080315    768.90359  0.015274207  0.014213506            7 
 4196000   0.58991771   -8.0214761    768.58308  0.015264202   0.01420897            7 
 4197000   0.58116344   -8.0199904    770.10171  0.015290718   0.01420444            8 
 4198000   0.57575841   -8.0108013    770.79052  0.015300749  0.014199915            6 
 4199000   0.58164031    -8.014229     769.1626  0.015264797  0.014195394            4 
 4200000   0.59554701   -8.0355568    769.75632  0.015272943  0.014190863            5 
 4201000   0.58877929   -8.0095096     769.7499   0.01526918  0.014186337            4 
 4202000    0.5754635   -8.0390795    768.72192  0.015245159  0.014181816            9 
 4203000   0.58592433    -8.009819    769.89826  0.015264856  0.014177298            6 
 4204000   0.57265145   -7.9873702    769.24588  0.015248293  0.014172777            8 
 4205000   0.57728992   -8.0211207    770.03675   0.01526034  0.014168263           12 
 4206000   0.57088642   -8.0109585    769.70156  0.015250071  0.014163752            6 
 4207000   0.57821702   -8.0179547    770.40875  0.015260454  0.014159237            6 
 4208000   0.56688656   -8.0201976    770.50787   0.01525879  0.014154723           11 
 4209000   0.57659167   -8.0146544    770.25121  0.015250083  0.014150201           12 
 4210000   0.58631468   -8.0115151    769.09311  0.015223537  0.014145677            4 
 4211000   0.57950238   -8.0177356    769.73611  0.015232647  0.014141161            6 
 4212000   0.58324556   -8.0287013    770.33421  0.015240864   0.01413665            4 
 4213000   0.57192838   -8.0035036    769.91992  0.015229051  0.014132146            6 
 4214000   0.56874454   -7.9982885    771.94956  0.015265574  0.014127637            5 
 4215000   0.57730352   -8.0012504    770.51627  0.015233616  0.014123128            7 
 4216000   0.58198568   -8.0265625    769.35355   0.01520702  0.014118622            7 
 4217000   0.57413119   -8.0174043    770.70957  0.015230211  0.014114116            8 
 4218000   0.58106041   -8.0173014    770.09794  0.015214516  0.014109601            6 
 4219000   0.57282679   -8.0119096    769.23479  0.015193861  0.014105097           11 
 4220000   0.56525746   -8.0438517     768.8329  0.015182324  0.014100588           15 
 4221000   0.57230359   -8.0423537     769.4227  0.015190371  0.014096076           12 
 4222000   0.57339222   -8.0289582     771.5596  0.015228952  0.014091572            7 
 4223000   0.57501541    -8.040585    767.60238  0.015147257  0.014087062           13 
 4224000   0.58148888   -8.0395021     769.7047  0.015185146  0.014082552           14 
 4225000   0.57896036   -8.0252758    769.54859  0.015178473   0.01407805            7 
 4226000   0.57072685   -8.0371641    769.73094  0.015178477   0.01407355            9 
 4227000   0.57663804   -8.0513022    768.95499  0.015159589  0.014069051            9 
 4228000    0.5676172   -8.0230169    770.19954  0.015180533  0.014064544           12 
 4229000   0.57770989   -8.0329584    769.42008  0.015161584  0.014060042            9 
 4230000   0.57982392   -8.0529146    768.82052  0.015146188  0.014055541            9 
 4231000   0.58529489   -8.0165595    770.98096   0.01518516  0.014051049            5 
 4232000   0.57304253    -8.036668    769.95507  0.015161371  0.014046558            8 
 4233000   0.57558833   -8.0219674     769.5984  0.015150768  0.014042065            8 
 4234000   0.56630731   -8.0401153    770.57469  0.015166405  0.014037578           10 
 4235000   0.56235427   -8.0035353    769.81069   0.01514779    0.0140331            6 
 4236000   0.56376606   -8.0192418    769.37105  0.015135565  0.014028622            4 
 4237000   0.57947988     -8.00242    770.39982  0.015152227  0.014024148            4 
 4238000   0.56981905    -8.035607    769.37865  0.015128572  0.014019673            5 
 4239000   0.57972024   -8.0193755    769.51832  0.015127749  0.014015195            7 
 4240000   0.56774501   -8.0216465     770.4406  0.015142307  0.014010719            7 
 4241000   0.57275949   -8.0206493    768.61792  0.015102922  0.014006244            8 
 4242000   0.56176424   -8.0316158    770.73073  0.015140868  0.014001775           10 
 4243000   0.56103313   -8.0369504    768.19492  0.015087496  0.013997306            6 
 4244000    0.5623523   -8.0459975    769.44014  0.015108391  0.013992831            4 
 4245000    0.5715041   -8.0304982    769.36657  0.015103388  0.013988357            4 
 4246000   0.56389876   -8.0332962     769.5495  0.015103421  0.013983882            6 
 4247000   0.57088109    -8.022809    769.31064  0.015095178  0.013979411            7 
 4248000    0.5740045   -8.0508581    767.44594  0.015055044  0.013974941            7 
 4249000   0.57223504   -8.0068698    769.57982  0.015093352  0.013970474            8 
 4250000   0.57706058    -8.023979    768.82994  0.015075097  0.013965998            7 
 4251000   0.57582578   -8.0351924    768.26628  0.015060501  0.013961521            7 
 4252000   0.58249752    -8.040053    767.98286  0.015051404  0.013957046            9 
 4253000   0.56118237    -8.046725    769.72857  0.015082071   0.01395258           11 
 4254000   0.57939074   -8.0249106    768.70103  0.015058397  0.013948111            4 
 4255000   0.57141276    -8.045312    768.38578  0.015048684  0.013943643            5 
 4256000   0.57142681   -8.0364566    770.67514  0.015089974  0.013939176           13 
 4257000   0.56372181   -8.0423258    768.19006  0.015037782  0.013934707           16 
 4258000   0.56094343   -8.0380641     769.2586  0.015055163  0.013930238            6 
 4259000   0.57849599   -8.0367892    768.57265  0.015038206  0.013925771            5 
 4260000   0.57709238    -8.042405    767.86604  0.015020854  0.013921302            5 
 4261000   0.56277922   -8.0438435    768.24026  0.015024647  0.013916838            8 
 4262000   0.57385225   -8.0282237    769.41124  0.015044018  0.013912382            8 
 4263000   0.56646526   -8.0392667    769.23108  0.015036967  0.013907924            4 
 4264000   0.57278889   -8.0263613    767.81022  0.015005672  0.013903469           11 
 4265000   0.57139562   -8.0248761    769.80309  0.015041092  0.013899016            5 
 4266000   0.57601493   -8.0242452    768.94357  0.015020776  0.013894566            7 
 4267000   0.57554836    -8.031372    768.19618   0.01500266  0.013890112            7 
 4268000   0.57390132   -8.0323092    769.66068  0.015027739  0.013885666            9 
 4269000   0.57375357   -8.0539384    768.11567  0.014994059   0.01388122            4 
 4270000   0.57729041   -8.0508061    768.27605  0.014993678  0.013876775           11 
 4271000   0.55998468   -8.0446205    768.64759  0.014997416  0.013872323           10 
 4272000   0.57603314    -8.047494    768.83245  0.014997512  0.013867873            4 
 4273000    0.5696304   -8.0301503    769.05254  0.014998294   0.01386343            9 
 4274000   0.56559718   -8.0368118    769.79238   0.01500921  0.013859002            6 
 4275000   0.55133761   -8.0322359    767.61101  0.014963178  0.013854565            6 
 4276000   0.55402144   -8.0539997    768.12223  0.014969641  0.013850131           10 
 4277000   0.57356757   -8.0351173    769.81951  0.014999211    0.0138457            9 
 4278000   0.56335767   -8.0422873     768.5536  0.014971046  0.013841266            9 
 4279000   0.57166745   -8.0172237    769.30022  0.014982087  0.013836831           11 
 4280000    0.5596799   -8.0433743    768.92855   0.01497135  0.013832403           11 
 4281000   0.56007477    -8.035075     768.0902  0.014951534  0.013827971           13 
 4282000   0.56425005   -8.0481292    767.99841  0.014946256  0.013823541            7 
 4283000   0.56089517   -8.0383071    769.24833  0.014967086  0.013819112            6 
 4284000   0.56695291   -8.0316611    768.70584  0.014953039  0.013814684            9 
 4285000   0.56434751   -8.0726743    768.44386  0.014944455  0.013810255            7 
 4286000   0.56840482   -8.0610811    769.14625  0.014954625  0.013805831           11 
 4287000   0.56505625   -8.0472346    768.04591  0.014929747  0.013801406           10 
 4288000   0.54351064   -8.0486664    768.97972  0.014944413  0.013796985            5 
 4289000   0.55975021   -8.0591185    768.96206  0.014940586   0.01379257           10 
 4290000   0.56095906    -8.034585    769.79111  0.014953207  0.013788159            9 
 4291000   0.57049572   -8.0476657    769.53367  0.014944723  0.013783747            6 
 4292000   0.56666168   -8.0279694    771.16095  0.014972836  0.013779347            7 
 4293000   0.57453984   -8.0486159    768.72243  0.014922013  0.013774945           16 
 4294000   0.54264322   -8.0487373     768.9405   0.01492277  0.013770541            8 
 4295000   0.57335682   -8.0402619    768.61802  0.014913039   0.01376614            6 
 4296000   0.55723201   -8.0484594    768.73949  0.014911924   0.01376174            7 
 4297000   0.55431854   -8.0701596    768.84063  0.014910415  0.013757342            6 
 4298000   0.55780049   -8.0363296    768.45856  0.014899538   0.01375294            4 
 4299000   0.56827889   -8.0578339    769.60477   0.01491829  0.013748543            6 
 4300000   0.57707102   -8.0349793    770.17442  0.014925861  0.013744147            8 
 4301000   0.55941889   -8.0319031    769.65865  0.014912397  0.013739754           10 
 4302000   0.56177985   -8.0464725    769.23529   0.01490073  0.013735357            7 
 4303000   0.56557641   -8.0544439    769.60242  0.014904377  0.013730964            5 
 4304000   0.56286273   -8.0531252    768.25895  0.014874902  0.013726572            7 
 4305000   0.56205819   -8.0431634    768.92028  0.014884249  0.013722184            6 
 4306000   0.55945814    -8.034217    768.58245  0.014874254  0.013717791            7 
 4307000   0.57672984   -8.0507618    769.68814  0.014892194  0.013713405            6 
 4308000   0.56048054   -8.0514635    768.53391   0.01486641  0.013709025            6 
 4309000   0.55332562   -8.0273879    769.81549  0.014887744  0.013704643            7 
 4310000   0.57674016   -8.0688517    768.59656  0.014860722  0.013700259            9 
 4311000   0.56013281   -8.0355546    769.08495  0.014866716  0.013695875            6 
 4312000   0.55721068    -8.071317    767.58932  0.014834364   0.01369149            8 
 4313000   0.56837016    -8.054368    768.33301  0.014845293  0.013687102            4 
 4314000   0.55272113    -8.019793    768.26587  0.014840555  0.013682723           11 
 4315000    0.5523041   -8.0426636    768.93547  0.014850048  0.013678352            5 
 4316000   0.55991111   -8.0426845    768.44694  0.014837175  0.013673978            4 
 4317000   0.57008438   -8.0476372    768.11455  0.014827321  0.013669601            6 
 4318000   0.56583914   -8.0495498    768.23372  0.014826187  0.013665224            7 
 4319000   0.55244778   -8.0517649    767.62491  0.014811008   0.01366085            5 
 4320000   0.57179574   -8.0488237     766.4895  0.014785677  0.013656471            4 
 4321000   0.56588614   -8.0388839    768.61731  0.014823291  0.013652098            7 
 4322000   0.57078364   -8.0721023    769.33875  0.014833772  0.013647732            9 
 4323000   0.56565244   -8.0538228     768.0104  0.014804734  0.013643358            4 
 4324000   0.56892527   -8.0652292    769.39824  0.014828057   0.01363899            8 
 4325000   0.56951876   -8.0623805    767.86783  0.014795141  0.013634623            4 
 4326000     0.548345   -8.0536728    768.81215  0.014809912  0.013630256            5 
 4327000   0.57530113   -8.0709717    768.66951  0.014803742  0.013625889            5 
 4328000   0.54528671    -8.061028    767.58473  0.014779435  0.013621519            8 
 4329000   0.56579024   -8.0710813    768.76676  0.014798775  0.013617156            2 
 4330000   0.57216222    -8.056471    767.44912  0.014769999  0.013612797            8 
 4331000   0.55896259   -8.0506909    768.79388  0.014792463  0.013608438            4 
 4332000   0.56708982   -8.0540374    769.37593  0.014800245  0.013604082            4 
 4333000   0.56127024   -8.0800996    768.41633  0.014778374  0.013599726            9 
 4334000   0.55040562   -8.0581218    767.99365  0.014766837  0.013595374            8 
 4335000   0.55403352   -8.0659538    769.51256  0.014792629  0.013591028            9 
 4336000   0.56049894   -8.0705373    768.44027  0.014768609  0.013586675            5 
 4337000   0.57217608   -8.0734036    769.29748  0.014781675  0.013582328           11 
 4338000   0.55594236    -8.041591    768.78636  0.014768449  0.013577982            6 
 4339000   0.56465918   -8.0532996    768.69822  0.014763352  0.013573636            8 
 4340000   0.56422992   -8.0666245    768.41626  0.014754536  0.013569287            5 
 4341000   0.56842896     -8.06582    769.72641  0.014776288  0.013564941            6 
 4342000   0.55755757   -8.0594273    769.50436  0.014768624  0.013560599            7 
 4343000   0.55347918    -8.060118    766.79448  0.014713226  0.013556255            5 
 4344000   0.55006826   -8.0650965    768.58262  0.014744142   0.01355191            4 
 4345000   0.53701882   -8.0708415    768.36963  0.014736663   0.01354756            6 
 4346000   0.54970562    -8.056107     767.6448  0.014719374  0.013543215            6 
 4347000   0.54941762   -8.0622993    767.76904   0.01471837  0.013538874            6 
 4348000   0.55195702   -8.0783479    768.18381  0.014722934  0.013534536            7 
 4349000   0.54369641   -8.0791927    767.84802  0.014713115    0.0135302            6 
 4350000   0.55750167   -8.0556413    767.32757  0.014699762  0.013525864            9 
 4351000   0.54669673   -8.0751391     767.9421  0.014708153  0.013521533            3 
 4352000   0.55619869    -8.070263    768.18467  0.014709418  0.013517202            7 
 4353000   0.54961295   -8.0596097    766.79224  0.014679383  0.013512872            8 
 4354000   0.55329104   -8.0656634    768.41781  0.014707124  0.013508544            5 
 4355000   0.55619908   -8.0634527    767.34871   0.01468329  0.013504215            8 
 4356000   0.54500957   -8.0849447    768.86399  0.014708907  0.013499889            6 
 4357000   0.55905227   -8.0731021     767.9176   0.01468743  0.013495563            7 
 4358000   0.55748597   -8.0443041    768.05243  0.014686638  0.013491238            7 
 4359000   0.56276202   -8.0693201    767.53613  0.014673399  0.013486918            4 
 4360000   0.57639304   -8.0552417    767.79063  0.014674897  0.013482599           14 
 4361000   0.54651389   -8.0655871    768.67381  0.014688409  0.013478278            8 
 4362000   0.56573927   -8.0701536    768.91169  0.014689586  0.013473965            6 
 4363000    0.5377369   -8.0677791    768.05861  0.014669925  0.013469651            4 
 4364000   0.55115008       -8.049    768.82366  0.014681173  0.013465333            5 
 4365000   0.53977162   -8.0773706    768.53521  0.014672303  0.013461023            4 
 4366000   0.55552654   -8.0577828    768.86324  0.014675203  0.013456713            7 
 4367000   0.55405415   -8.0799572    768.03003  0.014655943  0.013452406            7 
 4368000   0.55173355   -8.0648499    766.99435  0.014632829  0.013448098            6 
 4369000   0.55621516   -8.0629321    768.03173  0.014649266  0.013443791            5 
 4370000   0.56063575   -8.0578684    767.23278  0.014630678  0.013439488           14 
 4371000   0.53463592   -8.0672213    767.43397  0.014631167  0.013435185            5 
 4372000   0.54746318   -8.0849539    767.49703  0.014629022  0.013430878            6 
 4373000   0.56054844   -8.0726876    767.85466  0.014632492  0.013426575            8 
 4374000   0.56668921   -8.0897618    767.77694  0.014627666   0.01342227            6 
 4375000    0.5601538   -8.0624568    767.13645  0.014612123  0.013417967            8 
 4376000   0.55941677   -8.0739257    766.81081  0.014602582  0.013413667            6 
 4377000    0.5420577   -8.0688814    768.51789  0.014631747  0.013409371            8 
 4378000   0.55297617   -8.0622733    767.95889  0.014617765  0.013405075            6 
 4379000   0.54945515   -8.0621856    767.34399  0.014602725  0.013400781           10 
 4380000   0.55054721   -8.0779229    767.85899  0.014609189  0.013396489            9 
 4381000   0.55606765   -8.0712841    768.15668  0.014611517  0.013392194            9 
 4382000   0.55270683   -8.0756938    768.20923  0.014609182  0.013387904           10 
 4383000   0.54559912   -8.0602083    768.22425  0.014606134  0.013383616            6 
 4384000   0.54693538    -8.068863    767.08026  0.014581057  0.013379333            5 
 4385000   0.56008894   -8.0686369    767.34237  0.014582713  0.013375041           11 
 4386000   0.54473911   -8.0826957     768.3747  0.014599002  0.013370757           11 
 4387000   0.54547447   -8.0938606    767.67451  0.014582374  0.013366471            6 
 4388000   0.55314702    -8.085623    768.00777   0.01458538  0.013362185           11 
 4389000   0.55147677   -8.0727994    768.53799  0.014592124  0.013357901            9 
 4390000   0.54089471   -8.0766073    767.09016  0.014561317  0.013353618           10 
 4391000   0.54183326   -8.0771078    768.51074   0.01458496  0.013349332            6 
 4392000   0.54612501   -8.0802443    767.08114  0.014554515  0.013345047            5 
 4393000   0.55323888   -8.0797319    767.42488  0.014557722  0.013340772           10 
 4394000   0.56826118   -8.0864653    766.30358  0.014533143  0.013336497           11 
 4395000   0.54824366   -8.0461486    768.70472  0.014575364  0.013332226           10 
 4396000   0.53600148   -8.0762399      768.513  0.014568414  0.013327956            6 
 4397000   0.55156229   -8.0834334    767.19253  0.014540075  0.013323686            9 
 4398000   0.54726013   -8.0814292    766.65256  0.014526538  0.013319415            5 
 4399000   0.54612274    -8.092794    767.38921   0.01453719  0.013315148            8 
 4400000   0.55450985   -8.0752151    766.13063   0.01451005  0.013310883            7 
 4401000   0.56081374   -8.0865876    767.34999  0.014529842  0.013306616            4 
 4402000   0.55946957   -8.1015869    766.87579  0.014517564  0.013302353            7 
 4403000   0.54502301   -8.0846876    767.40493  0.014524281  0.013298089            5 
 4404000   0.54982821   -8.0825734    766.77944  0.014509148  0.013293835            8 
 4405000   0.55183923   -8.0749995    768.23261  0.014533345  0.013289579            5 
 4406000   0.55006995   -8.0655082    766.82674  0.014503456  0.013285322            8 
 4407000   0.55536546   -8.1002094    766.83148  0.014500255  0.013281065            4 
 4408000   0.55135731   -8.0848101    767.42025  0.014508096  0.013276814            8 
 4409000   0.54415757   -8.0768869    766.37256  0.014485003  0.013272559            4 
 4410000   0.55932168   -8.0789296    767.67664  0.014506361  0.013268314            8 
 4411000   0.53853281   -8.0732947    768.50658  0.014518752  0.013264062            6 
 4412000   0.54709157   -8.1036013    767.83211  0.014502722  0.013259813            6 
 4413000   0.54825811   -8.0882785     766.8981  0.014481798  0.013255565            7 
 4414000   0.54132504   -8.0969703    767.45571  0.014489044  0.013251321            6 
 4415000   0.54032942   -8.0975186     765.8702  0.014455836  0.013247072            8 
 4416000   0.54267861   -8.0938519    766.78661  0.014469856  0.013242827            6 
 4417000   0.55707725   -8.0829471    767.10579  0.014472602  0.013238584           10 
 4418000    0.5506059   -8.1026873    766.36177  0.014455292  0.013234345            8 
 4419000   0.53214488   -8.1027688    768.70605  0.014496229    0.0132301            7 
 4420000   0.53885681   -8.0950703    767.05351  0.014461793  0.013225863            7 
 4421000   0.53425414   -8.0797096    765.77041  0.014434336  0.013221628            9 
 4422000   0.54936502   -8.0766343    767.05127   0.01445521  0.013217392            5 
 4423000   0.53969159   -8.0827554    766.77003  0.014446643   0.01321316            4 
 4424000   0.54406569   -8.0869431     767.0098  0.014447894  0.013208925            8 
 4425000   0.54131172   -8.0630563    767.31953  0.014450462  0.013204698            5 
 4426000   0.53500333   -8.0869953    767.47116  0.014450052  0.013200466            3 
 4427000   0.54659513   -8.0953509    767.90896  0.014455029  0.013196243            6 
 4428000   0.53814025   -8.0883482    767.12386  0.014436989  0.013192023            4 
 4429000    0.5476737   -8.0942407    768.06009  0.014451345  0.013187799            7 
 4430000   0.53530797   -8.0819338    767.16012  0.014431154  0.013183579            4 
 4431000   0.54000421    -8.081802    766.47206  0.014414956  0.013179359            7 
 4432000   0.54299746   -8.0815564    766.42833  0.014410882  0.013175136            5 
 4433000   0.53238713   -8.0785205    767.67911  0.014431144  0.013170916            4 
 4434000   0.54981735   -8.1073974    766.89054  0.014413068  0.013166701            3 
 4435000   0.54111772   -8.0987887    766.37828  0.014400193  0.013162486            6 
 4436000   0.52945323   -8.0614826    766.67314  0.014402486  0.013158271            3 
 4437000    0.5473107    -8.092158    767.62452  0.014417108  0.013154058            3 
 4438000   0.53694289   -8.0794571    767.21206  0.014406115  0.013149842            4 
 4439000   0.53748418   -8.0915408    766.34332  0.014386561  0.013145633            5 
 4440000   0.53409532   -8.1319538    765.93812  0.014375716   0.01314142            4 
 4441000   0.54420892    -8.101233    767.81626  0.014407721   0.01313721            6 
 4442000   0.54452185   -8.0824559    766.91324  0.014387536  0.013132998            5 
 4443000   0.54048509   -8.0880134     766.8791  0.014383658  0.013128788            8 
 4444000   0.53351711   -8.0876893    768.00677  0.014401567  0.013124577            7 
 4445000   0.54769348   -8.1111066    766.41845   0.01436855   0.01312037            4 
 4446000   0.52825708   -8.0765032    766.26989  0.014362533  0.013116165            9 
 4447000   0.53124582   -8.0951391     767.5598  0.014383476  0.013111956            9 
 4448000   0.54083529   -8.1106327    767.18411  0.014373204  0.013107749            4 
 4449000    0.5481915   -8.0863931     767.5026  0.014375938  0.013103545            5 
 4450000   0.53273653   -8.1043582    766.17524  0.014347851  0.013099344            7 
 4451000   0.53978782   -8.0942541    766.94919  0.014359118  0.013095142           10 
 4452000   0.53544172   -8.0960834    765.34765  0.014325914  0.013090947            5 
 4453000   0.53306371   -8.0777702    766.91671  0.014352061  0.013086753            6 
 4454000   0.53880916   -8.0763341    767.11576  0.014352562  0.013082563            7 
 4455000   0.53130378   -8.0987328    767.26997  0.014352225  0.013078371            5 
 4456000   0.54009807   -8.0975665    766.37339  0.014332237  0.013074178            5 
 4457000    0.5390674   -8.0921201    766.79054  0.014336821  0.013069984            6 
 4458000   0.55082837   -8.1209653    766.86187  0.014334938  0.013065795            4 
 4459000   0.54773781   -8.1012096    766.63867  0.014327552  0.013061606            5 
 4460000   0.54947264   -8.1048609    766.90887  0.014329388  0.013057419            4 
 4461000   0.53716455   -8.1128124    765.46801   0.01429926  0.013053228           11 
 4462000   0.52658514   -8.0940894    766.96481   0.01432401  0.013049042            5 
 4463000   0.54226922   -8.0924849     765.8758  0.014300467  0.013044866            7 
 4464000    0.5361249   -8.0916625    765.99858  0.014299555  0.013040683            7 
 4465000   0.52823907   -8.0975241    767.25808   0.01431986  0.013036502            6 
 4466000   0.52209248   -8.1030114    766.37217  0.014300123   0.01303232            6 
 4467000   0.52170877   -8.0986372    764.39365  0.014260011  0.013028142           11 
 4468000   0.53727674   -8.1074376    767.42985  0.014313448  0.013023964            3 
 4469000   0.53811282   -8.1210795    766.46459  0.014292246  0.013019793            6 
 4470000   0.53027218   -8.0965694    766.09406  0.014282141  0.013015616            5 
 4471000   0.53217852   -8.0702266    766.12717  0.014279564  0.013011444            6 
 4472000   0.53713569   -8.0785473    765.33643  0.014261636  0.013007276            6 
 4473000   0.54175289   -8.1114759    766.85116  0.014286667  0.013003105            6 
 4474000   0.53524822   -8.0935506    766.67336  0.014280162  0.012998939            5 
 4475000   0.52951714    -8.100675    765.28228  0.014251067  0.012994772            6 
 4476000   0.53398329   -8.0973403    767.12122   0.01428212  0.012990608            3 
 4477000   0.53377929   -8.0836291    765.99197   0.01425791  0.012986446            4 
 4478000   0.52965585   -8.0991006    766.01589  0.014255171   0.01298229           11 
 4479000   0.53904868   -8.0898809    766.25477  0.014256433   0.01297813            5 
 4480000   0.53567004   -8.1048672    767.26173  0.014271981  0.012973972            5 
 4481000   0.53186204   -8.0706245     766.7817  0.014259869  0.012969817            5 
 4482000   0.53524733   -8.1101459     766.1219   0.01424442   0.01296566            8 
 4483000   0.53369215   -8.0939018    765.25925  0.014225207  0.012961507            4 
 4484000   0.53798866   -8.1070246    766.53556  0.014245755  0.012957354            6 
 4485000   0.52702254   -8.0930672    763.97523  0.014195006  0.012953205            5 
 4486000   0.52987369   -8.0930109    766.74831  0.014243355  0.012949053            7 
 4487000    0.5303769   -8.1071456    766.72574  0.014239762  0.012944909           11 
 4488000   0.53106516   -8.1147047    766.31002   0.01422887  0.012940756            8 
 4489000   0.52645218   -8.0987122    766.03725  0.014220637  0.012936609            8 
 4490000   0.52233784   -8.0915856    766.83691  0.014232311   0.01293246            6 
 4491000   0.53417596   -8.0908871     766.5182  0.014223228  0.012928317            4 
 4492000   0.52984069   -8.0979267    765.72485  0.014205344  0.012924176            9 
 4493000    0.5405062   -8.1078151    766.37484  0.014214238  0.012920035            6 
 4494000   0.53626077    -8.116003    766.14989  0.014206903  0.012915895            6 
 4495000   0.52764626   -8.1151435    765.94871  0.014200013  0.012911758            6 
 4496000   0.52746329   -8.1014535    766.29814  0.014203332  0.012907622            7 
 4497000    0.5341502   -8.1168149     766.6637  0.014206947  0.012903491            5 
 4498000   0.51789056   -8.0971178    766.67203  0.014203943  0.012899362            6 
 4499000   0.53376659    -8.137975    765.46828  0.014178489  0.012895231            4 
 4500000   0.53767608   -8.1081949    766.40558  0.014192696  0.012891105            7 
 4501000   0.54498715    -8.105097    765.20871  0.014167383  0.012886977            8 
 4502000   0.54447297   -8.1068756    765.85849  0.014176264  0.012882849           10 
 4503000   0.53192551   -8.1148042    765.32965  0.014163329  0.012878724           12 
 4504000   0.52424333   -8.1157947     767.2407  0.014195543  0.012874598            4 
 4505000    0.5351012   -8.0943199    765.68594  0.014163632  0.012870477            6 
 4506000   0.52171063    -8.114053     765.8054  0.014162698  0.012866352            8 
 4507000   0.53137092   -8.1071762    765.69141  0.014157448  0.012862229            5 
 4508000   0.53200265   -8.1224826    764.55247  0.014133253   0.01285811            4 
 4509000   0.53925066   -8.1129235    767.46564  0.014183959   0.01285399            5 
 4510000   0.52250825   -8.1326007    765.79061  0.014149863  0.012849875            4 
 4511000   0.52622015   -8.1175578    766.01743  0.014150917  0.012845757           10 
 4512000   0.52777728   -8.1230445    766.35416     0.014154  0.012841647            6 
 4513000   0.54306303   -8.1129043    766.93877  0.014161658  0.012837536            7 
 4514000    0.5315517   -8.1115487    766.17885  0.014144492  0.012833427           10 
 4515000   0.53978451   -8.1201249    765.76505  0.014133722  0.012829317            6 
 4516000   0.52119499   -8.1055887    764.94136  0.014115393   0.01282521            7 
 4517000   0.53266731   -8.1131668    768.07958  0.014170164   0.01282111            6 
 4518000   0.52760199   -8.1064472    765.91928  0.014127182  0.012817012            5 
 4519000   0.53366404   -8.1182493    764.19532  0.014092265  0.012812909            9 
 4520000   0.51607442   -8.1102276    766.74755  0.014136201  0.012808814            8 
 4521000   0.53234208   -8.1175972    765.98453   0.01411901  0.012804715            8 
 4522000   0.52609604   -8.1024473     765.9024  0.014114374  0.012800618            4 
 4523000   0.53160009   -8.1063618    767.39949  0.014138837  0.012796525            8 
 4524000   0.51617936   -8.1139193    766.68041  0.014122466  0.012792432            5 
 4525000   0.52256488   -8.1178986    767.02944  0.014125772   0.01278834           12 
 4526000   0.51704945   -8.1025957    765.48823  0.014094274   0.01278425            4 
 4527000    0.5204408    -8.108894    764.98511  0.014081899  0.012780157            5 
 4528000   0.51667447    -8.095639    766.22547  0.014101617  0.012776069            4 
 4529000   0.51905236   -8.1125689    766.20181  0.014098068  0.012771984            7 
 4530000   0.52769572   -8.1302641    765.79656  0.014087501  0.012767902            4 
 4531000   0.51854506   -8.1216407    765.41146  0.014077309  0.012763819            3 
 4532000   0.52795883   -8.1296679    765.06753  0.014067879  0.012759732            4 
 4533000   0.52678442    -8.110005    766.49131   0.01409095   0.01275565            8 
 4534000   0.52560324   -8.1387326    765.65982   0.01407256  0.012751575            8 
 4535000   0.53093815   -8.1410511    766.15798   0.01407861  0.012747499            4 
 4536000   0.53280352   -8.1273778    765.77055  0.014068389   0.01274342            4 
 4537000   0.53095269   -8.1205241    765.48347  0.014060015  0.012739342           11 
 4538000   0.53278914   -8.1077653    765.68004  0.014060527  0.012735267            9 
 4539000   0.52680374   -8.1279207    766.37035  0.014070103  0.012731199            3 
 4540000   0.52587499   -8.1090053    766.57902  0.014070834  0.012727134            5 
 4541000   0.53390426   -8.1336099    767.48669  0.014084392  0.012723067            4 
 4542000   0.51725322   -8.1036495    766.27644  0.014059086  0.012718998            4 
 4543000   0.52477988   -8.0935006    764.95302  0.014031716  0.012714931            7 
 4544000   0.51968593   -8.1146655    765.69355  0.014042209  0.012710867            6 
 4545000   0.51477859    -8.108838    765.48341  0.014035266  0.012706802            7 
 4546000   0.51681184   -8.1366635     765.7978  0.014037942  0.012702738            7 
 4547000   0.52767134   -8.1187536    766.15856  0.014041466  0.012698674            9 
 4548000   0.52046596   -8.1207746    766.43311  0.014043409  0.012694612            4 
 4549000    0.5152976    -8.120887    765.37683  0.014020972  0.012690556           10 
 4550000   0.53655416   -8.1247935     765.4003  0.014018321  0.012686497            6 
 4551000    0.5221327   -8.1212443    766.13872  0.014028762  0.012682446            8 
 4552000   0.52375428   -8.1062188    765.92231  0.014021718  0.012678396            6 
 4553000   0.52762704   -8.1389176    765.19656  0.014005355  0.012674341            5 
 4554000   0.52181863   -8.1136361     764.6271  0.013991859  0.012670286            7 
 4555000   0.52734204   -8.1305114     765.7833   0.01400994  0.012666234            3 
 4556000   0.52179606   -8.1377066    765.72648  0.014005825  0.012662185            5 
 4557000   0.51781578   -8.1236037    765.62204  0.014000842  0.012658134            8 
 4558000   0.52333132    -8.127306    765.45491  0.013994715  0.012654092            6 
 4559000   0.52814021   -8.1277615    765.85724  0.013998999  0.012650046           13 
 4560000   0.53752222   -8.1238826    765.17114  0.013983391  0.012646001            4 
 4561000   0.52511269    -8.117426    763.67986  0.013953078  0.012641958            5 
 4562000   0.50375788    -8.142481    764.78841  0.013970269   0.01263792            3 
 4563000   0.50935432   -8.1367749    765.91023  0.013987695  0.012633878            8 
 4564000    0.5157085   -8.1237634    765.38423  0.013975026  0.012629841            3 
 4565000   0.52280121   -8.1511013    766.05597  0.013984227  0.012625808            3 
 4566000   0.50687237   -8.1213036    766.75697  0.013993958  0.012621773            6 
 4567000   0.52565293   -8.1189702    764.76321  0.013954515  0.012617741            4 
 4568000   0.52997541   -8.1307679    765.66491  0.013967909   0.01261371            5 
 4569000   0.51976324    -8.142575    765.35993   0.01395929  0.012609679            3 
 4570000   0.52097634   -8.1121131    765.38195  0.013956637  0.012605652            6 
 4571000   0.52522628   -8.1369281     764.7883  0.013942761  0.012601627            6 
 4572000   0.52732524   -8.1310036    764.81184   0.01394014  0.012597598            7 
 4573000   0.51615645   -8.1423068    765.87063  0.013956386  0.012593576            4 
 4574000    0.5252815   -8.1325266    766.17695  0.013958915  0.012589554            4 
 4575000   0.52709485   -8.1293946    764.46682  0.013924714  0.012585534            4 
 4576000   0.52324656   -8.1544014    765.85824  0.013947011  0.012581515            5 
 4577000   0.52314094   -8.1609861     765.1889  0.013931777  0.012577493            3 
 4578000   0.51202586   -8.1367986    764.75207  0.013920782  0.012573475            5 
 4579000   0.50968515    -8.157838    765.34276  0.013928492  0.012569455            5 
 4580000   0.51773314   -8.1201951    765.99275  0.013937277  0.012565441            4 
 4581000      0.53187   -8.1431458    765.28252  0.013921315  0.012561432            3 
 4582000   0.52390807   -8.1398375    766.05723  0.013932366  0.012557419            5 
 4583000   0.51099582   -8.1403972    764.58382  0.013902535  0.012553405            4 
 4584000   0.50977851   -8.1323681    764.46783  0.013897394  0.012549394            7 
 4585000   0.50224057   -8.1457844    765.42653  0.013911787  0.012545383            4 
 4586000    0.5244988   -8.1426944    765.52385  0.013910522  0.012541374            4 
 4587000   0.51858041   -8.1404797    766.70063  0.013928868  0.012537364            6 
 4588000   0.51281606    -8.135759    764.50338  0.013885923  0.012533359            5 
 4589000   0.51608715   -8.1265428    765.42244  0.013899587  0.012529359            7 
 4590000   0.52144911   -8.1286586    765.99818  0.013907011  0.012525354            4 
 4591000   0.51241404   -8.1528701    765.59825  0.013896723  0.012521354            3 
 4592000   0.51505164   -8.1416221    765.82696  0.013897847  0.012517357            5 
 4593000   0.50711961   -8.1325091    765.82674  0.013894817  0.012513363            3 
 4594000    0.5112593   -8.1403474    765.67161  0.013888979  0.012509369            4 
 4595000   0.51606462   -8.1341377    765.47213  0.013882338  0.012505376            5 
 4596000   0.52270234   -8.1390807    765.83969  0.013885982  0.012501382            4 
 4597000   0.52211444   -8.1339759     765.1153   0.01386983  0.012497393            8 
 4598000   0.50973411   -8.1600792    765.57507  0.013875146  0.012493402            5 
 4599000   0.51233063   -8.1372101    764.84617  0.013858922  0.012489415            4 
 4600000    0.5163411   -8.1278786    764.38329  0.013847523  0.012485428            5 
 4601000   0.51567421   -8.1262817    765.26806  0.013860539  0.012481444            3 
 4602000   0.51561988   -8.1463585    765.83263   0.01386775  0.012477463            4 
 4603000   0.51483662   -8.1303492    765.08005  0.013851113  0.012473486            4 
 4604000    0.5114898   -8.1213291    765.02722  0.013847148  0.012469504            7 
 4605000   0.52828067   -8.1452188    764.97385  0.013843175  0.012465523            9 
 4606000   0.51557875   -8.1400504    763.61795  0.013815638  0.012461548            5 
 4607000   0.52171322   -8.1451799    764.39616  0.013826716   0.01245757            8 
 4608000   0.52499393   -8.1217919    765.77902  0.013848724  0.012453593            2 
 4609000   0.50741539   -8.1518183    764.35955  0.013820054  0.012449616            6 
 4610000   0.51368821   -8.1611631    763.65677  0.013804352  0.012445641            7 
 4611000   0.52520098   -8.1463486    765.05711  0.013826666  0.012441664            5 
 4612000   0.50886494   -8.1439321    764.58929  0.013815216  0.012437692            4 
 4613000   0.51192611   -8.1333018    764.75569  0.013815227  0.012433723            6 
 4614000    0.5230102   -8.1440466    765.73392    0.0138299  0.012429756            8 
 4615000   0.52361668   -8.1276615    765.03764  0.013814331  0.012425789            3 
 4616000   0.50423417   -8.1427922    765.19362  0.013814154  0.012421825            3 
 4617000   0.52194141   -8.1402609    764.40068   0.01379685  0.012417861            5 
 4618000   0.52016298   -8.1504567    764.87763  0.013802469    0.0124139            3 
 4619000   0.51425475   -8.1452822    766.40083  0.013826962  0.012409942            3 
 4620000   0.52185529   -8.1337063     764.7491  0.013794176   0.01240598            4 
 4621000   0.51907699   -8.1399206    764.07017  0.013778947   0.01240202            7 
 4622000   0.51080276   -8.1484114    764.62276  0.013785929  0.012398061            9 
 4623000   0.50661574   -8.1444378    766.36221  0.013814302  0.012394103            7 
 4624000   0.51712579   -8.1522931    764.68883  0.013781157  0.012390147            3 
 4625000   0.51411155   -8.1590793    764.90284  0.013782033  0.012386195            8 
 4626000   0.51887211   -8.1462301    765.44135  0.013788755  0.012382244            9 
 4627000   0.51119013   -8.1479977     765.0062  0.013777937  0.012378294           10 
 4628000   0.51098959   -8.1459667    763.79338  0.013753122  0.012374347            4 
 4629000   0.50486086   -8.1559265    765.17566  0.013775035  0.012370399            6 
 4630000   0.51580667   -8.1559675    765.86328  0.013784436  0.012366452           10 
 4631000    0.5157502   -8.1400379    765.00886  0.013766085  0.012362507            6 
 4632000    0.5160759   -8.1282772    765.19454  0.013766453  0.012358569            5 
 4633000   0.51313429   -8.1580556    763.97852  0.013741609  0.012354627            5 
 4634000   0.50974771   -8.1567157    765.30093  0.013762425  0.012350685            4 
 4635000   0.50416596   -8.1659436    764.70029  0.013748657  0.012346743            6 
 4636000   0.52015769   -8.1625659    764.70716  0.013745815  0.012342803            3 
 4637000   0.50810454   -8.1646618    764.40188  0.013737364  0.012338862            5 
 4638000   0.51360413   -8.1598247     764.6986  0.013739733  0.012334925            4 
 4639000   0.50326553   -8.1411054    764.32787  0.013730112   0.01233099            5 
 4640000   0.50986204    -8.160126    763.54825  0.013713151  0.012327058            3 
 4641000   0.51348838   -8.1518284    765.27103   0.01374113  0.012323124            4 
 4642000   0.50589943   -8.1460628    764.87896  0.013731132  0.012319191            5 
 4643000   0.50534213   -8.1565877    765.38024  0.013737171  0.012315261            5 
 4644000   0.50520805   -8.1495625    764.38498  0.013716354  0.012311333            5 
 4645000   0.51216369   -8.1605598    764.37305  0.013713187  0.012307406            5 
 4646000   0.50736486   -8.1502157    765.07241   0.01372278  0.012303478            9 
 4647000   0.51262193   -8.1597794     765.2679  0.013723332   0.01229955           10 
 4648000   0.49855234   -8.1560941    764.72487  0.013710644  0.012295627            6 
 4649000   0.50182592   -8.1769735    764.60784  0.013705597  0.012291703            7 
 4650000   0.51448684   -8.1517821    764.22734   0.01369583   0.01228778            3 
 4651000   0.50531511   -8.1492878     764.3525  0.013695128  0.012283859            7 
 4652000   0.49989355   -8.1525908    763.84286  0.013683055  0.012279942            5 
 4653000   0.51807543   -8.1565758    763.83184  0.013679917  0.012276024            4 
 4654000   0.50384282   -8.1573474    763.95921  0.013679258  0.012272107            3 
 4655000    0.5063232   -8.1565364    765.25668  0.013699547  0.012268194            4 
 4656000   0.49466515     -8.15043    762.82963  0.013653165  0.012264279            4 
 4657000   0.50653042   -8.1456029    764.98344  0.013688774   0.01226037            6 
 4658000   0.50557564   -8.1538315    762.57465  0.013642741  0.012256464            5 
 4659000    0.4938206   -8.1582069    764.29495  0.013670583  0.012252558            5 
 4660000   0.50526919   -8.1450693    765.20519  0.013683927  0.012248652            4 
 4661000   0.51676437   -8.1555455    763.79708  0.013655816  0.012244747            7 
 4662000   0.51314068   -8.1534031    764.71913  0.013669368  0.012240845            7 
 4663000   0.50322162   -8.1576304    764.57439   0.01366385  0.012236944            4 
 4664000   0.50732184   -8.1520219    763.82164  0.013647471  0.012233041            4 
 4665000   0.50865134   -8.1587221    765.05921  0.013666652  0.012229144            7 
 4666000   0.50888848   -8.1587668    764.05905  0.013645861  0.012225243           12 
 4667000   0.50105802   -8.1501677    764.71038  0.013654567  0.012221347           10 
 4668000   0.50913536    -8.167095    764.71602  0.013651743  0.012217448            7 
 4669000   0.50727696   -8.1465746    765.10937  0.013655839  0.012213554            6 
 4670000   0.50851487   -8.1615233    764.43994   0.01364097  0.012209659            5 
 4671000   0.50299837   -8.1556152    763.79317  0.013626511  0.012205766            3 
 4672000   0.51372368   -8.1535393    763.66788  0.013621359  0.012201875            9 
 4673000   0.50412817   -8.1450483     763.6336  0.013617833  0.012197985            8 
 4674000   0.50942677    -8.162513    764.11611  0.013623522  0.012194095            8 
 4675000   0.50665121   -8.1423034    764.33612   0.01362453   0.01219021            8 
 4676000   0.51026982   -8.1628176    763.03882  0.013598496  0.012186326            4 
 4677000   0.50914712   -8.1635501    764.87805  0.013628359  0.012182444            6 
 4678000   0.50800134    -8.154828    764.84053  0.013624778   0.01217856            8 
 4679000   0.51058657   -8.1718486    764.23898  0.013611152  0.012174675            6 
 4680000    0.4951594   -8.1745185    763.98476  0.013603717  0.012170792            8 
 4681000   0.49676466   -8.1567352    764.75943  0.013614602  0.012166917            4 
 4682000   0.48825915   -8.1546824    764.04552  0.013598988   0.01216304            8 
 4683000   0.49268261   -8.1453027    764.72323  0.013608144  0.012159165            6 
 4684000   0.49843079   -8.1564138    764.66084  0.013604128   0.01215529            6 
 4685000   0.50503783   -8.1572712    763.25872  0.013576285  0.012151419            8 
 4686000   0.49015348   -8.1616745    763.65937  0.013580512  0.012147546            3 
 4687000   0.49622136   -8.1650416    763.72487  0.013578779  0.012143678            7 
 4688000   0.49807932   -8.1587701    762.87002  0.013560687  0.012139808            7 
 4689000   0.49792481   -8.1544882    764.91937  0.013594216  0.012135938           12 
 4690000   0.49319838   -8.1457402    764.48437  0.013583589  0.012132073            3 
 4691000   0.51026828   -8.1719452    764.21585  0.013575923  0.012128207            4 
 4692000   0.49829831   -8.1812262    762.93068  0.013550204  0.012124342            5 
 4693000   0.49879663    -8.170218    764.73561  0.013579367  0.012120479            5 
 4694000   0.49870622   -8.1530495    764.63238  0.013574641  0.012116619            4 
 4695000   0.50739189   -8.1715802      764.892  0.013576358   0.01211276            4 
 4696000   0.50186629   -8.1695449    764.37168  0.013564233  0.012108905           11 
 4697000   0.49807574   -8.1700096     764.5147  0.013563883  0.012105046           11 
 4698000   0.49933626   -8.1773836    762.53555   0.01352589   0.01210119            3 
 4699000   0.49198695   -8.1820907    763.02552    0.0135317  0.012097339            4 
 4700000   0.50821622    -8.172588    764.41369  0.013553434  0.012093485            8 
 4701000   0.49250007   -8.1605061    764.59902  0.013553836  0.012089635            5 
 4702000    0.4983691   -8.1603358    765.07042  0.013559308  0.012085791            5 
 4703000   0.49949254   -8.1777927    764.28948  0.013542588  0.012081945            6 
 4704000   0.49979606   -8.1617806    763.17048  0.013519885  0.012078103            9 
 4705000   0.49577202   -8.1670186     764.4726  0.013540074  0.012074257            6 
 4706000   0.50659009   -8.1720444    764.57482  0.013539007  0.012070417            8 
 4707000   0.49786088   -8.1690265    763.13929  0.013510716  0.012066575            5 
 4708000   0.49888109   -8.1616868     763.1612  0.013508234  0.012062736            4 
 4709000   0.50772138   -8.1651924    763.30721   0.01350795  0.012058896            8 
 4710000    0.4977768   -8.1627098    763.86697  0.013514985  0.012055057            6 
 4711000   0.50140309   -8.1622399    763.94061  0.013513419  0.012051223           11 
 4712000   0.49496921   -8.1837858    764.52753  0.013520931  0.012047385           10 
 4713000   0.49569681   -8.1819324    763.79891  0.013505179  0.012043555            3 
 4714000   0.50840646   -8.1749567    764.12148  0.013508017  0.012039724            6 
 4715000   0.50368561   -8.1728547    762.83875   0.01348248  0.012035896            4 
 4716000   0.50350334   -8.1681462    764.08055  0.013501565  0.012032065            6 
 4717000   0.48450714   -8.1606671    763.27471  0.013484466  0.012028238            8 
 4718000   0.49708531   -8.1790035    764.36431  0.013500853  0.012024413            4 
 4719000   0.49078116   -8.1650293    763.85162  0.013488939  0.012020588           11 
 4720000   0.48899216   -8.1846785    763.75492  0.013484374  0.012016765            5 
 4721000    0.4919433   -8.1801412    764.96215  0.013502827  0.012012941            4 
 4722000   0.50458734   -8.1642401    763.96996  0.013482457   0.01200912            7 
 4723000   0.50695252   -8.1692265    763.41805  0.013469865  0.012005298            7 
 4724000   0.48414726   -8.1791219    764.31822  0.013482893   0.01200148            5 
 4725000   0.49037858   -8.1735088    763.33944  0.013462777  0.011997661            7 
 4726000   0.49768525   -8.1736496    762.50921  0.013445289  0.011993845            5 
 4727000    0.5024239   -8.1539691    763.67109  0.013462927  0.011990032            6 
 4728000   0.49541404   -8.1821451    763.46398  0.013456429  0.011986216            7 
 4729000   0.49682765    -8.166208    764.01655  0.013463321  0.011982403            8 
 4730000   0.48322561   -8.1672529    763.78198  0.013456342  0.011978594            7 
 4731000   0.48926309   -8.1759958    763.27458   0.01344456  0.011974784            7 
 4732000   0.49938554   -8.1630533    763.84833  0.013451823  0.011970978            7 
 4733000   0.49236333   -8.1866335    764.07287  0.013452934  0.011967174            5 
 4734000   0.48854907   -8.1641271      763.297  0.013436435  0.011963372            7 
 4735000   0.48149963   -8.1781387    763.52897   0.01343768  0.011959566            7 
 4736000   0.49780893   -8.1690134    763.18632  0.013428813  0.011955769            7 
 4737000   0.48615001   -8.1735763    763.70384  0.013435083   0.01195197            7 
 4738000   0.50229898   -8.1686617     763.7785   0.01343356   0.01194817            7 
 4739000   0.49774876   -8.1761768    762.90855  0.013415428  0.011944372            5 
 4740000   0.48484479   -8.1534297    762.09443  0.013398285  0.011940572            4 
 4741000   0.49901776   -8.1769842    763.74293  0.013424434   0.01193677            5 
 4742000    0.4966366   -8.1796326    762.83295  0.013405612  0.011932975           10 
 4743000   0.49916261   -8.1764879    763.08961  0.013407295  0.011929179            5 
 4744000   0.49387309   -8.1729758     762.3826   0.01339205  0.011925386            6 
 4745000   0.49439974   -8.1771555    762.58475  0.013392777  0.011921594            6 
 4746000   0.49625614   -8.1857722     761.2586   0.01336667  0.011917802            7 
 4747000   0.49348612   -8.1917573    762.94179  0.013393403  0.011914013            5 
 4748000   0.48535043   -8.1789175    763.65235  0.013403053  0.011910225            5 
 4749000   0.48751207   -8.1657903    763.44044  0.013396512   0.01190644            8 
 4750000   0.48859413   -8.1724089    763.91167  0.013401959  0.011902651            6 
 4751000   0.48550854   -8.1879536    762.82328  0.013380048  0.011898866            8 
 4752000   0.49420676   -8.1611291    763.78653  0.013394124  0.011895085            8 
 4753000   0.49252249   -8.2068661    763.26348  0.013382136  0.011891302            5 
 4754000   0.48881091   -8.1856507    762.84064  0.013371909  0.011887519            5 
 4755000      0.49642   -8.1982494    764.00627  0.013389525  0.011883742            5 
 4756000   0.48742652   -8.1969091    762.72065  0.013364183  0.011879964            6 
 4757000   0.48694543   -8.1710039    763.03531  0.013366886  0.011876187            4 
 4758000   0.48669214   -8.1971514    763.05566  0.013364433  0.011872411            5 
 4759000   0.49588481   -8.1930755    762.52514  0.013352335  0.011868636            6 
 4760000   0.49177247   -8.1858307    762.61635  0.013351127  0.011864863            4 
 4761000   0.48453392   -8.1957442    763.64733  0.013366368  0.011861096            5 
 4762000   0.49761203   -8.1700023    762.48317  0.013343189  0.011857329            6 
 4763000   0.49151797    -8.162197    763.00132  0.013349453  0.011853565            3 
 4764000   0.49631622    -8.178699    763.37596  0.013353204    0.0118498            8 
 4765000   0.48671855   -8.1800304     762.7766   0.01333992  0.011846036            7 
 4766000   0.47668973   -8.1953007    763.24346  0.013345284  0.011842277            4 
 4767000   0.48827652   -8.1863348    762.19666  0.013324185  0.011838518            6 
 4768000   0.47486531   -8.1771417    763.40303  0.013342475  0.011834761            7 
 4769000   0.49119315   -8.1941713    762.08473  0.013316641  0.011831005            6 
 4770000   0.50263248   -8.1956107    762.35725   0.01331861  0.011827249            7 
 4771000   0.48614149   -8.1927952    761.61383  0.013302834  0.011823492            4 
 4772000   0.48949286   -8.1864727     762.6212  0.013317638  0.011819738            5 
 4773000   0.49066054   -8.1861044    763.14896  0.013324062  0.011815983            3 
 4774000   0.48730992   -8.1861065    762.69107  0.013313278  0.011812228            5 
 4775000   0.49308514   -8.1890766    763.45406  0.013323806  0.011808476            7 
 4776000   0.49236674   -8.1855921    762.97167  0.013312599  0.011804724            6 
 4777000   0.48925888   -8.1904954      764.326  0.013333438  0.011800974            4 
 4778000   0.48732082   -8.1948973    762.65603  0.013301521  0.011797226           10 
 4779000   0.47718881   -8.1822397    762.02888  0.013287802  0.011793482            9 
 4780000   0.49115697   -8.1836916    763.03106  0.013302494   0.01178974            5 
 4781000   0.48999587   -8.1877832    762.48761  0.013290239  0.011785999            4 
 4782000   0.48623479   -8.1915514    762.95832  0.013295663  0.011782257            5 
 4783000   0.48897393   -8.1797417     763.9211  0.013309657   0.01177852            5 
 4784000   0.49047351   -8.1939979    763.20061  0.013294325  0.011774782            4 
 4785000    0.4867319   -8.1895942    762.36299  0.013276959  0.011771042            9 
 4786000   0.49150724   -8.1908374    762.71172  0.013280257  0.011767307            5 
 4787000   0.50271096   -8.2041061    763.08987  0.013284066  0.011763572            3 
 4788000   0.48847244   -8.2004593    763.58251  0.013289865  0.011759842            7 
 4789000   0.48632201   -8.2020599     763.6085  0.013287543  0.011756109            8 
 4790000   0.48193962   -8.1891283    763.53016  0.013283406  0.011752383            5 
 4791000   0.48757203   -8.1956005    762.90177  0.013269703  0.011748657           10 
 4792000   0.48559027   -8.2015242    762.57258  0.013261209  0.011744925            8 
 4793000    0.4883322   -8.2002156    762.55166  0.013258079  0.011741201            8 
 4794000   0.48546968   -8.1762064    762.90155  0.013261395  0.011737474           11 
 4795000   0.48237239   -8.1814474    762.37316  0.013249447  0.011733751            6 
 4796000   0.47873313   -8.1919931    763.22732  0.013261526   0.01173003            6 
 4797000   0.49543066   -8.1849947     761.9129  0.013235927  0.011726311            6 
 4798000   0.47920625   -8.2027325    762.22765  0.013238635  0.011722592            6 
 4799000   0.48384153   -8.2025967    762.08658  0.013233427  0.011718873            6 
 4800000   0.48129223   -8.1810382    763.54744  0.013256032  0.011715159            4 
 4801000   0.47598305   -8.1907223     762.2794  0.013231261  0.011711447            8 
 4802000   0.46487488   -8.1780141    762.46479  0.013231723  0.011707732            5 
 4803000   0.47858272   -8.1768268    762.19726  0.013224326   0.01170402            4 
 4804000   0.48077626   -8.1902214    762.18654  0.013221387  0.011700307            9 
 4805000   0.48648375   -8.1984028    762.82529  0.013229714  0.011696599            7 
 4806000   0.47080663   -8.1805036    763.10482  0.013231808  0.011692894           10 
 4807000   0.48299069   -8.1882756    762.57035   0.01321979  0.011689188           11 
 4808000   0.48498684   -8.1942422    762.40436  0.013214163  0.011685485            7 
 4809000   0.48625774   -8.1970652    763.02234  0.013222124  0.011681783            3 
 4810000   0.47714146   -8.1866689    763.98286  0.013236016   0.01167808            6 
 4811000   0.47304239   -8.2093704    761.39547  0.013188448  0.011674381            4 
 4812000   0.48165056   -8.1867109    761.69554  0.013190904   0.01167068            4 
 4813000   0.48416503   -8.1886814    762.36961  0.013199834  0.011666981            7 
 4814000   0.48196541   -8.1953805    764.12363  0.013227455  0.011663283            5 
 4815000   0.48746949    -8.200557    763.36976  0.013211661  0.011659588            7 
 4816000   0.47912438   -8.2116844    763.72228  0.013215017  0.011655896           11 
 4817000   0.47721962   -8.1957727    762.92403  0.013198464  0.011652203           11 
 4818000   0.46874845   -8.1947176    762.85482  0.013194528  0.011648513            6 
 4819000   0.49207732   -8.1887324     762.9223  0.013192957  0.011644824            7 
 4820000   0.47763832   -8.2167255    763.16626  0.013194437  0.011641134            8 
 4821000   0.48947933   -8.1979699    763.73745  0.013201574  0.011637451            8 
 4822000   0.48348589   -8.2160807      762.045  0.013169587  0.011633766            9 
 4823000   0.47564358   -8.2010476    763.89269  0.013198782  0.011630082            6 
 4824000   0.48063813   -8.2008571    762.73316  0.013176015  0.011626401            7 
 4825000   0.47929333   -8.1989957     763.1037  0.013179684  0.011622721            7 
 4826000   0.48609491   -8.2091884    763.87025  0.013190189  0.011619041            7 
 4827000   0.47567937   -8.2169639    762.57192  0.013165042  0.011615363            6 
 4828000   0.48605826   -8.2015766    763.28916  0.013174695  0.011611687            9 
 4829000   0.48123914   -8.2000799    762.66754   0.01316124  0.011608006            8 
 4830000    0.4775858   -8.2000076    762.47158  0.013155134  0.011604331            5 
 4831000   0.48103354   -8.1913682    761.89875   0.01314253  0.011600658            7 
 4832000   0.47220296   -8.1899828    761.66951  0.013135857  0.011596988           10 
 4833000    0.4833762   -8.2203074    761.33298  0.013127336  0.011593317            8 
 4834000   0.46997771    -8.213497    762.34314  0.013142035  0.011589645           11 
 4835000   0.48895122   -8.1967391    762.94299  0.013149655  0.011585978           11 
 4836000   0.47633795   -8.2063671    762.61594    0.0131413   0.01158231            6 
 4837000   0.47477366   -8.1957494    762.29591   0.01313307  0.011578648           11 
 4838000   0.47039912   -8.2185334    762.33482  0.013131026  0.011574985            8 
 4839000   0.47888996   -8.1939965    762.18183  0.013125677  0.011571319            8 
 4840000   0.47443336   -8.1893104    762.74338  0.013132634   0.01156766            8 
 4841000   0.47590854    -8.196294    762.27131  0.013121795  0.011564001            7 
 4842000   0.47199098   -8.1897615    763.21901  0.013135395  0.011560343            6 
 4843000    0.4771935   -8.2161489    762.72881  0.013124248  0.011556689            8 
 4844000   0.47898135   -8.1909218    762.17028   0.01311193  0.011553031            6 
 4845000   0.47839755   -8.2286154    763.28003  0.013128312  0.011549377           10 
 4846000   0.46454542   -8.2084382     761.8425  0.013100882  0.011545722            6 
 4847000   0.46682698   -8.1977879    761.86925  0.013098639  0.011542071            6 
 4848000   0.48283342   -8.1913391    763.88099  0.013130518   0.01153842            6 
 4849000   0.48102158   -8.2144155    762.79841  0.013109205  0.011534771            7 
 4850000   0.48242393   -8.1992706    762.85214  0.013107425  0.011531122            4 
 4851000   0.47830988    -8.199901    762.97968  0.013106914  0.011527478            8 
 4852000   0.47937079   -8.2085999    763.38096  0.013111105  0.011523834            6 
 4853000   0.46202691   -8.1948632     761.4283  0.013074873   0.01152019            3 
 4854000   0.47206327   -8.1977469    762.25443  0.013086362  0.011516548            6 
 4855000   0.48719274   -8.2090018    761.64517  0.013073209  0.011512906            4 
 4856000   0.47075557   -8.2084706    761.88326  0.013074603  0.011509264            6 
 4857000   0.47088409   -8.2148077     762.1479  0.013076451  0.011505626            6 
 4858000   0.47324444   -8.2067741    762.82473   0.01308537  0.011501988            8 
 4859000   0.47061177   -8.2069885    762.86371  0.013083345  0.011498356            8 
 4860000   0.47878879   -8.2082455    762.07486  0.013067127  0.011494719           10 
 4861000   0.47454085   -8.2100084    761.85824  0.013060726  0.011491085           14 
 4862000   0.46551221   -8.2181144    761.45481  0.013051125  0.011487454            5 
 4863000   0.47656874    -8.214147     762.5366  0.013066979  0.011483826            7 
 4864000   0.47810832   -8.2164874    762.13537  0.013057418  0.011480198            5 
 4865000   0.47152439   -8.2142356    761.45269   0.01304304  0.011476571            7 
 4866000   0.48315798   -8.2060466    761.60066  0.013042894  0.011472944            7 
 4867000   0.47805617   -8.2084119    762.49841  0.013055585  0.011469319            6 
 4868000   0.46832147   -8.2197244    761.70006  0.013039237  0.011465697            6 
 4869000   0.46706401   -8.2118742    762.55618  0.013051211  0.011462076            5 
 4870000   0.47345553    -8.217044    762.55898  0.013048579  0.011458455            9 
 4871000   0.47018496   -8.2161583    763.40852  0.013060435  0.011454836            8 
 4872000    0.4670174   -8.2046647    761.85876  0.013031246  0.011451215            3 
 4873000   0.46661179   -8.2245247    761.27769  0.013018635  0.011447598            5 
 4874000   0.47221569    -8.196874    761.73988  0.013023866  0.011443983            5 
 4875000   0.47735216   -8.2159286     762.8214  0.013039682  0.011440368            5 
 4876000   0.46581576    -8.206103    761.62085   0.01301649  0.011436756            5 
 4877000   0.47368966   -8.2066068    761.89306  0.013018472  0.011433146            8 
 4878000   0.47456214   -8.2021094    762.86985   0.01303249  0.011429537            8 
 4879000   0.46125872   -8.2093697    762.22687  0.013018837  0.011425928            5 
 4880000   0.46393497   -8.2109645    761.50472  0.013003837  0.011422322           13 
 4881000   0.47337189   -8.2225964     761.3487   0.01299851  0.011418716            8 
 4882000   0.47846317   -8.2065294    761.90811  0.013005396  0.011415113            6 
 4883000   0.47199999   -8.2173806    762.41468  0.013011377   0.01141151            3 
 4884000   0.46680923   -8.2023723    762.37547  0.013008044  0.011407907            5 
 4885000   0.46197868   -8.2131606    762.83041  0.013013142  0.011404311            5 
 4886000   0.47378213   -8.2082381    761.96218  0.012995671  0.011400714           11 
 4887000   0.47630308   -8.2156013    761.83941  0.012990918  0.011397119            7 
 4888000   0.46834776   -8.2221038    761.96503  0.012990402  0.011393521            8 
 4889000   0.46398022   -8.2046169      761.207  0.012974824  0.011389927           11 
 4890000    0.4598981   -8.2122579    762.17552  0.012988676  0.011386336           10 
 4891000   0.47032414   -8.2236271    762.75179  0.012995839  0.011382743            4 
 4892000   0.46889185   -8.2093596    761.64089  0.012974259  0.011379156            8 
 4893000   0.46315577   -8.2205516    760.97096  0.012960197  0.011375566            6 
 4894000   0.46317077    -8.204865    761.71434  0.012970207  0.011371978            9 
 4895000   0.46646933   -8.2183346    762.04892  0.012973254  0.011368389           10 
 4896000   0.46456307   -8.2180375    762.01699   0.01297006  0.011364807            5 
 4897000   0.47204242   -8.2134379    762.95004   0.01298329   0.01136122            5 
 4898000   0.46289271   -8.2189823     761.8863  0.012962541  0.011357637            4 
 4899000   0.46501336   -8.2079872    761.17026  0.012947715  0.011354056            4 
 4900000   0.47407117   -8.2186631    762.33916  0.012964952  0.011350478           10 
 4901000   0.46688662   -8.2088358    760.55896  0.012932037  0.011346897            6 
 4902000   0.46206436   -8.2106085    760.64174  0.012930806  0.011343321            5 
 4903000   0.46585593    -8.214448    762.77991   0.01296451  0.011339745            4 
 4904000   0.47488826   -8.2105697    761.97938  0.012948263  0.011336173            6 
 4905000   0.47064252   -8.2384248    761.80264   0.01294262    0.0113326            6 
 4906000   0.46427009   -8.2291188    761.79675  0.012939882  0.011329028            7 
 4907000    0.4626956    -8.214186    761.89984  0.012938996  0.011325458            6 
 4908000   0.47822852    -8.220431    760.98424  0.012920814   0.01132189            8 
 4909000   0.47129157   -8.2247465     761.3775  0.012924857   0.01131832            5 
 4910000   0.47046282   -8.2287101     760.9325  0.012914672  0.011314749           10 
 4911000   0.45956646   -8.2379583     760.8791  0.012911137  0.011311181            4 
 4912000   0.47627213   -8.2183277    762.12812  0.012929698  0.011307617            5 
 4913000   0.46416911   -8.2180799    761.40698  0.012914835  0.011304055           10 
 4914000   0.45780365   -8.2244703    761.27355  0.012909944  0.011300493            7 
 4915000   0.46183782   -8.2213213    761.48044  0.012910825  0.011296933           13 
 4916000   0.46272033   -8.2242283    761.17662  0.012903048  0.011293375            6 
 4917000   0.46413263   -8.2341178      762.567  0.012923988  0.011289816            5 
 4918000   0.46218725   -8.2103775    762.16393  0.012914531  0.011286259           12 
 4919000   0.45649196   -8.2326222    761.28361  0.012896991  0.011282702            7 
 4920000   0.47625934   -8.2285343    761.33321   0.01289521  0.011279151            5 
 4921000   0.47140469   -8.2036949    761.20356  0.012890394  0.011275599            5 
 4922000   0.46977497   -8.2264329    761.16099  0.012887055  0.011272049            6 
 4923000   0.46605423   -8.2217586    760.15531  0.012867413  0.011268498            5 
 4924000     0.461046   -8.2229497    761.85664  0.012893593  0.011264948           11 
 4925000   0.45940162   -8.2145293    761.19963  0.012879858  0.011261402            9 
 4926000   0.46104827   -8.2238531    761.74231  0.012886424  0.011257855            7 
 4927000   0.46737958   -8.2430079    762.21142  0.012891743  0.011254312            6 
 4928000   0.46145717   -8.2323686    761.87686   0.01288347  0.011250772            6 
 4929000   0.46399873   -8.2345415    761.16586  0.012868835  0.011247232            6 
 4930000   0.45251163   -8.2128891    761.28932  0.012868312  0.011243695            6 
 4931000   0.47342184   -8.2139745     761.2451  0.012864955  0.011240156           12 
 4932000   0.46159405   -8.2154672    760.79694  0.012854774   0.01123662            6 
 4933000   0.46093931   -8.2244644    760.85624   0.01285317  0.011233085            5 
 4934000   0.45299854   -8.2308912    761.43305  0.012860307  0.011229547            8 
 4935000   0.47396648   -8.2400432    761.15765   0.01285305  0.011226014            8 
 4936000   0.45809032   -8.2042849    760.85356  0.012845313   0.01122248            4 
 4937000   0.45682283   -8.2143069    761.28423   0.01284998  0.011218948           10 
 4938000    0.4633314   -8.2484664    762.03613  0.012860067  0.011215418            5 
 4939000   0.46792741   -8.2210265     761.0973  0.012841623  0.011211887            8 
 4940000   0.46101224   -8.2214432    761.62693  0.012847958  0.011208357           12 
 4941000   0.46163861   -8.2221429    760.74129   0.01283042  0.011204827            8 
 4942000   0.46503373    -8.221362    761.18774  0.012835352  0.011201301            7 
 4943000   0.45447128   -8.2409178    761.35955  0.012835652  0.011197778            7 
 4944000   0.46377275   -8.2216355    760.51761  0.012818865  0.011194254            3 
 4945000   0.46982724    -8.241264    760.70197  0.012819379  0.011190734            4 
 4946000    0.4616601   -8.2273124    761.73167  0.012834137  0.011187213            3 
 4947000   0.45652683   -8.2209103    760.93118  0.012818058  0.011183697            5 
 4948000   0.46375492   -8.2268666    762.02487  0.012833887   0.01118018            6 
 4949000   0.46397121   -8.2133855    759.65435  0.012791378  0.011176663           11 
 4950000   0.46617043   -8.2194593     760.8031  0.012808133  0.011173146            7 
 4951000   0.45780349   -8.2376764    760.58408   0.01280186   0.01116963            6 
 4952000   0.44505197     -8.21654    760.80501  0.012802992  0.011166117            7 
 4953000    0.4538164   -8.2202227    760.96518  0.012803102  0.011162606            4 
 4954000   0.46555614    -8.220508    761.52575  0.012809947  0.011159098            4 
 4955000   0.45191873   -8.2450694    762.00268  0.012815383  0.011155589            5 
 4956000   0.45555673   -8.2287805    761.75191  0.012808581  0.011152079            3 
 4957000   0.46195147    -8.229182    761.72351  0.012805519  0.011148574            6 
 4958000   0.45262688   -8.2218293    761.62132  0.012801219   0.01114507            6 
 4959000   0.46238265   -8.2281608    760.90537  0.012786606  0.011141567            8 
 4960000   0.46064153    -8.230807    760.66765  0.012780034  0.011138064            4 
 4961000   0.45708826   -8.2340015    761.08322  0.012784439  0.011134563            6 
 4962000   0.45663502   -8.2285427    761.22889  0.012784309  0.011131062            8 
 4963000   0.46258162   -8.2430359    761.17637  0.012780851  0.011127561            6 
 4964000   0.45188275   -8.2576172    761.18714  0.012778457  0.011124063            6 
 4965000   0.46769754   -8.2424975    760.90805  0.012771199  0.011120567            6 
 4966000   0.45985927    -8.242638    761.36354  0.012776271  0.011117076            4 
 4967000   0.46614472   -8.2329619    760.68661  0.012762342  0.011113584            4 
 4968000   0.45435899    -8.231882    761.64627   0.01277587  0.011110094            6 
 4969000   0.44886412   -8.2305405     761.0782  0.012763772  0.011106605            4 
 4970000   0.44811461   -8.2362741    761.46406  0.012767674  0.011103115            4 
 4971000   0.47199523   -8.2377957    759.95753   0.01273985  0.011099628            7 
 4972000   0.45616193   -8.2362229    760.49846  0.012746354  0.011096143            5 
 4973000   0.46193725   -8.2359303    760.76199  0.012748207  0.011092657            3 
 4974000    0.4561844   -8.2372744    760.94318  0.012748679  0.011089175            8 
 4975000   0.45985261   -8.2375669     760.9608  0.012746412  0.011085693            3 
 4976000   0.45211399   -8.2478963    760.03876  0.012728409  0.011082207            4 
 4977000   0.45733025   -8.2332706    760.24047  0.012729229  0.011078728            4 
 4978000   0.44492922   -8.2490073    760.29851  0.012727643  0.011075249            7 
 4979000   0.45743572   -8.2406025    760.95759  0.012736118  0.011071772            7 
 4980000   0.46291375   -8.2272735    760.94258   0.01273331  0.011068297           10 
 4981000   0.46325819   -8.2411802    760.76535  0.012727788  0.011064825            8 
 4982000   0.45561613   -8.2359703    760.34006  0.012718119   0.01106135            4 
 4983000   0.46637106    -8.240614    760.49184  0.012718106  0.011057879            4 
 4984000   0.44985809   -8.2450555    760.96098  0.012723398  0.011054406            5 
 4985000   0.44528755   -8.2239668    759.84739   0.01270223  0.011050938            6 
 4986000    0.4605641     -8.25637    762.16758  0.012738461  0.011047471            4 
 4987000   0.44205833   -8.2540427    761.61279  0.012726636  0.011044005            5 
 4988000   0.45212641   -8.2274855    760.09812  0.012698779   0.01104054            8 
 4989000   0.46668517   -8.2324699    760.68105  0.012705971  0.011037078            7 
 4990000   0.44526715   -8.2191961    760.22317  0.012695778  0.011033614           10 
 4991000   0.44702863   -8.2406267    760.71419  0.012701432  0.011030154            6 
 4992000   0.46130765   -8.2375049    759.81534  0.012683883  0.011026694            4 
 4993000   0.45493419     -8.25074    761.62854  0.012711605  0.011023238            4 
 4994000   0.45316939   -8.2307941    759.87742   0.01267984  0.011019781            6 
 4995000     0.452995   -8.2366191     761.0007  0.012696041  0.011016329            4 
 4996000   0.45048586   -8.2457795    760.40291  0.012683529  0.011012874            4 
 4997000   0.45679553   -8.2569971    760.85544  0.012688537  0.011009422           13 
 4998000   0.44767593   -8.2465475    760.95942  0.012687732  0.011005968            5 
 4999000   0.46478342   -8.2415705    761.19006  0.012689039  0.011002519            4 
 5000000   0.45092874   -8.2400898    760.49995  0.012674999  0.010999071           10 
 5001000   0.46057962   -8.2301882    760.46009    0.0126718  0.010995622            7 
 5002000   0.44940519   -8.2464951    761.29199  0.012683127  0.010992176            7 
 5003000   0.45432116   -8.2439618    760.84279  0.012673109  0.010988733            7 
 5004000   0.45525022   -8.2395001    760.88428  0.012671268  0.010985288            4 
 5005000   0.45181425   -8.2476841    761.74083  0.012682997  0.010981844            5 
 5006000   0.44643728   -8.2489862    761.11221  0.012669999  0.010978405            5 
 5007000   0.45442836   -8.2418417      760.802  0.012662306  0.010974965           10 
 5008000   0.45498581   -8.2441929    760.23371  0.012650321  0.010971527            5 
 5009000    0.4593102   -8.2530766    759.57039   0.01263676  0.010968091            4 
 5010000   0.44643569   -8.2382953    760.54611  0.012650468  0.010964655            6 
 5011000   0.45231364   -8.2461255    760.75474  0.012651413  0.010961221            3 
 5012000   0.43977083   -8.2405471    760.31536  0.012641583  0.010957788            8 
Loop time of 11617.6 on 48 procs for 5000000 steps with 4000 atoms

Performance: 74369.632 tau/day, 430.380 timesteps/s
99.4% CPU use with 48 MPI tasks x no OpenMP threads

MPI task timing breakdown:
Section |  min time  |  avg time  |  max time  |%varavg| %total
---------------------------------------------------------------
Pair    | 723.93     | 761.4      | 796.2      |  59.7 |  6.55
Neigh   | 73.859     | 76.32      | 78.907     |  13.0 |  0.66
Comm    | 700.2      | 746.51     | 799.82     |  69.6 |  6.43
Output  | 43.919     | 43.923     | 44.012     |   0.2 |  0.38
Modify  | 9848.4     | 9874.4     | 9909.6     |  13.8 | 84.99
Other   |            | 115.1      |            |       |  0.99

Nlocal:        83.3333 ave          93 max          74 min
Histogram: 1 3 2 11 7 10 7 3 3 1
Nghost:        1928.60 ave        1952 max        1908 min
Histogram: 8 3 4 5 6 6 5 1 4 6
Neighs:        12241.7 ave       14034 max       11271 min
Histogram: 8 6 9 10 2 4 5 2 0 2
FullNghs:      24484.2 ave       27495 max       21789 min
Histogram: 3 2 3 12 9 6 7 1 4 1

Total # of neighbors = 1175240
Ave neighs/atom = 293.81000
Neighbor list builds = 268534
Dangerous builds = 3

#clear
#
#next RN
#
#jump SELF
Total wall time: 3:13:40
