
units lj                  # Use reduced LJ style units
atom_style atomic         # Uncharged point particles
atom_modify map hash      # Needed for indexing of clusters etc
                          # Used to be able to find where atoms are in relation to each other.

lattice fcc 1.0 spacing 1 1 1
Lattice spacing in x,y,z = 1.5874011 1.5874011 1.5874011
region box block 0 10 0 10 0 10 units lattice
create_box 2 box
Created orthogonal box = (0.0000000 0.0000000 0.0000000) to (15.874011 15.874011 15.874011)
  3 by 4 by 4 MPI processor grid
create_atoms 1 box
Created 4000 atoms
  using lattice units in orthogonal box = (0.0000000 0.0000000 0.0000000) to (15.874011 15.874011 15.874011)
  create_atoms CPU = 0.003 seconds
set type 1 type/fraction 2 0.69 78393
Setting atom values ...
  2781 settings made for type/fraction
mass 1 1.0
mass 2 1.0
pair_style lj/cut  3.5
pair_modify tail  yes
pair_coeff 1  1  1.0  1.0   # Intearaction between 1 and 1 set with epsilon = 1 and sigma = 1
pair_coeff 1  2  1.5  0.8
pair_coeff 2  2  0.5  0.88

write_data data.0
System init for write_data ...
Neighbor list info ...
  update every 1 steps, delay 10 steps, check yes
  max neighbors/atom: 2000, page size: 100000
  master list distance cutoff = 3.8
  ghost atom cutoff = 3.8
  binsize = 1.9, bins = 9 9 9
  1 neighbor lists, perpetual/occasional/extra = 1 0 0
  (1) pair lj/cut, perpetual
      attributes: half, newton on
      pair build: half/bin/atomonly/newton
      stencil: half/bin/3d
      bin: standard
WARNING: Not all mixed pair coeffs generated from mixing. Use write_data with 'pair ij' option to store all pair coeffs. (../write_data.cpp:312)


#############################
#   M E L T   S Y S T E M   #
#############################

velocity all create 2.4 5300450 mom yes dist gaussian # Assign velocities
                                                    # Temperature 2.4, random number seed, zero linear momentum
                                                                                # Gaussian distribution

timestep 0.002   # simulation timestep
thermo 1000       # output thermodynamic data every 1000 steps bf 100

# Define a fix  in this case with index 1 applied to all
# particles in the simulation. This fix is for simulations
# in the anisotropic NPT ensemble. Note that we use the MTK
# correction.
fix 1 all npt temp 2.4 2.4 0.1 iso 5.68 5.68 0.5 mtk yes tchain 5 pchain 5 # Use NPT ensemble
                                                                         # Set temperature and pressure and damping
                                                                         # Numbers of thermostats in chain and in barostat
run 10000          # run for 10000 steps
Per MPI rank memory allocation (min/avg/max) = 3.642 | 3.644 | 3.648 Mbytes
Step Temp E_pair E_mol TotEng Press Volume 
       0          2.4    -4.227286            0  -0.62818599   -3.7882121         4000 
    1000    2.4161013   -3.7851404            0  -0.16189446    5.8444188    3686.1122 
    2000    2.3508479   -3.8394164            0  -0.31402621    5.7779136    3646.3574 
    3000    2.4211333    -3.850957            0  -0.22016498    5.8715208    3649.8473 
    4000    2.4162403    -3.890049            0  -0.26659462    5.5585557     3647.525 
    5000    2.3609172   -3.8058132            0  -0.26532275    5.6485632    3677.3281 
    6000    2.4097331   -3.8661467            0  -0.25245073    5.3214429    3679.2737 
    7000    2.4021335   -3.8871453            0  -0.28484587    5.3119599    3652.8375 
    8000     2.434601   -3.8233489            0  -0.17236039    5.7525333    3671.1157 
    9000    2.4153614   -3.8505137            0  -0.22837734     5.641474     3659.472 
   10000    2.4051371   -3.9142385            0  -0.30743486    5.4412183      3642.58 
Loop time of 2.69595 on 48 procs for 10000 steps with 4000 atoms

Performance: 640962.542 tau/day, 3709.274 timesteps/s
99.6% CPU use with 48 MPI tasks x no OpenMP threads

MPI task timing breakdown:
Section |  min time  |  avg time  |  max time  |%varavg| %total
---------------------------------------------------------------
Pair    | 1.1801     | 1.2608     | 1.3989     |   3.1 | 46.77
Neigh   | 0.21579    | 0.22257    | 0.23919    |   0.9 |  8.26
Comm    | 0.80882    | 0.92657    | 1.0213     |   5.4 | 34.37
Output  | 0.00025092 | 0.0002547  | 0.00031996 |   0.0 |  0.01
Modify  | 0.19941    | 0.27003    | 0.35446    |   9.5 | 10.02
Other   |            | 0.01567    |            |       |  0.58

Nlocal:        83.3333 ave          92 max          74 min
Histogram: 4 0 4 9 6 6 7 4 6 2
Nghost:        1745.79 ave        1767 max        1706 min
Histogram: 1 1 0 3 8 6 8 6 6 9
Neighs:        10479.7 ave       11869 max        8915 min
Histogram: 2 1 6 5 11 5 5 5 5 3

Total # of neighbors = 503025
Ave neighs/atom = 125.75625
Neighbor list builds = 902
Dangerous builds = 188

# Equilibrate just above the melting temperature to avoid step fn in T

fix 1 all npt temp 1.25 1.25 0.1 iso 5.68 5.68 0.5 mtk yes tchain 5 pchain 5
run 2000
Per MPI rank memory allocation (min/avg/max) = 3.644 | 3.646 | 3.649 Mbytes
Step Temp E_pair E_mol TotEng Press Volume 
   10000    2.4051371   -3.9142385            0  -0.30743486    5.4412183      3642.58 
   11000    1.2508692   -5.7070188            0   -3.8311841    5.6217186    2787.1302 
   12000    1.2327862   -5.7374089            0   -3.8886918    5.5198124    2778.3297 
Loop time of 0.680747 on 48 procs for 2000 steps with 4000 atoms

Performance: 507677.398 tau/day, 2937.948 timesteps/s
99.6% CPU use with 48 MPI tasks x no OpenMP threads

MPI task timing breakdown:
Section |  min time  |  avg time  |  max time  |%varavg| %total
---------------------------------------------------------------
Pair    | 0.29456    | 0.32332    | 0.39617    |   3.2 | 47.49
Neigh   | 0.040457   | 0.043788   | 0.05297    |   1.0 |  6.43
Comm    | 0.18676    | 0.26332    | 0.29514    |   4.0 | 38.68
Output  | 5.2128e-05 | 5.3679e-05 | 7.0023e-05 |   0.0 |  0.01
Modify  | 0.038547   | 0.045346   | 0.050489   |   1.5 |  6.66
Other   |            | 0.004928   |            |       |  0.72

Nlocal:        83.3333 ave          90 max          78 min
Histogram: 5 3 6 6 7 11 3 3 1 3
Nghost:        2102.10 ave        2121 max        2086 min
Histogram: 5 2 8 3 6 7 9 3 2 3
Neighs:        13750.8 ave       15696 max       12450 min
Histogram: 4 4 5 14 8 5 3 3 0 2

Total # of neighbors = 660037
Ave neighs/atom = 165.00925
Neighbor list builds = 143
Dangerous builds = 9

#############################
# L I N E A R  Q U E N C H  #
#############################

# Define solid atoms. This closely follows ten Wolde  Ruiz-Montero and Frenkel  Faraday Discuss  1996  104  93-110
# Compute components of the per-atom q6 vector
compute q6 all orientorder/atom degrees 1 6 components 6 nnn NULL cutoff 1.3 # compute the Q6 parameter.
                                                                             # Use all neighbours within 1.3 unit cell.

# get number of connections
compute coord_number all coord/atom orientorder q6 0.5

# An atom is solid if it has 8 or more connections (of a possible 14)
variable is_solid atom c_coord_number>=8
group solid dynamic all var is_solid    # Must be dynamic to update
dynamic group solid defined

# do clustering
compute cluster solid cluster/atom 1.3 # Create a cluster where all atoms within are solid and max 1.3 units from another member

# define chunks one chunk per cluster
compute clus_chunks solid chunk/atom c_cluster nchunk every compress yes  # Says which atoms are in which chunk

# count the size of each chunk
compute size_chunks solid property/chunk clus_chunks count


# Find the maximum entry in the vector of chunk sizes
variable max_n equal max(c_size_chunks)


# Thermo style which includes this variable
# thermo_style custom step temp pe vol v_max_n

thermo ${N}  # Print the thermo information every 100 steps
thermo 1000  

# Reset the npt fix at a lower temperature (below freezing)
fix 1  all npt temp  ${temp} ${temp}  0.1  iso  5.68  5.68  0.5  mtk yes tchain  5  pchain  5
fix 1  all npt temp  0.45 ${temp}  0.1  iso  5.68  5.68  0.5  mtk yes tchain  5  pchain  5
fix 1  all npt temp  0.45 0.45  0.1  iso  5.68  5.68  0.5  mtk yes tchain  5  pchain  5

dump dmp2 all dcd ${N} traj.dcd
dump dmp2 all dcd 1000 traj.dcd


compute msd all msd com yes
variable twopoint equal c_msd[4]/6/(step*dt+1.0e-6)
fix 9 all vector 10 c_msd[4]
variable fit equal slope(f_9)/6/(10*dt)
thermo_style custom step temp pe c_msd[4] v_twopoint v_fit v_max_n

fix 1 all npt temp 1.25 ${temp} 0.1 iso 5.68 5.68 0.5 mtk yes tchain 5 pchain 5
fix 1 all npt temp 1.25 0.45 0.1 iso 5.68 5.68 0.5 mtk yes tchain 5 pchain 5
run 2000000 # 5000000  # Run for this many steps
Neighbor list info ...
  update every 1 steps, delay 10 steps, check yes
  max neighbors/atom: 2000, page size: 100000
  master list distance cutoff = 3.8
  ghost atom cutoff = 3.8
  binsize = 1.9, bins = 8 8 8
  4 neighbor lists, perpetual/occasional/extra = 1 3 0
  (1) pair lj/cut, perpetual
      attributes: half, newton on
      pair build: half/bin/atomonly/newton
      stencil: half/bin/3d
      bin: standard
  (2) compute orientorder/atom, occasional
      attributes: full, newton on
      pair build: full/bin/atomonly
      stencil: full/bin/3d
      bin: standard
  (3) compute coord/atom, occasional
      attributes: full, newton on
      pair build: full/bin/atomonly
      stencil: full/bin/3d
      bin: standard
  (4) compute cluster/atom, occasional
      attributes: full, newton on
      pair build: full/bin/atomonly
      stencil: full/bin/3d
      bin: standard
Per MPI rank memory allocation (min/avg/max) = 9.846 | 9.850 | 9.853 Mbytes
Step Temp PotEng c_msd[4] v_twopoint v_fit v_max_n 
   12000    1.2327862   -5.7374089 1.5150074e-30 1.0520884e-32 8.3333333e+20            3 
   13000     1.247698   -5.7620463   0.58888025 0.0037748732  0.048716343            2 
   14000    1.2419763   -5.7242041    1.1977944 0.0071297284  0.048801947            3 
   15000    1.2381031   -5.7115688    1.7898474 0.0099435961  0.049229538            4 
   16000      1.26137   -5.7458239    2.3879024  0.012436991  0.049568493            3 
   17000    1.2426966   -5.7504292    2.9207366  0.014317336  0.049340733            2 
   18000    1.2362456   -5.7507509    3.5072274  0.016237163  0.048748692            4 
   19000    1.2454059   -5.7175802    4.0855375  0.017919023  0.048689436            3 
   20000    1.2369972   -5.7558528    4.6851853  0.019521605  0.048616054            3 
   21000    1.2468796   -5.7859795    5.2641931  0.020889655  0.048690412            3 
   22000    1.2449167   -5.7079815    5.7591666  0.021815024  0.048411626            2 
   23000    1.2422604   -5.7915202    6.3791827   0.02311298  0.048233533            4 
   24000    1.2224006   -5.7412985     6.932869  0.024072461  0.048206097            4 
   25000    1.2505525   -5.8238551     7.471705  0.024905683   0.04801789            2 
   26000    1.2248332   -5.8024485     8.115899  0.026012496  0.048022793            4 
   27000    1.2691365    -5.742526    8.7455311  0.026992379   0.04806248            1 
   28000    1.2716207   -5.8181754    9.3087087   0.02770449  0.048129962            4 
   29000     1.269159   -5.8129943     9.758683  0.028042192  0.048105993            3 
   30000     1.234252   -5.7931077    10.318253  0.028661814  0.047983672            3 
   31000    1.2380446   -5.7491332    10.851388  0.029170397  0.047787239            1 
   32000     1.214358   -5.7475091     11.48792  0.029916458  0.047708386            4 
   33000    1.2361625   -5.7782509    12.036616  0.030395494  0.047659946            4 
   34000    1.2717887   -5.7918403    12.591989  0.030862719  0.047628046            3 
   35000    1.2335164   -5.7332256    13.333485  0.031746393  0.047677599            2 
   36000    1.2479559   -5.7974889    13.903367  0.032183719  0.047753848            1 
   37000     1.248305   -5.7931605    14.371248  0.032367676  0.047805065            2 
   38000    1.2530315   -5.7563361    15.069961   0.03304816  0.047820275            3 
   39000     1.226374   -5.7915882    15.466683  0.033048468  0.047816012            2 
   40000    1.2297846   -5.8034254    15.930791  0.033189147  0.047709851            1 
   41000    1.2364845   -5.7593483    16.551109  0.033640465  0.047628711            4 
   42000    1.2606805   -5.7359147    16.953328  0.033637556  0.047495093            3 
   43000    1.2663886   -5.7329857    17.469422  0.033855469  0.047355046            3 
   44000    1.2310441   -5.7720553    18.194505  0.034459289  0.047261893            1 
   45000    1.2264562   -5.7836108    18.746582  0.034715892  0.047233886            4 
   46000    1.2396063   -5.7936045    19.226597  0.034830792  0.047198558            2 
   47000    1.2501856   -5.7995812    19.706251  0.034940162  0.047102241            1 
   48000    1.2284375    -5.766824    20.267134  0.035185996  0.047011245            2 
   49000    1.2378678   -5.7493475    20.877762  0.035506398  0.046956383            1 
   50000    1.2186869   -5.7952947    21.314844   0.03552474  0.046911696            2 
   51000    1.2486847   -5.7658064    22.028575  0.035994403  0.046873956            3 
   52000    1.2391723   -5.7906868     22.51497  0.036081682  0.046847696            2 
   53000    1.2607398   -5.7742076    23.047967  0.036238941  0.046807932            2 
   54000    1.2416888   -5.8268884    23.694294  0.036565268  0.046783055            2 
   55000    1.2154856   -5.7631141     24.23404  0.036718241  0.046765575            5 
   56000     1.250112    -5.809527    24.806703  0.036914737  0.046724023            3 
   57000    1.2509267   -5.7990923    25.154339  0.036775349  0.046671706            2 
   58000    1.2276782   -5.8081602    25.404056   0.03650008  0.046589572            3 
   59000    1.2403295   -5.8104108    26.006757  0.036732707  0.046505133            2 
   60000    1.2160197   -5.8045598    26.574228   0.03690865  0.046405589            1 
   61000    1.2069054   -5.7831306    27.146757  0.037085733  0.046313618            4 
   62000    1.2077883   -5.8147715    27.324981  0.036727125  0.046203222            2 
   63000    1.2365405   -5.8086967    28.137796  0.037219306  0.046101052            3 
   64000    1.2119108   -5.7887156    28.699828  0.037369568  0.046018652            2 
   65000    1.2384165   -5.7581383    29.342903  0.037619106  0.045966015            1 
   66000       1.2463   -5.8116404    29.804884  0.037632428  0.045922091            2 
   67000    1.2319122    -5.810875    30.551349   0.03799919  0.045896994            2 
   68000    1.2280685   -5.7996379    30.894011  0.037860307  0.045860888            3 
   69000    1.2366049   -5.7858044    31.455756  0.037990043  0.045816272            3 
   70000    1.2480086   -5.7930193    31.816719  0.037877047  0.045756611            2 
   71000    1.2316463   -5.8085007      32.4349  0.038069131  0.045711772            2 
   72000     1.211991   -5.8068769    33.222384  0.038451834  0.045684077            1 
   73000    1.2305459   -5.7454443    33.838256  0.038628145  0.045666191            2 
   74000    1.2008076   -5.8046942     34.16352  0.038472432  0.045654156            4 
   75000    1.2415574   -5.7913433    34.646583  0.038496203  0.045628558            3 
   76000    1.2373876   -5.8082139    35.274122  0.038677765  0.045607676            1 
   77000    1.2153281   -5.7960209    35.722409  0.038660616  0.045573252            2 
   78000    1.2281297   -5.8309391    36.023571  0.038486721  0.045539096            5 
   79000     1.234459   -5.7740802    36.802893  0.038821617  0.045512376            4 
   80000     1.234014   -5.8450119    37.237575  0.038789141  0.045479462            3 
   81000    1.2392992   -5.7428532     38.11812  0.039216173  0.045456133            6 
   82000    1.2442486   -5.8424859    38.444017  0.039069123  0.045432159            7 
   83000    1.2419488   -5.8547411    39.070943  0.039227854  0.045419244            3 
   84000    1.2113079   -5.7799177    39.986481  0.039669128  0.045420312            2 
   85000    1.1946086    -5.829672    40.409316  0.039616976  0.045434498            4 
   86000    1.2232719   -5.8568196    40.905321  0.039636939  0.045450354            1 
   87000    1.2225094   -5.8155617    41.656589  0.039900947  0.045474107            6 
   88000    1.2212669   -5.7956008    42.254704  0.040013924  0.045506751            2 
   89000     1.204414   -5.8109581    42.872549  0.040142836  0.045532754            2 
   90000     1.222587   -5.8383551    43.002285   0.03981693  0.045545021            2 
   91000    1.2363951   -5.8130112    43.446913   0.03978655   0.04552911            2 
   92000    1.2217109   -5.8341788    43.676501  0.039562048  0.045502588            2 
   93000    1.2142584   -5.8041329     44.43594   0.03981715  0.045470304            5 
   94000    1.2143174   -5.8102547    45.007018  0.039899838  0.045445034            4 
   95000    1.2290445   -5.8468108    45.587476  0.039989014  0.045430285            3 
   96000    1.2267891    -5.870402     46.07679  0.039997213  0.045415321            3 
   97000    1.2145373   -5.7928079    47.120169  0.040481244  0.045423112            1 
   98000    1.2332475   -5.8613126    47.461074  0.040358056  0.045436426            3 
   99000    1.2296306   -5.8266696    48.182036  0.040557269  0.045452781            2 
  100000     1.223036   -5.8370849    48.512593   0.04042716  0.045466336            2 
  101000    1.2131162   -5.8438435    49.225911  0.040615438  0.045474136            1 
  102000    1.2388458   -5.8054334    49.616742  0.040536554  0.045477012            2 
  103000    1.2222188   -5.8214634    49.991465  0.040446169   0.04547208            1 
  104000    1.1978765   -5.8036864    50.737416  0.040654981  0.045461872            3 
  105000    1.2329772   -5.8367719    51.099552    0.0405552  0.045455184            2 
  106000    1.2025987   -5.8196806    51.809336   0.04073061  0.045459619            3 
  107000    1.2447009   -5.8572004    52.139177  0.040606836  0.045463554            2 
  108000    1.1845382   -5.8064344     52.98127  0.040880609  0.045465081            2 
  109000    1.2064856   -5.8490542    53.441775  0.040857626  0.045470495            3 
  110000    1.2298796   -5.8476635    54.206768  0.041065733  0.045479207            1 
  111000     1.222116   -5.8100194    54.778737  0.041125178  0.045486733            2 
  112000    1.2070794   -5.8673242    55.309935  0.041153226  0.045496305            3 
  113000    1.1989869   -5.8204458    55.558587  0.040972409  0.045502624            2 
  114000     1.207685   -5.8664441    55.996735  0.040933286  0.045504417            3 
  115000    1.1948286   -5.8086871    56.772651  0.041139602  0.045500923            5 
  116000    1.1908691   -5.8539146    57.243236  0.041123014  0.045497502            5 
  117000    1.1813405    -5.842813    57.402062   0.04088466  0.045491557            3 
  118000    1.2172901   -5.8356062    57.998605  0.040959467  0.045483982            4 
  119000    1.1702565   -5.8583736    58.276835  0.040810108  0.045470055            1 
  120000    1.2060328   -5.7920063    59.149042  0.041075723  0.045447325            5 
  121000    1.2241462   -5.8602361    59.442386  0.040938282  0.045428493            1 
  122000     1.211019   -5.8331153    59.932716  0.040937647  0.045410315            1 
  123000    1.1937863    -5.828834    60.451301  0.040956166  0.045387795            2 
  124000    1.1884266   -5.8686256    60.599152  0.040725237  0.045358199            3 
  125000    1.1903801   -5.8606839    61.289488  0.040859659  0.045332342            2 
  126000    1.2305654   -5.8241127    61.918744   0.04095155  0.045301477            2 
  127000    1.2186711   -5.7985993    62.629626  0.041095555  0.045279436            6 
  128000    1.2081674   -5.8703873     62.83699  0.040909499  0.045256111            3 
  129000    1.2164604   -5.8184613    63.521486  0.041034551   0.04523174            3 
  130000    1.2203777    -5.891536    64.287131  0.041209699  0.045207063            3 
  131000    1.1929327   -5.8644559    64.584746  0.041084444  0.045187054            2 
  132000    1.2028715   -5.8360247    64.619215  0.040794959   0.04515746            2 
  133000     1.184952    -5.890383      65.2126  0.040860025  0.045125701            6 
  134000    1.2114737   -5.8553226    65.610035  0.040802261  0.045095981            3 
  135000     1.159455   -5.8823212    66.328327  0.040943412  0.045066985            2 
  136000    1.1694345   -5.8254385    66.646753  0.040837471  0.045033475            2 
  137000    1.1885181   -5.8505739      67.1126  0.040822749  0.044997987            6 
  138000    1.1992697   -5.8594316    67.920627  0.041014871  0.044962679            2 
  139000    1.2135003   -5.8294582    67.883733  0.040697681  0.044924314            2 
  140000    1.1830655   -5.8375397    68.301182  0.040655466  0.044881837            2 
  141000    1.2042195   -5.8720462    68.621652  0.040556532  0.044837368            2 
  142000    1.2021916   -5.8778475    69.406713  0.040731639  0.044792731            1 
  143000    1.2023717   -5.8737842    69.590855  0.040554111  0.044747896            4 
  144000     1.195488   -5.8319051    70.078909  0.040554924  0.044703655            4 
  145000    1.1756136   -5.8847768     70.33401  0.040421845  0.044657123            2 
  146000    1.1824056   -5.8495852    70.984003  0.040515983  0.044612326            2 
  147000    1.2243219   -5.8785434    71.500298  0.040533048  0.044572179            2 
  148000    1.1680829   -5.8544873    72.469157  0.040804705  0.044535985            3 
  149000    1.1670276   -5.8502035    72.892791   0.04076778  0.044504504            4 
  150000    1.1871596    -5.843998     73.50333  0.040835183  0.044475237            3 
  151000    1.1927228   -5.8597448    74.080107  0.040883061  0.044449191            2 
  152000    1.1785572   -5.8752634    74.478024   0.04083225  0.044418991            4 
  153000    1.1836229   -5.8769732    74.714512  0.040694179  0.044387559            3 
  154000     1.178689   -5.8626926    75.381567  0.040790891   0.04435315            3 
  155000    1.1995909   -5.9153925    76.186789  0.040960639  0.044331609            2 
  156000    1.1941239   -5.8763423    76.950321  0.041105941  0.044311976            4 
  157000    1.1934764   -5.8691346    77.208048  0.040980917  0.044293543            5 
  158000    1.1710872   -5.9039882     77.74431  0.041004383  0.044273118            2 
  159000    1.2248887   -5.9072745    78.071457  0.040917954  0.044250178            2 
  160000    1.1883708   -5.8930587    78.041827  0.040646785  0.044222592            3 
  161000    1.1833386   -5.8686955     78.95163  0.040865233  0.044193441            3 
  162000    1.2082164   -5.8703897     79.14525  0.040712577  0.044163911            1 
  163000    1.1818565   -5.9169556     79.70235  0.040747623  0.044128319            4 
  164000    1.2130348   -5.9013406    80.302021  0.040803873  0.044097093            2 
  165000    1.2059833   -5.9317981    80.546859  0.040680232  0.044065147            3 
  166000    1.1608566   -5.8867264    81.533872  0.040930659  0.044036879            3 
  167000    1.2123417   -5.8618254    81.860614  0.040848609   0.04401174            3 
  168000    1.1938514   -5.8791916    82.243997  0.040795633  0.043985768            3 
  169000    1.1998128   -5.8715105    82.656278  0.040757533  0.043958058            3 
  170000    1.1795565   -5.8546257    83.488752  0.040925859  0.043933576            5 
  171000    1.1807839   -5.8969448    83.665196  0.040772513  0.043908262            3 
  172000    1.1750002     -5.86068    84.508086   0.04094384  0.043882811            3 
  173000    1.1983286   -5.8868168    84.546608  0.040725726  0.043857057            3 
  174000    1.1528585   -5.8712256    85.140703  0.040776199  0.043828703            4 
  175000    1.1812697   -5.9002665    85.668523  0.040794535  0.043799766            3 
  176000    1.1750765   -5.8861933    85.660492  0.040558945  0.043768086            2 
  177000    1.2322744   -5.9051077    86.060388  0.040518073  0.043735471            6 
  178000     1.184432   -5.9557489    86.552802  0.040520975  0.043702859            2 
  179000    1.1664505   -5.8940065    87.048374  0.040525314  0.043670695            2 
  180000    1.1712042   -5.9154159    87.605281     0.040558  0.043638354            3 
  181000    1.1853984   -5.8616411    88.362121  0.040682376  0.043610692            6 
  182000    1.1821173   -5.8786591     89.23008  0.040856264  0.043583922            1 
  183000    1.1897712   -5.8856741    89.500575  0.040756182  0.043558226            1 
  184000    1.1667158    -5.891252      89.9914  0.040756975  0.043532512            3 
  185000    1.1967573   -5.8909147     90.41098  0.040725667  0.043505743            2 
  186000    1.1925282   -5.9374965    90.827469   0.04069331  0.043479904            4 
  187000    1.2072756    -5.928379    91.316067  0.040693434   0.04345808            3 
  188000    1.1747095   -5.9508341    91.567918  0.040588616  0.043435957            5 
  189000    1.1651958   -5.9211758    92.362111  0.040724035  0.043411305            2 
  190000    1.1525604    -5.902844    92.970951  0.040776733  0.043391665            4 
  191000    1.1556823     -5.93288    93.411111  0.040755284  0.043368609            2 
  192000    1.1801962   -5.8773653    94.072008  0.040829864  0.043346133            3 
  193000    1.1763602   -5.8722658     94.61646  0.040853394  0.043322819            2 
  194000    1.1919309    -5.895019    94.758854  0.040703975  0.043299497            3 
  195000    1.1560113   -5.9047962    95.174045  0.040672669  0.043275228            3 
  196000    1.1644125   -5.9004075    95.878184  0.040764534  0.043249505            3 
  197000    1.1734853   -5.9119476    95.424579  0.040365727  0.043224402            2 
  198000    1.1802165   -5.9306418    96.312774  0.040535679  0.043198724            2 
  199000    1.1744548   -5.9245861    96.662506  0.040478436  0.043174261            3 
  200000    1.1578098    -5.910109    97.549736  0.040645723  0.043149478            4 
  201000    1.1719452   -5.8967208    98.229098  0.040725165  0.043126764            3 
  202000    1.1762471   -5.8905975    98.650373  0.040697349  0.043106073            2 
  203000    1.1706951   -5.9361287    98.851022  0.040579237   0.04308648            3 
  204000    1.1584893   -5.8925313    99.930969  0.040821474  0.043067577            4 
  205000    1.1455005   -5.9104378    100.14166  0.040707992  0.043048779            1 
  206000    1.1831068   -5.9129261    100.34577  0.040592947  0.043027824            2 
  207000    1.1829578   -5.9212293     100.5478  0.040478181  0.043007956            5 
  208000    1.1662149   -5.9118201    101.81872  0.040792754  0.042986802            2 
  209000     1.176425   -5.9371018    101.77445  0.040579924  0.042966236            2 
  210000    1.1743542   -5.9498589    102.34413  0.040612748  0.042946235            3 
  211000    1.1750063    -5.874626    103.35296  0.040818706   0.04292908            3 
  212000    1.1623218   -5.9503806    103.26788   0.04059272  0.042908978            4 
  213000     1.161848   -5.9498737    103.25706  0.040397911  0.042887777            4 
  214000    1.1600762   -5.9478393    104.24065  0.040592154  0.042865128            1 
  215000    1.1489653   -5.9302442    104.53942  0.040519156   0.04284124            6 
  216000    1.1445989   -5.9422228    104.85673  0.040453987  0.042817764            3 
  217000    1.1882359   -5.9301779    105.20783  0.040402394  0.042792169            2 
  218000    1.1546852   -5.9146127    105.97232  0.040509298  0.042769307            2 
  219000     1.171648   -5.9394253    106.32063   0.04045686  0.042744747            1 
  220000    1.1810354   -5.9353041    106.64827  0.040397073  0.042719885            4 
  221000    1.1563748   -5.9279379     107.4462   0.04051516  0.042696788            2 
  222000    1.1740545   -5.9637438    107.26693  0.040265365  0.042673079            6 
  223000    1.1850927   -5.9950845    107.79058  0.040280484  0.042645828            1 
  224000    1.1490315   -5.9497329    108.54024  0.040379554  0.042621499            4 
  225000    1.1588171   -5.8983078    109.21518  0.040450067   0.04259702            1 
  226000    1.1620799   -5.9341678    108.94893  0.040172911  0.042570964            2 
  227000    1.1418996   -5.9570472    109.26906  0.040113458  0.042542046            3 
  228000    1.1635215   -5.9135765    110.15123  0.040259954  0.042514459            7 
  229000    1.1672652    -5.903153    110.15023   0.04008378   0.04248586            3 
  230000    1.1601494   -5.9470266    110.24675  0.039944474  0.042456686            2 
  231000    1.1491385   -5.9515535     110.9098  0.040010749  0.042428316            7 
  232000    1.1334672   -5.9508368    111.94621  0.040210564  0.042403409            1 
  233000    1.1654499   -5.8795367    113.03621  0.040427828  0.042379574            2 
  234000    1.1696095   -5.9147319    112.70106  0.040135704  0.042356504            3 
  235000    1.1565992   -5.9302854    113.35609  0.040197194  0.042331041            4 
  236000     1.180445   -5.9231535    113.78791  0.040179346  0.042305384            2 
  237000    1.1530731   -5.9479962    113.73794  0.039992244  0.042280058            5 
  238000    1.1585409   -5.9772309    114.37051  0.040045697  0.042253072            3 
  239000    1.1610586   -5.9550369    114.56721  0.039946725  0.042226634            3 
  240000    1.1612197   -5.9293025    115.30053  0.040034906  0.042199302            2 
  241000     1.162609   -5.9382999    115.55739  0.039957604  0.042172417            3 
  242000    1.1986107   -5.9743818    116.40397  0.040084012  0.042143993            3 
  243000    1.1722613   -5.9490139    116.47982  0.039945067  0.042117307            2 
  244000    1.1445504   -5.9598783    116.88334  0.039919173  0.042090516            3 
  245000    1.1595419   -5.9218644    117.50796  0.039968694  0.042064033            1 
  246000    1.1386769   -5.9640473    117.86015  0.039925524  0.042036362            7 
  247000      1.14707   -5.9772086    117.95581  0.039796156   0.04201101            4 
  248000    1.1552864   -5.9277072    118.61075  0.039855762  0.041982988            2 
  249000    1.1200981   -5.9361133    119.32095  0.039933383  0.041954367            3 
  250000    1.1676631   -5.9317319    119.95289  0.039984296  0.041929406            3 
  251000    1.1770133   -5.9495651    119.97425  0.039832089  0.041905067            3 
  252000    1.1654501   -5.9363241    120.38207  0.039808887  0.041878407            3 
  253000    1.1640437   -5.9766459    120.97766  0.039847715  0.041853812            3 
  254000    1.1449064   -5.9588578    121.60163  0.039895548  0.041827593            4 
  255000    1.1384011   -5.9722112    122.01837  0.039875284  0.041804224            3 
  256000    1.1477659   -5.9453304     122.3674  0.039833138    0.0417811            3 
  257000    1.1499486   -5.9486036    122.45548  0.039706706  0.041756183            2 
  258000    1.1247663   -5.9953359    123.17194  0.039784219  0.041728856            5 
  259000    1.1511829   -5.9650058    123.29401  0.039669886  0.041702178            3 
  260000    1.1450393   -5.9860022    123.88676  0.039707296  0.041675181            8 
  261000    1.1358434   -5.9430277    124.50125  0.039751356  0.041649965            3 
  262000    1.1701601   -5.9819826     124.7454   0.03967729  0.041624294            6 
  263000    1.1326623   -5.9843462    125.00886  0.039609904  0.041597041            2 
  264000    1.1701619   -5.9545151    125.79987  0.039709554  0.041570255            2 
  265000    1.1524065   -5.9940698    126.15304  0.039670767  0.041545867            2 
  266000    1.1422814   -5.9998265    127.18981  0.039846433  0.041522773            2 
  267000    1.1777283   -5.9862929    127.75701  0.039874223  0.041500898            3 
  268000    1.1434317   -5.9749425    127.94221  0.039783025  0.041480454            3 
  269000    1.1472086   -5.9727464    128.05848  0.039671152  0.041458667            3 
  270000    1.1385355   -5.9455812    128.51613  0.039665473  0.041434017            2 
  271000    1.1321822   -5.9812684    128.61109  0.039548305   0.04140838            3 
  272000    1.1589941   -6.0058315    128.71974  0.039436196  0.041381323            2 
  273000    1.1539776   -6.0263929    129.70759  0.039593283  0.041353946            5 
  274000    1.1432393     -5.99204    129.28888  0.039321436  0.041326643            2 
  275000    1.1321623   -5.9684259     129.9485  0.039378334    0.0412991            3 
  276000    1.1342019   -6.0457253       129.84  0.039202897  0.041271388            2 
  277000    1.1477255   -6.0134935     130.5298  0.039268892  0.041243111            5 
  278000    1.1372865   -6.0380243    131.76866  0.039498998  0.041217051            4 
  279000    1.1636295   -5.9788207    131.74922  0.039351619  0.041190324            3 
  280000    1.1342201   -5.9854676    132.14804  0.039329773  0.041164686            5 
  281000    1.1496512   -5.9519379    132.76064  0.039371483  0.041139057            2 
  282000    1.1259526   -5.9727052    133.36371  0.039410081   0.04111467            5 
  283000    1.1445341   -5.9348763    133.98618  0.039454116  0.041090878            4 
  284000    1.1523203   -5.9376717    133.69068  0.039228487  0.041064554            2 
  285000    1.1377147    -5.982653    134.26562  0.039258954  0.041038639            2 
  286000    1.1461441   -6.0203215     134.1381  0.039084528  0.041012827            3 
  287000    1.1256816   -6.0064593    135.02083  0.039204655  0.040986122            6 
  288000     1.138515   -6.0207205    135.33137  0.039158382  0.040958777            4 
  289000    1.1510861   -6.0420391    135.46157   0.03906043  0.040932029            4 
  290000    1.1161423   -6.0090935    136.12177   0.03911545  0.040906238            8 
  291000    1.1292514   -5.9904366    136.41778  0.039065803  0.040879398            3 
  292000    1.1451359     -6.01702    136.79145  0.039038655  0.040850411            5 
  293000    1.1540536   -6.0047548    137.15862  0.039009846  0.040820684            2 
  294000    1.1421759   -6.0108838    137.26106  0.038906195  0.040789954            2 
  295000    1.1410755   -6.0168658    137.59939  0.038869883  0.040759717            7 
  296000    1.1377461   -6.0095863    138.14792  0.038892996  0.040728738            2 
  297000    1.1421409   -5.9635914    139.19348   0.03905541   0.04069806            1 
  298000    1.1226238   -6.0112215    138.85971  0.038831014  0.040667952            3 
  299000    1.1301751   -5.9885651    139.53313  0.038888832   0.04063686            2 
  300000    1.1429673    -5.981875     140.5143   0.03903175  0.040608388            2 
  301000    1.1381184    -6.038766    140.45954  0.038886915  0.040581486            2 
  302000    1.1118276   -6.0023093    140.92424  0.038886381  0.040554479            4 
  303000    1.1484861    -6.015153    141.09779  0.038805773   0.04052677            6 
  304000    1.1530492   -6.0466677    140.98823   0.03864809  0.040497621            2 
  305000    1.1291499   -6.0222362    141.74862  0.038729131  0.040468538            2 
  306000    1.1404881   -6.0084237    141.98702  0.038667489  0.040440719            2 
  307000    1.1163385   -6.0424413     142.4946  0.038679315  0.040413134            4 
  308000    1.1085799   -6.0448074    143.00974   0.03869311  0.040385473            4 
  309000     1.137551   -6.0041442    143.97795  0.038829004   0.04035796            2 
  310000    1.1004992   -6.0102524    143.70217  0.038629617   0.04033112            3 
  311000    1.1353553   -5.9829907    144.30617  0.038667247  0.040304047            4 
  312000    1.1286369   -6.0054438    145.07931  0.038749815   0.04027727            3 
  313000    1.1144368   -5.9911758    145.15138  0.038645201  0.040250329            3 
  314000    1.1560518    -6.002501    145.65395  0.038655506   0.04022254            4 
  315000       1.1208   -6.0233721    145.87235  0.038590568  0.040196174            2 
  316000    1.1336014   -6.0116167    146.85771  0.038728299  0.040171051            3 
  317000    1.1235457   -6.0148983    147.40544  0.038750117  0.040145733            3 
  318000    1.1294664   -6.0252857    147.78575  0.038727921  0.040121181            2 
  319000    1.1174436   -6.0410125    148.25513  0.038729136  0.040096496            3 
  320000    1.1197877   -6.0238715    148.52168  0.038677521  0.040072028            7 
  321000     1.151798   -6.0158763    148.84543  0.038641078   0.04004725            3 
  322000    1.1189621    -6.005295    148.91605   0.03853935    0.0400212            3 
  323000    1.1454159   -6.0214542    148.93486  0.038424886  0.039995063            3 
  324000    1.1279303   -6.0545105    149.47315   0.03844474  0.039969174            3 
  325000    1.1426122   -6.0111029    150.12703   0.03849411   0.03994311            2 
  326000    1.1035998   -6.0253947    150.45233  0.038459185  0.039916973            2 
  327000    1.1388389    -6.079674    150.22912  0.038284689  0.039890562            4 
  328000    1.1192463   -6.0395902    150.50215  0.038237335  0.039864169            2 
  329000    1.1158725   -6.0452791    151.14349  0.038283558  0.039836703            2 
  330000    1.0941686   -6.0177726    152.16421  0.038425306  0.039809513            3 
  331000    1.1152147   -6.0196935    151.71975  0.038197318  0.039781928            2 
  332000    1.0972466   -6.0656451    152.31051   0.03823055  0.039754706            2 
  333000    1.1343821   -5.9666293    152.79879  0.038237937  0.039728011            2 
  334000    1.1161543   -6.0238524    153.09714  0.038197888  0.039700211            4 
  335000    1.1195604   -6.0108382    153.85972  0.038273561  0.039672896            2 
  336000    1.1304159   -6.0503771    153.98481  0.038190678  0.039644271            4 
  337000    1.1134873   -6.0557514    154.25987  0.038145369  0.039615338            2 
  338000    1.1247727   -6.0402289    154.46612  0.038083364  0.039586586            4 
  339000    1.1052066   -6.0633347    154.41712  0.037958976   0.03955831            4 
  340000    1.1076704   -6.0428285    155.02661  0.037996718  0.039529996            4 
  341000    1.1137602   -6.0561825    154.98211  0.037874417  0.039500919            3 
  342000    1.1119345   -6.0575166    155.63033  0.037921619  0.039471927            3 
  343000    1.1200677   -6.0518851    156.28091  0.037969124  0.039441991            5 
  344000    1.1294519   -6.0547845    156.36915  0.037880123  0.039412906            9 
  345000    1.1050001   -6.0638944    156.73428  0.037858522   0.03938386            3 
  346000    1.0942994   -6.0676736    156.93409  0.037797227  0.039355503            2 
  347000     1.108057   -6.0235039    158.18649   0.03798907  0.039327263            3 
  348000    1.1110946   -6.0491745    157.98103  0.037830706   0.03929978            3 
  349000    1.1415991   -6.0601566    158.75858  0.037907971  0.039272754            3 
  350000     1.117024   -6.0354017    159.00581  0.037858526  0.039247181            3 
  351000    1.1107548   -6.0830739    159.23536  0.037805166  0.039221642            4 
  352000    1.1041772   -6.0616373     159.7487  0.037819295   0.03919539            2 
  353000    1.0968646   -6.1008774    159.93222  0.037755482  0.039169228            2 
  354000    1.1189422   -6.0422285    161.30787  0.037972663  0.039144165            3 
  355000    1.1158799    -6.037493    162.30779  0.038100419   0.03912014            3 
  356000    1.1285126   -6.0559249    161.82463  0.037880298  0.039096475            2 
  357000      1.12204   -6.0786263    162.37174    0.0379019  0.039072537            5 
  358000    1.1153358   -6.0602613    162.30064  0.037779478  0.039047725            3 
  359000    1.1353709   -6.0466935    162.94833   0.03782459  0.039022744            3 
  360000      1.12052   -6.0650531    163.22414  0.037783365  0.038998016            2 
  361000    1.1516417   -6.0888172     163.3582   0.03770965  0.038972229            2 
  362000    1.1226504   -6.0825774    163.82376  0.037712652  0.038945561            3 
  363000    1.1202705   -6.0736677    164.57622  0.037781502  0.038919353            3 
  364000    1.1235791   -6.0953015    164.80375  0.037729796  0.038895135            2 
  365000    1.0917694    -6.074529    165.49048  0.037783214  0.038871226            2 
  366000    1.0970998   -6.0852627    166.04524  0.037806294  0.038849042            5 
  367000    1.1161174   -6.0579204    166.62953  0.037835951  0.038826959            3 
  368000    1.0943944   -6.0873552     166.4597  0.037694678    0.0388047            2 
  369000    1.0914658   -6.0813123    166.90375  0.037692808    0.0387825            7 
  370000    1.1244427    -6.043948    167.71182  0.037772933   0.03875975            3 
  371000     1.093947    -6.107002    167.14155  0.037543025  0.038738227            5 
  372000    1.1016479   -6.0852874    167.95441  0.037624196  0.038715089            2 
  373000    1.1336788   -6.0978812    168.49382  0.037643839  0.038693245            5 
  374000     1.134687   -6.0726696    169.21616  0.037704135  0.038671026            4 
  375000    1.0945217   -6.0701004     169.2577  0.037612821   0.03864946            4 
  376000    1.1086921   -6.0847543    169.49005  0.037564285  0.038626228            7 
  377000    1.1048391   -6.0902494    169.70255  0.037511617  0.038602801            4 
  378000    1.1016846   -6.0763048     169.6411   0.03739883  0.038579326            4 
  379000    1.1092397   -6.0877183    170.44045  0.037475912  0.038556277            2 
  380000    1.0932362   -6.1028464    171.26698  0.037558548  0.038532955            4 
  381000    1.0867607    -6.125993    171.74739  0.037565046  0.038510843            4 
  382000    1.1111243    -6.039702    173.03507  0.037747615  0.038490388            7 
  383000     1.085825   -6.0906897    172.48486  0.037529342  0.038469727            2 
  384000    1.0870139   -6.1079894     172.9635  0.037535483  0.038448805            6 
  385000    1.1172462    -6.074463    173.06956  0.037460943  0.038425834            2 
  386000     1.100322   -6.0399858     173.8132  0.037524438  0.038403386            4 
  387000    1.1093266   -6.0828351    173.25516  0.037307313   0.03838063            4 
  388000     1.099032   -6.0933392    173.41447  0.037245376  0.038357434            6 
  389000    1.1114104   -6.1017172    173.89028  0.037251559  0.038333143            7 
  390000    1.0934619   -6.0984404    174.31129  0.037246001  0.038309544            1 
  391000    1.1291089    -6.118793     174.5313  0.037197634  0.038285478            3 
  392000    1.0633126   -6.0650392    175.43161  0.037294134  0.038261409            3 
  393000     1.124342   -6.0971686    175.86312  0.037290739  0.038238319            2 
  394000    1.0998149   -6.0949385    175.41061  0.037100382  0.038214436            5 
  395000    1.1184393   -6.0886629    175.89365  0.037108365   0.03819083            2 
  396000    1.0895544   -6.1261512    175.87001  0.037009682  0.038167758            4 
  397000    1.0920857   -6.0582077    177.30562  0.037217804   0.03814436            3 
  398000    1.0995857   -6.0814533    177.48158  0.037161134  0.038121018            5 
  399000    1.0844492   -6.0860552    177.16763   0.03700243  0.038096238            5 
  400000    1.0901109   -6.1193687    176.73778  0.036820372  0.038070464            4 
  401000    1.0900152    -6.099453    177.91092  0.036972343  0.038044635            5 
  402000    1.1063104     -6.09289    178.40817  0.036983451  0.038020802            3 
  403000    1.0760005   -6.1219899    178.69105  0.036950175  0.037997156            4 
  404000    1.1210012   -6.1103645    178.99033  0.036920448  0.037973667            2 
  405000     1.078939   -6.1117906    179.54397  0.036943203  0.037949933            4 
  406000    1.0997754   -6.0689169    180.98188  0.037147349  0.037927575            3 
  407000    1.0898256   -6.1112036    180.72942  0.037004386  0.037905668            5 
  408000    1.0973872   -6.0917397    181.68925  0.037109732  0.037884345            5 
  409000    1.0879226   -6.0979843       181.78   0.03703749  0.037863012            3 
  410000    1.0909415    -6.110818    182.41201  0.037075611  0.037842854            3 
  411000    1.0954567   -6.1265418    182.12655  0.036927525  0.037822405            6 
  412000     1.076145   -6.0815374    182.74568  0.036963123  0.037801889            3 
  413000    1.0688207   -6.0952688    182.97571  0.036920039  0.037781855            6 
  414000    1.0768212   -6.1067362    184.08433  0.037054012  0.037761189            3 
  415000    1.0863264    -6.094225     183.6637  0.036880261  0.037740347            3 
  416000    1.0830647   -6.1193855    184.21823  0.036902691  0.037719966            5 
  417000    1.1043798   -6.1095136    184.77406  0.036925271  0.037699654            3 
  418000    1.0864229    -6.116233    185.14365  0.036910617  0.037678326            2 
  419000    1.0725308   -6.1431043    184.53127   0.03670073  0.037656326            5 
  420000    1.0671763   -6.1279272    184.46893  0.036600978     0.037634            5 
  421000    1.0478293    -6.094029    186.25346  0.036867273  0.037613015            5 
  422000    1.0714165   -6.0982545    186.47191  0.036823048  0.037592158            1 
  423000    1.0878716    -6.069875    187.21398  0.036882187  0.037572035            2 
  424000    1.0652615   -6.1582387    186.69467  0.036693135  0.037550936            4 
  425000    1.0813451   -6.1624087    187.04364  0.036675223  0.037529484            3 
  426000    1.0817182   -6.1517027    187.86589  0.036749979  0.037508007            3 
  427000    1.1052292   -6.1214033    188.27502  0.036743759    0.0374874            3 
  428000    1.0819354   -6.1125848    188.20713  0.036644691  0.037466378            3 
  429000    1.0857921   -6.1199601    188.52955  0.036621903  0.037445494            4 
  430000    1.0785619     -6.06597    189.79722  0.036782408  0.037424164            2 
  431000    1.0991562   -6.0833424    189.40934  0.036622069  0.037403682            3 
  432000    1.0723058   -6.1173049    189.95331  0.036642228  0.037382977            2 
  433000    1.1128142   -6.1161536    189.67402  0.036503853  0.037361531            2 
  434000    1.0806522   -6.1284723     190.6551  0.036608122  0.037340511            3 
  435000    1.0877094   -6.0842376    190.97036   0.03658436  0.037319019            7 
  436000     1.071201   -6.1302666    190.67703  0.036444386  0.037298684            5 
  437000    1.0978654   -6.1662872    190.95174  0.036413375  0.037276851            5 
  438000    1.0715171   -6.1817383    191.59151  0.036451961  0.037255015            3 
  439000    1.0926475   -6.1258201    192.10003  0.036465457    0.0372339            5 
  440000    1.0879465   -6.1234366    192.68364  0.036493113  0.037213768            6 
  441000    1.0944692     -6.16625    192.42524  0.036361534  0.037193379            3 
  442000    1.0883082    -6.134057    194.26747  0.036626597  0.037173737            2 
  443000    1.0851094   -6.1312112    194.11144  0.036514568  0.037154092            3 
  444000    1.0779384   -6.1675564    194.13326  0.036436423  0.037134451            3 
  445000    1.1143915    -6.164092    195.47387  0.036605593  0.037115145            6 
  446000    1.0718966   -6.1525267    195.27969  0.036487237  0.037096465            4 
  447000    1.0612148   -6.1574953    195.63671  0.036472169  0.037077614            4 
  448000    1.0767564   -6.1131487    195.87657  0.036435374  0.037057177            3 
  449000    1.0589313   -6.1675879    195.56437  0.036296283   0.03703736            1 
  450000    1.0747135   -6.0915761    196.79115  0.036442806  0.037017624            3 
  451000    1.0717153   -6.1166693    197.21605  0.036440511   0.03699799            3 
  452000    1.0769562   -6.1647177    196.38952  0.036207508  0.036977541            2 
  453000    1.0778435   -6.1419151    197.01466  0.036242579  0.036956957            3 
  454000    1.0842154   -6.1419298     197.7509  0.036297888  0.036936945            1 
  455000    1.0506582   -6.1285323    197.70313  0.036209364  0.036916279            3 
  456000    1.0761635   -6.1650106    198.25453  0.036230726  0.036895733            4 
  457000    1.0799083   -6.1452033    198.27646  0.036155444  0.036873975            3 
  458000    1.0617059   -6.1528752    199.38374  0.036277972  0.036853174            3 
  459000    1.0702705    -6.168755     198.7318  0.036080574  0.036832443            4 
  460000    1.0850172   -6.1534325    198.58985  0.035976421   0.03681149            4 
  461000    1.0609876   -6.1622062    200.01602  0.036156187   0.03679085            4 
  462000    1.0647071   -6.1451449    199.79543  0.036038136  0.036769715            4 
  463000    1.0518457   -6.1588137    200.31697  0.036054171  0.036748461            4 
  464000    1.0713666   -6.1066072    201.13711  0.036123763  0.036727478            3 
  465000    1.0686246   -6.1762805    201.92949   0.03618808  0.036706564            5 
  466000    1.0450847   -6.1531586    201.45896  0.036026279  0.036685448            7 
  467000    1.0662818   -6.1931407    200.73554  0.035820046  0.036664145            2 
  468000    1.0401791   -6.1359358    202.45645  0.036049938  0.036642299            2 
  469000    1.0616614   -6.2028543    201.58976  0.035819076   0.03662052            5 
  470000    1.0694861   -6.1826348    201.97211  0.035810657  0.036598305            3 
  471000    1.0492801   -6.1545427    202.32184  0.035796504  0.036576282            3 
  472000    1.0585357   -6.1544482    203.14412  0.035865841   0.03655449            4 
  473000    1.0626921      -6.1991    202.69033  0.035710065  0.036532642            4 
  474000    1.0503966   -6.1652607    203.63221  0.035800318  0.036510237            3 
  475000    1.0514572   -6.1553073    204.52576  0.035881712  0.036488381            3 
  476000    1.0977538   -6.1725675    204.58667  0.035816994   0.03646718            2 
  477000    1.0595628   -6.1929691    204.81138  0.035781164  0.036446496            2 
  478000    1.0507896   -6.1722379    205.86963    0.0358908  0.036426098            3 
  479000    1.0660454   -6.2392217    204.95764  0.035657209  0.036405339            2 
  480000    1.0807032   -6.1866992     205.3946  0.035658784  0.036383809            4 
  481000     1.042289   -6.1916925    206.02443  0.035693768  0.036362698            3 
  482000    1.0721368     -6.19054    206.63385  0.035725078  0.036341765            6 
  483000     1.065258   -6.1287918     207.5473  0.035808712  0.036321305            3 
  484000    1.0449853   -6.1904134    207.14293  0.035665105  0.036301091            3 
  485000    1.0570227   -6.1993494    207.18595   0.03559896  0.036280655            2 
  486000    1.0589674   -6.1775307    207.66941   0.03560861  0.036260417            4 
  487000    1.0695934   -6.1506159    208.23586  0.035632419  0.036240268            2 
  488000    1.0516049   -6.1998309    208.17821  0.035549558  0.036219714            4 
  489000    1.0340256   -6.1706703    208.59959  0.035548668  0.036198922            8 
  490000    1.0673804   -6.1788299    209.69093  0.035661723   0.03617829            2 
  491000    1.0576664   -6.1556935    209.76164  0.035601093   0.03615841            3 
  492000    1.0299934    -6.193527    209.91782  0.035555187  0.036138433            3 
  493000    1.0575623   -6.1838985    210.28147  0.035544536  0.036118926            4 
  494000    1.0476766   -6.1821709    210.41254  0.035494694  0.036098434            2 
  495000    1.0602766   -6.2291398    210.74521  0.035478991  0.036077384            9 
  496000    1.0603956   -6.2258816    211.20865  0.035485324   0.03605741            3 
  497000    1.0423965   -6.2046802    211.13409  0.035401423  0.036037037            2 
  498000    1.0423209     -6.19979    212.02632  0.035479639  0.036016861            2 
  499000    1.0523976   -6.2034724    212.54843   0.03549573  0.035996386            3 
  500000    1.0465474   -6.1446629     213.0182  0.035503034  0.035976113            3 
  501000    1.0643294    -6.211682    212.73274  0.035384688  0.035956362            6 
  502000    1.0531471   -6.2435892    213.10549  0.035376077  0.035936668            3 
  503000    1.0499654   -6.2251541    211.93874  0.035112449  0.035915633           16 
  504000    1.0682122   -6.2017395     213.7619   0.03534423  0.035894113            3 
  505000    1.0743403   -6.2067331    213.62083  0.035250962  0.035873382            4 
  506000    1.0503656   -6.2131569    214.41386    0.0353119  0.035853282            5 
  507000      1.05533   -6.2280607    213.77599  0.035137408  0.035833077            3 
  508000    1.0299959   -6.2281935    215.07963  0.035282091  0.035813051            5 
  509000    1.0388628   -6.2093857     215.1312  0.035221218   0.03579327            5 
  510000    1.0542168   -6.1766597    215.85391  0.035270246  0.035773345            5 
  511000    1.0534232   -6.1877069    216.84639  0.035363077  0.035754145            4 
  512000    1.0373366   -6.2200403    216.91025  0.035304402  0.035734981            5 
  513000    1.0294319   -6.1983203    216.35796  0.035145868  0.035715536            3 
  514000     1.046538   -6.2720996    216.51523  0.035102987  0.035696149            5 
  515000    1.0382354   -6.2358539    216.81674  0.035083614  0.035676797            8 
  516000    1.0421891   -6.2090522    217.89654   0.03519001  0.035657557            5 
  517000     1.033682   -6.2400308    218.13553  0.035160466  0.035637761            7 
  518000    1.0693379   -6.2335673    218.11694  0.035089598   0.03561813            4 
  519000    1.0665245   -6.1631748    219.99403  0.035323383  0.035598554            2 
  520000    1.0562098   -6.2100388    219.15058  0.035120285  0.035579894            3 
  521000    1.0377227   -6.2518361    219.12357  0.035048555   0.03556082            2 
  522000    1.0333827   -6.2316881     219.9944  0.035120435  0.035542024            7 
  523000    1.0290753   -6.2216241    220.67382  0.035161539  0.035523714            8 
  524000    1.0338102   -6.2539171    219.88752   0.03496939  0.035505774            7 
  525000    1.0534389   -6.2411159    221.13127  0.035100201  0.035487974            4 
  526000    1.0588861   -6.2218529    221.69017  0.035122016  0.035469975            4 
  527000    1.0225413   -6.2503951    222.54181  0.035190039   0.03545306            2 
  528000    1.0197315   -6.1985477    222.42555  0.035105043  0.035436431            3 
  529000    1.0429271    -6.239781    222.94521  0.035120543   0.03541884            4 
  530000    1.0432902   -6.2202888     223.6433  0.035164041  0.035401628            3 
  531000    1.0477602   -6.2092851    223.51217  0.035077239  0.035383957            4 
  532000    1.0175399   -6.1962469    223.36845  0.034988792  0.035366301            4 
  533000     1.042805   -6.2242223    223.98173  0.035019033  0.035348606            3 
  534000    1.0566003   -6.2499323     224.0703  0.034967276  0.035330708            4 
  535000    1.0490065    -6.194284    224.76233  0.035009709  0.035312952            4 
  536000    1.0504236   -6.2211387    224.00182  0.034826153   0.03529576            5 
  537000    1.0521506   -6.2157443    225.19193  0.034945985  0.035278573            4 
  538000    1.0398536   -6.2185282    225.65455  0.034952687  0.035261276            3 
  539000    1.0251209   -6.2461168    226.47617  0.035014868  0.035244343            4 
  540000    1.0376446   -6.2253636    226.08879  0.034890245  0.035226924            3 
  541000    1.0561715   -6.2282625    226.66896  0.034915121  0.035209325            4 
  542000    1.0576923   -6.2891593     226.4883  0.034822924  0.035191026            3 
  543000    1.0355292   -6.2413811    226.69817  0.034791002  0.035172825            3 
  544000    1.0337858   -6.2323588     226.6751  0.034723514  0.035154292            2 
  545000    1.0393244    -6.278131    227.30633   0.03475632  0.035135722            3 
  546000    1.0527141   -6.2723022    227.38801   0.03470513  0.035117328            4 
  547000     1.020559   -6.2229753    228.43118  0.034800606  0.035098301            3 
  548000    1.0386936   -6.1940544    228.99812  0.034823315  0.035079838            3 
  549000    1.0462009   -6.2350093    228.59904  0.034699308  0.035062012            3 
  550000     1.011684   -6.2111619      229.904  0.034833939   0.03504434            3 
  551000    1.0437003   -6.2271841    229.69867  0.034739666  0.035026588            2 
  552000    1.0435562   -6.2662638    229.64258  0.034668264  0.035008319            4 
  553000    1.0436986   -6.2311994    230.23112  0.034694261  0.034990173            2 
  554000    1.0255414    -6.285225    230.20293  0.034627397  0.034972038            2 
  555000    1.0208837   -6.2364599    231.04905  0.034692049  0.034953875            3 
  556000    1.0344541   -6.2327316    231.11415  0.034639412  0.034936063            5 
  557000    1.0203102   -6.2060657    231.71544  0.034667182   0.03491836            6 
  558000    1.0380645   -6.3000877    232.62905  0.034741495  0.034900632            5 
  559000    1.0531454   -6.2497716    232.54444  0.034666732  0.034883362            5 
  560000    1.0459032   -6.2677815    232.09348   0.03453772  0.034866213           10 
  561000    1.0437675   -6.2467871    232.82679  0.034585084  0.034848412            2 
  562000    1.0344533   -6.2788798    231.79724  0.034370884  0.034830579            6 
  563000    1.0437646   -6.2607405    232.38939  0.034397482  0.034812499            3 
  564000    1.0077912   -6.2673631     233.0328   0.03443156  0.034794038            3 
  565000    1.0297719   -6.2942248    234.04863  0.034520446  0.034776669            2 
  566000    1.0304963   -6.2864097    233.44915  0.034371193  0.034758798            2 
  567000     1.041836   -6.2882735    234.19399  0.034420045  0.034740418            4 
  568000    1.0171224   -6.2520813     234.6038  0.034419571  0.034722505            2 
  569000    1.0533961   -6.2731417    234.57322  0.034354602  0.034704322            7 
  570000    1.0407563   -6.2691556    235.51876  0.034432568  0.034686501            3 
  571000    1.0425073   -6.2926235    235.57201  0.034380037  0.034669409            5 
  572000    1.0528646   -6.2907831    236.38178  0.034437905   0.03465213            3 
  573000    1.0310672   -6.3098202    236.07481  0.034333161  0.034634974            6 
  574000    1.0499818   -6.2525598    236.39141  0.034319311  0.034617443            4 
  575000    1.0337483    -6.281578    236.51045  0.034276876  0.034600046            5 
  576000    1.0004086   -6.2319827    238.11507  0.034449519  0.034582527            3 
  577000    1.0470594   -6.3143681    237.39693  0.034286097   0.03456454            4 
  578000    1.0319336   -6.2311794    237.40206  0.034227517  0.034546088            4 
  579000   0.99497797   -6.2979023     237.1086  0.034126165  0.034528118            3 
  580000    1.0300025   -6.2790068    238.73098  0.034300428  0.034510423            2 
  581000    1.0181859   -6.2802528    238.76517  0.034246295  0.034493012            5 
  582000    1.0343211   -6.3059766    239.37854  0.034275278  0.034475342            8 
  583000    1.0160964    -6.264922    239.58726   0.03424632  0.034457696            7 
  584000    1.0218887   -6.2620007    239.54474  0.034181613  0.034440032            5 
  585000    1.0357972   -6.2630983    239.50363  0.034117326  0.034422258            3 
  586000    1.0154069   -6.2406715    240.18404  0.034155864  0.034404398            3 
  587000    1.0135636   -6.2869557    239.67445  0.034025334  0.034386066            3 
  588000    1.0299852   -6.3005999    239.61576   0.03395915  0.034367474            4 
  589000    1.0414449   -6.3112475    240.03008  0.033960113  0.034349108            2 
  590000    1.0192571   -6.2683225    241.14169  0.034059561  0.034331464            4 
  591000     1.026348   -6.3097717     240.4475  0.033904047  0.034313529            7 
  592000    1.0097573   -6.3020146    241.31887  0.033969435  0.034295556            5 
  593000    1.0079927   -6.2677137     241.5538  0.033945166  0.034277391            4 
  594000     1.042329   -6.2376748    242.46593  0.034015983  0.034259485            6 
  595000    1.0282048   -6.2891768    242.60045  0.033977653  0.034241993            6 
  596000    1.0243117   -6.2792559    242.76592   0.03394378  0.034224234            3 
  597000    1.0179318    -6.297241     243.1317  0.033937982  0.034206695            3 
  598000    1.0272401   -6.2744459    243.94293  0.033994277  0.034189043            2 
  599000    1.0181211   -6.2863368    243.68678  0.033901889  0.034171391            9 
  600000     1.013592    -6.329961    244.08559  0.033900776  0.034153834            5 
  601000   0.99558449     -6.28811    244.38903  0.033886444  0.034136331            4 
  602000   0.99420379   -6.2915327    243.89754  0.033762118  0.034118943            3 
  603000   0.98779972   -6.3160278    244.78455   0.03382871   0.03410126            3 
  604000    1.0091816   -6.2710685    245.48407  0.033869215   0.03408368            5 
  605000    1.0096797   -6.2803277    245.56027  0.033823728  0.034066219            6 
  606000     1.020569   -6.2644796    246.30797  0.033870732  0.034048476            8 
  607000    1.0023049   -6.2994933    245.70114  0.033731622  0.034030423            2 
  608000    1.0077404   -6.2504536    245.22814  0.033611313   0.03401229            3 
  609000    1.0106988   -6.3196549    245.65351  0.033614328    0.0339939            6 
  610000     1.023183   -6.2882747    247.14349  0.033762771  0.033975644            4 
  611000   0.99838961   -6.3066168    246.90258  0.033674657  0.033957709            4 
  612000    1.0085065   -6.2918921    247.92437  0.033758764  0.033940425            4 
  613000    1.0206196   -6.3053974    247.96258  0.033708887  0.033923255            4 
  614000    1.0089859    -6.319828    248.25778  0.033694052  0.033905662            3 
  615000   0.98961947    -6.298828    248.06544  0.033613204  0.033888491            2 
  616000    1.0094677   -6.3359728    247.55886  0.033490106  0.033870531            5 
  617000    1.0091033   -6.3042065    249.36852  0.033680243  0.033852419            5 
  618000    1.0200037   -6.2794123    249.43359  0.033634519  0.033834558            3 
  619000   0.98441858   -6.3137312    248.94011  0.033513747  0.033816816            2 
  620000    1.0065709   -6.3093971    249.69255  0.033560826   0.03379904            2 
  621000    1.0050261   -6.3062082    249.26879  0.033449918  0.033781671            2 
  622000   0.99210652   -6.2951293    251.40497  0.033682337  0.033764157            3 
  623000     1.011058   -6.3257968     250.8794  0.033557973    0.0337467            2 
  624000   0.98946248   -6.3284255      250.288  0.033425214  0.033728995            7 
  625000    1.0195262   -6.2659449    251.55772   0.03354103  0.033711105            2 
  626000    1.0100094    -6.299916    252.21631  0.033575122  0.033693963            3 
  627000    1.0129927   -6.3207756    251.82694  0.033469821  0.033676792            4 
  628000    1.0195788   -6.3226498      251.978  0.033436571  0.033659448            3 
  629000    1.0082978   -6.2967723     252.5041  0.033453113  0.033641663            3 
  630000    1.0108601   -6.3451337     251.5572  0.033274762  0.033623603            5 
  631000    1.0067969   -6.2913748    253.20587  0.033439761  0.033606447            4 
  632000   0.99153279   -6.3119946    253.73395  0.033456481  0.033589008            7 
  633000    1.0030073   -6.3349208    253.88534  0.033423557  0.033571998            4 
  634000   0.99749291   -6.3315932    253.71695  0.033348705  0.033554508            5 
  635000    1.0240268   -6.3053959    254.61444  0.033413969  0.033537736            3 
  636000   0.99415005   -6.3604876    253.88066  0.033265286  0.033520952            4 
  637000    1.0105442   -6.3192717    254.66032   0.03331506  0.033504095           18 
  638000   0.99954077    -6.295608    255.84795  0.033417967  0.033487342            3 
  639000   0.99424343   -6.3132902    255.89589  0.033371921  0.033470816            4 
  640000    1.0437166   -6.3409924    256.10135   0.03334653  0.033453716            2 
  641000    1.0135389    -6.289052    257.04968  0.033417796  0.033436526            7 
  642000    1.0127625   -6.3081408    256.35393  0.033275432   0.03341982            2 
  643000   0.99553205    -6.363675     256.3002  0.033216718  0.033403029            4 
  644000   0.99959134   -6.3463806    256.82175  0.033232629  0.033385966            2 
  645000    1.0021825   -6.3552386    257.17579  0.033226846  0.033369196            3 
  646000    0.9817199   -6.3827889    257.11449  0.033167504  0.033352107            3 
  647000    1.0018821   -6.3638811    257.73196   0.03319577  0.033335357            6 
  648000    1.0257057   -6.3885282    257.31243  0.033090591  0.033318361            5 
  649000   0.98148925   -6.4021905    257.29665  0.033037578   0.03330103            6 
  650000   0.98756753   -6.3925676     257.3124   0.03298877   0.03328346            4 
  651000   0.99071415   -6.3631298    258.20486  0.033052338  0.033265695            7 
  652000    1.0037855    -6.365976    258.72822  0.033068535  0.033248147            4 
  653000   0.98636694   -6.3508373    258.42851  0.032979646  0.033230966            4 
  654000    1.0002898   -6.3598372     258.5868  0.032949388  0.033213495            2 
  655000    1.0061869   -6.3132898    260.18215  0.033102055  0.033196412            2 
  656000   0.98603098   -6.3515686    259.19945   0.03292676  0.033179398            6 
  657000   0.98006645   -6.3550285    259.25682   0.03288392  0.033162025            6 
  658000    1.0047869   -6.3357003    260.58238  0.033001821  0.033144662            4 
  659000    0.9755239   -6.3664292    260.00817  0.032879131  0.033127498            4 
  660000   0.99975328   -6.3431992    261.23519  0.032984241  0.033110694            6 
  661000   0.99299744   -6.3935686     261.7053  0.032993608  0.033093879            3 
  662000     0.986764   -6.3802435    261.72525  0.032946281  0.033077022            7 
  663000   0.98147495   -6.3250563    262.35704  0.032975998  0.033060301            4 
  664000   0.98997479   -6.3446356    262.54614  0.032950068  0.033043301            8 
  665000   0.97201944   -6.3468623    262.65449  0.032914097  0.033026176            3 
  666000   0.99322575    -6.364753    262.65249  0.032864425  0.033008897            5 
  667000   0.98070714   -6.3673326    263.63129  0.032937443  0.032992248            3 
  668000    0.9923265   -6.3511607    263.57832  0.032881527  0.032975183            4 
  669000   0.98727708   -6.3701573    262.99644  0.032759895  0.032958234            3 
  670000   0.98173419   -6.3181085    264.64323  0.032915825  0.032941196            8 
  671000   0.98591128   -6.3750083    263.54738  0.032730674  0.032924014            3 
  672000   0.98431151   -6.3577473    263.36501  0.032659352  0.032906619            6 
  673000   0.98922748   -6.3484628    264.03952  0.032694344  0.032889238            9 
  674000   0.96918685   -6.3675888    264.07028  0.032649638  0.032871409            4 
  675000   0.97122262   -6.4244421    263.66492  0.032551225   0.03285361            7 
  676000    0.9929371    -6.388087    263.80399  0.032520216  0.032835338            5 
  677000    0.9718403   -6.3640655    264.56179   0.03256546  0.032817439            5 
  678000   0.98034257    -6.377668    264.46129  0.032505075  0.032799943            5 
  679000   0.97576107   -6.3670991    264.89782  0.032510778  0.032781844            9 
  680000   0.99526677   -6.4124986    264.30932  0.032390848   0.03276345            3 
  681000    0.9761988   -6.3703687    265.96536  0.032545932  0.032745118            3 
  682000   0.99806764   -6.4009049    265.42987   0.03243278   0.03272673            9 
  683000   0.97884157   -6.3901794    265.18609   0.03235555  0.032708402            2 
  684000    0.9576541   -6.3613386    266.22732  0.032435102   0.03268969            4 
  685000    0.9708769   -6.3430232    266.08496  0.032370433  0.032671309            3 
  686000    0.9854437   -6.3880607    266.48882  0.032372306  0.032653225            4 
  687000   0.97450218   -6.4097025    266.18995  0.032288932  0.032635091            6 
  688000   0.99923666   -6.4245226    265.61465  0.032172317  0.032616573            7 
  689000    1.0036132   -6.4134067    266.57895  0.032242254  0.032598081            3 
  690000   0.96315844   -6.3644209    267.54779  0.032312535  0.032579736            4 
  691000   0.96723639   -6.3828215    267.57063  0.032268527  0.032561409            4 
  692000    1.0050379   -6.4032051    265.98722  0.032031216  0.032542591            4 
  693000    0.9620638   -6.3886232    268.35496  0.032269716  0.032523803            4 
  694000   0.97102556   -6.3725716     267.7501  0.032150588  0.032505151            2 
  695000   0.99845954   -6.4359844    267.02646  0.032017561   0.03248595            9 
  696000   0.96405468   -6.4069498    267.80049  0.032064235  0.032466807            5 
  697000   0.97273184   -6.4009834    268.05836  0.032049063  0.032447422            8 
  698000   0.94641275   -6.3734079    269.52912  0.032178739  0.032428505            3 
  699000   0.98034136   -6.3920994    268.33842  0.031990751  0.032409314            5 
  700000    0.9776109   -6.3890682    269.13299  0.032039642  0.032390214            6 
  701000   0.98655426   -6.3720766    269.74825  0.032067077   0.03237147            5 
  702000   0.98556785   -6.4229626    269.25827  0.031963233   0.03235284            5 
  703000   0.98508856    -6.416019     269.6573  0.031965067  0.032334303            3 
  704000   0.98328473    -6.386498    271.37639  0.032123152  0.032315462            7 
  705000   0.94727788   -6.4290933    271.00969  0.032034242  0.032296882            6 
  706000   0.98431377   -6.3604065    271.12996  0.032003064  0.032278058            3 
  707000   0.96594624   -6.3972935    270.83041   0.03192249  0.032259311            5 
  708000   0.96972634   -6.4063368    271.16072   0.03191628  0.032240432            4 
  709000   0.95565542   -6.3766025    271.36326   0.03189507  0.032221461            3 
  710000   0.98173553   -6.3972769    271.54623  0.031871623  0.032201977            5 
  711000   0.96222843    -6.392635    270.81706  0.031741334  0.032182042            4 
  712000   0.98178208   -6.4066626    271.56374  0.031784146  0.032162253            4 
  713000   0.98698654   -6.4178138    271.62192  0.031746367  0.032142646            5 
  714000    0.9721328   -6.4155224    271.95237  0.031740473  0.032123521            3 
  715000   0.96461684   -6.3687899    272.79094  0.031793816  0.032104388            5 
  716000   0.97654364   -6.4242489    272.72873   0.03174217  0.032085471            6 
  717000   0.97346925   -6.3876753    272.48156  0.031669172  0.032066381            4 
  718000   0.96684071   -6.3918668    273.88253  0.031787665  0.032047764            3 
  719000   0.95998904   -6.3569296    272.77427  0.031615006  0.032028971            6 
  720000   0.95911355   -6.4070006    273.33776  0.031636315  0.032010258            4 
  721000   0.95524683   -6.4142057    273.76391  0.031641691   0.03199123            5 
  722000   0.96745024   -6.4372582    274.14428  0.031641768  0.031972399            4 
  723000   0.96731163   -6.3843126     275.5007  0.031754345  0.031953838            5 
  724000   0.96892829   -6.4041345    274.56752  0.031603076  0.031935326            4 
  725000   0.95996932   -6.4318155    274.01041  0.031495449   0.03191635            4 
  726000   0.98046285   -6.4132385    274.95127  0.031560063   0.03189697            3 
  727000   0.94388977   -6.3893598    275.54486  0.031584693  0.031877743            2 
  728000   0.96841519   -6.4279548    274.78735  0.031454596  0.031858445            4 
  729000   0.96744174   -6.4260824     274.9762  0.031433036  0.031838999            4 
  730000   0.96122915   -6.4155859    275.23637  0.031419677  0.031819832            6 
  731000   0.96833379   -6.4187259    276.11141  0.031476449  0.031800733            3 
  732000    0.9672319   -6.4143269    276.87488  0.031520364  0.031781382            2 
  733000   0.95653561   -6.4509801    275.99202  0.031376992   0.03176228            8 
  734000   0.95333555   -6.4037732    276.40641  0.031381291  0.031743011            5 
  735000   0.95731406   -6.4469177    276.21154  0.031316502  0.031723715            7 
  736000   0.95695986   -6.4589057    276.32713  0.031287039  0.031704357            3 
  737000    0.9800063   -6.4112599    276.90647  0.031310093   0.03168481            4 
  738000   0.96715924   -6.4141257     276.9774  0.031275677  0.031665302            5 
  739000   0.94309768   -6.4137628    276.91205  0.031225986  0.031645201            2 
  740000   0.96053264   -6.4431366    277.24951  0.031221792  0.031625313            4 
  741000    0.9655588   -6.4429949     278.1292  0.031278587  0.031605386            9 
  742000   0.95500824   -6.4227909    277.44278  0.031159341   0.03158536            5 
  743000   0.94623486   -6.4259947    278.22737  0.031205403  0.031565541            3 
  744000   0.94114839   -6.5074514    277.59802  0.031092968  0.031545618            8 
  745000   0.94289583   -6.4369297    278.66583  0.031170675  0.031525841            7 
  746000   0.94844519   -6.4058469    278.88723  0.031153623  0.031506249            4 
  747000   0.96208247   -6.4396153     278.1193  0.031026249  0.031486449            3 
  748000   0.96089999   -6.4613882    278.73471  0.031053332  0.031466474            5 
  749000   0.97074675   -6.4695061    279.45224  0.031091704  0.031446158            4 
  750000   0.95809434   -6.4304106    279.36805  0.031040894  0.031426126            5 
  751000   0.95707096   -6.4149726     279.3109   0.03099322  0.031406666            4 
  752000   0.97254805   -6.4778355     278.8352  0.030899291   0.03138717            3 
  753000   0.94475754   -6.4266469    280.66839  0.031061133  0.031367789           13 
  754000   0.96307373   -6.4615894    280.42168   0.03099267  0.031348303            3 
  755000   0.96471562   -6.4577313    281.44207  0.031064246   0.03132888            5 
  756000   0.94019377   -6.4735172    280.31207  0.030898596  0.031309059            9 
  757000   0.94796624   -6.4523489    280.31118  0.030857682   0.03128928            3 
  758000   0.94061342   -6.4696886    281.54817  0.030952965  0.031269813            4 
  759000   0.94630614   -6.4677572    281.26535  0.030881132  0.031249847            4 
  760000   0.93333411   -6.4517736    282.31029  0.030955075  0.031230237            6 
  761000   0.95620102    -6.452966    281.60038  0.030836661  0.031210726            7 
  762000   0.95642253    -6.482855    281.17095  0.030749229  0.031191142            3 
  763000   0.94805856   -6.4470824    282.06166   0.03080621  0.031171515            3 
  764000   0.94673317   -6.4335447    283.48669  0.030921323  0.031152545            6 
  765000   0.95090622   -6.4741754    282.27709  0.030749139  0.031133411            5 
  766000   0.95949187   -6.4545755    282.97076   0.03078446  0.031114212            3 
  767000    0.9420293   -6.4373853    283.01425  0.030749049  0.031094526            5 
  768000   0.97194935   -6.4464377     283.7073  0.030784213  0.031075262            2 
  769000   0.94689436    -6.440738    284.56284  0.030836892  0.031056349            6 
  770000   0.96441462   -6.4501357    283.76631  0.030710639  0.031037291            4 
  771000   0.94617141    -6.481637    284.20466  0.030718187  0.031018151            5 
  772000   0.94272212   -6.4611442    284.23723  0.030681912  0.030998688            4 
  773000    0.9244688   -6.4929943    284.19112  0.030637249  0.030979268            4 
  774000     0.930987   -6.4905884    283.84807  0.030560731  0.030959676            3 
  775000   0.94605068   -6.4934816    283.85613  0.030522164  0.030940237            5 
  776000   0.94386609   -6.4551748    284.90493  0.030595461   0.03092089            4 
  777000   0.93322977   -6.4633328     284.4758   0.03051006  0.030901449            4 
  778000   0.95067221   -6.4706528    285.28034   0.03055702  0.030882484            5 
  779000   0.96773613    -6.466509    285.76665  0.030569817  0.030863403            5 
  780000   0.95207117   -6.4620183    285.98616  0.030554077  0.030844068            3 
  781000   0.95266232   -6.5004483    285.38063  0.030450344  0.030824722            5 
  782000   0.92903472   -6.4580136    286.62353  0.030543854  0.030805031            4 
  783000   0.93144653   -6.4676814    287.12917   0.03055866  0.030785817            4 
  784000   0.95970926   -6.4764453    286.64417  0.030468131  0.030766546           11 
  785000   0.95005424   -6.4284959    287.01767  0.030468967  0.030747246            4 
  786000   0.94172384   -6.4525319    286.63865  0.030390018   0.03072804            4 
  787000   0.94015245   -6.4846858    287.60345  0.030453564  0.030709088            6 
  788000   0.94022887   -6.4905373      287.162  0.030368231  0.030689879            5 
  789000   0.94727733   -6.4833586     287.8701  0.030404531  0.030670664           10 
  790000   0.93970495   -6.4804236    288.05601  0.030385655  0.030651457            5 
  791000   0.93519608   -6.4916027    287.98537  0.030339799  0.030632592            4 
  792000   0.95511881   -6.5172532    287.41314  0.030241282  0.030613406            8 
  793000   0.96439282   -6.5194956     288.0845  0.030273697  0.030594156           13 
  794000   0.95505177   -6.4915207    288.54954  0.030284377  0.030574907            2 
  795000   0.93103933   -6.5073302    289.24632  0.030319321  0.030555811            3 
  796000   0.93710133   -6.4237419    290.05029  0.030365399  0.030536934            5 
  797000   0.91708677   -6.4548026    289.01265  0.030218805  0.030518429            7 
  798000   0.93962675   -6.5046458     288.0958  0.030085192  0.030499538            4 
  799000   0.93741364   -6.4626294    290.29774  0.030277194  0.030480781            6 
  800000   0.94679164   -6.5363618    289.20046  0.030125048  0.030461908            7 
  801000   0.94173102   -6.5141494    290.00585  0.030171228  0.030443031            2 
  802000   0.93811919   -6.4890156    291.06713  0.030243883   0.03042428           10 
  803000   0.93012542   -6.4996746    290.45013  0.030142188  0.030405721            3 
  804000   0.91363817   -6.4737389    291.73208   0.03023757   0.03038709            6 
  805000   0.91160086   -6.4907134    291.21319  0.030146293  0.030368516            5 
  806000   0.94042747   -6.5086922    291.62509  0.030151477  0.030350053            7 
  807000   0.96531194   -6.5262936    290.94214  0.030043592  0.030331361            5 
  808000   0.94334577    -6.516737    291.64374  0.030078769  0.030312711            7 
  809000   0.92914582   -6.5180271    291.97297  0.030075501  0.030294143            7 
  810000   0.94421427   -6.5295806    292.17624  0.030059284   0.03027586            3 
  811000   0.91885496   -6.5181829    292.42853  0.030048144  0.030257132            3 
  812000     0.925121   -6.5086984     293.5189   0.03012304  0.030238745            7 
  813000   0.94134176   -6.5706301    292.64725  0.029996643  0.030220458            4 
  814000   0.95916182   -6.4807327    294.18675  0.030117398  0.030202031            5 
  815000   0.93046889   -6.5207234     294.0541  0.030066881  0.030184077            3 
  816000   0.93939026   -6.4783638     293.6987   0.02999374  0.030165791           10 
  817000   0.94103268   -6.5116197     294.9531  0.030084975  0.030147572            2 
  818000   0.93087079   -6.4853005    295.05234  0.030058307  0.030129394            4 
  819000    0.9263939   -6.5008238    295.02096  0.030018413  0.030111458            6 
  820000   0.94191911   -6.5280237    293.95651  0.029873629  0.030093451            6 
  821000   0.92176038   -6.5792062    293.46443  0.029787295     0.030075            3 
  822000   0.94507666   -6.5099957     295.4983  0.029957249  0.030056812            4 
  823000   0.92185132    -6.534765    294.83745  0.029853933  0.030038852            8 
  824000   0.93513238   -6.5262328    295.90261  0.029925426  0.030020941            3 
  825000   0.92734913   -6.4998221    295.29687  0.029827967  0.030002705            9 
  826000   0.93423006   -6.5041447    297.09349  0.029973113   0.02998473            3 
  827000   0.91545092   -6.5165168    295.82459  0.029809008  0.029966544            6 
  828000   0.91818653   -6.5843178    294.93835  0.029683812  0.029948273            6 
  829000   0.90927413   -6.4965749    297.25731  0.029881113  0.029930184            3 
  830000   0.94761661   -6.4993658    296.87717  0.029806944  0.029912211            6 
  831000   0.93880778   -6.5492482    296.25241  0.029708424  0.029894366            5 
  832000   0.90782804   -6.5061765    296.82093   0.02972966  0.029876394            4 
  833000    0.9369612   -6.4930495    297.78919  0.029790835  0.029858597            4 
  834000   0.92264175   -6.5353249    296.33064  0.029609377   0.02984048            6 
  835000   0.93493439   -6.5267368    297.62101  0.029702695   0.02982238            6 
  836000   0.91501567   -6.5535751    297.21778  0.029626971  0.029804387            3 
  837000   0.92651459   -6.5204607    297.78503  0.029648051  0.029786388            6 
  838000   0.93047581   -6.5708051    297.32994  0.029567417  0.029768143            7 
  839000   0.91451472   -6.5194957    298.85833  0.029683982  0.029749835           13 
  840000   0.92353896   -6.5260174    298.09117  0.029572537  0.029731354            9 
  841000   0.92384726   -6.5129645    298.38265  0.029566256  0.029713077            3 
  842000   0.91474284   -6.5322359     298.7683  0.029569309  0.029695023            8 
  843000   0.90683516   -6.5621256    298.44097  0.029501875  0.029676763            7 
  844000   0.93404238   -6.5614801    298.46208  0.029469004  0.029658113            7 
  845000   0.90915435   -6.5253751    299.67494  0.029553742   0.02963971            7 
  846000   0.91512038   -6.5480342    299.71537  0.029522791  0.029621485            6 
  847000   0.89758658   -6.5284033     299.5286  0.029469559  0.029603276            4 
  848000   0.91003881    -6.532186    298.99644  0.029382512  0.029584803            6 
  849000   0.91337962   -6.5697942     298.6871   0.02931754  0.029566173            4 
  850000   0.91199947   -6.5613854    298.44069  0.029258892  0.029547587            5 
  851000   0.91042402   -6.5392064    300.21926  0.029398674  0.029529056            3 
  852000   0.90753888   -6.5336506    300.33538  0.029375526  0.029510976            6 
  853000   0.93026544    -6.551275    300.48589  0.029355792   0.02949276            6 
  854000   0.89897625   -6.5320484    300.73257  0.029345489  0.029474448            7 
  855000   0.89060005   -6.5567704    300.89723  0.029327215  0.029456084           10 
  856000   0.89000244   -6.5157232     301.3189  0.029334005  0.029437756            5 
  857000   0.91600502   -6.5575356    300.54744  0.029224761  0.029419317            3 
  858000   0.89843392   -6.5901253      299.543  0.029093143  0.029400444            3 
  859000   0.91785214    -6.588936    300.06726  0.029110133  0.029381353            6 
  860000   0.91272049   -6.5525132    302.09442  0.029272715  0.029362457            8 
  861000   0.89684123   -6.5983782    299.63935  0.029001098  0.029343458           16 
  862000   0.89774502   -6.5832191    301.25821  0.029123957  0.029324362            3 
  863000   0.90893042   -6.5830687    301.33264  0.029097397  0.029305572            8 
  864000   0.90330076   -6.5901559    302.06681   0.02913453  0.029287093            6 
  865000   0.91411638   -6.5748121    301.75748  0.029071049  0.029268569            3 
  866000   0.91729257   -6.5527173    302.36432  0.029095874  0.029250049            4 
  867000   0.92306787   -6.5715674    302.45512  0.029071041  0.029231445            3 
  868000   0.91116334   -6.5749892    301.35127  0.028931573  0.029212603            5 
  869000   0.91548997   -6.5738462    302.70152  0.029027763  0.029193864            7 
  870000   0.87733015   -6.5441939    302.19729    0.0289461   0.02917503            6 
  871000   0.88797318   -6.5654526    302.24076  0.028917026  0.029156053            3 
  872000   0.91686402   -6.5469264    303.22593  0.028978013  0.029137281            9 
  873000   0.91987647   -6.5795633    303.15667  0.028938208  0.029118445           17 
  874000   0.88929512   -6.5478479      302.797  0.028870805  0.029099568            4 
  875000   0.90676717   -6.5856091    301.74103  0.028737241  0.029080637           22 
  876000   0.91761318   -6.5644964    303.26575  0.028849481  0.029061695            6 
  877000   0.90340773   -6.5446985    303.80804  0.028868115  0.029042439            5 
  878000   0.92568377   -6.5715612    303.00909  0.028759405  0.029023208            4 
  879000   0.89381977   -6.5826303    302.74828  0.028701961  0.029003934           12 
  880000   0.91422154   -6.5567453    304.00949  0.028788777  0.028984725            2 
  881000   0.91313121    -6.578304    302.78714  0.028640479  0.028965393            6 
  882000   0.90091238   -6.5784799    303.69835  0.028694099  0.028946129            5 
  883000    0.9005401   -6.5485593    304.17799   0.02870687  0.028926841            8 
  884000   0.89930786   -6.5898999    303.30384  0.028591991   0.02890728            9 
  885000   0.90253412   -6.5668684    303.54264  0.028582169   0.02888765            3 
  886000   0.92343631   -6.5561679    304.10916  0.028603194  0.028868135            6 
  887000    0.9000416   -6.6010558    303.60637   0.02852371  0.028848427            6 
  888000    0.9125696   -6.6247579    303.58048  0.028489159  0.028828994            4 
  889000   0.89987262   -6.6087669    303.84938  0.028482319  0.028809351            4 
  890000   0.91522961   -6.6067057    303.86749  0.028452012  0.028789657            6 
  891000   0.89398565   -6.6194954    304.07895  0.028439857  0.028770053            5 
  892000   0.89970088   -6.6188134    305.41641  0.028532923  0.028750567           10 
  893000   0.88772199   -6.5939033    305.32092   0.02849206  0.028731246            5 
  894000   0.90449099   -6.5922719    305.82386  0.028507071  0.028712021            5 
  895000   0.89740313   -6.6008967    305.59839  0.028454226  0.028692838            3 
  896000   0.91151437   -6.5741441    305.60079  0.028422693  0.028673707            6 
  897000    0.8991729   -6.6230221    306.08034  0.028435558  0.028654714            5 
  898000   0.93191889   -6.6166472    306.60951  0.028452998  0.028635785           11 
  899000   0.92920408   -6.5761952    306.76529  0.028435789  0.028617017           10 
  900000   0.90526821   -6.5979777    306.90664  0.028417282   0.02859809            3 
  901000   0.89836656   -6.6173101    306.95498  0.028390213   0.02857934            4 
  902000   0.90433473   -6.6014313    306.55316  0.028321615  0.028560387           10 
  903000   0.90354983   -6.6082414    306.27508  0.028264588   0.02854132            5 
  904000    0.8841054   -6.6062293    306.34584  0.028239845  0.028521951           12 
  905000   0.92033193   -6.6003363     306.4781   0.02822082  0.028502641            6 
  906000    0.9209164   -6.6182825    306.40251  0.028182718  0.028483495            5 
  907000   0.91600615   -6.6141557    306.09638  0.028123519  0.028464096            3 
  908000   0.89808093   -6.6277138     306.0603  0.028089234  0.028444648            7 
  909000   0.88295371   -6.6086909    307.22424  0.028165038  0.028425303            7 
  910000   0.87972724   -6.6314924    307.16076  0.028128275  0.028405577            5 
  911000   0.88994844   -6.6086546    307.72261  0.028148793  0.028386119            7 
  912000   0.89641435   -6.6293132    308.29577    0.0281703  0.028366709            6 
  913000   0.88696528   -6.6225699    306.73804  0.027997266  0.028346946            9 
  914000   0.89635617   -6.6271485    307.38513  0.028025632  0.028327478            4 
  915000   0.91046819   -6.6314351    307.40768  0.027997057  0.028307954            5 
  916000   0.89603327   -6.6160697    307.53499  0.027978074  0.028288642            3 
  917000   0.86826707   -6.6508644     307.8875  0.027979598  0.028269232            4 
  918000   0.88624297   -6.6413385    307.27913  0.027893893  0.028249652            6 
  919000   0.90467612   -6.6138846    309.25595  0.028042796   0.02823007            4 
  920000   0.89927195   -6.6469427    307.87085  0.027886852  0.028210602            4 
  921000   0.86918125   -6.6299568    308.58717  0.027921387  0.028190669           12 
  922000   0.87891818   -6.6334158    307.41351  0.027785024  0.028170678           13 
  923000    0.8731401   -6.6325297    308.15312  0.027821698  0.028150899            6 
  924000   0.89939657   -6.6615166    308.03341  0.027780791  0.028131025            5 
  925000   0.87871562    -6.593131    308.41285  0.027784941  0.028111073            4 
  926000   0.89934432   -6.6183308    308.04762  0.027722068  0.028091527            7 
  927000   0.90259027   -6.6128177    308.94398  0.027772742   0.02807167            4 
  928000   0.87672208   -6.6104179    309.00353  0.027748162  0.028051896            6 
  929000   0.89643395   -6.6860258    308.40414  0.027664526  0.028032129            5 
  930000   0.88327421   -6.6307861     308.7756  0.027668065  0.028011989            5 
  931000   0.89407774   -6.6188789    309.03178  0.027661276  0.027992289            3 
  932000   0.89243908   -6.6256238    309.71581  0.027692759   0.02797237            7 
  933000   0.88529274   -6.6061944    309.50519  0.027644264  0.027952504           11 
  934000   0.88703167   -6.6308634    309.29955  0.027596319  0.027932491            5 
  935000   0.86667823    -6.594596    309.73699  0.027605792  0.027912683            5 
  936000   0.87178135   -6.6250745    309.34351  0.027541267   0.02789261            5 
  937000   0.87387565   -6.6627894    309.18162  0.027497476  0.027872312            5 
  938000   0.88590458   -6.6451075    308.71758  0.027426935   0.02785229            5 
  939000   0.90100901   -6.6139215    309.49532  0.027466748  0.027832338            4 
  940000   0.87364576   -6.6350109    309.72493  0.027457884  0.027812602            6 
  941000   0.88872651   -6.6184226      310.454  0.027493269  0.027792723            5 
  942000   0.87398714   -6.6436534    309.67836  0.027395467  0.027772564            9 
  943000   0.88347482   -6.6226577     310.6795  0.027454887  0.027752555            6 
  944000   0.87089584   -6.6431578     309.8914  0.027356233  0.027732793            5 
  945000   0.89453218   -6.6713338    310.26762   0.02736046  0.027712825            5 
  946000   0.89930212   -6.6941082    310.14176  0.027320451  0.027692606           11 
  947000     0.895569   -6.6576732    310.69254  0.027340069  0.027672349           13 
  948000   0.87643859   -6.6698205    311.23981  0.027359336  0.027652047            7 
  949000   0.87160423   -6.6772731    310.21838  0.027240813  0.027631859           11 
  950000   0.88229414     -6.62648    311.59062   0.02733251  0.027611908            7 
  951000    0.8662933   -6.6743307    311.19786  0.027269353  0.027592064            7 
  952000   0.87711419     -6.67032    311.76671  0.027290504  0.027572133            5 
  953000   0.89807374   -6.6397681    310.79627  0.027177008  0.027552394            3 
  954000   0.88734194   -6.6287413    311.63761  0.027222013  0.027532543            5 
  955000   0.87934706   -6.6129143    311.65232  0.027194792  0.027512784            8 
  956000   0.89573955   -6.6608539     311.7031  0.027170772  0.027492983            9 
  957000   0.88387624   -6.6319644    311.43035  0.027118631  0.027473087            8 
  958000   0.86523828   -6.6510945    312.18299  0.027155792  0.027453157           10 
  959000   0.86407753   -6.6603233    312.22534  0.027131156  0.027433537            3 
  960000   0.88493177   -6.6370238    313.03283  0.027172988  0.027413978            5 
  961000    0.8869243   -6.6647244    312.32374  0.027083224   0.02739412            5 
  962000   0.86413207   -6.7041588    311.78777  0.027008642  0.027374198            7 
  963000   0.85069434   -6.6736338    312.73351  0.027062436  0.027354264            8 
  964000   0.85772056   -6.6656916    311.86793  0.026959537  0.027334368            6 
  965000   0.85867937   -6.6607044    312.75678  0.027008357  0.027314461            6 
  966000   0.84918656    -6.653538    312.61968  0.026968572  0.027294592            8 
  967000   0.89200026   -6.7038759    312.46925  0.026927719  0.027274611            7 
  968000   0.88147926   -6.6708726     312.1143  0.026869344  0.027254732            6 
  969000   0.85144352   -6.6370317    313.26653  0.026940706  0.027235027            3 
  970000   0.87237272   -6.6627498    313.27359  0.026913539  0.027215259            4 
  971000    0.8693795   -6.6613667    313.89366  0.026939037  0.027195265            4 
  972000   0.85682028   -6.6927708     312.2612  0.026771365  0.027175306            6 
  973000    0.8792668   -6.6738959    312.69789  0.026781251  0.027155364            3 
  974000   0.86103332   -6.6648359    313.14176  0.026791732  0.027135458            5 
  975000   0.87366053   -6.6484529    314.02605  0.026839833  0.027115678           13 
  976000   0.87735766   -6.6679518    313.08756  0.026732203  0.027095759            5 
  977000   0.86485355      -6.7232    312.41806  0.026647736  0.027075481            9 
  978000   0.86888055   -6.7083097     312.8168  0.026654465  0.027055138            7 
  979000   0.85450828   -6.6730265    313.32055  0.026670119   0.02703479           11 
  980000   0.85385311    -6.660161     313.7172  0.026676633  0.027014571            3 
  981000   0.89441236   -6.7135299    312.73289  0.026565825  0.026994375            7 
  982000   0.85068684   -6.6755753    313.95515  0.026642494  0.026974188            4 
  983000   0.87399309    -6.676839    314.00524  0.026619637  0.026953944           14 
  984000   0.86159496   -6.6909229    313.50458  0.026550184  0.026933541            9 
  985000   0.84432207   -6.6611133      314.718  0.026625889  0.026913484            7 
  986000   0.85420796   -6.6759999    314.69871  0.026597254  0.026893181            4 
  987000   0.86332359   -6.6929185    313.84843  0.026498517  0.026873103            8 
  988000   0.85656081   -6.7222381    314.96704  0.026566046  0.026852851            7 
  989000   0.86680925   -6.7137539    314.22545  0.026476698  0.026832563           12 
  990000   0.85653376   -6.7221763    314.37813  0.026462806  0.026812211           11 
  991000   0.86221521   -6.6889667    314.75467  0.026467766  0.026792087            6 
  992000   0.85173622   -6.7333843    314.47455  0.026417553  0.026771931            5 
  993000    0.8606908   -6.7117472    315.25975  0.026456844  0.026751529            7 
  994000   0.86253842   -6.7054813     314.4051  0.026358576  0.026731157            5 
  995000   0.88294698   -6.6755501    315.22113   0.02640043  0.026710815           13 
  996000   0.86202278   -6.6902721    314.43081  0.026307798  0.026690633            4 
  997000   0.84473062   -6.7381474    313.76724  0.026225948  0.026670144            9 
  998000   0.85044613   -6.7181209     313.9608  0.026215832   0.02664958            9 
  999000   0.84959353   -6.7155563    314.12035  0.026202898  0.026629061            9 
 1000000   0.86019987   -6.7032723    314.13698  0.026178082  0.026608755            5 
 1001000    0.8492729   -6.7478767    313.44177  0.026094053  0.026588269            6 
 1002000   0.83526333    -6.727706    313.96268  0.026111334   0.02656768           15 
 1003000   0.84050022   -6.7336498    313.94057  0.026083464    0.0265471            7 
 1004000   0.83852409   -6.6998938    314.54744  0.026107855  0.026526572           16 
 1005000   0.84728284   -6.6929182    314.89847  0.026110984  0.026506131            6 
 1006000   0.85017244   -6.7031241    315.49584  0.026134513  0.026485754           10 
 1007000    0.8257651   -6.7352474    314.82705  0.026053215  0.026465297            7 
 1008000   0.85004404   -6.7269171    315.61657   0.02609264  0.026444764            9 
 1009000   0.84746725   -6.7202601    314.47444  0.025972452  0.026424326            7 
 1010000   0.85553595   -6.7433136    315.68795   0.02604686  0.026403786            6 
 1011000   0.87595512   -6.6915692    315.22631  0.025983046  0.026383302            5 
 1012000   0.86339565    -6.708182    315.76436  0.026001676  0.026362818            4 
 1013000   0.86421133   -6.7062037    316.09619  0.026003306  0.026342422            7 
 1014000   0.84493056   -6.7417772    315.95732  0.025966249  0.026321723            8 
 1015000   0.86234115   -6.7380754    315.54196  0.025906565  0.026301273            6 
 1016000    0.8503861   -6.7462262    314.89871  0.025828306  0.026280577           13 
 1017000   0.84193431   -6.7400751    315.78567  0.025875588  0.026260032            7 
 1018000   0.83434116   -6.6897566    316.34388  0.025895864  0.026239601            8 
 1019000   0.84339563    -6.721763    315.64742  0.025813495    0.0262192            3 
 1020000   0.86464769    -6.691592    316.65045  0.025870135  0.026198885            4 
 1021000   0.82843201   -6.7218255    315.06924   0.02571574  0.026178297            7 
 1022000   0.83948866   -6.7476979    315.39556  0.025717185  0.026157551            9 
 1023000    0.8349483   -6.7145276    316.28809  0.025764752  0.026136779            7 
 1024000   0.83342889   -6.7151188    316.07925  0.025722595  0.026116037            5 
 1025000   0.86441532   -6.7384188    315.72278  0.025668519  0.026095381            9 
 1026000   0.84351925   -6.7274293    316.31862  0.025691896  0.026074619            4 
 1027000   0.84928669   -6.7351767    316.20891  0.025657977  0.026053995            7 
 1028000   0.84803668    -6.773661    315.46179  0.025572453  0.026033224            8 
 1029000   0.84326635   -6.7352552    316.29135  0.025614784  0.026012316            4 
 1030000   0.85608984   -6.7690525    315.63762  0.025537024  0.025991491            6 
 1031000   0.85973302    -6.756323    316.24542  0.025561382  0.025970714            7 
 1032000   0.84310649   -6.7316709    316.61779  0.025566682   0.02595007            4 
 1033000    0.8331895    -6.760216    316.67555  0.025546591  0.025929418           10 
 1034000   0.84891951   -6.7710075    316.60513   0.02551621  0.025908564            5 
 1035000   0.83632689   -6.7383687    316.48192  0.025481636  0.025887877           16 
 1036000   0.83603151   -6.7497494    316.43143  0.025452979  0.025867266            6 
 1037000   0.83783561     -6.76233    317.00163  0.025474255   0.02584653            3 
 1038000   0.85122361    -6.735597    316.98471  0.025448355  0.025825785           11 
 1039000   0.82913086   -6.7400364    317.01323  0.025426149  0.025805049            7 
 1040000   0.84047063   -6.7366573    316.90512  0.025393039  0.025784448            8 
 1041000   0.84292584   -6.7662721    316.94368  0.025371733  0.025763723            5 
 1042000   0.83076293   -6.7656811    316.71054  0.025328738  0.025743003            6 
 1043000   0.84586923   -6.7849664     316.5107  0.025288487  0.025722206            5 
 1044000    0.8306845   -6.7662069    316.79354   0.02528684  0.025701349            7 
 1045000   0.82539596   -6.7832736    315.33955  0.025146695   0.02568059            5 
 1046000   0.82814269   -6.7847179    316.64051  0.025226299  0.025659745            8 
 1047000   0.83549137   -6.7501047    317.16243  0.025243746  0.025638975            5 
 1048000   0.83704006   -6.7707272    317.21505  0.025223843   0.02561829            7 
 1049000   0.83299838   -6.7669876    317.52138  0.025224133  0.025597713            6 
 1050000   0.84552777   -6.7869975    317.43175  0.025192996  0.025577123           10 
 1051000   0.83063347   -6.7954288    317.21898  0.025152155  0.025556244            9 
 1052000   0.82395029   -6.7802258    316.75216  0.025091268  0.025535498            7 
 1053000   0.83452882   -6.7589202    317.91013  0.025159079  0.025515037            5 
 1054000    0.8390948   -6.7362165    319.54882  0.025264771  0.025494876           13 
 1055000   0.82909792   -6.7385296     318.7916  0.025181011   0.02547464            5 
 1056000   0.85965885   -6.7675784    318.20515  0.025110886   0.02545452           10 
 1057000   0.81554593   -6.7771553    318.47232  0.025108193  0.025434354            8 
 1058000   0.84419708   -6.7832604    318.47663    0.0250848  0.025414113            8 
 1059000   0.82375611   -6.7735289    318.29815  0.025047069  0.025393921            5 
 1060000   0.82676416   -6.7692104    319.21768   0.02509573  0.025373699           20 
 1061000    0.8193626   -6.7488851    319.11465  0.025063984  0.025353334            8 
 1062000    0.8132021   -6.7640575    318.20711  0.024969171  0.025332978            5 
 1063000   0.84715096   -6.7928913    318.69056  0.024983581  0.025312645            7 
 1064000   0.83610329   -6.8110015    317.75835  0.024887089  0.025292254           13 
 1065000   0.83636076   -6.7530809    319.29278  0.024983785  0.025271762           20 
 1066000   0.82752906   -6.8033854    318.97804  0.024935745  0.025251362           13 
 1067000   0.82781565   -6.7977691     318.2136  0.024852671  0.025230889           11 
 1068000   0.81967087   -6.7630207     319.1389    0.0249016  0.025210622            8 
 1069000   0.81764284   -6.7855412    319.45102  0.024902636  0.025190113           12 
 1070000   0.83227217   -6.7971587    318.40525  0.024797917  0.025169819            9 
 1071000   0.81153233   -6.7889176    319.40647  0.024852666  0.025149491            4 
 1072000   0.81385772   -6.7640314    319.36199  0.024826025  0.025129088            4 
 1073000   0.82178999   -6.7231044    319.88167  0.024843249  0.025108976            8 
 1074000   0.81866492   -6.7738607    319.62999  0.024800589  0.025088714           15 
 1075000   0.81896661   -6.8309635    318.41972  0.024683699  0.025068388           14 
 1076000   0.83159588    -6.789941    319.16836  0.024718739  0.025048038            4 
 1077000   0.86049211    -6.767297    318.97133  0.024680542  0.025027755            6 
 1078000   0.80123124   -6.7688095    320.05849  0.024741689  0.025007573            7 
 1079000   0.82808912   -6.7333189     321.0242  0.024793343  0.024987417            5 
 1080000   0.83202118   -6.7928824       320.49  0.024729166  0.024967381            5 
 1081000   0.81213796   -6.7624784    320.47926  0.024705463  0.024947361            7 
 1082000   0.81640809   -6.7869798     320.8599  0.024711945  0.024927355            8 
 1083000   0.83553619   -6.7724688    321.01035  0.024700704  0.024907381            7 
 1084000   0.81824369   -6.8309758    319.68818  0.024576274  0.024887234           21 
 1085000    0.8250799   -6.8288439    320.24317  0.024596249   0.02486706           19 
 1086000   0.80248561   -6.8317259    320.31456  0.024579079  0.024846987           17 
 1087000    0.8166364   -6.8200297    319.79946  0.024516978  0.024826898            9 
 1088000    0.8247509   -6.7959606    320.77278  0.024568994  0.024806955            7 
 1089000    0.8231652   -6.8208718    320.66719  0.024538352  0.024786986           17 
 1090000     0.806478   -6.8062502    320.68718  0.024517369  0.024766908           10 
 1091000    0.8248196   -6.8034365    321.54489   0.02456041  0.024746802            8 
 1092000   0.81828424   -6.8310156    320.23812  0.024438196  0.024726567           13 
 1093000   0.79914372   -6.8126366    320.56441  0.024440714  0.024706356            8 
 1094000    0.8134324   -6.8117031    320.74933   0.02443246  0.024686057            3 
 1095000   0.82679558   -6.8317151    320.23095  0.024370697  0.024665809            8 
 1096000   0.81080688   -6.8469424    319.28734  0.024276714   0.02464542           15 
 1097000    0.8136745   -6.8207003    319.87775  0.024299434  0.024624999            5 
 1098000   0.82067273   -6.8244097    320.87983  0.024353357  0.024604721            9 
 1099000   0.81359135   -6.8163806    320.44228   0.02429802  0.024584469            7 
 1100000   0.82139203   -6.7642089    321.19668  0.024333081  0.024564325            9 
 1101000   0.82794865   -6.8110228    320.24518  0.024238963  0.024544273            7 
 1102000    0.8254149   -6.8530557    320.45668  0.024232961  0.024523936            5 
 1103000   0.82205486   -6.8240069     321.2327  0.024269621   0.02450375            6 
 1104000   0.81089744   -6.8515215     319.7583  0.024136345  0.024483392           11 
 1105000   0.80746384   -6.8811351    320.10261  0.024140468  0.024463092            5 
 1106000   0.80468627   -6.8670341     320.8016  0.024171308  0.024442769            5 
 1107000   0.81635173   -6.8310616    322.05089  0.024243518  0.024422568            8 
 1108000   0.82179531   -6.8387611    321.18642   0.02415662  0.024402479           14 
 1109000    0.8061818   -6.8348826    321.04995  0.024124583  0.024382498            8 
 1110000   0.81946605   -6.8505223    321.48732  0.024135685  0.024362512            6 
 1111000   0.80763552   -6.8534293    320.87273  0.024067861  0.024342436           11 
 1112000   0.80907612   -6.8071553    321.16085   0.02406781  0.024322454            6 
 1113000   0.80180842   -6.8208409    322.40586  0.024139402  0.024302577            7 
 1114000   0.81702522   -6.8025758    322.20249  0.024102521  0.024282564           13 
 1115000   0.81602302   -6.8358622     321.9643  0.024063101  0.024262604           24 
 1116000   0.82525516   -6.8424449    322.00748  0.024044764   0.02424275           16 
 1117000   0.81788148   -6.8391771    321.74184   0.02400342  0.024222748           25 
 1118000   0.81592063   -6.8682519    321.11461  0.023935197  0.024202715           16 
 1119000   0.80933781   -6.8142715    322.68699  0.024030905    0.0241829            4 
 1120000   0.82193288   -6.8364321    322.20905  0.023973887  0.024162994            6 
 1121000   0.80116733   -6.8247607     323.1327  0.024021164  0.024143176           10 
 1122000   0.80363166   -6.8834704     321.9978  0.023915463  0.024123408            8 
 1123000   0.81518844   -6.8535159    321.70727  0.023872608  0.024103608            6 
 1124000   0.79833707   -6.8287639    324.24107  0.024039225   0.02408402            7 
 1125000   0.80121268   -6.8484555    322.75172  0.023907534  0.024064636           18 
 1126000   0.82625027   -6.8717307    323.85933  0.023968275  0.024045215            9 
 1127000   0.80132523   -6.8788473    322.74617  0.023864698  0.024025648            9 
 1128000   0.78132737   -6.8687453     323.0453   0.02386564  0.024006061            5 
 1129000   0.80925275   -6.8666723    322.70689  0.023819523  0.023986378            4 
 1130000   0.83129611   -6.8770458    322.44233  0.023778933  0.023966758           17 
 1131000   0.80569904   -6.8521161    323.13635  0.023809044  0.023947251           17 
 1132000    0.7961715   -6.8708935    322.10094  0.023711789  0.023927744           13 
 1133000   0.79073661   -6.8638874    323.54518  0.023797086   0.02390827            7 
 1134000   0.81677626   -6.8481557     323.0489  0.023739631  0.023888854            7 
 1135000     0.807583   -6.8813372    323.90897  0.023781863  0.023869488           15 
 1136000   0.80227252   -6.8879628    322.44408  0.023653468  0.023850054           11 
 1137000   0.80009937   -6.8647536    323.93229  0.023741739  0.023830652            9 
 1138000   0.79878296   -6.8787216    323.33662  0.023677257  0.023811275           12 
 1139000   0.78929893   -6.8565433     324.2581  0.023723888  0.023792043            6 
 1140000   0.78247792   -6.8578556    323.16583  0.023623233  0.023772727            8 
 1141000   0.78858447   -6.8809425    323.99531   0.02366311  0.023753463            9 
 1142000   0.80054753   -6.8761064    324.05296  0.023646597  0.023734018            6 
 1143000   0.80878435    -6.867033     324.1591  0.023633647  0.023714807           13 
 1144000   0.80775647   -6.8661839    325.00061  0.023674287  0.023695685           14 
 1145000   0.81124692    -6.856742    324.31602  0.023603786  0.023676531           10 
 1146000   0.79583053   -6.8993936      323.698  0.023538249  0.023657398           19 
 1147000   0.80150669   -6.8761802    324.90846  0.023605671  0.023638171           13 
 1148000   0.78831301   -6.8675643    325.23992  0.023609169  0.023618949           11 
 1149000   0.80526506    -6.877103    324.27817  0.023518869  0.023599854           11 
 1150000   0.77818923   -6.8580842    325.13351  0.023560399  0.023580787           14 
 1151000   0.78838931   -6.8815095    324.60203   0.02350145  0.023561606            5 
 1152000   0.79500883   -6.8652841     324.7024   0.02348831  0.023542476            7 
 1153000   0.79934787   -6.8786389     325.0249  0.023491248  0.023523368            7 
 1154000   0.80039131   -6.8687414    325.45905  0.023502242  0.023504368            8 
 1155000   0.78940146   -6.9071693    324.75714  0.023431251  0.023485191            7 
 1156000   0.79832674   -6.8921891    324.66618  0.023404425  0.023466007           10 
 1157000   0.77974916   -6.8702801    324.04833  0.023339695  0.023446865           18 
 1158000    0.7946304   -6.8851966    325.33912  0.023412429  0.023427791            7 
 1159000   0.77821573   -6.9024642    324.56051  0.023336246  0.023408665            5 
 1160000   0.79128296   -6.8957035    325.14984  0.023358466  0.023389549           12 
 1161000   0.79203748   -6.8891011    325.98722  0.023398451  0.023370517            8 
 1162000   0.78174186   -6.8848093    325.09123  0.023314058  0.023351584            6 
 1163000   0.77859768   -6.9042168    324.03936  0.023218641  0.023332434            8 
 1164000   0.78550713    -6.913128    324.87013  0.023258171  0.023313211           20 
 1165000   0.78003423   -6.9100882    324.56345  0.023216269  0.023293947           15 
 1166000   0.77964091   -6.9214451     325.5246  0.023265051  0.023274835            6 
 1167000   0.78854492   -6.9148913     324.8721  0.023198522  0.023255782           10 
 1168000   0.79048321   -6.8790747    325.66442  0.023235189   0.02323682           26 
 1169000   0.77174588   -6.8804355    325.91523  0.023233193  0.023217993            6 
 1170000   0.78984869   -6.8741001    325.07771  0.023153683  0.023199256            9 
 1171000    0.7850217   -6.9180585    325.56758  0.023168772    0.0231805            9 
 1172000   0.78419678   -6.8988365    325.71874  0.023159751  0.023161715           10 
 1173000   0.78243532   -6.8765505    326.18281  0.023172976  0.023142981           15 
 1174000     0.775327   -6.8468336    326.28476  0.023160474  0.023124272            9 
 1175000   0.78132692   -6.9141763    325.89918  0.023113417  0.023105664           13 
 1176000   0.79402061   -6.8856652    326.12962  0.023110092  0.023087005            9 
 1177000   0.78591031   -6.9312262    325.79684  0.023066896  0.023068257            8 
 1178000   0.79866757   -6.9173958    325.80888  0.023048166  0.023049578            9 
 1179000   0.77914222   -6.8887078    325.70553  0.023021313  0.023030929            3 
 1180000   0.77047077   -6.8945505    326.96392  0.023090672  0.023012223           15 
 1181000   0.77977051   -6.8926024    326.71126  0.023053292  0.022993626           15 
 1182000   0.77260781    -6.919997    325.56947   0.02295329  0.022974815            9 
 1183000    0.7729695   -6.9018979    325.86949  0.022955022  0.022956065            9 
 1184000   0.78318078   -6.9102216    326.27805   0.02296439  0.022937258           10 
 1185000    0.7722364   -6.9406151     325.6874  0.022903474  0.022918445           14 
 1186000   0.78376686   -6.9243253    325.41126   0.02286476  0.022899468           14 
 1187000   0.77050029   -6.9265832    325.24297  0.022833682  0.022880641           10 
 1188000   0.78354432   -6.9199019     326.9632  0.022935129  0.022861995            4 
 1189000   0.76832965   -6.9364642    326.45294  0.022880077  0.022843347           12 
 1190000   0.76401951   -6.9233158    326.18678  0.022842212  0.022824686           23 
 1191000   0.79933221    -6.937605    326.79126  0.022865327  0.022805972           13 
 1192000    0.7840163   -6.9647334    325.93831  0.022786515  0.022787322           17 
 1193000   0.78464667   -6.9638711    326.93709  0.022837182  0.022768633           14 
 1194000   0.78675453   -6.9620691    325.61905  0.022726064  0.022749932           22 
 1195000   0.78779878   -6.9374799    326.58302  0.022774269  0.022731351           20 
 1196000   0.77803138    -6.959714    326.65468   0.02276022  0.022712721           20 
 1197000   0.77793834   -6.9359338    326.86201   0.02275564  0.022694178           12 
 1198000   0.76087827   -6.9138926    326.74944  0.022728815  0.022675694           24 
 1199000    0.7896923   -6.9662038    326.48319  0.022691353   0.02265708           37 
 1200000   0.78458592   -6.9502337    326.53463  0.022676016   0.02263862           15 
 1201000   0.78843436   -6.9529024    327.16244  0.022700696  0.022620152           23 
 1202000   0.77518663   -6.9383802    326.34811  0.022625354  0.022601545           13 
 1203000   0.78130431   -6.9284401    327.00931  0.022652349  0.022583013           18 
 1204000   0.76953763   -6.9339225    326.27546  0.022582742  0.022564489           18 
 1205000   0.75756566   -6.9402025    326.60391  0.022586716  0.022545912            7 
 1206000   0.77270354   -6.9320667     326.9147  0.022589462   0.02252729           14 
 1207000    0.7589638   -6.9656898    326.12168  0.022515995  0.022508731           10 
 1208000    0.7894732   -6.9527707    326.92905  0.022553052  0.022490201           28 
 1209000    0.7686483   -6.9335692    327.21181  0.022553888  0.022471787           11 
 1210000   0.76783476   -6.9435461     327.6906  0.022568223  0.022453455           15 
 1211000   0.77904565   -6.9430295    326.68039  0.022480071  0.022435064           14 
 1212000   0.76863167   -6.9185441    325.87547  0.022406179  0.022416526           11 
 1213000   0.74965352    -6.966918    326.53745  0.022433185  0.022397973            6 
 1214000   0.76801457   -6.9461322    326.71346  0.022426789  0.022379463            8 
 1215000   0.79179266   -6.9351326    326.82138  0.022415732  0.022361021           11 
 1216000   0.75562166   -6.9382399    327.70325  0.022457734   0.02234263           15 
 1217000   0.77553816   -6.9488275    327.55135  0.022428879  0.022324296           20 
 1218000   0.77011562   -6.9682166    327.46296  0.022404417  0.022305879           12 
 1219000   0.75317982   -6.9857096    326.39906  0.022313307   0.02228763           23 
 1220000   0.78406474   -6.9598858    327.97019  0.022402335  0.022269275            6 
 1221000   0.76586628   -6.9938453    327.02112  0.022319214  0.022250917           13 
 1222000    0.7706741   -6.9472288     327.8167  0.022355203  0.022232607            7 
 1223000   0.77088794   -6.9769526    327.85554  0.022339571  0.022214414           15 
 1224000   0.74176159    -6.955758    328.00492  0.022331489  0.022196283           10 
 1225000   0.76994575   -6.9651747    327.76134   0.02229669  0.022178133           11 
 1226000   0.76857221   -6.9776575    327.69827  0.022274216  0.022159952           15 
 1227000   0.76933349   -6.9703905    328.10771  0.022283871  0.022141809           22 
 1228000   0.74774885   -6.9816653    328.59507  0.022298797  0.022123664           16 
 1229000   0.75445441   -6.9772639    328.61683  0.022282128  0.022105566            9 
 1230000   0.75467217   -7.0046616    328.05851  0.022226186  0.022087526           18 
 1231000   0.77585646   -7.0051326    328.11819  0.022212171  0.022069444           16 
 1232000     0.769796   -6.9980238    328.37386  0.022211435  0.022051363           17 
 1233000   0.76083759   -6.9977874     327.7229  0.022149425  0.022033292           30 
 1234000   0.76843381   -6.9662563    328.70493  0.022197794  0.022015273           11 
 1235000   0.76710495   -6.9786172    328.16936  0.022143681  0.021997204           37 
 1236000   0.76808981   -6.9913718    328.21471  0.022128823   0.02197906           28 
 1237000   0.74404668   -6.9823717    328.24162  0.022112747  0.021960992           21 
 1238000    0.7574301   -6.9835641    328.21152  0.022092859  0.021942816           12 
 1239000   0.77285342   -7.0105137    327.74229  0.022043469  0.021924631           13 
 1240000   0.74734538   -6.9812637    327.75037  0.022026234  0.021906445           12 
 1241000   0.75005656   -7.0116733     328.8377    0.0220815  0.021888292            9 
 1242000   0.74644485   -6.9710169    329.16488  0.022085674  0.021870202            7 
 1243000   0.77802227    -6.995228     328.1993  0.022003171  0.021852148           11 
 1244000   0.76043989   -6.9988279    328.19053  0.021984896   0.02183402           15 
 1245000   0.74899527   -6.9778896    328.78754  0.022007198  0.021815927           10 
 1246000   0.75413466    -6.987508    328.50496  0.021970637  0.021797819            9 
 1247000   0.75883073   -7.0204342    327.94503  0.021915599  0.021779837           16 
 1248000   0.76704899   -6.9907284    328.84098  0.021957864  0.021761784           16 
 1249000   0.76378687   -7.0296929    329.01627   0.02195198  0.021743862            9 
 1250000   0.74985113   -7.0311091    328.03462  0.021868974  0.021726002           17 
 1251000   0.75459983   -6.9915607    329.15416   0.02192607  0.021708158           19 
 1252000   0.76017152   -6.9947322    328.55106  0.021868415  0.021690365            9 
 1253000   0.77237499   -6.9977923    328.86127  0.021871593  0.021672481            8 
 1254000    0.7503834   -6.9914632    328.22768  0.021812047  0.021654598           11 
 1255000    0.7690408   -6.9738726    329.41292  0.021873368  0.021636776            7 
 1256000   0.74442174   -6.9798708    329.03025  0.021830563  0.021619043           12 
 1257000   0.76172434   -6.9815767    329.23496  0.021826767   0.02160141           10 
 1258000   0.76769835   -6.9834605     329.1762  0.021805525  0.021583711           14 
 1259000   0.74056387   -7.0156413    328.67297  0.021754896  0.021565993           16 
 1260000   0.75739039   -6.9839956    329.38938  0.021785012  0.021548216            5 
 1261000   0.75274875   -6.9689688    329.93196  0.021803593  0.021530611           10 
 1262000   0.75775818   -6.9893243    329.12438  0.021732989  0.021513063           10 
 1263000   0.74935034   -7.0012169     329.4951  0.021740241  0.021495522           14 
 1264000   0.75110722    -7.011842    329.36423  0.021714414   0.02147795            8 
 1265000   0.74591264   -6.9950866    329.90775  0.021733053  0.021460313           10 
 1266000   0.76190891   -7.0018498    329.68462  0.021701199  0.021442708           14 
 1267000   0.74256995   -7.0556865    328.77583  0.021624298  0.021425098           14 
 1268000   0.76099445   -7.0113784     330.2486  0.021704035  0.021407564           12 
 1269000   0.73843031   -7.0061495    329.53664  0.021640179  0.021390117           33 
 1270000   0.74927356   -7.0177372    330.41356   0.02168068  0.021372633           13 
 1271000   0.75143742   -7.0108141    330.52275  0.021670781  0.021355092           10 
 1272000   0.75638206   -7.0432415    329.67891  0.021598461  0.021337594            6 
 1273000   0.73065069   -7.0360193    329.25135  0.021553505  0.021320057           30 
 1274000   0.77942382   -7.0712416    329.02953  0.021522078  0.021302568           18 
 1275000   0.74458875   -7.0317614    329.64516  0.021545435  0.021285089           16 
 1276000   0.75537425   -7.0304514    329.30225  0.021506156  0.021267635           14 
 1277000   0.75418617   -7.0234161    329.83003  0.021523756  0.021250131           31 
 1278000   0.73895853   -7.0192708    330.98253  0.021582064   0.02123263            8 
 1279000   0.75293007   -7.0417701    330.30485  0.021521036  0.021215251           15 
 1280000   0.75004334   -7.0313372    329.86942  0.021475874   0.02119787            9 
 1281000   0.74180439   -7.0562187    330.35053  0.021490406  0.021180454            7 
 1282000   0.75376233   -7.0450418    329.26337  0.021402975  0.021163085            9 
 1283000   0.73156518   -7.0297177    330.44556  0.021463079  0.021145687           23 
 1284000   0.75265388   -7.0435756    329.70833  0.021398516  0.021128311           14 
 1285000   0.75209276   -7.0507654    330.34412  0.021423095  0.021110909           26 
 1286000   0.73926959    -7.036308    329.96002  0.021381546   0.02109351           12 
 1287000   0.72854957   -7.0161614     330.0274  0.021369295  0.021076109            8 
 1288000   0.73791642   -7.0361677    330.45595  0.021380432  0.021058848           15 
 1289000   0.73967179   -7.0508399    330.49279  0.021366227  0.021041557           19 
 1290000   0.74124746   -7.0370781    330.87442  0.021374316  0.021024241            8 
 1291000   0.73496171   -7.0169845    330.65367  0.021343511  0.021006987            8 
 1292000   0.74856808   -7.0417456     330.2475  0.021300793  0.020989717           20 
 1293000   0.74672246   -7.0424081    330.10586  0.021275191  0.020972439           23 
 1294000   0.74483257   -6.9991047    330.63766  0.021292997  0.020955223           17 
 1295000   0.74675532   -7.0248693     330.4597  0.021265103  0.020938043           19 
 1296000   0.72065518   -7.0583074     330.8142  0.021271489  0.020920801           10 
 1297000   0.75098431   -7.0720461    330.19805    0.0212155  0.020903513           12 
 1298000   0.72510602   -7.0686102    329.78164  0.021172422    0.0208862           18 
 1299000   0.74099758    -7.055651    330.53169   0.02120424  0.020868946           23 
 1300000   0.73227286   -7.0594584    330.41756  0.021180613  0.020851589           22 
 1301000   0.72868025   -7.0591127    330.18461  0.021149411  0.020834232           30 
 1302000   0.73943316   -7.0691605    330.15437  0.021131232  0.020816918           19 
 1303000   0.73750455   -7.0501335    330.07484  0.021109928  0.020799642           19 
 1304000   0.74254843   -7.0751517     329.7308  0.021071754  0.020782329           47 
 1305000   0.73484835   -7.0644653     329.8633  0.021064068  0.020764947           26 
 1306000   0.73483977   -7.0726388    329.52565  0.021026394  0.020747558           21 
 1307000   0.72689692   -7.0662226    329.73888  0.021023902  0.020730216           16 
 1308000   0.73405012   -7.0860379    330.07529  0.021029261  0.020712899           48 
 1309000    0.7207266   -7.0537219    330.51301  0.021041062  0.020695648           30 
 1310000   0.71861601   -7.0915139    330.12581   0.02100037  0.020678409           29 
 1311000   0.73401716    -7.072504    329.89416  0.020969626  0.020661157            7 
 1312000   0.72758949   -7.0550277    330.23743  0.020975447  0.020643994           15 
 1313000   0.74843406    -7.074251    330.42381    0.0209713  0.020626873           23 
 1314000   0.73684489   -7.0445239    331.37714  0.021015801  0.020609839           15 
 1315000   0.75017839   -7.0579359     330.6637  0.020954607  0.020592822           13 
 1316000   0.72616118   -7.0603745    331.18992  0.020972006  0.020575792           11 
 1317000   0.72771233   -7.0585606    330.54133  0.020915042  0.020558858           49 
 1318000   0.72292462   -7.0763616    330.61881  0.020904072  0.020541884           16 
 1319000    0.7203832   -7.0480739    330.66639   0.02089123  0.020524882           20 
 1320000   0.71946643   -7.0787205    330.47626    0.0208634  0.020507753           13 
 1321000   0.73997432    -7.069547    330.14952  0.020826994  0.020490753            9 
 1322000   0.71308324   -7.0806123    330.38264  0.020825935  0.020473742           22 
 1323000   0.73061387   -7.0903449    329.85616  0.020777032  0.020456684            5 
 1324000   0.72508748   -7.1263981    330.38384  0.020794552   0.02043964           15 
 1325000   0.72367189   -7.0877237    331.07455  0.020822299  0.020422699           15 
 1326000   0.70676789   -7.0952545    331.15927   0.02081192  0.020405763           19 
 1327000   0.72139164   -7.0872103    330.29782  0.020742139  0.020388879           17 
 1328000   0.73195985   -7.0802469     330.9206    0.0207656  0.020372033           26 
 1329000   0.73379917   -7.0759249    332.18849  0.020829477  0.020355257           12 
 1330000   0.72744639   -7.0721012    331.24053  0.020754419  0.020338543           61 
 1331000   0.73473098   -7.0449706    331.48606  0.020754199  0.020321823           58 
 1332000   0.71249987   -7.0524096    331.32515   0.02072855  0.020305107           21 
 1333000   0.70295827   -7.1024227    330.79756  0.020680018   0.02028837           35 
 1334000   0.73245191   -7.0777257    330.68242  0.020657323  0.020271542           37 
 1335000    0.7452557   -7.0691436    330.99095  0.020661108  0.020254769           42 
 1336000   0.73558164   -7.1021988     330.7618   0.02063135  0.020237912           32 
 1337000   0.72091275    -7.087189    331.38032   0.02065447  0.020221063           14 
 1338000   0.70543324   -7.0808315    331.45435  0.020643644  0.020204215           14 
 1339000   0.72919406   -7.0899396    331.16947  0.020610497  0.020187427           28 
 1340000    0.7304649   -7.0961365    331.22181  0.020598371  0.020170677           11 
 1341000   0.71395911   -7.0785291    331.53996  0.020602782  0.020153918            9 
 1342000   0.71153808   -7.0741673    331.15955  0.020563807  0.020137189           12 
 1343000   0.71941131   -7.0635334    331.52566  0.020571213  0.020120497           11 
 1344000   0.72771684   -7.0509933    331.10602  0.020529887  0.020103857           15 
 1345000   0.72678543    -7.089577    330.76534  0.020493516  0.020087124           14 
 1346000   0.73030737   -7.1017898    330.73615  0.020476483  0.020070288           22 
 1347000   0.70994263   -7.1073621    331.29716  0.020495989  0.020053531           12 
 1348000   0.71307079   -7.0907315    331.37515  0.020485605  0.020036811           14 
 1349000   0.72089898   -7.0926341    331.48685  0.020477319  0.020020101           28 
 1350000   0.69998314   -7.1074018    330.14142    0.0203791  0.020003317           14 
 1351000   0.69277375   -7.0838114    330.30597  0.020374165  0.019986496           11 
 1352000   0.70869256   -7.0942086    330.93083   0.02039761  0.019969701           17 
 1353000   0.72127813   -7.1179789    330.02385  0.020326673  0.019952821           21 
 1354000   0.70314526   -7.1242968    330.12559  0.020317922  0.019935952           17 
 1355000    0.7211846   -7.1298858    330.47617  0.020324487  0.019919031           32 
 1356000   0.71220283   -7.1506167    329.34431   0.02023994  0.019902132           53 
 1357000   0.71285458   -7.1339005    329.59777   0.02024059   0.01988519           21 
 1358000   0.69564789   -7.1078023    330.64134  0.020289724   0.01986833           22 
 1359000    0.7059718   -7.1004965    331.55463  0.020330797  0.019851498           28 
 1360000   0.69965103    -7.123999    330.39622  0.020244866  0.019834716           23 
 1361000   0.69339455   -7.0970385    330.68381    0.0202476  0.019817983           17 
 1362000    0.7155596   -7.1080749    330.78499  0.020238925  0.019801252           21 
 1363000    0.7099316   -7.1012032    330.88794  0.020230371  0.019784473           40 
 1364000   0.71625139   -7.1373597    330.23087  0.020175395  0.019767664           34 
 1365000   0.70763212   -7.1086068     330.4468  0.020173797  0.019750923           22 
 1366000   0.68683633   -7.1046839    330.91981  0.020187885  0.019734231           14 
 1367000   0.69437537   -7.1212667     330.1596  0.020126774  0.019717467           17 
 1368000   0.69924173   -7.1183746    329.88706  0.020095459  0.019700714           14 
 1369000   0.71693877   -7.1152109    330.02575  0.020089223  0.019684036            8 
 1370000   0.71116107   -7.0929917    330.17332  0.020083535  0.019667326           17 
 1371000   0.70267501   -7.1293606    330.55529  0.020092104  0.019650654           29 
 1372000   0.72607959   -7.1376496     330.4751  0.020072589  0.019633891            8 
 1373000   0.69098045   -7.1401181     330.5015  0.020059571  0.019617156           14 
 1374000   0.71845241   -7.1327348    329.86361  0.020006284  0.019600441           11 
 1375000   0.69332616   -7.1300163     330.1764  0.020010691  0.019583719           14 
 1376000   0.69151695   -7.1575693    330.38166  0.020008579  0.019566999            8 
 1377000   0.70962897   -7.1159983     330.3405  0.019991558  0.019550393           16 
 1378000    0.7019439   -7.1153537    331.11391  0.020023821  0.019533875           23 
 1379000   0.70257928   -7.1297334    331.22801  0.020016196  0.019517415           15 
 1380000    0.7118274   -7.1206428    330.93817  0.019984189  0.019500882           14 
 1381000   0.68767763   -7.1379869    330.86136  0.019965083  0.019484385           17 
 1382000     0.689218   -7.1517631     330.5136  0.019929667  0.019467829           25 
 1383000     0.706672   -7.1480488    330.52269  0.019915805  0.019451302           19 
 1384000   0.69287526   -7.1719878     329.7319  0.019853799  0.019434724           30 
 1385000   0.70345647   -7.1764086     330.4898  0.019885066  0.019418245           13 
 1386000   0.69570358   -7.1631167    330.22621  0.019854871  0.019401805            9 
 1387000   0.70726528   -7.1288742    331.87445  0.019939585  0.019385432           19 
 1388000   0.70554773   -7.1421924    331.46857  0.019900851  0.019369014           18 
 1389000   0.69647409   -7.1266046    330.89781   0.01985228  0.019352629           19 
 1390000   0.70080827   -7.1535634    331.02288  0.019845496  0.019336292           11 
 1391000    0.6912611   -7.1346974     331.2535  0.019845046  0.019319919           23 
 1392000    0.6980264   -7.1237163    330.99965  0.019815592   0.01930353           26 
 1393000   0.68284107   -7.1276398     331.1758  0.019811905  0.019287164           34 
 1394000   0.69587616   -7.1559338    331.03107   0.01978904  0.019270825           35 
 1395000   0.68339475   -7.1289163    330.79624  0.019760827   0.01925448           24 
 1396000   0.70164162   -7.1540765    330.97981  0.019757629  0.019238104           31 
 1397000   0.70069712   -7.1574637    330.83448  0.019734818  0.019221828           47 
 1398000   0.69443528   -7.1450453    331.75317  0.019775463  0.019205539           25 
 1399000    0.6899349   -7.1618459    330.64752  0.019695468  0.019189205           22 
 1400000    0.6818072   -7.1583876    331.15998  0.019711903   0.01917285           36 
 1401000   0.68170702   -7.1653106    330.64173  0.019667008  0.019156517           47 
 1402000   0.68429501   -7.1484879    330.58406  0.019649552  0.019140273           29 
 1403000   0.69005809   -7.1756245    330.53272  0.019632497  0.019124009           35 
 1404000   0.70168422    -7.148998    331.37029  0.019668227   0.01910779           31 
 1405000     0.696115   -7.1894385    330.36987  0.019594891  0.019091582           36 
 1406000    0.6812387   -7.1549746     330.7698  0.019604659  0.019075319           48 
 1407000    0.6858273   -7.1514172    331.49857  0.019633888  0.019059074           26 
 1408000   0.68883922   -7.1798246    330.44515  0.019557596  0.019042829           51 
 1409000   0.68373419   -7.2157511     329.8903    0.0195109  0.019026562           29 
 1410000   0.69870792   -7.1698354    330.54188  0.019535572  0.019010323           37 
 1411000   0.68678081    -7.193437    330.14879  0.019498511  0.018994002           51 
 1412000    0.6949373   -7.1749372    330.72101  0.019518473  0.018977721           50 
 1413000     0.681563    -7.220508    330.27262  0.019478216  0.018961454           32 
 1414000   0.69236414   -7.1986438    330.70388  0.019489856  0.018945231           35 
 1415000   0.70068583   -7.1610747     331.3107   0.01951182  0.018929022           43 
 1416000   0.69989343    -7.165624     330.3739  0.019442908  0.018912839           32 
 1417000   0.69317527   -7.1604104    330.75159  0.019451399  0.018896713           25 
 1418000   0.69518742   -7.1949499    330.86977  0.019444627  0.018880525           31 
 1419000   0.67654854   -7.1903718     329.5193  0.019351615  0.018864331           37 
 1420000   0.67652147   -7.2260851    330.22223  0.019379239  0.018848098           41 
 1421000   0.68885103   -7.1902322    329.99865  0.019352489  0.018831926           49 
 1422000   0.67059183   -7.1932172    330.40911  0.019362934  0.018815748           20 
 1423000   0.67457378   -7.1747868    330.54096  0.019357048  0.018799581           47 
 1424000    0.6937264   -7.1962747     330.7218  0.019354038   0.01878349           17 
 1425000    0.6799789   -7.1937414    330.25334  0.019313061  0.018767361           62 
 1426000   0.68888513   -7.1850028    330.88669  0.019336529  0.018751256           39 
 1427000   0.67751721   -7.2005102    330.75971  0.019315564  0.018735211           38 
 1428000   0.69754595   -7.2017605    330.77442  0.019302896  0.018719206           74 
 1429000   0.67081597    -7.222799    329.95007  0.019241315  0.018703151           26 
 1430000   0.67146537   -7.2238497     330.3287  0.019249924  0.018687038           27 
 1431000   0.68364559   -7.2033695    330.03374  0.019219295  0.018670949           30 
 1432000   0.67071249   -7.2193133    330.71638  0.019245599  0.018654863           22 
 1433000   0.66759574   -7.2264349    329.72603  0.019174577  0.018638739           27 
 1434000   0.67893754   -7.2073701    330.09902  0.019182881  0.018622613           23 
 1435000   0.69170392   -7.2284318    330.27526  0.019179748  0.018606507           35 
 1436000   0.68109242   -7.2350064     329.4583  0.019118982  0.018590361           28 
 1437000   0.66685637   -7.2396062     329.7787  0.019124258  0.018574226           93 
 1438000   0.68043148   -7.2260778    329.82771  0.019113798  0.018558135           29 
 1439000   0.66199405   -7.2287432    330.16016  0.019119769  0.018541987           58 
 1440000   0.68861722   -7.2252277    329.80854  0.019086142  0.018525891          113 
 1441000   0.69960638   -7.2224101    329.22932  0.019039401  0.018509843           33 
 1442000   0.67724656   -7.2139792     330.0629   0.01907437  0.018493812           59 
 1443000   0.68296601   -7.2210447    330.10667  0.019063679  0.018477786           25 
 1444000   0.68811577   -7.2329978    329.34679  0.019006625  0.018461755           67 
 1445000   0.67379614   -7.2418267    329.26147  0.018988551  0.018445732          142 
 1446000   0.67772298   -7.2381024    329.66879  0.018998893  0.018429654          103 
 1447000    0.6736128   -7.2527748     329.6259  0.018983293   0.01841362           53 
 1448000   0.67258881   -7.2675052    329.04598  0.018936808  0.018397578           67 
 1449000    0.6765074   -7.2339613    329.49085  0.018949324  0.018381587          111 
 1450000   0.68134561   -7.2411774    329.91251  0.018960489  0.018365626           34 
 1451000   0.69167091   -7.2519714    329.53201  0.018925569  0.018349678           45 
 1452000   0.67153695   -7.2497711    329.55241  0.018913706  0.018333704           36 
 1453000   0.67844185   -7.2844056    328.77743  0.018856241  0.018317746           27 
 1454000   0.68016784   -7.2537124    329.48753  0.018883971  0.018301776           72 
 1455000   0.67580125   -7.2389543    329.36052  0.018863718  0.018285836           59 
 1456000   0.67355305   -7.2420379    330.18861  0.018898158  0.018269993           56 
 1457000   0.66033244   -7.2719023    329.67323   0.01885571  0.018254119           54 
 1458000    0.6733967   -7.2346612    329.62807  0.018840196   0.01823828           33 
 1459000   0.66629771   -7.2542756    329.93502  0.018844815  0.018222454           30 
 1460000    0.6814107   -7.2600166    329.99572  0.018835372  0.018206611           39 
 1461000   0.66536603   -7.2541072    329.38069  0.018787399  0.018190781           42 
 1462000   0.67363708   -7.2595767    329.85909  0.018801818  0.018174971           11 
 1463000   0.66163905   -7.2423038    329.88696  0.018790554  0.018159205           13 
 1464000    0.6678384   -7.2306831    329.66124   0.01876487  0.018143447           16 
 1465000   0.67280916    -7.255533    329.81341  0.018760717  0.018127701           13 
 1466000   0.67145902   -7.2530675    329.87515   0.01875143  0.018111943           18 
 1467000   0.66646507   -7.2595774    329.75636  0.018731899  0.018096202           22 
 1468000   0.67432589   -7.2731556    329.61293  0.018710997  0.018080433           25 
 1469000    0.6601027   -7.2468568    329.33134  0.018682286   0.01806468           42 
 1470000   0.69474925    -7.217356    330.51096  0.018736449  0.018049005           30 
 1471000    0.6683938   -7.2522664    329.44699  0.018663437  0.018033316           39 
 1472000   0.67219172    -7.240224    330.43587  0.018706741  0.018017625           16 
 1473000   0.65583211   -7.2587683    329.75251  0.018655381  0.018001954           38 
 1474000   0.66878208    -7.251484    329.63204  0.018635913  0.017986248           35 
 1475000   0.66151985   -7.2782083    329.38353  0.018609239  0.017970621           40 
 1476000      0.65729   -7.2604996    330.20071  0.018642768  0.017954951           82 
 1477000   0.66798661   -7.2728094    329.28213  0.018578319  0.017939306           70 
 1478000   0.67883982   -7.2446235    329.79061  0.018594418    0.0179237           71 
 1479000   0.66857635   -7.2766758    329.07349  0.018541441  0.017908075           29 
 1480000   0.65948326   -7.2532232    329.19469  0.018535737  0.017892448           58 
 1481000   0.65788456    -7.258137    329.11784  0.018518897   0.01787681           40 
 1482000   0.65366684   -7.2784571    328.65253  0.018480237  0.017861165           55 
 1483000   0.66719066   -7.2930197    328.98698  0.018486569  0.017845501           46 
 1484000   0.65912328   -7.2924409    329.68068  0.018513066  0.017829874           53 
 1485000   0.65415948   -7.2931014    328.94821  0.018459496  0.017814261           53 
 1486000   0.65813898   -7.2782403    329.14607  0.018458169  0.017798667           30 
 1487000    0.6602573   -7.2694971     329.4225  0.018461248  0.017783085           36 
 1488000   0.66166517   -7.2743723    328.81451  0.018414791  0.017767541           44 
 1489000   0.66682058   -7.2851834    329.21614  0.018424902  0.017752006           39 
 1490000   0.66398874   -7.2938609    329.70998  0.018440156  0.017736457           82 
 1491000   0.66397231   -7.2833123    329.47502  0.018414656  0.017720933           77 
 1492000   0.66107256   -7.2536534    329.69771  0.018414752  0.017705518           85 
 1493000   0.67354299   -7.2718207     329.9121  0.018414384  0.017690096           80 
 1494000    0.6672161   -7.2953062      329.118  0.018357765  0.017674693           42 
 1495000   0.65838395   -7.3031988    329.17388    0.0183486  0.017659252           53 
 1496000   0.65310447   -7.2792366    329.34471  0.018345851  0.017643799           51 
 1497000   0.65060321   -7.2870239    328.41549  0.018281869  0.017628369           38 
 1498000   0.66459754   -7.3007988    329.75025  0.018343917  0.017612914           65 
 1499000   0.66688457   -7.2971005    329.44026  0.018314446  0.017597471           82 
 1500000   0.64667642   -7.3165773    329.23963  0.018291091  0.017582069           41 
 1501000    0.6499068   -7.3051873    329.02361  0.018266912  0.017566661           68 
 1502000   0.67185931   -7.3287559    328.48205  0.018224703  0.017551273           44 
 1503000   0.64073738   -7.3276339    329.88076  0.018290128  0.017535878           88 
 1504000   0.64924514   -7.2869392    329.00486  0.018229436  0.017520536           39 
 1505000   0.64468401   -7.3078754     329.7866  0.018260609  0.017505235           40 
 1506000   0.65323506   -7.2960918    328.85467  0.018196916  0.017489975          143 
 1507000   0.65945423   -7.2986765    329.16579  0.018202045  0.017474711           48 
 1508000   0.64792872   -7.2897101    329.21986  0.018192963  0.017459461           97 
 1509000   0.65404958   -7.2958653    329.67029  0.018205781  0.017444202           53 
 1510000   0.65311508   -7.3023935    329.20309  0.018167941  0.017428981           97 
 1511000   0.67384502   -7.2671601     329.4479  0.018169419  0.017413796           29 
 1512000   0.64175622   -7.3207585    329.05991  0.018136018  0.017398614           28 
 1513000   0.64212293    -7.305375    329.05946  0.018124006  0.017383407           42 
 1514000   0.65870619   -7.2807511    328.56391  0.018084759   0.01736824           27 
 1515000   0.65392622   -7.2561023    329.49899  0.018124257  0.017353107           38 
 1516000    0.6561112   -7.2948478    328.95261  0.018082268  0.017338025           28 
 1517000   0.63384118    -7.298855    329.78227  0.018115923   0.01732293           57 
 1518000   0.63815885   -7.2984783    329.42564  0.018084412  0.017307831           45 
 1519000   0.64232438   -7.3164176    329.03447  0.018051046  0.017292713           26 
 1520000   0.64199686   -7.3136756    329.08548  0.018041967  0.017277576           62 
 1521000   0.64743612   -7.2751277    328.98239  0.018024457  0.017262446           17 
 1522000   0.63302295   -7.3073033    328.80469  0.018002885  0.017247307           47 
 1523000    0.6517035     -7.32485    328.60463  0.017980118  0.017232165           64 
 1524000   0.64145938   -7.3285901    328.78145  0.017977988   0.01721701          104 
 1525000   0.63927874   -7.3168126    329.11114  0.017984215  0.017201908           49 
 1526000   0.64784894   -7.3223475    328.91099    0.0179615  0.017186811           80 
 1527000    0.6438516   -7.3203161    328.67538   0.01793688  0.017171696           58 
 1528000   0.64169425   -7.3056709    328.24702  0.017901779  0.017156602           49 
 1529000   0.63530602   -7.3258269    328.71445  0.017915546  0.017141485           84 
 1530000   0.64491484   -7.3176416    328.83059  0.017910163  0.017126417           74 
 1531000     0.647529   -7.3097257    328.66924  0.017889682  0.017111381           62 
 1532000   0.64313696   -7.3353259    328.85927  0.017888341   0.01709635           76 
 1533000   0.63731572   -7.3304286    328.78197  0.017872471  0.017081313           64 
 1534000   0.64413939   -7.3155509    328.65507  0.017853926  0.017066269           77 
 1535000   0.65087651   -7.3393957    328.64367  0.017841676  0.017051243          150 
 1536000   0.64272591   -7.3227886    328.37098  0.017815266  0.017036203          110 
 1537000   0.63553627   -7.3576674     327.9595  0.017781365  0.017021161          111 
 1538000    0.6339327   -7.3439029    328.32989  0.017789873  0.017006113           75 
 1539000   0.63664247    -7.350207    328.29443  0.017776393  0.016991124          183 
 1540000   0.65069881   -7.3477845    328.17356  0.017758309  0.016976103           54 
 1541000   0.64701202   -7.3452315    328.34375  0.017755989  0.016961113           33 
 1542000   0.62612398   -7.3068039    329.18919  0.017790164  0.016946154           86 
 1543000   0.62365363   -7.3366967    327.62985  0.017694418  0.016931201          114 
 1544000   0.63906452   -7.3530086    328.05976  0.017706162  0.016916257           29 
 1545000   0.63251976   -7.3670615    327.60201  0.017670011  0.016901319           94 
 1546000   0.62767843   -7.3357488    328.56776  0.017710638  0.016886394           59 
 1547000   0.62495555   -7.3626187    328.18674  0.017678665  0.016871473           66 
 1548000   0.62906069   -7.3431705    328.99995  0.017711022  0.016856624           84 
 1549000   0.63496582   -7.3555184    328.11887  0.017652188  0.016841774          124 
 1550000   0.64565276   -7.3467338    328.32501  0.017651882  0.016826991          123 
 1551000   0.64862436   -7.3581789    328.66097  0.017658552  0.016812181          152 
 1552000   0.64410611   -7.3110999    328.31133    0.0176284  0.016797371          186 
 1553000   0.62595635   -7.3688283    328.00152  0.017600425  0.016782574          145 
 1554000   0.61980178   -7.3413224    329.06109  0.017645919   0.01676777          127 
 1555000   0.62209853   -7.3477522    327.86004  0.017570206  0.016752973          188 
 1556000   0.62907588   -7.3544056    327.97697  0.017565176  0.016738179          135 
 1557000   0.63579274   -7.3374249    328.14169  0.017562711  0.016723409          259 
 1558000   0.64163827     -7.35685     327.8589  0.017536313  0.016708651          239 
 1559000   0.63196762   -7.3413172    327.94607  0.017529724  0.016693902          178 
 1560000   0.64610493   -7.3587933    328.29618  0.017537189  0.016679174          231 
 1561000   0.63117028   -7.3547007     328.1908  0.017520329  0.016664445          182 
 1562000   0.63951431   -7.3608135    328.15549  0.017507229  0.016649745          263 
 1563000   0.63300601   -7.3622123    327.97054  0.017486167  0.016635043          167 
 1564000   0.62391554   -7.3797993    328.28637  0.017491814  0.016620345          226 
 1565000   0.63245028   -7.3840558     327.8307  0.017456374  0.016605632          241 
 1566000   0.64251957   -7.3688284    328.01349  0.017454954  0.016590955          298 
 1567000   0.63378411   -7.3537663    328.21177  0.017454359  0.016576285          184 
 1568000   0.62640426   -7.3593847    328.15106  0.017440001  0.016561583          241 
 1569000   0.62512206   -7.3728445     327.1724  0.017376907  0.016546952          238 
 1570000   0.63113078   -7.3705684    328.05962  0.017412931  0.016532348          244 
 1571000   0.62145297   -7.3690891    328.03888  0.017400747  0.016517791          197 
 1572000   0.62185896   -7.3656392    327.83703  0.017378978  0.016503288          232 
 1573000   0.63633336    -7.373429    328.44746  0.017400268  0.016488747          263 
 1574000   0.62002851   -7.3565564    328.40833  0.017387141  0.016474221          300 
 1575000    0.6360023   -7.3622859    327.55615  0.017331013  0.016459678          225 
 1576000   0.63017553   -7.3835733    327.96597  0.017341686  0.016445149          129 
 1577000   0.63788442   -7.3586913     328.1456  0.017340182  0.016430664          154 
 1578000   0.61999517   -7.3531728    329.10079  0.017379636  0.016416219          194 
 1579000   0.62917181   -7.3662357    327.99756  0.017310405   0.01640175          292 
 1580000   0.61623036   -7.3527227    327.73556  0.017285631  0.016387275          177 
 1581000   0.62526919   -7.3834688    327.75302  0.017275618  0.016372831          222 
 1582000   0.62270851   -7.3966683    328.24731  0.017290735  0.016358385          156 
 1583000   0.62493367     -7.39382    328.16975  0.017275729  0.016343973          282 
 1584000   0.61731757   -7.4030821    327.67609  0.017238852  0.016329562          297 
 1585000   0.61739133   -7.3781457    327.74898  0.017231808  0.016315147          262 
 1586000   0.61941282   -7.3715123    328.18087  0.017243635  0.016300754          356 
 1587000   0.61360048    -7.395572    327.89228  0.017217616  0.016286375          362 
 1588000    0.6081754   -7.3745814    327.73423   0.01719848  0.016271996          343 
 1589000   0.60028101   -7.3909304    327.59332  0.017180266  0.016257617          401 
 1590000   0.61287261   -7.3989015     327.8241  0.017181557  0.016243252          408 
 1591000   0.62460307    -7.378019    327.53526  0.017155628  0.016228941          292 
 1592000   0.61728874   -7.3981664    327.39957   0.01713775  0.016214603          262 
 1593000   0.60104201   -7.4040457    327.44094  0.017129156  0.016200235          332 
 1594000   0.62620729   -7.4050283    327.18171  0.017104857   0.01618588          294 
 1595000   0.60825857   -7.4234014    326.86169  0.017077413  0.016171521          279 
 1596000   0.62437073   -7.4173558    326.97432  0.017072594  0.016157219          432 
 1597000   0.61449389    -7.431624     326.7006  0.017047621  0.016142905          372 
 1598000   0.60617663   -7.4220828    327.05966  0.017055677   0.01612861          440 
 1599000   0.61589684   -7.4084842    327.44063  0.017064865  0.016114338          342 
 1600000   0.62586357   -7.3955096    327.67464  0.017066387  0.016100099          380 
 1601000   0.61337558   -7.4283231    327.42332  0.017042646  0.016085887          442 
 1602000   0.60697023   -7.4207299    327.18897  0.017019818  0.016071638          350 
 1603000   0.60228306   -7.4312721    327.51654  0.017026229  0.016057421          288 
 1604000   0.61422072   -7.4300477    327.11848  0.016994933  0.016043213          361 
 1605000   0.60697225   -7.4150706    326.93994  0.016975075  0.016029025          370 
 1606000   0.61153455   -7.4235454    327.88194  0.017013384  0.016014849          400 
 1607000    0.6219206   -7.4074071     327.9257  0.017005067  0.016000728          316 
 1608000   0.60762496   -7.4133996    327.62055  0.016978677    0.0159866          381 
 1609000    0.6180229   -7.4228325    327.66948  0.016970659  0.015972487          318 
 1610000   0.61723144   -7.4099829    327.92797  0.016973498  0.015958395          269 
 1611000   0.62179443   -7.4248354    326.88966  0.016909252  0.015944327          308 
 1612000   0.62660211   -7.4347324    326.47664  0.016877411  0.015930243          341 
 1613000   0.60254708   -7.4318119    327.81323     0.016936  0.015916206          263 
 1614000   0.59784152   -7.4393748    327.28933  0.016898458  0.015902146          317 
 1615000   0.58970083   -7.4133236    327.49899  0.016898813  0.015888102          255 
 1616000   0.59397144   -7.4171144    326.83715  0.016854226  0.015874074          331 
 1617000   0.60809616   -7.4078741    327.66858  0.016886651  0.015860077          291 
 1618000   0.61362707   -7.4251242    327.29861  0.016857159  0.015846106          377 
 1619000   0.62224126   -7.4002888    327.44582  0.016854325  0.015832118          322 
 1620000   0.60018128   -7.4156681    326.85131  0.016813339  0.015818163          500 
 1621000   0.60252019     -7.41339    327.63543  0.016843278  0.015804224          444 
 1622000   0.59908751   -7.4313501    327.12831  0.016806839  0.015790301          490 
 1623000    0.6113533   -7.4141099    327.81666  0.016831827  0.015776374          523 
 1624000   0.58488178   -7.4314616    327.20506  0.016790079  0.015762447          387 
 1625000   0.61186384   -7.4411362    326.71654  0.016754695  0.015748528          283 
 1626000   0.62350299   -7.4358174    327.25501  0.016771987  0.015734624          445 
 1627000   0.59932617   -7.4551538    326.52535  0.016724306  0.015720709          325 
 1628000   0.59583646   -7.4339767    327.34454  0.016755966  0.015706787          311 
 1629000   0.59654234   -7.4478134    326.99136  0.016727612  0.015692916          441 
 1630000   0.59015747    -7.467544    326.98832  0.016717194   0.01567902          354 
 1631000   0.61128972   -7.4362385    326.69652  0.016692035  0.015665128          524 
 1632000   0.59929254    -7.443779    327.04897  0.016699804  0.015651273          436 
 1633000   0.60747045   -7.4330088    327.59179  0.016717278  0.015637418          309 
 1634000   0.59725024    -7.462244    326.35394  0.016643918  0.015623558          353 
 1635000   0.60285448   -7.4549591    327.17072  0.016675368  0.015609736          267 
 1636000   0.59523378   -7.4523816    326.95773  0.016654326  0.015595923          364 
 1637000    0.6060919    -7.453432    326.75208  0.016633683  0.015582115          360 
 1638000   0.60637095   -7.4710539    327.42594  0.016657811  0.015568333          476 
 1639000   0.60367856   -7.4502324     327.1647  0.016634365  0.015554594          473 
 1640000   0.59111628   -7.4478038    326.59096  0.016595069  0.015540878          287 
 1641000   0.61689628   -7.4403393    326.85097   0.01659816  0.015527166          428 
 1642000   0.59729963   -7.4538778    326.49488   0.01656998  0.015513472          372 
 1643000   0.59200765    -7.467898    326.92897  0.016581912  0.015499784          378 
 1644000   0.59378028   -7.4811124     326.6552  0.016557948  0.015486104          329 
 1645000   0.59619695   -7.4595432    327.19557  0.016575257  0.015472421          327 
 1646000   0.59228609   -7.4568211    327.08662  0.016559671  0.015458784          346 
 1647000   0.60335531   -7.4527716    327.01736  0.016546112  0.015445159          317 
 1648000   0.60557983   -7.4721446    326.77395  0.016523764   0.01543156          400 
 1649000    0.5976825   -7.4564131    327.23645  0.016537116   0.01541798          399 
 1650000   0.59524291   -7.4606232    326.96577  0.016513423  0.015404384          414 
 1651000   0.58698203   -7.4579697    326.76193  0.016493132  0.015390799          463 
 1652000    0.5924502   -7.4553412    326.39248  0.016464512  0.015377239          392 
 1653000   0.59582063   -7.4702683    326.63689  0.016466873  0.015363659          446 
 1654000   0.59294428   -7.4569125    326.63984  0.016457066  0.015350128          492 
 1655000   0.59433883   -7.4438711     327.2377  0.016477225  0.015336591          389 
 1656000   0.58660315   -7.4866847    326.50414  0.016430361  0.015323061          320 
 1657000   0.58996577   -7.4781063    326.38832  0.016414621  0.015309542          479 
 1658000   0.58324516    -7.455955    327.15459  0.016443234  0.015296051          349 
 1659000   0.60078556   -7.4807445    326.46989   0.01639893  0.015282598          506 
 1660000   0.58954866   -7.4669644    326.90199  0.016410743   0.01526913          513 
 1661000   0.59748047   -7.4677211    326.90493   0.01640101  0.015255678          525 
 1662000   0.60227005    -7.495261    326.62736  0.016377224  0.015242245          412 
 1663000    0.5936803   -7.4637737    326.57123  0.016364564  0.015228808          371 
 1664000    0.5966078   -7.4707515    326.79735  0.016366053  0.015215396          463 
 1665000   0.59063484   -7.4840852    326.32868  0.016332767  0.015201975          604 
 1666000   0.59218829   -7.4840731    326.88534  0.016350807   0.01518858          643 
 1667000    0.5851329   -7.4964582    326.79141  0.016336303  0.015175189          599 
 1668000   0.59289505   -7.4751109    326.03672  0.016288805  0.015161832          481 
 1669000   0.60215708   -7.4966262    325.65652  0.016260062  0.015148492          587 
 1670000   0.57968012   -7.4775204    326.81559  0.016308163  0.015135175          550 
 1671000   0.58381436   -7.4951955    326.39148  0.016277253  0.015121866          600 
 1672000   0.59567723   -7.4799683     326.6785  0.016281823  0.015108555          541 
 1673000   0.57578609   -7.4785775    326.52221  0.016264306  0.015095292          400 
 1674000   0.58915806   -7.4884301    326.83928  0.016270374   0.01508201          545 
 1675000   0.57904565   -7.4788437    326.83388  0.016260392  0.015068756          430 
 1676000   0.58393978   -7.4898643    326.17178  0.016217769   0.01505553          632 
 1677000   0.57816427   -7.4699164    327.24624  0.016261491  0.015042326          511 
 1678000   0.58108315   -7.4795452    327.43641  0.016261244  0.015029166          545 
 1679000    0.5767513   -7.4896512    327.03257  0.016231515  0.015015994          476 
 1680000   0.58632335   -7.4921238    326.77704  0.016209178  0.015002841          532 
 1681000   0.57317381   -7.4734488    326.69693  0.016195565  0.014989682          535 
 1682000   0.57882203   -7.4925509    326.59339  0.016180806  0.014976555          422 
 1683000   0.57551054   -7.4791404    327.02217  0.016192423  0.014963422          489 
 1684000   0.56717826   -7.5059144    326.53432  0.016158666  0.014950278          673 
 1685000   0.58372465   -7.4787297    326.92083  0.016168192  0.014937166          573 
 1686000   0.59640059   -7.4829476    327.84562  0.016204311  0.014924061          586 
 1687000   0.57784945   -7.5218936    326.03256  0.016105145  0.014910995          527 
 1688000   0.56581641   -7.5162565    326.46655  0.016117029  0.014897895          588 
 1689000   0.57173549   -7.5090687    325.95851  0.016082421  0.014884797          617 
 1690000   0.56538512   -7.5193613    326.05013  0.016077423  0.014871716          600 
 1691000   0.56006684    -7.480281    326.49756  0.016089964   0.01485863          548 
 1692000     0.571314   -7.4861544    326.51286  0.016081209  0.014845605          488 
 1693000   0.57914738   -7.5034068     326.5983  0.016075916  0.014832602          679 
 1694000   0.58392047   -7.5197831    325.97402  0.016035715  0.014819584          564 
 1695000   0.58021982   -7.5035509     326.4041  0.016047399  0.014806576          656 
 1696000    0.5719092   -7.5249364    325.96836  0.016016527  0.014793609          726 
 1697000   0.58473696   -7.5182604    326.71261  0.016043636  0.014780619          722 
 1698000   0.58526588   -7.5386839    326.22277  0.016010148  0.014767631          677 
 1699000   0.56660489   -7.4986045    326.47574  0.016013132  0.014754659          610 
 1700000   0.58373446   -7.5043479    326.68426  0.016013934  0.014741708          698 
 1701000   0.57614043   -7.5316512    325.82835  0.015962588  0.014728777          582 
 1702000   0.57607233   -7.5084907    326.44501  0.015983402   0.01471584          587 
 1703000   0.56112502   -7.4776178     326.1706  0.015960589   0.01470292          528 
 1704000    0.5593952   -7.5130478    326.23084  0.015954169  0.014690011          564 
 1705000   0.57645557   -7.5036098    326.05021  0.015935983  0.014677136          713 
 1706000   0.58298076   -7.5013454    325.75311  0.015912129  0.014664252          632 
 1707000   0.58738411   -7.5169438    326.75394  0.015951667  0.014651395          674 
 1708000   0.57605158   -7.5359992    326.27554  0.015918986   0.01463855          631 
 1709000   0.57495236   -7.5254773    325.70946  0.015882068  0.014625715          661 
 1710000   0.56833859    -7.519326    326.05675  0.015889705  0.014612878          699 
 1711000    0.5795628   -7.5316849    325.40668  0.015848757  0.014600067          416 
 1712000   0.57119168   -7.5342071    325.29973  0.015834294  0.014587243          609 
 1713000   0.57769789   -7.5382939    325.77905  0.015848368  0.014574449          710 
 1714000   0.57604542   -7.5255118    326.40863  0.015869731  0.014561673          658 
 1715000   0.56147172   -7.5356044    325.81904  0.015831829  0.014548903          530 
 1716000   0.58662368   -7.5238088    326.19996  0.015841101  0.014536167          598 
 1717000   0.56750784   -7.5225394    326.28369  0.015835939  0.014523466          472 
 1718000    0.5852243   -7.5388842    325.49465  0.015788448  0.014510747          593 
 1719000   0.55277804   -7.5327147    325.59478  0.015784118  0.014498041          703 
 1720000   0.55701513   -7.5109639    326.19135  0.015803844  0.014485345          559 
 1721000   0.55607787   -7.5194858    326.54385   0.01581173  0.014472667          658 
 1722000   0.56550078   -7.5250659    325.52576  0.015753279  0.014460006          630 
 1723000   0.58048191   -7.5165738    326.29763  0.015781468  0.014447352          535 
 1724000   0.57545284   -7.5336294    325.92642  0.015754371  0.014434723          677 
 1725000   0.56518893   -7.5275206    325.60585  0.015729751  0.014422073          723 
 1726000   0.56528213   -7.5097827    326.17877  0.015748299  0.014409466          667 
 1727000   0.55753919   -7.5352984    326.13424  0.015737032  0.014396851          580 
 1728000   0.56992074   -7.5233753    326.31646  0.015736712   0.01438426          518 
 1729000   0.55822507   -7.5293694    325.65456  0.015695709  0.014371676          640 
 1730000   0.56574174   -7.5461133    326.01981   0.01570423  0.014359091          679 
 1731000   0.57036185   -7.5514377    325.75688  0.015682499  0.014346521          661 
 1732000   0.56009046   -7.5517706    325.83741   0.01567732  0.014333988          667 
 1733000   0.55709706   -7.5462799      325.778  0.015665416  0.014321445          438 
 1734000   0.54532318   -7.5426265    326.17484  0.015675454  0.014308908          672 
 1735000    0.5575489   -7.5157984    325.64611  0.015641024  0.014296406          550 
 1736000   0.55704766   -7.5379674    325.45708   0.01562294  0.014283926          672 
 1737000   0.54769845   -7.5728033    325.77194  0.015629051  0.014271452          415 
 1738000   0.55314076   -7.5514835    325.72669  0.015617889  0.014258973          737 
 1739000   0.55189857   -7.5409211    325.98429  0.015621252  0.014246519          640 
 1740000   0.56400292    -7.545763    325.85414  0.015606041  0.014234064          428 
 1741000    0.5608888   -7.5561298     325.4685  0.015578618  0.014221622          675 
 1742000   0.54371401   -7.5583645    325.56836  0.015574453   0.01420919          769 
 1743000   0.56994092   -7.5449253    325.78958  0.015576094  0.014196762          642 
 1744000   0.56038321   -7.5355015    325.86644  0.015570835  0.014184349          493 
 1745000   0.56139316   -7.5584833    325.58329   0.01554839  0.014171931          709 
 1746000   0.55466048   -7.5535882    325.46998  0.015534077  0.014159524          759 
 1747000   0.56128647   -7.5477742    325.01986  0.015503714  0.014147132          696 
 1748000   0.55554035   -7.5556728    325.78745  0.015531438  0.014134755          663 
 1749000   0.56085833   -7.5635851    324.76589  0.015473885    0.0141224          581 
 1750000   0.54425729   -7.5573737     325.7272  0.015510819  0.014110049          678 
 1751000   0.55339797   -7.5508393    325.39841  0.015486313  0.014097719          751 
 1752000   0.55778629   -7.5698058     325.0095  0.015458975  0.014085385          714 
 1753000   0.56048362    -7.567649    325.30832  0.015464362  0.014073069          572 
 1754000   0.55411514   -7.5573602    325.80418  0.015479104  0.014060771          658 
 1755000   0.55024223   -7.5657884    325.47538  0.015454671   0.01404848          710 
 1756000     0.542798   -7.5698992    325.20184  0.015432889  0.014036195          713 
 1757000   0.55431282   -7.5644938    324.80463  0.015405266  0.014023914          709 
 1758000     0.558935   -7.5641887     325.0593  0.015408575  0.014011623          664 
 1759000   0.56632369   -7.5724985    325.22738  0.015407778   0.01399935          643 
 1760000   0.54999136   -7.5849227    325.41789  0.015408044  0.013987096          659 
 1761000   0.55495893   -7.5851458    324.84095  0.015371993   0.01397484          635 
 1762000   0.54718939    -7.584078    325.02227  0.015371844  0.013962605          776 
 1763000   0.54043038   -7.5972403    324.66989  0.015346469  0.013950384          659 
 1764000   0.55152594   -7.5834435     325.4398   0.01537414  0.013938166          594 
 1765000   0.54902552   -7.5730801    324.95312  0.015342451  0.013925977          646 
 1766000   0.55069932   -7.5570517    324.79548  0.015326325  0.013913792          601 
 1767000   0.54787882   -7.5610749    325.53954  0.015352742  0.013901635          586 
 1768000   0.54842183    -7.585173    324.36572  0.015288731  0.013889489          671 
 1769000   0.54732064   -7.5658295    325.18957  0.015318898  0.013877362          673 
 1770000   0.55030218    -7.557906    325.44605  0.015322319  0.013865255          551 
 1771000   0.54726472   -7.5823577    325.32603  0.015308019  0.013853155          712 
 1772000   0.54587638   -7.5635888    325.39603  0.015302673  0.013841064          590 
 1773000   0.53072578   -7.5741928    324.84322  0.015268059  0.013828996          694 
 1774000    0.5531295   -7.5742666    325.11674  0.015272301  0.013816936          675 
 1775000   0.55507522   -7.5834951    324.95719  0.015256206  0.013804887          687 
 1776000   0.54630687   -7.5836473    324.70942   0.01523599  0.013792838          651 
 1777000   0.53592081   -7.5663266    325.30044  0.015255132  0.013780802          693 
 1778000   0.54353422   -7.5859752    325.04063  0.015234375  0.013768773          733 
 1779000   0.54974524   -7.5861904     324.5962  0.015204994  0.013756769          616 
 1780000   0.53809945   -7.5805836    325.08078  0.015219137  0.013744777          648 
 1781000   0.54985971    -7.581842    324.56193  0.015186315  0.013732812          609 
 1782000   0.55054493   -7.5798511    325.06545   0.01520134  0.013720859          457 
 1783000   0.53875289   -7.5815306    324.53066  0.015167819  0.013708913          662 
 1784000   0.54192201   -7.5935012    325.19078  0.015190152  0.013696955          703 
 1785000   0.53125965    -7.590525    324.94655   0.01517024  0.013685027          688 
 1786000   0.54561454   -7.5979994    324.76653  0.015153347  0.013673104          664 
 1787000   0.52509375   -7.5802119    324.79845  0.015146355  0.013661176          508 
 1788000   0.54051687   -7.5948618    324.37865  0.015118319   0.01364928          704 
 1789000   0.53354936   -7.5939471    325.38789  0.015156879  0.013637403          691 
 1790000   0.54254755   -7.6007525    324.12463  0.015089601   0.01362553          826 
 1791000   0.53918728   -7.5865707    324.83526   0.01511424  0.013613663          695 
 1792000   0.53368468   -7.5952826    324.79204  0.015103796  0.013601798          654 
 1793000   0.53089486   -7.5695323    324.56874  0.015084995  0.013589959          613 
 1794000   0.52480495    -7.601917    324.54249  0.015075366  0.013578107          717 
 1795000   0.55142732   -7.5817718    324.24734  0.015053265   0.01356628          759 
 1796000   0.52964016   -7.6029808    324.49728  0.015056481  0.013554475          619 
 1797000   0.53811613   -7.6054647    324.88164  0.015065927  0.013542678          600 
 1798000   0.52684569    -7.598601    325.32806  0.015078238  0.013530885          729 
 1799000   0.53867989   -7.6049502    324.92371  0.015051126  0.013519112          622 
 1800000   0.53510449   -7.5957831    324.78517  0.015036351  0.013507354          814 
 1801000   0.53980788    -7.598209    324.58885  0.015018918  0.013495593          718 
 1802000   0.53106853   -7.5971777    324.48905  0.015005968  0.013483859          460 
 1803000   0.53246548   -7.5926626    324.58383  0.015002026  0.013472142          637 
 1804000    0.5337998   -7.5939045    324.77723  0.015002644  0.013460419          702 
 1805000   0.55090164   -7.5996451    324.61053  0.014986636  0.013448741          725 
 1806000   0.53350978   -7.6020565    324.12643     0.014956  0.013437056          763 
 1807000   0.53379221   -7.6137456     324.8389   0.01498058  0.013425384          779 
 1808000   0.53405424   -7.6043669    324.55336  0.014959134  0.013413747          783 
 1809000   0.54697425   -7.5997217    324.31646  0.014939951  0.013402109          723 
 1810000   0.52434936   -7.6082907    324.46847  0.014938696  0.013390485          780 
 1811000     0.538634   -7.6005034    324.35045  0.014925016  0.013378873          654 
 1812000   0.53259091   -7.5940833    324.16037  0.014908038  0.013367273          795 
 1813000   0.53292878    -7.619328    324.56618  0.014918467  0.013355689          816 
 1814000   0.53751659   -7.6185113    324.52899  0.014908535  0.013344115          705 
 1815000   0.53474485   -7.6201656    324.37819  0.014893397  0.013332552          748 
 1816000   0.53900061   -7.6195648     324.2512  0.014879369  0.013320997          589 
 1817000   0.51974361   -7.5985041    324.07091  0.014862911  0.013309458          730 
 1818000   0.52438454   -7.6170896    325.19006  0.014906035  0.013297933          833 
 1819000   0.53209033   -7.5983272    324.82666  0.014881192  0.013286415          706 
 1820000   0.52774421   -7.6080679     323.7872  0.014825421  0.013274926          824 
 1821000   0.51484255   -7.6253782    324.37744  0.014844291  0.013263418          636 
 1822000   0.52935375   -7.6215571    323.63591  0.014802228  0.013251941          646 
 1823000   0.53263344   -7.6192511    324.18741  0.014819319  0.013240467          638 
 1824000   0.53406074   -7.6231106    324.91005  0.014844209  0.013228993          772 
 1825000   0.52856221    -7.612183     324.3959  0.014812598  0.013217549          701 
 1826000   0.51367496   -7.6016335    324.36677  0.014803156  0.013206112          790 
 1827000   0.51978073   -7.6155495    324.08074  0.014782008  0.013194691          786 
 1828000   0.52084262   -7.6309362     324.7753  0.014805584  0.013183273          815 
 1829000   0.52468253   -7.6156919    324.29355   0.01477554  0.013171848          765 
 1830000   0.52126533    -7.596848    324.32774  0.014769023  0.013160459          765 
 1831000   0.50926698   -7.6192591    324.01718  0.014746822  0.013149087          662 
 1832000   0.51871313   -7.6102033    324.26317  0.014749962  0.013137721          735 
 1833000   0.52675759   -7.6163923    324.53691   0.01475436  0.013126362          729 
 1834000   0.51712277   -7.6181058    324.78164  0.014757436  0.013115027          764 
 1835000   0.51485502   -7.6247663    324.63017  0.014742514   0.01310371          691 
 1836000   0.52362982    -7.614923    324.70472  0.014737868  0.013092401          749 
 1837000   0.51321044   -7.6194506       324.17  0.014705589  0.013081108          775 
 1838000   0.51982309   -7.6278271    324.29521  0.014703265  0.013069803          778 
 1839000   0.52191584   -7.6460374    324.09109   0.01468602  0.013058503          862 
 1840000    0.5194175   -7.6406115    323.66891  0.014658918  0.013047226          772 
 1841000   0.51346828   -7.6250395    323.87126  0.014660115  0.013035962          735 
 1842000   0.53408613   -7.6399683    323.82637  0.014650125  0.013024713          794 
 1843000   0.50754573   -7.6216126    324.38084  0.014667247  0.013013475          782 
 1844000   0.52685397   -7.6380492    323.82396  0.014634127  0.013002252          781 
 1845000   0.51800169   -7.6277375    324.23724  0.014644862  0.012991032          783 
 1846000   0.52332668   -7.6187882     324.1123  0.014631288   0.01297984          807 
 1847000   0.51304399   -7.6368226    324.73767  0.014651582  0.012968654          738 
 1848000   0.50330942   -7.6353971    324.03205  0.014611835  0.012957466          543 
 1849000   0.52406654   -7.6278188    324.24486  0.014613523  0.012946309          741 
 1850000   0.52473912   -7.6264963    324.39076  0.014612197  0.012935177          728 
 1851000   0.50758412   -7.6312087    324.34761   0.01460236  0.012924058          763 
 1852000   0.50867134   -7.6454369    324.18435  0.014587129  0.012912935          802 
 1853000   0.51239993   -7.6538997    324.10004  0.014575465   0.01290183          622 
 1854000   0.51910276   -7.6330205    324.09322  0.014567297  0.012890727          827 
 1855000   0.51661219   -7.6529564    324.27224  0.014567486  0.012879633          741 
 1856000   0.52160427   -7.6528731    323.75791  0.014536544  0.012868536          814 
 1857000   0.49654687   -7.6527948    324.45209  0.014559868  0.012857461          735 
 1858000   0.51420006   -7.6115294    324.17386  0.014539552  0.012846404          819 
 1859000   0.51896682   -7.6561783    323.74369  0.014512448   0.01283534          660 
 1860000   0.51203333   -7.6662946    323.71943  0.014503559  0.012824284          696 
 1861000   0.50611232   -7.6318868    324.16224  0.014515594  0.012813241          744 
 1862000   0.50614594   -7.6559731    323.52907  0.014479461  0.012802215          665 
 1863000   0.51574258   -7.6348109    324.17378  0.014500527  0.012791191          771 
 1864000   0.50962864   -7.6557786    323.80755  0.014476375  0.012780197          778 
 1865000   0.52182635   -7.6583171    323.92517  0.014473868  0.012769218          847 
 1866000   0.50053126   -7.6455002    323.77634  0.014459465  0.012758249          850 
 1867000   0.50393163   -7.6387577    323.97565  0.014460616    0.0127473          815 
 1868000   0.50719095   -7.6612484    323.78759  0.014444485  0.012736354          703 
 1869000   0.50930143   -7.6340637    323.36476  0.014417904  0.012725421          774 
 1870000   0.50169288   -7.6429382    323.85723   0.01443214  0.012714485          664 
 1871000   0.49604911   -7.6561972    323.81983  0.014422761   0.01270357          836 
 1872000   0.49931934   -7.6721296    323.51049  0.014401286  0.012692672          818 
 1873000   0.51734479   -7.6562563    323.90025  0.014410938  0.012681767          783 
 1874000   0.50759244    -7.653506    323.68382  0.014393624  0.012670886          766 
 1875000   0.50624575   -7.6463779    323.62423  0.014383299   0.01266001          893 
 1876000   0.51507797   -7.6524976    323.90149  0.014387948  0.012649147          826 
 1877000   0.49804529   -7.6690594    323.97849  0.014383701  0.012638302          773 
 1878000   0.49784239   -7.6664961    323.59449  0.014359003  0.012627466          791 
 1879000   0.49883683    -7.664926    323.64574  0.014353634  0.012616652          850 
 1880000   0.50371332   -7.6496546    323.25322    0.0143286  0.012605836          861 
 1881000   0.50540513   -7.6593734    323.52844  0.014333176  0.012595032          781 
 1882000   0.50725373   -7.6575056    323.92505  0.014343121  0.012584245          889 
 1883000   0.49936812    -7.666131    323.14971  0.014301191  0.012573457          872 
 1884000   0.49200486   -7.6624587    323.86129  0.014325075  0.012562677          839 
 1885000   0.50221591    -7.666005    323.62876  0.014307195  0.012551914          892 
 1886000   0.50052705   -7.6853656    324.06033  0.014318678  0.012541165          813 
 1887000   0.49586122   -7.6767315    323.26701  0.014276056  0.012530417          825 
 1888000   0.50090915   -7.6582153    323.26643  0.014268469  0.012519689          767 
 1889000   0.50050504   -7.6687631    323.67682   0.01427902  0.012508972          806 
 1890000   0.50173037   -7.6645102     323.5933  0.014267782  0.012498272          937 
 1891000   0.48431587   -7.6673121    323.36244  0.014250064  0.012487574          901 
 1892000   0.49594077   -7.6783541    323.53769  0.014250251   0.01247689          921 
 1893000   0.50846871   -7.6737267    323.55868  0.014243647  0.012466226          848 
 1894000   0.49271655   -7.6629015    323.60336  0.014238092  0.012455565          955 
 1895000   0.49245173   -7.6492856    323.50106   0.01422608   0.01244491          886 
 1896000   0.49736174   -7.6716694    323.77533  0.014230632  0.012434265          854 
 1897000    0.5125878   -7.6745142     323.3631  0.014205021  0.012423635          939 
 1898000   0.49845422   -7.6809016    323.46536  0.014202027  0.012413025          732 
 1899000   0.48832164   -7.6728677    323.32914   0.01418857  0.012402426          888 
 1900000   0.49437013   -7.6631959    323.65904  0.014195572  0.012391827          876 
 1901000   0.49522533   -7.6755212    323.65689   0.01418801  0.012381229          949 
 1902000   0.49742483   -7.6733165    323.30586  0.014165171  0.012370654          926 
 1903000   0.48897098   -7.6722183     323.3151  0.014158132  0.012360092          861 
 1904000   0.50052548   -7.6762882    322.97871  0.014135973  0.012349539          892 
 1905000   0.49227345   -7.6772407    323.61504  0.014156389     0.012339          876 
 1906000   0.49122101   -7.6784054    323.43949  0.014141286  0.012328463          941 
 1907000   0.48426082   -7.6762956     323.5023  0.014136615  0.012317951          943 
 1908000   0.49354236   -7.6612464    322.92663  0.014104063   0.01230744          760 
 1909000   0.48769164   -7.6804379    323.35509  0.014115379  0.012296939          895 
 1910000   0.48846494   -7.6857787    322.94321  0.014090018   0.01228644          821 
 1911000   0.48136636   -7.6834751    323.19726  0.014093723  0.012275972          809 
 1912000   0.49069432   -7.6803909    323.32068  0.014091731  0.012265502          954 
 1913000   0.48074247   -7.6969332     323.2386  0.014080789  0.012255056          892 
 1914000   0.48787608   -7.6835091    323.62974  0.014090462  0.012244612          921 
 1915000   0.48184679   -7.6953836    322.91153  0.014051851  0.012234176         1005 
 1916000   0.49222005   -7.6900092    323.66401  0.014077245  0.012223756          893 
 1917000   0.48437445   -7.6655085    324.02393  0.014085547  0.012213355          842 
 1918000   0.49621251   -7.6978477    323.40525  0.014051323  0.012202955          901 
 1919000   0.49016655   -7.6814072    323.60804  0.014052807   0.01219257          957 
 1920000   0.48270024   -7.6807372    323.50916  0.014041196  0.012182203          943 
 1921000   0.48554677   -7.6938078    322.86351  0.014005879  0.012171851          843 
 1922000   0.49576964   -7.6832875    323.28561  0.014016892  0.012161503          898 
 1923000   0.49225542   -7.6764264      323.464  0.014017334  0.012151166          959 
 1924000   0.49189697   -7.6993425    323.20872  0.013998992  0.012140841          945 
 1925000   0.47992567   -7.6943563     323.5717  0.014007433  0.012130511          891 
 1926000   0.48596671   -7.6973501    323.50569  0.013997304  0.012120207          947 
 1927000     0.484107   -7.6991302    322.66419  0.013953649  0.012109909          939 
 1928000   0.47883739   -7.6959399    323.40025  0.013978226  0.012099611          982 
 1929000    0.4881834   -7.6903588    322.76083  0.013943357  0.012089321          918 
 1930000   0.49157236   -7.6920688    322.76675  0.013936388  0.012079035          883 
 1931000   0.49512117   -7.7022933    322.86336   0.01393334  0.012068757          977 
 1932000    0.4814514   -7.7028704    322.83993  0.013925118  0.012058487          955 
 1933000   0.48942323    -7.694557    322.87595  0.013919467  0.012048243          939 
 1934000   0.48088847   -7.7081619    322.91865  0.013914109  0.012038017          992 
 1935000   0.47112935   -7.6988222    323.62445  0.013937315  0.012027799          826 
 1936000   0.47582125   -7.6879731    322.89276  0.013898621  0.012017579          868 
 1937000   0.48157688   -7.6906205     322.9923  0.013895728  0.012007377          936 
 1938000   0.47842562   -7.7039173    322.46534  0.013865899  0.011997187          903 
 1939000   0.47905466   -7.6952361    322.76183   0.01387149  0.011987009          954 
 1940000   0.47267536   -7.7147168    322.81219  0.013866503  0.011976853          989 
 1941000   0.47501255   -7.7140271    323.11668  0.013872432  0.011966699          919 
 1942000   0.48576338    -7.704225    322.88291  0.013855257  0.011956551          972 
 1943000   0.48001476   -7.7117366    323.19289  0.013861421  0.011946414          993 
 1944000   0.48011421   -7.7143445    322.67967   0.01383229   0.01193629          850 
 1945000   0.47031317   -7.7018414    323.16075   0.01384579   0.01192618          963 
 1946000   0.46530356   -7.7112774    322.94567  0.013829465   0.01191607          853 
 1947000   0.46452015   -7.6911666    322.63884   0.01380923  0.011905972          906 
 1948000   0.47313585   -7.7218029    322.92309    0.0138143  0.011895895          896 
 1949000   0.47738777   -7.7043706    322.52173  0.013790052  0.011885834          917 
 1950000   0.47248972   -7.6931463    323.17707  0.013810986  0.011875765          983 
 1951000   0.48169958   -7.7202987    321.87598  0.013748333  0.011865703          886 
 1952000   0.47274825   -7.6985609    322.76077  0.013779063  0.011855646          647 
 1953000   0.47463218   -7.7080129    322.96517  0.013780729   0.01184561          892 
 1954000   0.46709744   -7.7039253    322.70436  0.013762554  0.011835583          789 
 1955000   0.47654551   -7.7122159    322.43382  0.013743982  0.011825573          884 
 1956000   0.45999825   -7.7041879    322.64149  0.013745803  0.011815566          851 
 1957000   0.46509432   -7.7120647     322.4453  0.013730425  0.011805568          914 
 1958000   0.47725353   -7.7033459    322.73641  0.013735802  0.011795574          866 
 1959000   0.46733551   -7.7022799    321.98233  0.013696713  0.011785613          879 
 1960000   0.46596125   -7.7162894    322.47613   0.01371072  0.011775653         1067 
 1961000   0.46157361   -7.7191195    322.19361  0.013691722  0.011765705          884 
 1962000   0.46203798   -7.7156242    322.68045  0.013705422  0.011755769          973 
 1963000   0.46226871    -7.718458    322.02509  0.013670618  0.011745838          941 
 1964000   0.46400645   -7.7101407     322.5697  0.013686766  0.011735926          847 
 1965000   0.47490019   -7.7173901    322.79843  0.013689501  0.011726022          946 
 1966000   0.46721405   -7.6986166     323.1706  0.013698313  0.011716125          912 
 1967000    0.4683003   -7.7198837      321.909    0.0136379  0.011706249          783 
 1968000   0.46657478   -7.7245903    322.34862  0.013649586  0.011696377          991 
 1969000   0.47397207   -7.7267063    322.44596  0.013646773  0.011686508         1000 
 1970000   0.46323294   -7.7440208     322.8644  0.013657546  0.011676665          926 
 1971000   0.46475108   -7.7221566    322.39287  0.013630681  0.011666812          816 
 1972000   0.47867927    -7.730512    322.36323  0.013622517  0.011656977          974 
 1973000   0.46872351   -7.7153991    322.69377  0.013629573   0.01164716          867 
 1974000   0.46023356   -7.7142382    322.27934  0.013605173   0.01163734          919 
 1975000    0.4486246   -7.7274838    322.27203  0.013597976  0.011627539          893 
 1976000   0.46905524   -7.7352975    322.43676  0.013598041  0.011617742          976 
 1977000   0.47184305   -7.7290862    321.99659   0.01357261  0.011607956         1001 
 1978000    0.4671992   -7.7280916    322.40156  0.013582809  0.011598183          825 
 1979000   0.46661474   -7.7289887    322.36799  0.013574532  0.011588423          839 
 1980000   0.46448994   -7.7294436      322.906   0.01359032  0.011578671          974 
 1981000   0.46983518   -7.7272294      322.319  0.013558766  0.011568922         1003 
 1982000   0.46220533   -7.7170544    322.26443  0.013549631  0.011559186          908 
 1983000   0.46087018   -7.7301722    322.82815  0.013566488  0.011549455          943 
 1984000   0.46644814   -7.7281489    322.57323  0.013548943  0.011539743          972 
 1985000   0.46080337    -7.734634     322.5081  0.013539383  0.011530038          868 
 1986000   0.46477881   -7.7153256    322.25261  0.013521845   0.01152034          925 
 1987000   0.46626703   -7.7263014    322.09921  0.013508606  0.011510662         1000 
 1988000   0.46456865     -7.74614    321.70323  0.013485213  0.011500987         1002 
 1989000   0.45783946   -7.7350874    321.94243  0.013488455  0.011491329          995 
 1990000   0.45847162   -7.7383887    322.35482  0.013498945  0.011481676          975 
 1991000   0.46201604   -7.7389583    322.22337  0.013486664  0.011472031          936 
 1992000   0.46247041   -7.7353818    322.00528   0.01347077  0.011462391          891 
 1993000   0.45585195   -7.7361277    322.38995  0.013480095  0.011452759          993 
 1994000   0.45651962   -7.7381101    321.99794  0.013456952  0.011443133          940 
 1995000   0.45340316   -7.7492483    322.32904  0.013464037  0.011433524          978 
 1996000   0.46185165   -7.7424599    322.17112  0.013450698  0.011423924          951 
 1997000    0.4537106   -7.7413391    322.11936  0.013441803  0.011414345          915 
 1998000   0.45238893   -7.7383656    322.35679  0.013444978  0.011404769          942 
 1999000   0.45215121    -7.739254    321.67276  0.013409736  0.011395203         1011 
 2000000   0.46065238   -7.7438537    322.21514  0.013425631  0.011385656          967 
 2001000   0.45702254   -7.7524268    321.82465  0.013402659  0.011376119          899 
 2002000   0.45436199   -7.7632947    322.06791   0.01340609  0.011366593          974 
 2003000   0.45491323   -7.7232756    322.09644  0.013400584  0.011357074         1012 
 2004000   0.45912636   -7.7483059    322.22838  0.013399384  0.011347571         1032 
 2005000   0.45064009   -7.7163565    321.67056  0.013369516   0.01133807          844 
 2006000   0.45711707   -7.7435667    322.05097  0.013378655  0.011328584          971 
 2007000   0.45590531   -7.7505936    322.09686  0.013373894  0.011319102          917 
 2008000   0.43721697   -7.7503056    322.64053  0.013389796  0.011309634          995 
 2009000   0.45207207   -7.7455471    321.81916  0.013349061  0.011300172          842 
 2010000   0.44800771   -7.7287956    322.50971  0.013371049  0.011290717          976 
 2011000   0.44334404   -7.7574204    321.81854  0.013335759  0.011281275          897 
 2012000   0.45968675   -7.7354009    322.36493  0.013351762   0.01127184          907 
Loop time of 5188.99 on 48 procs for 2000000 steps with 4000 atoms

Performance: 66602.513 tau/day, 385.431 timesteps/s
99.4% CPU use with 48 MPI tasks x no OpenMP threads

MPI task timing breakdown:
Section |  min time  |  avg time  |  max time  |%varavg| %total
---------------------------------------------------------------
Pair    | 382.78     | 414.88     | 439.9      |  69.6 |  8.00
Neigh   | 36.38      | 37.793     | 39.172     |  11.5 |  0.73
Comm    | 341.19     | 366.74     | 393.76     |  71.2 |  7.07
Output  | 5.0018     | 5.0035     | 5.0473     |   0.3 |  0.10
Modify  | 4303.2     | 4317.5     | 4330.2     |   9.2 | 83.20
Other   |            | 47.12      |            |       |  0.91

Nlocal:        83.3333 ave          88 max          75 min
Histogram: 1 0 2 4 5 3 15 10 4 4
Nghost:        2418.21 ave        2448 max        2394 min
Histogram: 1 6 5 10 8 6 6 2 3 1
Neighs:        16813.9 ave       19392 max       14609 min
Histogram: 5 6 5 5 6 4 5 5 4 3
FullNghs:      33627.0 ave       35678 max       30339 min
Histogram: 1 2 1 5 4 6 10 12 4 3

Total # of neighbors = 1614097
Ave neighs/atom = 403.52425
Neighbor list builds = 106855
Dangerous builds = 0

#clear
#
#next RN
#
#jump SELF
Total wall time: 1:26:32
