
units lj                  # Use reduced LJ style units
atom_style atomic         # Uncharged point particles
atom_modify map hash      # Needed for indexing of clusters etc
                          # Used to be able to find where atoms are in relation to each other.

lattice fcc 1.0 spacing 1 1 1
Lattice spacing in x,y,z = 1.5874011 1.5874011 1.5874011
region box block 0 10 0 10 0 10 units lattice
create_box 2 box
Created orthogonal box = (0.0000000 0.0000000 0.0000000) to (15.874011 15.874011 15.874011)
  3 by 4 by 4 MPI processor grid
create_atoms 1 box
Created 4000 atoms
  using lattice units in orthogonal box = (0.0000000 0.0000000 0.0000000) to (15.874011 15.874011 15.874011)
  create_atoms CPU = 0.026 seconds
set type 1 type/fraction 2 0.77 78393
Setting atom values ...
  3073 settings made for type/fraction
mass 1 1.0
mass 2 1.0
pair_style lj/cut  3.5
pair_modify tail  yes
pair_coeff 1  1  1.0  1.0   # Intearaction between 1 and 1 set with epsilon = 1 and sigma = 1
pair_coeff 1  2  1.5  0.8
pair_coeff 2  2  0.5  0.88

write_data data.0
System init for write_data ...
Neighbor list info ...
  update every 1 steps, delay 10 steps, check yes
  max neighbors/atom: 2000, page size: 100000
  master list distance cutoff = 3.8
  ghost atom cutoff = 3.8
  binsize = 1.9, bins = 9 9 9
  1 neighbor lists, perpetual/occasional/extra = 1 0 0
  (1) pair lj/cut, perpetual
      attributes: half, newton on
      pair build: half/bin/atomonly/newton
      stencil: half/bin/3d
      bin: standard
WARNING: Not all mixed pair coeffs generated from mixing. Use write_data with 'pair ij' option to store all pair coeffs. (../write_data.cpp:312)


#############################
#   M E L T   S Y S T E M   #
#############################

velocity all create 2.4 2750902 mom yes dist gaussian # Assign velocities
                                                    # Temperature 2.4, random number seed, zero linear momentum
                                                                                # Gaussian distribution

timestep 0.002   # simulation timestep
thermo 1000       # output thermodynamic data every 1000 steps bf 100

# Define a fix  in this case with index 1 applied to all
# particles in the simulation. This fix is for simulations
# in the anisotropic NPT ensemble. Note that we use the MTK
# correction.
fix 1 all npt temp 2.4 2.4 0.1 iso 5.68 5.68 0.5 mtk yes tchain 5 pchain 5 # Use NPT ensemble
                                                                         # Set temperature and pressure and damping
                                                                         # Numbers of thermostats in chain and in barostat
run 10000          # run for 10000 steps
Per MPI rank memory allocation (min/avg/max) = 3.642 | 3.644 | 3.648 Mbytes
Step Temp E_pair E_mol TotEng Press Volume 
       0          2.4   -3.8453673            0  -0.24626728   -3.4249601         4000 
    1000    2.3965646   -3.2830947            0   0.31085351    5.5886814    3756.5635 
    2000    2.4298008   -3.2596003            0    0.3841898    5.7560246    3766.3465 
    3000    2.4059526   -3.3511289            0   0.25689778    5.3146351    3737.6053 
    4000    2.4027295   -3.3070831            0   0.29611016    5.8510041    3713.4459 
    5000    2.3907809   -3.3105237            0   0.27475115    6.0076903     3702.449 
    6000     2.430142   -3.3069343            0   0.33736744    5.8943177    3729.5382 
    7000    2.4467137   -3.2211272            0    0.4480258    6.2269738    3731.2856 
    8000    2.4163519   -3.3206017            0   0.30301995    5.5192069     3746.822 
    9000    2.4110259   -3.2912149            0   0.32441992    5.5604778      3747.52 
   10000    2.3684854   -3.2870982            0   0.26474173    5.7914636    3734.6539 
Loop time of 2.6044 on 48 procs for 10000 steps with 4000 atoms

Performance: 663492.498 tau/day, 3839.656 timesteps/s
99.6% CPU use with 48 MPI tasks x no OpenMP threads

MPI task timing breakdown:
Section |  min time  |  avg time  |  max time  |%varavg| %total
---------------------------------------------------------------
Pair    | 1.1505     | 1.228      | 1.2982     |   3.0 | 47.15
Neigh   | 0.20983    | 0.22094    | 0.23093    |   0.9 |  8.48
Comm    | 0.80232    | 0.88395    | 0.97783    |   4.2 | 33.94
Output  | 0.00024876 | 0.00025483 | 0.00031485 |   0.0 |  0.01
Modify  | 0.22663    | 0.25432    | 0.28467    |   2.9 |  9.77
Other   |            | 0.01691    |            |       |  0.65

Nlocal:        83.3333 ave          91 max          72 min
Histogram: 1 2 5 1 6 10 7 4 8 4
Nghost:        1716.81 ave        1745 max        1688 min
Histogram: 2 4 2 4 11 10 7 2 4 2
Neighs:        10213.4 ave       11667 max        8900 min
Histogram: 4 3 2 10 9 3 8 4 4 1

Total # of neighbors = 490243
Ave neighs/atom = 122.56075
Neighbor list builds = 907
Dangerous builds = 244

# Equilibrate just above the melting temperature to avoid step fn in T

fix 1 all npt temp 1.25 1.25 0.1 iso 5.68 5.68 0.5 mtk yes tchain 5 pchain 5
run 2000
Per MPI rank memory allocation (min/avg/max) = 3.644 | 3.646 | 3.649 Mbytes
Step Temp E_pair E_mol TotEng Press Volume 
   10000    2.3684854   -3.2870982            0   0.26474173    5.7914636    3734.6539 
   11000    1.2355638   -4.8733191            0   -3.0204368    5.6197589    2866.4213 
   12000    1.2717024   -4.8862428            0   -2.9791661    5.6068119    2861.8111 
Loop time of 0.644529 on 48 procs for 2000 steps with 4000 atoms

Performance: 536205.107 tau/day, 3103.039 timesteps/s
99.7% CPU use with 48 MPI tasks x no OpenMP threads

MPI task timing breakdown:
Section |  min time  |  avg time  |  max time  |%varavg| %total
---------------------------------------------------------------
Pair    | 0.29197    | 0.31447    | 0.33976    |   1.8 | 48.79
Neigh   | 0.041076   | 0.043144   | 0.04703    |   0.5 |  6.69
Comm    | 0.20718    | 0.23819    | 0.26435    |   2.5 | 36.96
Output  | 5.2306e-05 | 5.4351e-05 | 6.8697e-05 |   0.0 |  0.01
Modify  | 0.041424   | 0.043882   | 0.046957   |   0.8 |  6.81
Other   |            | 0.004788   |            |       |  0.74

Nlocal:        83.3333 ave          92 max          77 min
Histogram: 2 4 11 4 10 2 7 5 2 1
Nghost:        2058.67 ave        2081 max        2027 min
Histogram: 1 2 1 6 5 7 10 8 5 3
Neighs:        13358.4 ave       14885 max       11872 min
Histogram: 3 2 5 4 9 9 8 3 4 1

Total # of neighbors = 641201
Ave neighs/atom = 160.30025
Neighbor list builds = 143
Dangerous builds = 20

#############################
# L I N E A R  Q U E N C H  #
#############################

# Define solid atoms. This closely follows ten Wolde  Ruiz-Montero and Frenkel  Faraday Discuss  1996  104  93-110
# Compute components of the per-atom q6 vector
compute q6 all orientorder/atom degrees 1 6 components 6 nnn NULL cutoff 1.3 # compute the Q6 parameter.
                                                                             # Use all neighbours within 1.3 unit cell.

# get number of connections
compute coord_number all coord/atom orientorder q6 0.5

# An atom is solid if it has 8 or more connections (of a possible 14)
variable is_solid atom c_coord_number>=8
group solid dynamic all var is_solid    # Must be dynamic to update
dynamic group solid defined

# do clustering
compute cluster solid cluster/atom 1.3 # Create a cluster where all atoms within are solid and max 1.3 units from another member

# define chunks one chunk per cluster
compute clus_chunks solid chunk/atom c_cluster nchunk every compress yes  # Says which atoms are in which chunk

# count the size of each chunk
compute size_chunks solid property/chunk clus_chunks count


# Find the maximum entry in the vector of chunk sizes
variable max_n equal max(c_size_chunks)


# Thermo style which includes this variable
# thermo_style custom step temp pe vol v_max_n

thermo ${N}  # Print the thermo information every 100 steps
thermo 1000  

# Reset the npt fix at a lower temperature (below freezing)
fix 1  all npt temp  ${temp} ${temp}  0.1  iso  5.68  5.68  0.5  mtk yes tchain  5  pchain  5
fix 1  all npt temp  0.45 ${temp}  0.1  iso  5.68  5.68  0.5  mtk yes tchain  5  pchain  5
fix 1  all npt temp  0.45 0.45  0.1  iso  5.68  5.68  0.5  mtk yes tchain  5  pchain  5

dump dmp2 all dcd ${N} traj.dcd
dump dmp2 all dcd 1000 traj.dcd


compute msd all msd com yes
variable twopoint equal c_msd[4]/6/(step*dt+1.0e-6)
fix 9 all vector 10 c_msd[4]
variable fit equal slope(f_9)/6/(10*dt)
thermo_style custom step temp pe c_msd[4] v_twopoint v_fit v_max_n

fix 1 all npt temp 1.25 ${temp} 0.1 iso 5.68 5.68 0.5 mtk yes tchain 5 pchain 5
fix 1 all npt temp 1.25 0.45 0.1 iso 5.68 5.68 0.5 mtk yes tchain 5 pchain 5
run 500000 # 5000000  # Run for this many steps
Neighbor list info ...
  update every 1 steps, delay 10 steps, check yes
  max neighbors/atom: 2000, page size: 100000
  master list distance cutoff = 3.8
  ghost atom cutoff = 3.8
  binsize = 1.9, bins = 8 8 8
  4 neighbor lists, perpetual/occasional/extra = 1 3 0
  (1) pair lj/cut, perpetual
      attributes: half, newton on
      pair build: half/bin/atomonly/newton
      stencil: half/bin/3d
      bin: standard
  (2) compute orientorder/atom, occasional
      attributes: full, newton on
      pair build: full/bin/atomonly
      stencil: full/bin/3d
      bin: standard
  (3) compute coord/atom, occasional
      attributes: full, newton on
      pair build: full/bin/atomonly
      stencil: full/bin/3d
      bin: standard
  (4) compute cluster/atom, occasional
      attributes: full, newton on
      pair build: full/bin/atomonly
      stencil: full/bin/3d
      bin: standard
Per MPI rank memory allocation (min/avg/max) = 9.839 | 9.845 | 9.850 Mbytes
Step Temp PotEng c_msd[4] v_twopoint v_fit v_max_n 
   12000    1.2717024   -4.8862428 5.1331179e-30 3.5646651e-32 8.3333333e+20            2 
   13000    1.2669126   -4.8916572   0.71514219 0.0045842446  0.060491022            3 
   14000    1.2318955   -4.8800256    1.4663718 0.0087284033  0.061366564            2 
   15000    1.2505585   -4.8923512     2.236618  0.012425655  0.062485771            2 
   16000    1.2396637   -4.8841524    2.9039264  0.015124616   0.06148394            2 
   17000    1.2223639    -4.890728    3.5800624  0.017549325  0.060317782            2 
   18000    1.2316135   -4.9002622    4.3476289  0.020127911  0.059841842            2 
   19000      1.24218   -4.9188006    5.1125954  0.022423663  0.060112548            1 
   20000    1.2227469   -4.9083776     5.921712  0.024673799  0.060761392            3 
   21000    1.2248175   -4.9236151    6.6337495  0.026324402  0.061274198            1 
   22000     1.249933   -4.9186195    7.3484782  0.027835144  0.061376836            2 
   23000    1.2078748   -4.9420858    8.2027027  0.029719937  0.061657586            3 
   24000    1.2311334   -4.9024896    9.0500583  0.031423813  0.062057324            1 
   25000    1.2498185   -4.9467268    9.7400562  0.032466853  0.062418897            3 
   26000    1.2250795   -4.9143503    10.543741  0.033794042   0.06269099            2 
   27000    1.2281069   -4.9540724    11.250259  0.034723022  0.062800092            2 
   28000    1.2407117   -4.9279295    11.853653  0.035278728  0.062747334            2 
   29000    1.2226609   -4.9364254    12.458991  0.035801698  0.062439416            1 
   30000    1.2098794   -4.9460137    13.073726  0.036315906  0.062005502            2 
   31000    1.2428158   -4.9101292    13.774395  0.037027943  0.061644671            3 
   32000    1.2281291   -4.9257452    14.402663  0.037506934   0.06123491            5 
   33000    1.2138067   -4.9699532    15.102578  0.038137822  0.060908478            2 
   34000    1.2343727   -4.9404948    16.030741  0.039291031  0.060736013            4 
   35000    1.2144149   -4.9656486    16.643165  0.039626583  0.060614655            4 
   36000    1.2202069   -4.9217267    17.306451  0.040061229  0.060478388            2 
   37000    1.2092793   -4.9538955    17.988899  0.040515537  0.060313174            4 
   38000    1.2213019   -4.9454341    18.727485  0.041069047  0.060185155            3 
   39000    1.2407404   -4.9685089     19.37734  0.041404572  0.060059131            2 
   40000    1.1896007   -5.0020641    20.078711  0.041830648  0.059920551            3 
   41000    1.2037137   -4.9823569    20.748237  0.042171212  0.059809997            5 
   42000    1.1976955   -4.9670409    21.529722  0.042717703  0.059724491            1 
   43000    1.1821007   -4.9748654    22.277214  0.043172895  0.059688185            4 
   44000    1.2086829   -4.9708483    22.987883  0.043537658   0.05966317            2 
   45000    1.1965852   -4.9960549    23.491037   0.04350192  0.059598633            2 
   46000    1.1802979   -4.9906152    24.166968  0.043780739  0.059489677            3 
   47000      1.17335   -4.9586169      24.7777  0.043932092  0.059352844            2 
   48000    1.1620064    -5.030024    25.257984  0.043850667  0.059186714            2 
   49000     1.194658   -5.0344983    25.943404  0.044121435   0.05900303            1 
   50000    1.1867471   -5.0264568    26.590938   0.04431823  0.058822997            9 
   51000    1.1685775   -4.9435333     27.35317  0.044694721   0.05865422            7 
   52000    1.1887375   -5.0009274    28.044045  0.044942379  0.058500899            4 
   53000    1.2128665   -4.9874886    28.630957  0.045017228  0.058361405            3 
   54000    1.1911538   -5.0130118    29.440626  0.045433065  0.058235056            1 
   55000    1.2134662   -5.0233936    30.124969  0.045643892  0.058149945            3 
   56000    1.1700896   -5.0211925    30.587225  0.045516703  0.058074067            3 
   57000    1.2066509   -5.0412387    31.685985   0.04632454  0.058029426            2 
   58000    1.1907789   -5.0268578    32.349074  0.046478555  0.058008277            4 
   59000    1.1656744   -5.0469656    33.050329  0.046681256  0.057993277            2 
   60000    1.1710227   -5.0195919    33.703564  0.046810505  0.057948643            2 
   61000     1.171295   -4.9749896     34.19919  0.046720205  0.057912804            3 
   62000    1.1390369    -4.991515    34.701709  0.046642081  0.057841052            2 
   63000    1.1583758   -5.0095832    35.497842  0.046954817  0.057751078            4 
   64000    1.1735032    -5.034289    36.106086  0.047013133   0.05767511            2 
   65000    1.1457059   -5.0192847    36.399075   0.04666548  0.057573961            1 
   66000    1.1666029   -5.0109789    36.934497  0.046634466  0.057430965            2 
   67000    1.1663358    -5.006948    37.506704  0.046650129  0.057278026            3 
   68000    1.1598007   -5.0411025    38.095271   0.04668538  0.057131773            7 
   69000    1.1517829   -5.0692352    38.535327   0.04654025    0.0569731            4 
   70000    1.1580532   -5.0852278    38.907463  0.046318408  0.056776715            2 
   71000      1.14777   -5.0313758     39.35307  0.046189049  0.056582407            2 
   72000    1.1346327   -5.0984924    39.949462  0.046237803  0.056384338            2 
   73000    1.1514595   -5.0404232    40.438284  0.046162425  0.056180938            2 
   74000    1.1745967   -5.0829822    40.866673  0.046021028  0.055977917            2 
   75000    1.1658221   -5.0893398    41.352429  0.045947143  0.055771658            2 
   76000    1.1519396   -5.0698832    41.941483  0.045988467  0.055563094            2 
   77000     1.136065   -5.0592837    42.261511  0.045737566  0.055344075            2 
   78000    1.1521438   -5.0736463    42.893431  0.045826315  0.055125515            3 
   79000    1.1548581   -5.1050444    43.530222  0.045917955  0.054923905            3 
   80000    1.1251143   -5.1093327    44.361913  0.046210326  0.054747299            5 
   81000    1.1528878   -5.0782909     45.06972  0.046368024  0.054592568            3 
   82000    1.1372023   -5.1140547    45.395624  0.046133764  0.054434769            2 
   83000    1.1475849   -5.0745737    46.184568  0.046370048  0.054282647            3 
   84000    1.1699388   -5.0884698    46.861996  0.046490075  0.054145853            2 
   85000     1.129712   -5.1182291    47.458521  0.046527962  0.054029624            2 
   86000    1.1458828   -5.0924796    47.837674  0.046354335  0.053913503            2 
   87000    1.1562701   -5.1335338    48.556713  0.046510261  0.053783637            3 
   88000    1.1160264   -5.1071238    49.141839  0.046535832  0.053668415            3 
   89000    1.1177587   -5.1246682    49.773025  0.046603956  0.053548679            3 
   90000    1.1300562   -5.1121088     50.25259  0.046530175  0.053435987            2 
   91000    1.1308432   -5.1173738    50.861137  0.046576132  0.053319288            2 
   92000    1.1111783   -5.1324556    51.278472  0.046447891  0.053199356            2 
   93000    1.1173993   -5.1516922    51.749105  0.046370165  0.053085915            2 
   94000    1.1037181   -5.1583827    52.538846  0.046576991  0.052979709            2 
   95000    1.1197375    -5.156847    52.851248  0.046360744  0.052878407            3 
   96000     1.131769   -5.1744557    53.496125  0.046437608  0.052781515            2 
   97000    1.1234122   -5.1188129    54.277033  0.046629753  0.052683606            1 
   98000    1.0998543   -5.1585036    54.400484  0.046258915  0.052589668            1 
   99000    1.1133454   -5.1400211    55.054099  0.046341834  0.052486237            3 
  100000    1.0903981   -5.1862098    55.615511  0.046346259  0.052381173            4 
  101000    1.1333099   -5.1832564    56.178886  0.046352216  0.052280619            3 
  102000    1.1125411   -5.1803892    56.932068  0.046513128  0.052192041            3 
  103000    1.1126399   -5.1831077    57.300773  0.046359849  0.052106379            2 
  104000    1.1254356   -5.1742753    58.061432  0.046523583  0.052016536            3 
  105000    1.1113509   -5.1713524     58.31905   0.04628496  0.051920622            3 
  106000    1.0781419   -5.1678901     59.17806  0.046523632  0.051832767            1 
  107000    1.0780914   -5.1816348    59.385243  0.046250189  0.051737395            3 
  108000    1.0810633   -5.2004946    59.574356  0.045967867  0.051632045            3 
  109000    1.0774044   -5.1756889    60.215546   0.04603635  0.051520883            3 
  110000    1.1111442    -5.159736    60.729039  0.046006848  0.051413329            2 
  111000    1.0906366   -5.1777595    61.408134  0.046102202   0.05131448            4 
  112000    1.1067669   -5.2211183    61.696267   0.04590496  0.051216952            3 
  113000     1.086398   -5.2008452    62.250426  0.045907393  0.051118063            3 
  114000     1.070447   -5.2321942    62.742173  0.045864161  0.051022471            3 
  115000    1.0772663   -5.1643535    63.704608  0.046162759  0.050929621            3 
  116000    1.0676082   -5.1810225    64.229793  0.046142092  0.050845876            1 
  117000    1.0817164   -5.2193763    64.654469  0.046050192  0.050764654            4 
  118000     1.091956   -5.2109049    65.061256  0.045947214  0.050677535            7 
  119000    1.1142188   -5.2038084    66.025041  0.046236023  0.050594285            5 
  120000    1.0629007   -5.2525032    66.132388  0.045925269  0.050513799            8 
  121000    1.0551778   -5.2268987    66.488102  0.045790704  0.050435052            2 
  122000    1.0762395   -5.2389443    67.221667  0.045916439  0.050357502            4 
  123000    1.0466267   -5.2336741    67.507742  0.045736952   0.05026929            4 
  124000    1.0680324   -5.1999112    68.190958  0.045827257  0.050181993            4 
  125000    1.0790191   -5.2586259    68.350606  0.045567071  0.050097837            2 
  126000    1.0709619   -5.2301605     69.07575   0.04568502  0.050014259            4 
  127000    1.0753453   -5.2524639    69.855735  0.045837096  0.049938925            2 
  128000    1.0704119   -5.2364196    70.686056  0.046019568  0.049870334            5 
  129000    1.0535794   -5.1913801     71.07279  0.045912655  0.049807451            5 
  130000    1.0755637   -5.2769869    71.141198  0.045603332  0.049734066            2 
  131000    1.0722313   -5.2721282    71.792705   0.04566966  0.049652784            4 
  132000    1.0704047   -5.2703442    72.091885  0.045512553  0.049573222            3 
  133000    1.0656644   -5.2533946    72.742303  0.045577884  0.049493623            1 
  134000    1.0665916   -5.2479953    73.164289   0.04550018  0.049418657            3 
  135000    1.0354112   -5.2570322    73.567888  0.045412276  0.049339047            2 
  136000    1.0562213    -5.258434    73.866424  0.045261289  0.049249404            7 
  137000    1.0473901   -5.2635827    74.103903  0.045075366  0.049160016            3 
  138000    1.0448688    -5.255321    74.832548  0.045188736   0.04907084            4 
  139000    1.0541291   -5.2489931    75.573754  0.045308006  0.048984865            4 
  140000    1.0277175   -5.2768411    75.881344  0.045167467  0.048904411            3 
  141000    1.0303538   -5.3231052    76.088861  0.044969776  0.048823922            4 
  142000    1.0341064   -5.2797688    76.635875  0.044974105  0.048741917            3 
  143000    1.0515434   -5.2932231    76.849463  0.044784069  0.048655107            2 
  144000    1.0304933   -5.2457542    77.664416  0.044944685  0.048572641            4 
  145000    1.0417595   -5.2918055    77.783517   0.04470317  0.048486658            7 
  146000    1.0370954   -5.3410577    77.861034  0.044441229  0.048394501            6 
  147000    1.0237903   -5.3117173    78.338429   0.04440954  0.048298369            4 
  148000    1.0213687   -5.2903478    79.119842   0.04454946  0.048204647            4 
  149000     1.029561   -5.3284796    79.156815  0.044271149  0.048111117            4 
  150000     1.034085   -5.3204594    79.803202  0.044335112  0.048017169            3 
  151000    1.0273199   -5.3550611    80.178336   0.04424853   0.04792537            2 
  152000    1.0177527   -5.3048136    80.743539  0.044267291  0.047832208            2 
  153000    1.0194294   -5.3193322    80.789087   0.04400277  0.047734861            2 
  154000    1.0204413   -5.3132592    81.284408  0.043985069  0.047636631            2 
  155000    1.0045147   -5.3335905    81.558257  0.043848525  0.047535763            4 
  156000    1.0166741   -5.3271753    81.642786  0.043612599  0.047431938            1 
  157000    1.0399948   -5.3465141    81.919028  0.043481437  0.047325568            4 
  158000    1.0067944   -5.3443563    82.735179  0.043636698  0.047218888            3 
  159000    1.0144194   -5.3470163    82.689055  0.043338079  0.047113083            3 
  160000    1.0410978   -5.3678221    83.330901  0.043401511  0.047007054            4 
  161000    1.0298304   -5.3801001    83.664406  0.043304558  0.046901875            4 
  162000    1.0142376   -5.3342591    84.016938  0.043218589  0.046794004            3 
  163000    1.0091181   -5.3464722    84.457079  0.043178466  0.046687624            3 
  164000    1.0248499   -5.3658915    84.805748  0.043092352  0.046579825            6 
  165000   0.99804351   -5.3885336    85.026398  0.042942625   0.04647273            6 
  166000   0.99276347   -5.3415743    85.255642  0.042799017   0.04636545            3 
  167000    1.0033815   -5.3917382    85.734424  0.042781649  0.046254137            5 
  168000    1.0164525   -5.3512109    86.510642  0.042912024  0.046146045            3 
  169000   0.99555019   -5.3879529    86.268771  0.042538842  0.046037657            4 
  170000   0.99769517   -5.3510619    86.622666  0.042462091  0.045925347            9 
  171000   0.98445395   -5.3930376    86.997473  0.042396429  0.045812753            3 
  172000   0.99627925   -5.3488677    87.259468  0.042276874  0.045701334            3 
  173000   0.98402906   -5.4118715    87.475216  0.042136424  0.045588595            3 
  174000   0.99643694   -5.3792553    88.047517  0.042168351  0.045471356            3 
  175000    1.0028873   -5.3700479     87.94385  0.041878024   0.04535441            3 
  176000   0.97879408   -5.4055933    88.454458  0.041881846  0.045237688            4 
  177000   0.99664399   -5.3721176    88.689455  0.041755864  0.045118564            5 
  178000   0.98223329   -5.3685045    89.053769  0.041691839  0.045000559            4 
  179000   0.96676036   -5.4074083    89.189426  0.041522079  0.044883109            6 
  180000    1.0015745   -5.4009263    89.588485   0.04147615  0.044764919            2 
  181000   0.98928526   -5.3974573    89.889802  0.041385728  0.044647091            6 
  182000   0.95266368   -5.4292597    90.197548  0.041299243  0.044531228            4 
  183000    0.9626371   -5.4315718    90.463077  0.041194479  0.044417921            2 
  184000   0.97779687   -5.4699439    91.003419  0.041215317  0.044304046            2 
  185000   0.97385364   -5.4250991    91.528787  0.041229183  0.044193476            3 
  186000   0.95733416   -5.4496515    91.938243  0.041190969  0.044087546            7 
  187000   0.97892381   -5.4572332    92.660163  0.041292408   0.04398223            4 
  188000   0.97035478   -5.4578471    92.615825  0.041053114  0.043877035            5 
  189000   0.97329596   -5.4060788    92.950343  0.040983396  0.043770438            2 
  190000   0.95346429   -5.4661496    93.282399  0.040913333    0.0436648            2 
  191000   0.94879266   -5.4347965    93.548932  0.040815415  0.043558281            5 
  192000   0.97292428   -5.4573391    93.701661  0.040669124  0.043452438            5 
  193000   0.96830392    -5.467345    94.128342  0.040642635  0.043346505            7 
  194000   0.92351342   -5.4449919     94.06902  0.040407655  0.043237714           13 
  195000   0.96813011   -5.4810657    94.510012  0.040388894  0.043129689            3 
  196000   0.96335263   -5.4668138    94.913741  0.040354481  0.043021208            2 
  197000   0.96358679   -5.4677791    95.192298  0.040267469  0.042913873            3 
  198000   0.94070243   -5.4517474     95.17691  0.040057622  0.042808015            6 
  199000   0.99018106   -5.4907011    95.588395  0.040028641  0.042698669            4 
  200000   0.93857532   -5.4735103    95.745217   0.03989384  0.042590393            3 
  201000   0.95267791   -5.4695422    96.115352  0.039848819  0.042481477            6 
  202000   0.94599956   -5.4853373     96.18845  0.039681704  0.042371758            7 
  203000   0.93191143   -5.4808198    96.779028  0.039728665  0.042263533            5 
  204000   0.93395384   -5.4854303    97.125672   0.03967552  0.042156388            7 
  205000   0.93603995   -5.5108867    97.400191  0.039593573  0.042049501            9 
  206000    0.9629713   -5.5199487    97.207025   0.03932323  0.041940831            5 
  207000   0.93647113   -5.5046378    97.697088  0.039330551  0.041832407            4 
  208000    0.9515796   -5.5108856    97.588076  0.039097787  0.041724448            3 
  209000   0.92080544   -5.5127316    98.303488  0.039195968  0.041616417            4 
  210000   0.92168651   -5.5006987    98.543138   0.03910442  0.041508643            3 
  211000   0.93240265   -5.4919542     98.51347  0.038907374  0.041400476            4 
  212000   0.94074208   -5.5146224    99.177206  0.038984751   0.04129455            5 
  213000   0.93016529    -5.533321    99.345632  0.038867618  0.041186287            5 
  214000   0.92387847   -5.5068729    99.408939  0.038710646  0.041078612            5 
  215000   0.93092894   -5.5481125    99.544415  0.038583106  0.040968327            3 
  216000   0.92675274   -5.5286719    100.41309  0.038739619  0.040861021            8 
  217000   0.91167942   -5.5551206    100.48503  0.038588721  0.040756665            2 
  218000    0.9228729   -5.5517714    100.53418  0.038430497  0.040653753            5 
  219000   0.89500123   -5.5438234    101.24624  0.038525967  0.040549736            7 
  220000   0.93099663   -5.5681614    101.45239  0.038428937  0.040450058            5 
  221000   0.90784984   -5.5596726    101.29994  0.038197562  0.040350247            4 
  222000   0.91113656   -5.5748579    101.95991  0.038273241  0.040250633            8 
  223000   0.91612272   -5.5436624    101.95681  0.038100453  0.040152489            6 
  224000    0.9047482    -5.584405    102.07034  0.037972598  0.040052865            4 
  225000   0.91381154   -5.5391252     103.0915  0.038182035   0.03995394            4 
  226000   0.92538825   -5.5988574    103.21453  0.038058456  0.039856295            5 
  227000   0.89254409   -5.5852018     103.2863  0.037917143   0.03975926            3 
  228000   0.88059536   -5.5751285    103.72981  0.037912941  0.039664589           10 
  229000   0.89548198   -5.5855186    103.86426  0.037796309  0.039568522           13 
  230000   0.90549527   -5.6145327    103.55893  0.037521351  0.039472835            3 
  231000    0.8959542   -5.5767684    104.46904  0.037687245  0.039375966            8 
  232000   0.90064526   -5.5971572    104.63091  0.037582943  0.039281023            5 
  233000    0.8875711   -5.6187183    104.90941   0.03752125  0.039186274            5 
  234000   0.89853043   -5.5626574     105.3829  0.037529521  0.039093505            4 
  235000   0.89573955   -5.5977787    105.57762  0.037438871  0.039001775            4 
  236000   0.88725459   -5.5984223    105.71198  0.037327675   0.03890874            7 
  237000   0.89509383   -5.6035632    106.43894  0.037425787  0.038815429            3 
  238000   0.92509156   -5.6020268    106.32205  0.037227609   0.03872497            4 
  239000   0.90301168   -5.6383372    106.63947   0.03718252  0.038633517            3 
  240000    0.8792979   -5.6069594    106.95197  0.037136102  0.038541721            4 
  241000   0.87728176   -5.6322906    106.62775    0.0368699  0.038449538            5 
  242000   0.88389118   -5.6624328    107.01618  0.036851302  0.038357614            8 
  243000   0.85382332   -5.6481236    107.07155   0.03671864  0.038264977            8 
  244000   0.88113484   -5.6333461    107.77253  0.036807557   0.03817356            4 
  245000   0.88986811   -5.6513188    107.72391  0.036640785  0.038082857            5 
  246000   0.86271685   -5.6319274    107.92115  0.036558654  0.037991347           12 
  247000   0.88238927   -5.6553192    107.87977  0.036396685  0.037900104            7 
  248000   0.85165858   -5.6483592    108.52869  0.036467975  0.037807979            5 
  249000   0.88361498   -5.6526406    108.74605  0.036394259  0.037718199            3 
  250000   0.86645881   -5.6385621    108.74075  0.036246916  0.037628898            4 
  251000   0.86644494   -5.6594766    109.14002  0.036235068  0.037539907            6 
  252000   0.87380478    -5.695619    109.26429  0.036132371  0.037451022            4 
  253000   0.87273919   -5.6753608    109.48377  0.036061848  0.037361867            6 
  254000   0.87212767   -5.6904422    109.54937  0.035941393  0.037271565            4 
  255000   0.87979127   -5.6792322    110.15129  0.035997152  0.037181129            6 
  256000   0.83651746   -5.6902673    110.21796  0.035878243  0.037091261            5 
  257000   0.87591256   -5.7142127    110.23719  0.035744875  0.037001108            9 
  258000   0.84866056   -5.6989496    110.68302   0.03575033  0.036911551            5 
  259000   0.86060927   -5.6720231    111.07938  0.035739825  0.036823219            7 
  260000   0.85449372   -5.6700214    111.09981  0.035608914  0.036734961            7 
  261000    0.8620648   -5.7003054     111.1635  0.035492817  0.036645203            8 
  262000    0.8536423   -5.7076513    111.35771  0.035419119  0.036556663            5 
  263000   0.86150857    -5.670743    111.53486  0.035340577  0.036468517            6 
  264000   0.86186938   -5.7006925     112.0669  0.035374654  0.036380987            6 
  265000   0.83330503    -5.700994    112.21862  0.035288873  0.036293859            3 
  266000   0.86871716   -5.7583606    111.76506  0.035014118  0.036207869            3 
  267000   0.83708607   -5.7281783    111.95904  0.034943521  0.036120131            4 
  268000    0.8525002   -5.7291573    112.47187  0.034972597  0.036032685           10 
  269000   0.83258208   -5.7292336    112.72058  0.034919635  0.035945594            4 
  270000   0.81465281    -5.764229    112.63422  0.034763649  0.035858783            5 
  271000   0.82520188   -5.7251744    113.11857  0.034784309  0.035771996            3 
  272000   0.84442909   -5.7214982    113.43459  0.034753245  0.035686337            7 
  273000   0.83417975   -5.7563831    113.29583  0.034583588  0.035600372            9 
  274000   0.81605557   -5.7547333    113.83349   0.03462089  0.035514961            5 
  275000   0.81995541   -5.7635093    113.68718  0.034450662  0.035429353            7 
  276000   0.84832192   -5.7326291    113.84979  0.034374936   0.03534281            5 
  277000   0.81591132   -5.7334776     113.9072   0.03426811  0.035256709            4 
  278000   0.81162646    -5.769238    114.06171   0.03419116  0.035168689            5 
  279000   0.84342269   -5.7693753    114.03566  0.034060832  0.035081144           10 
  280000    0.8241346   -5.7510145    114.88663  0.034192449   0.03499487            7 
  281000    0.8145658   -5.7585508    114.52836  0.033964519   0.03490819            3 
  282000   0.81448431   -5.7468094    114.72589   0.03390245  0.034821112            4 
  283000   0.80287342   -5.7737809    115.00979   0.03386625  0.034733859            8 
  284000   0.82149458   -5.7774504    115.01052  0.033747218  0.034648473            6 
  285000   0.81424058    -5.831515    115.20439  0.033685493  0.034562564            5 
  286000   0.81212049   -5.7799382    115.36471  0.033614425  0.034475662           11 
  287000   0.81243474    -5.816858    115.48968  0.033533589  0.034389559            6 
  288000   0.79561136   -5.7828807    115.80286  0.033507773  0.034305321            5 
  289000   0.80467991    -5.776973     116.0709  0.033469116  0.034220688            6 
  290000   0.79979327   -5.7697668    116.30994  0.033422398  0.034135646            5 
  291000    0.7953698   -5.8079591    116.00168  0.033219267  0.034050048            7 
  292000   0.78229046   -5.8160664    116.09106   0.03313101  0.033964263            4 
  293000   0.81376639   -5.8065907    116.15037  0.033034805  0.033878901            5 
  294000   0.79267922   -5.8396833     116.4722  0.033013662  0.033793353            8 
  295000   0.78295152   -5.8411135    116.27759  0.032846777  0.033708166            6 
  296000    0.8032005   -5.8427714    116.69675  0.032853816  0.033622614           13 
  297000   0.79400244   -5.8551838    116.59697    0.0327152  0.033536386            7 
  298000   0.78972488   -5.8288946    116.78939  0.032659224  0.033451316            6 
  299000   0.77599034   -5.8162456    117.22542  0.032671522  0.033367041            8 
  300000   0.80728319   -5.8040209    117.44527  0.032623686  0.033284231            8 
  301000    0.8082822   -5.8113131    117.83705  0.032623769  0.033202132            6 
  302000    0.7857537   -5.8627247    117.71407  0.032481808   0.03311977            9 
  303000   0.78565344   -5.8426006    117.68846  0.032367562  0.033037133            5 
  304000   0.79026905   -5.8634046    118.12796  0.032381569  0.032953882           13 
  305000    0.7916155   -5.8777001    117.64884  0.032144491  0.032871391            8 
  306000   0.78009695   -5.8629268    118.49664  0.032270327  0.032788183            9 
  307000   0.77477903   -5.8698475    118.38126  0.032133892  0.032704859           18 
  308000   0.76901865   -5.8807711    118.25523  0.031995463  0.032622329            7 
  309000   0.76233839   -5.8872135    118.34888  0.031917173  0.032540236            5 
  310000   0.76593803   -5.8698028    118.72183  0.031914471  0.032457311            6 
  311000    0.7606929   -5.8902007     118.8361  0.031842469  0.032375233            9 
  312000   0.76453226   -5.8786592    119.23075  0.031845821  0.032294539            9 
  313000   0.77323223   -5.8934167    119.09376  0.031707605  0.032213081            7 
  314000   0.77490139   -5.9059221    119.58246  0.031736322  0.032132452            9 
  315000    0.7616389   -5.8978221     119.4015  0.031587697  0.032052165            6 
  316000   0.76618185   -5.9072106    119.86264  0.031609347  0.031972933            6 
  317000   0.76312209   -5.8949679    119.75206  0.031480563  0.031893215            9 
  318000   0.75149086   -5.9291831    120.20673  0.031500714  0.031813683           13 
  319000   0.74585411   -5.9369111    120.19389  0.031398612  0.031734182            8 
  320000   0.75851839   -5.9375974    119.93808  0.031233876    0.0316553            9 
  321000   0.74828017   -5.8956577    120.65925  0.031323793  0.031576641            5 
  322000   0.73995594   -5.9531473    120.07482  0.031075264  0.031497448            5 
  323000    0.7444133   -5.9174686    120.36975  0.031055146  0.031417332            7 
  324000   0.72774667   -5.9474607    119.97124  0.030856799  0.031337356            4 
  325000   0.74159446   -5.9200845    120.22605  0.030827192  0.031257064            4 
  326000   0.73613485   -5.9349599    120.28376  0.030747383  0.031176833           15 
  327000   0.75663104   -5.9498979    120.48991  0.030705891  0.031096601            6 
  328000   0.76428769   -5.9507766    120.51809  0.030619434  0.031015639            8 
  329000   0.74927218   -5.9805474    120.24087  0.030456147   0.03093422            6 
  330000   0.74982537   -5.9521603    120.63914  0.030464428  0.030853215           10 
  331000   0.74005129   -5.9304804    120.87341  0.030431372  0.030772956           11 
  332000   0.73740193   -5.9796499    120.62203  0.030276615  0.030692887            4 
  333000   0.73961635   -5.9561116    121.05938  0.030295141  0.030612637           14 
  334000   0.73474756   -5.9861846    120.98957  0.030187019  0.030532278            8 
  335000   0.73029201   -5.9704402    121.12072  0.030129532  0.030452135            9 
  336000   0.72135756   -5.9809999    121.52943  0.030141229  0.030372641           10 
  337000   0.72409548   -5.9724139    121.47455  0.030038216  0.030294167           12 
  338000   0.72662251   -5.9890244    121.02832  0.029839329  0.030215508           15 
  339000   0.72694613    -5.992331    121.38016  0.029837796  0.030136498           10 
  340000   0.70762535   -6.0036088    121.81774  0.029857288  0.030058468            7 
  341000   0.71325661   -6.0308871    121.36012  0.029657897   0.02998047            8 
  342000   0.73563981    -6.021925    121.41395  0.029584295  0.029902012            9 
  343000   0.71533404   -6.0215186    121.64461  0.029554084   0.02982338            9 
  344000   0.73491314   -6.0034204    121.90779  0.029531926  0.029744219           12 
  345000   0.72162231    -5.986586    121.77903  0.029415225  0.029665807           22 
  346000    0.7277026   -6.0316046    121.72604  0.029317448  0.029587843           18 
  347000   0.72692478   -6.0234953    122.02274  0.029304213  0.029509825            8 
  348000   0.70600062   -6.0364557    121.96763  0.029206808  0.029431978            6 
  349000   0.70617314   -6.0099042    122.48594  0.029246882  0.029354147            8 
  350000   0.70121157   -6.0229329    122.28776  0.029116132   0.02927659            9 
  351000   0.70563999   -6.0529602    122.31853  0.029040486  0.029199104           12 
  352000   0.69636331   -6.0438134    122.60017  0.029024662   0.02912175           19 
  353000   0.70815858   -6.0870778    121.99042  0.028798494  0.029044118           13 
  354000   0.69868604   -6.0765592    122.60838  0.028862613  0.028967036           15 
  355000   0.71290153   -6.0678714    122.79144  0.028824281  0.028890502            7 
  356000   0.69398727   -6.0460571    122.74268    0.0287319  0.028814876           17 
  357000   0.70170919   -6.0640811    122.76337  0.028656248  0.028739076           12 
  358000   0.68321635   -6.0919561    122.66993  0.028554454  0.028662954           17 
  359000   0.69613987   -6.0767876    122.92271  0.028533591  0.028586559           10 
  360000   0.69439987     -6.10855    122.65731  0.028392896  0.028510343           27 
  361000   0.70524478   -6.0734473    123.03664   0.02840181  0.028434302           15 
  362000   0.69375633   -6.0992604    122.97442   0.02830903  0.028358531           16 
  363000   0.68791468   -6.1029638    122.89713  0.028213298  0.028282624           27 
  364000   0.68504947    -6.090135    123.10091  0.028182442  0.028206898           10 
  365000   0.69175457   -6.0963437    123.13889  0.028113903  0.028131375           10 
  366000   0.68151564   -6.1335279    123.13135  0.028035372  0.028055992           13 
  367000   0.67806895     -6.09637    123.27668  0.027991979  0.027980302           14 
  368000   0.67209878   -6.1168168    123.19335  0.027897044  0.027905269            6 
  369000   0.66601159   -6.1088395      123.358  0.027858626  0.027830391            7 
  370000   0.67277418   -6.1164791    123.46227  0.027806818  0.027755441           11 
  371000   0.65317521   -6.1066677    123.49705  0.027739679  0.027680652           10 
  372000   0.67068366   -6.1117558    123.34699  0.027631495  0.027605866           16 
  373000   0.66208811   -6.1194034     123.1821  0.027520577   0.02753093            9 
  374000   0.67156009   -6.1389672    123.45356  0.027507478  0.027455839           26 
  375000   0.66943064   -6.1407875    123.26289  0.027391754  0.027380351           11 
  376000   0.67179595   -6.1247243    123.41736  0.027353137  0.027304971           32 
  377000   0.65682333   -6.1337391     123.7856  0.027361981  0.027230142            6 
  378000   0.67314288   -6.1544096    123.36696  0.027197301  0.027155461           20 
  379000   0.65959975   -6.1340081    123.89485  0.027241612  0.027081097           11 
  380000   0.66639114      -6.1397    123.79086  0.027147119  0.027007329           12 
  381000    0.6578859   -6.1295075    123.74873  0.027066651  0.026933245           11 
  382000    0.6648483   -6.1592922    123.47707  0.026936534  0.026858901           16 
  383000   0.66925243    -6.151245    123.47382  0.026865496  0.026784488           18 
  384000   0.66529845   -6.1521142    123.68036  0.026840357  0.026710622           25 
  385000   0.66001753   -6.1803286    123.51045  0.026733864  0.026637681           38 
  386000   0.67162448   -6.1819248    123.79046  0.026725055   0.02656378           40 
  387000   0.65243382   -6.1694484     123.9168  0.026683204  0.026489981           15 
  388000   0.64890006   -6.2188454    123.77128  0.026583179  0.026416489           29 
  389000   0.65206522   -6.1928976     123.5041  0.026457604  0.026342486           22 
  390000   0.66176426   -6.2040459    123.78569  0.026449933  0.026268945           22 
  391000   0.64607033   -6.2235552    123.52213  0.026326115  0.026195358           36 
  392000   0.65343295   -6.2287249    123.50475  0.026255262  0.026121172           58 
  393000    0.6392636   -6.2185887     123.7972  0.026250467  0.026047407           34 
  394000   0.64141709    -6.223694    123.42707  0.026105556  0.025973579           48 
  395000   0.64500453   -6.2302213    123.40044  0.026033849  0.025899805           20 
  396000   0.62719033    -6.246647    123.38963   0.02596583  0.025826271           23 
  397000   0.62510105   -6.2277994    123.53865  0.025931707  0.025753097           18 
  398000   0.62990571    -6.239797    123.67948  0.025896038  0.025679888           57 
  399000   0.63395079   -6.2335355    123.85766  0.025868349  0.025607172           35 
  400000   0.63311751   -6.2457055    123.57804  0.025745424  0.025534589           45 
  401000   0.62161628   -6.2405407     124.1368  0.025797339  0.025461916           33 
  402000   0.62867731    -6.254217    123.49962  0.025601082  0.025389677           13 
  403000   0.61136764   -6.2642222    123.80059  0.025599792  0.025317711            9 
  404000   0.62214712   -6.2532365     123.8167  0.025539748  0.025245857           14 
  405000   0.62504326   -6.2443272    124.14675  0.025544598  0.025174595           22 
  406000   0.61441244   -6.2711807    124.15257  0.025482875  0.025103818           12 
  407000     0.617611   -6.2530005    123.76127  0.025340144  0.025032783           19 
  408000   0.61662301   -6.2423959    123.80824  0.025287632  0.024962272            9 
  409000   0.62000379   -6.2516798    123.79978  0.025224078  0.024891549           12 
  410000    0.6223549   -6.2722352    124.10498  0.025224589  0.024820809           12 
  411000   0.61231931    -6.277594    123.95801  0.025133417   0.02475022           16 
  412000    0.6100672    -6.291738    123.66501  0.025013149  0.024679406           16 
  413000   0.60443853   -6.2770506    123.74272  0.024968265   0.02460841           23 
  414000    0.6233548   -6.2765027    123.63525  0.024886322  0.024537603           32 
  415000    0.5967395   -6.2824888    123.91251  0.024882031  0.024467205           14 
  416000   0.59576874   -6.3040961     123.6411  0.024767849  0.024396719           27 
  417000   0.59537924   -6.3122061    123.65534  0.024711298    0.0243263           31 
  418000    0.5895971   -6.3066773    123.46535  0.024614303  0.024256147           13 
  419000   0.60720013   -6.3102496    123.53075  0.024568566  0.024185925           23 
  420000   0.60506122   -6.3370128    123.70947  0.024545529  0.024115787           31 
  421000   0.59528397   -6.3159398    123.80291  0.024505722  0.024045792           30 
  422000   0.59432584   -6.3196347     123.9088  0.024468562  0.023975784           24 
  423000    0.5957432   -6.3330211    123.56972  0.024343917  0.023905848           19 
  424000   0.61373293   -6.3397793    123.56901  0.024286362  0.023836251           32 
  425000   0.59551992   -6.3354652    123.42434  0.024200851  0.023766893           14 
  426000   0.58088051   -6.3223215    123.87804  0.024232794  0.023698148           30 
  427000   0.58506998   -6.3369179    123.54514  0.024111074  0.023629837           19 
  428000   0.59395061    -6.371099    123.77932  0.024100334  0.023561271           19 
  429000   0.59058503   -6.3467417    123.83721  0.024055402  0.023492939           31 
  430000   0.57200734   -6.3426846     124.0132  0.024033566  0.023425018           30 
  431000   0.58512782   -6.3203962    123.99874  0.023975007  0.023357428           26 
  432000   0.58277653    -6.348391    123.74745  0.023871036  0.023289939           51 
  433000   0.57439929   -6.3458125    123.89653  0.023844598  0.023222535           12 
  434000   0.57988872   -6.3641871    123.62004  0.023736567  0.023154977           33 
  435000   0.57277552   -6.3553269    123.90558  0.023736701  0.023087432          104 
  436000   0.58588297   -6.3819579    123.83537   0.02366884  0.023020042           73 
  437000   0.56557816   -6.3923123    123.54692  0.023559672  0.022952892           25 
  438000   0.57472586   -6.3954869    123.64305  0.023524173  0.022885819           13 
  439000   0.56123182   -6.3891771    123.70875  0.023483057  0.022818951           20 
  440000   0.57628841   -6.4034194    123.33262  0.023358452  0.022752327           20 
  441000   0.55834095    -6.406169    123.66312  0.023367937  0.022685783           21 
  442000   0.57268983   -6.3972513    123.76611  0.023334486    0.0226193           46 
  443000   0.57190132   -6.4033965     123.7858  0.023285516  0.022553031           34 
  444000   0.56784519   -6.4204811    123.47745  0.023175197  0.022486913           37 
  445000   0.54692873   -6.4206303     123.6918  0.023163258  0.022420786           28 
  446000   0.55315394   -6.4029751    123.76105  0.023124262  0.022354848           26 
  447000   0.54400711    -6.409556    123.62412  0.023047003  0.022289289           35 
  448000   0.54773018   -6.4262178    123.48625  0.022969912  0.022223704           31 
  449000   0.55399061   -6.4193111    123.32901  0.022889572  0.022158274           34 
  450000    0.5426172   -6.4390142    123.26786  0.022827381  0.022092897           27 
  451000   0.55601255   -6.4484455    123.45214  0.022810817   0.02202787           62 
  452000   0.54820977   -6.4272631    123.57924  0.022783784  0.021963058           59 
  453000   0.53712743   -6.4380205    123.68202  0.022752395  0.021898475           53 
  454000   0.54507704   -6.4528433    123.47226  0.022663777  0.021833792           44 
  455000   0.54890952   -6.4374642    123.52135  0.022622958  0.021769367           52 
  456000   0.54079119    -6.464385    123.45416  0.022561067  0.021705022           50 
  457000   0.54032603   -6.4634125    123.30874  0.022485182  0.021640726           66 
  458000   0.51985917   -6.4596644    123.29753  0.022434049  0.021576757           46 
  459000   0.53222668   -6.4381045    123.48922  0.022419974   0.02151314           29 
  460000    0.5394196   -6.4746875    123.38332   0.02235205   0.02144993           34 
  461000   0.54060372   -6.4485791    123.48475  0.022321899  0.021386819           63 
  462000   0.51884113   -6.4602208    123.19957  0.022222145  0.021323836           51 
  463000   0.52657191   -6.4623023    123.67997  0.022260613  0.021260999           36 
  464000   0.53425714    -6.488266     123.4723  0.022175341  0.021198391           37 
  465000   0.52177852   -6.4695401    123.41317  0.022117056  0.021135911           57 
  466000   0.53204365   -6.5072143     123.3163  0.022052272  0.021073616           37 
  467000   0.52923353   -6.4832425    123.13036  0.021971869  0.021011325           51 
  468000     0.518319   -6.4921438    122.98749  0.021899482  0.020949238           68 
  469000   0.52502842   -6.5120816    123.15438  0.021882442  0.020887044           62 
  470000   0.51855566    -6.505289    122.98041  0.021805037  0.020825127           68 
  471000   0.52396569   -6.5102198    123.13308  0.021785753  0.020763385           54 
  472000   0.51022678    -6.506175    122.94822  0.021706961  0.020701915           41 
  473000   0.51527251   -6.5128995     123.0927  0.021686522  0.020640544           43 
  474000   0.51652516   -6.5079523    122.85906  0.021599694  0.020579339           58 
  475000   0.50772687   -6.5059978    123.16133  0.021607251  0.020518545           34 
  476000   0.50731568   -6.5276847     123.0281  0.021538532  0.020457893           31 
  477000   0.51056179   -6.5151665    123.15673   0.02151585  0.020397398           39 
  478000    0.5010376   -6.5310571    123.15388  0.021470342  0.020337097           36 
  479000   0.49778435   -6.5190518    123.04791  0.021407082  0.020276922           59 
  480000   0.48915728   -6.5393072    122.77692  0.021315437  0.020216989           49 
  481000   0.50688382   -6.5330167    123.03176  0.021315274  0.020157175           81 
  482000   0.50081812   -6.5583277    123.04517  0.021273369  0.020097612           28 
  483000   0.49866057   -6.5502541    122.83088  0.021192354  0.020038134           28 
  484000   0.49689856   -6.5485681    122.93789  0.021166991  0.019978789           30 
  485000    0.5036703   -6.5310013     122.9879  0.021131941  0.019919663           27 
  486000   0.48168108   -6.5726756    122.87926  0.021069832  0.019860614           28 
  487000   0.48580055   -6.5471807    122.79269  0.021011753  0.019801708           79 
  488000   0.48371409   -6.5687168    122.78129   0.02096675  0.019742901           24 
  489000   0.48933132   -6.5681128    122.92397  0.020948189  0.019684254           32 
  490000   0.47826989   -6.5824854    122.71733  0.020870295  0.019625677           27 
  491000   0.48859316   -6.5733774     122.7736  0.020837339   0.01956736           37 
  492000   0.48635802   -6.5761757    122.51658  0.020751453  0.019509238           36 
  493000   0.48003684     -6.58967    122.66661  0.020734721  0.019451237           52 
  494000   0.47707944   -6.5776703    122.62229  0.020685272  0.019393476           49 
  495000   0.47637374   -6.5578398    122.63797  0.020646123  0.019335957           51 
  496000     0.471135    -6.583331    122.81987  0.020635058  0.019278708           48 
  497000   0.47695722   -6.6006583     122.4853  0.020537441  0.019221575           43 
  498000   0.46736476   -6.5794949    122.67947  0.020528692  0.019164483           92 
  499000   0.47154194   -6.5996594    122.57707  0.020470453  0.019107632           81 
  500000   0.47436083   -6.5941145    122.57337  0.020428894   0.01905091           90 
  501000   0.45684277   -6.5839481     122.3453  0.020350183  0.018994352           97 
  502000   0.45942715   -6.5865364     122.8196   0.02038838  0.018938088           68 
  503000   0.46009574   -6.6031352    122.56875  0.020306287  0.018882066           49 
  504000   0.46062965   -6.6032802    122.54593  0.020262224  0.018826191           64 
  505000   0.45595681   -6.6192826    122.49496  0.020213689   0.01877042          171 
  506000   0.46859333   -6.6204123    122.27687  0.020137825  0.018714841          176 
  507000   0.44921136   -6.6042367    122.32096  0.020105352  0.018659401          202 
  508000    0.4530777   -6.6187561    122.52392  0.020099069  0.018604185           96 
  509000    0.4589093   -6.6308813     122.4354  0.020045088  0.018549035          191 
  510000   0.46525202   -6.6154574    122.39698  0.019999507  0.018494165           77 
  511000   0.45768142   -6.6296566    122.30104  0.019944722  0.018439462          133 
  512000   0.45429774   -6.6334074     122.3543  0.019914437   0.01838491          137 
Loop time of 1275.58 on 48 procs for 500000 steps with 4000 atoms

Performance: 67733.851 tau/day, 391.978 timesteps/s
99.4% CPU use with 48 MPI tasks x no OpenMP threads

MPI task timing breakdown:
Section |  min time  |  avg time  |  max time  |%varavg| %total
---------------------------------------------------------------
Pair    | 91.87      | 97.395     | 104.9      |  27.0 |  7.64
Neigh   | 8.8211     | 9.1292     | 9.5714     |   5.8 |  0.72
Comm    | 80.614     | 88.467     | 95.664     |  31.2 |  6.94
Output  | 0.88469    | 0.88559    | 0.91268    |   0.4 |  0.07
Modify  | 1064.2     | 1068       | 1071.5     |   5.0 | 83.73
Other   |            | 11.69      |            |       |  0.92

Nlocal:        83.3333 ave          89 max          74 min
Histogram: 1 0 4 4 6 5 5 7 9 7
Nghost:        2380.44 ave        2401 max        2367 min
Histogram: 3 5 13 4 7 9 3 2 1 1
Neighs:        16355.8 ave       18929 max       13961 min
Histogram: 4 3 8 5 9 4 1 5 6 3
FullNghs:      32711.0 ave       35326 max       28911 min
Histogram: 1 2 4 6 7 2 6 9 10 1

Total # of neighbors = 1570128
Ave neighs/atom = 392.53200
Neighbor list builds = 26834
Dangerous builds = 2

#clear
#
#next RN
#
#jump SELF
Total wall time: 0:21:19
