
units lj                  # Use reduced LJ style units
atom_style atomic         # Uncharged point particles
atom_modify map hash      # Needed for indexing of clusters etc
                          # Used to be able to find where atoms are in relation to each other.

lattice fcc 1.0 spacing 1 1 1
Lattice spacing in x,y,z = 1.5874011 1.5874011 1.5874011
region box block 0 10 0 10 0 10 units lattice
create_box 2 box
Created orthogonal box = (0.0000000 0.0000000 0.0000000) to (15.874011 15.874011 15.874011)
  3 by 4 by 4 MPI processor grid
create_atoms 1 box
Created 4000 atoms
  using lattice units in orthogonal box = (0.0000000 0.0000000 0.0000000) to (15.874011 15.874011 15.874011)
  create_atoms CPU = 0.002 seconds
set type 1 type/fraction 2 0.33 78393
Setting atom values ...
  1342 settings made for type/fraction
mass 1 1.0
mass 2 1.0
pair_style lj/cut  3.5
pair_modify tail  yes
pair_coeff 1  1  1.0  1.0   # Intearaction between 1 and 1 set with epsilon = 1 and sigma = 1
pair_coeff 1  2  1.5  0.8
pair_coeff 2  2  0.5  0.88

write_data data.0
System init for write_data ...
Neighbor list info ...
  update every 1 steps, delay 10 steps, check yes
  max neighbors/atom: 2000, page size: 100000
  master list distance cutoff = 3.8
  ghost atom cutoff = 3.8
  binsize = 1.9, bins = 9 9 9
  1 neighbor lists, perpetual/occasional/extra = 1 0 0
  (1) pair lj/cut, perpetual
      attributes: half, newton on
      pair build: half/bin/atomonly/newton
      stencil: half/bin/3d
      bin: standard
WARNING: Not all mixed pair coeffs generated from mixing. Use write_data with 'pair ij' option to store all pair coeffs. (../write_data.cpp:312)


#############################
#   M E L T   S Y S T E M   #
#############################

velocity all create 2.4 6583654 mom yes dist gaussian # Assign velocities
                                                    # Temperature 2.4, random number seed, zero linear momentum
                                                                                # Gaussian distribution

timestep 0.002   # simulation timestep
thermo 1000       # output thermodynamic data every 1000 steps bf 100

# Define a fix  in this case with index 1 applied to all
# particles in the simulation. This fix is for simulations
# in the anisotropic NPT ensemble. Note that we use the MTK
# correction.
fix 1 all npt temp 2.4 2.4 0.1 iso 5.68 5.68 0.5 mtk yes tchain 5 pchain 5 # Use NPT ensemble
                                                                         # Set temperature and pressure and damping
                                                                         # Numbers of thermostats in chain and in barostat
run 10000          # run for 10000 steps
Per MPI rank memory allocation (min/avg/max) = 3.642 | 3.644 | 3.648 Mbytes
Step Temp E_pair E_mol TotEng Press Volume 
       0          2.4   -6.2616635            0   -2.6625635   -4.0519521         4000 
    1000    2.4369376   -4.9971838            0   -1.3426913    5.7806458    4068.6579 
    2000    2.4110983   -5.0607998            0   -1.4450565    5.5389947    4050.6713 
    3000     2.430202   -5.0520648            0   -1.4076731    5.5966212    4065.0203 
    4000    2.3827346   -5.0413809            0   -1.4681726    5.8981263     4034.329 
    5000    2.3504311   -4.9930288            0   -1.4682636     5.747376     4067.769 
    6000    2.3964501   -5.0294528            0   -1.4356763    5.5554137    4079.0668 
    7000    2.4038495   -5.0404145            0   -1.4355417    5.7511461    4052.5784 
    8000    2.4179659   -5.0122001            0    -1.386158    5.5397897    4082.1377 
    9000    2.4385167    -5.003621            0   -1.3467604    6.0226938    4046.1472 
   10000    2.3926217   -4.9885337            0   -1.4004984    5.6402558     4079.675 
Loop time of 2.47935 on 48 procs for 10000 steps with 4000 atoms

Performance: 696956.001 tau/day, 4033.310 timesteps/s
99.6% CPU use with 48 MPI tasks x no OpenMP threads

MPI task timing breakdown:
Section |  min time  |  avg time  |  max time  |%varavg| %total
---------------------------------------------------------------
Pair    | 1.036      | 1.1405     | 1.2092     |   4.0 | 46.00
Neigh   | 0.20391    | 0.21374    | 0.23354    |   1.2 |  8.62
Comm    | 0.76416    | 0.85166    | 0.9422     |   4.8 | 34.35
Output  | 0.00024102 | 0.00024781 | 0.0003812  |   0.0 |  0.01
Modify  | 0.20838    | 0.25813    | 0.298      |   4.8 | 10.41
Other   |            | 0.01507    |            |       |  0.61

Nlocal:        83.3333 ave          95 max          78 min
Histogram: 7 11 9 3 11 1 2 3 0 1
Nghost:        1620.96 ave        1641 max        1598 min
Histogram: 2 0 1 12 9 6 8 4 2 4
Neighs:        9355.58 ave       10897 max        8350 min
Histogram: 1 8 8 10 9 4 3 2 1 2

Total # of neighbors = 449068
Ave neighs/atom = 112.26700
Neighbor list builds = 907
Dangerous builds = 215

# Equilibrate just above the melting temperature to avoid step fn in T

fix 1 all npt temp 1.25 1.25 0.1 iso 5.68 5.68 0.5 mtk yes tchain 5 pchain 5
run 2000
Per MPI rank memory allocation (min/avg/max) = 3.643 | 3.645 | 3.649 Mbytes
Step Temp E_pair E_mol TotEng Press Volume 
   10000    2.3926217   -4.9885337            0   -1.4004984    5.6402558     4079.675 
   11000    1.2746105   -6.9166721            0   -5.0052344    5.6580978    3267.6264 
   12000    1.2356775    -6.979734            0   -5.1266811    5.7576659    3240.1549 
Loop time of 0.654164 on 48 procs for 2000 steps with 4000 atoms

Performance: 528307.754 tau/day, 3057.337 timesteps/s
99.4% CPU use with 48 MPI tasks x no OpenMP threads

MPI task timing breakdown:
Section |  min time  |  avg time  |  max time  |%varavg| %total
---------------------------------------------------------------
Pair    | 0.25283    | 0.27992    | 0.32776    |   2.7 | 42.79
Neigh   | 0.038039   | 0.040398   | 0.046244   |   0.8 |  6.18
Comm    | 0.21535    | 0.26549    | 0.29424    |   3.3 | 40.58
Output  | 5.2497e-05 | 5.4352e-05 | 6.9394e-05 |   0.0 |  0.01
Modify  | 0.051343   | 0.063623   | 0.073976   |   2.5 |  9.73
Other   |            | 0.004681   |            |       |  0.72

Nlocal:        83.3333 ave          91 max          77 min
Histogram: 3 2 10 6 4 10 5 6 0 2
Nghost:        1889.46 ave        1907 max        1864 min
Histogram: 1 2 2 6 6 9 4 5 7 6
Neighs:        11799.0 ave       13447 max       10469 min
Histogram: 3 3 5 6 13 7 7 3 0 1

Total # of neighbors = 566351
Ave neighs/atom = 141.58775
Neighbor list builds = 143
Dangerous builds = 7

#############################
# L I N E A R  Q U E N C H  #
#############################

# Define solid atoms. This closely follows ten Wolde  Ruiz-Montero and Frenkel  Faraday Discuss  1996  104  93-110
# Compute components of the per-atom q6 vector
compute q6 all orientorder/atom degrees 1 6 components 6 nnn NULL cutoff 1.3 # compute the Q6 parameter.
                                                                             # Use all neighbours within 1.3 unit cell.

# get number of connections
compute coord_number all coord/atom orientorder q6 0.5

# An atom is solid if it has 8 or more connections (of a possible 14)
variable is_solid atom c_coord_number>=8
group solid dynamic all var is_solid    # Must be dynamic to update
dynamic group solid defined

# do clustering
compute cluster solid cluster/atom 1.3 # Create a cluster where all atoms within are solid and max 1.3 units from another member

# define chunks one chunk per cluster
compute clus_chunks solid chunk/atom c_cluster nchunk every compress yes  # Says which atoms are in which chunk

# count the size of each chunk
compute size_chunks solid property/chunk clus_chunks count


# Find the maximum entry in the vector of chunk sizes
variable max_n equal max(c_size_chunks)


# Thermo style which includes this variable
# thermo_style custom step temp pe vol v_max_n

thermo ${N}  # Print the thermo information every 100 steps
thermo 1000  

# Reset the npt fix at a lower temperature (below freezing)
fix 1  all npt temp  ${temp} ${temp}  0.1  iso  5.68  5.68  0.5  mtk yes tchain  5  pchain  5
fix 1  all npt temp  0.45 ${temp}  0.1  iso  5.68  5.68  0.5  mtk yes tchain  5  pchain  5
fix 1  all npt temp  0.45 0.45  0.1  iso  5.68  5.68  0.5  mtk yes tchain  5  pchain  5

dump dmp2 all dcd ${N} traj.dcd
dump dmp2 all dcd 1000 traj.dcd


compute msd all msd com yes
variable twopoint equal c_msd[4]/6/(step*dt+1.0e-6)
fix 9 all vector 10 c_msd[4]
variable fit equal slope(f_9)/6/(10*dt)
thermo_style custom step temp pe c_msd[4] v_twopoint v_fit v_max_n

fix 1 all npt temp 1.25 ${temp} 0.1 iso 5.68 5.68 0.5 mtk yes tchain 5 pchain 5
fix 1 all npt temp 1.25 0.45 0.1 iso 5.68 5.68 0.5 mtk yes tchain 5 pchain 5
run 2000000 # 5000000  # Run for this many steps
Neighbor list info ...
  update every 1 steps, delay 10 steps, check yes
  max neighbors/atom: 2000, page size: 100000
  master list distance cutoff = 3.8
  ghost atom cutoff = 3.8
  binsize = 1.9, bins = 8 8 8
  4 neighbor lists, perpetual/occasional/extra = 1 3 0
  (1) pair lj/cut, perpetual
      attributes: half, newton on
      pair build: half/bin/atomonly/newton
      stencil: half/bin/3d
      bin: standard
  (2) compute orientorder/atom, occasional
      attributes: full, newton on
      pair build: full/bin/atomonly
      stencil: full/bin/3d
      bin: standard
  (3) compute coord/atom, occasional
      attributes: full, newton on
      pair build: full/bin/atomonly
      stencil: full/bin/3d
      bin: standard
  (4) compute cluster/atom, occasional
      attributes: full, newton on
      pair build: full/bin/atomonly
      stencil: full/bin/3d
      bin: standard
Per MPI rank memory allocation (min/avg/max) = 9.815 | 9.821 | 9.824 Mbytes
Step Temp PotEng c_msd[4] v_twopoint v_fit v_max_n 
   12000    1.2356775    -6.979734 9.8489284e-31 6.8395333e-33 8.3333333e+20            4 
   13000    1.2553696    -6.974367   0.50708545 0.0032505476  0.040895909            1 
   14000    1.2304777   -6.9690066   0.94215379 0.0056080581  0.038896959            2 
   15000    1.2716559    -6.983162    1.3698263  0.007610146  0.037663779            2 
   16000    1.2196544   -6.9676486    1.8143401 0.0094496876  0.036988233            2 
   17000    1.2489736   -6.9978289    2.3190521  0.011367902  0.037438183            1 
   18000    1.2538854   -6.9343306       2.8614  0.013247222  0.038347863            2 
   19000    1.2674557   -6.9826039    3.4006863   0.01491529  0.039501311            1 
   20000    1.2921986   -6.9573978    3.8652353  0.016105147  0.040063697            2 
   21000    1.2356911   -6.9892447    4.3163446  0.017128351  0.040373185            1 
   22000    1.2375017   -6.9800525    4.6667124   0.01767694  0.040082185            1 
   23000    1.2292749   -6.9525004    5.1202813  0.018551743  0.039635655            1 
   24000    1.2515472   -6.9614013    5.4914284  0.019067459  0.039141056            1 
   25000     1.252586   -6.9205929    6.0081699  0.020027233  0.038710361            2 
   26000    1.2272057   -6.9558498    6.5793336  0.021087607   0.03863981            3 
   27000    1.2615324   -6.9609097    7.0760573  0.021839683  0.038825791            2 
   28000    1.2301392   -6.9568931    7.5029384  0.022330174  0.038885579            1 
   29000    1.2739892    -7.014904    7.8462873  0.022546802  0.038772454            1 
   30000    1.2391846   -7.0007305    8.2718922  0.022977478  0.038637902            3 
   31000    1.2556781   -6.9903544    8.7443748  0.023506383  0.038490109            2 
   32000    1.2550052   -6.9207224    9.2410902  0.024065339  0.038400905            3 
   33000    1.2357207   -7.0033557    9.6933221  0.024478086  0.038361604            2 
   34000    1.2221961   -6.9879366    10.195037  0.024987836  0.038327043            1 
   35000    1.2499448   -6.9351155    10.666055   0.02539537  0.038370614            1 
   36000    1.2261178    -6.930132    11.097422  0.025688477  0.038363617            1 
   37000    1.2195478   -7.0226889    11.471236  0.025836116  0.038324215            2 
   38000    1.2634187   -6.9585818    11.984826  0.026282513  0.038243327            1 
   39000    1.2195947   -6.9624934    12.353301  0.026395941  0.038175196            2 
   40000    1.2408597   -6.9751505    12.811578  0.026690786  0.038118752            1 
   41000    1.2150153    -6.967833    13.320977  0.027075156  0.038078396            1 
   42000    1.2249371   -6.9772595    13.701359  0.027185236  0.038036705            1 
   43000    1.2306352   -6.9939363    14.234153  0.027585568  0.038024457            1 
   44000    1.2131509   -6.9874315    14.718729  0.027876381  0.038011475            1 
   45000    1.2039874   -6.9604422    15.173214  0.028098544  0.038023284            1 
   46000    1.2352107   -6.9634728    15.670614  0.028388793  0.038043094            2 
   47000        1.243   -7.0137012    16.035537  0.028431803  0.038051405            1 
   48000    1.2474019   -7.0045616    16.526913  0.028692557  0.038056369            1 
   49000    1.2589007   -6.9945819    16.923729  0.028781852  0.038041407            2 
   50000    1.2115517   -6.9957351    17.487824  0.029146373  0.038045912            3 
   51000    1.2382478   -6.9659654    17.959205  0.029345106  0.038065846            2 
   52000    1.2081236   -6.9932847    18.347612  0.029403224   0.03807666            5 
   53000     1.229621   -7.0093197    18.721456  0.029436252  0.038058555            2 
   54000    1.2588758   -7.0097822     19.03372  0.029373024   0.03801485            2 
   55000    1.2397835   -6.9630013    19.560081  0.029636487  0.037976244            2 
   56000    1.2501844   -6.9869559    20.019007  0.029790189  0.037942832            1 
   57000    1.2416152   -7.0060937    20.362633  0.029769931  0.037885502            4 
   58000    1.2147714   -6.9812194    20.915108  0.030050442  0.037844209            1 
   59000    1.2162034   -7.0203115    21.332487  0.030130632  0.037817196            1 
   60000    1.2127899   -6.9989072    21.686067  0.030119538  0.037783065            2 
   61000    1.2112426    -6.964282    22.142788   0.03024971  0.037728531            1 
   62000    1.2166711   -7.0122832     22.59613  0.030371142  0.037694665            2 
   63000    1.2096071   -6.9988729    23.001366  0.030425087  0.037659283            1 
   64000    1.2031892   -7.0433868    23.311576  0.030353615  0.037623896            1 
   65000    1.2038684   -6.9911328    23.797778  0.030509971  0.037571502            1 
   66000     1.264723   -7.0106713    24.338019  0.030729822  0.037539122            2 
   67000    1.1947146   -7.0304172    24.713849  0.030738618  0.037504713            1 
   68000    1.2245283   -6.9803961    25.125339  0.030790857  0.037464758            1 
   69000     1.238077   -7.0352289    25.510922  0.030810291  0.037419439            2 
   70000    1.2314026   -7.0386906    25.903878  0.030837949  0.037371294            2 
   71000    1.2219751   -7.0250696    26.276139  0.030840539  0.037321594            3 
   72000    1.2487944   -7.0335047    26.919426  0.031156742  0.037283842            2 
   73000    1.2182121   -7.0220565    27.331659  0.031200524   0.03724834            1 
   74000    1.2236202   -6.9615236    27.812081  0.031319911  0.037220005            1 
   75000    1.2209245   -7.0496932    28.127711  0.031253012   0.03718773            1 
   76000    1.2123136   -7.0301807    28.462237  0.031208593  0.037152129            2 
   77000    1.2236011   -6.9816334    28.888156  0.031264237  0.037117488            1 
   78000    1.2116594   -6.9988292    29.356741   0.03136404  0.037083307            1 
   79000    1.1971026   -7.0415351    29.805168  0.031440051  0.037051238            1 
   80000    1.2208251   -7.0256367    30.157347  0.031413903  0.037013433            1 
   81000    1.2445745   -7.0234775    30.614615  0.031496517  0.036970462            3 
   82000    1.2425695   -7.0167828    31.147173  0.031653631  0.036940297            5 
   83000    1.2372985   -7.0287156    31.658153  0.031785294   0.03691674            1 
   84000    1.2503588   -7.0259341    32.091703  0.031837007  0.036905551            2 
   85000    1.2293237   -7.0136266    32.619328  0.031979733  0.036896932            1 
   86000    1.2340527   -7.0127923    32.825419  0.031807577  0.036878778            1 
   87000    1.2254955   -6.9490073     33.47551  0.032064665  0.036858519            2 
   88000     1.246408   -7.0222308    33.832981  0.032038808  0.036845542            2 
   89000    1.2245266   -7.0321259    34.202267  0.032024594   0.03683615            1 
   90000    1.2012586   -6.9963659    34.601368  0.032038304  0.036820249       -1e+20 
   91000    1.1928525   -7.0082283    35.044592  0.032092117  0.036796527            1 
   92000    1.2170376   -7.0457925    35.228912  0.031910246  0.036766212            5 
   93000    1.2311267   -7.0700517    35.611563  0.031910003  0.036734778            3 
   94000    1.2384424   -7.0621625    36.083528  0.031988943  0.036706504            1 
   95000    1.2166058   -7.0019141    36.477501  0.031997808  0.036675997            1 
   96000    1.2104137   -6.9967852    36.889172  0.032021851  0.036647147            2 
   97000    1.2176162   -7.0524798    37.320127  0.032061964  0.036615448            1 
   98000    1.2516605   -7.0537558    37.752818  0.032102736   0.03658788            2 
   99000    1.2039436   -7.0435979    38.154844  0.032116872   0.03655984            3 
  100000    1.2188253   -7.0558241    38.566421  0.032138684  0.036530959            3 
  101000    1.2178475    -7.003269    39.265806   0.03239753  0.036511839            1 
  102000    1.2152417   -7.0585576    39.596383  0.032349986  0.036499377            2 
  103000    1.2305999   -7.0564593    40.107008  0.032449036  0.036489493            3 
  104000    1.2157892   -7.0189778    40.553972  0.032495169  0.036473195            1 
  105000    1.2282955   -7.0357752    40.917156  0.032473933  0.036457175            4 
  106000    1.2044656   -7.0485554     41.35243  0.032509772  0.036440401            1 
  107000    1.2088233   -6.9917842    41.815794  0.032566818  0.036426093            2 
  108000    1.2093486   -7.0196969    42.238532  0.032591459  0.036417126            1 
  109000    1.2034004   -7.0126072    42.893419  0.032793134  0.036409257            3 
  110000    1.2079672   -7.0043936    43.440128  0.032909188  0.036402404            1 
  111000    1.2114434    -7.061054    43.605131  0.032736585  0.036398887            1 
  112000    1.1965652    -7.026979    44.140173   0.03284239  0.036395918            2 
  113000    1.2091614   -7.0481136    44.595193   0.03288731  0.036394251            2 
  114000    1.2020479   -7.0362985    44.630297  0.032624486  0.036384963            2 
  115000    1.2188406   -7.0497232    45.073803  0.032662176  0.036366143            2 
  116000    1.1941584   -7.0432663    45.508079  0.032692586  0.036346252            5 
  117000    1.2217014   -7.0908266     45.90119  0.032693155  0.036330966            1 
  118000    1.2023467   -7.0228672    46.069455  0.032534926  0.036308141            1 
  119000     1.188776   -7.0269825    46.586296  0.032623456  0.036280237            1 
  120000    1.2089852   -7.0619634    47.136091  0.032733396  0.036255541            1 
  121000    1.2301854   -7.0626977    47.377056  0.032628826  0.036234541            2 
  122000    1.2036641   -7.0955334    47.799453    0.0326499  0.036211081            1 
  123000    1.2115542   -7.0295659    48.338658  0.032749768  0.036192712            1 
  124000     1.196092   -7.0961539    48.428813  0.032546245  0.036169253            2 
  125000    1.1904177   -7.0583431    48.975028  0.032650019  0.036141717            1 
  126000    1.2244898   -7.0361642    49.457179  0.032709775  0.036116361            1 
  127000    1.2224481   -7.0267226    49.643572  0.032574522  0.036084275            2 
  128000    1.2158898    -7.068798    49.936897     0.032511  0.036047596            2 
  129000    1.2089048   -7.0611886    50.323173  0.032508509  0.036014795            1 
  130000    1.2005813   -7.0630346    50.479731  0.032358802  0.035977026            2 
  131000     1.188849   -7.0701048    50.970127  0.032423745  0.035936764            1 
  132000    1.2071774   -7.0760097    51.383604  0.032439144  0.035898414            1 
  133000    1.2053144   -7.0331533     51.96191  0.032557588  0.035862028            2 
  134000    1.1676227   -7.0939761    52.228326  0.032480302  0.035829845            1 
  135000    1.1823283   -7.0491939    52.593217  0.032464948  0.035797735            2 
  136000     1.176068   -7.0900831    52.980399   0.03246348  0.035762617            1 
  137000    1.1788818   -7.0753281    53.418484  0.032492995  0.035731166            2 
  138000    1.1603597   -7.0559769    53.967958  0.032589347  0.035706073            2 
  139000    1.1773956   -7.0451716    54.430551  0.032632225  0.035683608            2 
  140000    1.1992627   -7.0386128    55.152588  0.032828921    0.0356633            2 
  141000    1.2103613   -7.0474452    55.580116  0.032848768  0.035647497            3 
  142000    1.1739523   -7.0524513     55.96521  0.032843433  0.035630069            2 
  143000     1.205359    -7.072858    56.360019  0.032843834  0.035614635            1 
  144000    1.2052032   -7.1312032    56.628508  0.032771127  0.035600206            1 
  145000    1.2167953   -7.0613273    57.394914  0.032985582  0.035588736            2 
  146000    1.2180802   -7.0716204    57.514686  0.032828017  0.035574051            3 
  147000    1.1931769   -7.0777437    57.878701  0.032811055  0.035559832            1 
  148000    1.2012783    -7.036106    58.437458  0.032903974  0.035546299            1 
  149000    1.2121354   -7.0589983    58.904073  0.032944112  0.035531203            2 
  150000    1.2131054   -7.0238975    59.378343  0.032987968  0.035517078            3 
  151000    1.2183834   -7.0830982    59.695663  0.032944626  0.035503035            5 
  152000    1.1773788   -7.1000114    59.632412  0.032693208  0.035486261            1 
  153000    1.2111208   -7.0844117    60.089233  0.032728341  0.035461735            2 
  154000    1.2146939    -7.091569    60.521985  0.032749992  0.035440571            3 
  155000    1.1893017   -7.0624076    60.952731  0.032770285  0.035420211            1 
  156000    1.2198095   -7.0909964    61.288576  0.032739624  0.035398937            2 
  157000    1.2031334   -7.0937388    61.748838  0.032775391  0.035378119            1 
  158000     1.177186   -7.1109527    61.872651  0.032633255  0.035355867            1 
  159000    1.1866329   -7.0357218    62.886913  0.032959598  0.035334993            2 
  160000     1.172997   -7.0763605    63.168321  0.032900167  0.035318951            1 
  161000    1.2054849   -7.0755664    63.285749  0.032756599  0.035302846            2 
  162000    1.2166225   -7.0999654    63.958304  0.032900362  0.035285761            1 
  163000    1.1853716   -7.1282593    63.978368  0.032708777  0.035267543            1 
  164000     1.187706   -7.0668614     64.85877  0.032956692  0.035251504            3 
  165000    1.1578254   -7.1140595    65.181842  0.032920122  0.035234499            1 
  166000    1.1876832   -7.0466429    65.572017  0.032917679  0.035220311            2 
  167000    1.2181656   -7.0867808    65.703221  0.032786038  0.035204683            1 
  168000    1.2064526    -7.092705    66.266574  0.032870324  0.035189051            2 
  169000    1.1780962   -7.0672773    66.671741  0.032875612  0.035173304            1 
  170000    1.1560156   -7.0730469    66.943559   0.03281547  0.035154256            1 
  171000    1.1855851   -7.0792038    66.758078  0.032533176  0.035130168            3 
  172000    1.1679682   -7.1090213    67.465863  0.032686949  0.035103163            1 
  173000    1.1761679   -7.0926156    67.963499  0.032737716    0.0350821            2 
  174000    1.1927646   -7.0828694    68.459168  0.032786958  0.035061385            1 
  175000    1.2016403   -7.1034146    68.742065  0.032734317  0.035038878            1 
  176000     1.190453   -7.0869687    69.199454  0.032764893   0.03501968            3 
  177000    1.1741639   -7.1175121    69.919055  0.032918576  0.035003346            1 
  178000    1.1916671   -7.0770378    70.186757  0.032858969   0.03499114            1 
  179000     1.174496    -7.086492    70.748327  0.032936837  0.034981504            1 
  180000    1.1735861   -7.0917229    71.210929  0.032968023  0.034973397            2 
  181000    1.1500396   -7.0384973    71.853592  0.033081764  0.034966091       -1e+20 
  182000     1.181429   -7.0854114    72.319997  0.033113552  0.034960151            1 
  183000    1.1991693   -7.1036898    72.748789  0.033127864  0.034953848            1 
  184000    1.1723984   -7.0970111    72.892385  0.033012855  0.034948414            1 
  185000    1.1636721   -7.1151795    73.311687  0.033023282  0.034940298            2 
  186000    1.1612743   -7.0969797    74.151028  0.033221786  0.034932062            1 
  187000     1.178506   -7.0990285    74.117276  0.033029089  0.034925366            4 
  188000    1.1924265   -7.1194488    75.191751  0.033329677   0.03492166            1 
  189000    1.1891614   -7.0688513    75.280266  0.033192357  0.034920263            2 
  190000    1.1586268   -7.1450354    75.825462  0.033256781  0.034920353            3 
  191000    1.1687477   -7.0565922    76.336203  0.033305499  0.034919773            2 
  192000    1.1610198   -7.1372843    76.796369  0.033331757  0.034919579            1 
  193000    1.1788398   -7.0879905    76.997364  0.033245839  0.034921849            2 
  194000    1.1987985   -7.0856235    77.602716    0.0333345   0.03491966            1 
  195000    1.1829448   -7.0869138    78.295196  0.033459485  0.034919657            1 
  196000    1.1602848   -7.1309109    77.976654  0.033153339   0.03491655            1 
  197000    1.1480599    -7.081269     78.33948  0.033138528  0.034909416            1 
  198000    1.1503535   -7.0960787    78.602959  0.033082053  0.034902202            1 
  199000    1.1662323   -7.1213624    78.916877  0.033047268  0.034892621            1 
  200000    1.1882656   -7.1091203    79.371881  0.033071617  0.034882876            4 
  201000    1.1559318   -7.1540858    79.619804  0.033009869   0.03487217            3 
  202000     1.186426   -7.1101438    79.802988  0.032922024  0.034859751            1 
  203000    1.1748603   -7.1224244    80.330397  0.032976353  0.034847269            2 
  204000    1.1645393     -7.14902    80.561289  0.032909023  0.034834002            3 
  205000    1.1970492   -7.1209234    80.996212  0.032925289  0.034820976            1 
  206000    1.1716369   -7.1332753    81.501859  0.032970008  0.034809066            2 
  207000    1.1995859   -7.1661345    81.384381  0.032763438  0.034795854            1 
  208000    1.1574954   -7.0824849    82.309005  0.032976364  0.034781733            2 
  209000    1.1810399   -7.0912366    82.115619  0.032741475  0.034764014            1 
  210000     1.178488   -7.1084655    82.445694  0.032716545  0.034745069            2 
  211000    1.1728437    -7.089012    82.815611  0.032707587  0.034724636            1 
  212000    1.1538201   -7.0982424    83.366561  0.032769875  0.034703331            3 
  213000    1.1696342   -7.1082752     83.44576  0.032647011  0.034683544            2 
  214000    1.1666004   -7.1509944    84.171405  0.032777027  0.034665388            1 
  215000    1.1702363   -7.0897279    84.398946   0.03271277  0.034648373            2 
  216000    1.1460305   -7.1111962    84.788566  0.032711638  0.034630393            1 
  217000    1.1650584   -7.0611657    85.227488   0.03272945  0.034613117            1 
  218000    1.1888824   -7.0924917    85.222551  0.032577428  0.034594477            1 
  219000     1.150438   -7.1101277    85.653059  0.032592488  0.034573726            1 
  220000    1.1586629   -7.1242294    86.004973  0.032577641  0.034552359            1 
  221000    1.1730294   -7.1569339    86.138984  0.032480763  0.034528844            5 
  222000    1.1831593   -7.1543997    86.424483  0.032441623  0.034505309       -1e+20 
  223000    1.1793496   -7.1703238    87.089241  0.032544559  0.034482174       -1e+20 
  224000    1.1843918   -7.2008412    86.895159  0.032327068  0.034460374            3 
  225000     1.187437   -7.1605188    88.027351  0.032602723    0.0344409            1 
  226000    1.1658075   -7.1776714    88.305137  0.032560891  0.034420971            2 
  227000    1.1818023   -7.1559409     88.79343  0.032596707  0.034402841            1 
  228000    1.1564658   -7.1113483    89.606856  0.032751044  0.034386691            1 
  229000      1.16942   -7.1204275    89.392017  0.032529846  0.034369231            2 
  230000    1.1717225   -7.1369591     89.97809  0.032600757  0.034351005            2 
  231000    1.1550664   -7.1323949    90.388604  0.032607721  0.034332225            2 
  232000    1.1816288   -7.1562704    90.349138  0.032452995  0.034311559            1 
  233000    1.1450983   -7.1340914    90.814777  0.032480249  0.034289197            3 
  234000    1.1561028   -7.1421724     90.99788  0.032406652  0.034267561            4 
  235000    1.1512114   -7.1792491    91.534172  0.032458926  0.034247157            1 
  236000    1.1656975   -7.1383196    91.802919  0.032416285  0.034226232            1 
  237000    1.1514585    -7.171285     91.69603  0.032241923  0.034202537            1 
  238000    1.1613287   -7.1606146    91.949752  0.032195291  0.034178101            1 
  239000    1.1637519   -7.1175873    92.342251  0.032197437  0.034151087            1 
  240000    1.1463795   -7.1141518    92.489831  0.032114525  0.034122676            4 
  241000    1.1323652   -7.1027313    92.684168  0.032048467  0.034094023            1 
  242000    1.1563843   -7.1467848    93.067508   0.03204804  0.034066023            2 
  243000    1.1445646   -7.1447008    93.346872  0.032011959  0.034036851            2 
  244000    1.1282069   -7.1756908    93.438121  0.031911926  0.034007383            1 
  245000    1.1578924   -7.1495095    94.043463  0.031987572  0.033978709            1 
  246000     1.179165   -7.1532565    94.414271  0.031983154  0.033950495            1 
  247000     1.178474   -7.1991471    94.473621  0.031873691  0.033920883            1 
  248000    1.1815174   -7.1813665    94.946331  0.031904009  0.033891937            1 
  249000     1.167039    -7.221571    95.091237  0.031824376  0.033861795            1 
  250000    1.1521561    -7.180716    95.465884  0.031821961  0.033831683            1 
  251000    1.1714144   -7.1486831    96.113298  0.031910126  0.033802872            1 
  252000    1.1405893    -7.151519    96.594836  0.031942737   0.03377527            1 
  253000     1.135207   -7.1546063    96.886015   0.03191239  0.033748014            2 
  254000    1.1858678   -7.1771756     97.21431  0.031894459  0.033722046            1 
  255000    1.1526634   -7.1724383    97.883588    0.0319881  0.033696844            1 
  256000    1.1489808    -7.155432    98.189234  0.031962641  0.033673029            2 
  257000    1.1337882   -7.1603621    98.866458  0.032057866  0.033651009            1 
  258000    1.1493719   -7.1368504    99.010544   0.03198015  0.033630007            2 
  259000    1.1495784   -7.1461501    99.656809   0.03206461  0.033609524            1 
  260000    1.1665814   -7.1968647    99.652592  0.031939933  0.033589161            2 
  261000    1.1618385   -7.2100793    100.13728  0.031972313  0.033569574            1 
  262000    1.1592557   -7.2050697    100.42112  0.031940559  0.033547377            1 
  263000    1.1398899   -7.2059474    100.20399  0.031750312   0.03352276            1 
  264000    1.1230271   -7.1927118    100.80651  0.031820237  0.033496853            2 
  265000    1.1431715   -7.1943592    100.59108  0.031632414  0.033470955            1 
  266000    1.1482991   -7.1396578    101.28091   0.03172961  0.033444691            1 
  267000    1.1673745   -7.1724227    101.65403  0.031727224   0.03341903            2 
  268000    1.1276856   -7.1457807     102.5004  0.031872016  0.033394701            1 
  269000    1.1254712   -7.1594751    102.84278  0.031859596   0.03337117            2 
  270000    1.1805789   -7.1396141    103.23064  0.031861308  0.033348854            2 
  271000     1.145493    -7.181228    103.54136  0.031839287   0.03332721            1 
  272000    1.1353553   -7.1748356    103.49105  0.031706817  0.033304443            2 
  273000    1.1417151   -7.1434372    103.98382  0.031741093  0.033281411            2 
  274000    1.1268598   -7.1910243    104.25102  0.031706514  0.033257168            2 
  275000    1.1402645    -7.210592    104.31838  0.031611631  0.033233095            1 
  276000    1.1638479   -7.2190501    104.29973  0.031491463  0.033208053            1 
  277000    1.1466258   -7.1477493    105.27558  0.031671355  0.033183568            3 
  278000    1.1375344   -7.2062955    105.52943  0.031633521  0.033159413            1 
  279000    1.1457463   -7.1700638    105.87286  0.031622717  0.033135886            1 
  280000     1.135952   -7.1741469    106.19244  0.031604892  0.033114005            1 
  281000    1.1098864   -7.1517532    106.77704  0.031665788  0.033091663            2 
  282000     1.166196   -7.2043466    106.66942  0.031521697  0.033070296            1 
  283000    1.1352781   -7.1777663    107.50465  0.031656256  0.033047232            1 
  284000    1.1192153   -7.1890776    107.55344  0.031559108  0.033025738            1 
  285000    1.1497019   -7.1975967    107.90079  0.031549938  0.033003647            1 
  286000    1.1479522   -7.1906809    108.35954  0.031573294  0.032982575            1 
  287000    1.1543934   -7.2029993    108.76132   0.03157994  0.032961258            2 
  288000    1.1606127   -7.1995406    109.14866  0.031582366  0.032941017            4 
  289000    1.1470284   -7.1837204    109.35534   0.03153268  0.032919146            2 
  290000     1.123355   -7.1851178    109.43531  0.031446929   0.03289658            2 
  291000    1.1493204   -7.2125608    109.71571  0.031419162  0.032873907            2 
  292000    1.1440334   -7.1779352    110.04058  0.031404275  0.032852325            2 
  293000    1.1632658    -7.225213    110.35444   0.03138636  0.032829459            1 
  294000       1.1226   -7.2258925    110.93136   0.03144313  0.032806841            1 
  295000     1.152616   -7.2093367    111.09438  0.031382594   0.03278468            2 
  296000     1.141624   -7.1844575    111.61507  0.031423162  0.032762498            2 
  297000    1.1256281   -7.1869701    112.04545  0.031438118  0.032739747            2 
  298000    1.1351537   -7.2007464    112.28303  0.031399057  0.032716882            2 
  299000    1.1215923   -7.1824508    112.60785  0.031384574  0.032695222            3 
  300000    1.1306221   -7.1965602    112.10865  0.031141293  0.032671933            3 
  301000    1.1516262   -7.2007189    112.72759  0.031209188  0.032648857            1 
  302000    1.1367714   -7.2459223    113.02255  0.031187238  0.032626189            1 
  303000    1.1503005   -7.2461587    113.38691  0.031184518  0.032603385            3 
  304000    1.1487667   -7.1682038    114.42734  0.031367143   0.03258101            2 
  305000    1.1199257   -7.1632675    114.60129  0.031311829  0.032559268            2 
  306000    1.1270611   -7.1676178    114.88521  0.031286822  0.032538112            2 
  307000     1.133679   -7.2321796    114.93019  0.031197121  0.032517066            1 
  308000    1.1404817   -7.1985948     115.8395  0.031341856   0.03249605            4 
  309000    1.1179744   -7.2076552    115.73726  0.031212854  0.032474894            2 
  310000    1.1114467   -7.1751449    116.34856  0.031276496   0.03245406            1 
  311000    1.1409558   -7.1912702    116.33076  0.031171157  0.032432623            1 
  312000    1.1703243   -7.2188302    116.61231   0.03114645  0.032410179            1 
  313000    1.1284166    -7.186542    116.52382  0.031023381  0.032387793            2 
  314000    1.1487885   -7.1755155    117.41679  0.031161569  0.032366205            3 
  315000    1.1007726   -7.2627699    117.30197  0.031032266  0.032343721            1 
  316000    1.1136575   -7.2293195    117.82337  0.031071563  0.032321081            2 
  317000    1.1559385   -7.2372516    118.17128  0.031065005  0.032299051            2 
  318000     1.115827   -7.2346125    118.24632  0.030986982  0.032276392            1 
  319000    1.1258399   -7.1834923    118.45989  0.030945635  0.032254679            1 
  320000    1.1374708   -7.2624539    118.39571  0.030832215  0.032231622            2 
  321000    1.1222985    -7.209926    118.99839  0.030892625  0.032207763            1 
  322000    1.1430828   -7.2271697     118.7453  0.030731185  0.032182085            1 
  323000    1.1355047   -7.2103017    119.55354  0.030844565  0.032156433            1 
  324000    1.1178265   -7.2259934     119.4844  0.030731583  0.032132899            1 
  325000    1.1407455   -7.2445991     120.0554  0.030783435  0.032108617            1 
  326000     1.115024    -7.245152    120.23283  0.030734362  0.032083868            1 
  327000    1.1253771   -7.2496347    120.79712  0.030784178  0.032059913            3 
  328000    1.1312933   -7.2668893    120.79484  0.030689745  0.032036094            2 
  329000    1.1218089     -7.22735    121.73028  0.030833405  0.032013433            3 
  330000    1.1092181   -7.2342441    121.87219  0.030775807  0.031990775            3 
  331000    1.1476651   -7.2622894    121.75288   0.03065279  0.031967206            2 
  332000    1.1333002   -7.2411806    122.16094  0.030662887  0.031943085            1 
  333000    1.1377118   -7.2229266     122.4365  0.030639765  0.031919281            2 
  334000    1.0860406   -7.2374518    122.75827  0.030628312  0.031895046            2 
  335000    1.1425038   -7.2736271    122.83647  0.030556335  0.031871322            1 
  336000    1.1100202     -7.26216    123.43165  0.030613009  0.031847728            2 
  337000    1.1163751   -7.2178106    124.14293  0.030698055  0.031824691            1 
  338000    1.0993392   -7.2578111     124.4317  0.030678426  0.031802808            1 
  339000    1.1388232   -7.2343198    124.69962  0.030653789   0.03178043            2 
  340000    1.1491369   -7.2467959    125.20921  0.030688532    0.0317587            2 
  341000     1.110363   -7.2664888     125.1554  0.030585387  0.031737188            1 
  342000    1.1143289   -7.2736108    125.75106  0.030641095  0.031716782            3 
  343000    1.1098315   -7.2619734    126.06047  0.030626937  0.031696125            3 
  344000    1.1255844   -7.2764706    126.91547  0.030745027  0.031676798            3 
  345000    1.1393407   -7.2566985    127.50097  0.030797336  0.031658563            3 
  346000    1.1016581   -7.2784204    127.61231  0.030735142  0.031640645            1 
  347000    1.1051451   -7.2652315    127.65699  0.030657297  0.031621957            1 
  348000    1.1153722   -7.2393051    128.16146  0.030690005  0.031602919            1 
  349000    1.1095904   -7.2852217    127.87843  0.030534487  0.031583861            1 
  350000    1.1003711   -7.2529502    128.91823  0.030694817   0.03156455            1 
  351000    1.0910866    -7.242725    128.99331  0.030625192  0.031545498            2 
  352000    1.1051269   -7.2244862    129.31591  0.030614563  0.031526861            4 
  353000    1.1229139    -7.255216    129.26283  0.030515303  0.031507517            4 
  354000    1.1219811   -7.2764162    129.46905  0.030477648  0.031487842            1 
  355000    1.0956703   -7.2474415    130.20185  0.030563815  0.031468324            2 
  356000    1.1205948   -7.2498551    130.30542  0.030502206   0.03144959            1 
  357000     1.125724   -7.2625331    130.49628  0.030461315  0.031430177            1 
  358000    1.1190933    -7.296795    130.33506  0.030338701  0.031409718            2 
  359000    1.1227935   -7.2196385    130.83126  0.030369373  0.031389292            4 
  360000    1.1494679   -7.2653171    131.22286  0.030375663  0.031368944            2 
  361000    1.1163388   -7.2550931    131.70901  0.030403741  0.031348668            2 
  362000    1.1335404   -7.2187243     132.0394   0.03039581  0.031328475            2 
  363000    1.1258941   -7.2685283    131.78228  0.030253049  0.031307824            3 
  364000    1.1051794   -7.2091902    132.22482  0.030271249  0.031287152            1 
  365000    1.0944683   -7.2848465    132.23064  0.030189645  0.031266327            1 
  366000    1.0872082   -7.2911125    132.58897  0.030188745  0.031245029            1 
  367000    1.0913844    -7.254622    132.85067   0.03016591  0.031223835            1 
  368000    1.0942454   -7.2793124    133.33467   0.03019354  0.031203133            1 
  369000    1.0829065   -7.2577504    133.74815  0.030205093  0.031182908            1 
  370000    1.1102002    -7.230548    134.29744  0.030247172  0.031162946            1 
  371000    1.0840719   -7.2463165    134.64148   0.03024292  0.031142795            2 
  372000    1.1195702   -7.2712833    134.89896  0.030219301  0.031122523            2 
  373000     1.119862   -7.2873457    134.47751  0.030044127  0.031101637            2 
  374000    1.1231596   -7.2354661    135.36363  0.030161237   0.03108086            1 
  375000    1.0961089   -7.2552231      135.372  0.030082666   0.03105969            1 
  376000    1.0877605    -7.265642    135.34012  0.029995594  0.031038226            3 
  377000    1.1093784   -7.3177826    135.48175  0.029947336  0.031016506            1 
  378000    1.0753359   -7.2372911    136.22422  0.030031793   0.03099532            1 
  379000    1.1039015   -7.2588492    136.65051  0.030046286  0.030974131            2 
  380000    1.1195904   -7.2740839    136.30585  0.029891634  0.030953672            1 
  381000    1.1050115   -7.2705507    137.45695   0.03006495    0.0309336            1 
  382000    1.1079726   -7.2792653    137.08886  0.029905948  0.030911725            3 
  383000    1.0957282   -7.2940816     136.9174  0.029790556  0.030889678            1 
  384000    1.0877835   -7.3028954     137.5383  0.029847722  0.030868121            4 
  385000    1.1067917   -7.3055121    137.62348  0.029788631  0.030845814            1 
  386000    1.0925909   -7.3200825    137.84606  0.029759511   0.03082342            1 
  387000    1.1221125   -7.3003581    137.78213  0.029668848  0.030800836            1 
  388000     1.099322   -7.2960661    138.27247  0.029697696  0.030778398            1 
  389000    1.0822542   -7.2482032    139.27901  0.029836978  0.030755989            1 
  390000    1.0879717   -7.2781355    139.36622  0.029779106  0.030734572            1 
  391000    1.1122226   -7.2907504    139.46184  0.029723325  0.030712941            1 
  392000    1.1097906   -7.3042236    139.96428  0.029754311  0.030691412            1 
  393000    1.0950964   -7.2970789     140.1099  0.029709479  0.030670412            2 
  394000    1.0923336   -7.3136945    140.24502  0.029662651  0.030649676            3 
  395000    1.1240683   -7.2860025    141.10216  0.029768388  0.030629136            1 
  396000    1.0983488   -7.2864803    141.48803  0.029774416  0.030609002            1 
  397000    1.1029471   -7.3128088    142.11079   0.02983014  0.030589128            1 
  398000    1.1178557   -7.2599828    142.50617  0.029837976  0.030569883            2 
  399000    1.0773536    -7.337126    142.42218  0.029745652  0.030550847            2 
  400000    1.0976858   -7.2776025    143.32621  0.029859626  0.030531972            1 
  401000    1.0987498    -7.310502    142.51037  0.029615622  0.030512921            2 
  402000    1.0766438   -7.2819433    143.24965  0.029695202  0.030493954            3 
  403000    1.0917557   -7.3188016    143.49889  0.029673055  0.030475679            1 
  404000    1.0936899   -7.3014276    143.76617  0.029654738  0.030456742            1 
  405000    1.0940087   -7.2821791    144.82896  0.029800197   0.03043842            2 
  406000    1.0891826   -7.3000565    144.75584  0.029711791  0.030420963            1 
  407000    1.0780003   -7.2790583    145.56178  0.029803805  0.030402987            2 
  408000    1.1081001   -7.2972461    145.19187  0.029655201  0.030385128            2 
  409000    1.0849433   -7.2765074    145.61858  0.029669638  0.030367197            1 
  410000    1.1072219   -7.3542563     145.3104  0.029534633   0.03034911            1 
  411000    1.1057726   -7.2820302    146.43729  0.029691259  0.030330904            1 
  412000    1.0930485   -7.3175541    145.98556  0.029527823  0.030313127            2 
  413000    1.1247616   -7.3286721    146.07849  0.029475079  0.030294546       -1e+20 
  414000    1.1016626   -7.3472104    146.42567  0.029473767  0.030275834            2 
  415000     1.108803   -7.2808597     147.4788  0.029614218  0.030257523            2 
  416000    1.1012638   -7.2994407    147.01191  0.029449501   0.03024004            1 
  417000    1.1048547   -7.3181757    147.76954  0.029530284  0.030222244            2 
  418000    1.0891795   -7.3147863    148.33535  0.029572439  0.030204035            2 
  419000    1.0772716   -7.3241291    148.37335  0.029509418  0.030186169            2 
  420000    1.0930532   -7.3193142    148.23521  0.029411748  0.030167913            1 
  421000    1.0910149   -7.2841312    148.99804  0.029492882  0.030149675            1 
  422000    1.0946158   -7.2872766    149.38402  0.029499213  0.030132273            1 
  423000    1.0795092   -7.2999879     149.2434  0.029401773  0.030113837            1 
  424000    1.0673159    -7.321246    149.45572  0.029374158  0.030094797            1 
  425000    1.0673885   -7.3192948     150.1445  0.029440097  0.030075966            2 
  426000    1.0926275   -7.3059116    150.13831  0.029369779  0.030056848            1 
  427000    1.0987809   -7.3789466    149.88438   0.02925144  0.030037629            1 
  428000      1.07214    -7.335384    150.66437  0.029334963  0.030018294            3 
  429000      1.09295    -7.308897    150.77998  0.029289041  0.029999097            3 
  430000    1.0739775   -7.3054467    150.89526  0.029243268  0.029980247            2 
  431000    1.1038226   -7.3121327    151.58505  0.029308788  0.029961887            1 
  432000    1.0829838   -7.3246459    151.27195  0.029180546  0.029942961            3 
  433000    1.0798363   -7.3561462    151.29962   0.02911848  0.029923519            2 
  434000    1.0778164   -7.3154039    152.29385   0.02924229  0.029903876            1 
  435000     1.076199   -7.2948133    152.54941  0.029224025  0.029885377            2 
  436000    1.0706068   -7.3309058    152.03705  0.029059068   0.02986635            1 
  437000    1.0898763    -7.301118    152.97713   0.02917184  0.029847167            3 
  438000    1.1042927   -7.3502126     153.0314  0.029115563  0.029827831            1 
  439000    1.0744157   -7.3054896    152.98099  0.029039672   0.02980839            1 
  440000    1.0638613    -7.374511    153.85888  0.029139939   0.02978888            1 
  441000    1.0745596   -7.3509599    153.50445  0.029006888  0.029769421            3 
  442000    1.0639004   -7.3177758    154.36726  0.029103932  0.029750403            1 
  443000    1.1058349   -7.3440219    154.59584  0.029081235  0.029731715            2 
  444000    1.0863645   -7.3415385    155.13754  0.029117405  0.029713752            2 
  445000    1.0929198   -7.3479345    155.30896  0.029084075   0.02969596            1 
  446000    1.0609747   -7.3025493    155.86986  0.029123665  0.029678514            3 
  447000    1.0612466   -7.3448302    156.13691  0.029108298  0.029660295            1 
  448000    1.0648604   -7.3338768    156.69885  0.029147851  0.029642797            2 
  449000    1.0532139   -7.3496776    156.35076   0.02901833  0.029625074            5 
  450000    1.0751448   -7.3541517    156.06309  0.028900572  0.029607048            2 
  451000     1.081709   -7.3401129    156.50321  0.028917814  0.029588376            1 
  452000    1.0961183   -7.3405181    156.89531  0.028926127  0.029569941            2 
  453000    1.0698812   -7.3443721     156.9377  0.028870071  0.029551268            2 
  454000    1.0899905   -7.3902998    157.14995  0.028845438  0.029532446            3 
  455000    1.0520719   -7.3672053    157.65594  0.028874713  0.029513612            1 
  456000    1.0629565   -7.3574637    158.28941  0.028927159  0.029494694            1 
  457000    1.0561008   -7.3785205     158.2183  0.028850893  0.029476023            1 
  458000    1.0493426   -7.3498726     158.7859  0.028891176  0.029457664            2 
  459000    1.0663315    -7.360376    158.52691  0.028781211  0.029439554            1 
  460000    1.0727653   -7.3557774    158.92595  0.028790933  0.029421729            4 
  461000    1.0637043   -7.3769814    158.61444   0.02867217  0.029403612            1 
  462000    1.0719044   -7.3420647    160.12996  0.028883471   0.02938565            1 
  463000     1.066787   -7.3303367    160.24655  0.028842072  0.029368401            3 
  464000    1.0401203   -7.3644605    160.49995  0.028825422  0.029351084            2 
  465000    1.0747794   -7.3497765    161.15258  0.028880391  0.029334098            2 
  466000    1.0910177   -7.3823057    161.00261  0.028791598  0.029317154            3 
  467000    1.0706077   -7.3542102    161.52568  0.028823283  0.029300476            2 
  468000    1.0561388   -7.3585333    162.41563  0.028920162  0.029285186            4 
  469000    1.0806862   -7.4160564     162.5612  0.028884363  0.029269341            2 
  470000    1.0898985   -7.3560532    162.10064  0.028741248  0.029253415            1 
  471000    1.0848124   -7.3539278    162.97705  0.028835289  0.029237698            1 
  472000    1.0701322   -7.3594038    162.91222   0.02876275  0.029221511            4 
  473000    1.0861413   -7.3963295    162.88977  0.028697986  0.029205178            2 
  474000    1.0631106    -7.360763    163.39153  0.028725656  0.029188439            1 
  475000     1.055587   -7.4141867    163.05973  0.028606969  0.029171613            4 
  476000    1.0686347   -7.3423064    163.48653  0.028621591  0.029154432            1 
  477000     1.057317   -7.3850349    163.53019  0.028569216  0.029137309            1 
  478000    1.0551532   -7.3724417      164.194  0.028625174  0.029120306            3 
  479000    1.0808313   -7.3474082    164.77131  0.028665851   0.02910319            1 
  480000    1.0409277   -7.3665933    164.83142  0.028616566  0.029086438            1 
  481000     1.083287   -7.3458808    165.02689  0.028590937  0.029068967            3 
  482000    1.0394078   -7.3977878    164.81876  0.028495636  0.029051278            2 
  483000    1.0463248   -7.3744831    165.07132  0.028480213  0.029033606            2 
  484000    1.0560082   -7.3789862    165.23412    0.0284494  0.029015952            2 
  485000    1.0548029   -7.3603888    166.25378  0.028565942  0.028998623            1 
  486000    1.0453133   -7.3365656    165.93825  0.028453061  0.028982122            1 
  487000     1.060602   -7.3598849    166.56547  0.028501963  0.028965352            2 
  488000    1.0539314   -7.3708205    166.26526  0.028392291  0.028947924            1 
  489000    1.0582545   -7.3827018    167.47464  0.028540328  0.028931058            1 
  490000     1.047357   -7.3801739    166.62043  0.028336808  0.028913903            2 
  491000    1.0261056   -7.3634802    167.24788  0.028385588  0.028896754            1 
  492000    1.0599863   -7.4114945     167.2641  0.028330641  0.028878582            2 
  493000    1.0636735   -7.3931739    167.32424  0.028283341  0.028860314            2 
  494000    1.0556875   -7.3879777    167.51438  0.028258161  0.028842396            1 
  495000    1.0473853    -7.407429    168.27275  0.028328745  0.028824541            1 
  496000    1.0417597   -7.3648788    167.92201  0.028212704   0.02880595            1 
  497000    1.0651918     -7.38097    167.95802  0.028161976  0.028787007            4 
  498000    1.0691042   -7.3621547    168.52318  0.028199997  0.028768458            1 
  499000     1.021685   -7.3402835    168.99588  0.028222424  0.028749697            2 
  500000    1.0751014   -7.3920379    168.47727  0.028079544  0.028731313            2 
  501000    1.0294574   -7.4030659    168.90974  0.028095433  0.028712278            1 
  502000     1.076991    -7.403281    168.99539  0.028053683  0.028693033            1 
  503000    1.0601231   -7.3832357    169.15115  0.028023717  0.028673847            2 
  504000    1.0560494   -7.3922536    169.52067  0.028029211  0.028654702            2 
  505000    1.0689528   -7.3802865    169.64283  0.027993867  0.028635021            2 
  506000    1.0611516    -7.372337    169.68345  0.027945232   0.02861555            3 
  507000    1.0489549   -7.4117363    170.04474  0.027949498  0.028595736            1 
  508000    1.0433041   -7.4031463    170.06448  0.027897717   0.02857596            1 
  509000    1.0500386   -7.4350064    170.11316  0.027850877  0.028555928            1 
  510000    1.0422009   -7.4109943    169.99108   0.02777632  0.028535669            2 
  511000    1.0634989   -7.3984597    170.33808  0.027778552  0.028515859            5 
  512000     1.064372   -7.3916105    170.98406  0.027829437  0.028495503            1 
  513000    1.0405282   -7.3732602    170.87605  0.027757643  0.028475341            1 
  514000    1.0419518   -7.3824675    171.39987  0.027788564  0.028455516            1 
  515000    1.0333454   -7.3926587    172.17129  0.027859432  0.028435871            1 
  516000    1.0607383   -7.4028238    172.00401  0.027778425  0.028415904            2 
  517000    1.0337709    -7.452854    171.89188  0.027706621  0.028395824            1 
  518000    1.0769831   -7.3842931    172.18458  0.027700222  0.028375909            4 
  519000    1.0381553   -7.4027815    172.44755  0.027689073  0.028356076            2 
  520000    1.0555856    -7.445886    173.00722  0.027725515  0.028336141            4 
  521000    1.0411886    -7.416261    173.49184  0.027749815  0.028316708            3 
  522000    1.0661415   -7.3998749    173.50577  0.027698877   0.02829739            2 
  523000    1.0444073   -7.4389735    173.58577  0.027658663  0.028278258            2 
  524000    1.0680228   -7.3726797     174.6825  0.027780296   0.02825973            4 
  525000    1.0379473   -7.4126452    175.17512  0.027805575  0.028241555            1 
  526000    1.0550489   -7.3845743    174.81687  0.027695955   0.02822305            2 
  527000     1.067432   -7.4373229     174.7349  0.027630439  0.028204332            2 
  528000    1.0637805   -7.4121501    174.45536   0.02753399  0.028185151            1 
  529000    1.0175132   -7.4212426     174.7654  0.027530782   0.02816564            2 
  530000    1.0313742   -7.4093842    175.15666  0.027540355   0.02814663            2 
  531000    1.0406144   -7.3711055    175.76177  0.027583455  0.028127664            1 
  532000    1.0223988   -7.4086019    176.30297   0.02761638  0.028108666            1 
  533000    1.0359273   -7.3958899    176.35137  0.027572134  0.028089768            6 
  534000    1.0472807     -7.41169    176.87341  0.027601967  0.028071106            4 
  535000    1.0432054   -7.4252175    176.35197  0.027469155  0.028052153            3 
  536000    1.0236036   -7.3927015    176.77692  0.027483974  0.028032928            1 
  537000    1.0175526   -7.4037949    176.95029  0.027459698  0.028013912            2 
  538000    1.0385921   -7.4164112    176.95481  0.027409357  0.027994591            2 
  539000    1.0480173   -7.4453159    176.72968  0.027323699  0.027975142            1 
  540000    1.0355529   -7.4207559    176.67433  0.027264557  0.027955977            2 
  541000    1.0450455   -7.4374911    177.42156  0.027329261  0.027937076            2 
  542000    1.0221184   -7.4207028    177.74908  0.027329195  0.027917747            2 
  543000    1.0264141   -7.4340594    178.07722  0.027329223  0.027897887            2 
  544000    1.0398533   -7.4268889    178.32103  0.027316335    0.0278784            2 
  545000    1.0319732   -7.3927397    178.71504  0.027326459  0.027858828            2 
  546000    1.0400629   -7.4219365     178.5725  0.027254655  0.027839141            2 
  547000    1.0420442   -7.4688316    178.69012  0.027222748  0.027819569            1 
  548000    1.0244801   -7.4757586    179.06034   0.02722937  0.027800596            2 
  549000    1.0562057   -7.3993987     180.2984  0.027367699  0.027781414            1 
  550000    1.0230278   -7.4365463    179.82659  0.027246453  0.027762414            1 
  551000    1.0508216   -7.4305751    180.01954  0.027226186  0.027743428            2 
  552000    1.0326248   -7.4180823    180.19606  0.027203512  0.027724361            1 
  553000    1.0152092   -7.4495808    180.33937  0.027175915  0.027705528            3 
  554000    1.0300704   -7.4186562    180.87874  0.027207994  0.027686662            1 
  555000    1.0410015   -7.4629644    180.78534  0.027144946  0.027667568            1 
  556000    1.0435786   -7.4746589    180.12696  0.026997446  0.027648073            1 
  557000    1.0273089   -7.4469992    180.88365  0.027062186   0.02762854            1 
  558000    1.0263244    -7.444995    181.19361  0.027059977  0.027609341            3 
  559000    1.0396071   -7.4637928    181.46697  0.027052321  0.027589774            1 
  560000    1.0238121    -7.445051    182.10991   0.02709969  0.027570356            3 
  561000    1.0179562   -7.4293914     182.0891  0.027048292  0.027550926            3 
  562000    1.0324558   -7.4158354    182.14081  0.027007831  0.027531839            3 
  563000    1.0124046   -7.4227813    182.29388  0.026982517  0.027512467            1 
  564000    1.0067892   -7.4682052    182.07549  0.026902406  0.027492896            2 
  565000     1.044279   -7.4782493    181.96831  0.026838984  0.027472953            2 
  566000    1.0318244   -7.4681654    182.37923  0.026852065  0.027452728            2 
  567000    1.0393649   -7.4572844    182.49788  0.026822146  0.027432726            2 
  568000    1.0289988   -7.4449651    183.09711  0.026862839  0.027412957            3 
  569000    1.0109687   -7.5106747    182.66988  0.026753057  0.027392787            1 
  570000    1.0563442   -7.4556083    182.98741  0.026752545  0.027372674            2 
  571000    1.0102346    -7.444167    183.66613  0.026804747  0.027352551            1 
  572000    1.0484311   -7.4668234     183.7293  0.026767089  0.027332302            4 
  573000    1.0180106   -7.4680056    183.03405  0.026619262  0.027311686            1 
  574000    1.0226239   -7.4336108    183.65996  0.026663758  0.027290949            4 
  575000    1.0120459    -7.436813    183.62972  0.026613002   0.02727058            2 
  576000    1.0116148   -7.4609566    183.75792  0.026585347  0.027250181            1 
  577000    1.0332273   -7.4102051    184.22246  0.026606364  0.027229239            1 
  578000    1.0190635   -7.4910206    183.95277  0.026521449  0.027208166            2 
  579000    1.0503765   -7.4374047    184.71096  0.026584767  0.027187236            1 
  580000    1.0523046   -7.4765647    184.97595  0.026577005  0.027166675            1 
  581000    1.0279968   -7.4693481    185.09495   0.02654833  0.027146151            3 
  582000    1.0086346   -7.4811642    185.65305  0.026582625  0.027125752            3 
  583000    1.0062207   -7.4736573    184.82986  0.026419363  0.027105113            2 
  584000    1.0200931   -7.4599294    185.64125  0.026489905  0.027084382            2 
  585000    1.0260972   -7.4386491    185.60811  0.026439901  0.027063542            2 
  586000    1.0256594   -7.4548917    186.00432  0.026451127   0.02704283            1 
  587000    1.0314504   -7.4682553    186.17261  0.026429956  0.027022041            2 
  588000    1.0335283    -7.475494    186.20758  0.026389963  0.027001155            3 
  589000    1.0172613    -7.501489    186.14049  0.026335667  0.026980487            2 
  590000    1.0183611   -7.4558979    187.11942  0.026429296  0.026959992            4 
  591000     0.989111   -7.4832592    187.33039  0.026414325  0.026939711            2 
  592000    1.0227613    -7.471573    186.99238  0.026322125  0.026919375            2 
  593000    1.0107878   -7.4600768    187.68985  0.026375752  0.026899505            3 
  594000     1.032298   -7.4798215    188.26338   0.02641181  0.026879975            2 
  595000    1.0247226     -7.49751     188.4312  0.026390925    0.0268603            2 
  596000    1.0067128   -7.4680987    188.93315  0.026416828  0.026840486            5 
  597000    1.0269144   -7.4461425    188.55809  0.026320225  0.026820932            7 
  598000    1.0196562    -7.488308    188.46467  0.026263192  0.026801488            3 
  599000   0.99803138   -7.4840618    188.78436  0.026263822  0.026782052            3 
  600000    1.0110663   -7.4891344    188.51517  0.026182662  0.026762277            2 
  601000    1.0043695   -7.4683999    188.71167  0.026166343  0.026742149            6 
  602000    1.0045114   -7.4997991    188.73247  0.026125757  0.026722032            3 
  603000    1.0220318     -7.52655     189.1669  0.026142468  0.026701483            2 
  604000    1.0133317   -7.4926419     189.0054  0.026076904  0.026681395            1 
  605000    1.0074849   -7.5501742     189.7267  0.026133154  0.026661521            2 
  606000    1.0018375   -7.4838799    190.35241  0.026176073   0.02664183            2 
  607000   0.96671276   -7.4652206    190.53627  0.026158192   0.02662225            5 
  608000     1.034566   -7.4807698    190.90553   0.02616578  0.026602734            2 
  609000    1.0177376   -7.4817196    191.21452  0.026165096    0.0265836            2 
  610000   0.99558848   -7.4775157    190.63838  0.026043495  0.026564136            3 
  611000    1.0074922   -7.4676356    190.54595  0.025988264  0.026544661            2 
  612000   0.98378287   -7.4498648    191.16049  0.026029478  0.026525071            1 
  613000    1.0339342   -7.4633241    191.49712  0.026032778  0.026505053            2 
  614000    1.0119373   -7.4352232    191.53904  0.025996069  0.026485247            2 
  615000    1.0056087   -7.4759509    191.57979  0.025959321  0.026465576            3 
  616000    1.0139124   -7.4609123     191.7012  0.025933604  0.026445631            1 
  617000    1.0269836   -7.4635571    192.65193   0.02601998  0.026425918            3 
  618000    1.0171152   -7.4996077    192.16036  0.025911591  0.026406361            1 
  619000    1.0018707   -7.5321233     192.3148  0.025890522  0.026386357            1 
  620000   0.98365262   -7.4875463    192.36657  0.025855722  0.026366608            4 
  621000   0.98400699   -7.4938007    192.41421   0.02582048  0.026346905            2 
  622000     1.029152    -7.500778     192.4497  0.025783722  0.026327381            1 
  623000    1.0025979   -7.4665148    193.51671   0.02588506  0.026307668            3 
  624000    1.0018636   -7.4965124    193.37249  0.025824317  0.026288049            2 
  625000    1.0212923   -7.4993366    192.90315  0.025720419  0.026268235            2 
  626000    1.0201715   -7.4944324    192.99451  0.025691494  0.026248114            3 
  627000    1.0004174   -7.4958659     193.7711  0.025753734  0.026228664            2 
  628000   0.98752548   -7.5166325    193.72738  0.025706924  0.026208625            6 
  629000   0.99439042   -7.4851239    194.07569  0.025712201   0.02618863            2 
  630000    1.0072592   -7.5533244    193.54192  0.025600783   0.02616847            1 
  631000   0.99420874   -7.4938805    194.26185  0.025655289  0.026148106            2 
  632000    0.9813917   -7.5470738    193.64965  0.025533973   0.02612766            1 
  633000   0.98932641   -7.5006107    194.53915  0.025610737  0.026107321            2 
  634000    1.0016614   -7.5295924    194.69832  0.025591261  0.026086989            2 
  635000    1.0104562   -7.4935038    195.42842  0.025646775   0.02606721            2 
  636000   0.98008461   -7.4759577    195.55043  0.025622436  0.026047435            2 
  637000    1.0138855   -7.5298314    196.25501  0.025674386  0.026027922            1 
  638000   0.99832571    -7.503515    195.48207  0.025533186  0.026008435            1 
  639000    1.0145982   -7.5579485    195.60721  0.025509548  0.025989122            4 
  640000    1.0092664   -7.4887013    195.97876  0.025518068  0.025969568            1 
  641000   0.99698547   -7.4885516    196.36136  0.025527998  0.025950095            3 
  642000   0.98402136   -7.5285269    196.49509  0.025505593  0.025930451            1 
  643000    1.0043123   -7.5465058    196.48058  0.025464046  0.025910883            3 
  644000   0.99569735   -7.5178663    196.72015  0.025455506  0.025891513            3 
  645000   0.98301032   -7.5153518    196.57967   0.02539789  0.025872223            1 
  646000   0.99661822   -7.5225774     196.9231  0.025402877  0.025852495            2 
  647000    1.0051274   -7.5648537    196.79788  0.025347486  0.025832822            1 
  648000    1.0145426   -7.5381521    197.45605  0.025393011  0.025813571            4 
  649000   0.99349113   -7.5241523    197.60144  0.025372553  0.025794365            1 
  650000   0.98109378   -7.5396953     197.9565  0.025379038  0.025775117            1 
  651000    1.0051821   -7.5371052    197.83722  0.025324784  0.025755941            3 
  652000   0.99304788   -7.5242952     198.4773  0.025367753  0.025737069            2 
  653000   0.98311023   -7.5152882    199.04633  0.025401523  0.025718242            2 
  654000   0.99762721    -7.525768    199.32695  0.025398439  0.025699704            3 
  655000   0.96788871   -7.5329316     198.9374  0.025310102  0.025681209            1 
  656000   0.97968084   -7.5359882     199.4159  0.025332304  0.025662497            1 
  657000   0.99273915    -7.511202    199.57061  0.025313371  0.025643666            2 
  658000   0.98141348   -7.5612447    199.39731  0.025252953  0.025625215            2 
  659000   0.99726526   -7.5483634    199.94502  0.025283892   0.02560649            1 
  660000   0.99094508   -7.5529904    200.28606  0.025288644  0.025587898            3 
  661000    0.9779313   -7.5280329    199.72859  0.025180105  0.025569252            2 
  662000    1.0018947   -7.5691985     199.6267  0.025129242  0.025550127            1 
  663000    1.0056859    -7.574973    200.09249  0.025149886  0.025531042            1 
  664000   0.98952741   -7.5589287    200.17076  0.025121832  0.025512206            2 
  665000   0.99514529   -7.5369637    200.62823  0.025141382  0.025493099            3 
  666000   0.99528905   -7.5340705    200.57186  0.025096579  0.025474104            3 
  667000   0.99524515   -7.5341589    201.20775    0.0251384  0.025455466            3 
  668000   0.98603945   -7.4925474    201.38011  0.025122269  0.025437029            3 
  669000   0.98911731   -7.5450536    201.20383  0.025062759  0.025418621            3 
  670000   0.97038424   -7.5412416    201.70822  0.025088087  0.025400085            2 
  671000   0.99956619   -7.5452176    201.93273  0.025078581  0.025381466            2 
  672000   0.98931115   -7.5678839    201.69292  0.025011523  0.025362965            1 
  673000   0.97958522   -7.4968937    202.52626  0.025077546  0.025344466            3 
  674000   0.98861442   -7.5135739    202.43201  0.025028686  0.025326066            3 
  675000    0.9731958   -7.4978117    203.51273  0.025125029  0.025307962            2 
  676000    1.0016792   -7.5408036     203.7468  0.025116716  0.025290188            3 
  677000    0.9810193   -7.5156952    203.49545  0.025048677  0.025272427            2 
  678000   0.97276628   -7.5541429    204.00393   0.02507423  0.025254766            2 
  679000   0.97386317   -7.5740375     203.8485  0.025018225  0.025237091            2 
  680000   0.99375863     -7.54726    205.16536  0.025142814  0.025219792            4 
  681000   0.99323179   -7.5498776    204.95272  0.025079873   0.02520291            2 
  682000   0.97882938   -7.5623805    205.52717  0.025113291  0.025186285            5 
  683000   0.96457684   -7.5815505    205.26243   0.02504422  0.025169564            4 
  684000   0.99081075   -7.5889874     205.4572  0.025031335  0.025152716            2 
  685000   0.97821782   -7.5548522    206.10735  0.025073887  0.025136025            1 
  686000   0.99522745   -7.5218556     206.1095  0.025037597  0.025119611            2 
  687000   0.96410909   -7.5657169    206.56619  0.025056549  0.025103273            2 
  688000   0.98954596   -7.5826271    206.87262  0.025057246  0.025087063            2 
  689000   0.97236488   -7.5375205    206.45218  0.024970027  0.025070556            1 
  690000   0.98090208   -7.5376333    207.08307  0.025010033  0.025054311            1 
  691000   0.98162162   -7.5509626    207.10022  0.024975906  0.025038163            6 
  692000   0.97136605   -7.5291606    207.64637  0.025005584   0.02502204            2 
  693000   0.98659249   -7.5480744    207.31726  0.024929926  0.025005746            1 
  694000   0.98587701   -7.6174868    207.02494  0.024858902  0.024989529            2 
  695000    0.9614947   -7.5849577    207.38553   0.02486637  0.024973143            2 
  696000   0.95729872   -7.5601234    208.15689  0.024922999  0.024956642            1 
  697000   0.97032102    -7.589822     208.2623  0.024899844  0.024940327            1 
  698000   0.97306208   -7.5637953     207.9449  0.024826278  0.024924105            2 
  699000    0.9882646   -7.5622893    208.49194  0.024855978  0.024907778            1 
  700000   0.95414404   -7.5788844    208.95893  0.024876064  0.024891389            5 
  701000   0.97102908   -7.5936546    208.73601  0.024814076  0.024875052            3 
  702000   0.96887165   -7.5475685    209.46625  0.024865414  0.024859226            2 
  703000   0.97327513    -7.581475    209.05453  0.024781238  0.024843116            2 
  704000   0.97086407    -7.589722    209.70894  0.024823501  0.024826774            1 
  705000   0.98296924   -7.5354077    210.18403  0.024844448  0.024810888            2 
  706000   0.95187551    -7.564501     210.2108  0.024812418   0.02479499            2 
  707000   0.99159504    -7.591222    209.88291  0.024738674  0.024778822            1 
  708000   0.97911932   -7.5881507    210.10322  0.024729663  0.024762629            1 
  709000   0.97259323   -7.5979745    209.98929  0.024681392  0.024746296            2 
  710000   0.97681104   -7.5867821    210.58134   0.02471612  0.024730046            2 
  711000   0.98493735   -7.5963012    210.54806  0.024677456  0.024713782            1 
  712000   0.98690913   -7.5829469    210.99573  0.024695193  0.024697465            2 
  713000   0.96028694   -7.5528371    211.43079  0.024711406  0.024681339            2 
  714000   0.97611397   -7.5699896    210.92374  0.024617617  0.024665314            3 
  715000    0.9393344   -7.5782844    211.14555  0.024609038  0.024649018            1 
  716000   0.97000317   -7.5733921    211.31366  0.024594235  0.024632898            2 
  717000   0.97794578   -7.5607998    211.72081  0.024607253  0.024616877            2 
  718000   0.97076687   -7.5566833    211.90282  0.024594107  0.024601046            1 
  719000   0.95671823   -7.5909796    212.25364  0.024600561  0.024585113            1 
  720000   0.96435655   -7.5920795    211.73668   0.02450656  0.024569052            2 
  721000   0.97657731   -7.5784645    212.11943  0.024516808  0.024553064            1 
  722000   0.95578814   -7.5808683    212.55365  0.024532969  0.024537179            1 
  723000   0.98391312   -7.6155091    211.98329  0.024433297  0.024520983            2 
  724000   0.96613882   -7.6072336    212.28291  0.024434036  0.024504744            1 
  725000   0.95407032   -7.5959107    212.00807  0.024368744  0.024488416            1 
  726000   0.98096179   -7.6205944     212.5516  0.024397567   0.02447195            1 
  727000   0.97064767   -7.5840494    212.55857  0.024364806  0.024455443            3 
  728000   0.96830466   -7.6201869    212.68564  0.024345884  0.024438774            2 
  729000   0.96333805   -7.5662568    213.17603  0.024368544  0.024422233            1 
  730000   0.95262559   -7.5965056    212.92233  0.024306202  0.024405862            2 
  731000   0.94463088   -7.5858725    213.35294  0.024322041  0.024389555            3 
  732000   0.95404729    -7.616583    212.99638  0.024248221  0.024373085            1 
  733000   0.93346257   -7.5970219    213.56695  0.024280008  0.024356313            2 
  734000   0.96978245   -7.5967714    213.81636  0.024275245  0.024339709            1 
  735000   0.96289068   -7.5988739    213.87542  0.024248914  0.024323206            1 
  736000   0.96225653   -7.6418683     213.8092  0.024208469  0.024306365            1 
  737000   0.96112748   -7.6081735     214.2885  0.024229817  0.024289642            2 
  738000    0.9528386    -7.634414    213.54461  0.024112986  0.024272747            1 
  739000   0.97145972   -7.6164531    214.43816  0.024181119  0.024255944            1 
  740000   0.96312394   -7.6099999    214.20176  0.024121819  0.024239096            2 
  741000   0.96541449   -7.6188496    214.49864  0.024122654  0.024222385            3 
  742000   0.97967506   -7.6273313     214.5106  0.024091487  0.024205574            3 
  743000   0.96179023   -7.5969723    215.35136   0.02415336  0.024189052            2 
  744000   0.95368853   -7.6341175    215.38936  0.024125152  0.024172633            8 
  745000   0.95593948    -7.606557    215.90426  0.024150364  0.024156179            2 
  746000   0.94149863    -7.639677    215.69528  0.024094647  0.024139602            2 
  747000   0.95760756   -7.6372051    216.14463   0.02411252  0.024122965            1 
  748000   0.96992511   -7.6264688     215.7766  0.024039283  0.024106355            2 
  749000   0.94967708   -7.6491145    215.81912  0.024011918  0.024089662            2 
  750000    0.9633501    -7.627164     216.1251    0.0240139  0.024072968            1 
  751000   0.95892674   -7.6446731    215.94171  0.023961575   0.02405641            2 
  752000   0.97009556   -7.6227344    216.66234  0.024009568  0.024039979            1 
  753000   0.96377684   -7.6560101    217.14137  0.024030696  0.024023875            2 
  754000    0.9656291   -7.6411648    216.57064  0.023935748  0.024007516            2 
  755000    0.9532312   -7.6300402    217.21031  0.023974647  0.023991281            1 
  756000   0.95888179    -7.674324     216.6856  0.023885097  0.023975003            2 
  757000   0.96851714   -7.6110912    217.49999  0.023943196  0.023958717            1 
  758000   0.94121753   -7.6221046    217.27766  0.023887166  0.023942518            2 
  759000   0.94819826    -7.625786     217.6795  0.023899814  0.023926196            2 
  760000   0.93355816   -7.6688911     218.1415  0.023919024  0.023910016            2 
  761000   0.92578909   -7.6245569    217.99331  0.023871365  0.023894192            2 
  762000   0.95920685    -7.675475     218.1881  0.023861341   0.02387813            1 
  763000   0.94733984   -7.6230706      218.733   0.02388958  0.023861967            1 
  764000   0.94284636   -7.6155154    218.13153  0.023792706   0.02384591            5 
  765000   0.96471384   -7.6111047    218.06216  0.023754048  0.023829706            2 
  766000   0.95221141   -7.6486154    218.61445  0.023783121  0.023813531            3 
  767000   0.95595631   -7.5988718    219.09573  0.023804404  0.023797438            2 
  768000   0.94434795   -7.6415673    219.58159  0.023826127  0.023781134            2 
  769000   0.93760701   -7.6409551    218.89404  0.023720637  0.023764772            3 
  770000   0.93727945   -7.6597456    219.04839  0.023706536  0.023748597            1 
  771000   0.96155791   -7.6583828    218.74917  0.023643447  0.023732395            3 
  772000   0.95777991   -7.6745718    219.18622  0.023659997  0.023716108            2 
  773000   0.93387697    -7.660772    219.97513  0.023714438  0.023699996            2 
  774000   0.94542891   -7.6767844    219.47145   0.02362957   0.02368391            2 
  775000   0.93667166   -7.6628055    219.64467  0.023617706  0.023667851            1 
  776000   0.93644215   -7.6407978    220.38377  0.023666642  0.023651796            3 
  777000   0.92952268   -7.6686254    220.50751  0.023649454  0.023635801            1 
  778000   0.92603592   -7.6564524    220.69503  0.023639142  0.023620058            1 
  779000   0.95297664   -7.6552042    220.64117  0.023603035  0.023604218            1 
  780000   0.92349675   -7.6570057    221.19606  0.023632058    0.0235883            2 
  781000   0.96278575   -7.6861283    220.28146   0.02350421  0.023572331            2 
  782000   0.91760315   -7.6622458      221.301    0.0235828  0.023556328            2 
  783000   0.93627919   -7.6584792    221.51011  0.023574937  0.023540372            1 
  784000   0.94079921   -7.6893118     220.7663  0.023465805  0.023524387            3 
  785000   0.95102212   -7.6852006    221.07289   0.02346846  0.023507914            2 
  786000    0.9306757   -7.6366718    221.46795  0.023480486  0.023491637            6 
  787000   0.94643388    -7.684419    220.82223  0.023382277  0.023475374            2 
  788000   0.93102935   -7.6724303    221.39845  0.023413542  0.023459004            1 
  789000   0.93291437   -7.6744967    221.59416  0.023404538  0.023442982            2 
  790000    0.9390811   -7.6787351    222.35156  0.023454806  0.023426932            2 
  791000   0.92875646   -7.7165412    222.13098  0.023401916   0.02341079            2 
  792000   0.93847721   -7.6711598    222.43859  0.023404734  0.023394695            2 
  793000   0.94330263   -7.6692777    222.65223   0.02339767  0.023378737            3 
  794000   0.94898739   -7.6797564    223.05753   0.02341074  0.023362942            2 
  795000   0.93164209   -7.6942918    222.73258  0.023347231  0.023347178            4 
  796000   0.93306219   -7.6467806    223.46647  0.023394731  0.023331542            2 
  797000   0.92923503   -7.6757395    223.27506  0.023345364   0.02331608            1 
  798000   0.93083842   -7.6485673    223.54637  0.023344441  0.023300609            7 
  799000   0.93762099   -7.6489759    224.40352  0.023404622  0.023285134            2 
  800000   0.93349808   -7.6918499    224.36278  0.023371123   0.02326961            1 
  801000   0.94003672    -7.684826    224.04808  0.023309205  0.023253874            3 
  802000    0.9285939   -7.7051146    224.22319  0.023298337  0.023238075            1 
  803000   0.92994255   -7.6753754    224.14932  0.023261656  0.023222358            3 
  804000    0.9379927   -7.6847696    224.06628  0.023224117  0.023206631            3 
  805000   0.93943193   -7.6863478    224.50745  0.023240937  0.023190744            3 
  806000   0.91673036   -7.6770482    224.68402  0.023230358   0.02317483            3 
  807000   0.95700259   -7.6787933     224.7185  0.023205132  0.023158949            1 
  808000   0.92243442    -7.695275    224.81345  0.023186206  0.023143222            2 
  809000   0.94657791   -7.6625987    224.86675  0.023163036  0.023127618            2 
  810000   0.93596872   -7.6997508    225.53587  0.023203279  0.023112137            2 
  811000   0.94375874   -7.7242477    225.30815  0.023151269  0.023096429            2 
  812000   0.92131707   -7.6959665    225.83134  0.023176451  0.023080769            4 
  813000   0.93993556   -7.6680431    225.70573  0.023135068   0.02306547            4 
  814000   0.92669352   -7.6787322    225.89202  0.023125719   0.02305005            2 
  815000   0.93251163   -7.6730783    226.18415  0.023127214  0.023034818            3 
  816000   0.90841914   -7.6827188    225.85411  0.023065166  0.023019271            5 
  817000   0.92223294   -7.6724048    226.20731  0.023072961  0.023003645            2 
  818000   0.91629136   -7.7182173    226.98514  0.023123995  0.022988001            3 
  819000   0.92868524   -7.6967071    226.68427  0.023065148   0.02297231            1 
  820000   0.93367064     -7.67914    226.49113  0.023017391  0.022956623            2 
  821000   0.91996511   -7.6984857    226.32786  0.022972783  0.022940923            2 
  822000   0.94149318   -7.6683032     226.7644  0.022989092   0.02292533            1 
  823000   0.91511085   -7.6746435    227.32167  0.023017585  0.022909914            2 
  824000   0.92414938   -7.6894085    227.17196  0.022974511  0.022894658            2 
  825000    0.9450772   -7.6740124    227.64162  0.022994103  0.022879482            3 
  826000   0.92814597   -7.7165107    227.41402  0.022943303  0.022864272            1 
  827000   0.93421897   -7.7126367    227.50538  0.022924766  0.022848616            2 
  828000   0.91787564   -7.6921534    227.49925  0.022896462  0.022832884            1 
  829000   0.92788947   -7.6900627    227.36137  0.022854983  0.022817253            2 
  830000   0.91967014   -7.7253463    227.43879   0.02283522   0.02280158            2 
  831000   0.92798035   -7.6981432    227.69376  0.022833309  0.022785873            2 
  832000   0.91770488   -7.7506093    227.79052  0.022815557  0.022770402            1 
  833000   0.92629853   -7.7149183    228.08802  0.022817929  0.022754931            2 
  834000   0.92689405   -7.7114176    227.90541  0.022772323  0.022739345            3 
  835000   0.93306796   -7.7077782    228.31914  0.022786341  0.022723769            1 
  836000     0.934633   -7.7128835    227.94668  0.022721958  0.022708236            2 
  837000   0.92624673   -7.7204742    227.90863  0.022691023  0.022692747            7 
  838000   0.92762081    -7.717625    229.36802  0.022809071  0.022677173            6 
  839000   0.91589344   -7.7392866    228.46105  0.022691801  0.022661623            2 
  840000    0.9305902   -7.7427077     229.0253  0.022720764  0.022645884            4 
  841000   0.93621842   -7.7332871     229.5012  0.022740904  0.022630539            3 
  842000   0.91375686   -7.7090373    229.69584  0.022733159  0.022615345            2 
  843000   0.90850823   -7.7125971    230.09091  0.022745246   0.02260008            2 
  844000   0.92003582   -7.7118865    229.45525  0.022655534  0.022584715            2 
  845000   0.89978524   -7.7479402    229.91304   0.02267387  0.022569261            2 
  846000   0.90297188   -7.7521942    229.72026   0.02262808  0.022553923            4 
  847000   0.91127335   -7.7354507    230.24257  0.022652752   0.02253869            2 
  848000   0.93193539   -7.7263332    229.95949   0.02259822  0.022523529            2 
  849000   0.91239035   -7.7255818    230.31709  0.022606703  0.022508331            2 
  850000    0.8971545   -7.7237385    230.43082  0.022591257  0.022493112            3 
  851000   0.90489641   -7.7518998     230.9663  0.022617146  0.022477969            1 
  852000   0.92020319   -7.7465673    230.82862  0.022577134  0.022462597            2 
  853000   0.89980354   -7.7263579    231.06605  0.022573862  0.022447367            2 
  854000   0.90283915   -7.7526982    230.64719  0.022506557  0.022432048            2 
  855000   0.90624571   -7.7134327    231.30349    0.0225442  0.022416841            3 
  856000   0.90796779   -7.7343324     231.1068  0.022498715  0.022401605            2 
  857000   0.91159443   -7.7436657    231.13202  0.022474915  0.022386386            2 
  858000   0.91934742   -7.7214474    231.94606  0.022527783   0.02237122            4 
  859000   0.92036328   -7.7401795    231.42684  0.022451187  0.022356238            2 
  860000   0.91096718   -7.7363949    232.14202  0.022494382  0.022341181            5 
  861000   0.91786743   -7.7636808    231.66451   0.02242204  0.022326066            2 
  862000   0.91405274   -7.7031451    232.51462  0.022478212  0.022310841            2 
  863000   0.90576016   -7.7889612    231.52811  0.022356905  0.022295527            2 
  864000   0.92659071   -7.7335572     232.3474  0.022410051   0.02228027            1 
  865000   0.90439389   -7.7589875    232.32868  0.022382339  0.022265131            1 
  866000   0.87743224   -7.7518558     232.9619  0.022417426  0.022250028            1 
  867000   0.90519473   -7.7399002    232.45256  0.022342615  0.022234993            1 
  868000   0.91265995   -7.7628688    233.01862  0.022371219  0.022219971            1 
  869000   0.90088966   -7.7458335    233.54532  0.022395984  0.022205128            3 
  870000   0.88874264   -7.7147564    234.00251  0.022414034  0.022190309            2 
  871000   0.92603962   -7.7709895    233.73011  0.022362238  0.022175486            2 
  872000   0.91396498   -7.7692734     233.3994  0.022304989  0.022160631            2 
  873000     0.911313     -7.76156    233.89005  0.022326274  0.022145732            1 
  874000   0.89324685   -7.7781401    234.31429   0.02234118  0.022130941            2 
  875000   0.89702789   -7.7571007    233.76118  0.022262969  0.022116215            2 
  876000    0.9080257   -7.7291781    234.26343  0.022285334  0.022101542            3 
  877000   0.89922956   -7.7430198    234.37434  0.022270462  0.022086876            3 
  878000   0.88462574   -7.8014037    234.30171  0.022238203  0.022072124            3 
  879000   0.89626559   -7.7703944    234.29164  0.022211949  0.022057385            4 
  880000    0.8851438   -7.7629202    234.55382  0.022211536  0.022042588            2 
  881000   0.91604942   -7.7680058    234.35478  0.022167497  0.022027842            2 
  882000   0.89758836   -7.7837991    235.52049  0.022252503  0.022013228            2 
  883000   0.91117869   -7.7478418    235.20027  0.022197081  0.021998573            5 
  884000   0.90268176   -7.7762637    234.68141  0.022123059  0.021983828            1 
  885000   0.91097213   -7.7743013    234.68065  0.022097989  0.021968987            2 
  886000   0.89843113   -7.7760971    235.10866  0.022113305  0.021954072            2 
  887000   0.89360691    -7.771659    234.97006  0.022075354  0.021939368            3 
  888000   0.88442583   -7.7578867    235.49652  0.022099899  0.021924597            3 
  889000   0.90766133   -7.7871867    235.46572  0.022072152  0.021909749            3 
  890000    0.8898558   -7.7458781    236.03397  0.022100559   0.02189503            3 
  891000   0.89113544   -7.7774077    235.05212  0.021983925  0.021880202            2 
  892000   0.90507348   -7.7536808    235.64063  0.022014259  0.021865272            1 
  893000   0.90078641   -7.7677848     235.9746  0.022020772  0.021850348            2 
  894000   0.90997968   -7.7626986    236.04165  0.022002391  0.021835428            1 
  895000   0.89698894   -7.7717702    236.35953  0.022007405  0.021820495            1 
  896000   0.89093146   -7.8314884    236.19148  0.021967214  0.021805471            2 
  897000   0.88169355   -7.7762146    236.15996  0.021939796  0.021790472            2 
  898000   0.87567079   -7.7658317    235.96108  0.021896908    0.0217755            2 
  899000   0.90099272   -7.7902432    236.04469  0.021880302  0.021760447            2 
  900000   0.90136402   -7.8057966    235.66886  0.021821191  0.021745433            1 
  901000   0.90230279   -7.7777716    236.18248  0.021844477   0.02173043            2 
  902000   0.90530581   -7.8001593    236.98543  0.021894441  0.021715509            2 
  903000   0.90145497   -7.7749115     236.4746  0.021823053  0.021700621            1 
  904000   0.90067388   -7.7679427     236.8858  0.021836818  0.021685697            1 
  905000   0.89001163   -7.7842774    237.22151  0.021843601  0.021670911            3 
  906000   0.87596457    -7.824337    236.96736  0.021796115  0.021655908            2 
  907000   0.89436105   -7.7638932    236.99848  0.021774943  0.021641087            3 
  908000   0.88376344    -7.778008    237.25811   0.02177479  0.021626176            3 
  909000   0.89590038   -7.8054962    237.54077  0.021776748  0.021611396            1 
  910000     0.894525   -7.8203289    236.72204  0.021677842  0.021596507            3 
  911000   0.88441339   -7.8350578    237.12972  0.021691339  0.021581558            1 
  912000   0.90260439   -7.7870458    237.66927  0.021716856  0.021566501            1 
  913000   0.90567948   -7.7819204    237.71146   0.02169692  0.021551463            2 
  914000   0.90537772   -7.8107549    237.51736  0.021655485  0.021536354            3 
  915000   0.88927671   -7.7629568    237.60946  0.021640206  0.021521238            3 
  916000   0.86851496   -7.7870832    238.42787  0.021691036  0.021506091            6 
  917000   0.90292003    -7.788784    238.35907  0.021661129  0.021491238            3 
  918000    0.8959336   -7.8010067    237.75414   0.02158262  0.021476276            2 
  919000   0.90114106   -7.7660995    238.08639  0.021589263  0.021461262            1 
  920000   0.90048835   -7.7687507    239.26624  0.021672666  0.021446301            2 
  921000   0.87742047   -7.8226955     238.1574  0.021548805  0.021431321            1 
  922000   0.86446081   -7.7829433     238.1424  0.021524078  0.021416334            2 
  923000   0.88090768   -7.7878257    238.77594  0.021557958  0.021401379            3 
  924000   0.88459315   -7.7600536    238.50127  0.021509855  0.021386364            3 
  925000   0.88638854   -7.7998204    239.11207  0.021541628  0.021371277            4 
  926000   0.87724552   -7.7939994    239.47633  0.021551145  0.021356257            2 
  927000   0.88581727   -7.7925187    239.26567  0.021508959  0.021341196            2 
  928000   0.88689448   -7.8033151    239.49284  0.021506182  0.021326276            4 
  929000   0.87989674   -7.7911393    239.00107  0.021438919  0.021311369            1 
  930000   0.88434748   -7.7946521    239.24947  0.021438125  0.021296354            2 
  931000   0.90027934   -7.8112131    239.44481  0.021432583  0.021281396            2 
  932000   0.90135379   -7.7989099    239.47432  0.021412225  0.021266436            2 
  933000   0.88505982   -7.7801215    239.49128  0.021390789  0.021251464            3 
  934000   0.86768146   -7.7656611    240.37029  0.021446315  0.021236556            2 
  935000   0.88724433   -7.8377107     239.0481  0.021305535   0.02122169            2 
  936000    0.9013549    -7.848276    239.16781  0.021293431  0.021206491            1 
  937000   0.87521246   -7.7972565    239.92512  0.021338058  0.021191336            3 
  938000    0.8678667   -7.8169582    239.79435  0.021303691  0.021176229            2 
  939000   0.89052231   -7.8276667    239.01646  0.021211969  0.021161026            2 
  940000   0.87338918   -7.8184715    240.94978  0.021360796  0.021145898            1 
  941000    0.8640182    -7.776008    239.73906  0.021230876  0.021130898            2 
  942000   0.87548597   -7.8058694    240.14823  0.021244535  0.021115672            2 
  943000   0.87974806   -7.8010367    239.67934  0.021180571  0.021100345            2 
  944000   0.85316592   -7.8017876    241.01995  0.021276478  0.021085066            1 
  945000   0.87967194   -7.8385666     240.1285  0.021175353  0.021069725            3 
  946000    0.8561013   -7.8348996     239.7277  0.021117662  0.021054266            2 
  947000   0.87547842   -7.8147441    239.93869  0.021113929  0.021038759            1 
  948000   0.87353661    -7.813041    240.77284  0.021164982  0.021023383            2 
  949000   0.87594182   -7.8539362    240.57061  0.021124922  0.021008016            3 
  950000   0.86243065   -7.8581711    240.00872  0.021053396  0.020992671            2 
  951000   0.89387347   -7.8218255    240.94956  0.021113702  0.020977395            3 
  952000   0.85754967   -7.8392282    241.15335  0.021109362  0.020962209            1 
  953000    0.8864133   -7.8480115    240.85493  0.021061116  0.020947023            3 
  954000   0.86965422   -7.8303781    241.30893  0.021078697  0.020931754            3 
  955000    0.8802335   -7.8177511    240.86026  0.021017475   0.02091646            4 
  956000   0.85176906   -7.8005217     240.8896  0.020998048  0.020901067            1 
  957000   0.87219601   -7.8181463    241.50045  0.021029298  0.020885714            5 
  958000   0.86434958   -7.8480872    241.00996   0.02096468  0.020870342            3 
  959000   0.87934712   -7.8342461    241.26858  0.020965292  0.020855001            1 
  960000   0.88693497   -7.8555745    240.56679  0.020882534  0.020839517            2 
  961000   0.86772727   -7.8523924    240.74424  0.020876191  0.020824148            3 
  962000     0.873461   -7.8191653    241.66493  0.020934245  0.020808825            2 
  963000   0.86495297   -7.8324426    241.57669  0.020904871  0.020793317            1 
  964000    0.8662694   -7.8326558    241.94277  0.020914831  0.020777977            2 
  965000   0.87093178    -7.813632    241.84763  0.020884942  0.020762678            2 
  966000   0.86298953   -7.8272321    241.78804  0.020858182  0.020747424            1 
  967000   0.87408922   -7.8472478    241.72718  0.020831367  0.020732024            2 
  968000   0.84218667   -7.8617615    241.91968  0.020826418  0.020716768            2 
  969000   0.85319823   -7.8545453    241.53605  0.020771934  0.020701473            2 
  970000    0.8712581   -7.8553831    241.71978  0.020766304  0.020686115            1 
  971000   0.87147121   -7.8167749    242.10372  0.020777868  0.020670801            2 
  972000   0.86827128   -7.8322834    242.15268  0.020760689  0.020655433            2 
  973000   0.85717935   -7.8581442    241.58504  0.020690737  0.020640167            1 
  974000   0.86718841   -7.8371071      242.523  0.020749743  0.020624835            2 
  975000   0.87688412   -7.8567617    242.70707  0.020744194  0.020609435            3 
  976000   0.85857244   -7.8432105    242.16332  0.020676513  0.020594032            2 
  977000   0.86297247   -7.8736101    241.75031  0.020620122  0.020578454            2 
  978000   0.85653139   -7.8545785    242.10232  0.020629032  0.020562891            3 
  979000   0.86659521   -7.8787953    242.46188  0.020638567  0.020547451            3 
  980000   0.86033826   -7.8974537    241.54172  0.020539262  0.020531905            1 
  981000   0.86256484   -7.8599936     243.1238  0.020652718  0.020516412            1 
  982000     0.854504   -7.8788105    242.32248  0.020563686  0.020500881            2 
  983000   0.87592728    -7.868502    242.80172  0.020583395  0.020485468            4 
  984000    0.8737263   -7.8510937     243.1626  0.020593039  0.020470097            3 
  985000   0.86050478    -7.860416    241.65588   0.02044466  0.020454648            2 
  986000   0.85314893   -7.8408513    242.85148  0.020524973  0.020439189            2 
  987000   0.85064084    -7.843492    242.72844  0.020493789  0.020423761            2 
  988000   0.86377029   -7.8373174    242.84161  0.020482592   0.02040828            2 
  989000   0.83633263   -7.8666196    242.88097  0.020465198  0.020392716            1 
  990000   0.86582367   -7.8643932    242.81836  0.020439256  0.020377214            2 
  991000   0.84549322    -7.877077    242.35535  0.020379697  0.020361628            2 
  992000   0.85924669   -7.8322306    243.16893  0.020427498  0.020346053            2 
  993000   0.85831314   -7.8699243     243.2971  0.020417682  0.020330471            2 
  994000   0.85051872   -7.8374688    243.34674  0.020401303  0.020314919            2 
  995000   0.85402121   -7.8447972    243.49709  0.020393391  0.020299386            1 
  996000   0.87284228   -7.8397079    243.42883  0.020367205  0.020283951            1 
  997000   0.84288495   -7.8414651    244.64683  0.020448581  0.020268634            1 
  998000   0.82997983   -7.8336606    243.61454  0.020341896  0.020253318            2 
  999000   0.85387201   -7.8624388    243.40312  0.020303898  0.020237926            2 
 1000000    0.8595298   -7.8578844     243.5804  0.020298367  0.020222391            2 
 1001000   0.84303385   -7.8783378    243.60154  0.020279849   0.02020685            2 
 1002000   0.85985757   -7.8555394    243.61992  0.020261138  0.020191296            3 
 1003000   0.85217762   -7.8638783     243.4713   0.02022859  0.020175884            2 
 1004000   0.84190107   -7.8955383    243.62184  0.020220936  0.020160373            3 
 1005000   0.86001997   -7.8639219    244.09435  0.020239996  0.020144895            2 
 1006000   0.83777723   -7.8723451    244.10904  0.020221094  0.020129471            7 
 1007000   0.85832361   -7.8448661    244.13222  0.020202931  0.020114063            6 
 1008000   0.83983737   -7.8886717    244.05763  0.020176722  0.020098612            2 
 1009000   0.85277932   -7.8975529    243.59558  0.020118564   0.02008326            1 
 1010000   0.84795507   -7.8873184    244.69031  0.020188969  0.020068028            1 
 1011000   0.84035381   -7.8840096    245.03811  0.020197668  0.020052829            3 
 1012000   0.87084246   -7.8937264    244.36339   0.02012215  0.020037583            3 
 1013000   0.85933475   -7.8854115    245.13667  0.020165899  0.020022409            3 
 1014000   0.85661668   -7.8653231      245.173  0.020148998  0.020007306            2 
 1015000   0.83877337   -7.8986294     244.8821  0.020105263  0.019992195            2 
 1016000   0.84147322   -7.9199996    245.12358   0.02010528  0.019977103            2 
 1017000   0.85136635   -7.9114043    245.32172  0.020101747  0.019962076            3 
 1018000   0.85230137   -7.8994953    244.67086  0.020028721  0.019946961            3 
 1019000   0.86029357   -7.9190153    245.08329  0.020042795  0.019931734            3 
 1020000   0.84525979   -7.8979394    245.32228   0.02004267  0.019916474            2 
 1021000   0.83174694   -7.8913568    245.31309   0.02002229  0.019901258            3 
 1022000   0.83350902   -7.9075678    245.46704  0.020015251  0.019885963            2 
 1023000   0.83676033   -7.9250702    245.20369  0.019974233  0.019870697            4 
 1024000   0.84910008   -7.9000452     245.2461  0.019958179  0.019855469            2 
 1025000   0.85512373   -7.9022805    245.59288    0.0199669  0.019840309            1 
 1026000   0.81176989   -7.9007245    246.26056   0.02000167  0.019825145            4 
 1027000   0.82542204   -7.9046124    245.93716  0.019955952  0.019810069            1 
 1028000   0.82996644   -7.9122212    246.63352   0.01999299  0.019795216            2 
 1029000   0.83812957   -7.8982179    246.40656   0.01995518  0.019780355            2 
 1030000   0.85475358   -7.8917735    247.20475  0.020000384  0.019765562            2 
 1031000   0.84087302   -7.9085618    246.34624  0.019911594  0.019750687            2 
 1032000   0.83814132   -7.9056751    246.45551  0.019901124  0.019735776            2 
 1033000   0.84302124   -7.8580374     247.6131  0.019975242  0.019720965            2 
 1034000   0.85040975   -7.9031155     246.5215  0.019867948  0.019706194            3 
 1035000   0.83917432   -7.9471533    246.38093  0.019837434  0.019691245            1 
 1036000   0.82014586   -7.8954772    247.52547   0.01991035  0.019676383            3 
 1037000    0.8395428   -7.8878619    246.98464  0.019847689  0.019661626            5 
 1038000    0.8410941    -7.897288     247.7407  0.019889266   0.01964685            1 
 1039000   0.83282349   -7.9410987    246.38503  0.019761392  0.019632016            3 
 1040000    0.8392308   -7.8946599    246.93177    0.0197862  0.019617131            2 
 1041000   0.86632372   -7.9134226    247.50471  0.019813057  0.019602254            4 
 1042000   0.83343453   -7.8933381    247.34542  0.019781304  0.019587328            6 
 1043000   0.83055228   -7.9498381    246.54358  0.019698273  0.019572419            2 
 1044000   0.82306512   -7.9359837    247.99014  0.019794871  0.019557483            2 
 1045000   0.82730583    -7.930935     246.9695  0.019694537   0.01954257            2 
 1046000   0.83954259    -7.946001    247.07348  0.019683993  0.019527631            2 
 1047000   0.84691185   -7.9141221    247.47906  0.019697473  0.019512656            2 
 1048000   0.83566382   -7.9161933    247.63379  0.019690982    0.0194977            2 
 1049000   0.84763057   -7.9213431    247.83602  0.019688276  0.019482815            2 
 1050000   0.83199523   -7.8983689    247.58621  0.019649699  0.019467952            2 
 1051000   0.83813187   -7.9231848    248.75012  0.019723289  0.019453128            3 
 1052000    0.8307702   -7.9434431    248.16888  0.019658498  0.019438373            1 
 1053000   0.82123589   -7.9188885    248.08414  0.019633123  0.019423627            2 
 1054000    0.8372454   -7.9264305    248.08756  0.019614766  0.019408859            2 
 1055000   0.84654024   -7.9256087    247.87694  0.019579537  0.019394092            1 
 1056000   0.80544604   -7.9401245    248.24698  0.019590197  0.019379321            2 
 1057000   0.82626107   -7.9425377    248.08044  0.019558534  0.019364652            1 
 1058000   0.81360673   -7.9207407    248.65277  0.019585127  0.019350101            3 
 1059000   0.85253518   -7.9510454    248.49762  0.019554424  0.019335507            3 
 1060000   0.82192771    -7.944624    248.72435  0.019553801  0.019320746            2 
 1061000   0.82101692   -7.9586415    248.62594  0.019527642  0.019306066            2 
 1062000   0.82588322     -7.95438    248.98687  0.019537576  0.019291413            2 
 1063000   0.81044286   -7.9427867    248.57709  0.019487072  0.019276798            1 
 1064000   0.83730201   -7.9157284    249.07264  0.019507569   0.01926225            1 
 1065000   0.83347155   -7.9558169    248.48572  0.019443327  0.019247667            3 
 1066000   0.81648915   -7.9554135    248.87328  0.019455385  0.019232941            1 
 1067000   0.81532044    -7.947844    248.41574  0.019401417  0.019218181            4 
 1068000   0.81802834   -7.9342424    248.57392  0.019395593  0.019203444            2 
 1069000   0.81777638   -7.9326963    249.41427  0.019442959  0.019188894            1 
 1070000   0.82566199   -7.9590491    249.19471  0.019407688   0.01917431            1 
 1071000   0.83616374   -7.9628252    249.60271  0.019421312  0.019159842            3 
 1072000     0.837774   -7.9453514     249.8457  0.019422085   0.01914536            1 
 1073000   0.82037286   -7.9350544     249.5243  0.019379023  0.019130804            2 
 1074000   0.82183485   -7.9572643    249.29817  0.019343433   0.01911624            2 
 1075000     0.803359   -7.9387556    249.20408  0.019318146  0.019101603            6 
 1076000   0.81326921   -7.9430566    250.04897  0.019365627  0.019086984            3 
 1077000   0.81383909   -7.9529373    250.04866  0.019347621  0.019072422            2 
 1078000   0.81853153    -7.976234     249.3721  0.019277373   0.01905781            1 
 1079000   0.82643386   -7.9776518    249.71597  0.019286065  0.019043202            1 
 1080000   0.81988008   -7.9794646    249.40304  0.019244062  0.019028605            2 
 1081000   0.80690783   -7.9479816     249.3805  0.019224522  0.019014007            4 
 1082000   0.81110025   -7.9731754    249.76863  0.019236647  0.018999408            2 
 1083000   0.81109654    -7.981843    250.05804  0.019241154  0.018984837            2 
 1084000   0.81066616   -7.9384208    250.28308  0.019240704  0.018970273            4 
 1085000     0.833586   -7.9916624    249.67031  0.019175907  0.018955718            1 
 1086000   0.82349061   -7.9816792    249.36482  0.019134808  0.018941167            1 
 1087000   0.82137664   -7.9578753    250.68186  0.019218174  0.018926648            3 
 1088000   0.83465907   -7.9748927     250.1141  0.019157023  0.018912156            1 
 1089000   0.80856663   -7.9991385    250.26738  0.019151162  0.018897667            1 
 1090000   0.80388634   -7.9721291    250.71612  0.019167899  0.018883185            2 
 1091000   0.81969545   -8.0070569    250.29992  0.019118539  0.018868703            1 
 1092000   0.82783001   -7.9800361    250.70924  0.019132268  0.018854278            4 
 1093000    0.8153519   -7.9757359    250.74359  0.019117382  0.018839819            2 
 1094000   0.84298133   -7.9701709    250.77027   0.01910194  0.018825391            2 
 1095000   0.82994582    -7.986538    250.16971  0.019038791  0.018810912            1 
 1096000   0.81826018   -7.9607769    250.86717   0.01907445  0.018796392            3 
 1097000   0.83052125   -7.9756774    250.70336  0.019044618  0.018781995            2 
 1098000   0.82685273   -7.9520676    250.66263  0.019024183  0.018767661            1 
 1099000   0.82010115   -7.9613045     250.8308  0.019019624  0.018753302            3 
 1100000   0.81763091   -7.9720992    250.59442  0.018984426  0.018738863            1 
 1101000   0.81681902   -7.9811518    250.65188  0.018971532  0.018724411            2 
 1102000   0.79224112   -7.9936762     250.8797  0.018971544  0.018710039            1 
 1103000   0.81559453   -7.9926807    251.24591  0.018982012   0.01869569            3 
 1104000   0.80956168   -7.9839266    251.16857   0.01895898  0.018681433            3 
 1105000   0.80503734   -7.9392685    251.68125  0.018980487  0.018667195            3 
 1106000   0.81910056    -7.980638    251.44241  0.018945329  0.018652929            2 
 1107000   0.81304222   -7.9962683    251.20871  0.018910623  0.018638645            2 
 1108000   0.81264403    -7.968034    251.36429  0.018905257  0.018624332            1 
 1109000   0.80056237   -7.9786397    251.40302   0.01889112  0.018610071            2 
 1110000   0.82537681   -7.9911906    251.18272  0.018857562  0.018595734            1 
 1111000   0.79670838   -7.9748414    252.03562  0.018904562  0.018581411            2 
 1112000    0.8101395   -7.9825773    250.82653  0.018796952  0.018567189            1 
 1113000   0.80849693    -7.959395    251.21681  0.018809285   0.01855296            6 
 1114000   0.81235864   -7.9717765    252.00725  0.018851529   0.01853872            2 
 1115000   0.81511274   -7.9892716    251.65379  0.018808206  0.018524453            2 
 1116000   0.82056511   -7.9965743    251.27013  0.018762704  0.018510079            1 
 1117000    0.7936183   -7.9945237     251.7099  0.018778716   0.01849581            2 
 1118000   0.80374607   -7.9773163    251.64193  0.018756852  0.018481476            2 
 1119000   0.80857482   -7.9809646    251.68196  0.018743071   0.01846716            2 
 1120000   0.79982744   -7.9997985     251.9587  0.018746927  0.018452841            2 
 1121000   0.80938339   -8.0198668    251.51327  0.018697091  0.018438636            3 
 1122000   0.79197965   -8.0328737    251.67573  0.018692493   0.01842432            3 
 1123000   0.80455205   -7.9840869    251.95202   0.01869635  0.018410018            2 
 1124000   0.78938954   -8.0032524    252.27854  0.018703925  0.018395748            3 
 1125000   0.80604633   -8.0232192    251.77129  0.018649725  0.018381495            1 
 1126000   0.80890627   -8.0048873    252.01657  0.018651315  0.018367244            3 
 1127000   0.81413064   -8.0096567    252.62237   0.01867956  0.018352969            1 
 1128000     0.804448   -8.0131663     251.8464  0.018605674  0.018338729            2 
 1129000   0.79817367   -7.9708772    252.24737   0.01861879  0.018324456            2 
 1130000   0.80023048   -7.9949503    252.41697  0.018614821  0.018310239            4 
 1131000   0.80314328   -7.9824433    252.87518  0.018632123  0.018296114            1 
 1132000   0.81060157   -8.0073229     252.7852   0.01860904  0.018281946            2 
 1133000   0.80142501   -8.0291245    251.81657  0.018521372  0.018267781            2 
 1134000   0.81319317   -8.0278947    252.85452  0.018581314  0.018253638            4 
 1135000   0.79659134   -7.9950206    253.17375  0.018588381  0.018239534            2 
 1136000   0.80536122   -8.0058934     252.4161   0.01851644  0.018225426            5 
 1137000   0.79389719   -8.0282904    252.65774  0.018517864  0.018211334            4 
 1138000   0.81461344   -8.0235756    252.83045  0.018514239  0.018197258            1 
 1139000    0.8105278   -8.0110681    253.31093  0.018533138  0.018183193            2 
 1140000   0.81206543   -8.0268652    253.18441  0.018507632   0.01816923            1 
 1141000   0.82487542   -8.0207067    253.03144   0.01848024  0.018155303            3 
 1142000   0.80842131   -8.0245338    253.25512   0.01848038  0.018141284            3 
 1143000   0.79078516   -8.0352212    253.37264  0.018472779  0.018127306            6 
 1144000   0.78468811   -8.0287687    253.51177  0.018466767  0.018113319            3 
 1145000   0.79459163   -8.0324646    253.11424  0.018421706  0.018099289            4 
 1146000   0.79619777   -8.0193161    253.23023  0.018414065  0.018085321            2 
 1147000   0.80320054   -8.0509806     253.5295  0.018419754  0.018071338            4 
 1148000   0.79371231   -8.0529933    253.04474  0.018368521  0.018057368            4 
 1149000   0.79098064   -8.0284691    253.73537  0.018402624  0.018043404            1 
 1150000   0.79064685   -8.0569097    253.22917   0.01834994    0.0180293            1 
 1151000   0.81100842     -8.04513    253.25216  0.018335661  0.018015302            1 
 1152000   0.79409466    -8.036431    253.50655  0.018338147  0.018001315            1 
 1153000   0.80979425   -8.0572835    253.75717  0.018340357  0.017987345            2 
 1154000   0.79519727   -8.0461372    253.14932  0.018280569  0.017973397            1 
 1155000   0.79914971   -7.9970214    253.54481  0.018293277  0.017959465            3 
 1156000   0.80882336   -7.9999865    254.02303  0.018311925  0.017945637            2 
 1157000     0.797849   -8.0406479    253.57566  0.018263877  0.017931721            1 
 1158000   0.77879866    -8.014385    254.72217  0.018330611   0.01791776            1 
 1159000   0.79952539   -8.0310202    253.84572  0.018251778  0.017903929            1 
 1160000   0.78980408   -8.0190556    254.53279  0.018285402    0.0178901            3 
 1161000   0.80138822   -8.0450963    254.17671  0.018244093  0.017876288            2 
 1162000   0.78677551    -8.025815    254.23887  0.018232851  0.017862386            2 
 1163000   0.79104114   -8.0353156    254.22975   0.01821652  0.017848586            1 
 1164000   0.78264027   -8.0426744    254.29559  0.018205584  0.017834792            2 
 1165000   0.78887525   -8.0786203    254.15668   0.01818002  0.017820912            1 
 1166000   0.77710681   -8.0602349    254.24156  0.018170495  0.017806965            2 
 1167000   0.78929951   -8.0346485    254.10229  0.018144979  0.017793042            3 
 1168000   0.80932881   -8.0892306    253.83161  0.018110132  0.017779196            1 
 1169000   0.79468783   -8.0395749     254.9002  0.018170816  0.017765391            2 
 1170000   0.79301221    -8.017259    255.07201  0.018167522  0.017751596            2 
 1171000   0.79007065   -8.0783216    254.27914  0.018095584  0.017737824            1 
 1172000   0.78769702   -8.0786634    254.50591  0.018096268  0.017723977            1 
 1173000   0.78390277   -8.0336583    254.67893  0.018093133  0.017710134            1 
 1174000   0.80034499   -8.0649338    254.60237  0.018072287  0.017696305            4 
 1175000   0.79615448    -8.037489    254.25362  0.018032171  0.017682442            5 
 1176000   0.78666895   -8.0772318    254.04544  0.018002086  0.017668588            2 
 1177000   0.79902334   -8.0709888    254.12058  0.017992111  0.017654626            2 
 1178000   0.76631191   -8.0798621    254.72071  0.018019292  0.017640696            1 
 1179000   0.79508743   -8.0883199    254.93321  0.018019028  0.017626757            1 
 1180000   0.78478261   -8.0604293    254.58274  0.017979007  0.017612864            2 
 1181000   0.78543782   -8.0633282     254.5169  0.017959138  0.017599063            2 
 1182000   0.77231965   -8.0801797    254.90104  0.017971026  0.017585248            6 
 1183000   0.77041995   -8.0753469     254.2354  0.017908946  0.017571414            4 
 1184000   0.77497746   -8.0623848    254.52255  0.017914031   0.01755764            2 
 1185000   0.80246394   -8.0628895    255.36682  0.017958286  0.017543931            2 
 1186000   0.77999592   -8.0595205    255.51856  0.017953805  0.017530177            4 
 1187000   0.78762531   -8.0765645    254.58129  0.017872879  0.017516401            2 
 1188000   0.79174109   -8.0833279    254.45096  0.017848693  0.017502593            3 
 1189000   0.78629793   -8.0755416     254.9148   0.01786619  0.017488747            3 
 1190000   0.77917479   -8.1080034    254.99403  0.017856725  0.017474915            1 
 1191000   0.76673289   -8.0937467     254.6199  0.017815554  0.017461075            1 
 1192000   0.77767908     -8.06645    254.94277   0.01782318  0.017447244            4 
 1193000   0.75240265   -8.1049135    254.05327  0.017746107  0.017433461            3 
 1194000    0.7730164    -8.076362    255.11504  0.017805349  0.017419663            2 
 1195000   0.76588037   -8.0474607    255.02023  0.017783838  0.017405885            3 
 1196000    0.7772734   -8.0558281    254.91083  0.017761345  0.017392091            1 
 1197000   0.76124065   -8.0648355    254.77617  0.017737133   0.01737835            3 
 1198000   0.78654126     -8.05924    255.26904  0.017756611  0.017364679            3 
 1199000   0.76097017   -8.0843882    254.70052  0.017702288  0.017350988            3 
 1200000   0.76888964   -8.0712276    254.88466  0.017700324  0.017337265            3 
 1201000   0.76054018   -8.1053713    255.13541  0.017702984  0.017323542            1 
 1202000    0.7790094   -8.0873654    255.05373  0.017682594  0.017309905            1 
 1203000   0.78424078   -8.0774498    254.98099  0.017662856   0.01729627            2 
 1204000   0.75693549   -8.0714393    255.32528  0.017672016  0.017282569            1 
 1205000   0.77102706   -8.1164183    254.97597  0.017633193    0.0172689            1 
 1206000   0.75731466   -8.0974314    255.40016  0.017647883  0.017255228            1 
 1207000   0.77325622    -8.121273    254.83194  0.017594031  0.017241484            2 
 1208000   0.74733603     -8.09428    255.52495  0.017627273  0.017227781            2 
 1209000   0.77946907   -8.0824011    255.17015  0.017588237  0.017214163            2 
 1210000   0.76476216   -8.0670578    255.53727  0.017598985  0.017200501            2 
 1211000   0.76442764   -8.0841393    255.67248  0.017593757  0.017186821            2 
 1212000   0.77977409    -8.079149    255.41467  0.017561515  0.017173143            1 
 1213000   0.78817143    -8.084499    255.30888  0.017539769  0.017159469            2 
 1214000    0.7576022   -8.0867956    255.18512  0.017516826   0.01714576            2 
 1215000   0.77846244   -8.1149069    254.71105  0.017469894  0.017132061            1 
 1216000   0.77278279   -8.1064652    254.88776  0.017467637   0.01711832            1 
 1217000   0.78652558   -8.0824279    256.03036  0.017531523  0.017104624            5 
 1218000   0.76971817   -8.1044755     255.3968  0.017473782  0.017090969            2 
 1219000   0.78205123   -8.0884403    256.15011  0.017510946  0.017077363            2 
 1220000   0.77549006   -8.1095771    255.30734  0.017439026  0.017063738            4 
 1221000   0.78392409   -8.1061043    254.91366  0.017397875  0.017050084            3 
 1222000   0.75143138   -8.0835581    255.97458  0.017455986  0.017036391            2 
 1223000   0.76394336   -8.0987686     255.3027  0.017395932  0.017022729            4 
 1224000   0.76841127   -8.1047643    255.55273  0.017398742  0.017009032            1 
 1225000   0.76866289   -8.1230208    255.16956  0.017358474  0.016995343            3 
 1226000    0.7616854   -8.1110813    256.00323  0.017400981  0.016981616            4 
 1227000   0.75892711   -8.0687777    255.53173  0.017354777  0.016967983            3 
 1228000   0.76451647   -8.0880973    255.30511  0.017325265   0.01695437            2 
 1229000   0.75574845   -8.0727005    255.26883  0.017308708  0.016940778            2 
 1230000   0.77355147   -8.1093686    254.99884  0.017276344  0.016927124            1 
 1231000   0.76119105   -8.1205276    255.34429  0.017285696  0.016913416            1 
 1232000   0.76865407   -8.1252348    255.14753  0.017258356  0.016899722            4 
 1233000   0.76487277   -8.1286296    255.37491  0.017259727  0.016886022            3 
 1234000   0.75010343    -8.114136    255.47682  0.017252622  0.016872319            1 
 1235000   0.76253593      -8.1165    255.60813  0.017247512  0.016858672            3 
 1236000   0.75683731   -8.1683768    255.33082  0.017214861  0.016844985            2 
 1237000   0.74768999   -8.1346969    255.22237  0.017193638  0.016831291            1 
 1238000   0.76508954   -8.1161437    255.92629  0.017227133  0.016817616            5 
 1239000   0.76080101   -8.1191239    255.48576    0.0171836  0.016803961            1 
 1240000   0.73903529   -8.1131248    255.61801   0.01717863  0.016790308            2 
 1241000   0.77396772    -8.118747    255.80865  0.017177589  0.016776684            1 
 1242000   0.75323712   -8.1211516    255.64764  0.017152955  0.016763082            1 
 1243000   0.75233379   -8.1290357    255.43926  0.017125185  0.016749451            4 
 1244000   0.76156372   -8.1172454    255.57146  0.017120275   0.01673588            2 
 1245000   0.76901114   -8.1140806    254.92077   0.01706297  0.016722226            1 
 1246000   0.76857151   -8.1229431     255.8402  0.017110768  0.016708586            1 
 1247000   0.74656928   -8.1287345    255.55576  0.017078038  0.016694982            2 
 1248000   0.74423529   -8.1268592    256.13285  0.017102888  0.016681387            3 
 1249000   0.74281941   -8.1307803    255.71914  0.017061592  0.016667818            3 
 1250000   0.75902208   -8.1394574    255.51262  0.017034174  0.016654235            1 
 1251000   0.74236419   -8.1242176    255.78785  0.017038892  0.016640593            3 
 1252000    0.7550887   -8.1247275    255.30461  0.016993118  0.016626935            1 
 1253000   0.74859328   -8.1400065    255.11733  0.016967101  0.016613264            3 
 1254000    0.7544958   -8.1659647    255.31961  0.016967013  0.016599662            2 
 1255000   0.74593897    -8.144304    255.52495  0.016967128  0.016585967            2 
 1256000   0.75995951   -8.1366799    255.79426  0.016971487  0.016572332            2 
 1257000   0.74545941   -8.1339345    255.55395  0.016942054  0.016558749            4 
 1258000   0.75547336    -8.160061    255.79107  0.016944294  0.016545142            1 
 1259000   0.76537868   -8.1634261    255.77703  0.016929907  0.016531483            3 
 1260000   0.75138317   -8.1609239    255.27662  0.016883375   0.01651781            1 
 1261000   0.73321256   -8.1481686     255.1756  0.016863309  0.016504123            2 
 1262000   0.75973845   -8.1651653     255.0167  0.016839455  0.016490436            2 
 1263000    0.7398332   -8.1916233     255.4556  0.016855081  0.016476749            2 
 1264000   0.74741334   -8.1440134    255.62772  0.016853094  0.016463147            2 
 1265000   0.75810856   -8.1071173      255.603  0.016838142  0.016449607            2 
 1266000   0.74602172   -8.1422547    255.96843  0.016848896  0.016436121            4 
 1267000   0.73299553   -8.1609633    255.99447  0.016837311  0.016422598            1 
 1268000   0.75290219   -8.1576559    256.01932  0.016825665  0.016409081            2 
 1269000   0.74198195   -8.1450701    255.72625  0.016793161  0.016395555            1 
 1270000   0.73369893   -8.1687257    255.54162  0.016767823  0.016381998            2 
 1271000     0.759542   -8.1652617    256.09579  0.016790965  0.016368476            2 
 1272000   0.74955885   -8.1632073    255.76637  0.016756182  0.016354969            3 
 1273000   0.74432418   -8.1618882    255.59078  0.016731525  0.016341478            1 
 1274000   0.75235303   -8.1660012    255.64722  0.016722084  0.016327993            3 
 1275000   0.74562653   -8.1733556    255.69889  0.016712346  0.016314542            2 
 1276000   0.74260355   -8.1672248    256.21167  0.016732737  0.016301078            4 
 1277000   0.75225548   -8.1603241     256.0371  0.016708242   0.01628763            1 
 1278000   0.73289275   -8.1675346    255.83709  0.016682126  0.016274159            3 
 1279000   0.74527633   -8.1609674    255.62088  0.016654996  0.016260715            3 
 1280000   0.75622715   -8.1579232     256.4755  0.016697624   0.01624726            3 
 1281000   0.74877636   -8.1577728    256.30317  0.016673378  0.016233852            2 
 1282000   0.75458728   -8.1414139    256.01639  0.016641731  0.016220468            1 
 1283000   0.73844683     -8.16196    255.92374  0.016622742  0.016207058            6 
 1284000   0.73434956   -8.1563553    256.01584  0.016615774   0.01619365            4 
 1285000   0.76424365    -8.174996    256.06314  0.016605911   0.01618019            1 
 1286000   0.73444091   -8.1916698    255.96622  0.016586717   0.01616675            1 
 1287000   0.74578794   -8.1590445    256.17876  0.016587591  0.016153361            3 
 1288000   0.72806273   -8.1673669      256.218  0.016577252  0.016139962            2 
 1289000   0.74213666   -8.2039486     256.1543  0.016560273  0.016126551            4 
 1290000   0.73857243   -8.1958322    256.21196   0.01655116  0.016113169            2 
 1291000   0.73169686   -8.1763289    255.90294  0.016518393  0.016099789            1 
 1292000   0.74168209   -8.1766274    256.22547   0.01652641  0.016086459            3 
 1293000   0.73330177   -8.1932946    256.28828  0.016517677  0.016073136            1 
 1294000   0.72986153   -8.1901639    256.35459  0.016509183    0.0160598            2 
 1295000   0.73333347    -8.217959    255.87477  0.016465558  0.016046471            1 
 1296000   0.71449575   -8.2016226    256.10637  0.016467745  0.016033104            1 
 1297000   0.74091607   -8.1998225    256.15638  0.016458261  0.016019752            3 
 1298000   0.75363089   -8.1661874    256.47569  0.016466082  0.016006404            2 
 1299000   0.73755244   -8.2041388    255.94511  0.016419368  0.015993084            4 
 1300000   0.72356073   -8.2079914    256.21424   0.01642399  0.015979749            2 
 1301000   0.72965124   -8.1934881    256.16533  0.016408233   0.01596636            1 
 1302000   0.73464381   -8.1880339    256.24755  0.016400893  0.015952999            1 
 1303000   0.74248766   -8.1873755    256.23689  0.016387624  0.015939674            1 
 1304000   0.73256791   -8.1867866    256.72225  0.016406074  0.015926388            1 
 1305000    0.7097989   -8.2069388    255.85814  0.016338323  0.015913084            3 
 1306000   0.74158233   -8.2145089    255.52477  0.016304541  0.015899755            2 
 1307000   0.73000382   -8.2302312    256.30747  0.016341971  0.015886431            2 
 1308000   0.74791192    -8.185078    256.00503  0.016310208  0.015873113            1 
 1309000   0.72425113   -8.1665123    256.37509  0.016321307  0.015859848            3 
 1310000   0.75211158   -8.2122435    255.92706  0.016280347  0.015846642            1 
 1311000   0.73723078   -8.1807241    256.15772  0.016282591  0.015833466            1 
 1312000   0.74058974   -8.2110124     256.7116  0.016305361  0.015820301            1 
 1313000   0.71712987   -8.1835719    256.31929  0.016268043  0.015807158            1 
 1314000   0.73784651   -8.2024173    256.43892   0.01626325  0.015794003            3 
 1315000   0.71747375    -8.196882    256.08595  0.016228514  0.015780873            3 
 1316000   0.72956617   -8.1799338    256.47763  0.016240985  0.015767724            2 
 1317000   0.72689048   -8.2070143    256.23606  0.016213368  0.015754616            3 
 1318000   0.71831592   -8.1715524    256.43575  0.016213692  0.015741531            6 
 1319000   0.73224217   -8.1704985    256.65379  0.016215175  0.015728484            2 
 1320000   0.73355039   -8.2006702    256.86978  0.016216526  0.015715414            2 
 1321000   0.72260448   -8.2356685    256.16432  0.016159748  0.015702403            3 
 1322000   0.71651281   -8.2126408    256.82857  0.016189396   0.01568929            2 
 1323000   0.72800983    -8.192486     256.6576  0.016166389  0.015676212            1 
 1324000   0.71498764   -8.2289726    256.76896  0.016161188   0.01566316            5 
 1325000    0.7282728   -8.2370419    256.41346  0.016126633  0.015650043            6 
 1326000    0.7188927   -8.2193554     256.1886  0.016100339  0.015636931            1 
 1327000   0.73679647   -8.2396662    256.25263  0.016092228  0.015623811            3 
 1328000   0.70729114   -8.2454519    256.73762  0.016110544    0.0156107            2 
 1329000   0.71593517   -8.2180603    256.29236  0.016070502  0.015597615            4 
 1330000   0.71922529   -8.2284948    256.80325  0.016090429   0.01558451            3 
 1331000   0.73109511   -8.2299889    256.80335  0.016078347  0.015571437            4 
 1332000    0.7107324   -8.2333393    256.54482  0.016050101  0.015558384            4 
 1333000   0.71347911   -8.2349725    256.08175  0.016009111  0.015545309            4 
 1334000   0.70334465   -8.2271763    256.39935  0.016016951  0.015532262            2 
 1335000   0.72558113   -8.2147304     256.4539  0.016008358  0.015519286            4 
 1336000   0.73876407   -8.2449509    256.98413  0.016029449  0.015506304            2 
 1337000   0.71202284    -8.233732    256.17312  0.015966911  0.015493306            2 
 1338000   0.71380226   -8.2041552    257.07182   0.01601095   0.01548033            2 
 1339000   0.73382692   -8.2426846    256.28527  0.015950042  0.015467359            1 
 1340000   0.71687284   -8.2227439    256.18776  0.015932075  0.015454347            1 
 1341000    0.7149082   -8.2343782     256.8097  0.015958843  0.015441358            2 
 1342000    0.7097467   -8.2357917    256.84681  0.015949256  0.015428365            2 
 1343000   0.71757208   -8.2462936    256.63821  0.015924436  0.015415417            2 
 1344000   0.71843174   -8.2494747    256.35027  0.015894734   0.01540249            3 
 1345000    0.7267987   -8.2240915    256.49677  0.015891993   0.01538955            1 
 1346000    0.7100032   -8.2281863    257.22252  0.015925119  0.015376666            2 
 1347000   0.70805167   -8.2342664    257.14918  0.015908759  0.015363742            2 
 1348000   0.70726105    -8.236105    256.32405  0.015845947  0.015350866            1 
 1349000   0.71218434   -8.2250042    256.82328  0.015865041  0.015337985            7 
 1350000   0.70403214   -8.2423763    256.88199  0.015856913  0.015325105            1 
 1351000   0.72012361    -8.272878     256.4818  0.015820491   0.01531222            3 
 1352000   0.70035576    -8.247341    256.80228  0.015828543  0.015299369            2 
 1353000   0.70548899   -8.2588576    257.20959  0.015841931   0.01528654            3 
 1354000   0.72559239   -8.2377295    256.88433  0.015810212  0.015273725            3 
 1355000   0.73381112   -8.2538769    256.66001  0.015784748  0.015260918            6 
 1356000   0.70480087   -8.2517316    256.39253   0.01575667  0.015248096            3 
 1357000    0.7137204   -8.2703625    256.60772  0.015758273  0.015235257            7 
 1358000   0.72073978   -8.2562009    257.12235  0.015778249  0.015222427            3 
 1359000   0.71773239    -8.288845    256.74154  0.015743288  0.015209588            2 
 1360000   0.71397246   -8.2635208    257.16037  0.015757376  0.015196735            2 
 1361000   0.71749822   -8.2792329    256.38875  0.015698552  0.015183913            1 
 1362000   0.70351632   -8.2631616    256.53136  0.015695751  0.015171103            1 
 1363000   0.71224535   -8.2776967    256.69953  0.015694518  0.015158302            2 
 1364000   0.70640972   -8.2728249    256.54578  0.015673618  0.015145477            4 
 1365000   0.71594886    -8.292995    256.36247  0.015650944  0.015132659            1 
 1366000   0.69668463   -8.2827204    256.39477  0.015641457  0.015119856            2 
 1367000    0.7116166   -8.2923661    256.70082  0.015648672  0.015107049            1 
 1368000   0.68228507    -8.279976     256.1507  0.015603722  0.015094253            3 
 1369000   0.70785693   -8.2937563    256.25618  0.015598745  0.015081461            1 
 1370000   0.70273215   -8.2826695    256.56708   0.01560627   0.01506867            4 
 1371000   0.70989371    -8.280269    256.39321  0.015584319  0.015055903            3 
 1372000    0.7115319   -8.2503963    256.96224  0.015607522   0.01504314            2 
 1373000   0.70991852   -8.2646725    256.54216  0.015570658  0.015030389            4 
 1374000   0.71241873   -8.2922769    256.74549  0.015571657  0.015017643            4 
 1375000   0.70560161   -8.3006027     256.4758  0.015543988  0.015004888            1 
 1376000   0.71756631   -8.2822429    256.66418    0.0155441  0.014992201            4 
 1377000   0.70194816   -8.2591423    256.63215  0.015530873  0.014979499            3 
 1378000   0.70525602   -8.2949102    256.37811   0.01550424  0.014966802            3 
 1379000   0.70454571   -8.2828691    256.91698  0.015525561   0.01495414            3 
 1380000   0.69346742   -8.2656254    256.57079  0.015493405   0.01494143            5 
 1381000   0.69569882   -8.2840233    256.78232  0.015494951  0.014928693            4 
 1382000   0.68934958   -8.3028389    256.37214  0.015459005   0.01491591            1 
 1383000   0.69117202   -8.3393186    256.12273  0.015432799  0.014903104            2 
 1384000   0.70428773   -8.3125299    256.46244  0.015442102  0.014890303            1 
 1385000   0.69960228   -8.3259403      255.771   0.01538935  0.014877521            2 
 1386000   0.70471176   -8.3064795    256.01227  0.015392753  0.014864794            2 
 1387000   0.70977241   -8.2826414    256.43767  0.015407214   0.01485209            3 
 1388000   0.68851353   -8.3212147    256.04064  0.015372276   0.01483939            6 
 1389000   0.69987456   -8.2953288    256.53116  0.015390638  0.014826714            3 
 1390000   0.71066858    -8.292924    256.26649  0.015363698  0.014814087            2 
 1391000     0.677906   -8.2902829     256.7675  0.015382668  0.014801439            2 
 1392000   0.68848032   -8.3044292    256.17487  0.015336139  0.014788819            2 
 1393000   0.69358869   -8.3154624    257.11146   0.01538116  0.014776178            1 
 1394000   0.68424698   -8.2990502    256.69535  0.015345251  0.014763533            1 
 1395000   0.69681222   -8.2783323    256.38879  0.015315937  0.014750925            2 
 1396000   0.69808397   -8.3097117    256.30848  0.015300172  0.014738307            3 
 1397000   0.71387166   -8.3270629    256.29589  0.015288469  0.014725629            3 
 1398000   0.69571453   -8.3186182     255.9326  0.015255877  0.014712987            3 
 1399000   0.69662976   -8.2942499    256.37303  0.015271207  0.014700341            3 
 1400000   0.70278202   -8.3130047    256.51398  0.015268689  0.014687719            2 
 1401000   0.69841191   -8.3170759    255.98148  0.015226117  0.014675106            1 
 1402000   0.70540155   -8.3048409    256.51779  0.015247134  0.014662497            2 
 1403000   0.71450529   -8.3179533    256.40319   0.01522946  0.014649953            1 
 1404000   0.70051716   -8.2872134    256.91354  0.015248904  0.014637429            4 
 1405000   0.71366802   -8.2775404    256.41097  0.015208243  0.014624913            2 
 1406000    0.6901484   -8.3174204    256.11552  0.015179915  0.014612393            2 
 1407000   0.67237922   -8.3462396    256.12967  0.015169964    0.0145998            3 
 1408000   0.68635783   -8.3124091     256.4528  0.015178314  0.014587264            2 
 1409000    0.6825005   -8.2914132     256.6233  0.015177626  0.014574751            2 
 1410000   0.68363744    -8.283127    256.70442  0.015171656  0.014562251            1 
 1411000   0.69664404   -8.3229352    256.35702  0.015140386  0.014549751            3 
 1412000   0.69421388   -8.2872622    256.85512   0.01515906  0.014537256            3 
 1413000   0.67247877   -8.3308107    256.45239  0.015124581   0.01452479            1 
 1414000   0.68577382   -8.2947075    256.60675  0.015122982  0.014512335            3 
 1415000   0.68740385   -8.3035602    256.41933  0.015101256  0.014499874            1 
 1416000   0.69923158   -8.3413457    256.32724  0.015085172   0.01448742            1 
 1417000   0.68265698   -8.3033679    256.07053  0.015059429  0.014474943            3 
 1418000   0.67873984   -8.3055578    256.14671  0.015053286  0.014462454            2 
 1419000   0.68468477   -8.3164948    256.54848  0.015066272  0.014449971            2 
 1420000    0.6898978   -8.3169784    256.44283  0.015049462  0.014437472            2 
 1421000   0.68919392    -8.334603    256.18319  0.015023644  0.014424999            3 
 1422000   0.68805784   -8.3282123    256.26347  0.015017785  0.014412556            5 
 1423000   0.69058479   -8.3343096    256.50785  0.015021542  0.014400095            1 
 1424000   0.68994089    -8.315283     256.0918  0.014986645  0.014387662            2 
 1425000   0.69161719   -8.3381928    256.15986  0.014980109  0.014375261            2 
 1426000   0.67352143   -8.3255841     255.7873  0.014947832  0.014362866            2 
 1427000   0.67442519   -8.3009583    256.41904  0.014974249  0.014350474           14 
 1428000   0.70084135   -8.3092482    255.93323  0.014935413  0.014338103            2 
 1429000   0.66841683   -8.2862577    256.49454  0.014957694  0.014325752            3 
 1430000   0.68355442   -8.3239809    256.39386  0.014941367  0.014313449            2 
 1431000   0.68600622   -8.3219095    255.68147   0.01488944  0.014301069            3 
 1432000   0.68499565   -8.3410097     256.6196  0.014933636  0.014288706            1 
 1433000   0.69477437   -8.3171293    256.11281  0.014893743  0.014276373            1 
 1434000   0.68822127   -8.3163265     256.1038  0.014882834  0.014264043            3 
 1435000   0.68071656   -8.3343327    256.01526   0.01486732  0.014251714            4 
 1436000    0.6777231    -8.323435    256.46343  0.014882975  0.014239413            2 
 1437000   0.68673898   -8.3277746    256.07694  0.014850205  0.014227093            2 
 1438000   0.67716897   -8.3324879    255.96751  0.014833537  0.014214776            1 
 1439000   0.69031267   -8.3484726    255.74313  0.014810235  0.014202472            2 
 1440000   0.68180131   -8.3634626    255.78786  0.014802538  0.014190176            2 
 1441000   0.68825333     -8.34868    256.04804  0.014807312  0.014177856            8 
 1442000   0.67456271   -8.3508491    256.47895  0.014821946  0.014165565            4 
 1443000   0.67591775   -8.3473382      256.093  0.014789386  0.014153231            3 
 1444000   0.67893399   -8.3430272    255.86757  0.014766134   0.01414094            7 
 1445000   0.67521164   -8.3683142    255.72321   0.01474759   0.01412869            1 
 1446000   0.68067834   -8.3239023    256.38296  0.014775413  0.014116438            1 
 1447000   0.68896623   -8.3379979    256.25023  0.014757557  0.014104228            8 
 1448000   0.67056133   -8.3652895    255.87724    0.0147259  0.014092018            5 
 1449000   0.67260482   -8.3135671    255.89361  0.014716679   0.01407981            2 
 1450000   0.67074958   -8.3441608    256.74333  0.014755364  0.014067653            4 
 1451000   0.67967598   -8.3571261    255.48906   0.01467316  0.014055477            2 
 1452000   0.66155374   -8.3636158    256.31918  0.014710697  0.014043305            2 
 1453000   0.66700328   -8.3529914    255.65229  0.014662325  0.014031127            1 
 1454000   0.68315784   -8.3559729     255.8646  0.014664409  0.014018977            2 
 1455000   0.67374364   -8.3554229     255.7482  0.014647663  0.014006805            4 
 1456000   0.67577269   -8.3673182    255.96871  0.014650224  0.013994648            4 
 1457000   0.67261621   -8.3751664    255.58817  0.014618404  0.013982513            4 
 1458000   0.66964737    -8.381891    256.01236  0.014632622  0.013970402            5 
 1459000    0.6555077   -8.3632523    256.03301  0.014623772  0.013958281            4 
 1460000   0.66308766   -8.3543319    255.57608  0.014587676  0.013946192            3 
 1461000   0.67281017   -8.3277526     256.1323  0.014609417  0.013934129            4 
 1462000   0.65857378   -8.3668538    256.30024  0.014608997  0.013922064            2 
 1463000   0.66486387   -8.3469874    256.48113  0.014609315  0.013910016            6 
 1464000    0.6787271    -8.370193    256.38996  0.014594146  0.013897997            2 
 1465000   0.66808838   -8.3368952    256.47111  0.014588801  0.013885973            2 
 1466000   0.67193791    -8.361671    255.66835  0.014533217  0.013873968            2 
 1467000   0.66901714   -8.3375812    256.49001  0.014569985  0.013861941            4 
 1468000   0.65739202   -8.3639211    255.88843   0.01452591  0.013849953            1 
 1469000   0.66119912   -8.3542008    256.65254  0.014559368  0.013837982            1 
 1470000   0.66240094   -8.3431561    256.03782  0.014514615  0.013826007            2 
 1471000   0.67239471   -8.3681162    255.80394  0.014491499  0.013814025            3 
 1472000   0.66159412   -8.3682975    255.53656  0.014466517  0.013802047            5 
 1473000   0.66868279   -8.3687757    255.92957   0.01447893  0.013790079            1 
 1474000   0.66596025   -8.3619262    255.96694   0.01447122  0.013778085            2 
 1475000   0.67029979   -8.3644945    255.76196  0.014449829  0.013766118            4 
 1476000   0.66266168   -8.3486023    256.09312  0.014458735  0.013754175            3 
 1477000   0.66815883   -8.3488344    256.30095  0.014460672  0.013742254            2 
 1478000    0.6519048   -8.3729481    255.96948  0.014432199  0.013730315            7 
 1479000   0.66977345   -8.3731766    255.66271  0.014405156   0.01371838            6 
 1480000   0.66171632   -8.4170353    255.61375  0.014392666  0.013706457            1 
 1481000   0.66484043   -8.3816231    256.06394   0.01440828   0.01369452            1 
 1482000   0.66625242   -8.4169706    256.10561    0.0144009  0.013682601            1 
 1483000   0.65709412   -8.3814068    255.62463  0.014364162  0.013670685            4 
 1484000   0.65336719   -8.3981065     256.5798   0.01440812   0.01365881            1 
 1485000   0.66679586   -8.4174104    255.94964  0.014363055  0.013646952            2 
 1486000    0.6742968   -8.3763915    256.05748  0.014359437  0.013635069            3 
 1487000   0.66272208     -8.39838    255.88347  0.014340028  0.013623236            2 
 1488000   0.66389994   -8.3894079    256.32983  0.014355389  0.013611435            1 
 1489000   0.64562977   -8.4044784    255.90954  0.014322226  0.013599596            2 
 1490000   0.65781341   -8.4006376    255.32542  0.014279945  0.013587762            1 
 1491000   0.64996228   -8.4046201    255.51511   0.01428097  0.013575918            2 
 1492000   0.65347948   -8.3862846    255.61814  0.014277152  0.013564089            3 
 1493000   0.65387712   -8.4032508    255.88924  0.014282722  0.013552263            3 
 1494000   0.64667151   -8.3956493    256.23449  0.014292419  0.013540422            2 
 1495000   0.65216495   -8.4410757    255.81082  0.014259243  0.013528591            3 
 1496000   0.65780102   -8.4109106    255.94109  0.014256968  0.013516788            5 
 1497000   0.64673285   -8.3996501    256.06845  0.014254534  0.013504977            3 
 1498000   0.64795473   -8.4090433    256.17483  0.014250936  0.013493196            5 
 1499000   0.65771226   -8.3851376    255.82755  0.014222123  0.013481438            4 
 1500000   0.66333131    -8.408232    255.52063  0.014195591  0.013469713            2 
 1501000   0.65225168   -8.4089057    256.40592  0.014235283  0.013458001            4 
 1502000   0.65457188   -8.3946169    255.50463  0.014175801  0.013446309            1 
 1503000   0.66428148   -8.3851929    255.69537  0.014176945  0.013434594            2 
 1504000   0.64352677   -8.3846601    256.38494  0.014205726  0.013422901            1 
 1505000   0.65841363   -8.4030588     255.8431  0.014166285  0.013411197            2 
 1506000   0.66555136   -8.3920595     255.8775  0.014158782    0.0133995            1 
 1507000   0.63091584   -8.4233376    256.04893  0.014158866  0.013387822            1 
 1508000   0.63988722   -8.3956946     256.1159  0.014153177  0.013376166            1 
 1509000   0.66142325   -8.3988866     255.8182  0.014127358  0.013364516            2 
 1510000   0.64363281   -8.4060929     255.3696  0.014093245  0.013352881            2 
 1511000   0.65065834   -8.4195182    255.93917   0.01411533  0.013341228            2 
 1512000   0.66234086    -8.394001    255.95101  0.014106647  0.013329582            3 
 1513000   0.64038981   -8.4113241     255.5499  0.014075232  0.013317957            2 
 1514000   0.63967082   -8.4211066    255.34514  0.014054664  0.013306323            1 
 1515000   0.65343337   -8.4238689    255.28717  0.014042198  0.013294696            2 
 1516000   0.65335124   -8.4214915    255.44113  0.014041399  0.013283048            1 
 1517000   0.64352632   -8.4261895     255.7577  0.014049533   0.01327144            1 
 1518000   0.63816358   -8.4091541    255.45249  0.014023523  0.013259811            3 
 1519000    0.6518635   -8.4196064    255.53693  0.014018923  0.013248213            2 
 1520000   0.64345783   -8.4293167    255.33061  0.013998389  0.013236628            2 
 1521000    0.6463775   -8.4109958     256.0282  0.014027405  0.013225045            2 
 1522000   0.64994314   -8.4325202    255.14746  0.013969966  0.013213463            2 
 1523000    0.6319761   -8.4082301    255.50426  0.013980316  0.013201875            2 
 1524000   0.66270639   -8.4158256    255.70369  0.013982048    0.0131903            2 
 1525000   0.66076849   -8.4117714    255.34963  0.013953532  0.013178755            1 
 1526000    0.6389793   -8.4184535    255.20032  0.013936234  0.013167216            1 
 1527000   0.64880831   -8.4186705    255.46004  0.013941281  0.013155698            2 
 1528000   0.63154074   -8.4221789     255.1673  0.013916192  0.013144183            2 
 1529000   0.63642563   -8.4166873    255.71812  0.013937112  0.013132687            2 
 1530000   0.64077522   -8.4568866    255.51248  0.013916802  0.013121192            2 
 1531000   0.64423881   -8.3901759    255.90051  0.013928832    0.0131097            1 
 1532000   0.63952096   -8.4346736    255.30511  0.013887354   0.01309822            1 
 1533000     0.642865   -8.4283444    255.12401   0.01386845  0.013086744            2 
 1534000   0.63388722   -8.4541852    255.18529  0.013862738  0.013075283            1 
 1535000   0.64075397   -8.4186527    255.78428  0.013886226   0.01306384            1 
 1536000   0.64153096   -8.4378059     255.0397  0.013836789  0.013052438            2 
 1537000   0.63796973   -8.4333677    255.64304  0.013860499  0.013041026            2 
 1538000   0.62377131   -8.4330726    255.68898  0.013853976  0.013029617            2 
 1539000   0.63661243   -8.4302732    255.57849  0.013838991  0.013018228            4 
 1540000   0.64951458   -8.4438997    255.12419  0.013805422  0.013006836            3 
 1541000   0.63475396   -8.4380732    255.12644  0.013796584   0.01299548            4 
 1542000   0.63399747   -8.4625931    255.00125  0.013780872  0.012984138            4 
 1543000    0.6384487   -8.4327642    255.45055  0.013796206  0.012972812            2 
 1544000   0.64586406   -8.4174825    255.91722  0.013812458  0.012961501            1 
 1545000   0.63799943   -8.4427068     255.6691  0.013790135  0.012950194            3 
 1546000    0.6277686   -8.4332081    255.25627  0.013758963  0.012938904            2 
 1547000   0.63391368   -8.4083818    255.63888  0.013770679  0.012927608            1 
 1548000     0.635512   -8.4441938    255.29951  0.013743514  0.012916348            1 
 1549000   0.63714436   -8.4483265    255.18152  0.013728294  0.012905094            4 
 1550000    0.6347915   -8.4590638     255.1838  0.013719559  0.012893832            1 
 1551000   0.63631123    -8.436179     256.2471  0.013767843  0.012882578            2 
 1552000   0.63093719    -8.432745    255.87776  0.013739141  0.012871327            2 
 1553000   0.63015604   -8.4366181    255.83421  0.013727957  0.012860093            1 
 1554000   0.63769616   -8.4517305    255.42643  0.013697256   0.01284886            3 
 1555000   0.62809806   -8.4573937    255.22574  0.013677692  0.012837635            4 
 1556000   0.63093967   -8.4624046    255.22667  0.013668952  0.012826405            1 
 1557000   0.62437069   -8.4577526     255.4227  0.013670665  0.012815201            2 
 1558000   0.62365291   -8.4602476    255.53786   0.01366805  0.012804008            3 
 1559000   0.61787983   -8.4466054    255.49924  0.013657218  0.012792822            3 
 1560000   0.62492977   -8.4549233    255.53725  0.013650494  0.012781636            3 
 1561000    0.6317069   -8.4528506     254.9543  0.013610629  0.012770443            1 
 1562000   0.63827318   -8.4626191    255.26082  0.013618268  0.012759294            3 
 1563000   0.62217576    -8.455829    255.04259   0.01359792   0.01274814            3 
 1564000   0.62524771   -8.4692831    255.11446  0.013593055  0.012737008            4 
 1565000   0.63389405   -8.4323041    254.87638  0.013571692  0.012725873            2 
 1566000   0.63037872   -8.4672649    255.69681  0.013606684  0.012714738            2 
 1567000   0.61434834   -8.4454718    255.32422  0.013578186  0.012703631            2 
 1568000   0.63458378   -8.4657724    255.63574  0.013586083  0.012692542            1 
 1569000   0.63548619   -8.4582174     255.0837  0.013548104  0.012681466            1 
 1570000   0.62333543   -8.4783543    255.84388  0.013579824  0.012670388            1 
 1571000   0.62452813   -8.4663324    254.96477  0.013524548  0.012659338            1 
 1572000   0.63119472   -8.4814496    254.94777  0.013515043  0.012648291            2 
 1573000   0.62838055   -8.4710018    254.37677  0.013476201  0.012637237            2 
 1574000   0.63351257   -8.4928489    254.85112  0.013492753  0.012626175            1 
 1575000   0.61763601   -8.4797534    254.88925  0.013486204  0.012615112            3 
 1576000    0.6308063   -8.4725225    255.07296  0.013487361  0.012604054            2 
 1577000    0.6284085   -8.4961636    255.39815  0.013495992  0.012593024            4 
 1578000    0.6296927   -8.4751011    255.39229   0.01348713  0.012582022            1 
 1579000   0.62587973   -8.4727912    255.01581  0.013458719  0.012571007            2 
 1580000     0.624507   -8.4791935    254.99876  0.013449301  0.012560006            3 
 1581000   0.61814601   -8.5016287    254.54949  0.013417114  0.012549004            1 
 1582000   0.61621734   -8.4859109    254.94068  0.013429239  0.012538005            3 
 1583000   0.61478827   -8.4958311    255.00032  0.013423896  0.012527025            3 
 1584000    0.6196107   -8.4792083    254.71791  0.013400563  0.012516056            3 
 1585000   0.62694356   -8.4868327    255.35927  0.013425829  0.012505098            1 
 1586000   0.62881729   -8.4961224    254.48044  0.013371188  0.012494138            1 
 1587000   0.62624618    -8.489901     254.9896  0.013389498   0.01248318            3 
 1588000   0.60299905   -8.4925237     254.9263  0.013377744  0.012472216            2 
 1589000   0.62684854   -8.4842035    254.64678  0.013354666  0.012461277            3 
 1590000   0.61592676   -8.4946026    254.57711  0.013342616  0.012450339            3 
 1591000   0.61425646   -8.4933424    255.11264   0.01336228  0.012439396            2 
 1592000   0.61848376   -8.4680966    254.56041  0.013324979  0.012428467            1 
 1593000   0.62533008   -8.4866452    255.03622  0.013341505  0.012417555            2 
 1594000   0.61402195   -8.4919706     254.9469  0.013328466  0.012406659            2 
 1595000   0.61161895   -8.5113624    255.09386  0.013327788  0.012395782            2 
 1596000   0.62240606   -8.4792808    254.65465  0.013296504  0.012384912            2 
 1597000   0.61526031   -8.5138632     254.8938  0.013300657   0.01237406            4 
 1598000   0.61407968   -8.5143562    254.93037  0.013294241   0.01236321            1 
 1599000   0.62357967   -8.5088189    254.67811   0.01327278  0.012352378            3 
 1600000   0.61372787   -8.4976183    254.98605  0.013280523  0.012341551            1 
 1601000    0.6248352   -8.5005055    254.80955  0.013263041  0.012330723            2 
 1602000   0.62515597   -8.4794807    255.11303  0.013270549  0.012319924            2 
 1603000   0.62137816   -8.4964657    254.46744  0.013228709   0.01230913            3 
 1604000   0.61579015   -8.5004192    254.72186  0.013233679  0.012298335            1 
 1605000   0.60507364   -8.5162811    254.59204  0.013218694  0.012287556            1 
 1606000   0.62117237   -8.4953411    254.92386  0.013227681  0.012276784            2 
 1607000   0.60940396   -8.5350123    254.25537  0.013184784  0.012266017            2 
 1608000   0.61932015   -8.5220957    255.17176  0.013224076  0.012255253            1 
 1609000   0.60718859   -8.5029235    254.74246  0.013193622  0.012244518            3 
 1610000   0.62097009   -8.5061063    254.90874  0.013194034  0.012233788            3 
 1611000   0.59780814   -8.5217356    254.43013  0.013161087  0.012223061            3 
 1612000   0.61261256   -8.5148604    254.50202  0.013156639  0.012212336            3 
 1613000   0.60475879    -8.516163    254.51318  0.013149059   0.01220161            2 
 1614000   0.61276073   -8.5135536    254.84342  0.013157963  0.012190903            1 
 1615000   0.60236934     -8.50644    254.74312   0.01314464  0.012180206            2 
 1616000   0.61368915   -8.5027885    254.47784  0.013122826  0.012169517            4 
 1617000   0.60818513   -8.5160773    254.42599  0.013112038  0.012158856            2 
 1618000   0.61105889   -8.5296406    254.68054  0.013117045  0.012148213            2 
 1619000   0.61396346   -8.5198792    254.90646  0.013120571  0.012137571            1 
 1620000   0.60239438   -8.5320261    254.49922  0.013091524  0.012126913            2 
 1621000   0.59435127   -8.5177574    254.58507  0.013087861  0.012116279            2 
 1622000   0.61619246   -8.5329302     254.6188  0.013081525  0.012105663            2 
 1623000   0.59871581   -8.5092144    254.57916  0.013071429  0.012095056            2 
 1624000   0.60108752   -8.5520922    254.20091  0.013043971  0.012084454            1 
 1625000    0.6106389   -8.5221656    254.73381  0.013063272  0.012073866            1 
 1626000   0.60314738   -8.5175596    254.34633   0.01303538  0.012063275            2 
 1627000   0.59751016   -8.5312972    254.78351   0.01304976  0.012052694            1 
 1628000   0.62714171   -8.5453142    254.29502  0.013016739  0.012042131            2 
 1629000   0.59676513   -8.5389894    254.76676  0.013032881  0.012031572            1 
 1630000   0.61705103    -8.547334     254.4662  0.013009519   0.01202103            2 
 1631000   0.59852828   -8.5164435    254.76015  0.013016562  0.012010484            2 
 1632000   0.60454284   -8.5489097    254.49317  0.012994953  0.011999963            1 
 1633000   0.60282587   -8.5502074    254.22041  0.012973077  0.011989426            1 
 1634000   0.61163592   -8.5470792    254.51809  0.012980319  0.011978917            2 
 1635000   0.62095933   -8.5357329    254.45427  0.012969127  0.011968418            5 
 1636000    0.5972905   -8.5460787     254.6679  0.012972082   0.01195792            2 
 1637000   0.59352896   -8.5500626    254.28267  0.012944546  0.011947431            3 
 1638000   0.59185382   -8.5251178    254.93339  0.012969749  0.011936953            2 
 1639000   0.59368709    -8.529084    254.50664  0.012940138  0.011926492            2 
 1640000   0.59587835   -8.5300191    253.80303  0.012896496  0.011916032            3 
 1641000   0.59449277    -8.539641    254.10148  0.012903793  0.011905589            2 
 1642000   0.60130193   -8.5407106    254.32294  0.012907173  0.011895151            3 
 1643000   0.60506539   -8.5426886    253.92408  0.012879087  0.011884714            2 
 1644000   0.60572692   -8.5260556    254.32939  0.012891798  0.011874276            2 
 1645000   0.61487567   -8.5257329    254.40992   0.01288804  0.011863868            2 
 1646000   0.59538725   -8.5574007    254.35389  0.012877374  0.011853477            4 
 1647000   0.59949376   -8.5410604    253.68265  0.012835592  0.011843071            2 
 1648000   0.59094638   -8.5349176    254.41018  0.012864592  0.011832666            1 
 1649000   0.60156563   -8.5426903    254.16279  0.012844289  0.011822271            1 
 1650000    0.5844445   -8.5390407    253.80742  0.012818557  0.011811881            1 
 1651000   0.61009292   -8.5702157    254.06077   0.01282358  0.011801503            2 
 1652000   0.59968522   -8.5483736    254.06979  0.012816273  0.011791137            2 
 1653000   0.60169043    -8.557369    253.80458  0.012795149  0.011780779            1 
 1654000   0.59735085    -8.548909    254.78889  0.012837006  0.011770426            2 
 1655000    0.6021666    -8.555897    254.04032  0.012791557  0.011760079            2 
 1656000   0.59554101   -8.5514805    254.06147  0.012784897  0.011749769            2 
 1657000   0.59979787   -8.5554718    254.37244   0.01279282   0.01173947            2 
 1658000   0.57991831   -8.5544501    253.91481  0.012762103  0.011729171            3 
 1659000   0.58917555   -8.5580232    254.24114  0.012770803  0.011718879            1 
 1660000   0.58999801   -8.5866182    254.01749  0.012751882  0.011708587            1 
 1661000   0.59343048   -8.5450858    253.72122  0.012729341  0.011698297            1 
 1662000   0.58988763   -8.5537241    254.09915  0.012740631   0.01168802            1 
 1663000   0.58139861   -8.5628951    253.90985  0.012723484  0.011677773            1 
 1664000   0.58194783   -8.5640492    254.07762   0.01272424  0.011667533            1 
 1665000   0.58935065   -8.5485806    253.86414  0.012705913  0.011657284            2 
 1666000   0.58673485   -8.5556429    253.74127   0.01269214  0.011647055            1 
 1667000   0.59210484   -8.5736621    253.37572  0.012666253  0.011636835            1 
 1668000   0.59874484   -8.5691685    253.57948  0.012668839  0.011626612            1 
 1669000    0.5902786   -8.5557811    253.88073   0.01267629  0.011616397            1 
 1670000   0.58546728   -8.5567039    253.83107  0.012666221  0.011606186            1 
 1671000   0.59561459   -8.5506879    253.71212  0.012652709  0.011595992            2 
 1672000   0.59340246   -8.5763325    253.63416  0.012641256  0.011585813            1 
 1673000   0.59869333    -8.567751    253.64281  0.012634131  0.011575632            3 
 1674000   0.58971692   -8.5767314    253.24929  0.012606994  0.011565487            1 
 1675000   0.59771621   -8.5667838    253.88236  0.012630963  0.011555345            2 
 1676000   0.58872617   -8.5638608     253.9613  0.012627352  0.011545206            2 
 1677000   0.57855944   -8.5549189    253.73686  0.012608669  0.011535079            3 
 1678000   0.57875735   -8.5779388    253.43572    0.0125862  0.011524953            2 
 1679000   0.57491757   -8.5871966     253.7123  0.012592431  0.011514854            1 
 1680000   0.57564615   -8.5834645    254.09704   0.01260402  0.011504759            1 
 1681000    0.5822926   -8.5957436    253.70552  0.012577113   0.01149468            2 
 1682000   0.58286588   -8.6048587     253.5945  0.012564135  0.011484601            1 
 1683000   0.57937934   -8.5777247    253.72288  0.012563026  0.011474541            2 
 1684000   0.58957191   -8.5781296     253.6521  0.012552064  0.011464486            2 
 1685000   0.56985542   -8.5702189    253.84108   0.01255396  0.011454465            1 
 1686000   0.58402146   -8.5732547    254.11569  0.012560087  0.011444443            2 
 1687000   0.56379863   -8.5900638      253.512  0.012522821  0.011434435            1 
 1688000   0.56889578   -8.5549357    253.72033  0.012525688  0.011424436            2 
 1689000   0.59062415   -8.5610446     254.2231  0.012543078  0.011414448            2 
 1690000   0.58623047    -8.583713    253.59228   0.01250455  0.011404456            2 
 1691000   0.57242053   -8.5653738    253.53862  0.012494511  0.011394473            3 
 1692000   0.57437009   -8.5519379     253.9388  0.012506836  0.011384498            4 
 1693000   0.58877806   -8.5793262    254.02669  0.012503775  0.011374543            3 
 1694000   0.58696173   -8.5821157    253.92746  0.012491512  0.011364592            2 
 1695000   0.56876136   -8.5921859     253.9547  0.012485482  0.011354652            2 
 1696000   0.56993689   -8.5885425    253.95662  0.012478215  0.011344718            2 
 1697000   0.57007841   -8.5941802    253.73229  0.012459846  0.011334817            2 
 1698000   0.57341125   -8.5936687    253.37353    0.0124349  0.011324903            3 
 1699000   0.57717205   -8.5790857    253.22015  0.012420058  0.011314996            4 
 1700000   0.57777141   -8.5825727     253.7068  0.012436608  0.011305107            1 
 1701000   0.57614025    -8.607415    253.66709  0.012427351  0.011295239            1 
 1702000   0.57033218   -8.6190443    253.89496  0.012431206  0.011285362            1 
 1703000   0.56885489   -8.6006688    253.75366  0.012416993  0.011275508            4 
 1704000   0.57558449   -8.5882608    253.65018  0.012404645  0.011265673            2 
 1705000   0.57999431   -8.5951187    253.68523  0.012399083  0.011255845            2 
 1706000   0.58498979    -8.575915    253.25396  0.012370748  0.011246012            3 
 1707000   0.56934875   -8.6015944    253.60959  0.012380862  0.011236185            1 
 1708000   0.57215614   -8.6137058    253.51573  0.012369035  0.011226372            2 
 1709000   0.57959871   -8.5924865    253.63008  0.012367373  0.011216556            2 
 1710000   0.56685976   -8.6059793    253.63144  0.012360207  0.011206751            2 
 1711000   0.56965054   -8.5688953    253.72477  0.012357528   0.01119696            1 
 1712000   0.56531406   -8.5778679    253.49292  0.012339025  0.011187187            2 
 1713000   0.58090286   -8.6228903    253.30367  0.012322615  0.011177416            1 
 1714000   0.57780392   -8.6170658    253.44887  0.012322485  0.011167666            2 
 1715000   0.57673005   -8.5757459    253.30701  0.012308407  0.011157932            4 
 1716000   0.57383065   -8.6158185    253.91134  0.012330582  0.011148186            1 
 1717000   0.58205836   -8.5851769      253.565  0.012306591  0.011138461            2 
 1718000   0.56317152   -8.6023306    253.54871  0.012298637  0.011128748            2 
 1719000   0.57272212   -8.6183103    253.54078  0.012291098  0.011119039            2 
 1720000   0.56752936   -8.5989097    253.94052   0.01230332  0.011109342            2 
 1721000   0.55794395   -8.6049965    253.48046  0.012273894  0.011099643            2 
 1722000   0.55971503   -8.6183402     253.2092  0.012253639  0.011089959            2 
 1723000   0.55705442   -8.6305251    253.51202  0.012261173  0.011080298            1 
 1724000   0.56363239    -8.608896    253.45393  0.012251254  0.011070627            2 
 1725000   0.55895288   -8.5917689    253.33803  0.012238552  0.011060969            2 
 1726000   0.55552717    -8.598152    253.85114  0.012256235  0.011051332            2 
 1727000   0.57560577   -8.6072741    253.15206  0.012215405  0.011041689            2 
 1728000   0.55722539   -8.6046515    253.47268  0.012223798  0.011032067            3 
 1729000   0.56250747   -8.6047157    252.97068  0.012192533  0.011022458            1 
 1730000   0.56208082   -8.5936216    252.94661  0.012184326  0.011012849            1 
 1731000   0.56244287   -8.6102628     253.5915  0.012208333  0.011003258            1 
 1732000   0.56106384   -8.6056409    253.39498  0.012191829  0.010993678            2 
 1733000   0.57192236   -8.5933702    253.38704  0.012184412  0.010984105            2 
 1734000   0.55592338    -8.603724    253.71329  0.012193065  0.010974551            2 
 1735000   0.56972466   -8.5853519    253.12482  0.012157773  0.010965005            1 
 1736000   0.56178029   -8.6201756    253.65749  0.012176339  0.010955462            2 
 1737000   0.56520168   -8.6058697    253.46714  0.012160197   0.01094591            3 
 1738000   0.55964254   -8.6054798    252.99358  0.012130494  0.010936389            3 
 1739000   0.56505503   -8.6337388    252.82845  0.012115605  0.010926877            4 
 1740000   0.54787545   -8.6310003    253.11635  0.012122431  0.010917367            2 
 1741000   0.55755291   -8.6067596    253.46443  0.012132128   0.01090787            2 
 1742000   0.54585179   -8.6100037    253.16206  0.012110699  0.010898382            4 
 1743000   0.54807164   -8.6261149    253.12637  0.012102045  0.010888896            3 
 1744000   0.56661111    -8.617719    253.17807  0.012097576  0.010879424            2 
 1745000    0.5777324   -8.6212657    252.99492  0.012081897  0.010869966            2 
 1746000   0.56646445   -8.6307148     252.9411  0.012072408  0.010860533            3 
 1747000   0.56064106   -8.6023098    253.47845   0.01209113  0.010851102            2 
 1748000   0.56466564   -8.6275452    253.28119  0.012074809  0.010841686            1 
 1749000   0.55189806    -8.607677    253.51133   0.01207887  0.010832273            3 
 1750000    0.5419523   -8.6046089    253.11678   0.01205318  0.010822856            2 
 1751000   0.54976213   -8.6270615    252.83947  0.012033099  0.010813455            2 
 1752000   0.55250238   -8.6212249     253.1322  0.012040154  0.010804067            1 
 1753000   0.54160531    -8.603675    253.00975  0.012027465   0.01079468            2 
 1754000   0.54718408   -8.6167059    252.75773  0.012008634  0.010785296            2 
 1755000   0.54844916   -8.6338749    253.31087  0.012028057  0.010775929            2 
 1756000   0.55517397   -8.5969281    253.24762  0.012018205  0.010766566            1 
 1757000   0.54671285   -8.6303665    253.13605  0.012006073  0.010757194            1 
 1758000   0.54445755   -8.6257656    252.81588  0.011984067  0.010747857            2 
 1759000    0.5527514   -8.6358694    253.30816  0.012000576  0.010738525            3 
 1760000   0.56168988    -8.638366    253.23829  0.011990449  0.010729203            3 
 1761000   0.55055266   -8.6278974    253.07017  0.011975685  0.010719882            1 
 1762000   0.54612103   -8.6331617     252.8662  0.011959241  0.010710574            1 
 1763000   0.55512586    -8.628718     252.8771  0.011952973   0.01070127            4 
 1764000   0.53932519   -8.6172774    253.09836   0.01195665  0.010691981            1 
 1765000    0.5575389   -8.6294477    252.91354  0.011941149  0.010682694            2 
 1766000   0.56064665   -8.6363863    252.85922  0.011931824  0.010673418            2 
 1767000   0.54561992   -8.6313807    252.68677  0.011916939  0.010664151            1 
 1768000   0.54553725    -8.648458    253.22989  0.011935798  0.010654901            3 
 1769000   0.52624554   -8.6247335     253.0077  0.011918584  0.010645651            3 
 1770000   0.54317916   -8.6392416    253.30662  0.011925924  0.010636423            2 
 1771000   0.54946919    -8.631611    252.69101  0.011890222  0.010627195            2 
 1772000   0.55652216    -8.634667    253.07026  0.011901348   0.01061798            2 
 1773000   0.52980672   -8.6427475    253.18929   0.01190023  0.010608769            4 
 1774000   0.54451268   -8.6482907    252.69868  0.011870475  0.010599578            1 
 1775000   0.53878163    -8.650499    253.24417  0.011889398  0.010590404            1 
 1776000   0.53895795    -8.645551    253.26537  0.011883698  0.010581242            3 
 1777000   0.53808739    -8.633363    253.00351   0.01186473  0.010572074            1 
 1778000   0.55185273   -8.6493307     252.9898  0.011857415  0.010562924            2 
 1779000   0.53803491   -8.6485748    253.29959  0.011865261  0.010553783            2 
 1780000   0.54797065   -8.6508768    252.89777  0.011839783  0.010544647            1 
 1781000   0.54563622   -8.6406361    252.88516  0.011832546  0.010535524            3 
 1782000   0.54937653   -8.6500659    252.94438  0.011828675  0.010526407            2 
 1783000   0.54320676   -8.6467081    252.51837   0.01180213  0.010517308            3 
 1784000   0.53685489     -8.64124    253.10395  0.011822868  0.010508198            1 
 1785000   0.55216833   -8.6431157    253.18603  0.011820076  0.010499105            2 
 1786000   0.54213981    -8.641835    253.20079  0.011814146  0.010490015            5 
 1787000   0.54038195    -8.640567    252.67453  0.011782994  0.010480936            1 
 1788000   0.55309967   -8.6556683    252.30764  0.011759304   0.01047187            2 
 1789000   0.54272489   -8.6486909    252.59873  0.011766291  0.010462803            1 
 1790000   0.52341431   -8.6427388    252.69956  0.011764411  0.010453738            5 
 1791000   0.54155397   -8.6620122     252.7359  0.011759534  0.010444696            2 
 1792000   0.53926117   -8.6543397    252.29355  0.011732401  0.010435659            3 
 1793000   0.53297499   -8.6441821     252.7698  0.011747992  0.010426649            2 
 1794000   0.54272343   -8.6674679    252.88709  0.011746892  0.010417642            1 
 1795000   0.54298046   -8.6436091    252.62281  0.011728078  0.010408643            1 
 1796000    0.5383248   -8.6595396    252.60679  0.011720805  0.010399659            3 
 1797000    0.5388995    -8.670451    252.65932  0.011716719  0.010390675            2 
 1798000   0.53563723   -8.6574059    252.93475  0.011722968    0.0103817            1 
 1799000   0.52841645   -8.6630399     252.5496  0.011698611  0.010372726            2 
 1800000    0.5309674     -8.65184    252.53702  0.011691529  0.010363774            3 
 1801000   0.53433684   -8.6592699    253.03619  0.011708134  0.010354818            3 
 1802000   0.53944017   -8.6603267    252.89027  0.011694888  0.010345878            2 
 1803000    0.5310521   -8.6589615    252.73335   0.01168115  0.010336953            2 
 1804000   0.52008885   -8.6484884    252.79514  0.011677529  0.010328036            3 
 1805000   0.52928006   -8.6600902     252.9461  0.011678029  0.010319128            2 
 1806000   0.53177216   -8.6532133    252.50996  0.011651438  0.010310239            1 
 1807000   0.52870775   -8.6447487    252.72128  0.011654735  0.010301358            1 
 1808000   0.53681013    -8.680073    252.63528  0.011644325  0.010292481            4 
 1809000   0.53870738   -8.6744824    252.73457  0.011642462  0.010283616            4 
 1810000   0.53982031   -8.6720756    252.97283  0.011646999   0.01027476            3 
 1811000    0.5244083   -8.6811001    252.16621  0.011603452  0.010265909            2 
 1812000   0.52059613   -8.6659723    252.55644  0.011614995  0.010257067            1 
 1813000   0.53508762   -8.6849532    252.81722  0.011620575  0.010248232            2 
 1814000    0.5278534   -8.6702705     252.5302  0.011600983  0.010239417            2 
 1815000   0.52456308   -8.6790986       252.33  0.011585399  0.010230607            1 
 1816000   0.52426357   -8.6842431     252.8621  0.011603437   0.01022181            1 
 1817000   0.52803111   -8.6771573    252.50167  0.011580521  0.010213019            2 
 1818000   0.52575024   -8.6606152    252.49859   0.01157401  0.010204222            1 
 1819000   0.52216896   -8.6680991     252.3589  0.011561247   0.01019545            2 
 1820000   0.52979701   -8.6738107      252.264   0.01155055  0.010186684            2 
 1821000   0.53168659   -8.6697088    252.56336  0.011557906   0.01017793            1 
 1822000   0.51586964   -8.6714386    252.49063  0.011548236   0.01016918            2 
 1823000   0.52960376   -8.6756172    252.78187  0.011555214  0.010160442            2 
 1824000     0.514321   -8.6655093    252.62529  0.011541726  0.010151703            3 
 1825000   0.52571674   -8.6839548    252.33939  0.011522347  0.010142987            1 
 1826000   0.52499073   -8.6455185    252.73163  0.011533937  0.010134274            1 
 1827000   0.52232305    -8.659481    252.26585  0.011506379  0.010125578            5 
 1828000   0.52299994   -8.6804073    252.01329  0.011488571  0.010116892            1 
 1829000   0.52247929   -8.6687192    252.59078  0.011508601  0.010108214            1 
 1830000    0.5176064   -8.6771067    252.68946  0.011506806  0.010099544            1 
 1831000   0.52038846   -8.6644845    252.19348  0.011477948  0.010090885            1 
 1832000   0.52703961   -8.6795296    252.61391  0.011490808   0.01008224            4 
 1833000   0.53641527   -8.6759118    252.80705  0.011493319  0.010073608            1 
 1834000   0.52243916   -8.6726173      252.337  0.011465694  0.010064988            2 
 1835000   0.52440708    -8.690602     252.2818  0.011456939  0.010056366            1 
 1836000   0.51551073    -8.699876    252.55044  0.011462892  0.010047761            1 
 1837000   0.52207146   -8.6978817    252.85128  0.011470299  0.010039152            3 
 1838000   0.51262955   -8.6905837    252.55338  0.011450552  0.010030555            3 
 1839000   0.51874784   -8.6850286    252.46948  0.011440524  0.010021972            1 
 1840000   0.52376692   -8.6962739    252.26468  0.011425031  0.010013396            2 
 1841000   0.52266103   -8.6843697    252.31654  0.011421173  0.010004824            2 
 1842000   0.51189876   -8.6926233      252.446  0.011420829 0.0099962644            2 
 1843000   0.51719777   -8.6934942    252.22035  0.011404429 0.0099877168            3 
 1844000   0.51777842   -8.6864573    252.33224  0.011403301 0.0099791815            2 
 1845000   0.52346996   -8.6821304    252.69285  0.011413408 0.0099706527            3 
 1846000   0.53051854   -8.6979977    252.48508  0.011397846 0.0099621371            1 
 1847000   0.51760474   -8.6796928     252.4623  0.011390647 0.0099536259            1 
 1848000   0.52337526   -8.6974375    252.35807  0.011379783 0.0099451346            1 
 1849000   0.51830138   -8.6923483    252.29929  0.011370979 0.0099366507            2 
 1850000   0.50990937   -8.7151484    252.24467  0.011362373 0.0099281681            2 
 1851000   0.51532219   -8.6831278    252.37702  0.011362193 0.0099197012            3 
 1852000   0.50848246   -8.6748911    252.52398   0.01136267 0.0099112349            2 
 1853000   0.52291358    -8.697104    252.10997  0.011337919 0.0099027691            1 
 1854000   0.51292182   -8.6854779    252.45501  0.011347312 0.0098943291            3 
 1855000   0.51716844    -8.688639    252.66511  0.011350634   0.00988589            1 
 1856000   0.51287533   -8.7082496    252.21679  0.011324389 0.0098774638            3 
 1857000   0.51771177   -8.6957241    252.28703  0.011321443 0.0098690444            2 
 1858000   0.51151538   -8.6736451     252.1466  0.011309051 0.0098606307            2 
 1859000   0.52748076   -8.6933041    252.35928  0.011312501 0.0098522327            2 
 1860000   0.51122063   -8.7088462    252.41536  0.011308932 0.0098438404            1 
 1861000    0.5095483    -8.697899    252.20748  0.011293547 0.0098354576            3 
 1862000   0.50870026   -8.7114311    252.07518   0.01128156 0.0098270773            4 
 1863000   0.50486128   -8.7004238    251.96261  0.011270469 0.0098187022            2 
 1864000   0.51186717   -8.7041984    252.63195  0.011294347 0.0098103356            3 
 1865000   0.50851968   -8.6859227    252.26062  0.011271699 0.0098019723            1 
 1866000   0.50832195   -8.7005611    252.34392  0.011269378 0.0097936324            1 
 1867000   0.50560604   -8.7000169    251.80948  0.011239488 0.0097852905            1 
 1868000   0.50853393   -8.7144834     252.1086  0.011246815 0.0097769547            1 
 1869000   0.50264454   -8.7117176    251.85256  0.011229381 0.0097686426            5 
 1870000   0.50767951   -8.7029272    252.21172  0.011239381  0.009760325            2 
 1871000    0.5026236   -8.6898022    252.18665  0.011232258 0.0097520132            2 
 1872000    0.5095715   -8.7000801    252.15057  0.011224651 0.0097437221            2 
 1873000    0.4953621   -8.7093835    252.18308  0.011220105 0.0097354318            3 
 1874000   0.50279902   -8.7121052    252.38995  0.011223317 0.0097271509            6 
 1875000   0.49751758   -8.7044859    251.93889  0.011197284 0.0097188735            5 
 1876000   0.50266693   -8.7126552     252.0836  0.011197744 0.0097106195            3 
 1877000   0.49891996   -8.7138593    252.18558  0.011196305 0.0097023682            2 
 1878000   0.51545882   -8.7098565    252.32272  0.011196429 0.0096941279            4 
 1879000   0.51128342   -8.7061181    252.32135   0.01119041 0.0096858918            2 
 1880000   0.50081852   -8.7171595     252.2726  0.011182296 0.0096776691            5 
 1881000   0.50102205   -8.7169731    252.26144  0.011175857 0.0096694493            2 
 1882000   0.48773079   -8.7203078    252.09217  0.011162423 0.0096612375            4 
 1883000   0.49098673    -8.716941    252.03936  0.011154158 0.0096530388            3 
 1884000   0.49971365    -8.726757    252.10909  0.011151322 0.0096448495            4 
 1885000    0.4989912   -8.7186949    252.35267  0.011156174 0.0096366727            2 
 1886000   0.50657345   -8.7053363    252.64425  0.011163143 0.0096285074            2 
 1887000   0.50349144   -8.7079114    252.84784  0.011166218 0.0096203436            5 
 1888000   0.50910092   -8.7202624    252.17124   0.01113044  0.009612198            1 
 1889000   0.49352267   -8.7059852    252.04497  0.011118977 0.0096040592            5 
 1890000   0.49857692   -8.7156394    252.22785  0.011121157 0.0095959251            3 
 1891000   0.49266344    -8.710075    252.35447  0.011120856 0.0095878004            2 
 1892000   0.49322358   -8.7027615    252.19465  0.011107939 0.0095796843            3 
 1893000   0.49655443   -8.7187804    252.00158  0.011093572 0.0095715665            3 
 1894000   0.49576765   -8.7356132    251.92321  0.011084267 0.0095634623            4 
 1895000   0.50576515   -8.7299266     252.2647  0.011093435 0.0095553632            1 
 1896000    0.5043245   -8.7100832    252.20448  0.011084937 0.0095472761            3 
 1897000   0.50499991   -8.7142569    251.99376  0.011069837  0.009539201            6 
 1898000   0.50725014   -8.7323948    252.09614  0.011068499 0.0095311345            2 
 1899000   0.49957283   -8.7386322    251.94096  0.011055861 0.0095230724            1 
 1900000   0.50780124   -8.6988223    252.11336  0.011057603 0.0095150219            1 
 1901000   0.49389789   -8.7261752    252.18107  0.011054755 0.0095069862            1 
 1902000   0.50019253    -8.712575    252.08586  0.011044771 0.0094989604            3 
 1903000   0.49472399   -8.7335849    251.73006  0.011023387 0.0094909473            2 
 1904000   0.50685928   -8.7190886     252.0418  0.011031241 0.0094829368            1 
 1905000   0.48770296   -8.7249214    251.74627  0.011012523 0.0094749387            3 
 1906000   0.49031719   -8.7275609    252.22195  0.011027542 0.0094669428            2 
 1907000   0.48752785   -8.7355805    251.75636  0.011001414 0.0094589484            5 
 1908000   0.49501618   -8.7187042    252.12375  0.011011694 0.0094509698            2 
 1909000   0.49326799   -8.7264671    252.03771   0.01100217 0.0094430037            2 
 1910000   0.49438186   -8.7295164    252.15674  0.011001603 0.0094350369            3 
 1911000    0.4991129   -8.7369872    252.11548  0.010994047 0.0094270798            3 
 1912000   0.49768879   -8.7282453    252.17651  0.010990957 0.0094191356            1 
 1913000   0.48385041   -8.7287081    251.92767  0.010974371 0.0094112034            2 
 1914000    0.4996602   -8.7108984    251.68968  0.010958276  0.009403272            3 
 1915000   0.48155592   -8.7254614    251.73966  0.010954728 0.0093953537            1 
 1916000   0.49247994   -8.7424509    252.22779  0.010970242 0.0093874414            2 
 1917000   0.48794053   -8.7314815    252.01201  0.010955139 0.0093795431            2 
 1918000    0.4896446     -8.71527    251.73851  0.010937544 0.0093716426            3 
 1919000   0.48264994   -8.7431991    251.98049  0.010942352 0.0093637654            1 
 1920000   0.48511962   -8.7191319    252.02535    0.0109386 0.0093558901            1 
 1921000   0.48716669   -8.7316563    251.99824   0.01093173 0.0093480265            1 
 1922000   0.48784496   -8.7356777    251.66091  0.010911416 0.0093401731            2 
 1923000   0.50217866   -8.7461256     251.7706  0.010910496 0.0093323262            2 
 1924000   0.49103463   -8.7274315    251.57853  0.010896506 0.0093244837            1 
 1925000   0.48818637   -8.7256289    251.66478  0.010894579 0.0093166434            1 
 1926000   0.49017705   -8.7429606    251.99383   0.01090316 0.0093088153            2 
 1927000   0.48157254   -8.7389609    251.91752  0.010894202 0.0093009974            1 
 1928000   0.47863265   -8.7334863    252.07957  0.010895555 0.0092931835            1 
 1929000   0.47206562   -8.7380838    251.80186   0.01087791 0.0092853867            2 
 1930000   0.48155935   -8.7560123    251.47816  0.010858297 0.0092775921            1 
 1931000   0.48866871   -8.7423098    252.02107  0.010876103 0.0092698086            1 
 1932000   0.48381845   -8.7394756    252.03545  0.010871094 0.0092620429            2 
 1933000   0.48209229   -8.7369845    251.73133  0.010852359 0.0092542717            1 
 1934000    0.4829414   -8.7400169    251.74221  0.010847217 0.0092465101            5 
 1935000   0.47575187   -8.7472317    251.89399  0.010848148 0.0092387629            1 
 1936000   0.47955312   -8.7401427     251.6702  0.010832911 0.0092310168            3 
 1937000   0.47373598   -8.7379767    251.82905  0.010834153 0.0092232817            3 
 1938000   0.47519955   -8.7339438    251.59097  0.010818325 0.0092155561            2 
 1939000    0.4784654   -8.7391209    251.79993  0.010821726 0.0092078321            3 
 1940000   0.48461884   -8.7456035    251.75506  0.010814221 0.0092001238            2 
 1941000   0.48902789    -8.742635    251.77499  0.010809505 0.0091924224            2 
 1942000   0.48304598    -8.734626     251.8064  0.010805287 0.0091847248            2 
 1943000   0.47066587   -8.7536558    251.64447   0.01079278 0.0091770327            3 
 1944000   0.47736883   -8.7434561    251.99207  0.010802129 0.0091693498            1 
 1945000   0.48555807   -8.7521532    251.47103  0.010774251 0.0091616797            1 
 1946000   0.48010907   -8.7423532     251.8232  0.010783796 0.0091540172            2 
 1947000   0.47590738   -8.7315559    251.62848  0.010769923 0.0091463638            2 
 1948000   0.47260332    -8.763229    251.49003  0.010758471 0.0091387222            4 
 1949000   0.46459011   -8.7499077    251.45769  0.010751569 0.0091310802            1 
 1950000   0.47347921   -8.7422069      251.743  0.010758248 0.0091234475            2 
 1951000   0.47420615   -8.7531628    251.84107  0.010756922 0.0091158264            2 
 1952000   0.48353144    -8.758355    251.52302  0.010737834 0.0091082104            2 
 1953000   0.47201541   -8.7496864    251.48713  0.010730804 0.0091005998            1 
 1954000   0.46517925   -8.7564852    251.65914  0.010732649 0.0090929991            2 
 1955000   0.47222726   -8.7634499    251.87619   0.01073641 0.0090854036            3 
 1956000   0.46882833   -8.7569391    251.50287  0.010715017 0.0090778171            3 
 1957000   0.47242953   -8.7595596     251.5382  0.010711046 0.0090702472            3 
 1958000   0.47178952   -8.7560442    251.79524  0.010716515 0.0090626869            2 
 1959000   0.47229964   -8.7433916     251.6037  0.010702897 0.0090551364            2 
 1960000   0.46507019   -8.7617946    251.46019  0.010691335 0.0090475923            3 
 1961000   0.46670707   -8.7617406    251.51293  0.010688124 0.0090400523            3 
 1962000   0.47185531   -8.7358254    251.78455  0.010694213 0.0090325249            1 
 1963000   0.46959118   -8.7439752    251.37614  0.010671427 0.0090250005            1 
 1964000   0.46679976   -8.7689133    251.53879  0.010672895 0.0090174758            1 
 1965000   0.46153295    -8.762538    251.83637  0.010680084 0.0090099653            1 
 1966000    0.4769566   -8.7614727    251.56832  0.010663289 0.0090024535            2 
 1967000    0.4621972   -8.7561552    251.33609   0.01064803 0.0089949504            2 
 1968000   0.45426083   -8.7731761    251.49814  0.010649481 0.0089874577            2 
 1969000   0.46096125   -8.7667794    251.59041  0.010647978 0.0089799731            2 
 1970000   0.46963244   -8.7695885    251.22713  0.010627205  0.008972499            2 
 1971000   0.47188986   -8.7743304    251.08116  0.010615642 0.0089650315            1 
 1972000   0.47009469    -8.769233    251.60615  0.010632444 0.0089575818            2 
 1973000   0.47020605   -8.7595254    251.63371  0.010628219 0.0089501366            3 
 1974000   0.47829136   -8.7575379    251.76207  0.010628254 0.0089426971            1 
 1975000   0.46237609   -8.7615784    251.53386  0.010613243 0.0089352605            2 
 1976000   0.47311808   -8.7681967    251.01509  0.010585994   0.00892783            4 
 1977000   0.46130705   -8.7638442    251.07722  0.010583258  0.008920409            2 
 1978000   0.45738686   -8.7707305    251.36685   0.01059011 0.0089129939            1 
 1979000   0.45922791   -8.7868872    251.80185  0.010603076 0.0089055967            1 
 1980000   0.46877974   -8.7722367    251.19715  0.010572271  0.008898198            1 
 1981000   0.45625449   -8.7726912    251.57557  0.010582853 0.0088908113            2 
 1982000   0.46555456   -8.7777685    251.51707  0.010575054   0.00888343            2 
 1983000   0.47129625   -8.7658501     251.4139  0.010565385 0.0088760618            3 
 1984000   0.46659572   -8.7555512    251.01852  0.010543453 0.0088687018            2 
 1985000   0.45584249   -8.7809605    251.44333  0.010555975 0.0088613514            1 
 1986000   0.45573625   -8.7773002    251.16477  0.010538972 0.0088540034            2 
 1987000   0.46562382   -8.7502236    251.32768    0.0105405 0.0088466582            2 
 1988000   0.46210281   -8.7780328     251.4054  0.010538456 0.0088393252            4 
 1989000   0.46077236   -8.7620443    251.50262  0.010537231 0.0088320008            1 
 1990000   0.45436081   -8.7792675    251.25821  0.010521701  0.008824684            1 
 1991000   0.45545508   -8.7545081    250.86105  0.010499793 0.0088173729            2 
 1992000   0.46885309   -8.7831149    251.62816  0.010526613 0.0088100715            2 
 1993000   0.45740136   -8.7737728    251.16352  0.010501904 0.0088027819            2 
 1994000   0.45360708   -8.7766393    251.19251  0.010497848 0.0087954934            2 
 1995000   0.44733358   -8.7649152    251.51376  0.010506005 0.0087882103            1 
 1996000   0.45367102   -8.7792878    251.17454  0.010486579 0.0087809349            2 
 1997000   0.45598417   -8.7831568     251.1553  0.010480525 0.0087736737            2 
 1998000   0.45670399    -8.789273    251.11659  0.010473665 0.0087664204            3 
 1999000   0.44943494   -8.7817571    250.99836  0.010463497 0.0087591707            1 
 2000000   0.44976733   -8.7819341    251.50107  0.010479211 0.0087519303            2 
 2001000   0.45651167   -8.7693355    250.91409  0.010449529 0.0087446821            1 
 2002000   0.44800847   -8.7792007    251.29797  0.010460288 0.0087374529            2 
 2003000    0.4694751   -8.7806677    251.25008  0.010453074 0.0087302284            3 
 2004000   0.45449472   -8.8034574    251.20566   0.01044601  0.008723008            1 
 2005000   0.45598919   -8.7845342    251.50461  0.010453226 0.0087157893            1 
 2006000   0.45898341   -8.7783435    251.44177  0.010445404 0.0087085888            1 
 2007000   0.45434892   -8.7770819    251.25139  0.010432295 0.0087013949            2 
 2008000   0.45369969   -8.7988949    250.94179  0.010414251 0.0086942073            1 
 2009000   0.45174902   -8.7969724    251.28161  0.010423163 0.0086870292            2 
 2010000   0.44827759   -8.7866667    250.86467  0.010400691 0.0086798503            1 
 2011000   0.44689374   -8.7953719    250.88879  0.010396519 0.0086726887            1 
 2012000   0.44881931   -8.7905948    251.22176  0.010405142 0.0086655331            1 
Loop time of 4836.35 on 48 procs for 2000000 steps with 4000 atoms

Performance: 71458.853 tau/day, 413.535 timesteps/s
99.4% CPU use with 48 MPI tasks x no OpenMP threads

MPI task timing breakdown:
Section |  min time  |  avg time  |  max time  |%varavg| %total
---------------------------------------------------------------
Pair    | 305.98     | 326.46     | 347.38     |  63.7 |  6.75
Neigh   | 31.555     | 33.157     | 35.232     |  14.7 |  0.69
Comm    | 304.02     | 327.46     | 352.89     |  71.4 |  6.77
Output  | 4.1239     | 4.1258     | 4.1576     |   0.2 |  0.09
Modify  | 4090.3     | 4100.6     | 4111.3     |   7.9 | 84.79
Other   |            | 44.52      |            |       |  0.92

Nlocal:        83.3333 ave          89 max          77 min
Histogram: 2 3 2 5 3 17 7 4 3 2
Nghost:        2100.40 ave        2126 max        2083 min
Histogram: 5 3 8 10 7 4 6 3 1 1
Neighs:        13728.8 ave       15500 max       12493 min
Histogram: 8 2 5 5 11 4 8 4 0 1
FullNghs:      27457.1 ave       29473 max       25078 min
Histogram: 1 2 5 5 5 12 7 6 3 2

Total # of neighbors = 1317940
Ave neighs/atom = 329.48500
Neighbor list builds = 107022
Dangerous builds = 0

#clear
#
#next RN
#
#jump SELF
Total wall time: 1:20:39
