
units lj                  # Use reduced LJ style units
atom_style atomic         # Uncharged point particles
atom_modify map hash      # Needed for indexing of clusters etc
                          # Used to be able to find where atoms are in relation to each other.

lattice fcc 1.0 spacing 1 1 1
Lattice spacing in x,y,z = 1.5874011 1.5874011 1.5874011
region box block 0 10 0 10 0 10 units lattice
create_box 2 box
Created orthogonal box = (0.0000000 0.0000000 0.0000000) to (15.874011 15.874011 15.874011)
  3 by 4 by 4 MPI processor grid
create_atoms 1 box
Created 4000 atoms
  using lattice units in orthogonal box = (0.0000000 0.0000000 0.0000000) to (15.874011 15.874011 15.874011)
  create_atoms CPU = 0.003 seconds
set type 1 type/fraction 2 0.29 78393
Setting atom values ...
  1200 settings made for type/fraction
mass 1 1.0
mass 2 1.0
pair_style lj/cut  3.5
pair_modify tail  yes
pair_coeff 1  1  1.0  1.0   # Intearaction between 1 and 1 set with epsilon = 1 and sigma = 1
pair_coeff 1  2  1.5  0.8
pair_coeff 2  2  0.5  0.88

write_data data.0
System init for write_data ...
Neighbor list info ...
  update every 1 steps, delay 10 steps, check yes
  max neighbors/atom: 2000, page size: 100000
  master list distance cutoff = 3.8
  ghost atom cutoff = 3.8
  binsize = 1.9, bins = 9 9 9
  1 neighbor lists, perpetual/occasional/extra = 1 0 0
  (1) pair lj/cut, perpetual
      attributes: half, newton on
      pair build: half/bin/atomonly/newton
      stencil: half/bin/3d
      bin: standard
WARNING: Not all mixed pair coeffs generated from mixing. Use write_data with 'pair ij' option to store all pair coeffs. (../write_data.cpp:312)


#############################
#   M E L T   S Y S T E M   #
#############################

velocity all create 2.4 1741580 mom yes dist gaussian # Assign velocities
                                                    # Temperature 2.4, random number seed, zero linear momentum
                                                                                # Gaussian distribution

timestep 0.002   # simulation timestep
thermo 1000       # output thermodynamic data every 1000 steps bf 100

# Define a fix  in this case with index 1 applied to all
# particles in the simulation. This fix is for simulations
# in the anisotropic NPT ensemble. Note that we use the MTK
# correction.
fix 1 all npt temp 2.4 2.4 0.1 iso 5.68 5.68 0.5 mtk yes tchain 5 pchain 5 # Use NPT ensemble
                                                                         # Set temperature and pressure and damping
                                                                         # Numbers of thermostats in chain and in barostat
run 10000          # run for 10000 steps
Per MPI rank memory allocation (min/avg/max) = 3.642 | 3.644 | 3.648 Mbytes
Step Temp E_pair E_mol TotEng Press Volume 
       0          2.4   -6.4756105            0   -2.8765105   -3.9602485         4000 
    1000     2.468397   -4.9548607            0   -1.2531909    5.6678105    4192.7435 
    2000    2.3853738   -4.9803894            0   -1.4032232    5.5842434    4181.0927 
    3000    2.4141675   -4.9461996            0   -1.3258536    5.6705891    4199.3433 
    4000    2.4298835   -4.9876209            0   -1.3437069      5.69904     4177.548 
    5000    2.4146918   -4.9810175            0   -1.3598853    5.7572829    4176.6609 
    6000    2.3391083   -4.9202061            0   -1.4124208    5.4975196    4214.9735 
    7000    2.3942646   -4.9606633            0   -1.3701642     5.544326    4198.7661 
    8000    2.3774719   -4.9857064            0     -1.42039    5.7275028    4159.0054 
    9000    2.4456386   -4.8980525            0   -1.2305117    5.7522562     4207.519 
   10000    2.3711178   -4.9808933            0   -1.4251058    5.7043092    4172.0705 
Loop time of 2.41349 on 48 procs for 10000 steps with 4000 atoms

Performance: 715975.148 tau/day, 4143.375 timesteps/s
99.6% CPU use with 48 MPI tasks x no OpenMP threads

MPI task timing breakdown:
Section |  min time  |  avg time  |  max time  |%varavg| %total
---------------------------------------------------------------
Pair    | 1.0247     | 1.1137     | 1.1759     |   2.9 | 46.15
Neigh   | 0.20464    | 0.21332    | 0.22437    |   0.8 |  8.84
Comm    | 0.75891    | 0.8279     | 0.93254    |   3.8 | 34.30
Output  | 0.00025157 | 0.00025574 | 0.00032836 |   0.0 |  0.01
Modify  | 0.22482    | 0.243      | 0.26396    |   2.2 | 10.07
Other   |            | 0.01528    |            |       |  0.63

Nlocal:        83.3333 ave          93 max          77 min
Histogram: 4 7 7 10 4 8 2 2 1 3
Nghost:        1597.44 ave        1627 max        1573 min
Histogram: 4 1 5 8 13 8 3 3 0 3
Neighs:        9149.19 ave       10574 max        8030 min
Histogram: 3 4 6 9 7 10 2 4 1 2

Total # of neighbors = 439161
Ave neighs/atom = 109.79025
Neighbor list builds = 913
Dangerous builds = 252

# Equilibrate just above the melting temperature to avoid step fn in T

fix 1 all npt temp 1.25 1.25 0.1 iso 5.68 5.68 0.5 mtk yes tchain 5 pchain 5
run 2000
Per MPI rank memory allocation (min/avg/max) = 3.643 | 3.645 | 3.649 Mbytes
Step Temp E_pair E_mol TotEng Press Volume 
   10000    2.3711178   -4.9808933            0   -1.4251058    5.7043092    4172.0705 
   11000    1.2299917   -6.8384512            0   -4.9939248    5.8460573    3351.2105 
   12000    1.2877164   -6.7909719            0   -4.8598801    5.3908245    3394.4543 
Loop time of 0.572934 on 48 procs for 2000 steps with 4000 atoms

Performance: 603210.921 tau/day, 3490.804 timesteps/s
99.7% CPU use with 48 MPI tasks x no OpenMP threads

MPI task timing breakdown:
Section |  min time  |  avg time  |  max time  |%varavg| %total
---------------------------------------------------------------
Pair    | 0.24369    | 0.27335    | 0.30588    |   2.1 | 47.71
Neigh   | 0.03701    | 0.039937   | 0.044314   |   0.6 |  6.97
Comm    | 0.17486    | 0.20939    | 0.24455    |   2.7 | 36.55
Output  | 5.193e-05  | 5.3392e-05 | 6.8309e-05 |   0.0 |  0.01
Modify  | 0.039525   | 0.045434   | 0.050692   |   1.5 |  7.93
Other   |            | 0.004772   |            |       |  0.83

Nlocal:        83.3333 ave          90 max          75 min
Histogram: 1 0 3 7 11 6 7 3 6 4
Nghost:        1831.23 ave        1870 max        1796 min
Histogram: 1 2 9 7 8 9 4 6 1 1
Neighs:        11252.2 ave       12753 max        9573 min
Histogram: 1 1 3 4 11 12 10 2 2 2

Total # of neighbors = 540106
Ave neighs/atom = 135.02650
Neighbor list builds = 143
Dangerous builds = 7

#############################
# L I N E A R  Q U E N C H  #
#############################

# Define solid atoms. This closely follows ten Wolde  Ruiz-Montero and Frenkel  Faraday Discuss  1996  104  93-110
# Compute components of the per-atom q6 vector
compute q6 all orientorder/atom degrees 1 6 components 6 nnn NULL cutoff 1.3 # compute the Q6 parameter.
                                                                             # Use all neighbours within 1.3 unit cell.

# get number of connections
compute coord_number all coord/atom orientorder q6 0.5

# An atom is solid if it has 8 or more connections (of a possible 14)
variable is_solid atom c_coord_number>=8
group solid dynamic all var is_solid    # Must be dynamic to update
dynamic group solid defined

# do clustering
compute cluster solid cluster/atom 1.3 # Create a cluster where all atoms within are solid and max 1.3 units from another member

# define chunks one chunk per cluster
compute clus_chunks solid chunk/atom c_cluster nchunk every compress yes  # Says which atoms are in which chunk

# count the size of each chunk
compute size_chunks solid property/chunk clus_chunks count


# Find the maximum entry in the vector of chunk sizes
variable max_n equal max(c_size_chunks)


# Thermo style which includes this variable
# thermo_style custom step temp pe vol v_max_n

thermo ${N}  # Print the thermo information every 100 steps
thermo 1000  

# Reset the npt fix at a lower temperature (below freezing)
fix 1  all npt temp  ${temp} ${temp}  0.1  iso  5.68  5.68  0.5  mtk yes tchain  5  pchain  5
fix 1  all npt temp  0.45 ${temp}  0.1  iso  5.68  5.68  0.5  mtk yes tchain  5  pchain  5
fix 1  all npt temp  0.45 0.45  0.1  iso  5.68  5.68  0.5  mtk yes tchain  5  pchain  5

dump dmp2 all dcd ${N} traj.dcd
dump dmp2 all dcd 1000 traj.dcd


compute msd all msd com yes
variable twopoint equal c_msd[4]/6/(step*dt+1.0e-6)
fix 9 all vector 10 c_msd[4]
variable fit equal slope(f_9)/6/(10*dt)
thermo_style custom step temp pe c_msd[4] v_twopoint v_fit v_max_n

fix 1 all npt temp 1.25 ${temp} 0.1 iso 5.68 5.68 0.5 mtk yes tchain 5 pchain 5
fix 1 all npt temp 1.25 0.45 0.1 iso 5.68 5.68 0.5 mtk yes tchain 5 pchain 5
run 5000000 # 5000000  # Run for this many steps
Neighbor list info ...
  update every 1 steps, delay 10 steps, check yes
  max neighbors/atom: 2000, page size: 100000
  master list distance cutoff = 3.8
  ghost atom cutoff = 3.8
  binsize = 1.9, bins = 8 8 8
  4 neighbor lists, perpetual/occasional/extra = 1 3 0
  (1) pair lj/cut, perpetual
      attributes: half, newton on
      pair build: half/bin/atomonly/newton
      stencil: half/bin/3d
      bin: standard
  (2) compute orientorder/atom, occasional
      attributes: full, newton on
      pair build: full/bin/atomonly
      stencil: full/bin/3d
      bin: standard
  (3) compute coord/atom, occasional
      attributes: full, newton on
      pair build: full/bin/atomonly
      stencil: full/bin/3d
      bin: standard
  (4) compute cluster/atom, occasional
      attributes: full, newton on
      pair build: full/bin/atomonly
      stencil: full/bin/3d
      bin: standard
Per MPI rank memory allocation (min/avg/max) = 9.805 | 9.813 | 9.821 Mbytes
Step Temp PotEng c_msd[4] v_twopoint v_fit v_max_n 
   12000    1.2877164   -6.7909719            0            0 8.3333333e+20            2 
   13000    1.2648247   -6.8367999   0.54442445 0.0034899002  0.045072863            1 
   14000    1.2382108   -6.8182182    1.0425791  0.006205828  0.043042606            2 
   15000    1.2606511   -6.8598115    1.5766281 0.0087590449  0.042692997            2 
   16000    1.2286225   -6.9009282    2.0964797  0.010919165  0.043142424            1 
   17000    1.2469756    -6.906702    2.5418998  0.012460293  0.042735729            3 
   18000    1.2600806   -6.8782152    3.0189956  0.013976831  0.042038167            2 
   19000    1.2301041   -6.8161236    3.5213086  0.015444335  0.041712998            1 
   20000    1.2450991   -6.8613168    3.9766802    0.0165695  0.041352802            2 
   21000    1.2710861   -6.8026167    4.4912979   0.01782261  0.040984789            1 
   22000    1.2725141    -6.828594    4.9066998  0.018585984  0.040619619            2 
   23000    1.2723731   -6.8215869    5.4575404  0.019773697  0.040598613            1 
   24000    1.2350831   -6.8475263    5.9740068  0.020743079   0.04065366            1 
   25000    1.2621239   -6.8910846    6.4070481  0.021356826  0.040631319            1 
   26000    1.2519424    -6.870645     6.859218  0.021984673  0.040511818            3 
   27000    1.2436677   -6.8893693    7.2822953   0.02247622  0.040386738            1 
   28000    1.2733443   -6.8807502    7.7136856  0.022957397  0.040152996            1 
   29000    1.2686104   -6.8510587    8.2075899  0.023585028  0.040002972            1 
   30000      1.23538   -6.8696028    8.6629352  0.024063708  0.039871079            1 
   31000    1.2650175   -6.8929903     9.094671   0.02444804  0.039761298            1 
   32000    1.2310398   -6.8601813    9.5790467  0.024945434  0.039631909            1 
   33000    1.2813039   -6.8798349    10.108332  0.025526091  0.039589745            2 
   34000    1.2540657   -6.8574687    10.719114  0.026272337  0.039605402            1 
   35000    1.2741309   -6.8344055     11.16189  0.026575929  0.039706351            1 
   36000    1.2237156   -6.9003255    11.620225  0.026898669  0.039737325            3 
   37000    1.2331729   -6.8702101    12.061974  0.027166608  0.039742045            1 
   38000    1.2712959   -6.9164513    12.526075  0.027469462  0.039736557            1 
   39000    1.2373442   -6.8300373    13.101761  0.027995215  0.039749392            1 
   40000    1.2512165   -6.8531295    13.599026  0.028331304   0.03979946            1 
   41000    1.2843437   -6.8451715    14.139346  0.028738508  0.039880562            2 
   42000    1.2575577   -6.8392668     14.54819  0.028865457  0.039912955            2 
   43000    1.2352351   -6.8722226    15.006645  0.029082645  0.039925562            2 
   44000    1.2672419   -6.8850619    15.574667  0.029497474  0.039947708            1 
   45000    1.2322655   -6.9173891     16.14003  0.029888944  0.040013825            1 
   46000    1.2623737   -6.8985384    16.633823  0.030133736  0.040108714            2 
   47000    1.2145022    -6.894456    17.183345  0.030466924   0.04019239            3 
   48000    1.2572455   -6.8308211    17.665972   0.03067009  0.040262692            3 
   49000    1.2288181   -6.9298467    17.927687  0.030489263  0.040293577            1 
   50000    1.2153677   -6.8405023    18.474068  0.030790113  0.040307994            2 
   51000    1.2356886   -6.8574909    18.893784  0.030872196  0.040311549            1 
   52000    1.2257228   -6.9005245    19.122312   0.03064473  0.040253992            1 
   53000    1.2454639   -6.8533113    19.534176  0.030714112  0.040161933            1 
   54000    1.2468716   -6.8577109    20.048351  0.030938813  0.040075612            1 
   55000     1.227423    -6.862859     20.55413  0.031142621  0.040008109            5 
   56000    1.2293059   -6.8488313    21.046189  0.031318734   0.03995593            1 
   57000    1.2189988   -6.7982793    21.802219  0.031874588  0.039933535            3 
   58000    1.2319529   -6.8511481    22.238586  0.031951991  0.039955182            1 
   59000    1.2423507   -6.8630869    22.870493  0.032302956  0.039979975            1 
   60000    1.2172634   -6.9044804    23.193178  0.032212746  0.040005404            3 
   61000    1.2744177   -6.8732122     23.72813  0.032415478  0.040018082            1 
   62000    1.2569957   -6.8739443    24.153261   0.03246406  0.040019315            1 
   63000    1.2376389   -6.8640266    24.597528  0.032536412  0.040008776            1 
   64000    1.2421138   -6.8680342    25.206084  0.032820421  0.040013837            1 
   65000    1.2384203   -6.9119679    25.650732  0.032885554  0.040035466            2 
   66000    1.2226466   -6.9111739    26.041915  0.032881206  0.040040337            1 
   67000    1.2146155   -6.8766875    26.625046  0.033115728  0.040046395            3 
   68000    1.2487777   -6.8618648    27.051459  0.033151298  0.040047228            2 
   69000    1.2753213   -6.8462248    27.515563  0.033231356  0.040052341            1 
   70000    1.2770703   -6.8551939    28.017662  0.033354359  0.040045173            2 
   71000    1.2414481   -6.8529961     28.29699  0.033212429  0.040025696            1 
   72000    1.2441906   -6.9190342     28.75323  0.033279201  0.039999797            1 
   73000     1.252396   -6.9039084    29.268318  0.033411322  0.039982948            2 
   74000    1.2356639    -6.900424    29.677021  0.033420069  0.039965767            1 
   75000    1.2584869    -6.889913    29.952177  0.033280196  0.039936148            2 
   76000    1.2133622   -6.8834431    30.385277   0.03331719  0.039896326            1 
   77000    1.2545871   -6.8884966    30.895135  0.033436293  0.039851823            2 
   78000    1.2263857   -6.9048774    31.329493  0.033471681  0.039809826            2 
   79000    1.2301985   -6.8741209    31.868582  0.033616648   0.03977567            2 
   80000    1.2319854   -6.9265728    32.471189  0.033824155  0.039758641            2 
   81000    1.2462387   -6.8717136    33.093659  0.034046974  0.039747474            1 
   82000    1.2359821   -6.8642261    33.532922  0.034078172  0.039735489            1 
   83000     1.229578   -6.8450384     34.11146  0.034248453  0.039735055            1 
   84000      1.23318   -6.9051713    34.599972  0.034325369   0.03974208            2 
   85000    1.2179062   -6.8945841    35.162639  0.034473176  0.039747366            3 
   86000     1.247531   -6.8729082    35.602758  0.034498796  0.039756964            1 
   87000    1.2372101   -6.8851401    36.137759  0.034614711  0.039770739            2 
   88000    1.2474609   -6.8925267    36.431386  0.034499418  0.039768486            2 
   89000    1.2450882   -6.8860375    37.063678  0.034703818  0.039766636            2 
   90000    1.2355653    -6.928514    37.501458  0.034723572  0.039779994            1 
   91000    1.2130331   -6.9149547     38.07984  0.034871649  0.039793574            1 
   92000    1.2454117   -6.8911869    38.632049  0.034992798  0.039810746            3 
   93000    1.2391749   -6.8341015    39.278377  0.035195678  0.039833419            2 
   94000    1.2520884   -6.8996942    39.743544  0.035233638  0.039861008            2 
   95000    1.2022835   -6.8685033    40.394356  0.035433645  0.039894214            1 
   96000    1.2565614   -6.9294921    40.746642  0.035370349  0.039926088            2 
   97000    1.2320404   -6.8827877    41.454997  0.035614258  0.039961057            2 
   98000    1.2747329   -6.8359747    41.807604  0.035550684  0.039991282            1 
   99000    1.2605958   -6.8664371    41.871715  0.035245551  0.040006951            1 
  100000    1.2325618   -6.9197249     42.38169  0.035318075  0.040013073            3 
  101000     1.240154   -6.8795142    42.804392  0.035317155   0.04001314            2 
  102000    1.2497056   -6.8906046    43.284868  0.035363454  0.040013801            2 
  103000    1.2277803   -6.9193075    43.773912  0.035415786  0.040014008            2 
  104000    1.2391791   -6.8822376    44.270484  0.035473144  0.040007975            7 
  105000    1.2503591   -6.9274338    44.671317  0.035453426  0.040006289            1 
  106000    1.2507874   -6.8715407    45.428372  0.035714129  0.040013625            4 
  107000    1.2127563   -6.8750906    45.916182  0.035760266  0.040021167            1 
  108000    1.2598912   -6.8841679    46.083069  0.035557924  0.040021978            1 
  109000    1.2384453   -6.9214208    46.503056  0.035552795  0.040014906            5 
  110000    1.2380722   -6.9086065    46.914177  0.035541043  0.040008708            1 
  111000    1.2370263   -6.8497963    47.549406  0.035697752  0.040001565            1 
  112000    1.2185553   -6.8720117    47.956695  0.035682065  0.040000499            2 
  113000     1.239197   -6.8802747    48.401384  0.035694236  0.039995904            1 
  114000    1.2057944   -6.8771711    49.285083  0.036027108  0.039994578            1 
  115000    1.2282075   -6.9146085    49.708579  0.036020709  0.040001198            2 
  116000    1.2471706   -6.8713849    50.054208  0.035958482  0.040006469            1 
  117000    1.2197234   -6.9051358    50.569961   0.03601849     0.040007            1 
  118000    1.2358744   -6.9361491     50.93984  0.035974463  0.040010907            1 
  119000    1.2463076   -6.8730199    51.399909  0.035994334  0.040009488            1 
  120000    1.2401467    -6.887639    52.017555  0.036123302  0.040006154            1 
  121000    1.2459562   -6.8959508    52.458871  0.036128699  0.040008443            1 
  122000    1.2250573   -6.8398852    52.820257   0.03607941  0.040005992            2 
  123000    1.2283379   -6.8766934    53.603039  0.036316422   0.04000163            1 
  124000    1.2192368   -6.8927305    53.636066  0.036045743   0.03999476            1 
  125000    1.2101077   -6.8989874    54.319983  0.036213322  0.039989174            2 
  126000    1.2020532   -6.8865908    54.874953  0.036292958  0.039991045            1 
  127000    1.2215023   -6.8987171    55.349643  0.036318663  0.039997745            1 
  128000    1.2367893   -6.8767659    55.973493  0.036441076  0.040007038            3 
  129000    1.2516644   -6.8985043    56.185102  0.036295285  0.040009091            2 
  130000    1.2199251   -6.8857718    57.054135  0.036573163  0.040011737            3 
  131000    1.2174995    -6.877598    57.554653  0.036612374  0.040017861            1 
  132000    1.2037364   -6.9202777    57.882697  0.036542107  0.040026717            2 
  133000    1.2288375   -6.8428239    58.378211  0.036577826  0.040034346            1 
  134000    1.2283514   -6.8993699    58.994078  0.036687859   0.04004172            1 
  135000    1.2454449   -6.8696515    59.129823  0.036499891  0.040044097            1 
  136000    1.2158784   -6.9165134    59.487886  0.036450911   0.04004329            1 
  137000    1.2216632   -6.9284409    60.073566  0.036541099  0.040042046            2 
  138000    1.2400151   -6.9083584    60.977655  0.036822255  0.040045018            2 
  139000    1.2378521   -6.8724114    61.246371  0.036718448  0.040046428            3 
  140000    1.2462924   -6.8729072    61.796821  0.036783822  0.040047858            2 
  141000    1.2223121    -6.917015     62.31722  0.036830508  0.040050997            3 
  142000    1.2425868   -6.9010922    62.469856  0.036660714  0.040052032            1 
  143000    1.2228955   -6.9228013    62.409118   0.03636895  0.040045576            1 
  144000    1.2302858   -6.8999754    63.081554  0.036505529  0.040035049            2 
  145000    1.2596346   -6.8515452    64.080679  0.036827976  0.040029856            1 
  146000    1.2206486   -6.9038412    64.249824  0.036672274  0.040025274            2 
  147000     1.266279   -6.8802006    64.791717  0.036729998    0.0400225            1 
  148000    1.2346368   -6.8495888    65.484297  0.036871789  0.040022943            3 
  149000    1.2368941   -6.8758855    66.194605  0.037021591  0.040027889            1 
  150000    1.2250638   -6.8685273    66.719254  0.037066252  0.040031909            1 
  151000    1.2184403   -6.8656644    67.009251  0.036980823  0.040035715            1 
  152000    1.2354569   -6.8719348    67.568587  0.037044181  0.040036728            2 
  153000     1.216868   -6.8892995    67.934364  0.037001287  0.040038705            1 
  154000    1.2298517   -6.8977822    68.181158  0.036894566  0.040036935            2 
  155000    1.2289264   -6.9029146    68.621637  0.036893353  0.040034753            3 
  156000    1.2486977   -6.9029088    69.328686  0.037034554  0.040032343            1 
  157000    1.2105211   -6.9252075    69.431597  0.036853289  0.040026426            2 
  158000    1.2444864   -6.8638198    70.036094  0.036938868  0.040020204            2 
  159000    1.2044092   -6.9309548    69.920943  0.036646196  0.040008046            1 
  160000    1.2248555   -6.8907789    70.562987  0.036751556  0.039996317            4 
  161000     1.234424   -6.9477061    70.910051  0.036702925  0.039982239            1 
  162000    1.2144783   -6.9442655    71.073176  0.036560276  0.039963802            3 
  163000    1.2417306   -6.9182717    72.016044  0.036818018  0.039947865            1 
  164000    1.2224717   -6.8835344    72.315277  0.036745567  0.039933968            1 
  165000    1.2404439   -6.9230057    72.475434  0.036603754  0.039915846            1 
  166000    1.2264235   -6.9133685    73.189487   0.03674171  0.039899609            2 
  167000    1.2327833   -6.8767143    73.478251  0.036665794   0.03988156            1 
  168000    1.2314135   -6.9014291    73.778254  0.036596356  0.039863318            2 
  169000    1.2236675   -6.9066352    74.371849  0.036672509   0.03984504            2 
  170000    1.2301065   -6.9087416    74.800312   0.03666682  0.039827702            1 
  171000    1.2110544   -6.9031557    75.472051  0.036779752  0.039814035            1 
  172000    1.2495046   -6.9397907    75.952334  0.036798611  0.039799322            5 
  173000    1.2146565   -6.9342837    76.246478   0.03672759  0.039786073            1 
  174000    1.2281971   -6.8475124    77.137366  0.036943183  0.039771213            1 
  175000    1.2766002   -6.9139372    77.187982  0.036756182  0.039756408            1 
  176000    1.2004507   -6.9080897    77.791774  0.036833226  0.039743272            1 
  177000    1.2332122   -6.8799701    78.299283  0.036864069  0.039728737            2 
  178000    1.2218256   -6.9429823    78.493215   0.03674776  0.039713675            2 
  179000    1.2459966   -6.9646359    78.637775  0.036609765  0.039698239            2 
  180000    1.2274184   -6.9195104    79.629381  0.036865454  0.039684342            2 
  181000     1.250612   -6.9215592    80.339211  0.036988587  0.039673116            1 
  182000    1.2277865   -6.9507288    80.758854  0.036977497  0.039661997            1 
  183000    1.2162156   -6.8923949    81.233676  0.036991655  0.039651056            2 
  184000    1.2460026   -6.9463728    81.486255  0.036905007  0.039639622            1 
  185000    1.2238508   -6.9009501    81.890172  0.036887465  0.039626436            2 
  186000    1.2218024   -6.8967476    82.325676  0.036884263  0.039613878            3 
  187000    1.2121849   -6.9500316    82.581181  0.036800883   0.03959817            1 
  188000    1.2284732   -6.9093962    83.332187  0.036938026  0.039582965            1 
  189000    1.2257941   -6.9123881    83.652516  0.036883825  0.039569708            2 
  190000    1.1838635   -6.9460339    83.689948  0.036706118  0.039553807            2 
  191000    1.2343006   -6.8978467    84.512183   0.03687268  0.039536206            2 
  192000    1.2125586   -6.8971556    84.875376  0.036838271  0.039519525            2 
  193000    1.2023745   -6.9213429    85.290938   0.03682683  0.039503859            3 
  194000    1.1998214   -6.9377693    85.773991  0.036844498  0.039487279            1 
  195000    1.2216482   -6.9383212    85.921522  0.036718599  0.039471817            2 
  196000    1.2183377   -6.8953509    86.650661  0.036841267  0.039458137            1 
  197000     1.210338   -6.8322008    87.236659   0.03690214  0.039444964            2 
  198000    1.2227868   -6.9125657    87.418351  0.036792235  0.039430485            1 
  199000    1.2126929   -6.9060904    87.824231  0.036777316  0.039413407            3 
  200000     1.217355   -6.9077548    88.235373  0.036764739  0.039395726            2 
  201000    1.2176468   -6.9205355    88.389717   0.03664582  0.039377411            1 
  202000    1.2430896    -6.898545    89.160009  0.036782182  0.039360464            2 
  203000    1.2061147   -6.8896793    89.423229  0.036709043  0.039343378            1 
  204000    1.1838553   -6.9295822    90.099393  0.036805307  0.039328317            1 
  205000    1.2155548   -6.8984914    90.579941  0.036821114  0.039310676            2 
  206000    1.2136718   -6.8948445     91.00109  0.036812739  0.039293913            1 
  207000    1.2311787   -6.9137425     91.21145  0.036719585  0.039279113            1 
  208000     1.221833   -6.9201419    91.934159  0.036832596  0.039263996            1 
  209000    1.2106539   -6.9588404    92.323735  0.036811697  0.039249202            2 
  210000    1.2133919   -6.9735923    92.361593  0.036651426  0.039235379            3 
  211000    1.2034894   -6.9259828    93.352375  0.036869026  0.039221616            1 
  212000    1.1945644   -6.8880868    94.130945  0.037001158  0.039210525            2 
  213000    1.1987403   -6.9108158    94.588003  0.037006261  0.039202575            2 
  214000    1.2456191   -6.9031993    95.029873  0.037005402  0.039194389            1 
  215000    1.2191692   -6.9098046    95.893599  0.037168061  0.039187477            2 
  216000    1.2390715   -6.8994631    96.025468  0.037046863  0.039182955            2 
  217000    1.2157111   -6.9345776    96.263195  0.036967433  0.039173863            2 
  218000    1.2180202    -6.907695    96.403786    0.0368516  0.039162214            2 
  219000       1.2194   -6.9154022    96.802907  0.036835201  0.039148697            2 
  220000    1.2124829   -6.8954001     97.23867  0.036832829  0.039135092            3 
  221000    1.2332715   -6.9340793    97.327051  0.036699491   0.03912137            2 
  222000    1.2105902   -6.9962027    97.305782  0.036526194  0.039103999            1 
  223000    1.2182057   -6.9537121    98.076403  0.036650375   0.03908768            1 
  224000    1.2179619   -6.9484244    98.867896  0.036781211  0.039070887            2 
  225000     1.221817   -6.8928087    99.125827  0.036713269  0.039056087            2 
  226000    1.2064919   -6.9506453    99.570505  0.036714788  0.039041494            2 
  227000     1.233713   -6.9159593    100.10968  0.036750983  0.039026873            1 
  228000    1.2005214   -6.8745705    100.56323  0.036755566   0.03901349            2 
  229000     1.223057   -6.8832388    101.62564  0.036981672   0.03900216            1 
  230000    1.2042998   -6.8811852    102.26593  0.037052875  0.038992997            2 
  231000     1.217551   -6.9450051    101.97005  0.036785734  0.038983654            1 
  232000    1.2236371   -6.9376604    103.12157  0.037040795  0.038972498            1 
  233000    1.2056795   -6.9058809    103.46495  0.037004633    0.0389631            1 
  234000    1.2069369   -6.9419546    103.91038  0.037005119  0.038954378            2 
  235000    1.2413472   -6.9373252    104.13001  0.036925536  0.038946071            1 
  236000    1.2341719   -6.9402117    104.20209  0.036794525  0.038936654            1 
  237000    1.2195956    -6.971295    104.42346   0.03671711  0.038923679            1 
  238000      1.21143   -6.9470311    105.24994   0.03685222  0.038910989            2 
  239000    1.2377729   -6.9669132    105.45554  0.036769716  0.038899006            2 
  240000    1.2147783   -6.9707366    106.05887  0.036825998  0.038887429            2 
  241000    1.2218461   -6.9197255    106.64209  0.036874858  0.038875741            1 
  242000     1.206043   -6.9329039    107.05405  0.036864342  0.038864645            1 
  243000    1.2023281   -6.9538001    107.60243  0.036900695  0.038855072            1 
  244000    1.2153943    -6.921548    107.83278  0.036828135  0.038844756            1 
  245000    1.1828458   -6.9198029    108.12639  0.036777685  0.038833491            2 
  246000    1.2226032   -6.9242849    108.88521  0.036885233  0.038820921            1 
  247000    1.2043555   -6.9179536    109.54023  0.036956893  0.038811023            2 
  248000    1.2455891     -6.94827    110.12214  0.037003407  0.038802952            2 
  249000     1.225026   -6.9575675    110.03073  0.036824208  0.038794046            2 
  250000    1.1908751   -6.9207843    111.17781  0.037059269  0.038785448            3 
  251000    1.1877579   -6.9336829    111.30774  0.036954759  0.038777989            3 
  252000    1.2271124    -6.903877    111.51718  0.036877375  0.038770395            1 
  253000    1.2060679   -6.9807397    111.95043  0.036874319  0.038760735            1 
  254000    1.2135985   -6.9315186    112.51933  0.036915791  0.038751521            4 
  255000    1.2225786   -6.9343067    113.24469   0.03700807   0.03874327            3 
  256000    1.2054949   -6.9354449    113.34257  0.036895368  0.038734716            2 
  257000    1.2079605   -6.9406088    113.89809  0.036931936  0.038726925            2 
  258000    1.2206729   -6.9395537    114.00592  0.036823618  0.038718711            3 
  259000    1.2139226   -6.8914299    114.49912  0.036840128  0.038708085            4 
  260000    1.2349454     -6.97846    114.73963  0.036775523  0.038697201            2 
  261000    1.1955947   -6.9737859    115.57513  0.036901382  0.038687862            3 
  262000    1.2347461    -6.944425    115.92674  0.036872372  0.038676494            1 
  263000    1.2067395   -6.9340558    116.35588  0.036868149   0.03866397            1 
  264000    1.2102289   -6.9399298    116.22072  0.036685835   0.03865004            4 
  265000    1.2092904   -6.9567275    116.63125  0.036676493  0.038635691            3 
  266000    1.2099021   -6.8754737    117.48165  0.036805027  0.038622355            1 
  267000    1.2026167   -6.8896892    117.50187  0.036673491  0.038608284            3 
  268000    1.2118281   -6.9623051    118.15747  0.036740507  0.038595863            2 
  269000    1.2155742   -6.9421039    118.56053  0.036728789  0.038584281            2 
  270000    1.2159761   -6.9611056    119.25272  0.036806395   0.03857381            2 
  271000    1.2146249   -6.9949996    119.47315  0.036738361  0.038562533            1 
  272000    1.2115388   -6.9468701    120.03836  0.036776458  0.038550859            1 
  273000     1.214828   -6.9720908     120.0357  0.036640934  0.038538574            1 
  274000    1.1655394    -6.938069    121.08736  0.036827055  0.038525106            2 
  275000    1.2217688   -6.9851842    120.65638   0.03656254  0.038510953            2 
  276000     1.170768   -6.9453226     121.3111  0.036627749  0.038496948            3 
  277000    1.2130661   -6.9772521    121.19323  0.036460058  0.038480986            2 
  278000    1.1977301    -6.933521    122.13839  0.036612228   0.03846499            3 
  279000    1.1828259   -6.9636749    122.25681  0.036516372  0.038449537            1 
  280000    1.2080522   -6.9362396     123.1949   0.03666515  0.038436629            2 
  281000     1.213369   -6.8987755    123.72469  0.036691782  0.038423941            1 
  282000    1.2495413   -6.9143936    124.13032  0.036681537  0.038410897            1 
  283000    1.2121647   -6.9606264    124.75577  0.036736092  0.038397039            1 
  284000    1.1976272   -6.9874953     124.6646  0.036579988  0.038384689            1 
  285000    1.2044399    -6.956356    125.80071  0.036783833  0.038373538            1 
  286000    1.2084382   -6.9751952    125.89706  0.036683292  0.038363063            2 
  287000    1.2046255   -6.9836213    126.02114  0.036591503  0.038351572            2 
  288000    1.1997495   -6.9069312    126.92267   0.03672531  0.038342004            1 
  289000    1.2085573   -6.9237482    127.78021  0.036845505  0.038331917            2 
  290000    1.1915669     -6.95864    127.80066  0.036724328  0.038322401            2 
  291000    1.2040535   -6.9449929    128.42848  0.036777916  0.038313228            2 
  292000     1.203332   -6.9507407    128.79447  0.036756413  0.038303933            1 
  293000    1.1895169   -6.9310117    129.17279  0.036738562   0.03829357            1 
  294000    1.1961594   -6.9436182    129.63304  0.036744058   0.03828404            1 
  295000    1.2246028   -6.9423925    129.83711  0.036677149  0.038274236            2 
  296000    1.2406202   -6.9830029    130.09913  0.036627008  0.038263733            2 
  297000    1.1831531   -6.9581293    129.96473  0.036465974  0.038251488            2 
  298000      1.21109   -6.9543555    130.23801  0.036420024  0.038237441            2 
  299000    1.2029028   -6.9461268    131.19218  0.036564152   0.03822345            1 
  300000    1.1834954   -6.9602022     131.8978  0.036638277  0.038212178            1 
  301000    1.2024614   -6.9787572     131.8142   0.03649341  0.038200621            1 
  302000    1.2173285   -6.9945161    132.41912  0.036539493  0.038189022            1 
  303000    1.2007701   -6.9258276    132.90419  0.036552308  0.038176977            1 
  304000    1.2271869   -6.9477241    133.39311  0.036566093  0.038164416            1 
  305000    1.2163154   -6.9390811    133.66187  0.036519637  0.038151137       -1e+20 
  306000    1.1976792   -6.9363256    134.13503  0.036529146  0.038137708            2 
  307000    1.2175367   -7.0197885    134.35751   0.03647055  0.038125385            1 
  308000    1.1992979   -6.9278907    136.16707  0.036841739  0.038115228            4 
  309000    1.2202591   -6.9738843    136.06735  0.036695618   0.03810681            1 
  310000    1.2035802    -6.967446    136.53156  0.036702032  0.038098562            2 
  311000    1.1725765   -6.9126469    137.22048  0.036768617  0.038091423            1 
  312000    1.2131271   -6.9959379    137.86459  0.036822806  0.038084533            2 
  313000    1.2207809   -6.9675076    138.67128  0.036919937    0.0380791            2 
  314000    1.2160868   -6.9623181    138.12847    0.0366583  0.038073123            4 
  315000    1.2013851   -6.9563017    138.95164  0.036759694  0.038066247            1 
  316000    1.2035492   -6.9982803    139.72628  0.036847647  0.038059709            1 
  317000    1.2119205   -6.9445833    139.97559  0.036796949  0.038053785            3 
  318000    1.2365982   -6.9442684    140.52929  0.036826334  0.038048371            2 
  319000    1.1885021   -6.9796247    140.48638  0.036699681  0.038042104            4 
  320000    1.1807773   -6.9395458    141.35247   0.03681054  0.038035491            1 
  321000    1.1859812   -6.9564419    141.43209  0.036716533    0.0380277            1 
  322000     1.208714    -6.942813    141.82564  0.036704357  0.038019498            1 
  323000    1.1702064   -6.9292644    142.48623  0.036761154  0.038011728            2 
  324000    1.2153663   -6.9820819    142.51492  0.036655073  0.038002801            1 
  325000    1.1827952   -6.9824076    143.04564  0.036678369   0.03799379            1 
  326000    1.2121475   -6.9771379    143.21334  0.036608728  0.037985573            1 
  327000    1.2200921   -6.9190358    144.36991  0.036791517  0.037977894            1 
  328000     1.192933   -6.9314836    144.58168   0.03673315   0.03797094            1 
  329000    1.1801728   -7.0158768    144.61598  0.036630186  0.037963088            1 
  330000    1.1987739   -6.9914126    144.94623  0.036602583  0.037955012            2 
  331000    1.1800206   -6.9361548    145.75315  0.036695153  0.037947803            1 
  332000    1.1973013   -6.9536616    146.22216  0.036702348  0.037941892            1 
  333000    1.2136907   -6.9878571    146.95857  0.036776419  0.037935673            2 
  334000    1.1924466   -6.9108941    148.07147   0.03694398  0.037930771            2 
  335000    1.2043642   -6.9783407    147.60213  0.036716949  0.037926558            1 
  336000    1.2094185   -6.9943733    148.12068   0.03673628  0.037920742            2 
  337000     1.176605   -6.9634702     148.4939   0.03671956  0.037914917            2 
  338000    1.1853551   -6.9865912    148.91356  0.036714388  0.037908907            1 
  339000    1.1874984   -6.9637725    149.52122  0.036755462  0.037901928            1 
  340000    1.2024756   -6.9766971    150.13775  0.036798468  0.037897026            1 
  341000    1.1947783   -6.9711614     149.8039  0.036608969  0.037891387            1 
  342000    1.1670219   -6.9662728    150.70927   0.03672253  0.037884593            2 
  343000    1.2232178    -6.957662    151.08119   0.03670583  0.037878526            2 
  344000    1.2087813    -6.963251    151.30406  0.036653116  0.037872251            1 
  345000    1.2080709   -6.9476248    151.66044  0.036632957  0.037864227            3 
  346000     1.186537   -6.9722815    151.80308  0.036561434  0.037856439            2 
  347000    1.2026092   -6.9622843    152.57303  0.036640978  0.037848855            1 
  348000    1.1954408   -6.9443985    152.69945  0.036565959   0.03784076            1 
  349000    1.1949894    -6.986391    152.51094  0.036416174  0.037832322            1 
  350000     1.207362   -6.9556379     153.7438  0.036605667  0.037823092            1 
  351000    1.1592727   -6.9814637    153.29338  0.036394441  0.037812952            1 
  352000    1.1954808   -6.9755113    154.16893  0.036498327  0.037802707            2 
  353000    1.2088874   -6.9924381    154.07855  0.036373596  0.037792299            2 
  354000    1.2043603   -6.9715789     154.9002  0.036464266  0.037782153            2 
  355000    1.1927488   -6.9639887    155.47643  0.036496815  0.037772416            1 
  356000    1.2014675   -6.9508906     156.4446  0.036620928  0.037763154            1 
  357000    1.2024291   -6.9703346    156.80535  0.036602557  0.037754726            1 
  358000    1.2198226   -7.0351575     156.4084  0.036407914  0.037746463            1 
  359000    1.1695683   -6.9631042    157.73321  0.036614024   0.03773977            1 
  360000    1.1792982   -6.9693555    157.84579  0.036538377  0.037732706            1 
  361000    1.1807345   -7.0168538    158.36402   0.03655679   0.03772517            4 
  362000    1.1862278   -6.9842005    159.18835  0.036645568  0.037717838            1 
  363000    1.2031653   -6.9842085    159.62551  0.036644975  0.037710476            3 
  364000    1.1820892   -6.9936464    159.63283  0.036545977  0.037703839            4 
  365000    1.2015612   -7.0314317    159.58055  0.036433916  0.037696727            2 
  366000    1.2096291   -7.0061822    161.39215  0.036746847  0.037691172            1 
  367000    1.2045812   -6.9586071    161.81545  0.036742835  0.037686699            3 
  368000    1.1578471   -6.9866458    161.56346  0.036585929  0.037681586            1 
  369000    1.2000448   -7.0329164    162.68956  0.036741092  0.037675875            1 
  370000    1.2207893   -6.9668418     162.7593    0.0366575  0.037670336            2 
  371000    1.1916079   -6.9970998    162.98854  0.036610184  0.037663648            1 
  372000    1.2215563   -6.9767205    163.37434  0.036598195  0.037656864            2 
  373000    1.1712404    -6.959208    163.83198  0.036602319  0.037649879            2 
  374000    1.1699209   -6.9615202    163.61026   0.03645505  0.037642738            2 
  375000     1.178247   -6.9993517    164.25499  0.036501108  0.037635456            4 
  376000    1.2152549   -6.9497376    164.66647  0.036495229  0.037627419            1 
  377000    1.1906624   -7.0048176    165.25914   0.03652943  0.037620875            1 
  378000    1.1898057    -7.031861    165.99415   0.03659483  0.037614165            1 
  379000    1.2004662   -6.9670527    166.00938  0.036501623  0.037607494            1 
  380000    1.1888269   -6.9854649    166.07448  0.036419841  0.037599428            1 
  381000    1.2003182   -6.9835391    166.68841  0.036458533  0.037590337            1 
  382000    1.1730484   -6.9898176    167.30063  0.036496646  0.037581361            1 
  383000    1.1860277   -6.9920314    167.45325  0.036434562  0.037573293            1 
  384000    1.1819978   -6.9731424    167.84663  0.036425049  0.037564915            1 
  385000    1.1730308   -6.9814244    168.18681  0.036404072   0.03755702            2 
  386000    1.1794218   -6.9780937     168.5392  0.036385838  0.037548436            1 
  387000    1.1530851   -7.0043106    168.34055  0.036249042  0.037539246            2 
  388000    1.1988667   -6.9829732    168.98565  0.036294168  0.037529993            2 
  389000    1.1718819   -6.9564262    169.45823  0.036302105  0.037520772            2 
  390000    1.2006917   -7.0009217    169.29796  0.036174778  0.037510783            3 
  391000    1.1868583   -6.9816073     169.3999  0.036103986  0.037498766            1 
  392000    1.1992161   -6.9631042    170.12822  0.036166713  0.037486807            2 
  393000    1.2147547   -6.9887059    170.65308   0.03618598   0.03747484            1 
  394000    1.1828998   -6.9806357    170.87511  0.036141098  0.037463099            2 
  395000      1.18654   -6.9957335    171.69144  0.036221824  0.037451591            3 
  396000    1.1825512   -7.0073261    171.69519  0.036131142  0.037440542            2 
  397000    1.1686978   -6.9862278    172.57501  0.036224813   0.03743019            1 
  398000    1.1248525   -7.0047253    172.50652  0.036119455   0.03741868            2 
  399000    1.2107842   -6.9883795    172.70518  0.036070421  0.037405628            2 
  400000    1.1855725   -6.9734652    172.85867  0.036012223   0.03739283            1 
  401000     1.185062   -6.9905766    173.12981  0.035978763  0.037379182            1 
  402000    1.1835901    -6.947542    173.73931  0.036015612  0.037366632            1 
  403000    1.1645562   -6.9723614    174.62261  0.036108895   0.03735494            1 
  404000    1.1610103   -6.9669875    174.57622  0.036009947  0.037342516            1 
  405000    1.2192863    -7.002782    174.91174  0.035990069  0.037329533            1 
  406000    1.2400938   -6.9895419    174.72893  0.035863902  0.037316733            5 
  407000    1.1978124   -6.9859157    175.50532   0.03593475  0.037303137            1 
  408000    1.1892148   -6.9920292    175.69682  0.035885788  0.037289711            1 
  409000    1.2014615   -6.9995745    176.81879  0.036026649  0.037277382            2 
  410000    1.1828454   -6.9663854     177.0638  0.035988577  0.037265476            3 
  411000    1.1712291    -6.967891     177.7865  0.036047548  0.037252723            2 
  412000    1.1992268   -7.0198198    177.62145  0.035926669  0.037240149            1 
  413000    1.1903048   -7.0154356    177.96864  0.035909734  0.037227057            3 
  414000    1.1971633   -6.9548388    178.68127  0.035966439   0.03721528            1 
  415000    1.1557865   -7.0144051    179.03163  0.035950126  0.037204359            1 
  416000    1.1676949   -6.9494973    179.50121  0.035957775   0.03719259            2 
  417000    1.1874348   -6.9719501    180.41657   0.03605447  0.037180777            1 
  418000    1.1521834   -6.9819883    180.34996  0.035954936  0.037169123            1 
  419000    1.1741098   -7.0006516    180.17381  0.035834091  0.037156875            2 
  420000    1.2075785   -7.0108155     180.5054  0.035814564  0.037144493            4 
  421000    1.1748976   -6.9749441    181.60713   0.03594757  0.037132217            1 
  422000    1.2063817   -7.0445306    181.26389  0.035794607   0.03712007            1 
  423000    1.1824768   -6.9618667    181.73272  0.035802348  0.037107806            1 
  424000    1.1813261   -6.9752005    182.59441  0.035887265  0.037096052            3 
  425000    1.1910011   -7.0142983    183.39928  0.035960643  0.037084012            3 
  426000    1.1784561   -7.0010095    183.21302  0.035839792  0.037071083            1 
  427000    1.1701841   -7.0181714    183.49392  0.035810678  0.037059169            1 
  428000    1.1768198   -7.0236428    183.21345  0.035672401  0.037046384            1 
  429000    1.1822039   -6.9560309    184.14304  0.035769821  0.037033157            1 
  430000    1.1736834   -7.0035537    184.16186  0.035690284  0.037019644            2 
  431000     1.188251   -7.0011076    185.38647  0.035844252   0.03700678            1 
  432000    1.1682326   -6.9689779    185.68402  0.035818677  0.036994908            1 
  433000    1.1632089   -6.9576834    186.33194   0.03586065  0.036983219            2 
  434000    1.1829467   -7.0072476    186.33215  0.035778063  0.036971533            2 
  435000    1.1976597   -6.9835641    187.16791  0.035855921  0.036960155            2 
  436000    1.1751605   -6.9764134    187.47189  0.035831784  0.036948431            1 
  437000    1.1961741   -6.9928784    186.92957  0.035646371  0.036936696            1 
  438000    1.1823522    -7.018257    187.86844  0.035743614  0.036924863            1 
  439000     1.184659   -7.0081397      187.862  0.035660972  0.036911815            2 
  440000    1.1915131   -7.0114605    188.17608   0.03563941  0.036898917            4 
  441000    1.1943531    -6.995909    189.01963  0.035717995  0.036886187            1 
  442000    1.1950116   -6.9796907    189.82723  0.035789448  0.036874946            1 
  443000    1.1881877     -7.05506    189.99998  0.035741156   0.03686448            2 
  444000    1.1669094   -7.0366726    191.33047  0.035910373  0.036854352            1 
  445000    1.1797262   -7.0097086      191.453  0.035852623  0.036844126            2 
  446000     1.209222   -7.0129149    192.08382  0.035890102  0.036834408            1 
  447000    1.2039225   -6.9444125     192.1758  0.035826958  0.036824144            3 
  448000     1.169742   -7.0153716    192.45833  0.035799541  0.036813799            2 
  449000    1.1801136   -6.9831874    191.76522  0.035591168  0.036803042            1 
  450000    1.1687007   -7.0051658    192.85614  0.035714101  0.036791873            1 
  451000    1.1743698   -7.0153498    192.63699  0.035594419  0.036780854            1 
  452000    1.1907819   -7.0126347    193.50978  0.035676583  0.036770037            5 
  453000    1.1986363   -6.9592845    194.69764  0.035816343  0.036760753            3 
  454000     1.211004   -6.9784965    194.36531  0.035676451  0.036750289            1 
  455000    1.1832344   -7.0423195     194.4133  0.035606831  0.036739708            3 
  456000    1.1823656   -7.0132097    195.29888  0.035690586  0.036729099            1 
  457000    1.2127321   -7.0168122    195.91479  0.035724798  0.036719011            2 
  458000    1.1851863   -6.9858606    196.78201  0.035804587   0.03670813            1 
  459000    1.1829631   -7.0219397    196.23903     0.035628  0.036696711            4 
  460000    1.1883965   -6.9910685    197.25018  0.035733729  0.036686684            1 
  461000    1.1753135   -6.9695925    198.07822  0.035805896   0.03667689            1 
  462000    1.1801113   -7.0160681    197.57404  0.035637454  0.036666618            1 
  463000    1.1796518   -6.9541504    199.02644  0.035821894  0.036656377            1 
  464000    1.1798986   -6.9976568    199.07866   0.03575407  0.036646253            2 
  465000    1.1568273   -7.0061825    199.96288  0.035835641  0.036637078            2 
  466000    1.1678528   -6.9802264    200.69212  0.035889149  0.036628935            4 
  467000    1.2110246   -6.9989589    201.51404  0.035958964  0.036621378            1 
  468000    1.1882826   -6.9805449    201.79807  0.035932705  0.036613771            2 
  469000    1.1766589   -6.9899733    202.31512  0.035947959  0.036607472            2 
  470000    1.1845177   -6.9856608     202.7798  0.035953865  0.036601063            2 
  471000    1.1628692   -7.0040097    203.47963   0.03600135  0.036594763            1 
  472000    1.1927498   -6.9745303    203.49506  0.035927799  0.036588013            1 
  473000    1.1635577    -7.011164    203.79991  0.035905552    0.0365809            1 
  474000    1.2000212    -7.013884    203.50504  0.035777961  0.036573241            1 
  475000    1.1363777   -7.0259108    203.65836  0.035729537  0.036566009            1 
  476000      1.18425    -7.000127    205.28196  0.035938719   0.03655857            2 
  477000     1.188449   -7.0159861    204.39939  0.035709188  0.036550738            1 
  478000    1.1479507   -7.0433433    204.65207  0.035678534  0.036542183            1 
  479000    1.1901064   -7.0358061     205.4573  0.035744137  0.036533884            2 
  480000    1.1544808   -7.0402099    205.30883  0.035643895  0.036524864            4 
  481000    1.1698641   -6.9874377    205.40271  0.035586055  0.036515748            4 
  482000    1.2017514   -6.9828218    206.94645  0.035779123  0.036506505            1 
  483000    1.1706831   -6.9904719    206.69345  0.035661395  0.036496993            2 
  484000    1.1754627   -7.0251109    207.04253  0.035647819  0.036488189            1 
  485000    1.1722625   -6.9927353    208.81454  0.035878787  0.036480423            1 
  486000     1.171283    -7.028332    208.07763  0.035678607  0.036472376            1 
  487000    1.1980288   -7.0098811    209.41582  0.035834329  0.036464831            1 
  488000    1.1826072   -7.0171573    209.18068  0.035720744  0.036457632            2 
  489000    1.1804012   -7.0825923    209.39948  0.035684984  0.036450611            2 
  490000    1.1877831   -7.0310019    209.17454  0.035573902  0.036443274            3 
  491000    1.1709875    -7.016188    209.87176  0.035619783  0.036435558            1 
  492000    1.1967753   -7.0138156    210.82312  0.035708523  0.036427864            1 
  493000    1.1515263   -7.0002997    210.65527  0.035607719  0.036419235            2 
  494000    1.1581792   -7.0491804    210.44918  0.035500874  0.036411158            1 
  495000    1.1704211   -7.0442826    211.52107  0.035609607  0.036402605            2 
  496000    1.1684505   -7.0842056    211.42167  0.035521115  0.036393302            3 
  497000    1.1440811    -6.991569     213.1147  0.035733518  0.036384629            1 
  498000    1.1732809   -7.0217046    212.53297   0.03556442  0.036376113            2 
  499000    1.1813538   -7.0177151    213.36288  0.035631744  0.036367669            1 
  500000    1.1674765   -6.9736901    213.73577  0.035622629  0.036358744            2 
  501000    1.1838975    -6.998723    213.94101  0.035585663  0.036350753            2 
  502000    1.1746285   -7.0503972    214.10356  0.035541759  0.036342525            2 
  503000    1.1773174   -7.0195727    214.88963   0.03560133  0.036334204            1 
  504000    1.1765218   -7.0314388    215.38802  0.035613098  0.036326496            1 
  505000    1.1743028   -7.0363799    215.72282  0.035597825  0.036318341            3 
  506000    1.1671556   -7.0193975     215.8557  0.035549358  0.036310458            2 
  507000    1.1834953   -7.0158949    216.08082  0.035516243  0.036302089            2 
  508000    1.1954782   -6.9903084    216.80134  0.035564524  0.036294167            1 
  509000    1.1659899   -7.0048124    217.22974   0.03556479   0.03628588            1 
  510000    1.1704885   -7.0561999    217.25424  0.035499059  0.036276925            1 
  511000    1.1959283   -7.0519161    217.25064  0.035429003    0.0362684            1 
  512000    1.1815769   -7.0029434    218.45969  0.035556591  0.036260051            1 
  513000    1.1761051   -7.0332854     218.3282  0.035465919  0.036251355            1 
  514000    1.1498597   -7.0052268    219.03992  0.035512308  0.036243356            2 
  515000    1.1657782   -7.0072271    218.84518  0.035411842  0.036235417            2 
  516000    1.1774496   -7.0488142    219.50262   0.03544939  0.036226699            2 
  517000    1.1799723   -7.0239287    218.51868  0.035222224  0.036216941            2 
  518000    1.1765174   -7.0137149    219.57781  0.035324615  0.036206705            2 
  519000    1.1870105   -7.0169623    220.70708  0.035437875  0.036196873            1 
  520000    1.1753308   -7.0182837    220.02652   0.03526066  0.036187707            1 
  521000    1.1778615   -7.0020128    221.61818  0.035447566  0.036178707            1 
  522000    1.1779862   -7.0256781    222.27151  0.035483957  0.036169708            2 
  523000    1.2005896   -7.0425887    220.99884  0.035213327  0.036160474            2 
  524000    1.1842586   -7.0323946    222.67164  0.035412157  0.036151209            1 
  525000    1.1629908   -6.9963744    222.76169  0.035358998  0.036141555            1 
  526000     1.167673   -7.0290801    222.66819  0.035276963  0.036132026            2 
  527000    1.1569911   -7.0356487    223.26204  0.035303928  0.036122518            2 
  528000    1.1520027   -7.0439218     223.1844  0.035224811  0.036113139            2 
  529000    1.1815413   -7.0300688    223.78073  0.035252163   0.03610361            1 
  530000    1.1564073   -7.0221532    224.99651   0.03537681  0.036094574            2 
  531000    1.1775385   -7.0370052    224.51059  0.035233929  0.036084824            2 
  532000    1.1611133    -7.066098    224.24958  0.035126814  0.036074354            1 
  533000        1.148   -7.0079633    225.72052  0.035290888  0.036064711            1 
  534000    1.1661756   -7.0354793    225.35204  0.035167296  0.036054726            1 
  535000     1.204807   -7.0224397    225.06287  0.035056521  0.036044054            1 
  536000    1.1600226    -7.001617    226.34665   0.03519071  0.036033485            1 
  537000    1.1960775   -7.0467464    227.02592   0.03523059  0.036022986            2 
  538000    1.1536813   -7.0225487    227.05122  0.035169024  0.036012866            1 
  539000    1.1599735   -7.0490517    226.57232  0.035029734  0.036002555            2 
  540000    1.1668007   -7.0311261    227.63004  0.035128092  0.035992547            1 
  541000    1.1998586   -6.9994079    228.64396  0.035219341  0.035982573            4 
  542000    1.1904582    -7.025283    228.22474  0.035089904  0.035972935            1 
  543000    1.1920711   -7.0494262    228.39023   0.03505068  0.035962774            1 
  544000    1.1664915   -7.0166439    229.37709  0.035137422  0.035952657            3 
  545000    1.1812763   -7.0156347    230.24709  0.035205976  0.035943633            1 
  546000    1.1610975   -7.0308971    229.64614  0.035049777  0.035934547            1 
  547000    1.1774759   -7.0353967    230.40298  0.035101003  0.035924527            1 
  548000    1.1437714    -7.048886    230.72912  0.035086545  0.035914729            1 
  549000    1.1594489   -7.0767905    232.00095  0.035215687  0.035905023            1 
  550000    1.1667615   -7.0388724    232.18699  0.035179847  0.035896132            2 
  551000    1.1399077   -7.0613125    232.27947  0.035129987  0.035887525            6 
  552000    1.1671139   -7.0518757    232.93195  0.035164848  0.035879191            2 
  553000     1.148578   -7.0602102    233.80272  0.035232477  0.035870858            2 
  554000    1.1519319   -7.0249937    234.66067  0.035297934  0.035862411            2 
  555000    1.1508537   -7.0240918    234.23341  0.035170182  0.035854215            3 
  556000    1.1661877   -7.0236958    234.68182  0.035174134  0.035846408            1 
  557000    1.1703593   -7.0489318    235.49186  0.035232176  0.035838911            1 
  558000    1.1746737    -7.072769    236.07145  0.035255593  0.035831612            1 
  559000    1.1480053   -7.0601857    236.18686  0.035209728  0.035823801            2 
  560000    1.1736083   -7.0542703    236.05246  0.035126854  0.035816041            6 
  561000    1.1585391   -7.0641078    236.28927  0.035099416   0.03580826            1 
  562000    1.1686017   -7.0286556    237.83798  0.035266605  0.035800613            1 
  563000    1.1815291   -7.0216115     238.1455  0.035249482  0.035793361            1 
  564000     1.127495   -7.0226654    238.96775  0.035308474  0.035786703            1 
  565000    1.1641649   -7.0403838    239.24851  0.035287391  0.035779947            2 
  566000    1.1366059   -7.0713355    238.53027  0.035119298  0.035772792            3 
  567000    1.1766985   -7.0646704    240.07941  0.035285039  0.035765058            2 
  568000    1.1505761   -7.0515244    239.13517  0.035084386  0.035757165            1 
  569000    1.1518985   -7.0367588    240.07721  0.035160693   0.03574915            2 
  570000    1.1266211   -7.1059009    239.61697  0.035031721  0.035741108            1 
  571000    1.1783765   -7.0446142     239.9977  0.035025933  0.035732622            4 
  572000    1.1446909   -7.0504881    241.00243  0.035111076  0.035724418            2 
  573000    1.1584864   -7.0017758     242.5057  0.035268426   0.03571708            1 
  574000    1.1532035   -7.0309359    241.59464  0.035074716   0.03570915            3 
  575000    1.1552418    -7.044744    241.69691  0.035028537  0.035701355            1 
  576000    1.1584763   -7.0320903    242.42679  0.035073321  0.035693753            1 
  577000    1.1701576   -7.0858709    241.71013  0.034909031  0.035685455            3 
  578000    1.1595857   -7.0341279    242.60542  0.034977714  0.035676988            2 
  579000    1.1496543    -7.038958    243.05373  0.034981826  0.035668366            2 
  580000    1.1881998    -7.031225    244.46394  0.035124129  0.035660136            1 
  581000    1.1679573   -7.0572802    243.78233   0.03496591   0.03565148            2 
  582000    1.1486466   -7.0206585    244.35486  0.034987809  0.035642627            1 
  583000    1.1737547   -7.0652133    244.11787  0.034893921   0.03563371            2 
  584000     1.174889   -7.0184086    245.54839  0.035038298   0.03562493            2 
  585000    1.1761164   -7.0523333     244.8891  0.034884488  0.035616173            1 
  586000     1.145033   -7.0784064    245.48595  0.034909834  0.035607385            3 
  587000    1.1311001   -7.0251412    247.39322  0.035121128  0.035598995            1 
  588000    1.1469556   -7.0651007    245.93614  0.034854895  0.035591034            1 
  589000    1.1262733   -7.0276725    247.60944  0.035032462  0.035582495            2 
  590000    1.1787068   -7.0431121    247.52365  0.034960968  0.035574215            1 
  591000    1.1688192   -7.0364754     246.7291  0.034789777   0.03556548            1 
  592000    1.1543437   -7.0612476    247.79438  0.034880966  0.035556325            2 
  593000    1.1654611   -7.0172172    248.88129  0.034974886  0.035547517            2 
  594000    1.1506259   -7.0678318     249.2172  0.034963132  0.035538781            1 
  595000    1.1562682   -7.0914932    248.68151  0.034829343  0.035529926            2 
  596000    1.1461166   -7.0289651    250.64588  0.035045564  0.035521552            2 
  597000    1.1791736    -7.018031    249.91347  0.034884628  0.035513324            3 
  598000    1.1299958   -7.0444812    250.64634   0.03492842  0.035504837            3 
  599000    1.1718056    -7.054558    250.92376  0.034908703  0.035496839            2 
  600000    1.1821267    -7.075961    251.25974  0.034897186  0.035488375            1 
  601000    1.1441883   -7.0503003    251.29324  0.034843765  0.035480677            1 
  602000    1.1699424   -7.0274729    252.61607  0.034969002  0.035472892            1 
  603000    1.1304387   -7.0452912    253.34069  0.035011151  0.035465298            2 
  604000    1.1687534   -7.0429591    253.38505  0.034959307  0.035457539            2 
  605000    1.1434168    -6.984218    255.10152   0.03513795  0.035450496            2 
  606000    1.1662602   -7.0540652    254.37423  0.034979954  0.035443299            1 
  607000     1.151845   -7.0353277    255.29576  0.035048841  0.035436568            2 
  608000    1.1381203   -7.0762723    255.95617  0.035081712  0.035430231            1 
  609000    1.1534482   -7.0680313    256.51146  0.035100091  0.035424325            2 
  610000    1.1550639   -7.0924989    256.25872  0.035008021  0.035417899            1 
  611000     1.163281   -7.0532062    256.52703   0.03498732  0.035411256            2 
  612000    1.1548909   -7.0463657    256.48028  0.034923786  0.035404873            2 
  613000    1.1474243   -7.0276586    257.96755  0.035068998  0.035398945            1 
  614000    1.1628354   -7.0313141    258.11487  0.035031877   0.03539262            1 
  615000    1.1326626    -7.082306    257.92615  0.034949342  0.035385961            1 
  616000     1.141228    -7.092313    257.32834  0.034811735  0.035378901            2 
  617000    1.1515925   -7.0056019    258.63054  0.034931192  0.035371248            2 
  618000    1.1562736   -7.0822471    256.62592  0.034604358  0.035363151            2 
  619000    1.1606452   -7.0815698    258.46295  0.034795766  0.035355444            1 
  620000    1.1611474   -7.0631022    259.13071  0.034829396  0.035347698            1 
  621000    1.1732842     -7.06588    259.36838  0.034805203  0.035340065            2 
  622000    1.1527154   -7.0401143     259.9025  0.034820807  0.035332584            2 
  623000    1.1445863   -7.0591274    259.64696  0.034730732  0.035324967            1 
  624000    1.1376957   -7.0524512    260.79205  0.034827998  0.035317523            1 
  625000    1.1509889   -7.0583023    260.24927  0.034699903  0.035309713            2 
  626000    1.1433072   -7.0944986    260.89199  0.034730031  0.035301513            2 
  627000    1.1598309   -7.0506959     261.7869   0.03479358  0.035293852            2 
  628000     1.136765    -7.108747    261.34268  0.034679231  0.035286068            1 
  629000     1.152838   -7.0588145    262.19028  0.034736392  0.035278086            2 
  630000    1.1604985   -7.0695685    262.56061  0.034730239  0.035270624            2 
  631000    1.1562628   -7.0895796    262.56186  0.034675364  0.035262992            1 
  632000    1.1149682   -7.0380415    264.56436  0.034884542  0.035255767            1 
  633000    1.1656719   -7.0248046    263.63802   0.03470748  0.035248432            1 
  634000    1.1479111   -7.0802924     263.6376  0.034652682  0.035240647            2 
  635000    1.1493104   -7.0491745    264.13695  0.034663642  0.035232606            3 
  636000    1.1393403   -7.0601255    264.19225  0.034616385  0.035224361            2 
  637000    1.1635355   -7.0681677    264.03561   0.03454155  0.035216251            2 
  638000     1.137686   -7.0629884     265.5834  0.034689577  0.035208445            1 
  639000    1.1362228   -7.0637117      265.371   0.03460759  0.035200639            1 
  640000    1.1450428   -7.0420317    266.00342  0.034635861  0.035192732            2 
  641000    1.1622588   -7.0269509    266.66089  0.034667303  0.035185122            1 
  642000    1.1528936   -7.0415124    267.95223  0.034780923   0.03517765            1 
  643000    1.1418065   -7.0881882    266.57292  0.034548071  0.035169667            3 
  644000    1.1346907   -7.0560676    268.94731   0.03480167  0.035161717            1 
  645000     1.146293   -7.0766929    267.91829  0.034614766  0.035154196            2 
  646000     1.136768   -7.0726685    268.29733  0.034610079   0.03514669            2 
  647000    1.1637669   -7.0400694    269.64072  0.034729613  0.035139611            1 
  648000     1.145753   -7.1047061    269.15373  0.034613391  0.035131868            2 
  649000    1.1594339   -7.0354611    270.01128  0.034670169  0.035124271            3 
  650000    1.1538867   -7.0290932    270.17916  0.034638353  0.035116769            2 
  651000    1.1551643   -7.0934573    270.73244   0.03465597  0.035109791            3 
  652000    1.1385549    -7.081713    271.17169  0.034658958  0.035102813            2 
  653000    1.1373631   -7.0644684    271.86494  0.034694352  0.035096035            1 
  654000    1.1323862   -7.0545428     271.2878  0.034567763  0.035088599            2 
  655000    1.1541794   -7.0856707    271.60819  0.034555749  0.035081086            1 
  656000    1.1400728   -7.1142133    271.43056  0.034480508  0.035073344            2 
  657000    1.1542469    -7.104606    273.11625  0.034641838  0.035065384            2 
  658000    1.1612909   -7.0303749    273.17987  0.034597249  0.035057759            3 
  659000    1.1470901   -7.0564639     272.7916   0.03449565  0.035050435            1 
  660000    1.1260889    -7.037388    274.10718  0.034609492  0.035042972            6 
  661000    1.1276151   -7.0718961    273.86359  0.034526424  0.035035575            1 
  662000    1.1338481   -7.0698858    274.10992  0.034505277  0.035028246            2 
  663000    1.1535574   -7.0723074     274.1838  0.034462518  0.035020811            2 
  664000    1.1566286   -7.0595104     274.5491  0.034456463  0.035013069            1 
  665000    1.1366087   -7.1020449    274.77949   0.03443352  0.035005606            2 
  666000    1.1330654   -7.0708733    275.96589  0.034530266  0.034998355            2 
  667000    1.1423857   -7.0841997     276.0804  0.034492804  0.034990661            3 
  668000    1.1468952   -7.1039117    276.33909   0.03447344  0.034983492            2 
  669000    1.1291007   -7.0696586    277.29377  0.034540828  0.034976548            1 
  670000    1.1455695   -7.0715197    277.35713  0.034497156  0.034969229            2 
  671000    1.1357692   -7.0984072    278.25909  0.034557761  0.034961988            1 
  672000    1.1324095   -7.0407043     279.0773    0.0346078  0.034954966            3 
  673000    1.1449593   -7.0758522    278.33138  0.034464014   0.03494786            3 
  674000    1.1568272    -7.105141    279.21007  0.034521522  0.034940191            4 
  675000    1.1306224    -7.110406    278.68466  0.034405513  0.034932991            2 
  676000    1.1483258   -7.0544524    279.87267  0.034501069  0.034925825            1 
  677000    1.1746474   -7.0804391    279.12185  0.034357687  0.034918855            1 
  678000    1.1533992    -7.085685    280.54877  0.034482395  0.034911417            2 
  679000    1.1598073   -7.0871974    280.44488  0.034418861   0.03490378            2 
  680000    1.1694204   -7.1178004    280.11606  0.034327948   0.03489644            3 
  681000    1.1538459   -7.0978704     280.9385  0.034378181  0.034889158            1 
  682000    1.1414473   -7.0695765    281.96956  0.034453758     0.034882            1 
  683000     1.142114   -7.0599222    283.11087  0.034542566  0.034874653            2 
  684000    1.1672051   -7.0771039    283.42094  0.034529841  0.034867476            1 
  685000    1.1326683   -7.0736126    282.91103    0.0344174  0.034860116            3 
  686000    1.1306331   -7.0670674    283.94347  0.034492647  0.034852665            1 
  687000    1.1792802   -7.1034231    282.88522  0.034314073  0.034844741            2 
  688000    1.1192911   -7.0630334     283.7896   0.03437374   0.03483697            1 
  689000    1.1397229   -7.0778873    284.05572  0.034356037  0.034828918            1 
  690000    1.1315992   -7.0453001    284.69589  0.034383562  0.034821096            2 
  691000     1.130137   -7.0578401    285.56212  0.034438268  0.034813092            2 
  692000    1.1175071   -7.0490412     285.6543  0.034399602  0.034805777            2 
  693000    1.1588978   -7.1352059    284.92086  0.034261768  0.034798008            3 
  694000    1.1267824    -7.091908    285.59955  0.034293895  0.034790508            2 
  695000    1.1519656   -7.0661458    286.21098  0.034317863  0.034782606            4 
  696000     1.142206   -7.0705563     287.2267   0.03439017  0.034774655            3 
  697000    1.1269338     -7.11747    286.06726  0.034202207  0.034766594            2 
  698000    1.1444917   -7.1079021    287.71245  0.034349624  0.034758625            1 
  699000     1.155921   -7.0747255    286.68147  0.034177571   0.03475062            2 
  700000    1.1381895   -7.1198364    287.23877  0.034195091  0.034742438            4 
  701000    1.1475291   -7.0865419    287.22939  0.034145196  0.034734616            1 
  702000    1.1203082   -7.1302594    287.57733  0.034137859  0.034726501            1 
  703000     1.124819   -7.0601743    289.90041  0.034364677  0.034718373            2 
  704000    1.1639958   -7.0809954    289.22981  0.034236483  0.034710526            3 
  705000    1.1010676   -7.0841688    289.41534  0.034209851  0.034703023            1 
  706000    1.1454387   -7.1204108    289.62512  0.034186157   0.03469541            2 
  707000    1.1496321   -7.1125182    291.12912  0.034315078  0.034688067            2 
  708000    1.1252377   -7.0495704    290.70154  0.034216283  0.034680828            2 
  709000    1.1451015   -7.0966047    291.31845  0.034240532  0.034673606            3 
  710000      1.12728   -7.0976006    291.76728  0.034244986  0.034666388            1 
  711000    1.1348899   -7.1143555    291.86007  0.034207697   0.03465884            3 
  712000    1.1468349   -7.1010793     292.4384  0.034227341   0.03465164            2 
  713000    1.1203044    -7.096951    292.89717  0.034232956  0.034644609            3 
  714000    1.1240742   -7.1029989     292.5464   0.03414407  0.034637297            2 
  715000    1.1424705   -7.0619378    294.66798  0.034343588  0.034629879            2 
  716000    1.1363857   -7.0498712    294.31859  0.034254956  0.034622497            2 
  717000    1.1613698   -7.1222278    293.64778  0.034129217  0.034615135            3 
  718000    1.1516083   -7.0723929     294.2231  0.034148456  0.034607272            3 
  719000    1.1250265   -7.1234507    294.65932  0.034151521   0.03459958            2 
  720000    1.1287992   -7.0922956    294.83356  0.034124255  0.034591773            2 
  721000    1.1215681   -7.0716432    295.45087  0.034148274  0.034584311            2 
  722000    1.1377716     -7.11428    295.02251  0.034051536  0.034576348            1 
  723000    1.1355096   -7.1198018    295.93194   0.03410926  0.034568357            2 
  724000    1.1227807   -7.0892324    295.88225  0.034056429  0.034560441            2 
  725000    1.1164408   -7.0779037    296.92311  0.034129093   0.03455312            3 
  726000    1.1348899    -7.111804    296.81021  0.034069124  0.034545463            1 
  727000     1.133515   -7.1062147    298.08048  0.034167868  0.034537973            1 
  728000    1.1206919    -7.074343    298.67684  0.034189199  0.034530342            1 
  729000    1.1359415   -7.1072621     297.5137  0.034009339  0.034522729            1 
  730000    1.1178206   -7.1029291    298.35256  0.034058511  0.034515281            1 
  731000    1.1179855   -7.0644242    299.63061  0.034157616  0.034507882            1 
  732000    1.1335152   -7.1123598    299.65067  0.034113237  0.034500349            2 
  733000    1.1273546   -7.1135458    298.39862  0.033924354  0.034492438            1 
  734000    1.1155104    -7.097543    299.11241  0.033959175  0.034484554            1 
  735000    1.1403126   -7.1155466    299.23583  0.033926965  0.034476925            3 
  736000    1.1306577   -7.1122321    300.26045  0.033996881  0.034469454            2 
  737000    1.1286004   -7.1089149    300.64558  0.033994299  0.034461988            1 
  738000    1.1393377   -7.1163473    300.53776  0.033936061  0.034454011            2 
  739000    1.1224497   -7.1097427     302.2745  0.034085984  0.034446486            7 
  740000    1.1353449   -7.0941741    301.24776  0.033924297  0.034438823            2 
  741000    1.1231503   -7.0950616    302.03472  0.033967018  0.034431011            2 
  742000    1.1341792   -7.1216205    301.57156  0.033869223  0.034423478            3 
  743000    1.1359815   -7.1148304    302.85905  0.033968041  0.034415261            1 
  744000     1.133901   -7.1146801    302.88002  0.033924733  0.034406997            1 
  745000     1.152966   -7.0908453    302.83602  0.033874275  0.034398857            1 
  746000    1.1186146   -7.1460485    302.51939  0.033793498  0.034390446            2 
  747000    1.1301478   -7.0345101    305.19251  0.034046465  0.034382048            2 
  748000    1.1321879   -7.0606315    304.29626  0.033901098  0.034374222            3 
  749000    1.1229705   -7.1002298    304.29418  0.033855605  0.034365974            2 
  750000    1.1298605   -7.1211396    304.96802  0.033885335  0.034358136            2 
  751000    1.1160626   -7.0639614    305.91586   0.03394539  0.034350402            1 
  752000    1.1237365   -7.1103353    306.42396  0.033956556  0.034342614            2 
  753000    1.1550622   -7.1058306    306.48458  0.033918169  0.034335276            2 
  754000    1.1599037   -7.1118856     306.3612  0.033859549  0.034327469            2 
  755000    1.1411377   -7.0906698    306.93452  0.033877982  0.034320031            2 
  756000    1.1109693   -7.1295952    308.31027  0.033984818  0.034312839            2 
  757000    1.1327949   -7.1340523     307.6495  0.033867184  0.034305756            3 
  758000    1.1381794   -7.1077743    308.02977  0.033864311  0.034298175            1 
  759000    1.1244106   -7.1168487    308.78275  0.033902366  0.034290815            1 
  760000    1.1297184   -7.1252657     308.9039  0.033871041  0.034283566            3 
  761000     1.123375   -7.1173759    308.82077   0.03381743  0.034275771            3 
  762000    1.1479542   -7.1105023    308.10131  0.033694369  0.034267485            1 
  763000    1.1268428   -7.1414067    308.74216  0.033720201  0.034259614            2 
  764000    1.1022503   -7.0757204    309.22607  0.033728847  0.034251612            2 
  765000    1.1313589   -7.0801667     310.8955  0.033866613  0.034243687            3 
  766000    1.1264365   -7.0939651    310.44885  0.033773809  0.034235738            2 
  767000    1.1188058   -7.1020869     311.5041  0.033844427  0.034227919            2 
  768000    1.1256072   -7.0871187    311.90397  0.033843747  0.034220255            1 
  769000    1.1162044   -7.1465472    311.66616  0.033773967  0.034212379            1 
  770000    1.1419748   -7.0991627    312.48586  0.033818816  0.034204394            1 
  771000    1.1177341   -7.1295633    312.28846  0.033753617  0.034196666            1 
  772000    1.1224291    -7.103987    312.15236  0.033695203  0.034188561            1 
  773000    1.1238728   -7.0941194    313.00237  0.033743248  0.034180207            1 
  774000    1.1250718   -7.1103279    312.31594  0.033625747  0.034172147            1 
  775000    1.1308441   -7.1236105    312.28845  0.033579403  0.034163798            2 
  776000    1.1385374   -7.0896106    313.61966  0.033679088   0.03415531            1 
  777000    1.1642573   -7.1071312    313.41721  0.033614029  0.034146674            4 
  778000    1.1105982   -7.1758068    312.68854  0.033492774  0.034137952            3 
  779000    1.1257512   -7.0641781    314.26712  0.033618648  0.034129488            5 
  780000    1.0819218   -7.0859933    315.40183  0.033696777  0.034121077            1 
  781000    1.1259553   -7.1018061    315.50379   0.03366451  0.034112792            2 
  782000    1.1379672   -7.1291407     315.5995   0.03363166  0.034104608            4 
  783000    1.1272579   -7.1014261    315.87645  0.033618183  0.034096594            1 
  784000    1.1452375   -7.1561695     315.4996  0.033535246  0.034088539            2 
  785000    1.1358153   -7.1483555    316.18723  0.033565524  0.034080243            3 
  786000    1.1567712   -7.0797399    317.40387   0.03365181  0.034072161            3 
  787000     1.124288    -7.159602    316.67983  0.033532383  0.034063989            2 
  788000    1.1358142   -7.1269884    317.95222  0.033624389  0.034055585            3 
  789000    1.1261986   -7.1469916    317.72925  0.033558222  0.034047374            1 
  790000    1.1318362   -7.1204006    318.74638  0.033623036  0.034039407            4 
  791000    1.1501912   -7.1227807    319.21392  0.033629785  0.034031331            1 
  792000    1.1274387    -7.112204     319.8705  0.033656408  0.034023607            1 
  793000    1.1168178   -7.1199337    319.46841  0.033571712    0.0340158            2 
  794000    1.1098019    -7.157001    318.57496  0.033435659  0.034007554            3 
  795000    1.1454679   -7.1100353    319.87363  0.033529731  0.033999054            5 
  796000     1.147826   -7.1174242    320.05606  0.033506707  0.033990436            1 
  797000    1.1341053   -7.1381039    320.43828   0.03350463  0.033981813            1 
  798000    1.1293994   -7.1446617    320.53054  0.033472279  0.033973446            3 
  799000    1.1342105   -7.1161496    321.87698  0.033570816  0.033965478            2 
  800000    1.1247489   -7.1169478     322.4104  0.033584416   0.03395761            3 
  801000    1.1174377   -7.1246165    322.57941  0.033560072  0.033949969            3 
  802000    1.1187263   -7.1397168      322.177  0.033476413  0.033942296            2 
  803000     1.116098   -7.1467038    322.25202  0.033442509  0.033934542            1 
  804000    1.1259639   -7.1340832    323.60339  0.033540982  0.033926791            1 
  805000    1.1317498   -7.1130537    323.47998   0.03348654   0.03391879            1 
  806000    1.1189814   -7.1420317    324.27967  0.033527674  0.033910772            1 
  807000    1.1244734   -7.1064891    324.43758  0.033502435  0.033902596            3 
  808000    1.1215016   -7.1198432    325.99412  0.033621505   0.03389484            1 
  809000    1.1307271   -7.1413482    324.54716  0.033430899  0.033887405            1 
  810000    1.1123435   -7.1751685    325.14476  0.033451107  0.033879588            1 
  811000    1.1282819   -7.1315298    326.67975  0.033567587    0.0338717            1 
  812000    1.1394883   -7.1824174    324.77492  0.033330759  0.033863914            4 
  813000    1.1342412   -7.1141327    325.23948   0.03333738    0.0338559            2 
  814000     1.128936   -7.1059034    326.53217  0.033428765  0.033847655            1 
  815000    1.1352287   -7.1111092    327.16606  0.033452563  0.033839876            3 
  816000    1.1280354   -7.0963238    327.70327  0.033466429  0.033832019            1 
  817000    1.1315503   -7.0912153    328.23337  0.033479536  0.033824266            4 
  818000    1.1017571   -7.1412907    327.38449  0.033352128  0.033816518            1 
  819000    1.1288465   -7.0862777    329.73207  0.033550272  0.033808936            1 
  820000    1.1402373   -7.1446266    328.78121  0.033412724  0.033801386            1 
  821000     1.118721    -7.135134    328.08904   0.03330177  0.033793645            2 
  822000    1.1130656   -7.1239055    329.04247  0.033357915  0.033786103            1 
  823000    1.1042638   -7.1649738    328.59736  0.033272313   0.03377811            2 
  824000    1.1136532   -7.1350017    330.25785  0.033399864  0.033770281            1 
  825000    1.1124294   -7.1453611    329.95351  0.033328637  0.033762217            1 
  826000    1.1410665   -7.1470653    330.05578  0.033298606   0.03375401            6 
  827000    1.1149036   -7.1431808    331.19859  0.033373497  0.033746387            1 
  828000    1.1429864   -7.1194303     331.1573  0.033329035  0.033738675            1 
  829000    1.1095899   -7.0918474    332.38877  0.033412623  0.033731241            2 
  830000    1.1063247   -7.1421716    332.48734  0.033382263  0.033723559            1 
  831000    1.1084529   -7.1577791    332.26242  0.033319537  0.033715796            4 
  832000    1.1209919   -7.1240399    332.27663  0.033280912  0.033708083            2 
  833000    1.1200079   -7.1022077    332.94857  0.033308181  0.033700566            3 
  834000    1.1118142   -7.1001696     334.0366  0.033376958  0.033693186            2 
  835000    1.0955315   -7.1067838    335.21771  0.033454862  0.033685861            4 
  836000    1.1124346   -7.1180932    335.95254  0.033488092  0.033678517            2 
  837000     1.113703    -7.083217     335.5576  0.033408761  0.033671208            1 
  838000     1.116607   -7.1323298    336.52109  0.033464706  0.033664252            2 
  839000    1.1042123   -7.1323353    335.70788  0.033344049  0.033657227            3 
  840000    1.1095544   -7.1628509    336.09184  0.033342444  0.033650316            3 
  841000    1.1244407   -7.1158281    336.86092  0.033379005  0.033643296            2 
  842000    1.1156282   -7.1389596     336.5565  0.033309234  0.033636518            3 
  843000    1.1136591    -7.169173    337.80961  0.033393596  0.033629694            1 
  844000    1.0890983   -7.1534253    337.54968  0.033328365  0.033623012            2 
  845000    1.1282504   -7.1199501    339.27035  0.033458614  0.033616472            2 
  846000    1.1183524   -7.1312582     338.7594  0.033368735   0.03361022            2 
  847000    1.1438012   -7.1177403    339.49494  0.033401706  0.033603554            1 
  848000    1.1066904   -7.1538365    339.90828  0.033402936  0.033597159            5 
  849000     1.118795   -7.1675175    340.57064  0.033428606  0.033590612            1 
  850000     1.141583   -7.1291074    341.08886  0.033440084  0.033584267            2 
  851000    1.1245654   -7.1573874    340.55955  0.033348957  0.033577598            1 
  852000    1.1241337   -7.1265568    341.00347  0.033353235  0.033571218            1 
  853000    1.1079065   -7.1493143    340.60825  0.033275523  0.033564898            1 
  854000    1.1156129   -7.1400176    341.29729  0.033303795   0.03355803            2 
  855000    1.1171405    -7.172121    341.53795  0.033288299   0.03355155            2 
  856000    1.1465552   -7.1396342    341.51871  0.033247538  0.033544673            1 
  857000    1.1007306   -7.1153574    343.10166  0.033362666  0.033538175            3 
  858000    1.1211811   -7.1506316     343.9429  0.033405487  0.033531774            1 
  859000    1.1171601    -7.132782     342.4515  0.033221915  0.033525028            1 
  860000     1.118517   -7.1536029    344.18404  0.033351167  0.033518232            1 
  861000    1.1288195   -7.1541959    343.98234  0.033292909  0.033511613            1 
  862000    1.0917632   -7.1379916    344.61525  0.033315473  0.033505126            1 
  863000    1.1008159   -7.1536536    344.43878  0.033259828  0.033498604            3 
  864000    1.1015929   -7.1792381    344.56504   0.03323351  0.033492216            2 
  865000    1.1085829   -7.1429162    345.92727  0.033326326  0.033485953            1 
  866000    1.1293045   -7.1238501    345.95342   0.03329036  0.033479647            4 
  867000    1.1342165    -7.194133    345.98932  0.033255413  0.033473227            1 
  868000    1.1150446    -7.152314    346.65713  0.033281214  0.033467044            2 
  869000    1.1449464   -7.1766511    346.63843  0.033241123  0.033460507            1 
  870000    1.1063499   -7.1481179    346.29297  0.033169825  0.033454133            1 
  871000     1.124062   -7.1631634    346.56747  0.033158005  0.033447438            2 
  872000    1.1189133   -7.2066764     347.8558    0.0332431  0.033440686            2 
  873000    1.1184616   -7.1160977    349.71295  0.033382298  0.033434467            1 
  874000    1.1017893   -7.1660372    348.49962  0.033228416  0.033428394            3 
  875000     1.110251   -7.1760206    349.11318  0.033248875  0.033422396            4 
  876000    1.1061699   -7.1504437    350.41344  0.033334612  0.033416135       -1e+20 
  877000     1.072062   -7.1311211    350.21686  0.033277922  0.033410099            2 
  878000    1.0987422   -7.1220432    351.23955  0.033337087  0.033403926            2 
  879000    1.0987038   -7.1596301    350.59443     0.033238  0.033397555            2 
  880000    1.1122254   -7.1581507    350.89758  0.033228937  0.033391262            2 
  881000    1.0970032   -7.1506321    350.79068  0.033181109   0.03338501            2 
  882000    1.1140607   -7.1768446    350.45233   0.03311152  0.033379001            1 
  883000    1.1080835   -7.1491987    352.24669  0.033243364  0.033372867            2 
  884000    1.1127997   -7.1282155     352.7213  0.033250499  0.033366869            3 
  885000      1.13231   -7.1122822    353.02375  0.033241408  0.033360903            2 
  886000    1.1033612   -7.1391668    354.78107  0.033369175   0.03335513            1 
  887000    1.1136032   -7.1649958     353.5018  0.033211368  0.033349363            1 
  888000    1.1178531   -7.1392022    354.89088  0.033304324  0.033343304            2 
  889000    1.1038903    -7.140644    354.83603   0.03326172  0.033337456            2 
  890000    1.1100667   -7.1555322    353.71886  0.033119744  0.033331391            2 
  891000    1.1333073   -7.1022804    355.76717  0.033274146  0.033325459            2 
  892000    1.0977464   -7.1899659    355.53669  0.033215311  0.033319616            2 
  893000    1.0972931   -7.1310839    355.09954  0.033137321  0.033313368            1 
  894000    1.0805405   -7.1566175    356.43535  0.033224772  0.033307222            2 
  895000    1.1118982   -7.1694688    355.13456  0.033066533  0.033301024            2 
  896000    1.0870257   -7.1339045    356.09092  0.033118576  0.033294858            2 
  897000    1.1175952    -7.117617    357.60591  0.033222399  0.033289115            3 
  898000    1.0966651   -7.1369225    357.53103  0.033178455   0.03328315            2 
  899000    1.0913839    -7.173161    358.47466  0.033229019  0.033277096            3 
  900000    1.1073814   -7.1639007    356.81972  0.033038863  0.033270783            2 
  901000    1.1242255   -7.1325416    358.75641  0.033181318  0.033264497            2 
  902000    1.0804943   -7.1654496    358.66847  0.033136407  0.033258473            1 
  903000    1.1011085   -7.1482325    357.87068  0.033026087  0.033252339            1 
  904000    1.1366534   -7.1490551    359.22818  0.033114692  0.033246066            2 
  905000    1.0869638   -7.0942415     360.0332  0.033152228  0.033239902            1 
  906000    1.0852859   -7.1319251    359.73704  0.033088396  0.033233875            1 
  907000    1.0961148   -7.1510176    358.47692  0.032936138  0.033227309            3 
  908000    1.1242622   -7.1667028    359.70359  0.033012444  0.033221048            2 
  909000    1.1246535   -7.1377943    360.53245  0.033052113  0.033214765            1 
  910000    1.1367691   -7.1928585    360.05555   0.03297212  0.033208464            2 
  911000    1.0977695   -7.1705536    360.54554  0.032980748  0.033201926            3 
  912000    1.0990517   -7.2053041    361.21722  0.033005959  0.033195507            3 
  913000    1.1267659   -7.1462794    361.83413  0.033026116  0.033189192            2 
  914000    1.1076169   -7.1483555    361.51091  0.032960513  0.033183213            2 
  915000     1.086951   -7.1689635    363.07563  0.033066998  0.033176752            1 
  916000    1.1071454   -7.1683894    362.31892  0.032962056  0.033170155            3 
  917000    1.0887355   -7.1856551    362.40357  0.032933803  0.033163704            3 
  918000    1.0968168   -7.1933041    362.88945  0.032942035  0.033156848            1 
  919000     1.086407   -7.1582885     364.8149  0.033080785  0.033150181            2 
  920000    1.0961749   -7.1741988     362.8893  0.032870408  0.033143627            3 
  921000    1.1050784   -7.1322454    364.08079  0.032942525  0.033136766            4 
  922000    1.0843225   -7.1545072    363.49971  0.032854276  0.033129637            3 
  923000    1.0740554   -7.1282005    363.53998  0.032822317  0.033122441            1 
  924000       1.1094   -7.1958141    363.69045  0.032800365  0.033115369            1 
  925000    1.1126669   -7.1507784    363.82531  0.032777055  0.033108138            1 
  926000    1.1218209   -7.1818336    363.30685  0.032695001  0.033100868            1 
  927000     1.117859   -7.1704495    364.28852  0.032747979  0.033093326            1 
  928000    1.0933401   -7.1502813    364.91122  0.032768608  0.033085699            1 
  929000    1.0880827   -7.1790173    365.23146  0.032762062   0.03307792            1 
  930000    1.0980124    -7.184223    365.59974  0.032759834  0.033070361            4 
  931000    1.0948647   -7.2109008     363.9127   0.03257364  0.033062559            3 
  932000    1.0993587   -7.1789836    365.96982  0.032722624  0.033054567            3 
  933000    1.1156625   -7.1529576    365.76263  0.032669045  0.033046724            2 
  934000    1.1312109   -7.1607121    366.82474  0.032728831  0.033039132            1 
  935000    1.0806864   -7.1235713    366.73702  0.032686009  0.033031621            1 
  936000    1.1060272   -7.1672743     366.0368  0.032588746   0.03302398            1 
  937000    1.1132206   -7.1655035     367.5038  0.032684436  0.033015977            2 
  938000    1.1243633   -7.1659103    367.21766   0.03262417  0.033008338            1 
  939000    1.0998037     -7.13974    368.12946  0.032670346  0.033000357            2 
  940000      1.09505   -7.1720053     368.2082  0.032642571  0.032992415            2 
  941000    1.0988431   -7.1863001    366.99499  0.032500442  0.032984547            1 
  942000    1.1090193   -7.1828658     367.9729   0.03255245  0.032976459            2 
  943000    1.1071994   -7.1919916    368.43182  0.032558485  0.032968653            1 
  944000    1.0896598   -7.1658706    368.61446  0.032540119  0.032960634            3 
  945000    1.1083496   -7.1654508    369.17632  0.032555231  0.032952695            1 
  946000     1.114457   -7.1426618    370.65132   0.03265075   0.03294486            1 
  947000    1.0995179    -7.177413    370.06075  0.032564304  0.032937142            1 
  948000    1.0955901   -7.2239742    369.38841  0.032470851  0.032929294            2 
  949000    1.0966667   -7.2045167    370.20454  0.032508302  0.032921167            2 
  950000    1.1137436   -7.1664745    370.99085  0.032543057  0.032913048            2 
  951000    1.1009949   -7.1885924    370.04175   0.03242567  0.032904606            3 
  952000    1.1090804   -7.1702263    370.82295  0.032459992  0.032896201            2 
  953000    1.1042726   -7.1484514    370.78467  0.032422584   0.03288768            2 
  954000    1.0924725   -7.2075225    370.60132  0.032372582  0.032879187            1 
  955000    1.0928187   -7.1978798    370.91836  0.032366349  0.032870374            5 
  956000     1.090814   -7.1593354    370.08589  0.032259927  0.032861719            2 
  957000    1.0894117   -7.1587687    372.43794  0.032431029   0.03285298            1 
  958000    1.1229626   -7.1544595    371.82613  0.032343957  0.032844451            1 
  959000    1.0914239   -7.1626538    372.24252  0.032346413  0.032835734            2 
  960000    1.1062492   -7.1868178    372.67043  0.032349864  0.032826958            3 
  961000    1.1162746   -7.1373665    374.56368  0.032480375  0.032818229            2 
  962000     1.091125   -7.1617334    372.55006  0.032272182  0.032809475            1 
  963000     1.097527   -7.2100987    372.62389  0.032245058  0.032800447            1 
  964000    1.0858477   -7.1663053    373.23848  0.032264737  0.032791595            1 
  965000    1.0961572   -7.2234498    374.40266  0.032331836  0.032783227            2 
  966000    1.1082239   -7.2033575    373.29837  0.032203103  0.032774499            1 
  967000    1.0698451   -7.1660877    373.79128  0.032212279  0.032765709            1 
  968000    1.1022079   -7.1792383    375.28405  0.032307511  0.032757035            3 
  969000    1.0715104   -7.1503257     376.1459  0.032348289  0.032748505            1 
  970000    1.1076127   -7.1962534    374.93047  0.032210522  0.032739923            2 
  971000    1.0827791   -7.1922721    376.17335  0.032284015  0.032731306            2 
  972000    1.0739111   -7.1871168    376.04924  0.032240161  0.032722652            2 
  973000    1.0774762   -7.1762856    376.13833  0.032214657  0.032714101            1 
  974000    1.0927646   -7.1727267    376.02915  0.032172241  0.032705551            2 
  975000    1.0941289   -7.1620226    378.41052  0.032342779  0.032697262            2 
  976000    1.0776687   -7.1896019    376.86959  0.032178073  0.032688779            1 
  977000    1.1118888   -7.1926398    378.50531  0.032284656  0.032680467            2 
  978000    1.0876273   -7.1932374    377.93882  0.032203376  0.032672203            3 
  979000    1.0755224   -7.1707475     378.9211  0.032254094  0.032664039            1 
  980000    1.0855932   -7.2216035     377.0481  0.032061913  0.032655522            1 
  981000    1.1074691   -7.2206511    378.73268  0.032172331  0.032646807            1 
  982000    1.0995947   -7.1844319    380.12369  0.032257611  0.032637963            2 
  983000    1.1113741   -7.2173439    378.39689  0.032078407  0.032629361            2 
  984000    1.0837242   -7.1602886     378.9722  0.032094529  0.032620835            2 
  985000     1.073556   -7.2174343    379.46135  0.032103329  0.032612305            3 
  986000    1.0910322   -7.2045966    379.50564  0.032074513  0.032603669            1 
  987000    1.0867484   -7.2348541    381.71547  0.032228594  0.032595147            2 
  988000    1.0992539   -7.2293561    380.24592  0.032072025  0.032586466            1 
  989000    1.0846463   -7.1855996    380.93382  0.032097558  0.032577996            5 
  990000    1.0625466   -7.1661387    381.25733  0.032092368  0.032569236            3 
  991000    1.0978811   -7.1727373    382.55035  0.032168714  0.032560365            2 
  992000    1.1102613   -7.1963669    380.72959  0.031983332  0.032551421            2 
  993000    1.0974303   -7.1468044    381.57375  0.032021966  0.032542447            1 
  994000    1.0815595   -7.1838988    382.07855  0.032032071  0.032533486            3 
  995000    1.1057573   -7.2251492    380.94938  0.031905309  0.032524332            2 
  996000     1.060105   -7.2005562    382.36935  0.031992081  0.032515111            1 
  997000    1.0906856   -7.2097453    382.63126  0.031981884  0.032505906            2 
  998000    1.0824454   -7.1719228    382.58781   0.03194621  0.032496844            2 
  999000    1.1068829   -7.2179667     382.4225  0.031900442  0.032487607            1 
 1000000    1.0951785   -7.1762445    381.97161  0.031830968  0.032478437            1 
 1001000     1.083495   -7.2070776    383.42233  0.031919941  0.032469131            2 
 1002000    1.0877366    -7.207847    382.51572  0.031812685  0.032459681            3 
 1003000    1.0883766   -7.2259882    382.87576  0.031810881  0.032450168            1 
 1004000    1.0653572   -7.2045642    383.28697  0.031813328  0.032440731            2 
 1005000    1.0968269   -7.2084204    383.24814  0.031778453  0.032431048            2 
 1006000    1.1128888   -7.2141123     383.0128  0.031727369  0.032421121            2 
 1007000    1.0906821   -7.1900126    383.72243  0.031754587  0.032411271            3 
 1008000    1.0797991   -7.2091329    383.51538  0.031705968  0.032401301            1 
 1009000    1.0804786   -7.2064231    384.29184  0.031738672   0.03239149            2 
 1010000    1.0998341   -7.1776439    385.29864  0.031790317  0.032381787            2 
 1011000    1.0805719   -7.1745994    384.02603  0.031653976  0.032372136            3 
 1012000    1.1160962   -7.1813125    385.94043  0.031780339  0.032362338            3 
 1013000    1.0830456   -7.1693594    386.41334  0.031787869  0.032352666            1 
 1014000     1.088259   -7.2001228    385.95319  0.031718704  0.032342691            3 
 1015000    1.0791328   -7.1707211    386.56987  0.031738085  0.032333019            2 
 1016000    1.1081291   -7.1777495    387.72203  0.031801348  0.032323455            1 
 1017000    1.0746442   -7.1962115    386.15704  0.031641842  0.032313937            1 
 1018000    1.0985483   -7.1141363    388.74631  0.031822717  0.032304542            1 
 1019000    1.0928497   -7.1919625    387.79465  0.031713661  0.032294787            1 
 1020000    1.0823502   -7.2048998    388.54705   0.03174404  0.032284973            2 
 1021000     1.102036     -7.20558    388.00688   0.03166886  0.032275346            2 
 1022000    1.1129116   -7.2078776    387.78521  0.031619799  0.032265697            4 
 1023000    1.0799962   -7.1830577    388.34243  0.031634281  0.032256128            1 
 1024000    1.0947156   -7.1967404    389.77014  0.031719575  0.032246754            3 
 1025000    1.0602405   -7.2032434    389.61334  0.031675881  0.032237223            2 
 1026000    1.0856022   -7.1694226    389.97062  0.031674027  0.032227655            1 
 1027000    1.0949426   -7.1709496    390.39352  0.031677501   0.03221829            1 
 1028000    1.1195445    -7.195379    390.97581  0.031693888  0.032208918            1 
 1029000    1.0746238   -7.1745733    390.55217   0.03162878  0.032199457            1 
 1030000    1.0959176   -7.2155582    389.15882  0.031485341  0.032189661            1 
 1031000    1.0914729    -7.205403    390.28526   0.03154585   0.03217985            3 
 1032000    1.0784174    -7.198461    390.50408  0.031532952  0.032170018            1 
 1033000    1.0972642   -7.2142513     391.3663  0.031571983  0.032160056            1 
 1034000    1.0965091   -7.2073102     390.8096  0.031496583  0.032150182            3 
 1035000    1.0702857   -7.1850649    391.04584  0.031485172  0.032140258            1 
 1036000    1.0896713   -7.1706797    391.61769  0.031500779  0.032130542            3 
 1037000    1.0414454   -7.1875502     392.9786  0.031579765  0.032121062            2 
 1038000    1.0876998   -7.2134644    392.22975  0.031489222  0.032111246            2 
 1039000    1.0773461   -7.1962874    393.67258  0.031574638  0.032101794            3 
 1040000    1.0676868   -7.1970272    392.48944  0.031449474  0.032092309            1 
 1041000    1.0991107   -7.2093454    393.76147  0.031521091  0.032082879            1 
 1042000    1.0838254   -7.1955481    394.51856  0.031551388  0.032073412            1 
 1043000    1.0774717    -7.203212    393.70231  0.031455921  0.032063944            1 
 1044000     1.088064   -7.2059389    393.82065  0.031435237  0.032054214            1 
 1045000    1.0678007   -7.1913271    394.66679  0.031472631  0.032044705            1 
 1046000    1.0819194   -7.2007682    394.77674  0.031451302  0.032035262            2 
 1047000    1.0984292   -7.2047831    394.39745  0.031391074  0.032025646            4 
 1048000    1.0628193   -7.2468665    393.89974  0.031321545  0.032015842            2 
 1049000    1.0853276   -7.2259845    395.14455  0.031390574   0.03200627            2 
 1050000    1.0882229   -7.1880958    395.83685  0.031415623  0.031996663            3 
 1051000    1.1082357   -7.1900304    396.72464  0.031456124  0.031987274            2 
 1052000    1.0861028   -7.2193192    397.09208   0.03145533  0.031977963            1 
 1053000    1.0801246   -7.1997773    397.17241  0.031431814  0.031968628            2 
 1054000    1.0859217   -7.2230389    397.57714  0.031433992  0.031959613            2 
 1055000    1.0914581   -7.2333398    398.74409  0.031496374  0.031950633            3 
 1056000    1.0858424   -7.2167959    397.49803  0.031368216  0.031941488            1 
 1057000    1.0966285   -7.2098118    399.06433  0.031462026   0.03193238            1 
 1058000    1.0835792   -7.2156618    398.24248  0.031367555  0.031922889            1 
 1059000    1.0781664   -7.1876388    400.65759  0.031527982  0.031913768            3 
 1060000    1.1077821     -7.23722    399.56146  0.031412064  0.031904735            3 
 1061000     1.077637   -7.2160339    399.88488   0.03140786  0.031895694            2 
 1062000    1.0777384   -7.2310458    399.42414  0.031342133  0.031886662            2 
 1063000    1.0896704   -7.2282561    399.82734  0.031344257  0.031877579            2 
 1064000    1.0786327   -7.2216614     400.0604  0.031333052  0.031868403            1 
 1065000    1.0784819   -7.1953917    401.31909   0.03140212  0.031859454            1 
 1066000    1.0714786   -7.2298808    401.03183  0.031350205  0.031850411            4 
 1067000    1.0956232   -7.1902858    399.82797  0.031226801  0.031841527            3 
 1068000    1.0871717   -7.2092685    401.80231  0.031351616  0.031832577            2 
 1069000    1.0785884   -7.2254791    401.66128  0.031311294  0.031823327            2 
 1070000    1.0613259   -7.2523776     401.7608  0.031289782  0.031814164            9 
 1071000    1.0874508    -7.188883    402.93028  0.031351562  0.031805196            1 
 1072000    1.1082193    -7.199532    403.16977  0.031340933  0.031796274            2 
 1073000    1.0692566   -7.2383491    404.26822  0.031397035  0.031787143            2 
 1074000    1.0651223   -7.2244584    403.35122   0.03129665  0.031778405            1 
 1075000    1.0759688   -7.2441272    403.87179   0.03130789  0.031769608            2 
 1076000    1.0754573   -7.2343601    403.60043  0.031257778  0.031760527            1 
 1077000    1.0667549   -7.1982051    404.29217  0.031282278  0.031751986            2 
 1078000    1.0913125   -7.2372536    403.93709  0.031225811  0.031743394            1 
 1079000    1.0467843   -7.1804689    405.32117  0.031303767   0.03173465            2 
 1080000    1.0725965   -7.2299312    405.54453  0.031292017  0.031725962            1 
 1081000    1.0718584    -7.167882      406.845  0.031363321  0.031717388            3 
 1082000    1.0827404   -7.2211928    406.07283  0.031274863  0.031708972            4 
 1083000    1.0990978   -7.2196803    407.92875  0.031388793  0.031700655            1 
 1084000    1.0879103   -7.2276058    406.63892  0.031260679  0.031692131            4 
 1085000     1.076929   -7.2140826    407.85058  0.031324929  0.031683595            1 
 1086000    1.1155232    -7.241011    407.50397  0.031269488  0.031675031            3 
 1087000    1.0763558   -7.2316631    407.43335  0.031235307  0.031666396            1 
 1088000     1.067287   -7.2337331    406.97205  0.031171266  0.031657597            2 
 1089000    1.0839216   -7.2603634    408.23058  0.031238948   0.03164866            2 
 1090000    1.0899698    -7.283392    406.76338  0.031098117  0.031639836            2 
 1091000    1.0799885   -7.2220786    408.36699  0.031192101  0.031630884            2 
 1092000    1.0904761   -7.2434809    408.08271  0.031141843  0.031622026            2 
 1093000    1.0930541   -7.1953331    409.69675  0.031236409  0.031613449            1 
 1094000    1.0731938   -7.2081066    409.31658  0.031178899  0.031604548            1 
 1095000    1.0892944   -7.2411915    409.40936  0.031157486  0.031595801            1 
 1096000    1.0638334   -7.2381527    410.92278  0.031244128  0.031587089            1 
 1097000    1.0964256   -7.2260381    409.70186  0.031122901  0.031578529            2 
 1098000    1.0753051   -7.2493132    410.04935  0.031120928  0.031570021            1 
 1099000    1.0977295   -7.2020004    411.32376  0.031189245  0.031561476            1 
 1100000    1.0366787   -7.2196447    410.23551  0.031078447  0.031552766            1 
 1101000     1.087478   -7.2378416    409.91305  0.031025814  0.031543729            3 
 1102000    1.0880216   -7.2033066     411.4011  0.031110186  0.031534662            1 
 1103000    1.0699426   -7.2282325    411.89776  0.031119504  0.031525594            1 
 1104000    1.0908335   -7.2660101    409.94998  0.030944292  0.031516345            2 
 1105000    1.0708588   -7.2440132    410.34016  0.030945713  0.031507145            2 
 1106000    1.0831831   -7.2385427    410.89221  0.030959329  0.031497788            2 
 1107000    1.0646885   -7.2143188    411.61829   0.03098602  0.031488456            5 
 1108000    1.0700619    -7.203742    411.88226  0.030977908  0.031479343            2 
 1109000    1.0730028   -7.2260034     413.6255  0.031080966  0.031470226            3 
 1110000    1.0845942   -7.2333576    412.75465  0.030987587  0.031461207            2 
 1111000    1.0603267   -7.2237057    412.39201  0.030932494  0.031452244            1 
 1112000    1.0735742   -7.2407026    413.06487  0.030955101  0.031443167            2 
 1113000    1.0508136   -7.2282005    414.08445  0.031003628   0.03143407            1 
 1114000    1.0802001    -7.253971    414.18887  0.030983608  0.031425068            1 
 1115000    1.0636173   -7.2282886    414.55059  0.030982854  0.031416323            1 
 1116000     1.067765   -7.2488596    414.74713  0.030969768  0.031407402            1 
 1117000    1.0747131   -7.1913078    415.01312  0.030961886  0.031398562            3 
 1118000    1.0742483   -7.2584363     414.5953  0.030903049  0.031389541            2 
 1119000    1.0973382   -7.2529459    414.99001  0.030904827  0.031380565            1 
 1120000    1.0516637   -7.2113066    415.72463  0.030931892  0.031371636            1 
 1121000    1.0864963   -7.2669898    414.60666  0.030821191  0.031362846            5 
 1122000    1.0791744   -7.2716225    416.67553   0.03094738  0.031353863            2 
 1123000    1.0477055    -7.248061    415.96092  0.030866795   0.03134502            2 
 1124000    1.0504879   -7.2264982    417.90903  0.030983765  0.031336272            2 
 1125000    1.0431102   -7.2489706     417.3136  0.030912119  0.031327515            1 
 1126000    1.0980682   -7.2431498    416.38035  0.030815597  0.031318685            3 
 1127000    1.0599665   -7.2346256    417.88654  0.030899626   0.03130985            3 
 1128000    1.0516462    -7.244373    418.57535   0.03092312  0.031300989            2 
 1129000    1.0571107   -7.2363666    417.86842   0.03084355  0.031292078            1 
 1130000    1.0509067   -7.2798766      417.464   0.03078643  0.031283073            1 
 1131000    1.0256279   -7.2336609    417.88627  0.030790324  0.031274123            3 
 1132000    1.0571903    -7.267486    419.04464  0.030848398  0.031265239            2 
 1133000    1.0534679   -7.2475577    418.78769  0.030802272  0.031256683            2 
 1134000    1.1054339   -7.2276051    420.47943  0.030899429   0.03124797            1 
 1135000    1.0902083   -7.2567624    418.45012   0.03072321   0.03123913            2 
 1136000    1.0554606   -7.2532672    419.72031  0.030789342  0.031230479            4 
 1137000    1.0601254   -7.2288547    419.88719  0.030774494  0.031221566            2 
 1138000     1.064163   -7.2259515    420.30611  0.030778127  0.031212573            4 
 1139000    1.0655609   -7.2680097    418.94381  0.030651435  0.031203298            2 
 1140000    1.0647124   -7.2270269     420.1036  0.030709327  0.031194093            3 
 1141000    1.0651729   -7.2212343    420.33925  0.030699624  0.031184798            2 
 1142000    1.0811016   -7.2570389     420.5735  0.030689835   0.03117568            1 
 1143000    1.0889601   -7.2248387    420.97125  0.030691984  0.031166401            2 
 1144000    1.0926295   -7.2360101    421.15119  0.030678262  0.031157201            1 
 1145000    1.1058441   -7.2567919    419.76732  0.030550751   0.03114769            2 
 1146000    1.0616892   -7.2860752    421.06595  0.030618525  0.031138271            2 
 1147000    1.0645265   -7.2508314    420.88087  0.030578384  0.031128751            1 
 1148000    1.0465015    -7.235277    420.88749  0.030552228  0.031119334            2 
 1149000    1.0821371   -7.2568593    421.59717  0.030577108  0.031109879            1 
 1150000    1.0535951    -7.232423    422.33432  0.030603936  0.031100518            1 
 1151000    1.0770343   -7.2392929    422.87575  0.030616547   0.03109109            3 
 1152000    1.0903883   -7.2056283    423.76698   0.03065444  0.031081828            2 
 1153000    1.0661706   -7.2490504    421.92095  0.030494431  0.031072623            1 
 1154000    1.0886398   -7.2133245    423.06558  0.030550663   0.03106312            1 
 1155000    1.0925519   -7.2934324    422.31195  0.030469838   0.03105369            2 
 1156000     1.037381   -7.2716101    422.89932  0.030485821  0.031044314            2 
 1157000     1.091288    -7.300612    423.59205  0.030509367  0.031034772            3 
 1158000     1.071863   -7.2262722    424.66521  0.030560248  0.031025375            2 
 1159000    1.0657941   -7.2468412     426.2326  0.030646578  0.031016011            2 
 1160000    1.0656759   -7.2002697    426.55005  0.030642964  0.031006896            2 
 1161000    1.0676096   -7.2159845    426.09891  0.030584188  0.030997796            1 
 1162000    1.0570726    -7.193097    427.02547  0.030624317  0.030989002            1 
 1163000    1.0445231   -7.2291288    427.51025  0.030632721  0.030980327            4 
 1164000    1.0761467   -7.2932768    425.19237  0.030440462  0.030971312            2 
 1165000    1.0959747   -7.2308411     427.5792  0.030585064  0.030962177            2 
 1166000    1.0805342   -7.2573972      427.018  0.030518725  0.030953324            2 
 1167000    1.0471603   -7.2223741    428.55109  0.030602049  0.030944404            3 
 1168000    1.0576367    -7.270369    428.88589  0.030599736  0.030935511            6 
 1169000    1.0805072   -7.2420212    428.02958  0.030512517  0.030926703            2 
 1170000     1.053976   -7.2249902     428.9438  0.030551553   0.03091798            2 
 1171000    1.0581725   -7.2492791    427.35536  0.030412423  0.030909066            1 
 1172000     1.068037   -7.2152363    429.52638   0.03054084  0.030900028            4 
 1173000    1.0629915   -7.2512495    428.03586  0.030408913  0.030890946            1 
 1174000    1.0610592   -7.2163743    428.69187  0.030429577  0.030882011            1 
 1175000    1.0486973   -7.2846841    428.26421  0.030373348   0.03087286            2 
 1176000    1.0859584   -7.2501651    430.81103  0.030527993  0.030863906            1 
 1177000    1.0542397   -7.2938416    430.97858  0.030513918  0.030855058            1 
 1178000    1.0613945   -7.2303013    430.74199  0.030471279  0.030846277            2 
 1179000    1.0506875   -7.2307398     429.7862  0.030377877  0.030837459            1 
 1180000    1.0563816   -7.2442136    432.53681  0.030546385  0.030828733            1 
 1181000    1.0534593   -7.2819665    432.57954  0.030523535  0.030819894            2 
 1182000     1.074024   -7.3011475    431.27492  0.030405733  0.030811169            1 
 1183000    1.0354531   -7.2435743    434.13118  0.030581233   0.03080235            3 
 1184000    1.0590438   -7.2304266     433.0847   0.03048175  0.030793595            2 
 1185000    1.0631489   -7.2745683    432.32663  0.030402716  0.030784859            1 
 1186000    1.0427107   -7.3219249    431.63598  0.030328554   0.03077608            3 
 1187000    1.0739157   -7.2699207    434.03268  0.030471264  0.030767464            1 
 1188000     1.033819   -7.2712602    431.77727  0.030287407  0.030758883            2 
 1189000    1.0619352    -7.254559    433.63379  0.030392052   0.03075002            2 
 1190000    1.0361934   -7.2731282    433.72126  0.030372637  0.030741167            3 
 1191000    1.0707184   -7.2332734    435.04909  0.030440043  0.030732468            2 
 1192000    1.0622873   -7.2731783    433.75978   0.03032437  0.030723663            2 
 1193000    1.0752143   -7.2753695    433.34458  0.030269948   0.03071493            2 
 1194000    1.0465616   -7.2582744    434.06609  0.030294953  0.030706231            4 
 1195000    1.0535641   -7.2306279     435.7118  0.030384366  0.030697522            2 
 1196000    1.0485113   -7.2357148    436.91616  0.030442876  0.030688806            2 
 1197000    1.0241641   -7.2429519    437.16046  0.030434452  0.030680366            1 
 1198000    1.0581418   -7.2686484    436.67965  0.030375601   0.03067196            2 
 1199000    1.0580376     -7.29191    437.27286  0.030391497  0.030663652            1 
 1200000    1.0666906   -7.2185268    437.68046  0.030394476  0.030655306            2 
 1201000     1.077939   -7.2723052    436.28271  0.030272183  0.030646899            1 
 1202000    1.0500213   -7.2920741    438.10897  0.030373611  0.030638546            1 
 1203000    1.0590793   -7.3419835    436.93815  0.030267259  0.030630196            2 
 1204000     1.058137   -7.2866954    438.88203  0.030376663  0.030621795            3 
 1205000    1.0898107   -7.2503189    438.83366  0.030348109  0.030613605            1 
 1206000    1.0617172   -7.2604236     439.8237  0.030391355  0.030605409            1 
 1207000    1.0558619   -7.3146273    438.93125  0.030304561  0.030597104            2 
 1208000    1.0783759   -7.2604516     438.9566  0.030281222  0.030588758            2 
 1209000    1.0516446   -7.3016934     439.3314   0.03028201  0.030580338            2 
 1210000    1.0363463   -7.2668959    440.11255  0.030310781     0.030572            1 
 1211000    1.0448055   -7.2776376    439.62714  0.030252349  0.030563751            2 
 1212000    1.0467847   -7.2867251    440.30644  0.030274095  0.030555685            3 
 1213000    1.0483232   -7.2598379    441.13095  0.030305781  0.030547629            2 
 1214000    1.0519472   -7.2550608    442.27922  0.030359639  0.030539679            1 
 1215000    1.0432306   -7.2895621    440.93276  0.030242302  0.030531504            2 
 1216000    1.0729842   -7.3045219    441.66829  0.030267838  0.030523309            1 
 1217000    1.0655452   -7.2580788    443.59963  0.030375214  0.030515447            2 
 1218000    1.0569743   -7.2446019    443.00529  0.030309612  0.030507539            1 
 1219000    1.0502352   -7.2603758     443.7172  0.030333415  0.030499541            1 
 1220000    1.0497674   -7.2677077    442.95826  0.030256712  0.030491444            4 
 1221000     1.055644   -7.2488755    444.29391   0.03032309  0.030483484            2 
 1222000    1.0688029   -7.2862983    443.56072  0.030248276  0.030475567            3 
 1223000    1.0386073   -7.2632776    444.76001  0.030305261  0.030467552            1 
 1224000    1.0673324   -7.3094939    442.99437  0.030160292  0.030459586            2 
 1225000    1.0388377    -7.263787    445.84357  0.030329495   0.03045166            4 
 1226000    1.0560053   -7.2898343    443.89143  0.030172065  0.030443724            1 
 1227000    1.0272874   -7.3048088    444.24938  0.030171786  0.030435795            1 
 1228000    1.0756542   -7.2279957    445.99688  0.030265804  0.030427839            1 
 1229000    1.0716466    -7.297876    447.42788  0.030338207  0.030420206            2 
 1230000     1.051684   -7.2676387    448.31943  0.030373945   0.03041273            2 
 1231000    1.0734367   -7.2677757    446.43304  0.030221571  0.030405092            2 
 1232000    1.0432154   -7.2833895    447.01114  0.030236143  0.030397467            1 
 1233000    1.0519419   -7.3058557    447.45935  0.030241913  0.030389825            3 
 1234000    1.0748002   -7.2855649    447.77699  0.030238857  0.030382306            2 
 1235000    1.0448058   -7.2608546    448.89351   0.03028971  0.030374746            2 
 1236000    1.0631023   -7.2588189    448.63229  0.030247592  0.030366878            6 
 1237000    1.0295922    -7.283935    447.86388  0.030171374  0.030359095            1 
 1238000    1.0549975    -7.282581    448.35222  0.030179874  0.030351438            1 
 1239000    1.0490269      -7.2628    449.37108  0.030224043  0.030343718            2 
 1240000    1.0333522   -7.2589948    448.96311  0.030172252   0.03033592            2 
 1241000    1.0837449   -7.2789837    449.48464   0.03018296  0.030328057            1 
 1242000    1.0471753    -7.271831    449.33087  0.030148341  0.030320236            2 
 1243000    1.0678794   -7.2469754    451.30134  0.030256191   0.03031255            2 
 1244000    1.0598691   -7.2731246    451.37994  0.030237134  0.030304963            1 
 1245000    1.0441209   -7.2735759    450.53503  0.030156293  0.030297307            4 
 1246000    1.0412737   -7.3111562    448.02603  0.029964288  0.030289496            2 
 1247000     1.018884   -7.2797214    449.39148  0.030031508  0.030281493            3 
 1248000    1.0536768   -7.2528335    452.02881  0.030183547  0.030273597            2 
 1249000    1.0468717   -7.2824957    451.03495  0.030093071  0.030265598            2 
 1250000    1.0521993   -7.2804545    449.63202  0.029975468  0.030257492            2 
 1251000    1.0599907   -7.3061975    449.91493  0.029970352  0.030249628            3 
 1252000    1.0423405   -7.2680378    450.47255   0.02998353  0.030241684            2 
 1253000    1.0537124   -7.2608252    452.66401  0.030105348  0.030233756            1 
 1254000    1.0257142   -7.2915472    451.71544  0.030018304  0.030225947            1 
 1255000     1.060757    -7.284494    453.08027  0.030085011  0.030218145            2 
 1256000     1.060335   -7.2949097    453.34598  0.030078687  0.030210316            2 
 1257000    1.0720984   -7.3013483    453.49375  0.030064555   0.03020273            4 
 1258000    1.0437424    -7.255666    455.16071   0.03015108  0.030195345            4 
 1259000    1.0650541   -7.2949623    455.15889  0.030127011  0.030187974            1 
 1260000    1.0325786   -7.2527874    456.84761  0.030214789  0.030180824            2 
 1261000    1.0777236   -7.2786302    455.51342  0.030102658  0.030173532            1 
 1262000    1.0559418   -7.2641503    456.61921  0.030151823  0.030166181            2 
 1263000    1.0382775    -7.306994    456.02497  0.030088742  0.030158802            3 
 1264000    1.0559023   -7.2714387    455.03974  0.029999983  0.030151147            2 
 1265000    1.0420981   -7.2908679     457.8158  0.030159144  0.030143871            1 
 1266000    1.0836924   -7.2676921    457.73726  0.030130151  0.030136692            1 
 1267000    1.0324913   -7.2622214    457.32607  0.030079326  0.030129345            1 
 1268000    1.0459076   -7.2807632    456.76297  0.030018597  0.030121852            2 
 1269000    1.0441727    -7.242229     457.1817  0.030022439  0.030114303            1 
 1270000     1.034066   -7.2566644    457.37985  0.030011801  0.030106526            1 
 1271000    1.0509563   -7.3150617    455.83022  0.029886587  0.030098699            3 
 1272000    1.0623169   -7.2913856    456.20461  0.029887619  0.030090848            1 
 1273000    1.0688972   -7.2725332    458.25164  0.029998143  0.030083064            1 
 1274000    1.0481713   -7.2270514    457.66962  0.029936527  0.030075227            2 
 1275000     1.048753   -7.3227526    456.53085  0.029838617  0.030067521            2 
 1276000     1.029506   -7.2985993    458.57219   0.02994855  0.030059722            6 
 1277000     1.056344   -7.3008148    457.97946  0.029886417  0.030051886            2 
 1278000    1.0453956   -7.3164052    457.89644  0.029857619  0.030044159            1 
 1279000    1.0295844   -7.2586107    458.87686  0.029898153  0.030036375            2 
 1280000    1.0303765    -7.301475    458.95297  0.029879751  0.030028645            3 
 1281000     1.042793   -7.2876076    459.40061  0.029885546  0.030020937            1 
 1282000    1.0312645   -7.2806114    459.24374  0.029852037  0.030013234            2 
 1283000    1.0420337    -7.337936    458.12855  0.029756336  0.030005265            5 
 1284000    1.0408223    -7.297603    458.70642  0.029770666  0.029997459            2 
 1285000    1.0374148    -7.306156    460.58719  0.029869468  0.029989671            3 
 1286000    1.0307211   -7.2974699    459.79277  0.029794762  0.029982009            2 
 1287000    1.0256575   -7.3077038    459.84357  0.029774901  0.029974283            1 
 1288000    1.0302313   -7.2787423    461.48495  0.029857981  0.029966628            1 
 1289000    1.0469629   -7.2922391    461.67021  0.029846794  0.029959124            4 
 1290000    1.0607877    -7.268583    462.11702  0.029852521  0.029951421            2 
 1291000     1.024639   -7.2905678    462.46895  0.029852114  0.029943645            1 
 1292000    1.0452141    -7.311342    460.72378  0.029716446  0.029935906            2 
 1293000    1.0276864   -7.2785121    461.58576  0.029749018  0.029928184            1 
 1294000    1.0286271   -7.3003677    461.31495  0.029708588  0.029920426            2 
 1295000    1.0340431   -7.2814672    463.54852  0.029829377  0.029912669            2 
 1296000    1.0353043   -7.3228281    462.80157  0.029758331   0.02990512            2 
 1297000    1.0615055   -7.3403677    462.03647  0.029686229   0.02989745            2 
 1298000     1.011627   -7.2735153    463.76436  0.029774291  0.029889883            2 
 1299000    1.0264246   -7.2445519    465.54609  0.029865672  0.029882314            2 
 1300000    1.0271873   -7.3105481     463.3528  0.029702103  0.029874922            1 
 1301000     1.026103   -7.2935735    464.35571  0.029743512  0.029867427            2 
 1302000    1.0513457   -7.3377545    463.31195  0.029653862  0.029859695            1 
 1303000    1.0238632   -7.2767812    464.66649  0.029717734  0.029852161            2 
 1304000    1.0326707   -7.2776005    465.37274  0.029740078  0.029844774            2 
 1305000    1.0446078   -7.2841118    465.29973  0.029712626  0.029837337            1 
 1306000    1.0345501   -7.3184577    465.67569  0.029713865  0.029829851            1 
 1307000    1.0534447    -7.310949    466.55279  0.029747054  0.029822363            1 
 1308000    1.0459618   -7.2869226    466.29363    0.0297078   0.02981478            2 
 1309000    1.0527772   -7.3099255    468.27853  0.029811467  0.029807364            2 
 1310000    1.0393135    -7.278868    468.44795  0.029799488  0.029800018            2 
 1311000     1.043467   -7.3010728    468.74532   0.02979566   0.02979271            1 
 1312000    1.0256414   -7.3047325    468.27509  0.029743082  0.029785262            2 
 1313000     1.041874   -7.2944698    467.70718  0.029684386   0.02977769            2 
 1314000    1.0609768   -7.3354142    467.91529  0.029674993  0.029770215            2 
 1315000    1.0513078   -7.3039142    467.98816  0.029657044  0.029762718            3 
 1316000    1.0357796   -7.3324142    468.42033  0.029661875  0.029755253            2 
 1317000    1.0327035   -7.3030761    469.52922  0.029709518  0.029747979            2 
 1318000     1.073448   -7.2947685    469.21309  0.029666988   0.02974068            3 
 1319000    1.0438051   -7.2887743    470.37918  0.029718169  0.029733484            2 
 1320000    1.0196251   -7.2946124    470.25855   0.02968804    0.0297263            2 
 1321000    1.0306271   -7.3268364    469.76978  0.029634733  0.029719018            4 
 1322000    1.0516823   -7.3346194    470.59191  0.029664139  0.029711856            4 
 1323000    1.0396084   -7.2945195    471.01821   0.02966857  0.029704477            1 
 1324000    1.0431401   -7.3272388    470.14306  0.029591079  0.029696983            3 
 1325000    1.0342709   -7.2883245    470.22624  0.029573977  0.029689536            2 
 1326000    1.0351069   -7.3354006    469.70004  0.029518605  0.029682006            2 
 1327000    1.0402459   -7.3055298    472.05326  0.029644139  0.029674552            2 
 1328000    1.0351883   -7.2958405    473.45605  0.029709843  0.029667293            3 
 1329000    1.0591629   -7.2945656    472.51318  0.029628366  0.029659933            2 
 1330000    1.0245631   -7.3456083    470.28614   0.02946655  0.029652551            1 
 1331000    1.0334601   -7.3023387    472.58911    0.0295886  0.029645009            2 
 1332000    1.0324325    -7.321629    471.04739  0.029469932  0.029637303            1 
 1333000     1.050169   -7.2988826    471.65759  0.029485971  0.029629645            1 
 1334000    1.0278627   -7.2991577    472.14603   0.02949438  0.029622098            2 
 1335000    1.0304476   -7.2902486    472.81806  0.029514236   0.02961459            3 
 1336000    1.0510464   -7.3073546    472.59301  0.029478107  0.029607232            3 
 1337000    1.0477287   -7.3050329    474.62724   0.02958285  0.029599767            1 
 1338000    1.0151356   -7.3150641    474.64836  0.029562056  0.029592376            4 
 1339000    1.0352321   -7.3115423    474.93581  0.029557867   0.02958492            2 
 1340000    1.0254279   -7.3209034     474.0107  0.029478277  0.029577598            4 
 1341000    1.0420815   -7.3070072    475.63122  0.029556999  0.029570183            1 
 1342000     1.032275   -7.2976606     475.1993  0.029508153  0.029562744            1 
 1343000    1.0422077   -7.3086453    476.46543  0.029564745  0.029555386            1 
 1344000    1.0359158    -7.296818    475.82314  0.029502923  0.029548186            1 
 1345000    1.0137501   -7.2742047    476.71402  0.029536185  0.029541091            2 
 1346000    1.0448414     -7.29631    475.34304  0.029429361  0.029533976            2 
 1347000    1.0419725   -7.3423086    476.33169  0.029468676  0.029526669            2 
 1348000    1.0453722   -7.3437265    475.51147   0.02939611  0.029519374            1 
 1349000    1.0413916   -7.3012773    477.38958  0.029490337  0.029511947            2 
 1350000     1.011437   -7.3330202    477.17092  0.029454995  0.029504604            1 
 1351000    1.0393027   -7.2850211    479.14036  0.029554673  0.029497316            4 
 1352000    1.0594508    -7.337278    476.49995  0.029370066  0.029489973            2 
 1353000    1.0482011     -7.31514    476.62439  0.029356023   0.02948275            2 
 1354000    1.0276581   -7.3090049     478.2187  0.029432466  0.029475407            2 
 1355000    1.0256925    -7.325648    477.34877  0.029357243  0.029467994            1 
 1356000     1.030598   -7.3060405    477.79309  0.029362899  0.029460508            1 
 1357000    1.0270461   -7.2972068    479.49335  0.029445674  0.029453071            3 
 1358000    1.0434408   -7.3466965    477.45907  0.029299158  0.029445682            1 
 1359000    1.0075118   -7.3447217    479.05448  0.029375428  0.029438148            2 
 1360000    1.0380063   -7.3392885    480.01845  0.029412895    0.0294307            3 
 1361000    1.0305207   -7.3289186    480.14293  0.029398906  0.029423326            3 
 1362000     1.051392   -7.2902327    480.06233  0.029372389  0.029415979            1 
 1363000    1.0229231   -7.3245458    479.90434   0.02934118  0.029408576            2 
 1364000    1.0260266   -7.3210012    479.25427  0.029279953  0.029400988            3 
 1365000    1.0331992   -7.3163766    480.60241  0.029340807  0.029393527            1 
 1366000    1.0254553   -7.3576625    479.94172  0.029279021  0.029385884            2 
 1367000    1.0405613   -7.3098777    481.43882  0.029348867  0.029378341            1 
 1368000    1.0552839   -7.3396805    481.61543  0.029338172  0.029370988            1 
 1369000    1.0428067    -7.353333    480.56212  0.029252625  0.029363506            3 
 1370000    1.0195047   -7.2999463    480.75275  0.029242868  0.029356054            3 
 1371000    1.0362976   -7.3078363    480.15421  0.029185158  0.029348481            2 
 1372000    1.0436472   -7.3367239    479.27159  0.029110276  0.029340875            2 
 1373000    1.0314157   -7.3481106    480.06468   0.02913721  0.029333259            1 
 1374000    1.0174636   -7.3119911    481.95527  0.029230669  0.029325582            1 
 1375000    1.0405702     -7.36412    481.33343  0.029171723  0.029317768            3 
 1376000     1.033017   -7.3661711    480.52366  0.029101481  0.029309977            4 
 1377000    1.0360816   -7.3382341    479.56058  0.029022063  0.029302225            2 
 1378000    1.0209939   -7.3025153    482.69684  0.029190665  0.029294381            2 
 1379000    1.0361263   -7.3143645    482.05888  0.029130945   0.02928654            6 
 1380000    1.0385146   -7.3096361    483.83349  0.029216998  0.029278965            3 
 1381000    1.0432443    -7.311071    483.33113  0.029165528  0.029271289            3 
 1382000    1.0280532    -7.343804    483.19036  0.029135936  0.029263554            1 
 1383000    1.0086438     -7.33129    482.28609  0.029060382  0.029255826            2 
 1384000   0.98545155   -7.3240863    481.92207  0.029017465  0.029247943            2 
 1385000     1.013633   -7.3113996    483.08369  0.029066407  0.029240003            2 
 1386000    1.0159261   -7.3421844    481.53345  0.028952228  0.029232214            2 
 1387000    1.0201018   -7.3243055    483.64814  0.029058408  0.029224279            2 
 1388000    1.0364172   -7.3478155     483.2139  0.029011401  0.029216346            1 
 1389000    1.0368072   -7.3286725    484.65223  0.029076807  0.029208496            3 
 1390000    1.0288205   -7.3499057    485.17249   0.02908708  0.029200651            1 
 1391000    1.0244714   -7.3298625    484.19145  0.029007396  0.029192872            2 
 1392000    1.0177425   -7.3320529    485.13345  0.029042951   0.02918526            1 
 1393000    1.0380727   -7.3388225    485.39752  0.029037899  0.029177657            3 
 1394000    1.0364533   -7.3388803    486.04038  0.029055498  0.029169961            2 
 1395000    1.0272628   -7.2707502    487.75055  0.029136831  0.029162164            1 
 1396000    1.0052879   -7.3444854    487.85021  0.029121908  0.029154613            2 
 1397000    1.0601164   -7.3000498    487.29349  0.029067853  0.029147017            2 
 1398000    1.0145619   -7.3206606    488.38204  0.029111948  0.029139445            2 
 1399000    1.0283971   -7.3153293    488.56169   0.02910184   0.02913197            2 
 1400000    1.0130398   -7.3601611    487.56651  0.029021816  0.029124429            2 
 1401000    1.0313751   -7.3306767    488.89556  0.029080155  0.029116865            4 
 1402000     1.011515   -7.3592715    487.27972  0.028963369  0.029109208            2 
 1403000    1.0469167   -7.3729841    487.70303  0.028967868  0.029101549            2 
 1404000    1.0179927   -7.3380109     488.4516  0.028991667  0.029093969            1 
 1405000    1.0200758   -7.3167965    488.83504  0.028993775  0.029086339            2 
 1406000    1.0488667   -7.3375174    487.67856  0.028904609  0.029078845            2 
 1407000    1.0199039   -7.3520587    487.63336  0.028881388  0.029071148            2 
 1408000    1.0138412   -7.3106267    489.48418  0.028970418  0.029063498            1 
 1409000      1.05178   -7.3345549    488.05929  0.028865584   0.02905591            1 
 1410000    1.0271149   -7.3087901    489.54535   0.02893294  0.029048155            1 
 1411000      1.01655   -7.3245248    489.61951  0.028916815  0.029040466            2 
 1412000    1.0248209   -7.3428469    490.10962  0.028925261  0.029032793            2 
 1413000    1.0378065   -7.3472912    488.71333  0.028822442  0.029024959            1 
 1414000    1.0262485   -7.3621666    490.50519  0.028907661  0.029017251            3 
 1415000    1.0150303   -7.3321571    489.18669  0.028809581  0.029009576            1 
 1416000    1.0409495   -7.3484416    490.51648  0.028867495  0.029001679            2 
 1417000    1.0308754   -7.3022841    491.68833  0.028916039    0.0289939            1 
 1418000    1.0213959   -7.3614934    489.92682  0.028792126  0.028986167            1 
 1419000    1.0302072    -7.366458     490.2505  0.028790844  0.028978227            2 
 1420000    1.0250334   -7.3303375    490.53173  0.028787074  0.028970332            2 
 1421000    1.0336364   -7.3848503    489.14375  0.028685418  0.028962406       -1e+20 
 1422000     1.035965   -7.2817222    491.78176   0.02881984  0.028954525            2 
 1423000    1.0399723   -7.3108729    492.10688  0.028818628  0.028946733            3 
 1424000    1.0333351   -7.3594939    490.14367  0.028683501  0.028938789            2 
 1425000    1.0467128   -7.3635355    490.83302  0.028703685  0.028930797            2 
 1426000    1.0319766   -7.3375438    492.27603  0.028767884  0.028922877            4 
 1427000    1.0251188   -7.3621758    492.65401  0.028769797  0.028914988            1 
 1428000    1.0175077   -7.3363932    492.40256  0.028734977  0.028906973            4 
 1429000    1.0212727   -7.3911822    491.47662  0.028660871  0.028898954            2 
 1430000     1.032091   -7.3237059    492.64251  0.028708771  0.028890959            1 
 1431000    1.0423938   -7.3360805    494.05701  0.028771081   0.02888286            1 
 1432000    1.0114336   -7.3827765    493.48023  0.028717425  0.028874855            1 
 1433000    1.0369079   -7.3106782    493.15216  0.028678307  0.028866834            2 
 1434000    1.0300341   -7.3221578    492.44073  0.028616965  0.028858859            3 
 1435000    1.0626481    -7.341399    495.37418  0.028767374  0.028850964            1 
 1436000     1.028348   -7.3461307    493.11388  0.028616172  0.028843035            2 
 1437000    1.0239758   -7.3543601    493.55092  0.028621603   0.02883498            2 
 1438000    1.0145205   -7.3855684    493.22843   0.02858301  0.028826785            1 
 1439000    1.0348401   -7.3492273    494.45516  0.028634188  0.028818848            3 
 1440000     1.033311   -7.3621009    494.18518   0.02859868  0.028810762            1 
 1441000    1.0098805   -7.3800309    494.38932  0.028590639  0.028802721            1 
 1442000     1.013645    -7.360275    495.55495  0.028638173  0.028794806            2 
 1443000    1.0165304    -7.359192    493.94599  0.028525409  0.028786914            3 
 1444000    1.0488963   -7.3248182      495.991  0.028623672  0.028778927            2 
 1445000    1.0094357   -7.3317741    495.06552  0.028550491  0.028770957            2 
 1446000    1.0276815   -7.3577425    496.27155  0.028600251  0.028762915            1 
 1447000    1.0292633   -7.3634227    495.04056  0.028509592  0.028754942            2 
 1448000     1.022129   -7.3779825    494.86438  0.028479764    0.0287468            1 
 1449000     1.009427   -7.3329076    496.96912  0.028581155  0.028738651            2 
 1450000    1.0358409   -7.3350855    496.75645  0.028549221  0.028730684            1 
 1451000    1.0138325   -7.3628284    496.49467  0.028514511  0.028722624            2 
 1452000    1.0326187   -7.3552122     495.9398  0.028463028  0.028714404            3 
 1453000     1.026097   -7.3209085    496.88832  0.028497839  0.028706203            1 
 1454000    1.0131945   -7.3577213     497.7298  0.028526467  0.028698207            1 
 1455000    1.0225778   -7.3689391    496.14856  0.028416298  0.028690116            1 
 1456000     1.032748   -7.3646753    497.80421  0.028491541  0.028682176            1 
 1457000    1.0141475   -7.3441006    497.30451  0.028443406  0.028674082            1 
 1458000    1.0445904   -7.3481633    499.39461  0.028543359  0.028666076            2 
 1459000   0.98838612   -7.3366175    498.39712  0.028466822  0.028657984            2 
 1460000   0.99908756   -7.3441448    498.80339  0.028470513  0.028649944            4 
 1461000     1.007005   -7.3820163     497.6562  0.028385592  0.028641823            1 
 1462000    1.0108379   -7.3575264    498.06284  0.028389355  0.028633597            2 
 1463000      1.03212   -7.3594033    498.54653  0.028397501  0.028625451            3 
 1464000    1.0181935   -7.3354815    498.83564   0.02839456  0.028617314            3 
 1465000     1.002878   -7.3303002    501.49089  0.028526217  0.028609319            3 
 1466000     1.012647   -7.3355275    499.30285  0.028382381  0.028601295            2 
 1467000   0.99887899   -7.3409086    501.44292  0.028484601  0.028593276            2 
 1468000    1.0095632   -7.3378679     499.6745   0.02836481  0.028585116            2 
 1469000    1.0133572   -7.3307468    501.00007  0.028420699  0.028576953            4 
 1470000    1.0008135   -7.3465823    499.51547  0.028317204  0.028568878            2 
 1471000    1.0068851   -7.3845379    498.45908  0.028238108  0.028560663            1 
 1472000    1.0165073   -7.3713118    500.33866  0.028325332  0.028552383            1 
 1473000    1.0086359    -7.382314    500.27167  0.028302312  0.028544242            2 
 1474000    1.0374606   -7.3734467    500.89794  0.028318517   0.02853595            1 
 1475000    1.0164075   -7.3653143    501.98081  0.028360498  0.028527826            2 
 1476000    1.0116445   -7.3779217    501.02026  0.028287052  0.028519738            2 
 1477000    1.0243352   -7.3864427    502.13554  0.028330825  0.028511638            1 
 1478000    1.0177086   -7.3384918    502.67405  0.028342019  0.028503562            1 
 1479000   0.99682092   -7.3969408    501.96305  0.028282795  0.028495491            3 
 1480000    1.0126423   -7.3451296    504.14836  0.028386732  0.028487478            2 
 1481000    1.0060699   -7.3670291    503.14214  0.028310947  0.028479525            2 
 1482000    1.0144705   -7.3553548    503.13578  0.028291485  0.028471517            1 
 1483000    1.0119916   -7.3773926    502.83926  0.028255746  0.028463471            2 
 1484000    1.0062011   -7.3244317    503.20918  0.028257479  0.028455361            2 
 1485000     1.018565   -7.3594919    503.42988  0.028250835  0.028447239            2 
 1486000    1.0294314   -7.3650118    502.66502  0.028188931  0.028439118            1 
 1487000    1.0009112   -7.4021103    502.75083  0.028174783  0.028430897            2 
 1488000    1.0234184   -7.4009486    501.95602  0.028111336  0.028422647            1 
 1489000     1.005714   -7.3722191    503.71375   0.02819083  0.028414354            2 
 1490000    1.0250222   -7.3656104    502.13688  0.028083718  0.028406118            3 
 1491000    1.0373194   -7.3384513    505.12447  0.028231862   0.02839774            4 
 1492000    1.0129052    -7.360531    502.04247  0.028040799  0.028389467            3 
 1493000     1.035445   -7.3858474    503.45485  0.028100851  0.028381113            2 
 1494000    1.0042317   -7.4060383    504.79651  0.028156878  0.028372728            1 
 1495000    1.0215242   -7.3759195    503.32787   0.02805618  0.028364321            2 
 1496000    1.0047815    -7.358876    504.04352  0.028077291  0.028355897            2 
 1497000   0.99804951   -7.3402478    506.22194  0.028179801  0.028347658            1 
 1498000    1.0148936   -7.3361058    506.92427  0.028200059  0.028339372            2 
 1499000    1.0238841   -7.2880398    507.54154  0.028215562  0.028331183            3 
 1500000    1.0349327   -7.3912009    504.31631  0.028017573  0.028322868            3 
 1501000    1.0119658   -7.3796634     505.2286  0.028049556  0.028314528            3 
 1502000    1.0050821   -7.3318373    505.85043  0.028065381  0.028306158            1 
 1503000    1.0218935   -7.3600968    503.49833  0.027916297  0.028297737            2 
 1504000    1.0159546   -7.3656482    505.46426  0.028006663  0.028289264            3 
 1505000    1.0030644   -7.4105885    505.59047  0.027995043  0.028280791            5 
 1506000   0.99128025   -7.3399066    506.59074  0.028031803   0.02827236            3 
 1507000   0.98555958   -7.3576024    505.08655  0.027930024  0.028263992            1 
 1508000      1.00716   -7.3674185     507.6254  0.028051802  0.028255588            1 
 1509000    1.0122581   -7.3730297    507.56213  0.028029718   0.02824708            1 
 1510000    0.9950062   -7.3786093    506.28677  0.027940771  0.028238678            1 
 1511000    1.0029228   -7.3703158    507.24148  0.027974933  0.028230226            1 
 1512000    1.0078805   -7.3752963     508.4088  0.028020767  0.028221852            1 
 1513000    1.0164529   -7.4052984    507.20672  0.027936039   0.02821348            1 
 1514000    1.0187546   -7.3698609    507.72884  0.027946326  0.028205121            1 
 1515000   0.99088222   -7.3578418    508.60236  0.027975928  0.028196912            1 
 1516000    1.0451678   -7.3694277    509.22914  0.027991927  0.028188708            1 
 1517000    1.0201799   -7.3482424     510.2899  0.028031746  0.028180497            3 
 1518000   0.99060237   -7.3352553    510.14917  0.028005554  0.028172364            2 
 1519000    1.0007859   -7.3896551     509.2386  0.027937162  0.028164041            1 
 1520000     1.003714   -7.3847471    507.58859  0.027828322  0.028155638            2 
 1521000   0.99248903   -7.3815596    508.06834  0.027836311  0.028147146            1 
 1522000   0.99101758   -7.3501999    509.00991  0.027869574    0.0281389            1 
 1523000    1.0118776   -7.3589148    509.86318  0.027897964  0.028130591            2 
 1524000   0.99072067   -7.3927284       510.19  0.027897528  0.028122261            2 
 1525000    1.0041643    -7.390175    508.50814   0.02778733  0.028113735            2 
 1526000   0.98386648   -7.3632455    508.71284  0.027780299  0.028105234            2 
 1527000    1.0256306   -7.4024005    508.64473  0.027758389   0.02809674            1 
 1528000    1.0295535    -7.380583    510.11583  0.027820453  0.028088247            2 
 1529000    1.0078791   -7.4123877    509.34527  0.027760261  0.028079723            1 
 1530000   0.99921589   -7.3517465    511.24692  0.027845693  0.028071203            1 
 1531000    1.0139799   -7.3760095    509.70854   0.02774377   0.02806259            3 
 1532000    1.0078658   -7.3871702     508.8423  0.027678541  0.028053967            3 
 1533000   0.96841643   -7.3992321    509.80522   0.02771283   0.02804532            3 
 1534000    1.0254232   -7.3562244    511.15302  0.027767982  0.028036654            2 
 1535000    1.0120127   -7.3898395    509.54962  0.027662846  0.028028063            2 
 1536000    1.0171081   -7.3549821    510.99951  0.027723497  0.028019527            1 
 1537000   0.97306511   -7.3956062    509.25725  0.027610998  0.028010884            2 
 1538000    1.0423328   -7.4016221    510.61609  0.027666672  0.028002068            1 
 1539000   0.99478981   -7.3810905    511.36452   0.02768922  0.027993375            2 
 1540000      1.00082   -7.3797828    510.98891  0.027650915  0.027984675            1 
 1541000   0.98840062    -7.390267    510.43794  0.027603177  0.027976094            2 
 1542000    1.0066078   -7.4238864    508.89653  0.027501974  0.027967293            3 
 1543000    1.0137911   -7.3684532       511.49  0.027624217  0.027958604            1 
 1544000   0.98994827   -7.3917361    511.71237  0.027618327  0.027949857            2 
 1545000   0.99587894   -7.4004575    511.05063  0.027564759  0.027941214            1 
 1546000   0.98466874   -7.3834951    511.01919  0.027545234  0.027932399            1 
 1547000   0.99772698    -7.366706    512.23345  0.027592838  0.027923614            2 
 1548000   0.99212802   -7.3960998    512.66227  0.027598098  0.027914803            2 
 1549000    1.0007606   -7.4082447    513.24923  0.027611859  0.027906089            2 
 1550000   0.99626671   -7.4207747    513.54276  0.027609826  0.027897434            4 
 1551000    1.0040879   -7.3641787    513.40173  0.027584447  0.027888697            2 
 1552000   0.99714323   -7.3632515    513.04752  0.027547654  0.027880011            2 
 1553000    1.0150327   -7.3919238    513.00997  0.027527902  0.027871286            2 
 1554000    1.0232176   -7.3554461     514.3882  0.027584095  0.027862577            2 
 1555000    1.0418092   -7.3926585    512.67897  0.027474757  0.027853904            2 
 1556000    1.0099583   -7.3554891    514.56015  0.027557849  0.027845237            1 
 1557000    1.0003096   -7.3779768    513.14184  0.027464239  0.027836631            1 
 1558000   0.99126793   -7.3717596    513.19845  0.027449639  0.027827943            2 
 1559000    1.0080724   -7.3664668    514.46345   0.02749965  0.027819294            3 
 1560000   0.99736753   -7.3895906    514.92322  0.027506582  0.027810563            2 
 1561000   0.99562216    -7.440164     514.2344  0.027452189  0.027801844            3 
 1562000    1.0125615   -7.4142386     514.6204  0.027455207  0.027792984            1 
 1563000    1.0136504   -7.4056657    515.12125  0.027464345  0.027784263            2 
 1564000    1.0143084   -7.3985593    514.90671  0.027435353   0.02777564            5 
 1565000    1.0100728   -7.3826263    516.66478  0.027511437  0.027767026            2 
 1566000    1.0040183   -7.4149361    516.38053  0.027478742  0.027758518            1 
 1567000   0.99872696   -7.3803448    515.61167  0.027420319  0.027749955            1 
 1568000    1.0049099    -7.377711    516.44319  0.027447023  0.027741426            3 
 1569000    1.0013993   -7.3941159    515.94243  0.027402934  0.027732754            1 
 1570000    1.0272532   -7.3942716     516.3377   0.02740646  0.027724057            4 
 1571000    1.0175872   -7.3989726    516.61367  0.027403653  0.027715461            1 
 1572000   0.99785379    -7.408408    515.19057  0.027310781  0.027706831            1 
 1573000    1.0121031   -7.4030227    517.00037  0.027389297  0.027698291            1 
 1574000    1.0074814   -7.4138039    516.38339  0.027339231  0.027689663            2 
 1575000   0.99337844   -7.4226798    518.21291  0.027418673   0.02768112            2 
 1576000    1.0116957   -7.3541267    517.68085  0.027373142   0.02767264            2 
 1577000   0.99022345   -7.3942433    517.33221   0.02733736  0.027664186            4 
 1578000   0.97659897   -7.3841792    519.26007  0.027421846  0.027655713            3 
 1579000    1.0044254   -7.4285126    517.16132  0.027293715  0.027647084            2 
 1580000    1.0048591   -7.4154074     518.0723  0.027324488  0.027638468            3 
 1581000   0.99528571   -7.3969465    519.88786  0.027402902  0.027629995            2 
 1582000   0.99635452   -7.3951575    519.88385  0.027385369  0.027621422            1 
 1583000    1.0009515   -7.4124892     519.8972  0.027368772  0.027612916            2 
 1584000    1.0074141   -7.3838773    519.16844  0.027313155  0.027604455            2 
 1585000    0.9774382   -7.3791937    520.54079  0.027368075  0.027596004            2 
 1586000   0.99589863   -7.3938251    519.59436  0.027301091  0.027587511            2 
 1587000   0.99550097   -7.4505709    519.94987  0.027302556  0.027579057            2 
 1588000    1.0044522   -7.3914006    520.24802  0.027301009  0.027570545            2 
 1589000   0.98996642   -7.4317662    519.65263  0.027252603  0.027562136            2 
 1590000    1.0076408   -7.4282446    520.86913  0.027299221  0.027553616            2 
 1591000     1.018835   -7.3597239    520.86108   0.02728164  0.027545205            1 
 1592000    1.0168508   -7.4043552    520.03331  0.027221174  0.027536808            1 
 1593000   0.99690551   -7.4072369    520.65312   0.02723651  0.027528461            1 
 1594000   0.99057717   -7.3997001    521.74864  0.027276696  0.027520054            2 
 1595000    1.0077972   -7.3938961    521.13662  0.027227618  0.027511556            2 
 1596000    1.0101653   -7.3870846    522.20042  0.027266104  0.027503124            4 
 1597000     0.999845   -7.4317203    522.23482  0.027250826  0.027494771            4 
 1598000   0.99926619    -7.398184    522.66427  0.027256167  0.027486444            2 
 1599000   0.98394874   -7.4104252    523.75407  0.027295918  0.027478109            3 
 1600000    0.9963945   -7.3756985    523.53342  0.027267366  0.027469758            4 
 1601000    1.0113184   -7.3825553    522.13101  0.027177338  0.027461408            4 
 1602000   0.99362963   -7.3622366    523.17975  0.027214927  0.027453093            1 
 1603000   0.99693005    -7.388659    524.76671  0.027280448  0.027444761            1 
 1604000   0.99324954   -7.3945713    523.65524  0.027205696  0.027436388            1 
 1605000    1.0122345   -7.4323817    524.09815  0.027211742  0.027428168            3 
 1606000   0.98230228   -7.4059604    523.62025      0.02717  0.027419953            2 
 1607000    1.0084098   -7.4188686    525.54324  0.027252813   0.02741171            3 
 1608000   0.98878842   -7.4088963    524.81614  0.027198183  0.027403485            1 
 1609000     0.981721    -7.369627    524.78039  0.027179428  0.027395194            4 
 1610000   0.97955938    -7.400973    522.94674  0.027067636  0.027386864            2 
 1611000   0.99639971   -7.3980162    525.68674  0.027192569  0.027378491            3 
 1612000   0.97276363   -7.4007863    524.96636   0.02713846  0.027370168            1 
 1613000   0.98947294   -7.4228564    525.15558  0.027131411  0.027361746            3 
 1614000    1.0006198   -7.4376292    524.07634  0.027058878  0.027353397            2 
 1615000   0.98676959   -7.3903196    525.71768  0.027126815  0.027345039            1 
 1616000   0.99389313   -7.4316365    525.36788  0.027091991  0.027336748            2 
 1617000   0.99452853   -7.3963463    526.25125  0.027120761  0.027328289            2 
 1618000   0.98360332    -7.394304    525.63312  0.027072163  0.027319926            2 
 1619000   0.98976993   -7.4049399    525.38911  0.027042882    0.0273115            4 
 1620000   0.99884344    -7.437312     524.9983  0.027006086  0.027302911            2 
 1621000   0.99690803   -7.4287209    525.32263  0.027006098    0.0272943            2 
 1622000    1.0033014   -7.3850743    528.55806  0.027155675  0.027285848            3 
 1623000    0.9939674   -7.4149335    526.34004  0.027025058  0.027277616            2 
 1624000   0.99221213   -7.3906473    527.27968  0.027056634  0.027269249            2 
 1625000    1.0093021   -7.4222957    526.02758  0.026975773  0.027260952            3 
 1626000    1.0234834   -7.4111129    528.18264  0.027069631  0.027252641            3 
 1627000    1.0090753   -7.4289548    527.73833  0.027030236   0.02724422            2 
 1628000   0.97510633   -7.4076191    526.72336  0.026961679  0.027235801            1 
 1629000    1.0211447   -7.4066705    527.49577  0.026984641  0.027227337            1 
 1630000   0.98576969   -7.3801723    527.73794  0.026980467  0.027218774            2 
 1631000    1.0160148   -7.3950538    527.36909  0.026945079  0.027210385            1 
 1632000    1.0001781   -7.4705128    527.86428  0.026953854  0.027201947            1 
 1633000   0.99611098   -7.4063113    527.91936  0.026940159  0.027193493            2 
 1634000   0.99763735   -7.4303128    527.68211  0.026911572  0.027185051            3 
 1635000   0.98596875   -7.4123858    528.72271  0.026948151  0.027176628            2 
 1636000    1.0157734   -7.4347939    528.24825  0.026907511  0.027168157            2 
 1637000   0.99369568   -7.4154061     527.3587   0.02684579  0.027159759            1 
 1638000   0.99661268   -7.4402837    528.97997  0.026911883  0.027151307            1 
 1639000   0.99470962   -7.4629483    529.32633  0.026913074  0.027142786            3 
 1640000   0.99527113   -7.4377164    529.42945  0.026901903  0.027134362            6 
 1641000   0.99005619   -7.3935075    530.15955  0.026922585  0.027126103            6 
 1642000   0.98860332   -7.4179356    529.39681  0.026867479  0.027117802            2 
 1643000   0.99078836   -7.4316034    530.17705  0.026890701  0.027109497            1 
 1644000   0.98411993   -7.4275938    530.55803  0.026893655  0.027101205            2 
 1645000    1.0206109   -7.4388895    530.97939  0.026898652  0.027092805            2 
 1646000   0.98520149   -7.4210859    530.18185  0.026841932  0.027084386            3 
 1647000   0.98434673    -7.432821    531.10159  0.026872171  0.027076085            1 
 1648000   0.99402683   -7.4431066    530.99087  0.026850267  0.027067781            1 
 1649000   0.98562933   -7.4435729    530.25415  0.026796753  0.027059452            1 
 1650000    1.0093165   -7.4123835    532.24926  0.026881276  0.027051121            1 
 1651000   0.99169075   -7.4278225    531.74052  0.026839315  0.027042795            2 
 1652000   0.99990538   -7.4719503    529.84855  0.026727631  0.027034384            2 
 1653000    1.0038012   -7.4164289    531.83338  0.026811523  0.027026058            2 
 1654000   0.97556322   -7.4303846    532.33365  0.026820519  0.027017845            2 
 1655000   0.96430796   -7.4015544    532.98701  0.026837211  0.027009436            2 
 1656000     1.001872   -7.4371304    532.11835  0.026777292  0.027001179            2 
 1657000   0.99175163   -7.4424926    532.75545  0.026793173   0.02699292            2 
 1658000   0.99044842   -7.4041069    533.31557  0.026805165  0.026984684            2 
 1659000   0.97918383   -7.4362716    532.62563  0.026754351  0.026976476            4 
 1660000   0.99266006   -7.4333594    533.87862  0.026801135  0.026968264            4 
 1661000   0.98639669   -7.4238229    533.91334  0.026786742  0.026960196            1 
 1662000   0.97794836   -7.4203478    535.07905  0.026829074  0.026951999            1 
 1663000   0.99809477   -7.4243525    533.65214  0.026741438  0.026943736            2 
 1664000   0.97256899   -7.4263371    534.03047  0.026744314  0.026935502            2 
 1665000   0.99677197   -7.4542248    534.85644  0.026769591   0.02692731            2 
 1666000    1.0025417   -7.4730197    533.53093  0.026687221  0.026919126            2 
 1667000    1.0079497   -7.4388723    534.13539  0.026701429  0.026910852            3 
 1668000    1.0032935   -7.4576642    534.01357  0.026679335  0.026902596            1 
 1669000   0.96968267   -7.4553583    534.86378  0.026705801  0.026894385            2 
 1670000   0.98631401   -7.4375148    535.27633  0.026710396  0.026886106            3 
 1671000   0.99806582   -7.4263115    537.10183  0.026785449  0.026877943            6 
 1672000   0.98115646   -7.3744555    535.13221  0.026671262  0.026869771            3 
 1673000   0.97026616   -7.4697753    535.02121  0.026649791  0.026861473            4 
 1674000   0.96748245   -7.4292404    535.39637  0.026652548  0.026853176            2 
 1675000   0.96677805   -7.4374463    536.21612  0.026677419  0.026844826            2 
 1676000    0.9637748   -7.4283422    535.28421  0.026615165  0.026836603            4 
 1677000   0.96572774     -7.44495    536.73456  0.026671366  0.026828376            1 
 1678000   0.96944506   -7.4708913    537.23049    0.0266801  0.026820127            2 
 1679000   0.98803353   -7.4384821    537.04776   0.02665514  0.026811866            2 
 1680000   0.98132636   -7.4364885    536.20892  0.026597665  0.026803618            2 
 1681000    1.0237031   -7.4413193    538.14578  0.026677859  0.026795396            3 
 1682000   0.99782579   -7.4179699    535.23072  0.026517575  0.026787293            2 
 1683000    1.0065292   -7.4230125     536.7336  0.026576233  0.026779029            3 
 1684000   0.99261434   -7.4305672    537.92895  0.026619604  0.026770806            1 
 1685000   0.98438423   -7.4666412    535.97121  0.026506984   0.02676257            2 
 1686000   0.96433179   -7.4216793    537.40489  0.026562124  0.026754312            2 
 1687000   0.96870539   -7.4320228    538.16596  0.026583973  0.026746031            2 
 1688000    1.0104535   -7.4386779     538.5338  0.026586384  0.026737817            2 
 1689000   0.97708846   -7.4160735    538.63842  0.026575805  0.026729627            2 
 1690000   0.96893803   -7.4230047    538.75104  0.026565633  0.026721433            2 
 1691000   0.98579127   -7.4366547    538.42511  0.026533861  0.026713292            3 
 1692000     1.006924   -7.4083675    538.92116   0.02654261   0.02670506            1 
 1693000   0.98578925   -7.4414086    536.96855  0.026430821  0.026696759            4 
 1694000   0.97678943   -7.4845093    536.27897  0.026381295  0.026688349            3 
 1695000   0.98516226   -7.4541429    538.55932  0.026477843   0.02667994            4 
 1696000   0.96531896   -7.4101738    538.24948  0.026447007  0.026671575            2 
 1697000   0.97540798   -7.4347401    539.75876  0.026505537  0.026663302            2 
 1698000   0.96946259   -7.4315153    539.98103  0.026500836  0.026655049            3 
 1699000   0.98481041   -7.4214963     539.6069  0.026466887  0.026646915            4 
 1700000   0.99563713   -7.4459559    539.96416  0.026468831  0.026638783            2 
 1701000    0.9610684   -7.4430292     539.9189  0.026451053  0.026630618            2 
 1702000   0.97949976   -7.4147892    540.03136  0.026441018  0.026622438            1 
 1703000   0.98907388   -7.4313647    540.77462  0.026461863  0.026614236            2 
 1704000   0.95166371   -7.4558502    542.51331  0.026531363  0.026606084            1 
 1705000    1.0132864   -7.3941797    543.19065  0.026548908  0.026597984            2 
 1706000   0.97814875   -7.4176859    541.97931  0.026474175  0.026590007            4 
 1707000   0.96050034    -7.467176    540.94906  0.026408371  0.026581883            4 
 1708000   0.99878103   -7.4386648    542.05309  0.026446774  0.026573761            1 
 1709000   0.96687734   -7.4940736    540.80481  0.026370432  0.026565568            1 
 1710000   0.95790788   -7.4321543    542.86876  0.026455593  0.026557448            2 
 1711000    0.9632159   -7.4668628    542.52853   0.02642356   0.02654942            1 
 1712000   0.99386639   -7.4620653    540.83188  0.026325539   0.02654132            4 
 1713000   0.98315478   -7.4136105    541.98745  0.026366387  0.026533207            2 
 1714000   0.98188364   -7.4387953    542.54713  0.026378215  0.026525124            2 
 1715000   0.97950279   -7.4579654    543.15869  0.026392551  0.026516989            2 
 1716000   0.97869747   -7.4561809    542.66834  0.026353358   0.02650891            1 
 1717000    0.9965432   -7.4430599    542.52416  0.026331011  0.026500954            4 
 1718000    1.0014394   -7.4312665    543.98948  0.026386762  0.026492908            2 
 1719000   0.96853987   -7.4199307    544.71478  0.026406572  0.026485029            1 
 1720000   0.98668628   -7.4265588    543.76177  0.026345047  0.026477101            2 
 1721000   0.97625444   -7.4292567    545.22894  0.026400782  0.026469265            1 
 1722000   0.95966543   -7.4481147    544.85107  0.026367164  0.026461411            1 
 1723000   0.97102456    -7.432662    545.69098  0.026392483  0.026453426            2 
 1724000   0.95597141   -7.4610345    545.32126  0.026359303  0.026445541            1 
 1725000   0.97821922   -7.4733721    545.78671  0.026366508  0.026437551            2 
 1726000   0.97330303   -7.4189994    546.32651  0.026377294  0.026429649            5 
 1727000   0.96893601   -7.4663842    546.10516  0.026351339   0.02642182            1 
 1728000   0.99397123   -7.4756842    545.12424  0.026288784  0.026413862            1 
 1729000   0.98134588   -7.4717947    546.23326  0.026327032  0.026406055            1 
 1730000   0.98296627   -7.4719628    546.87166  0.026342566  0.026398269            2 
 1731000   0.97832894   -7.4965759    546.08868  0.026289653   0.02639029            2 
 1732000   0.98642455   -7.4294964    547.28992  0.026332271  0.026382403            4 
 1733000   0.97721269   -7.4712865    547.60221  0.026332093  0.026374559            3 
 1734000   0.95749045   -7.4272089     549.2047  0.026393921  0.026366709            2 
 1735000   0.96473105   -7.4589938    549.36286  0.026386304  0.026358978            1 
 1736000   0.98621238   -7.4496814    548.01255  0.026306286  0.026351239            2 
 1737000   0.99346022   -7.4426408    548.81285  0.026329536  0.026343379            3 
 1738000    0.9774112   -7.4888712    547.21779  0.026237907  0.026335466            1 
 1739000   0.96545042   -7.4869984    548.07926  0.026264101  0.026327478            5 
 1740000   0.96986466    -7.486757    548.55443  0.026271764  0.026319525            3 
 1741000   0.96294045   -7.4664178    549.34994  0.026294751  0.026311635            3 
 1742000   0.97466661   -7.4717648     548.4858  0.026238318  0.026303915            4 
 1743000     1.005467   -7.4601101    548.23765    0.0262114  0.026296221            1 
 1744000   0.97003214   -7.4686517    550.07524  0.026284176  0.026288438            1 
 1745000   0.97067816   -7.4554837    547.46108  0.026144273  0.026280668            2 
 1746000   0.98028842    -7.458054    548.19554  0.026164354  0.026272877            2 
 1747000   0.97790681   -7.4377648    548.99702  0.026187608  0.026265062            2 
 1748000   0.98103249   -7.4431579     549.1243  0.026178695  0.026257366            4 
 1749000   0.95839525   -7.4548836    548.72285  0.026144599  0.026249616            2 
 1750000   0.96982919   -7.4365307    551.07073  0.026241463  0.026241855            3 
 1751000   0.96565125   -7.4340499    549.69152  0.026160838  0.026234088            2 
 1752000     0.977718   -7.4713361    551.73199   0.02624296  0.026226367            2 
 1753000   0.96157743   -7.5204912     548.1535  0.026057877  0.026218502            2 
 1754000   0.97115186   -7.4535967    549.84179  0.026123232  0.026210707            3 
 1755000   0.93967221   -7.4743979    549.91018  0.026111594  0.026202826            3 
 1756000   0.97192252   -7.4733581    551.18225  0.026157092  0.026195056            1 
 1757000   0.97551554   -7.4517322    551.18111  0.026142151  0.026187334            2 
 1758000    0.9726607   -7.4814515    551.73137  0.026153364  0.026179636            4 
 1759000   0.99058912   -7.4423639    552.17332  0.026159433  0.026171879            3 
 1760000   0.99439668   -7.4826093    551.22756   0.02609979  0.026164151            3 
 1761000   0.97580346   -7.4761145    551.02972  0.026075607  0.026156397            2 
 1762000   0.96261351   -7.4649827    552.80065  0.026144564  0.026148706            2 
 1763000   0.96901134   -7.4621721    553.23179  0.026150113  0.026141011            3 
 1764000   0.98698636   -7.4489008    551.18119  0.026038416  0.026133198            1 
 1765000   0.96793545   -7.4759575    551.09775  0.026019724  0.026125317            2 
 1766000   0.96657595   -7.4685179    552.11065  0.026052786  0.026117444            2 
 1767000   0.98307826   -7.4923425    551.72505  0.026019857  0.026109604            3 
 1768000    0.9670968   -7.4923197    551.84634  0.026010857  0.026101688            2 
 1769000   0.98835617   -7.4750811     553.0188  0.026051385  0.026093815            2 
 1770000   0.95400199   -7.4585801    551.83018  0.025980705  0.026085907            3 
 1771000   0.97676656   -7.4394043    553.36983  0.026038482  0.026077976            3 
 1772000   0.95484703   -7.4532301    551.85372  0.025952488  0.026070096            2 
 1773000   0.96633272   -7.4410467    552.18068  0.025953219  0.026062174            2 
 1774000   0.96693385   -7.4648094    551.59154  0.025910914  0.026054285            2 
 1775000   0.94963136   -7.4839304    552.34177  0.025931538  0.026046396            6 
 1776000    0.9579671   -7.4506391    553.38005  0.025965655  0.026038505            2 
 1777000   0.96824638   -7.4553032    553.36976  0.025950561  0.026030594            2 
 1778000    0.9842445   -7.4582401    551.97304  0.025870503  0.026022708            3 
 1779000   0.95988588   -7.4963455    553.20557  0.025913695  0.026014739            1 
 1780000    0.9613196   -7.4913945    553.40367  0.025908411  0.026006774            3 
 1781000   0.97128505   -7.4461369     552.7955  0.025865408  0.025998783            1 
 1782000   0.97846068   -7.4948072    552.14774  0.025820601  0.025990795            1 
 1783000   0.95244265   -7.4668959    553.41595  0.025865393  0.025982883            2 
 1784000   0.98211352   -7.5216957    553.92186  0.025874526  0.025974926            3 
 1785000     0.978961   -7.4945306     554.1591  0.025871107  0.025967004            1 
 1786000   0.97051818   -7.4892872    553.76129   0.02583806  0.025958945            2 
 1787000   0.95469755   -7.4627199    553.59274  0.025815741  0.025950993            2 
 1788000   0.95608474   -7.4403869     555.0308  0.025868326  0.025943049            1 
 1789000   0.96190918   -7.4785078    555.66695  0.025883499  0.025935038            3 
 1790000   0.98089597   -7.4419702    554.14713  0.025798284  0.025926999            4 
 1791000   0.96984456   -7.5021521    553.30743  0.025744809  0.025918931            5 
 1792000   0.96359312   -7.4572404    556.65016  0.025885889   0.02591085            4 
 1793000   0.96929147   -7.4604801    556.07502  0.025844721  0.025902918            4 
 1794000   0.97768816   -7.4837069    555.15096  0.025787392  0.025894963            2 
 1795000   0.94358652   -7.5196868    555.29012  0.025779486  0.025887059            2 
 1796000   0.94986303   -7.5135238    555.50896  0.025775286  0.025879093            3 
 1797000    0.9865522   -7.5185544    554.86725  0.025731184  0.025871084            1 
 1798000   0.96628533   -7.4623037    557.49381  0.025838608  0.025863089            2 
 1799000   0.95556427   -7.4647996    556.48579  0.025777552  0.025855173            1 
 1800000   0.97460578    -7.494284    556.76793  0.025776293  0.025847161            2 
 1801000   0.96378534   -7.5018748    556.50283  0.025749714  0.025839109            2 
 1802000   0.97636195   -7.5102843     555.0007  0.025665959  0.025831037            2 
 1803000    0.9801897    -7.461075     557.4458  0.025764735  0.025822997            3 
 1804000   0.96453858   -7.5124448     555.7024  0.025669919  0.025814941            1 
 1805000    0.9451924   -7.4837563    555.30351  0.025637281  0.025806848            5 
 1806000   0.95708267   -7.5094423    555.89378  0.025650322  0.025798814            3 
 1807000    1.0036154   -7.4611103    557.94144  0.025730559  0.025790833            2 
 1808000    0.9660652    -7.516593     557.0533  0.025675392  0.025782847            2 
 1809000   0.96050233   -7.4872852    557.53492  0.025683385  0.025774882            1 
 1810000   0.94941385   -7.4935743    556.22643  0.025608952  0.025766887            1 
 1811000   0.97415276   -7.4848797    558.44399  0.025696852  0.025758878            3 
 1812000   0.95942938    -7.502034    556.17911  0.025578509  0.025750821            3 
 1813000   0.95567285   -7.4790109    559.74261  0.025728195  0.025742808            1 
 1814000    0.9574203   -7.4819324    557.46349  0.025609311  0.025734848            4 
 1815000   0.97722732   -7.4983109    557.90899  0.025615656   0.02572679            3 
 1816000   0.97286326   -7.4969527    557.06219  0.025562692  0.025718743            1 
 1817000   0.96213819   -7.4695481    558.61288  0.025619743  0.025710646            4 
 1818000   0.97457389   -7.5543396    557.47232   0.02555337   0.02570259            2 
 1819000   0.94217147   -7.4647351     558.2005  0.025572682  0.025694583            2 
 1820000   0.95494013    -7.492177    558.23815  0.025560355  0.025686596            2 
 1821000   0.97914803   -7.5020951     559.5157  0.025604782  0.025678564            1 
 1822000   0.95093249   -7.4587249    558.36077  0.025537906  0.025670482            2 
 1823000   0.96181921   -7.4644902    558.88113  0.025547684   0.02566247            2 
 1824000   0.95707356   -7.4479237    561.34428  0.025646212  0.025654564            3 
 1825000   0.94221377   -7.4874176    560.31296  0.025585067  0.025646605            1 
 1826000   0.95266477   -7.4937768    558.56334  0.025491208  0.025638631            2 
 1827000   0.94504868   -7.4546498    560.25274  0.025554312  0.025630726            2 
 1828000   0.98985458   -7.5173535    560.45311  0.025549467  0.025622863            2 
 1829000   0.93367069   -7.4518107    561.11742  0.025565766  0.025614941            1 
 1830000   0.94592062   -7.4906057    560.33436  0.025516136  0.025607115            1 
 1831000   0.96245565   -7.4716884    560.91477  0.025528617  0.025599348            1 
 1832000   0.95062814   -7.4737551    562.08477  0.025567903  0.025591498            2 
 1833000   0.96875556   -7.4793962    562.52247  0.025573853  0.025583781            3 
 1834000   0.96708217   -7.5287207    561.08256  0.025494482  0.025576063            2 
 1835000   0.94711224   -7.4801374    561.96834  0.025520814  0.025568279            2 
 1836000   0.96978667   -7.4542578    561.98986  0.025507891  0.025560521            2 
 1837000   0.94911908   -7.4984937    562.41662  0.025513365  0.025552783            2 
 1838000   0.97496092   -7.4678443    562.26885  0.025492784  0.025545024            2 
 1839000   0.94966562   -7.4507297    562.63076  0.025495322  0.025537294            2 
 1840000   0.95706129   -7.5007999    562.08207  0.025456615  0.025529559            1 
 1841000   0.95586352   -7.5013176    563.45824  0.025505081  0.025521744            4 
 1842000   0.97562957   -7.4938942     562.9028  0.025466106  0.025513952            2 
 1843000   0.96975902   -7.4735213    564.07015  0.025505071  0.025506294            2 
 1844000   0.98293989   -7.4788032    564.13368  0.025494111  0.025498679            3 
 1845000   0.95246985   -7.5072039    563.82477   0.02546634  0.025491011            2 
 1846000   0.95784934    -7.497238    564.83452  0.025498127  0.025483345            4 
 1847000   0.97202228   -7.4953049    563.61771  0.025429422  0.025475683            2 
 1848000   0.93875791   -7.5344875    564.22324  0.025442967  0.025467964            3 
 1849000   0.98086809   -7.4701134    566.22817  0.025519568  0.025460364            2 
 1850000   0.96693484   -7.4936494     566.5552  0.025520504   0.02545284            3 
 1851000   0.94671554   -7.5123675    566.13515  0.025487806  0.025445201            2 
 1852000   0.94397572   -7.5154415    564.74173  0.025411345  0.025437504            4 
 1853000   0.93929446   -7.4793893    565.24308  0.025420178  0.025429723            2 
 1854000   0.94960445   -7.4999618    565.29011  0.025408581   0.02542212            2 
 1855000   0.96387977   -7.5209122    564.56412   0.02536227  0.025414523            2 
 1856000   0.97218538   -7.4947326    564.78668  0.025358597  0.025406788            2 
 1857000   0.95818272   -7.5134076    565.34942  0.025370195  0.025399203            4 
 1858000   0.92566247   -7.4698153    566.63127  0.025414032   0.02539156            3 
 1859000   0.93988822   -7.4851633    566.30395  0.025385689  0.025383977            1 
 1860000   0.93850693   -7.5389253    565.19817  0.025322499  0.025376333            2 
 1861000   0.96001699   -7.5246024    567.03864  0.025391306  0.025368759            2 
 1862000   0.96109762   -7.5213667    566.92215  0.025372456  0.025361153            3 
 1863000   0.94142279   -7.5258945    567.79948   0.02539808  0.025353528            1 
 1864000   0.94950863   -7.4877921    567.53687  0.025372714  0.025345956            1 
 1865000   0.94692938   -7.4871994    568.55102  0.025404425  0.025338498            1 
 1866000   0.95894944   -7.4847082    568.58947  0.025392527  0.025331006            3 
 1867000   0.95626908   -7.5075316    567.15562  0.025314927   0.02532345            1 
 1868000   0.99290971   -7.5067243     566.8732  0.025288776  0.025315917            2 
 1869000   0.95735717   -7.5183747    568.49275  0.025347456   0.02530841            1 
 1870000    0.9510365   -7.5127845    570.91615  0.025441896  0.025301054            2 
 1871000   0.95992435   -7.4970235    569.07854  0.025346452  0.025293675            5 
 1872000    0.9219208   -7.5356754    567.93814  0.025282146  0.025286182            3 
 1873000   0.94892322    -7.499203    569.87036  0.025354616  0.025278734            3 
 1874000   0.93497661   -7.4847902    570.47653  0.025368042  0.025271361            2 
 1875000   0.94410513   -7.5482551    569.74444  0.025321975  0.025263913            2 
 1876000   0.96153179   -7.4488903    571.12573  0.025369835  0.025256585            4 
 1877000   0.95997771   -7.5190618    570.50572  0.025328793  0.025249242            1 
 1878000   0.95712071   -7.5189449    570.39485  0.025310386  0.025241847            2 
 1879000   0.96465685   -7.4713737    570.98414   0.02532305  0.025234387            4 
 1880000   0.94833477   -7.5055007    569.97178  0.025264707  0.025226847            3 
 1881000   0.96370694   -7.5269762     570.2447  0.025263366  0.025219264            2 
 1882000   0.95717085   -7.5195383     569.1399  0.025201023  0.025211661            2 
 1883000   0.92530818   -7.5193779    569.59777  0.025207903  0.025204039            1 
 1884000   0.95173916   -7.5401616    569.43843  0.025187475  0.025196416            1 
 1885000   0.95525678   -7.5036881    570.45867  0.025219216  0.025188804            2 
 1886000   0.95918683   -7.5741575    569.63467  0.025169436  0.025181242            2 
 1887000   0.94117389   -7.5068752    570.52032  0.025195209   0.02517371            1 
 1888000   0.94824564     -7.52098    571.83524  0.025239903  0.025166173            1 
 1889000    0.9436722   -7.5179847    571.41818  0.025208143    0.0251587            2 
 1890000   0.92263316   -7.5116185    570.82388  0.025168601  0.025151134            2 
 1891000   0.93731116   -7.5032052    571.04652  0.025165103  0.025143625            1 
 1892000   0.92825173   -7.5526964    570.80192  0.025141029   0.02513604            1 
 1893000   0.94417565   -7.5209126    570.91678  0.025132804  0.025128416            1 
 1894000   0.95595791   -7.5134795    571.70753  0.025154326   0.02512083            1 
 1895000   0.95527787   -7.5292898    572.01775  0.025154694  0.025113259            2 
 1896000   0.95415022   -7.5313265    573.07651  0.025187962  0.025105831            2 
 1897000   0.94099283   -7.5231632    571.88051  0.025122145  0.025098384            3 
 1898000   0.92679902   -7.5318035    572.86571  0.025152165  0.025090893            2 
 1899000   0.94843206   -7.5012874    572.52012  0.025123755  0.025083484            1 
 1900000   0.96108715   -7.4712373    573.58387  0.025157187  0.025076047            3 
 1901000   0.93666965   -7.5084247    573.54202  0.025142119  0.025068588            2 
 1902000   0.95040202    -7.527587    572.37424  0.025077736   0.02506109            3 
 1903000    0.9428706   -7.4978064    573.62552  0.025119352   0.02505364            2 
 1904000   0.94248127   -7.5367211    574.12427  0.025127988  0.025046223            3 
 1905000   0.93372186    -7.503756    575.74231  0.025185578  0.025038689            3 
 1906000    0.9528583   -7.5482232    572.76419  0.025042156  0.025031144            3 
 1907000   0.94603509   -7.5333685    574.48868  0.025104382  0.025023772            3 
 1908000   0.93506754   -7.5254683    574.00811  0.025070235  0.025016394            2 
 1909000   0.93479187   -7.5342036    573.87247  0.025051182  0.025009003            3 
 1910000   0.94615312   -7.5357787    577.29815  0.025187528  0.025001616            3 
 1911000   0.94186814    -7.496411     576.0572  0.025120234  0.024994351            2 
 1912000   0.95053281    -7.479235      577.437  0.025167233  0.024987111            4 
 1913000   0.97125143   -7.5063285    578.34165  0.025193485  0.024979935            2 
 1914000    0.9681143   -7.4688351    578.08694  0.025169233  0.024972747            2 
 1915000   0.95255259   -7.5127863     576.9472  0.025106492  0.024965601            2 
 1916000   0.94554835   -7.5514542    576.41681   0.02507032  0.024958389            2 
 1917000   0.92943931   -7.5270052    576.70332  0.025069697  0.024950993            2 
 1918000    0.9607865   -7.5362886    576.18932  0.025034295  0.024943718            1 
 1919000   0.93905565   -7.5166013    577.75576  0.025089272  0.024936487            1 
 1920000   0.92485211   -7.5515189    576.27975  0.025012142  0.024929252            2 
 1921000   0.93083275   -7.5315402    578.10686  0.025078382  0.024922022            3 
 1922000   0.93221804   -7.5128756    578.45663  0.025080499  0.024914802            3 
 1923000   0.95328381   -7.5205582    577.62817  0.025031555  0.024907523            2 
 1924000   0.95272546   -7.5599767    577.96161  0.025032987  0.024900276            1 
 1925000   0.92265224   -7.4973773    579.39987  0.025082245  0.024893002            1 
 1926000   0.95113087   -7.5294421    578.48393  0.025029592  0.024885767            2 
 1927000    0.9198905   -7.5542774     577.4666  0.024972608  0.024878514            2 
 1928000   0.94689009    -7.524786    579.22939  0.025035848  0.024871221            2 
 1929000   0.92716276   -7.5571452    578.17402  0.024977277  0.024863953            2 
 1930000   0.94166906   -7.5730625    577.76929  0.024946861  0.024856695            3 
 1931000   0.94703104   -7.5462443    579.61452  0.025013573   0.02484949            1 
 1932000   0.95534988   -7.5096568    578.12574   0.02493641  0.024842298            1 
 1933000     0.940818   -7.5257545    578.58719  0.024943403  0.024835196            2 
 1934000   0.94012618   -7.5275951    578.04789  0.024907269  0.024827995            2 
 1935000   0.94317235     -7.53374    579.33384  0.024949778  0.024820733            2 
 1936000   0.93385178   -7.5243758    579.50142  0.024944104  0.024813506            2 
 1937000   0.94234458   -7.5188336    581.25572  0.025006699   0.02480637            2 
 1938000   0.93946592   -7.5178708    580.60299  0.024965729  0.024799223            2 
 1939000   0.94940102   -7.5585208    579.89741  0.024922529  0.024792008            1 
 1940000   0.94714591    -7.544933    579.95414  0.024912119  0.024784798            4 
 1941000   0.94640775   -7.5308706    580.36114  0.024916758  0.024777547            1 
 1942000   0.94130112   -7.5328539    579.53154  0.024868329  0.024770248            2 
 1943000   0.95150052   -7.5079544    580.76955  0.024908627   0.02476303            6 
 1944000   0.89820324   -7.5667773    580.37742  0.024879004  0.024755741            2 
 1945000   0.93124872   -7.5425175    580.21284  0.024859162  0.024748427            1 
 1946000   0.96590478   -7.5272411    582.06357  0.024925641   0.02474124            1 
 1947000   0.93465079   -7.5692974    578.31717   0.02475249  0.024733936            4 
 1948000   0.94624196   -7.5471368    579.72263  0.024799907  0.024726615            1 
 1949000   0.95096381   -7.5024767    580.95255  0.024839771   0.02471933            1 
 1950000   0.95058697   -7.5288742    581.21255  0.024838143  0.024712051            4 
 1951000   0.94482018   -7.5545495    580.74024  0.024805238  0.024704754            1 
 1952000   0.94280783   -7.5433336    580.35806  0.024776215  0.024697517            4 
 1953000   0.96239422   -7.5428384    581.40442  0.024808176  0.024690201            7 
 1954000   0.94246635   -7.5566526    580.36867  0.024751308  0.024682865            1 
 1955000   0.95075495   -7.5373338    582.33165  0.024822321  0.024675615            3 
 1956000   0.91893302   -7.5541666    579.72295   0.02469849  0.024668284            2 
 1957000   0.95111066   -7.5444036    581.64476  0.024767704  0.024660964            2 
 1958000   0.95964902   -7.5273728    582.50248   0.02479156  0.024653653            1 
 1959000   0.94376896   -7.5268887    579.96932  0.024671147  0.024646362            2 
 1960000   0.94304698   -7.5561518    581.56573  0.024726434  0.024639048            2 
 1961000    0.9369653   -7.5362835    581.98237   0.02473153  0.024631739            2 
 1962000   0.92404084   -7.5384017     582.2226  0.024729129  0.024624412            2 
 1963000   0.92164051   -7.5194296    581.95208  0.024705047  0.024617112            4 
 1964000   0.93146423   -7.5247534    583.85819  0.024773345  0.024609815            1 
 1965000   0.92984975   -7.5267131    581.84252  0.024675255  0.024602454            1 
 1966000    0.9121811   -7.5171684    584.51789  0.024776106  0.024595167            2 
 1967000   0.91465485   -7.5518353    581.93847  0.024654231  0.024587931            2 
 1968000   0.91924891   -7.5677408    583.31081  0.024699814  0.024580675            3 
 1969000   0.93730169   -7.5459248    583.71888  0.024704541  0.024573404            3 
 1970000   0.92785229   -7.5529476    582.15942  0.024626033  0.024566192            2 
 1971000   0.94734935   -7.5442832    584.01726  0.024692088   0.02455896            2 
 1972000   0.91076072   -7.5222679    584.21531  0.024687936    0.0245518            2 
 1973000   0.92801432   -7.5309856    583.91485  0.024662732  0.024544575            6 
 1974000   0.94745147   -7.5331287    587.19512  0.024788716  0.024537445            2 
 1975000   0.92033822   -7.5633082    583.74627  0.024630644  0.024530307            3 
 1976000   0.94425936   -7.5574508    583.83871  0.024622078  0.024523153            1 
 1977000   0.91928176   -7.5773015     584.1615  0.024623229  0.024515878            2 
 1978000   0.96111356   -7.5623095    584.00844  0.024604332  0.024508615            3 
 1979000   0.94854128   -7.5561535    585.35534  0.024648616  0.024501366            4 
 1980000   0.94647739    -7.558048    586.29582   0.02467575  0.024494171            2 
 1981000   0.93514748   -7.5317238    585.99069  0.024650458  0.024486975            1 
 1982000   0.92438365   -7.5573312    585.98076  0.024637603  0.024479713            2 
 1983000   0.92737533   -7.5758967    584.31201  0.024555052  0.024472472            3 
 1984000   0.93369656   -7.5689091    586.21668  0.024622677  0.024465231            6 
 1985000   0.90181821   -7.5592994    586.77645  0.024633772  0.024458054            3 
 1986000   0.91941791   -7.5497592    584.78051  0.024537618  0.024450829            1 
 1987000   0.92556121   -7.5392741    585.60271  0.024559751  0.024443683            2 
 1988000   0.92950638   -7.5444794    586.24009  0.024574115  0.024436493            3 
 1989000   0.93256832   -7.5719531    586.80316  0.024585351  0.024429306            1 
 1990000   0.93228657   -7.5467559    586.90318  0.024577185  0.024422115            1 
 1991000   0.93681744   -7.5579479    586.15422  0.024533493  0.024414866            2 
 1992000   0.94204273   -7.5386011    587.28338  0.024568415  0.024407581            1 
 1993000   0.92203842    -7.535901    586.05232  0.024504613  0.024400347            4 
 1994000   0.94681012   -7.5299856    588.55163  0.024596775  0.024393195            2 
 1995000   0.92921733   -7.5485872    587.88354  0.024556539  0.024386043            3 
 1996000   0.94928846   -7.5985947    586.50791  0.024486803  0.024378866            2 
 1997000   0.91536808   -7.5266237    587.46203  0.024514356  0.024371764            3 
 1998000   0.92818917   -7.5772199    586.77634  0.024473488  0.024364691            2 
 1999000   0.93468836   -7.5427584    589.01845  0.024554713  0.024357543            8 
 2000000   0.93624742   -7.5161815    588.65902  0.024527459  0.024350429            1 
 2001000    0.9420307   -7.5822798    587.43693  0.024464306  0.024343294            4 
 2002000   0.91950016   -7.5642836    588.73917  0.024506293  0.024336176            2 
 2003000   0.94089163    -7.602655     587.0322   0.02442304  0.024329013            1 
 2004000   0.91567505   -7.5469603    589.26617   0.02450375  0.024321867            1 
 2005000    0.9287454   -7.5874445    587.56513  0.024420828   0.02431471            2 
 2006000   0.94416189   -7.6077927    587.61375  0.024410674  0.024307491            6 
 2007000   0.93496836   -7.5637486    589.87873  0.024492557  0.024300276            3 
 2008000     0.907352   -7.5371115     589.3997  0.024460479  0.024293116            2 
 2009000   0.90936068   -7.5467715    590.65508  0.024500377  0.024285971            3 
 2010000   0.94226308   -7.5267995    588.86556  0.024413995  0.024278761            3 
 2011000   0.91899758    -7.543244    589.81556  0.024441222   0.02427159            2 
 2012000   0.94170823   -7.5699739    589.91336  0.024433125  0.024264428            4 
 2013000   0.93769728   -7.5713632    589.70097  0.024412195  0.024257278            2 
 2014000    0.9148077   -7.5773421    589.66542  0.024398602   0.02425011            2 
 2015000   0.92165516   -7.5349773     588.9604  0.024357337  0.024242899            2 
 2016000   0.94338891   -7.5852594     590.0676  0.024391022  0.024235773            1 
 2017000   0.91870507   -7.5729813    589.62901  0.024360808  0.024228594            2 
 2018000   0.91713608    -7.575481    591.51959  0.024426808  0.024221515            1 
 2019000   0.91595307   -7.5724735    589.52131  0.024332232  0.024214421            1 
 2020000   0.90971324   -7.5403182    591.64847   0.02440794  0.024207377            1 
 2021000   0.91378277   -7.5393767    591.77384  0.024401033  0.024200363            2 
 2022000   0.91435741   -7.5664869    592.21667  0.024407215  0.024193338            4 
 2023000    0.9418399   -7.5581921    593.93883  0.024466091  0.024186394            3 
 2024000   0.93968608   -7.5670121    593.17063  0.024422375   0.02417946            2 
 2025000   0.92584303   -7.5595421    592.68018  0.024390131  0.024172556            2 
 2026000   0.92177798   -7.5516512    593.71703   0.02442074  0.024165614            1 
 2027000   0.92505455   -7.5483991    593.45456  0.024397902   0.02415872            1 
 2028000   0.93935056   -7.5856411    592.19143  0.024333967  0.024151761            2 
 2029000   0.91073999   -7.5559936    592.76665  0.024345599  0.024144779            1 
 2030000   0.91424272   -7.5577316    592.67983  0.024330042  0.024137822            7 
 2031000   0.94392596   -7.5547439    593.47125  0.024350536   0.02413089            3 
 2032000   0.92307263    -7.551988    593.34194  0.024333249  0.024123898            2 
 2033000   0.92553185    -7.545047    593.05271  0.024309424  0.024116908            3 
 2034000    0.9303728   -7.5878906    592.92395  0.024292197  0.024109954            2 
 2035000   0.93220624   -7.5834011    594.72377  0.024353963  0.024102926            1 
 2036000   0.91666689   -7.6152021    591.47447  0.024209008  0.024095843            2 
 2037000   0.93516799   -7.6131309    591.63441  0.024203666  0.024088708            1 
 2038000   0.90615849    -7.589996    593.34522  0.024261745  0.024081646            2 
 2039000    0.9360192   -7.6166713    593.82885  0.024269611  0.024074639            2 
 2040000   0.91413232   -7.6010908    593.01722   0.02422456  0.024067555            4 
 2041000   0.92129527   -7.5966735    594.55713  0.024275565  0.024060486            2 
 2042000   0.93516175   -7.5880136    593.35212  0.024214501   0.02405337            1 
 2043000   0.89183269     -7.59063    593.96889  0.024227806   0.02404634            1 
 2044000   0.90454723   -7.5929445    594.44836  0.024235501  0.024039322            2 
 2045000   0.91936553   -7.5392051    595.86501  0.024281378  0.024032347            1 
 2046000   0.92490195   -7.5666367    594.38931  0.024209405  0.024025381            1 
 2047000   0.92559463   -7.5596565    595.02438  0.024223432  0.024018361            3 
 2048000   0.89841972   -7.5496912    595.06465  0.024213243  0.024011361            3 
 2049000   0.94360395   -7.5803815    594.75999  0.024189035  0.024004379            3 
 2050000   0.89018371   -7.5791534    594.74933  0.024176802   0.02399738            2 
 2051000   0.91731632   -7.5591189    595.58999  0.024199171  0.023990432            1 
 2052000   0.90967016   -7.5691498    597.99079  0.024284876  0.023983493            1 
 2053000   0.94372574    -7.562909    596.08328  0.024195619  0.023976545            2 
 2054000   0.91650455   -7.5674581    597.26094  0.024231619  0.023969578            3 
 2055000   0.91011283   -7.5773663    596.13784  0.024174284  0.023962586            1 
 2056000   0.92324168   -7.5974481     596.1636   0.02416357  0.023955555            2 
 2057000    0.9319295   -7.5780325     597.6272  0.024211117  0.023948531            1 
 2058000   0.92941948   -7.5819987    595.44129  0.024110839  0.023941524            1 
 2059000   0.91199935   -7.5649323    597.36681  0.024177061  0.023934453            2 
 2060000   0.93160491   -7.5459826    596.66315  0.024136859  0.023927432            2 
 2061000    0.9243602   -7.5878236    597.30374  0.024151049  0.023920479            6 
 2062000   0.92152113   -7.5877961     596.7993   0.02411895  0.023913475            2 
 2063000   0.93675352   -7.5923744    595.83028  0.024068116  0.023906474            2 
 2064000   0.92296761   -7.5813369    596.88104  0.024098879  0.023899492            1 
 2065000   0.92218721   -7.5373171    596.78277  0.024083243  0.023892512            2 
 2066000   0.93689081   -7.5731671    598.12556  0.024125749  0.023885503            1 
 2067000   0.91784003   -7.5886419    597.44099  0.024086477  0.023878452            5 
 2068000   0.91003434   -7.6084268    595.86059  0.024011145  0.023871325            2 
 2069000   0.92780353    -7.572857    596.89111  0.024041047  0.023864248            2 
 2070000   0.91207092   -7.5866274    596.78295  0.024025079  0.023857187            2 
 2071000   0.90769556   -7.5760879    595.44879  0.023959794  0.023850043            2 
 2072000   0.91082486    -7.573937    596.74622  0.024000411  0.023842866            2 
 2073000   0.91449603   -7.5942844     597.8369  0.024032678  0.023835732            6 
 2074000   0.91904044   -7.5872486    596.44011  0.023964967  0.023828629            2 
 2075000   0.92740637   -7.6345779    597.15624  0.023982178  0.023821421            5 
 2076000   0.94571699   -7.6112527    598.09894  0.024008467  0.023814223            2 
 2077000   0.91626449   -7.6094455    597.88063  0.023988149  0.023807063            2 
 2078000   0.93221625   -7.6151024    596.03646  0.023902649   0.02379998            3 
 2079000   0.93942283   -7.5719664    596.95388  0.023927925  0.023792882            3 
 2080000   0.89962118   -7.5735931    598.05443  0.023960514  0.023785802            4 
 2081000   0.92320649   -7.5720679    598.38181   0.02396211  0.023778711            2 
 2082000   0.92076829   -7.5935498    598.05174  0.023937389   0.02377159            2 
 2083000    0.9192396   -7.6085097    597.52271  0.023904733  0.023764478            2 
 2084000   0.90568102   -7.6290491    597.40447  0.023888534  0.023757282            1 
 2085000   0.91964336   -7.6216473      597.106  0.023865148  0.023750086            3 
 2086000   0.88570693   -7.6388447     597.4416  0.023867114   0.02374289            1 
 2087000   0.92750763   -7.5779892    597.57749  0.023861104  0.023735756            5 
 2088000   0.92065157   -7.5604249    599.27565  0.023917451  0.023728727            2 
 2089000   0.89890309   -7.5875388    599.37837  0.023910099  0.023721698            2 
 2090000   0.92119692   -7.6186124    598.98099  0.023882815  0.023714571            2 
 2091000   0.90711914   -7.5464758    600.00918   0.02391237  0.023707507            5 
 2092000   0.91936339   -7.5746841    600.19378  0.023908293  0.023700474            2 
 2093000   0.91936997   -7.5658315    600.12824   0.02389426  0.023693394            2 
 2094000    0.9128447   -7.6181011    598.63608  0.023823467  0.023686315            1 
 2095000   0.91481072   -7.5895054     599.0044  0.023826746  0.023679206            2 
 2096000   0.91593041    -7.595334    597.76661  0.023766166  0.023672063            2 
 2097000   0.92555973   -7.5738214    600.53631  0.023864899  0.023664954            2 
 2098000   0.89587426   -7.6189794     598.7352  0.023781983  0.023657858            1 
 2099000   0.90143011   -7.6253586    599.52588  0.023802044  0.023650747            2 
 2100000   0.88052391   -7.6273278    600.26512  0.023820044  0.023643646            1 
 2101000   0.92634727   -7.5948317    600.71565  0.023826577  0.023636518            1 
 2102000   0.92777419   -7.5851191    600.72227  0.023815504  0.023629434            3 
 2103000   0.91268488   -7.5798151    599.72569  0.023764689  0.023622289            2 
 2104000   0.91211042   -7.6035552    601.12996  0.023809013   0.02361519            3 
 2105000   0.89661764   -7.6017939    600.00778  0.023753277  0.023608106            1 
 2106000   0.90371033   -7.5883268    600.19329  0.023749339   0.02360106            2 
 2107000   0.89832661   -7.6023462    601.35615  0.023784059  0.023594051            1 
 2108000    0.9275571   -7.6293072    599.13053  0.023684793  0.023586919            3 
 2109000    0.9255868   -7.6208037    600.81512  0.023740127    0.0235798            2 
 2110000   0.92518922   -7.5989321    600.04473  0.023698449  0.023572692            1 
 2111000     0.920048   -7.5754611    602.11327   0.02376888  0.023565624            2 
 2112000   0.90915504   -7.5835271    602.41542  0.023769548  0.023558594            1 
 2113000     0.916948   -7.6186371    601.63879   0.02372767  0.023551598            3 
 2114000   0.91601517   -7.5781055      601.504  0.023711132  0.023544533            3 
 2115000   0.92308436   -7.5655519      602.632  0.023744366  0.023537398            4 
 2116000   0.91496472   -7.5814328    603.49277  0.023767044  0.023530303            2 
 2117000   0.91287944   -7.5708375    602.66349  0.023723173  0.023523217            1 
 2118000   0.91153916   -7.5934584    602.32244  0.023698554  0.023516176            6 
 2119000   0.91361293   -7.5621653     602.8357  0.023707554  0.023509081            5 
 2120000   0.92814088   -7.5868274    603.81769  0.023734972  0.023502066            2 
 2121000   0.91254609   -7.6116455    603.21192  0.023699981  0.023495042            2 
 2122000   0.93701176   -7.5906124    602.47312  0.023659799  0.023488034            2 
 2123000   0.91162241   -7.6170891    602.91803  0.023666118  0.023480995            1 
 2124000   0.92900539   -7.5880834    604.27125  0.023708069  0.023474007            3 
 2125000   0.90827264   -7.5769078    602.81545  0.023639822   0.02346704            3 
 2126000   0.91767965   -7.5642068    604.67843  0.023701726  0.023460075            2 
 2127000   0.91599389   -7.6133879    603.67795  0.023651385  0.023453145            2 
 2128000   0.90677434   -7.6119522    604.71982  0.023681071  0.023446193            2 
 2129000   0.89186823   -7.5806555    604.34919   0.02365544  0.023439243            2 
 2130000   0.92907323   -7.5748321     604.4552  0.023648482  0.023432276            6 
 2131000   0.91074038   -7.5830873    603.83376  0.023613083  0.023425336            2 
 2132000   0.91502165   -7.6404888    604.19688  0.023616201  0.023418372            4 
 2133000   0.90276956   -7.6028021    604.36665  0.023611762  0.023411343            2 
 2134000   0.92788495   -7.6058867    605.13049  0.023630525  0.023404379            2 
 2135000   0.89904579   -7.5643517    604.73012   0.02360383  0.023397446            1 
 2136000   0.88365736   -7.6148011    604.97545  0.023602351   0.02339047            5 
 2137000   0.92623298   -7.5910901    604.64463  0.023578405  0.023383529            2 
 2138000   0.91180414   -7.6132211    603.51098  0.023523191  0.023376554            2 
 2139000   0.91488741   -7.6293228     605.7232  0.023598379  0.023369592            2 
 2140000   0.90175415   -7.6135325    606.32811  0.023610908  0.023362631            2 
 2141000   0.89445603   -7.6539191    604.72413  0.023537449  0.023355693            1 
 2142000    0.9041356   -7.6451335     604.6221  0.023522491  0.023348735            5 
 2143000   0.92368015   -7.6165505    605.62533  0.023550526  0.023341754            2 
 2144000   0.92122243     -7.61337    606.12276  0.023558876  0.023334769            1 
 2145000   0.89493456   -7.5721567    605.55913  0.023525996  0.023327803            2 
 2146000   0.91939305   -7.5975936    606.45663  0.023549885  0.023320875            1 
 2147000   0.93148474   -7.5847344     605.9328  0.023518584  0.023314045            2 
 2148000    0.8898983   -7.6369765    606.26875  0.023520668  0.023307165            2 
 2149000   0.90677063   -7.6191437    606.59689  0.023522448  0.023300285            4 
 2150000   0.93169052   -7.5922906    607.42858  0.023543743  0.023293466            3 
 2151000   0.89268156   -7.5570176    608.38916  0.023570012  0.023286623            2 
 2152000   0.89669363   -7.6154881    605.89206  0.023462363  0.023279785            2 
 2153000   0.88848956    -7.590507    607.12862  0.023499327  0.023272865            2 
 2154000   0.88033551    -7.601265     607.9487  0.023520145  0.023265955            1 
 2155000   0.90279465   -7.5842695    607.50327  0.023492006   0.02325911            1 
 2156000   0.92583789   -7.6134826      606.933  0.023459068   0.02325225            1 
 2157000   0.91026881   -7.6202793    606.96045  0.023449252  0.023245333            1 
 2158000   0.89546238   -7.6210203    608.90489  0.023513473  0.023238434            2 
 2159000   0.90794272   -7.6242774    606.49762  0.023409666  0.023231503            1 
 2160000   0.88167878   -7.6332311    606.89072  0.023413994  0.023224591            2 
 2161000   0.90809187   -7.6111223    606.04204  0.023370432  0.023217671            2 
 2162000    0.9112671   -7.5952927    609.39529  0.023488872  0.023210772            2 
 2163000   0.91091851   -7.6319697    608.03537  0.023425619  0.023203826            4 
 2164000   0.91390397   -7.6435334    608.92947  0.023449225  0.023196882            3 
 2165000   0.90239514   -7.6095988     608.6031  0.023425831  0.023190017            4 
 2166000   0.89820808   -7.6567863    608.14279  0.023397306  0.023183111            2 
 2167000   0.91614935   -7.6376128    610.75708  0.023487044  0.023176249            1 
 2168000   0.89308566   -7.6388951    608.73768  0.023398589  0.023169394            1 
 2169000   0.89921743    -7.599356    608.82181  0.023391033  0.023162496            2 
 2170000   0.89803692   -7.6310298    609.04475  0.023388815  0.023155632            1 
 2171000   0.90751909   -7.6446018    608.40996  0.023353676  0.023148706            2 
 2172000    0.9036953   -7.6291527    609.62424  0.023389512  0.023141833            2 
 2173000   0.93661182   -7.5720701    609.28531  0.023365751  0.023135052            2 
 2174000   0.89630615   -7.5983467    610.85723  0.023415257  0.023128221            1 
 2175000   0.92575442   -7.6136155    609.83477  0.023365317  0.023121351            1 
 2176000   0.90432005   -7.6202909    610.03121  0.023362102  0.023114503            3 
 2177000   0.87380222   -7.6379105    610.30312  0.023361779  0.023107564            1 
 2178000   0.89763071   -7.6053049    608.25194  0.023272572  0.023100659            3 
 2179000   0.89661703      -7.6131    610.03716  0.023330165  0.023093806            2 
 2180000   0.89033839   -7.6299345    609.77349  0.023309384  0.023086877            1 
 2181000   0.91317807   -7.6331922    608.64982  0.023255763  0.023079908            4 
 2182000   0.90340271   -7.6370881    608.77802  0.023250001  0.023073025            4 
 2183000   0.90283665   -7.6495019    611.08694  0.023327491  0.023066155            2 
 2184000    0.9253733   -7.6697787    609.79115  0.023267367  0.023059253            2 
 2185000   0.90375097   -7.6221568    610.29109  0.023275785  0.023052349            3 
 2186000   0.89944712   -7.6430863    610.78705  0.023284044  0.023045503            2 
 2187000   0.90769423   -7.6229316    610.32281  0.023255708   0.02303865            2 
 2188000   0.90548132   -7.6596866    610.64975  0.023257532  0.023031739            2 
 2189000   0.89941544   -7.5773129    612.73866   0.02332643  0.023024898            1 
 2190000   0.89920909   -7.5838793    611.62791  0.023273512  0.023018078            2 
 2191000   0.90252513   -7.6607394     609.9075  0.023197456  0.023011183            3 
 2192000   0.91260583   -7.6261833    612.10291  0.023270336  0.023004325            2 
 2193000   0.88375047   -7.6342384    612.61972  0.023279363  0.022997535            1 
 2194000   0.91687572   -7.6325394    611.85513  0.023239712  0.022990732            7 
 2195000   0.93343924   -7.6510473    613.82768  0.023304012   0.02298395            2 
 2196000   0.89295807   -7.6375957    613.11434   0.02326633  0.022977129            3 
 2197000   0.91084112   -7.6072447    613.64951   0.02327604  0.022970359            4 
 2198000   0.88968083   -7.6220191    613.35458  0.023254268  0.022963611            3 
 2199000   0.90168516   -7.6277801    615.04116  0.023307608  0.022956881            3 
 2200000   0.90403584   -7.6472046    614.09201  0.023261061  0.022950183            1 
 2201000   0.91990515   -7.6630968    613.33788   0.02322194  0.022943459            2 
 2202000   0.90504522   -7.6437401    613.10228  0.023202478  0.022936765            2 
 2203000    0.8992898   -7.6223071    615.86297  0.023296375  0.022930059            4 
 2204000    0.8721183   -7.6169478    614.90834   0.02324971  0.022923375            1 
 2205000   0.89435949     -7.64977    612.86974  0.023162122  0.022916732            3 
 2206000    0.9058264   -7.6542333    615.82465  0.023263246  0.022910038            1 
 2207000   0.87108789    -7.631811    614.56067  0.023204979  0.022903358            1 
 2208000   0.89752019   -7.6818034    612.96249  0.023134152  0.022896587            2 
 2209000    0.8973476    -7.635426    612.54876  0.023108072  0.022889847            4 
 2210000   0.87029845   -7.6409947    615.57417  0.023211696   0.02288317            2 
 2211000   0.90390799   -7.6213021    616.06095  0.023219544  0.022876514            1 
 2212000   0.90229986   -7.6092289    614.88448  0.023164726  0.022869907            2 
 2213000   0.89955355   -7.6452656    614.95155  0.023156784  0.022863236            2 
 2214000   0.90061865   -7.6499494    615.48912  0.023166558   0.02285656            2 
 2215000   0.88362747   -7.6190171    617.74976   0.02324115  0.022849955            1 
 2216000   0.92002885    -7.576866    617.45307  0.023219505  0.022843399            4 
 2217000   0.92098374   -7.6311006    616.93501  0.023189558  0.022836837            1 
 2218000   0.88873611   -7.6046901    615.62903  0.023130036  0.022830237            2 
 2219000   0.87596344   -7.6036733    617.66961  0.023196245  0.022823635            1 
 2220000   0.89152943    -7.634948    617.21125   0.02316859  0.022817051            2 
 2221000   0.90537331   -7.6367973    617.24219   0.02315932  0.022810475            4 
 2222000   0.89275032   -7.6529998    614.96621  0.023063539  0.022803867            2 
 2223000   0.88112086   -7.6237535    617.25468  0.023138952   0.02279722            2 
 2224000    0.9075629   -7.6217246    616.77628  0.023110622  0.022790656            1 
 2225000   0.89568028   -7.6469107    618.35302  0.023159289  0.022784076            1 
 2226000   0.88835422   -7.6414073    618.11952  0.023140144  0.022777557            7 
 2227000   0.91222091   -7.6324183    616.61483  0.023073448  0.022771007            3 
 2228000   0.89777157   -7.6510216    617.26892  0.023087557  0.022764432            2 
 2229000   0.90302377    -7.654808    618.36406  0.023118142   0.02275783            1 
 2230000   0.89095844   -7.6141351    618.79542  0.023123895  0.022751325            3 
 2231000   0.93015873   -7.6538648    616.76881  0.023037831  0.022744809            2 
 2232000   0.90107627    -7.667454    617.06016  0.023038387  0.022738164            1 
 2233000   0.87217282   -7.7038202    615.74618  0.022979034  0.022731501            2 
 2234000   0.87661979   -7.6438715    617.58469  0.023037328  0.022724853            2 
 2235000   0.89712095   -7.6475695    618.04505  0.023044185  0.022718221            1 
 2236000   0.89158708   -7.6660129    617.88813  0.023028031  0.022711617            1 
 2237000   0.90557178   -7.6522676    618.66646  0.023046731  0.022705016            2 
 2238000   0.89776731   -7.6593698    616.87663  0.022969788  0.022698461            2 
 2239000   0.90427878   -7.6589494    619.60948  0.023061243  0.022691931            4 
 2240000   0.89107837   -7.6581095     619.6229  0.023051447  0.022685348            2 
 2241000   0.90415417   -7.6171136    618.92928  0.023015368  0.022678776            5 
 2242000   0.88493546   -7.6330998    620.65811  0.023069362  0.022672238            1 
 2243000   0.88391914    -7.635365    621.71879  0.023098484  0.022665774            3 
 2244000   0.87845746   -7.6411513    621.87747  0.023094083  0.022659279            3 
 2245000   0.89952771   -7.6348301    620.78589  0.023043277  0.022652777            3 
 2246000   0.88487018   -7.6499631    621.40737  0.023056076  0.022646261            2 
 2247000   0.89483639   -7.6466405    619.80334  0.022986328  0.022639759            2 
 2248000   0.91889539   -7.6840338    620.03574  0.022984718  0.022633204            2 
 2249000   0.89588013     -7.66384    619.48036  0.022953919  0.022626691            5 
 2250000   0.89209335   -7.6253077    621.46605  0.023017261  0.022620245            1 
 2251000   0.88862408   -7.6334805    622.68355  0.023052108   0.02261381            2 
 2252000   0.90635493   -7.6278644    621.14921  0.022985095  0.022607392            1 
 2253000   0.89778369   -7.6431768    622.71448  0.023032789  0.022600977            3 
 2254000    0.8784074   -7.6480501    620.27703  0.022932455  0.022594551            3 
 2255000   0.87972906    -7.656992    620.80016  0.022941617  0.022588109            4 
 2256000   0.89659035   -7.6472465    620.82971  0.022932539  0.022581662            3 
 2257000   0.90081807   -7.6586048    622.20892  0.022973302  0.022575229            2 
 2258000   0.89588074   -7.6337149    622.45823  0.022972329  0.022568766            2 
 2259000   0.90470255   -7.6725269    622.14964  0.022950776   0.02256227            2 
 2260000   0.90392071   -7.6679431    621.88134  0.022930728  0.022555775            2 
 2261000   0.88901215   -7.6841305    621.29515  0.022898981  0.022549246            2 
 2262000   0.89299732   -7.6382271    624.31024  0.022999935  0.022542807            3 
 2263000   0.88554692   -7.6797915    621.68891  0.022893243  0.022536307            1 
 2264000   0.89832967   -7.6728556     620.9209  0.022854862  0.022529778            3 
 2265000   0.87295682   -7.6918561    621.12541  0.022852296  0.022523251            3 
 2266000   0.86835364    -7.669949    622.70817  0.022900418  0.022516695            2 
 2267000   0.89262973    -7.639894    623.36375  0.022914415  0.022510124            2 
 2268000   0.89538618   -7.6339873    620.93346  0.022815015  0.022503569            1 
 2269000   0.88759144   -7.6147537    622.37224  0.022857802  0.022497081            3 
 2270000   0.89009976   -7.6588828    622.58852  0.022855673  0.022490614            3 
 2271000   0.87038171   -7.6299837    621.81987  0.022817403  0.022484117            3 
 2272000   0.86699357   -7.6590562    622.41382  0.022829145  0.022477558            3 
 2273000   0.89352818   -7.6687781    622.59467  0.022825732  0.022470992            1 
 2274000   0.88352597   -7.6477051    621.05543  0.022759287   0.02246448            2 
 2275000   0.88619999   -7.6418606    622.95303  0.022818792  0.022457953            2 
 2276000   0.84571119   -7.6599866    624.22497  0.022855337  0.022451457            3 
 2277000   0.86589316   -7.6501234    622.94233  0.022798358  0.022444915            3 
 2278000    0.8770513    -7.655876    621.32367  0.022729136  0.022438339            2 
 2279000   0.87537872   -7.6713943    622.62459  0.022766732  0.022431761            1 
 2280000   0.87738458   -7.6782915    621.15158  0.022702909  0.022425183            1 
 2281000   0.88867506   -7.6633371    622.81644  0.022753779  0.022418592            6 
 2282000   0.89844033   -7.6600102    623.67204  0.022775052  0.022412061            3 
 2283000   0.88083999   -7.6706313    623.78023  0.022769026  0.022405526            2 
 2284000     0.869657   -7.6268964    625.93314  0.022837607  0.022398964            2 
 2285000    0.8796487    -7.677278    623.79774  0.022749735   0.02239245            3 
 2286000   0.87949703   -7.6528504    622.56825  0.022694964  0.022385895            3 
 2287000   0.88201552   -7.6858001    623.56441  0.022721338  0.022379421            1 
 2288000   0.89197884   -7.6400893     625.2216  0.022771766  0.022372881            1 
 2289000   0.87762098   -7.6453003    624.41111  0.022732311  0.022366335            2 
 2290000   0.88145258   -7.6245877    623.27961  0.022681208  0.022359855            2 
 2291000   0.87095324    -7.690807    624.29583  0.022708272   0.02235335            2 
 2292000   0.88019575   -7.6842709    624.48264  0.022705157  0.022346816            4 
 2293000   0.88752136   -7.6607013    624.92494  0.022711329  0.022340291            1 
 2294000   0.88813334   -7.6555522    625.55863  0.022724449  0.022333759            2 
 2295000   0.91220256   -7.6293322    626.51759  0.022749368   0.02232727            1 
 2296000   0.87793029   -7.6428715    626.40798  0.022735481  0.022320762            2 
 2297000   0.87740405   -7.6467849    624.68232  0.022662978  0.022314254            1 
 2298000   0.87326366   -7.6707098    624.63481  0.022651393  0.022307701            3 
 2299000   0.88630489   -7.6864057     625.6367  0.022677856  0.022301166            1 
 2300000   0.89098853   -7.7013574    624.82769  0.022638685  0.022294595            1 
 2301000   0.87782729    -7.670291    625.76458  0.022662776  0.022288087            3 
 2302000   0.88541601   -7.6467696    626.36596  0.022674702  0.022281574            1 
 2303000   0.90822927   -7.6804229    625.33434  0.022627527  0.022275046            1 
 2304000   0.89745023    -7.690028    625.05769    0.0226077  0.022268501            2 
 2305000   0.90832705   -7.6629709    627.70895  0.022693744  0.022261946            4 
 2306000   0.88333876   -7.6988836    625.80131  0.022614965   0.02225549            1 
 2307000   0.86909932   -7.6916471    625.55519  0.022596272   0.02224899            1 
 2308000   0.90211253   -7.6617027    624.98099  0.022565749  0.022242486            2 
 2309000   0.90283919   -7.6994219      626.203  0.022600079  0.022236033            1 
 2310000   0.87742366   -7.6205351     627.0173  0.022619672  0.022229588            2 
 2311000   0.87961188   -7.6836449    627.25337  0.022618397  0.022223107            5 
 2312000   0.86116089   -7.6837213    625.90513  0.022560018  0.022216605            3 
 2313000   0.89614256   -7.6635477     627.4397  0.022605552  0.022210104            1 
 2314000   0.88251969   -7.6779793    626.45502  0.022560322  0.022203595            2 
 2315000   0.88966684    -7.712547    626.76577  0.022561763  0.022197096            2 
 2316000    0.9018527   -7.6841404    626.74631  0.022551321  0.022190625            3 
 2317000   0.87160892   -7.6773567    626.32926  0.022526588  0.022184103            4 
 2318000   0.88389889   -7.7148645     626.6848  0.022529652  0.022177592            2 
 2319000    0.8824993   -7.6822519    625.88176   0.02249108   0.02217109            1 
 2320000   0.87774619   -7.6636347    627.81835  0.022550946   0.02216458            2 
 2321000   0.86961832   -7.6704319    627.97608  0.022546894  0.022158087            2 
 2322000   0.88306296   -7.6739811    625.79585  0.022458938  0.022151558            1 
 2323000   0.88744907   -7.6405829    627.42071  0.022507559   0.02214507            3 
 2324000   0.89382418    -7.663766    627.23503  0.022491216  0.022138546            2 
 2325000   0.88115446   -7.6866334    626.79019  0.022465598  0.022132028            1 
 2326000   0.87552442   -7.6873472    626.92603  0.022460807  0.022125457            2 
 2327000   0.85211303   -7.7123409    626.83338  0.022447836  0.022118868            2 
 2328000   0.87253871   -7.7212793     626.4715   0.02242524  0.022112278            2 
 2329000   0.88210326   -7.7140696     626.9984  0.022434464  0.022105683            2 
 2330000   0.87499062   -7.6935696    628.50414  0.022478689  0.022099103            2 
 2331000   0.87394802   -7.6656219    628.94469  0.022484795  0.022092566            3 
 2332000   0.89458355   -7.6822859    629.60502   0.02249875  0.022086063            2 
 2333000   0.90165902   -7.6953698      629.393  0.022481533  0.022079572            2 
 2334000   0.88240097   -7.7199452    628.27033  0.022431817  0.022073093            2 
 2335000   0.87936424   -7.6754835    628.52708  0.022431373  0.022066596            3 
 2336000   0.88663982   -7.6734813    629.29424  0.022449138  0.022060071            2 
 2337000   0.87388898   -7.6760629    627.59735  0.022379024  0.022053564            2 
 2338000   0.89219337   -7.6682732     630.0056  0.022455289  0.022047069            2 
 2339000   0.89243775   -7.7019248    629.68429  0.022434242   0.02204058            4 
 2340000   0.87153152   -7.6853104    628.82389  0.022394013  0.022034123            1 
 2341000   0.89404294   -7.6816641    628.67339   0.02237909  0.022027672            3 
 2342000   0.86996724   -7.6902191    627.67442  0.022333989  0.022021231            1 
 2343000   0.86324848   -7.6865953    630.25243  0.022416149  0.022014795            2 
 2344000    0.8901343   -7.7000697    629.83901  0.022391887  0.022008398            1 
 2345000   0.88964369   -7.6722718    629.61432  0.022374354  0.022001957            4 
 2346000   0.88570528   -7.6806796    629.92338  0.022375795   0.02199553            2 
 2347000   0.86239898   -7.6914369    630.42554  0.022384091  0.021989129            1 
 2348000   0.87160359   -7.6574416    631.63567  0.022417507  0.021982748            5 
 2349000   0.88386728   -7.7023613    630.59495  0.022371043    0.0219764            3 
 2350000   0.88516196   -7.6845309    630.75031  0.022367032  0.021970017            2 
 2351000   0.88746024   -7.6711654     630.3945  0.022344906  0.021963654            2 
 2352000   0.86764864   -7.6839967    631.36872  0.022369923  0.021957299            2 
 2353000   0.86202049   -7.6473277    632.29058  0.022393065  0.021951011            2 
 2354000    0.8550895   -7.7016483    632.20884  0.022380659  0.021944702            2 
 2355000   0.87347773   -7.6956335    629.54227  0.022276797  0.021938357            2 
 2356000   0.88516817   -7.7258884    632.32075  0.022365618  0.021931952            2 
 2357000   0.85791379    -7.697486    632.22644  0.022352794  0.021925569            2 
 2358000   0.87925942   -7.6825239    632.18326  0.022341789  0.021919223            3 
 2359000   0.87941908   -7.6881099    631.64304  0.022313234  0.021912894            2 
 2360000   0.84717039   -7.6947041    633.30646  0.022362516  0.021906561            1 
 2361000   0.88762708   -7.6764829    632.47612  0.022323737  0.021900237            2 
 2362000   0.88374785   -7.7144873    632.98142  0.022332113  0.021893859            3 
 2363000   0.86380616   -7.6922208    633.78534  0.022351013  0.021887521            2 
 2364000   0.87914009   -7.6627843     633.5157  0.022332054  0.021881177            1 
 2365000   0.85244583   -7.6767743    634.03586  0.022340939  0.021874842            3 
 2366000   0.86589995   -7.6612867    634.44682  0.022345972  0.021868562            2 
 2367000   0.87500796   -7.7245288    632.37661  0.022263646  0.021862282            2 
 2368000   0.88993289   -7.6926584    635.42811  0.022361631  0.021855984            1 
 2369000   0.87417287   -7.6902849     633.0219   0.02226755  0.021849633            1 
 2370000   0.88212672    -7.699372    633.16011  0.022263014  0.021843305            2 
 2371000   0.87286236   -7.7082797    634.32485  0.022294561     0.021837            3 
 2372000   0.84854963   -7.7271669    632.74476   0.02222965  0.021830644            2 
 2373000   0.87456725    -7.674741    633.39955  0.022243277  0.021824331            2 
 2374000   0.87061955   -7.6982866    633.34945  0.022232148  0.021818075            2 
 2375000   0.86754161   -7.6932485    634.46682  0.022261994  0.021811794            1 
 2376000   0.87274762   -7.6842842    634.40952  0.022250615  0.021805538            2 
 2377000   0.86611104   -7.7214096    634.23638  0.022235184  0.021799292            2 
 2378000   0.87497899   -7.7083858     633.6589  0.022205596  0.021792972            1 
 2379000   0.86875037   -7.7017495    634.03531  0.022209448  0.021786708            3 
 2380000   0.85865786   -7.7369708    634.04956  0.022200615  0.021780385            1 
 2381000   0.88454474   -7.7079523    634.63759  0.022211871  0.021774046            1 
 2382000   0.86169295   -7.7385524    632.48505  0.022127241  0.021767723            3 
 2383000   0.86682465   -7.7078938    633.43598  0.022151209  0.021761403            2 
 2384000   0.87535827   -7.7083351    633.64131  0.022149095  0.021755121            1 
 2385000   0.86697119   -7.6902516    635.08059  0.022190097  0.021748809            3 
 2386000   0.87331457   -7.6925652    635.49372  0.022195226  0.021742521            2 
 2387000   0.86726466   -7.6672935    635.47494  0.022185272  0.021736233            3 
 2388000   0.87191624   -7.7292761    635.01887  0.022160067   0.02173001            2 
 2389000   0.85321861   -7.7024292    636.40326  0.022199081  0.021723752            2 
 2390000   0.86207802   -7.7204085    635.67525  0.022164409  0.021717438            1 
 2391000   0.87209264   -7.7137337    635.00213  0.022131679   0.02171113            3 
 2392000   0.87173147   -7.7100825    635.48338  0.022139192  0.021704855            2 
 2393000   0.86996081   -7.7482911     635.0205  0.022113822  0.021698538            3 
 2394000   0.86941293   -7.7292395    634.54072  0.022087884  0.021692205            4 
 2395000   0.84807396   -7.7291395    635.07868  0.022097379  0.021685885            2 
 2396000   0.85462212   -7.7126305    635.93161  0.022117822  0.021679575            4 
 2397000   0.87062084   -7.7432336    635.28532  0.022086126  0.021673302            1 
 2398000   0.87222428   -7.6908321    637.39734  0.022150311  0.021667027            2 
 2399000   0.85019227   -7.7166911    636.64406  0.022114911  0.021660777            2 
 2400000   0.85342314   -7.7304657    636.75372  0.022109504  0.021654499            2 
 2401000   0.88010289   -7.7025196    636.44004  0.022089409  0.021648207            2 
 2402000   0.86434152   -7.7169299    635.41027  0.022044486  0.021641907            2 
 2403000   0.88375608   -7.7182729    635.36783  0.022033841  0.021635595            2 
 2404000   0.86962296   -7.7173126    635.67224  0.022035228  0.021629313            5 
 2405000    0.8685804   -7.7179878    636.56057  0.022056846  0.021623031            1 
 2406000   0.89784442   -7.6969516    637.99543  0.022097376  0.021616774            3 
 2407000   0.87694456   -7.7192805    636.79394  0.022046598  0.021610517            3 
 2408000   0.87459063   -7.6938373    636.98829  0.022044169  0.021604248            3 
 2409000   0.86671429   -7.7040513    637.78556  0.022062597  0.021598025            3 
 2410000   0.86016176   -7.6814395    637.32566   0.02203754  0.021591764            4 
 2411000   0.86225299   -7.6888991    637.30233  0.022027593  0.021585505            1 
 2412000    0.8792224   -7.7317819    637.61812  0.022029371  0.021579202            2 
 2413000   0.86127108   -7.7275069    636.27725  0.021973935  0.021572881            4 
 2414000   0.83639068   -7.7040506     638.3277  0.022035615  0.021566647            2 
 2415000   0.85893987   -7.6875443    638.25205   0.02202388  0.021560385            2 
 2416000   0.85606257   -7.7167837    638.22124  0.022013702  0.021554171            2 
 2417000   0.86771181   -7.7271457     638.5282  0.022015177  0.021547899            2 
 2418000    0.8468845   -7.7229024    638.40223  0.022001731  0.021541626            4 
 2419000    0.8744785   -7.7287813    637.01056  0.021944693  0.021535316            2 
 2420000    0.8373497   -7.7064812    638.53382  0.021988079  0.021528993            2 
 2421000   0.82716099   -7.7000763    637.54842  0.021945078  0.021522673            1 
 2422000   0.87562887   -7.7454248    636.01085  0.021883115  0.021516325            2 
 2423000    0.8577804   -7.7101396    638.20905  0.021949685  0.021509964            1 
 2424000   0.85886712   -7.7348264    637.65404   0.02192155  0.021503578            2 
 2425000   0.86515689     -7.74546    635.73331  0.021846506  0.021497197            4 
 2426000   0.85589727   -7.7209818    637.68596  0.021904574  0.021490811            1 
 2427000   0.87407441   -7.7271857    638.36457  0.021918849  0.021484505            1 
 2428000    0.8494088   -7.7200289    638.23444  0.021905356  0.021478209            3 
 2429000   0.84300083    -7.721076    637.87601   0.02188404  0.021471878            4 
 2430000   0.87227163   -7.7163845    637.46787  0.021861038  0.021465527            1 
 2431000   0.86407052   -7.7478678    637.63857  0.021857897  0.021459163            3 
 2432000   0.85539397   -7.6919596    638.59111  0.021881549  0.021452797            1 
 2433000   0.86513296   -7.6762629    639.28115   0.02189619  0.021446446            3 
 2434000   0.87019444   -7.7287629    638.90432  0.021874292  0.021440076            3 
 2435000   0.86171439   -7.7070738    638.71312  0.021858765   0.02143374            2 
 2436000    0.8547579   -7.7258376    639.67225  0.021882603  0.021427363            3 
 2437000   0.87727504   -7.7168991    638.83797  0.021845095  0.021421004            1 
 2438000   0.86177736   -7.7493037    637.36811  0.021785894  0.021414636            2 
 2439000   0.86003703   -7.7191967    637.58747  0.021784456  0.021408276            2 
 2440000   0.85877355   -7.7462951    638.72791  0.021814478  0.021401955            3 
 2441000    0.8666272   -7.6989345    639.30725  0.021825319   0.02139565            1 
 2442000   0.84443522   -7.7393176    639.41531  0.021820069  0.021389314            2 
 2443000   0.87356512   -7.7483075    637.75478  0.021754495   0.02138295            3 
 2444000   0.86460123   -7.7494687    638.54545  0.021772554  0.021376611            3 
 2445000   0.86889703   -7.7231929     639.9258  0.021810695  0.021370267            1 
 2446000     0.857252   -7.6918714    638.69656  0.021759899  0.021363898            3 
 2447000    0.8748434   -7.7170923    638.69585  0.021750982  0.021357522            1 
 2448000   0.87741412   -7.7268418    638.64783  0.021740463  0.021351162            2 
 2449000   0.85766971     -7.73997    639.30896  0.021754082   0.02134474            5 
 2450000   0.85976508   -7.7145384    639.21043  0.021741851  0.021338344            3 
 2451000    0.8727859   -7.7409684    638.06702  0.021694105  0.021332004            3 
 2452000   0.88610906   -7.6981625    640.18622   0.02175728  0.021325679            2 
 2453000   0.86818432    -7.748745    639.47221  0.021724155  0.021319346            2 
 2454000   0.85710546   -7.7303992     640.0083  0.021733507  0.021313039            2 
 2455000   0.86321708   -7.7650842    640.08264  0.021727177  0.021306752            4 
 2456000   0.87138389   -7.7145749    641.13322  0.021753977  0.021300467            4 
 2457000   0.86325066   -7.6958079    639.57635   0.02169232  0.021294228            1 
 2458000   0.83753875   -7.7195333    640.40602  0.021711623  0.021287974            2 
 2459000   0.86550408   -7.7111309    642.64906  0.021778808  0.021281744            2 
 2460000   0.85574187   -7.7266488    640.41375  0.021694233  0.021275508            2 
 2461000   0.85885359   -7.7298354    640.70796   0.02169538  0.021269237            4 
 2462000   0.87107623   -7.7515761     640.0431  0.021664064  0.021263002            1 
 2463000   0.85824195   -7.7151577      641.571  0.021706963  0.021256756            4 
 2464000   0.85444771   -7.7243085     641.7168  0.021703084  0.021250465            2 
 2465000   0.87494416   -7.7573986    640.36609  0.021648617   0.02124425            3 
 2466000   0.85703692   -7.7317778    642.66586  0.021717554  0.021237999            2 
 2467000    0.8572088   -7.7372348    641.33001  0.021663627  0.021231751            2 
 2468000   0.84333262   -7.7163605    643.42993  0.021725754  0.021225574            2 
 2469000   0.87740808   -7.7435329    641.67048   0.02165757  0.021219366            1 
 2470000   0.84728538   -7.7530822    641.44734  0.021641273  0.021213138            2 
 2471000   0.85819255   -7.7760592    640.55842  0.021602537  0.021206837            2 
 2472000   0.86039645   -7.7368661    643.06914  0.021678437  0.021200568            1 
 2473000   0.83269922   -7.7345827    642.61835   0.02165448  0.021194337            1 
 2474000   0.85755848    -7.746505    643.01187  0.021658982  0.021188109            2 
 2475000   0.85020971   -7.7541494     640.6943  0.021572199  0.021181859            3 
 2476000   0.84153455   -7.7626322    641.33397  0.021585015  0.021175631            3 
 2477000    0.8607358   -7.7579986    641.99894  0.021598672  0.021169434            3 
 2478000   0.84703958   -7.7414065     641.7999  0.021583263  0.021163227            1 
 2479000   0.85913203   -7.7662255    641.40694  0.021561347  0.021156952            1 
 2480000   0.84238867   -7.7696084    642.46268  0.021588128  0.021150654            1 
 2481000   0.83654266   -7.7592873    642.60105  0.021584074  0.021144362            2 
 2482000   0.87361832    -7.730233    643.09258  0.021591881  0.021138101            3 
 2483000   0.86668258   -7.7634576    642.37094  0.021558966  0.021131824            2 
 2484000   0.85478493   -7.7389245    641.98659  0.021537392  0.021125574            4 
 2485000   0.85617558   -7.7504626     644.4088  0.021609953   0.02111933            3 
 2486000   0.86340345   -7.7339646    642.55058  0.021538971  0.021113116            3 
 2487000   0.83593406   -7.7346419     644.3985   0.02159223   0.02110688            3 
 2488000   0.86104775    -7.762317    643.77446  0.021562649  0.021100645            1 
 2489000   0.84971993   -7.7871648    642.21759  0.021501861  0.021094421            1 
 2490000   0.83560348   -7.7328541     642.9447   0.02151756  0.021088194            2 
 2491000   0.84863497    -7.724252    645.39293  0.021590825  0.021082002            2 
 2492000   0.83294125   -7.7666672    642.96223  0.021500877  0.021075812            4 
 2493000   0.85537439   -7.7470781    643.11803   0.02149746  0.021069572            2 
 2494000   0.86901742   -7.7324825    644.38956  0.021531327  0.021063389            3 
 2495000    0.8560266   -7.7438717     642.0963  0.021446102  0.021057178            2 
 2496000     0.843601    -7.714513    644.42186  0.021515153  0.021050934            3 
 2497000   0.85113599   -7.7739275     643.9948  0.021492284  0.021044722            6 
 2498000   0.86560009   -7.7667323    644.15691  0.021489088  0.021038487            2 
 2499000   0.85185774   -7.7448695    643.90644  0.021472137  0.021032257            1 
 2500000   0.86897367   -7.7638417    643.67928  0.021455976  0.021026014            1 
 2501000    0.8546874   -7.7341148    644.14415  0.021462887  0.021019761            4 
 2502000   0.86315972    -7.769036    642.58859  0.021402498  0.021013474            1 
 2503000   0.84296694   -7.7346912    643.52786  0.021425218  0.021007233            1 
 2504000   0.85225985   -7.7480315    644.72013  0.021456341  0.021000995            1 
 2505000   0.83786702   -7.7837164     644.1707  0.021429498  0.020994739            4 
 2506000   0.85259825   -7.7304595    645.48496   0.02146465  0.020988538            2 
 2507000   0.82689951   -7.7230039    644.95721  0.021438546  0.020982331            1 
 2508000   0.86616778   -7.7854981    646.50183  0.021481321  0.020976126            2 
 2509000   0.85798689   -7.7877167    644.80671  0.021416458  0.020969953            3 
 2510000   0.84676953   -7.7435764    646.68183   0.02147018  0.020963827            1 
 2511000   0.85698626   -7.7498942    645.11303  0.021409566  0.020957631            2 
 2512000   0.85186808   -7.7397671    645.76287    0.0214226  0.020951458            3 
 2513000   0.86125475   -7.7513398    645.78132  0.021414688  0.020945329            1 
 2514000   0.84826905   -7.7770557    645.91689  0.021410663  0.020939126            2 
 2515000   0.84643918   -7.7581824    644.93748  0.021369698  0.020932915            4 
 2516000    0.8415264   -7.7531879    645.84283  0.021391191  0.020926744            2 
 2517000   0.84179435   -7.7349833    645.18676  0.021360971  0.020920583            2 
 2518000    0.8405698   -7.7502282    646.54241  0.021397353  0.020914414            2 
 2519000   0.84949617   -7.7748785    645.21575   0.02134497   0.02090829            2 
 2520000   0.86871634   -7.7571053     646.9602  0.021394187  0.020902146            1 
 2521000   0.83265204   -7.7860804    644.78406  0.021313766  0.020895992            1 
 2522000   0.82814599    -7.754264    646.49429  0.021361825  0.020889858            2 
 2523000   0.83608439   -7.7548836    647.96892  0.021402065  0.020883728            1 
 2524000   0.85716977   -7.7529433    646.83684  0.021356209  0.020877586            4 
 2525000   0.87088092   -7.7537054    645.61299  0.021307359  0.020871431            1 
 2526000   0.84384755   -7.7560427    645.33096   0.02128962  0.020865259            1 
 2527000   0.82728748   -7.7312918    647.28404  0.021345602  0.020859054            2 
 2528000   0.85876187   -7.7872569    644.76476  0.021254113  0.020852867            4 
 2529000   0.86302282   -7.7825365    647.92416  0.021349814  0.020846698            2 
 2530000   0.85006806   -7.7797331    647.00217  0.021311007  0.020840548            2 
 2531000   0.84457501   -7.7649251    646.60394  0.021289475  0.020834394            3 
 2532000   0.84644531   -7.7594897    646.98612  0.021293645  0.020828252            2 
 2533000   0.84481785   -7.7565898    648.68125  0.021341007  0.020822097            1 
 2534000    0.8644227   -7.7854872    646.97717  0.021276545  0.020815994            5 
 2535000    0.8547404   -7.7821031    648.87406  0.021330508  0.020809875            2 
 2536000   0.85514695   -7.7734876    648.11341  0.021297102  0.020803707            3 
 2537000   0.83859742   -7.7902173    648.41146  0.021298498  0.020797563            2 
 2538000   0.84345768   -7.7714279    649.30671  0.021319501  0.020791461            2 
 2539000   0.84808293   -7.7297045      648.508  0.021284889  0.020785379            3 
 2540000   0.84129645   -7.7519239    648.33018  0.021270675  0.020779324            3 
 2541000   0.86775711   -7.7842771    648.81473  0.021278195  0.020773259            3 
 2542000   0.85803228   -7.7522425    649.55632  0.021294136  0.020767171            3 
 2543000   0.86519918   -7.7602463    648.31179  0.021244979  0.020761088            2 
 2544000   0.83274857   -7.7513478    648.65554  0.021247889  0.020754984            3 
 2545000   0.84607172   -7.7596768    648.98719  0.021250399  0.020748855            1 
 2546000    0.8335319   -7.7559837    649.58585  0.021261647  0.020742753            3 
 2547000   0.84215712   -7.7786998     649.7759  0.021259518  0.020736654            2 
 2548000   0.84189378   -7.7876655    649.55042    0.0212438  0.020730547            3 
 2549000   0.80871894   -7.7611969    648.95047  0.021215852  0.020724434            1 
 2550000   0.84821009   -7.7540542      650.505  0.021258333  0.020718379            3 
 2551000   0.83537114    -7.779906    649.25368  0.021209123  0.020712327            2 
 2552000   0.84444422   -7.7774583    649.73091  0.021216396  0.020706259            2 
 2553000   0.83252024   -7.7770633    649.09564   0.02118735  0.020700217            2 
 2554000   0.85667441   -7.7722847    649.00783  0.021176189  0.020694147            3 
 2555000   0.85770961   -7.7667128    650.72128  0.021223786  0.020688088            4 
 2556000   0.84440398   -7.7701195    650.73524  0.021215938  0.020682125            3 
 2557000   0.83931677   -7.7606663    651.66377  0.021237902  0.020676105            2 
 2558000     0.861394   -7.7933956    649.81598  0.021169403  0.020670046            1 
 2559000    0.8367297   -7.7768213    650.06918  0.021169376  0.020663959            3 
 2560000    0.8504675   -7.7845618    649.69326  0.021148869  0.020657893            4 
 2561000   0.82860141   -7.8046631    649.96767   0.02114954  0.020651848            8 
 2562000   0.84982287   -7.7838898    649.58959  0.021128987  0.020645804            5 
 2563000   0.85086784   -7.7681324    649.28026  0.021110686  0.020639777            1 
 2564000   0.84431834   -7.7750959     651.6405  0.021179164  0.020633754            1 
 2565000   0.83682098   -7.7579278    652.32651  0.021193194  0.020627762            2 
 2566000   0.82664705   -7.7649629    652.15562  0.021179385  0.020621787            2 
 2567000   0.84991022   -7.7846882    651.87004  0.021161863  0.020615859            2 
 2568000   0.84437972    -7.753156    652.71496  0.021181041  0.020609912            2 
 2569000   0.85027197   -7.7728257    653.28635  0.021191331   0.02060393            1 
 2570000   0.82253101   -7.7541623    651.63974  0.021129693  0.020597992            2 
 2571000    0.8397421   -7.8347354    649.82793  0.021062749  0.020592029            2 
 2572000   0.84936852   -7.7780935    652.01043  0.021125273  0.020586052            5 
 2573000   0.83061006   -7.7678593     653.3995  0.021162051   0.02058012            1 
 2574000   0.83464979   -7.7342156    654.20291   0.02117984  0.020574212            4 
 2575000   0.83401178   -7.7606961    653.53641  0.021150046  0.020568306            1 
 2576000   0.81918215   -7.7790759    651.80762  0.021085909  0.020562436            2 
 2577000   0.83666741   -7.7649547    654.11144  0.021152226  0.020556532            2 
 2578000   0.83723628   -7.7592381    653.08881  0.021110965  0.020550567            3 
 2579000   0.83239835      -7.7616    652.16349   0.02107288  0.020544658            1 
 2580000   0.83618465   -7.7876991    653.30438  0.021101563  0.020538765            2 
 2581000   0.85290751   -7.8148611    652.53406  0.021068515  0.020532863            2 
 2582000   0.84411124   -7.7899387    653.47642   0.02109077  0.020526947            2 
 2583000   0.84311388   -7.7825252    652.93796  0.021065233  0.020521041            2 
 2584000   0.81570931   -7.8068357     653.1188  0.021062913  0.020515131            3 
 2585000   0.84878758    -7.801093    653.50814  0.021067316  0.020509198            4 
 2586000   0.84303833   -7.7784545     653.9462  0.021073286  0.020503252            3 
 2587000   0.84462455   -7.7724379    652.65544  0.021023561  0.020497312            1 
 2588000   0.83903438     -7.77646    653.17118  0.021032045   0.02049137            3 
 2589000   0.85315224   -7.7832918      653.404  0.021031415   0.02048543            4 
 2590000   0.85321076   -7.7811125    653.44305  0.021024551  0.020479479            2 
 2591000   0.84832395   -7.7699363    655.18104  0.021072335  0.020473611            3 
 2592000   0.83684982   -7.7586828    654.52313  0.021043053  0.020467731            2 
 2593000   0.82888136   -7.7643691     655.5465  0.021067827  0.020461827            2 
 2594000   0.84112777   -7.7486379    654.26563  0.021018557  0.020455928            2 
 2595000   0.84780331   -7.7902164    654.97289  0.021033169  0.020450053            3 
 2596000   0.83274779   -7.7653352    654.34447  0.021004894  0.020444196            1 
 2597000   0.82569759   -7.7984063    655.00004  0.021017842   0.02043833            2 
 2598000    0.8392704   -7.7760411    653.75957  0.020969963  0.020432467            2 
 2599000   0.83011396   -7.7920642     654.9155  0.020998958  0.020426624            2 
 2600000   0.84456388    -7.805024    654.11752  0.020965305  0.020420778            4 
 2601000   0.83349292   -7.7815651    656.34291  0.021028544  0.020414962            2 
 2602000   0.82614266   -7.7844827    654.83283  0.020972099   0.02040916            2 
 2603000   0.82448498   -7.8126097    653.94129    0.0209355  0.020403359            3 
 2604000   0.83928467   -7.7672704    657.21062  0.021032086  0.020397502            3 
 2605000   0.84104489   -7.7844315    654.97367  0.020952453  0.020391631            3 
 2606000   0.84561591   -7.7862128    654.79353  0.020938652  0.020385792            2 
 2607000   0.84420414   -7.7737545    656.64903  0.020989932  0.020379946            2 
 2608000   0.82762788    -7.768094    657.03218  0.020994126  0.020374125            2 
 2609000   0.84501512   -7.7548867    657.67196  0.021006515  0.020368336            3 
 2610000   0.84138654   -7.7835847    655.55408  0.020930845  0.020362526            5 
 2611000   0.84131224   -7.7825571    656.98901  0.020968627  0.020356685            2 
 2612000   0.83029983   -7.7972344    655.96583  0.020927955  0.020350844            4 
 2613000   0.83033722   -7.8215843    655.10706  0.020892558  0.020344979            1 
 2614000   0.83584762   -7.7507105    656.49371  0.020928772  0.020339122            2 
 2615000   0.83807806   -7.7946871    655.17441  0.020878726  0.020333268            1 
 2616000   0.84953933   -7.7989984    656.72342  0.020920089  0.020327389            2 
 2617000   0.84917716   -7.8166629      656.197  0.020895332  0.020321506            2 
 2618000   0.82136629   -7.7786463     656.7271  0.020904224  0.020315642            2 
 2619000   0.83568167   -7.7571638    657.58484  0.020923535  0.020309828            2 
 2620000    0.8351126   -7.7837181    658.48843  0.020944289  0.020304014            2 
 2621000   0.82882401   -7.8011585    656.56923  0.020875277  0.020298198            2 
 2622000   0.84037237   -7.8017769    657.42639  0.020894559  0.020292366            2 
 2623000   0.81812353   -7.7834869     657.8453  0.020899901  0.020286537            2 
 2624000   0.83569522   -7.7999919    656.17954  0.020839035  0.020280707            1 
 2625000   0.82363388   -7.8390989     656.5478  0.020842787  0.020274886            3 
 2626000   0.82338536   -7.7828082    658.33609    0.0208916  0.020269054            3 
 2627000   0.84058603   -7.7966242    657.24923   0.02084917  0.020263198            2 
 2628000   0.83126023   -7.8165572     655.5703  0.020787998  0.020257339            2 
 2629000   0.84556307   -7.8231499    655.90422  0.020790675  0.020251504            3 
 2630000   0.84697026   -7.8135054     657.2286  0.020824734  0.020245699            2 
 2631000   0.81952125   -7.7809331     657.8748  0.020837286   0.02023986            2 
 2632000   0.82026528   -7.7906842    658.47357  0.020848327   0.02023407            2 
 2633000   0.81694732   -7.8160035    656.96346  0.020792615  0.020228234            5 
 2634000   0.81995036   -7.8116737    657.96756  0.020816488  0.020222384            2 
 2635000   0.82771795    -7.798185    657.64195   0.02079829  0.020216541            3 
 2636000   0.82186513   -7.8168492    656.94893  0.020768492  0.020210719            2 
 2637000   0.82147953   -7.8081167    657.72221  0.020785053  0.020204886            2 
 2638000   0.82855663   -7.7948661    658.65044  0.020806496  0.020199068            1 
 2639000   0.85756023   -7.8293733    656.04547  0.020716353  0.020193232            6 
 2640000   0.83445841    -7.804482    657.97336  0.020769361  0.020187405            1 
 2641000   0.82034792   -7.8672178    656.53436  0.020716091  0.020181527            2 
 2642000   0.83561846   -7.8215172    658.09359  0.020757431  0.020175705            3 
 2643000   0.83296887   -7.8300033    656.90203  0.020712007  0.020169839            3 
 2644000   0.83625616   -7.8422621    657.46938  0.020722056  0.020163984            1 
 2645000   0.84296897   -7.8128981    660.23032  0.020801207  0.020158149            3 
 2646000   0.82789822   -7.7984484    660.05156  0.020787716   0.02015232            2 
 2647000   0.82333186   -7.8268799    659.73546  0.020769911  0.020146516            2 
 2648000   0.83187918   -7.8050492     658.6345   0.02072742  0.020140681            2 
 2649000     0.841543   -7.8149548    658.77027  0.020723866   0.02013485            3 
 2650000   0.84102026   -7.7731331    659.52871  0.020739896  0.020129022            4 
 2651000   0.83330023   -7.7953539    658.63107  0.020703856  0.020123187            3 
 2652000   0.84473868   -7.8262029    657.91598  0.020673579  0.020117319            3 
 2653000    0.8263857   -7.8501276    657.82979  0.020663079  0.020111428            5 
 2654000   0.83645589   -7.8115506    657.71389  0.020651654  0.020105552            2 
 2655000   0.81992362   -7.8245254    658.39152  0.020665145  0.020099659            2 
 2656000   0.84066385   -7.8261497    659.16998  0.020681789  0.020093776            1 
 2657000   0.83728046   -7.8384208    658.86351  0.020664393  0.020087916            1 
 2658000   0.82372702    -7.819039    660.48109  0.020707333  0.020082055            3 
 2659000   0.82374019    -7.847181    658.68627  0.020643295   0.02007619            3 
 2660000   0.82011148   -7.7981101    659.49477  0.020660864  0.020070323            2 
 2661000   0.81284643   -7.8274965    659.83649  0.020663801  0.020064505            2 
 2662000   0.81416739   -7.8113709    658.96239  0.020628675  0.020058693            2 
 2663000   0.82510077   -7.7984783    659.82817  0.020648021  0.020052874            2 
 2664000   0.84241875   -7.8344267    659.81375  0.020639819  0.020047029            3 
 2665000   0.83578353   -7.8212819    659.13047  0.020610709  0.020041168            2 
 2666000   0.81560374    -7.801875    659.55588  0.020616275  0.020035295            3 
 2667000   0.83473904   -7.8625235    657.63764  0.020548608  0.020029403            3 
 2668000   0.82516561   -7.8021297    659.33717   0.02059399  0.020023502            3 
 2669000   0.84861845   -7.8259383    659.28218  0.020584557  0.020017654            3 
 2670000   0.82915864   -7.8425074    659.44002  0.020581773    0.0200118            2 
 2671000   0.81670932   -7.7941057    660.00153  0.020591587  0.020005954            3 
 2672000   0.81263193   -7.8315038    659.23108  0.020559852  0.020000108            1 
 2673000   0.81804913   -7.8223948    661.17583  0.020612789   0.01999426            2 
 2674000   0.82301545   -7.8108681    660.21915  0.020575266  0.019988433            4 
 2675000   0.82540089   -7.8341069    660.39033  0.020572908    0.0199826            2 
 2676000   0.83824714   -7.8064379    660.88796  0.020580716  0.019976779            5 
 2677000   0.81338414   -7.8554195    659.73969  0.020537283  0.019970946            2 
 2678000   0.81165762   -7.8484446     659.6721  0.020527511  0.019965087            3 
 2679000   0.81321965   -7.8362514    660.16284  0.020535114  0.019959264            1 
 2680000   0.83894102   -7.8162893    661.29546   0.02056267  0.019953452            1 
 2681000   0.83745035   -7.8136763    662.19997  0.020583115  0.019947659            2 
 2682000    0.8371556   -7.8305325    660.41439   0.02051996  0.019941812            3 
 2683000   0.82020157   -7.8246545    659.62127  0.020487678  0.019935973            2 
 2684000   0.83393184   -7.8572586    659.37725  0.020472468  0.019930104            2 
 2685000   0.83105933   -7.8264247    659.41066   0.02046588  0.019924305            2 
 2686000   0.83642637   -7.8170057    658.90142  0.020442461  0.019918452            1 
 2687000    0.8062834   -7.8586068    658.49067  0.020422115  0.019912549            2 
 2688000   0.82124893   -7.8376693    659.87169  0.020457332  0.019906648            4 
 2689000   0.82100694   -7.8360424    660.09092  0.020456518  0.019900763            2 
 2690000   0.81242527   -7.8109528    661.41878  0.020490049  0.019894893            1 
 2691000   0.82535583    -7.824943    658.90057  0.020404452  0.019889019            2 
 2692000   0.80093969   -7.8015809    661.29019  0.020470845  0.019883155            1 
 2693000   0.84207258    -7.838444     660.9372  0.020452321  0.019877273            5 
 2694000   0.81648029   -7.8259236    660.70647  0.020437592  0.019871405            4 
 2695000   0.82114152   -7.8248553    660.51295  0.020424024  0.019865512            2 
 2696000   0.81644827   -7.8255202    660.86927  0.020427462  0.019859648            1 
 2697000    0.8204891   -7.8437666    661.06004  0.020425783  0.019853817            3 
 2698000   0.84459046   -7.8328879    658.96094  0.020353377  0.019847972            1 
 2699000   0.82083175   -7.8503987    661.02463  0.020409554  0.019842076            1 
 2700000   0.83971703   -7.8421617    660.96378  0.020400117   0.01983619            1 
 2701000    0.8068859   -7.8164419    660.01955  0.020363432   0.01983034            8 
 2702000   0.83347141   -7.8172492    661.42042    0.0203991  0.019824462            2 
 2703000   0.81771678   -7.8208746    661.58346   0.02039658  0.019818587            2 
 2704000   0.82839963   -7.8229355    659.98406  0.020339745  0.019812737            1 
 2705000   0.79945364   -7.8224134    660.70878  0.020354553  0.019806897            3 
 2706000   0.83340793   -7.8479707    661.71885  0.020378136  0.019801054            3 
 2707000   0.80553773   -7.8254556     662.9304  0.020407906   0.01979518            4 
 2708000   0.79518371   -7.8458952    660.90345  0.020337994   0.01978928            2 
 2709000    0.8182198   -7.8513852    660.04667   0.02030413  0.019783373            3 
 2710000   0.81702707   -7.8552536    662.42112  0.020369653  0.019777494            1 
 2711000   0.81781568   -7.8369758    661.13025  0.020322459  0.019771633            4 
 2712000   0.82738851   -7.8388743    662.32294  0.020351615   0.01976576            6 
 2713000   0.82287293   -7.8352004    661.71473  0.020325431  0.019759928            1 
 2714000   0.83794244   -7.8378829    661.92708  0.020324462  0.019754087            2 
 2715000   0.81574898   -7.8246284    663.61675  0.020368838  0.019748275            3 
 2716000   0.81686522   -7.8303075    662.10103  0.020314833  0.019742448            3 
 2717000   0.81806785   -7.8435958    661.37849  0.020285195  0.019736608            2 
 2718000   0.82531961   -7.8406176    662.58301  0.020314662  0.019730766            2 
 2719000   0.81242873   -7.8232099    664.28397  0.020359322  0.019724992            2 
 2720000   0.81242625   -7.8404906    662.42352  0.020294838  0.019719211            2 
 2721000   0.82668074   -7.8293391    661.89518  0.020271199  0.019713387            3 
 2722000   0.81363357   -7.8231545     661.8197  0.020261441  0.019707578            1 
 2723000    0.8260193   -7.8342603    661.73273  0.020251338  0.019701709            1 
 2724000    0.7998492    -7.838171    663.29221  0.020291612  0.019695845            2 
 2725000    0.8330935   -7.8475966    662.12783  0.020248558  0.019689981            3 
 2726000   0.80519721   -7.8238431    662.24618  0.020244747   0.01968415            2 
 2727000   0.82900485   -7.8206212    662.39767  0.020241953  0.019678296            2 
 2728000   0.79908458   -7.8604463    661.03664  0.020192957  0.019672427            5 
 2729000   0.82018814   -7.8356054    661.75836  0.020207596  0.019666584            2 
 2730000   0.82060736   -7.8176553    663.63766   0.02025756  0.019660759            1 
 2731000   0.81686443   -7.8522698    662.66432  0.020220442  0.019654903            2 
 2732000   0.83432665   -7.8361551    662.26678  0.020200914  0.019649021            2 
 2733000   0.80742427    -7.820729    661.45704  0.020168833  0.019643125            3 
 2734000   0.83416491   -7.8468581    661.61084  0.020166144  0.019637215            2 
 2735000   0.81870061   -7.8118715    662.24931  0.020178224   0.01963137            4 
 2736000   0.81601208   -7.8389516    661.87622  0.020159485  0.019625496            2 
 2737000   0.81827469   -7.8353485    662.94805  0.020184754  0.019619609            2 
 2738000   0.81823098   -7.8452654    662.60711  0.020167005  0.019613741            2 
 2739000   0.80524999    -7.808138    663.57704  0.020189152  0.019607842            1 
 2740000   0.80068645   -7.8656745    661.32595   0.02011332  0.019601943            1 
 2741000   0.80985776    -7.836035    662.74619   0.02014916  0.019596035            2 
 2742000   0.79186173    -7.850224    661.15099  0.020093332  0.019590149            3 
 2743000   0.81477857   -7.8590161    662.64933  0.020131527  0.019584228            3 
 2744000   0.80431522   -7.8528464    662.10962  0.020107799  0.019578292            5 
 2745000   0.82077245   -7.8807372    662.80884  0.020121701  0.019572376            2 
 2746000    0.8031286   -7.8909144    661.95671  0.020088514  0.019566451            4 
 2747000    0.8140692   -7.8732528    662.44532  0.020096024  0.019560535            3 
 2748000   0.80937441   -7.8403952    662.31126  0.020084645  0.019554615            2 
 2749000   0.81669652   -7.8345618    663.31204  0.020107677  0.019548684            1 
 2750000   0.80291493   -7.8144649    664.85977  0.020147266  0.019542779            4 
 2751000   0.81863861   -7.8368372    663.26676  0.020091687  0.019536908            1 
 2752000   0.78329785   -7.8545389    661.43725  0.020028986  0.019530977            1 
 2753000   0.80499987   -7.8397477    663.13332  0.020073051  0.019525044            2 
 2754000   0.81284955   -7.8406667    662.31193  0.020040908  0.019519101            1 
 2755000   0.80678743   -7.8523457    661.80717  0.020018366  0.019513175            3 
 2756000   0.80849739   -7.8617428    660.86816  0.019982709  0.019507271            2 
 2757000   0.81833411   -7.8540125       660.71  0.019970681  0.019501379            2 
 2758000   0.81929015    -7.838555    662.50134  0.020017565  0.019495458            3 
 2759000   0.81631936   -7.8225374    661.72913  0.019986986  0.019489553            1 
 2760000   0.81936499   -7.8405464      663.436   0.02003128   0.01948367            2 
 2761000   0.81352803   -7.8741616    662.36979  0.019991844  0.019477757            2 
 2762000   0.81317711   -7.8669939    662.61552   0.01999202   0.01947183            3 
 2763000   0.80443919   -7.8276455    662.61131  0.019984658  0.019465933            2 
 2764000   0.81735512   -7.8329344    663.27945  0.019997571  0.019460001            3 
 2765000   0.80374215   -7.8615985    663.00377  0.019982031  0.019454059            2 
 2766000   0.82165188   -7.8621963    663.25181  0.019982279  0.019448155            1 
 2767000   0.82515716   -7.8521186    664.18314  0.020003106  0.019442269            2 
 2768000   0.82059509   -7.8485965    664.31478  0.019999843  0.019436377            2 
 2769000   0.81562281   -7.8653338    663.57135  0.019970246  0.019430472            1 
 2770000   0.80764746   -7.8715205    664.40321  0.019988063  0.019424592            2 
 2771000   0.81650009   -7.8847069    661.10897  0.019881781  0.019418678            2 
 2772000   0.80309871   -7.8496659    664.68759  0.019982191  0.019412747            2 
 2773000    0.7937809   -7.8533897    663.65163  0.019943852  0.019406818            2 
 2774000   0.80286559   -7.8413475    662.86369  0.019912992  0.019400906            2 
 2775000   0.82676024   -7.8292971    663.08799  0.019912552  0.019395037            3 
 2776000   0.81306087   -7.8554014    663.69576  0.019923624  0.019389164            2 
 2777000   0.82227326    -7.856694    663.71215  0.019916941  0.019383291            3 
 2778000   0.83841652   -7.8654802    663.45922  0.019902184  0.019377432            2 
 2779000   0.80502801   -7.8363032    665.06502  0.019943176  0.019371573            2 
 2780000   0.80155507   -7.8442187     665.3192  0.019943621   0.01936574            4 
 2781000   0.80200303   -7.8442884    664.17968  0.019902304  0.019359893            2 
 2782000   0.80563913   -7.8254102    666.18397  0.019955187  0.019354072            7 
 2783000   0.80934573    -7.848641    665.02727  0.019913381  0.019348259            2 
 2784000   0.81364439   -7.8342141    666.15997  0.019940133  0.019342451            2 
 2785000   0.79229737   -7.8514365    665.02651  0.019899058  0.019336655            3 
 2786000   0.81124068   -7.8783155    664.97448  0.019890359  0.019330848            3 
 2787000   0.80645836   -7.8788385    666.14297  0.019918161  0.019325052            5 
 2788000   0.79919972   -7.8452027    666.10518  0.019909887  0.019319261            1 
 2789000   0.80169391   -7.8676919     665.1685  0.019874761  0.019313462            2 
 2790000   0.80296204   -7.8681017    666.70251  0.019913456  0.019307711            1 
 2791000   0.79800603    -7.889389    666.62999  0.019904156  0.019301928            2 
 2792000   0.79625383    -7.845807    665.87595  0.019874521  0.019296155            2 
 2793000   0.80112989   -7.8233098    666.45675  0.019884734  0.019290347            1 
 2794000   0.80826313   -7.8703148    666.11198  0.019867334  0.019284593            4 
 2795000   0.79133499   -7.8747634    666.47988  0.019871195  0.019278849            2 
 2796000   0.82673316   -7.8911695    665.34006  0.019830116  0.019273099            2 
 2797000   0.79874241   -7.8600192    666.79669  0.019866425  0.019267353            3 
 2798000   0.81615986    -7.898609    666.48606  0.019850073  0.019261611            2 
 2799000   0.77781346   -7.8620193    667.25811  0.019865967  0.019255872            1 
 2800000   0.80200428   -7.8463859    666.84936  0.019846707  0.019250118            2 
 2801000   0.80311434   -7.8663725    665.16664  0.019789558  0.019244337            4 
 2802000   0.78946979   -7.8679729     667.3951  0.019848772  0.019238556            2 
 2803000    0.8052933   -7.8641397    666.13006  0.019804081  0.019232782            3 
 2804000   0.79794253   -7.8702014    665.97366   0.01979237  0.019226997            2 
 2805000   0.78876716   -7.8843475     667.6875   0.01983623   0.01922118            2 
 2806000   0.82167897   -7.8748733    667.68707  0.019829148   0.01921538            2 
 2807000   0.80054686   -7.8497218    666.90491  0.019798863  0.019209574            2 
 2808000     0.801192   -7.8392223    667.26218  0.019802415   0.01920379            4 
 2809000   0.79279115   -7.8580893    666.01998  0.019758514  0.019197993            2 
 2810000   0.78530866   -7.8616455    666.12885  0.019754711  0.019192158            5 
 2811000   0.80038635   -7.8542575     666.3868   0.01975533  0.019186324            3 
 2812000    0.8212543   -7.8671368    666.95118   0.01976503   0.01918052            3 
 2813000   0.80361114   -7.8932721    666.19828    0.0197357  0.019174696            6 
 2814000   0.82016858   -7.8941379     665.5832  0.019710471  0.019168852            3 
 2815000   0.78589548   -7.8687232    664.29006  0.019665188  0.019162999            1 
 2816000   0.80550505   -7.8798767    666.45016  0.019722128  0.019157149            2 
 2817000    0.8183215   -7.8548225    665.76754  0.019694934  0.019151317            3 
 2818000   0.79423652   -7.8711182    666.07028  0.019696897  0.019145474            2 
 2819000   0.78114401    -7.903003    665.39436  0.019669929  0.019139613            3 
 2820000   0.79037753   -7.8774899    665.32492  0.019660902  0.019133764            3 
 2821000   0.80222067   -7.8810674    666.80966  0.019697792  0.019127921            2 
 2822000    0.8030402   -7.8829469    666.35865  0.019677494  0.019122053            3 
 2823000   0.79238318   -7.8767313    666.75483  0.019682218  0.019116229            3 
 2824000   0.81340617   -7.8856906    666.03716  0.019654071  0.019110411            1 
 2825000    0.7905408   -7.9072058    666.14925   0.01965042  0.019104582            3 
 2826000   0.79676986   -7.9073415    665.48572  0.019623901  0.019098725            2 
 2827000   0.79472066   -7.8673696    667.65268  0.019680836  0.019092861            3 
 2828000   0.78864148   -7.8704395    667.20068  0.019660557  0.019087033            3 
 2829000    0.7946096   -7.8680655    667.37857  0.019658848   0.01908118            3 
 2830000    0.7969078   -7.8806652    666.95809   0.01963952   0.01907534            5 
 2831000   0.82331503   -7.8717932    667.01717  0.019634322   0.01906952            4 
 2832000   0.78625864     -7.88561    666.84537  0.019622333  0.019063672            1 
 2833000   0.79238804   -7.8902434    667.94493   0.01964775  0.019057826            2 
 2834000   0.79687659   -7.8765341    668.51112  0.019657466  0.019052031            2 
 2835000   0.80093328   -7.8822251    667.61024  0.019624052   0.01904627            2 
 2836000   0.78997816   -7.9048196    668.44557  0.019641677  0.019040503            1 
 2837000   0.80192172   -7.8712487    668.77358  0.019644389  0.019034732            3 
 2838000   0.79004595    -7.856506    669.12359  0.019647745  0.019028941            6 
 2839000    0.8037188   -7.8917493    668.03568   0.01960889  0.019023172            2 
 2840000   0.79774421   -7.8161631    668.34254   0.01961099  0.019017412            2 
 2841000   0.79275637   -7.8662093    668.46671  0.019607729  0.019011651            2 
 2842000   0.78898401   -7.8755242    667.84205  0.019582514  0.019005885            2 
 2843000   0.80455651   -7.9004998    666.68816  0.019541803  0.019000082            2 
 2844000    0.8023843   -7.9208092    667.00846  0.019544317  0.018994302            2 
 2845000   0.78283658   -7.8685476    667.65251  0.019556313  0.018988523            3 
 2846000   0.80623951   -7.8882655    666.61133  0.019518954  0.018982727            2 
 2847000   0.79348017   -7.9150787    667.73232  0.019544911  0.018976929            1 
 2848000   0.79689246   -7.8831413    666.45319   0.01950062  0.018971122            3 
 2849000   0.80861372   -7.9040581    667.25885  0.019517341  0.018965342            2 
 2850000   0.79853982   -7.9003739    667.43612  0.019515676  0.018959561            5 
 2851000    0.8000288   -7.9008546    668.39682  0.019536911   0.01895375            3 
 2852000   0.80048092   -7.8798798    668.83804  0.019542953  0.018947972            1 
 2853000   0.80334001   -7.8952924    668.61203  0.019529502  0.018942192            2 
 2854000   0.79918494   -7.9013835    667.20179  0.019481482  0.018936404            2 
 2855000   0.80718731   -7.8902461    668.65912  0.019517195   0.01893063            2 
 2856000   0.77196254    -7.893546    668.18225  0.019496448  0.018924852            1 
 2857000   0.80484859   -7.9209793    668.20229  0.019490208  0.018919071            3 
 2858000   0.80534386   -7.9075623     668.7063  0.019498084  0.018913281            2 
 2859000   0.80205092   -7.8772285    669.06943  0.019501849  0.018907496            5 
 2860000   0.80149748   -7.9301099    668.00746  0.019464087  0.018901732            3 
 2861000   0.78554877   -7.8807931    670.02522  0.019516056  0.018895973            2 
 2862000   0.79915795   -7.8829189     670.4411  0.019521346  0.018890217            3 
 2863000   0.80337269   -7.9078755    669.06011  0.019474331  0.018884404            2 
 2864000   0.80606204   -7.9005385    668.89254  0.019462655  0.018878631            1 
 2865000   0.79098829   -7.8718595    669.78429    0.0194818  0.018872871            2 
 2866000   0.78858179   -7.9080546     669.0966  0.019455007  0.018867104            2 
 2867000   0.80720791   -7.8696882    667.85819  0.019412225  0.018861306            2 
 2868000   0.78760635   -7.9110431    668.29534  0.019418158  0.018855526            2 
 2869000   0.79053029   -7.8768021    668.54837   0.01941874  0.018849767            1 
 2870000   0.78267875   -7.9101087    667.77524  0.019389525   0.01884401            2 
 2871000   0.79288302   -7.8954804    668.28204  0.019397482  0.018838232            2 
 2872000   0.79773861   -7.9194542    668.37092  0.019393307   0.01883245            2 
 2873000   0.80164304   -7.8976221    667.95918  0.019374614  0.018826686            2 
 2874000   0.79172551   -7.9046472    668.76984  0.019391378  0.018820959            1 
 2875000   0.80568282   -7.8779178    670.79774  0.019443413   0.01881526            1 
 2876000   0.79277869   -7.8860096    669.66778  0.019403911  0.018809565            3 
 2877000    0.7812708   -7.8803127    670.65987  0.019425903  0.018803896            2 
 2878000    0.7853731   -7.8541975    672.24742  0.019465121  0.018798199            4 
 2879000   0.78812735   -7.9007188    670.00274  0.019393387  0.018792504            2 
 2880000   0.78628741   -7.9064575    670.07601  0.019388773  0.018786808            5 
 2881000   0.78596917    -7.877177     671.0434  0.019410025  0.018781128            2 
 2882000   0.79825864   -7.8989947    670.13647  0.019377066  0.018775486            3 
 2883000   0.78369847   -7.8982125    670.62478   0.01938446  0.018769824            3 
 2884000   0.78050821    -7.913331    670.68183  0.019379387  0.018764134            2 
 2885000   0.77940671   -7.9385341    670.97661  0.019381184  0.018758468            3 
 2886000   0.79886709   -7.9191202    669.03247  0.019318332  0.018752751            2 
 2887000   0.80125028   -7.9263191    670.51522   0.01935444  0.018747042            2 
 2888000   0.80053047    -7.940311    670.36504  0.019343405  0.018741305            5 
 2889000   0.79941097   -7.9033258    668.83038  0.019292442  0.018735577            2 
 2890000   0.78234633    -7.913486    668.68577  0.019281597  0.018729825            1 
 2891000   0.79210527   -7.9325305    669.83954  0.019308185   0.01872409            4 
 2892000   0.77303773   -7.9067785    669.73854  0.019298598  0.018718355            3 
 2893000    0.7940161   -7.9121026    669.96883   0.01929856  0.018712637            3 
 2894000   0.77900155   -7.8913812    672.18237  0.019355631  0.018706927            2 
 2895000   0.78314011   -7.9188508     671.2826  0.019323045  0.018701213            3 
 2896000   0.78694212   -7.9132198    671.52623  0.019323384  0.018695501            3 
 2897000   0.80683829   -7.9266593    671.33507  0.019311215  0.018689771            4 
 2898000   0.78121726   -7.9212811    669.34997  0.019247469  0.018684075            3 
 2899000   0.79442841   -7.9074824    671.16851  0.019293104  0.018678413            2 
 2900000   0.79022702   -7.9039328    671.14961  0.019285908  0.018672754            2 
 2901000   0.77677387   -7.9281108    671.25033  0.019282154   0.01866707            1 
 2902000   0.77979816   -7.9204762    672.73541  0.019318154  0.018661402            2 
 2903000    0.7680617   -7.8975322    673.13199  0.019322884  0.018655742            4 
 2904000   0.78298099   -7.9132892    670.83304  0.019250259  0.018650081            2 
 2905000   0.79578281   -7.9241234    671.58262  0.019265135  0.018644395            1 
 2906000   0.78726495   -7.9401732    670.84213  0.019237272  0.018638717            2 
 2907000   0.78574907   -7.9372483    671.28893  0.019243462  0.018633032            2 
 2908000   0.77311149   -7.9265057    670.75871   0.01922165  0.018627352            2 
 2909000   0.79324425   -7.9666908    670.72065  0.019213952   0.01862166            3 
 2910000   0.79585952   -7.9343625     670.2037  0.019192546  0.018615968            2 
 2911000   0.80871524   -7.9102108     671.2551  0.019216051  0.018610306            4 
 2912000   0.79434783   -7.9162904    670.80733  0.019196638   0.01860466            3 
 2913000   0.79458663   -7.9244456    672.93328  0.019250866  0.018598996            3 
 2914000   0.77001741   -7.9139774    672.11344  0.019220814  0.018593337            2 
 2915000    0.7796115   -7.9244543    671.96318  0.019209925  0.018587685            2 
 2916000   0.77320901   -7.9463488      670.712  0.019167581  0.018582039            5 
 2917000   0.78725258   -7.9202797    672.96028  0.019225239  0.018576401            1 
 2918000    0.8005615   -7.9317776    672.64514  0.019209651  0.018570783            3 
 2919000   0.78688455    -7.925731    671.13952  0.019160087  0.018565148            2 
 2920000   0.79492844   -7.9445441    672.93792  0.019204849  0.018559537            4 
 2921000   0.78296264   -7.9536854    672.07971  0.019173791  0.018553905           10 
 2922000   0.79346436   -7.9229522    672.68253  0.019184421  0.018548267            4 
 2923000   0.79146071   -7.9481389     672.1688  0.019163211  0.018542638            4 
 2924000   0.80192036   -7.8964817    672.25532  0.019159123  0.018536995            6 
 2925000   0.79019219   -7.9221078    673.41834  0.019185708  0.018531377            3 
 2926000   0.79601682   -7.9184233    671.95627   0.01913751  0.018525757            5 
 2927000   0.79677421   -7.9287172    672.11638  0.019135531  0.018520123            2 
 2928000   0.77753286   -7.9629778    672.75925  0.019147292  0.018514493            3 
 2929000   0.77833584   -7.9144535     672.8809  0.019144216  0.018508838            2 
 2930000   0.77633347   -7.9677736    671.76626   0.01910598  0.018503217            1 
 2931000   0.79176031   -7.9043761     673.0865  0.019136998  0.018497602            4 
 2932000   0.79811106   -7.9609351     673.0812  0.019130321  0.018491998            3 
 2933000   0.76914959   -7.9163666    673.57227  0.019137751  0.018486377            2 
 2934000   0.76911278   -7.9178746    673.97632  0.019142704  0.018480786            2 
 2935000   0.79171519   -7.9048427    675.24882  0.019172312   0.01847521            2 
 2936000   0.79707825   -7.9110583    673.85442  0.019126204  0.018469622            5 
 2937000   0.77466531   -7.8995418    674.16866  0.019128608  0.018464007            3 
 2938000   0.77911813   -7.9173229    674.01385  0.019117706   0.01845841            3 
 2939000   0.76692121   -7.9226358    675.72237  0.019159645  0.018452813            3 
 2940000   0.78961881   -7.9284858    674.67137  0.019123338  0.018447219            1 
 2941000   0.76898709   -7.9270265    674.14597  0.019101949  0.018441621            3 
 2942000   0.79583736   -7.9092248    673.73214  0.019083734   0.01843602            3 
 2943000   0.78526764   -7.9501904    673.32663  0.019065767   0.01843044            3 
 2944000   0.79387603    -7.922924    674.33981   0.01908797   0.01842485            1 
 2945000   0.77225747   -7.9417716    675.25643  0.019107426  0.018419273            3 
 2946000   0.78111459   -7.9314707    674.30886  0.019074136  0.018413675            3 
 2947000     0.768264    -7.937724    672.20859  0.019008274  0.018408062            2 
 2948000   0.78005099   -7.9401901    674.03058  0.019053329  0.018402441            3 
 2949000   0.78292842   -7.9301698    673.54896  0.019033259  0.018396826            3 
 2950000   0.78277081   -7.9321683    673.62987  0.019029092  0.018391209            1 
 2951000   0.78744729   -7.9464449    672.74829  0.018997749  0.018385602            1 
 2952000   0.78547747   -7.9135569    674.59245  0.019043373  0.018380006            1 
 2953000   0.76895366   -7.9473094     673.6285  0.019009722  0.018374404            3 
 2954000   0.76848969   -7.9427617    675.03324  0.019042915  0.018368822            3 
 2955000   0.78448701   -7.9514362    674.23195  0.019013873   0.01836322            1 
 2956000   0.78353155   -7.9278035    674.01054  0.019001199  0.018357635            4 
 2957000   0.76068632   -7.9377779    674.27477   0.01900222  0.018352057            1 
 2958000   0.77828872   -7.9348369    674.70671  0.019007964  0.018346475            3 
 2959000   0.76793505   -7.9307309    675.22159  0.019016041  0.018340881            2 
 2960000   0.78876873     -7.95069    675.06284  0.019005147   0.01833533            3 
 2961000   0.77403149   -7.9222425    674.37217  0.018979291  0.018329742            2 
 2962000   0.79441622   -7.9125454    674.96691  0.018989616  0.018324174            1 
 2963000   0.77342535   -7.9530039    674.95822  0.018982963  0.018318631            2 
 2964000   0.77557079   -7.9435593    674.81511  0.018972535  0.018313076            2 
 2965000   0.77043646   -7.9231547    676.59661  0.019016206  0.018307521            2 
 2966000   0.77575206   -7.9209082     675.6038    0.0189819  0.018301987            3 
 2967000   0.78663581   -7.9115751    673.93792  0.018928714  0.018296429            1 
 2968000    0.7779195   -7.9398222    675.02173  0.018952766  0.018290904            1 
 2969000   0.78370391   -7.9234682    675.20709  0.018951585  0.018285397            1 
 2970000   0.75470815   -7.9353642    675.96237  0.018966396  0.018279835            1 
 2971000   0.76824053   -7.9541229    672.67614  0.018867837   0.01827426            1 
 2972000   0.76631944   -7.9364141    674.73926  0.018919338  0.018268662            2 
 2973000   0.77884942   -7.9335344    675.62592  0.018937827   0.01826309            3 
 2974000   0.76861455   -7.9504916    674.85895  0.018909968  0.018257518            2 
 2975000   0.78637789   -7.9338659    673.86385  0.018875738  0.018251917            3 
 2976000    0.7764615    -7.940671    673.75872  0.018866452  0.018246314            2 
 2977000   0.77583242   -7.9439258    674.59783  0.018883603  0.018240756            3 
 2978000   0.77319874   -7.9283863    673.62146   0.01884994  0.018235171            2 
 2979000   0.75673167   -7.9668663    673.59696  0.018842927  0.018229585            8 
 2980000   0.76094719   -7.9541482    673.60812  0.018836916  0.018223953            4 
 2981000   0.78622903   -7.9482286    674.58862  0.018858007   0.01821835            2 
 2982000   0.78352251   -7.9636227    674.10043   0.01883804  0.018212734            3 
 2983000   0.76532373     -7.95848     675.3301  0.018866077  0.018207125            1 
 2984000   0.78101817   -7.9494054    674.13903  0.018826492  0.018201525            3 
 2985000   0.78445678   -7.9362593    674.98821  0.018843892  0.018195922            2 
 2986000   0.79210353   -7.9377739    674.69418  0.018829375  0.018190319            2 
 2987000   0.78988936   -7.9324949    672.59783  0.018764586  0.018184694            1 
 2988000   0.77296806   -7.9569758    674.82087  0.018820305  0.018179089            3 
 2989000   0.77759262   -7.9635269    674.22683  0.018797447  0.018173498            1 
 2990000   0.76259415   -7.9333933    675.80545  0.018835157  0.018167899            3 
 2991000   0.75691153   -7.9741867    674.90736  0.018803838   0.01816231            2 
 2992000   0.76668497   -7.9664485     674.2617  0.018779571  0.018156693            4 
 2993000   0.76619896    -7.971313    674.22572  0.018772294  0.018151107            4 
 2994000   0.77065866   -7.9527161    676.46767  0.018828425  0.018145496            2 
 2995000   0.77654189   -7.9422645    674.37894  0.018764022  0.018139915            3 
 2996000   0.77744525   -7.9441781    674.23489  0.018753752  0.018134329            1 
 2997000   0.78358433   -7.9342516    676.13648  0.018800369  0.018128758            3 
 2998000   0.76172965   -7.9736554    675.81063  0.018785041  0.018123167            1 
 2999000   0.76945929   -7.9610628     675.0953    0.0187589  0.018117596            2 
 3000000   0.77560187   -7.9522177     674.9935   0.01874982  0.018112014            3 
 3001000   0.75736595   -7.9236698     676.4599  0.018784291  0.018106447            3 
 3002000   0.76646933   -7.9562279    675.28931  0.018745539  0.018100868            2 
 3003000   0.76104527   -7.9643963    674.79337  0.018725535  0.018095262            1 
 3004000     0.779686   -7.9766087    676.29633  0.018760995  0.018089679            2 
 3005000   0.77488936   -7.9496171    674.20111  0.018696647  0.018084093            3 
 3006000   0.77353272   -7.9483295    676.66628  0.018758768  0.018078521            4 
 3007000   0.75027243   -7.9597798    676.90299   0.01875909  0.018072952            3 
 3008000   0.77172183   -7.9414871     677.2592  0.018762722  0.018067394            1 
 3009000   0.76246613    -7.974598    674.51232  0.018680412   0.01806182            4 
 3010000   0.76251748   -7.9280782    676.04131  0.018716537  0.018056249            3 
 3011000   0.76381978   -7.9349156    675.71607  0.018701319  0.018050696            1 
 3012000   0.77448824   -7.9283993    676.64617  0.018720844   0.01804517            4 
 3013000   0.77128905   -7.9739145     674.8725  0.018665574  0.018039627            2 
 3014000   0.77634952    -7.945179    676.70299  0.018709992  0.018034103            4 
 3015000   0.76444046    -7.918222    676.56637   0.01870001  0.018028592            2 
 3016000   0.76650902   -7.9636767    676.09848  0.018680882  0.018023066            2 
 3017000   0.75644965    -7.909946    677.11235  0.018702694  0.018017559            3 
 3018000    0.7849683   -7.9499771    677.30168  0.018701725  0.018012058            1 
 3019000   0.76525376   -7.9181772    676.41513  0.018671059  0.018006562            3 
 3020000   0.76329907    -7.945218    675.88717  0.018650308  0.018001063            2 
 3021000   0.76658686    -7.919853    676.39211  0.018658063  0.017995535            3 
 3022000   0.76938775   -7.9525235    675.24806  0.018620341  0.017990005            4 
 3023000   0.76816423   -7.9654917    675.25391  0.018614343  0.017984471            1 
 3024000   0.76763861   -7.9830008     676.1609  0.018633182  0.017978924            2 
 3025000   0.77159744   -7.9719776    674.42821  0.018579289  0.017973371            5 
 3026000   0.75876896   -7.9535292    675.45094  0.018601315  0.017967821            3 
 3027000   0.75760824   -7.9704314    675.64983  0.018600645   0.01796227            4 
 3028000   0.76693572   -7.9382878    676.39595  0.018615036  0.017956721            3 
 3029000   0.77092307   -7.9617762    676.17856   0.01860291  0.017951199            4 
 3030000   0.76373455    -7.959204    677.14328  0.018623302   0.01794567            6 
 3031000   0.75224957   -7.9691314    677.27526  0.018620787  0.017940135            1 
 3032000   0.76154655   -7.9247472    677.65338  0.018625038  0.017934631            2 
 3033000   0.76930616   -7.9619287    678.10279  0.018631245  0.017929124            2 
 3034000   0.76750014   -7.9325857    678.64546  0.018640009  0.017923621            3 
 3035000   0.75748135   -7.9564164    676.55116  0.018576364  0.017918101            3 
 3036000   0.75392566   -7.9623866    674.52865   0.01851473  0.017912577            3 
 3037000   0.77979682   -7.9567004    676.28744  0.018556894  0.017907043            2 
 3038000   0.76400673   -7.9961334    675.73289  0.018535574  0.017901509            4 
 3039000   0.76346914    -7.965636    676.62007  0.018553802  0.017895965            4 
 3040000   0.75978954   -7.9658272    676.62968  0.018547963  0.017890441            2 
 3041000   0.75805126   -7.9365356    677.80219  0.018573994  0.017884917            4 
 3042000   0.76379845   -7.9379309    677.20147  0.018551432  0.017879414            2 
 3043000   0.76824597   -7.9668039    676.87597  0.018536421  0.017873893            2 
 3044000   0.75399357   -7.9503565    675.80309  0.018500961  0.017868377            2 
 3045000   0.77860456   -7.9795785    675.55744  0.018488162  0.017862845            2 
 3046000   0.75496077    -7.966656    676.13049   0.01849777  0.017857279            3 
 3047000   0.75606525   -7.9746318    676.35051  0.018497717  0.017851734            4 
 3048000   0.76063764   -7.9712468    677.11304  0.018512495  0.017846191            3 
 3049000   0.76718756    -7.979416    674.64811  0.018439054  0.017840659            3 
 3050000   0.75587203   -7.9626309    677.70325  0.018516482  0.017835135            2 
 3051000   0.75898266   -7.9662179    676.56785  0.018479402  0.017829589            3 
 3052000   0.76421266   -7.9910383    676.70642   0.01847713  0.017824042            2 
 3053000   0.75363842   -7.9801015    677.37909  0.018489439  0.017818491            2 
 3054000   0.77517302   -7.9722768     676.8542  0.018469062  0.017812946            2 
 3055000   0.76573815   -7.9787444    677.95474  0.018493037  0.017807406            5 
 3056000   0.76022391   -7.9876735    676.93144  0.018459082  0.017801849            2 
 3057000   0.75618105   -7.9972442    675.70629  0.018419646  0.017796296            2 
 3058000   0.74468615   -7.9604626    677.73043  0.018468782  0.017790733            6 
 3059000   0.76562723   -7.9704715    677.03688  0.018443851  0.017785184            2 
 3060000   0.77016436   -7.9658639    675.49789  0.018395912  0.017779622            1 
 3061000   0.76050202   -8.0212937    676.11123    0.0184066  0.017774042            1 
 3062000   0.74863002   -8.0105648    675.02541  0.018371038  0.017768475            4 
 3063000   0.76912297   -7.9645404    675.53577  0.018378925  0.017762918            3 
 3064000    0.7666529   -7.9937694    675.29666  0.018366423  0.017757399            3 
 3065000   0.76799345   -7.9783704    677.32035  0.018415453  0.017751852            1 
 3066000   0.74797627   -7.9954429     676.5469  0.018388424  0.017746322            3 
 3067000   0.76157831   -7.9804399    677.01279  0.018395087  0.017740792            2 
 3068000   0.74427286   -7.9678136    677.89816   0.01841314  0.017735247            3 
 3069000   0.75031086   -7.9644182    677.25792  0.018389756  0.017729712            2 
 3070000   0.73676541   -7.9920909    677.21947  0.018382722  0.017724207            1 
 3071000   0.74769128   -7.9969326    678.02291  0.018398538  0.017718674            3 
 3072000   0.75275371   -7.9782683    677.74506  0.018385011  0.017713171            2 
 3073000   0.76357878   -7.9832731    676.53069  0.018346097  0.017707673            2 
 3074000   0.75819625   -7.9764397    677.93251  0.018378131  0.017702148            4 
 3075000    0.7698857   -7.9848253    676.85006   0.01834282   0.01769664            3 
 3076000   0.75217468   -7.9466082    677.99599  0.018367902  0.017691124            1 
 3077000   0.74832417   -8.0020211    677.94378  0.018360518  0.017685596            2 
 3078000   0.76816315   -7.9728456    677.46456  0.018341579   0.01768009            1 
 3079000   0.77414438   -7.9814289    677.49741  0.018336511  0.017674586            1 
 3080000   0.76119276   -8.0028115    676.24509  0.018296675  0.017669093            1 
 3081000   0.75673301   -7.9888465    677.00491  0.018311287  0.017663585            3 
 3082000   0.75996416    -7.969228    679.07819  0.018361405  0.017658125            3 
 3083000   0.76430914   -7.9710782    679.00925  0.018353585  0.017652662            1 
 3084000   0.74853839   -7.9749911    679.05414  0.018348847  0.017647217            2 
 3085000   0.77138651   -8.0090009    677.52071  0.018301478  0.017641778            2 
 3086000   0.74760062   -7.9872982    678.65552  0.018326191  0.017636311            7 
 3087000   0.75648218   -7.9715913    678.97224  0.018328805   0.01763085            4 
 3088000   0.75126364   -8.0072459    677.36594  0.018279521  0.017625393            2 
 3089000    0.7429199   -7.9818365    678.92124  0.018315562  0.017619927            2 
 3090000   0.76923322   -8.0210498    678.55483  0.018299753  0.017614452            2 
 3091000   0.74868437   -7.9817033    678.77967  0.018299894  0.017608978            2 
 3092000   0.74887674   -7.9745078    678.94999  0.018298566  0.017603508            3 
 3093000   0.75308992     -8.00243    679.42362  0.018305411  0.017598049            2 
 3094000   0.74344679   -7.9837114    677.77999  0.018255225  0.017592583            3 
 3095000   0.74742174   -8.0032985    676.61494  0.018217957  0.017587109            1 
 3096000   0.75256203   -8.0114408    677.27026  0.018229712  0.017581611            5 
 3097000   0.77802082   -8.0064457    677.69602  0.018235282  0.017576151            2 
 3098000   0.74516315   -8.0096428    677.18058  0.018215531  0.017570714            4 
 3099000   0.76844764   -7.9814483    678.75173  0.018251902  0.017565241            2 
 3100000   0.75866995   -8.0107299    678.44707  0.018237824  0.017559751            2 
 3101000   0.74455827   -8.0102559    677.88206   0.01821676  0.017554261            3 
 3102000   0.75810307   -8.0118403    679.26522  0.018248045   0.01754877            2 
 3103000   0.76885897   -7.9920554    678.18696  0.018213207  0.017543284            2 
 3104000   0.75536404   -8.0362734    679.55195  0.018243985  0.017537792            2 
 3105000   0.75522908   -8.0048345    678.91844  0.018221107  0.017532301            2 
 3106000    0.7621972   -8.0015378    677.55811  0.018178743  0.017526837            2 
 3107000   0.74111123   -8.0043473    678.15854  0.018188996   0.01752136            1 
 3108000    0.7596451   -7.9948164    679.76287   0.01822616  0.017515902            1 
 3109000   0.75657658   -7.9887196    679.59181  0.018215713  0.017510464            9 
 3110000   0.76406673   -8.0020011    678.50453  0.018180722  0.017505014            2 
 3111000   0.77330105   -8.0160258    678.16146  0.018165688  0.017499551            1 
 3112000   0.75387206   -8.0349255    678.53273  0.018169793    0.0174941            4 
 3113000   0.74026714   -8.0086518    679.53428  0.018190767  0.017488654            1 
 3114000   0.75833208   -7.9928453     680.6789  0.018215556  0.017483237            3 
 3115000   0.75529624   -8.0130955    678.95151  0.018163497  0.017477795            2 
 3116000   0.75325769   -8.0064293    679.75906  0.018179265  0.017472347            2 
 3117000   0.75593989   -8.0230182    678.85079   0.01814915  0.017466921            1 
 3118000   0.75259377   -8.0278397    679.64849  0.018164649  0.017461497            1 
 3119000   0.74518583   -8.0090952    680.53012   0.01818238  0.017456052            3 
 3120000    0.7514248   -8.0074034    678.90462  0.018133136  0.017450606            2 
 3121000   0.75267248   -8.0093661    680.45819  0.018168808  0.017445188            1 
 3122000   0.76980471   -8.0156218    679.09603  0.018126629  0.017439786            3 
 3123000   0.75850351   -7.9722428    680.53609  0.018159251  0.017434379            5 
 3124000   0.75092262   -8.0217692    680.31602  0.018147568  0.017428956            5 
 3125000   0.76326779    -8.001385    679.69123  0.018125099  0.017423531            2 
 3126000   0.76314969   -7.9922278    679.74776  0.018120808  0.017418134            1 
 3127000   0.75730147    -8.049171    678.54831  0.018083048  0.017412723            4 
 3128000   0.75864329   -7.9939788    680.42744   0.01812733   0.01740733            2 
 3129000    0.7440101   -7.9993816    680.80004   0.01813146  0.017401936            3 
 3130000   0.77056847   -8.0147335    679.24163  0.018084176  0.017396556            5 
 3131000   0.74087246   -7.9697101    681.20773  0.018130728  0.017391166            4 
 3132000   0.75438474   -7.9671651    681.65811  0.018136923  0.017385802            1 
 3133000    0.7495927   -7.9690535    681.58077  0.018129077  0.017380449            2 
 3134000    0.7595708   -7.9759689    680.89481  0.018105052  0.017375098            2 
 3135000   0.74580031   -7.9797701    682.12546   0.01813199  0.017369749            4 
 3136000   0.76853868   -7.9684616    682.59501  0.018138685  0.017364424            1 
 3137000   0.75045845   -7.9873312    681.16641  0.018094953  0.017359086            2 
 3138000   0.73064616   -8.0125631    681.40035  0.018095399  0.017353723            1 
 3139000   0.75940762    -8.008378    682.42063   0.01811672  0.017348384            2 
 3140000   0.76737555     -7.99485    682.14899  0.018103742  0.017343066            2 
 3141000      0.76746   -8.0084619    681.37404  0.018077418  0.017337743            3 
 3142000   0.74130051   -7.9918067    681.57101  0.018076889  0.017332401            2 
 3143000    0.7578411   -8.0221142    681.36952  0.018065795  0.017327057            1 
 3144000   0.74476157   -7.9979346     680.6659  0.018041399  0.017321707            3 
 3145000    0.7524797   -8.0161075    681.19625  0.018049715  0.017316363            2 
 3146000   0.75825796   -7.9785372     681.2381  0.018045086  0.017311035            3 
 3147000   0.75011524   -8.0169571    681.29125   0.01804076  0.017305709            2 
 3148000   0.75522281   -7.9797249    681.70052  0.018045863  0.017300383            1 
 3149000   0.76068891   -7.9671169    682.19218  0.018053143  0.017295069            2 
 3150000     0.734806   -7.9976213     681.3596  0.018025386  0.017289759            3 
 3151000    0.7284087   -8.0123788     681.8785  0.018033389  0.017284433            3 
 3152000   0.74487013   -8.0169331    681.66671  0.018022068  0.017279082            4 
 3153000    0.7496352   -8.0043968    681.53709  0.018012927  0.017273739            3 
 3154000    0.7410802   -8.0390112    681.26637  0.018000062  0.017268412            6 
 3155000   0.74147108   -8.0004526    680.96494  0.017986396  0.017263069            2 
 3156000   0.74387596   -7.9977931    680.99929  0.017981603  0.017257727            4 
 3157000   0.75828031   -8.0223778    681.68661  0.017994051  0.017252381            3 
 3158000   0.74951355   -7.9964953    680.72456  0.017962966  0.017247036            4 
 3159000   0.76442486   -8.0121697    682.40694   0.01800166   0.01724171            4 
 3160000   0.76737251   -8.0370156    680.40777  0.017943243  0.017236383            3 
 3161000   0.74168981   -8.0521378     681.8602  0.017975857  0.017231045            2 
 3162000    0.7627088   -8.0307161    680.82909  0.017942997  0.017225696            1 
 3163000   0.74412414    -8.013136    682.14546  0.017972006  0.017220369            2 
 3164000   0.74940134   -8.0299645    681.07727  0.017938192  0.017215037            4 
 3165000   0.74374202   -8.0447947    681.36155  0.017940009  0.017209693            2 
 3166000    0.7428898   -8.0320659    681.30264  0.017932792  0.017204367            2 
 3167000   0.73953923   -8.0218052      681.689  0.017937296  0.017199039            2 
 3168000   0.75261593    -8.012342      681.845  0.017935738  0.017193742            2 
 3169000    0.7460159   -8.0010004    682.71687  0.017953005  0.017188469            1 
 3170000   0.74511196   -8.0186518    682.23721  0.017934732  0.017183207            1 
 3171000   0.73724981   -8.0096424    682.34421  0.017931888  0.017177921            2 
 3172000   0.74140322   -8.0099581    681.67584  0.017908676  0.017172625            4 
 3173000    0.7358605   -8.0269243    683.40445  0.017948431   0.01716732            3 
 3174000    0.7394645   -8.0264261    681.33823  0.017888527  0.017162005            2 
 3175000   0.75287237   -8.0074111    683.45442  0.017938436   0.01715674            2 
 3176000     0.758499   -8.0110292    681.62355  0.017884749  0.017151449            3 
 3177000   0.74408572   -7.9979619    683.34211  0.017924198  0.017146151            2 
 3178000    0.7431467   -8.0191823    682.79786  0.017904286  0.017140849            2 
 3179000   0.73122116   -8.0313275    680.81185  0.017846594  0.017135528            1 
 3180000   0.74241408   -7.9936793    683.10967  0.017901197  0.017130212            6 
 3181000   0.73665327   -8.0365214    680.05677  0.017815592   0.01712492            2 
 3182000   0.71794859   -8.0091639    682.15522  0.017864949  0.017119621            1 
 3183000   0.74935314   -8.0122741    682.45912  0.017867293  0.017114342            1 
 3184000    0.7458484   -8.0008937    682.94639  0.017874434  0.017109079            1 
 3185000   0.72050285   -8.0263411    681.66381  0.017835265  0.017103777            5 
 3186000   0.72621901   -8.0276083    681.47553  0.017824742  0.017098441            3 
 3187000   0.73618454   -8.0526748    681.43712  0.017818144  0.017093122            3 
 3188000   0.72757164   -8.0566203    681.59179  0.017816598   0.01708781            2 
 3189000   0.74856686   -8.0509832    682.37822  0.017831562  0.017082496            2 
 3190000   0.76058988    -8.052488    682.97121  0.017841463  0.017077194            2 
 3191000   0.73562899   -8.0514848     682.3975   0.01782089  0.017071856            6 
 3192000   0.73319772    -8.056621    681.17774  0.017783462  0.017066551            4 
 3193000    0.7364275   -8.0565378    681.73954  0.017792555  0.017061236            4 
 3194000   0.73235442   -8.0521607      681.814  0.017788927  0.017055932            3 
 3195000   0.74884157   -8.0507713    681.65271  0.017779153  0.017050615            1 
 3196000   0.73678694   -8.0534613    682.72018  0.017801423  0.017045282            2 
 3197000   0.73023352   -8.0618375    681.16075  0.017755207  0.017039966            5 
 3198000   0.74939073   -8.0590937    681.97261   0.01777081  0.017034649            2 
 3199000   0.74052014   -8.0754847    682.37384  0.017775707  0.017029336            3 
 3200000   0.73268818   -8.0411538    681.62314  0.017750603  0.017024008            2 
 3201000   0.75458548   -8.0588857     681.8434  0.017750791  0.017018687            2 
 3202000   0.75543998   -8.0500742    682.13871  0.017752933  0.017013379            1 
 3203000   0.74962497   -8.0471919    682.09038  0.017746133  0.017008083            1 
 3204000   0.73839048   -8.0603234    681.79387  0.017732883  0.017002793            2 
 3205000   0.73504717   -8.0665781    682.55042  0.017747021  0.016997487            2 
 3206000   0.74993758   -8.0352618    681.66585  0.017718493  0.016992178            3 
 3207000   0.73924022   -8.0351569    682.83981  0.017743473  0.016986876            2 
 3208000   0.74116421   -8.0702339    682.94034  0.017740553  0.016981568            2 
 3209000   0.73011591   -8.0531944    683.04531  0.017737751  0.016976271            5 
 3210000   0.74696575   -8.0563846    682.22488  0.017710926  0.016970952            4 
 3211000   0.73873058   -8.0712178    681.70638  0.017691954  0.016965634            5 
 3212000   0.74325794   -8.0418921    683.35606  0.017729246  0.016960317            1 
 3213000   0.74420205   -8.0358744    683.33809  0.017723262  0.016955004            3 
 3214000   0.74143258   -8.0647686      680.437  0.017642528  0.016949692            3 
 3215000   0.75289548   -8.0694267    682.90045  0.017700893  0.016944402            3 
 3216000   0.75498115   -8.0573829    680.97348  0.017645457  0.016939126            5 
 3217000   0.74062922   -8.0217587    682.94498  0.017691042  0.016933876            2 
 3218000   0.73070042   -8.0107657    683.66651  0.017704229  0.016928617            3 
 3219000   0.73622351   -8.0307815    684.24189  0.017713625  0.016923367            1 
 3220000   0.71361855   -8.0476117    683.59933  0.017691494  0.016918109            3 
 3221000   0.72617155   -8.0413215     683.3062  0.017678418  0.016912852            2 
 3222000   0.73381305    -8.051287     682.6314  0.017655478  0.016907594            3 
 3223000   0.74100027     -8.03622    683.75037  0.017678932  0.016902335            2 
 3224000   0.73830765   -8.0650871    682.26771  0.017635125  0.016897079            4 
 3225000   0.75361065   -8.0446492    682.97235  0.017647864  0.016891821            4 
 3226000   0.75543952   -8.0263809    683.79284  0.017663589  0.016886585            2 
 3227000   0.74678331   -8.0489396    683.32807  0.017646113  0.016881335            2 
 3228000   0.73225554   -8.0445992    684.47303  0.017670204  0.016876074            1 
 3229000   0.74929928   -8.0639724    681.49179  0.017587793  0.016870806            3 
 3230000   0.74024297    -8.061275    683.29428  0.017628851  0.016865564            3 
 3231000   0.73707985     -8.06205    683.05791  0.017617299  0.016860319            3 
 3232000   0.72698694   -8.0585514    682.72974  0.017603387  0.016855074            2 
 3233000   0.73649913   -8.0793753    682.69982   0.01759717  0.016849819            3 
 3234000    0.7456229   -8.0447702    683.69233  0.017617304  0.016844555            2 
 3235000   0.73366231    -8.073249     683.2771  0.017601162  0.016839302            5 
 3236000    0.7257363   -8.0587533    683.68338  0.017606185  0.016834042            3 
 3237000    0.7338207   -8.0512404    684.16913  0.017613251  0.016828788            1 
 3238000   0.73860289   -8.0645338    683.52701  0.017591286  0.016823539            2 
 3239000   0.73671094   -8.0587947    684.04441  0.017599167  0.016818294            3 
 3240000   0.72731301   -8.0520252    683.47177  0.017579006  0.016813038            4 
 3241000   0.73078662   -8.0347773    682.49959  0.017548586  0.016807802            2 
 3242000   0.73314439   -8.0418545    684.59727  0.017597092   0.01680255            4 
 3243000    0.7345672    -8.066548    683.32864  0.017559067  0.016797322            3 
 3244000   0.72807457   -8.0544876    684.81817  0.017591918  0.016792079            2 
 3245000   0.72021451   -8.0193724    683.42113   0.01755062   0.01678685            1 
 3246000    0.7315083   -8.0489935    683.89408  0.017557355   0.01678162            3 
 3247000   0.72749965   -8.0205979    683.80838  0.017549748  0.016776394            5 
 3248000   0.73167562   -8.0452273    683.49753  0.017536369  0.016771148            3 
 3249000   0.73111117   -8.0241232    683.50647  0.017531201  0.016765915            1 
 3250000   0.72674811   -8.0169895    683.39241  0.017522882  0.016760685            1 
 3251000    0.7271168   -8.0446009    685.22348  0.017564428  0.016755457            1 
 3252000   0.74604631   -8.0586543    682.83714  0.017497877  0.016750214            3 
 3253000   0.70371497   -8.0631696    683.52074   0.01751001  0.016744952            2 
 3254000   0.72987953   -8.0441927    683.19343  0.017496246  0.016739713            4 
 3255000   0.71989716   -8.0584122    683.37606  0.017495547  0.016734459            2 
 3256000   0.71310101   -8.0327116    682.76204  0.017474458  0.016729224            1 
 3257000   0.72464901   -8.0485191    682.94525  0.017473781  0.016723989            4 
 3258000   0.74077592   -8.0356412    681.43407  0.017429765  0.016718744            2 
 3259000   0.73100573    -8.067702    683.16733  0.017468736  0.016713496            2 
 3260000   0.73491069   -8.0527457    683.70565  0.017477138  0.016708227            5 
 3261000   0.73041247   -8.0648922    684.18114   0.01748393  0.016702979            4 
 3262000   0.73282981    -8.050271     682.8612   0.01744485  0.016697736            3 
 3263000   0.73670151    -8.049318    684.19003   0.01747344  0.016692489            2 
 3264000   0.72717646   -8.0576788     683.2943  0.017445218  0.016687256            2 
 3265000   0.72142781   -8.0705299    685.85525  0.017505239   0.01668204            3 
 3266000   0.72462703     -8.05144    683.73384   0.01744575  0.016676829            2 
 3267000   0.73733746   -8.0760607    683.34664  0.017430534  0.016671616            3 
 3268000   0.72787458   -8.0637546    684.72827  0.017460431  0.016666421            2 
 3269000   0.72764018   -8.0345714    684.05778  0.017437998  0.016661225            3 
 3270000   0.73176581    -8.063517     683.2876  0.017413038  0.016656014            2 
 3271000   0.72167096   -8.0454175    684.14249  0.017429494  0.016650809            2 
 3272000   0.72223414   -8.0648664    683.51925  0.017408294  0.016645592            2 
 3273000   0.73173044   -8.0625105    681.98552  0.017363925  0.016640358            5 
 3274000   0.73015278   -8.0639204    684.48069  0.017422131  0.016635141            2 
 3275000   0.73387944   -8.0702168    683.40854   0.01738953  0.016629906            4 
 3276000   0.73129593   -8.0755958    683.90216  0.017396778  0.016624655            3 
 3277000   0.71753184   -8.0938459    682.27294  0.017350039  0.016619406            1 
 3278000   0.73466814   -8.0646258    683.41141  0.017373689  0.016614155            2 
 3279000   0.72471563   -8.0429016    684.94077  0.017407258  0.016608931            2 
 3280000   0.72582477   -8.0792831    682.49039  0.017339695  0.016603706            5 
 3281000   0.72002765   -8.0759742    683.55389  0.017361422  0.016598474            5 
 3282000   0.71185026   -8.0701381    683.96047  0.017366455   0.01659323            1 
 3283000   0.71262194   -8.1061467    682.51472  0.017324467  0.016587987            3 
 3284000   0.71434156   -8.0641221    683.19741  0.017336516  0.016582734            3 
 3285000   0.73802255    -8.077602    682.98818   0.01732593  0.016577491            1 
 3286000   0.72309481   -8.1062004    681.87407  0.017292404  0.016572232            2 
 3287000   0.71881597   -8.1073472    682.68211  0.017307629  0.016566958            2 
 3288000   0.72759777   -8.0893983    683.15664  0.017314392  0.016561683            3 
 3289000   0.72262831   -8.0774592    683.22678  0.017310904  0.016556415            1 
 3290000   0.73633683   -8.1138492    682.72848  0.017293021  0.016551148            1 
 3291000   0.73480386   -8.0738525    682.50671  0.017282151  0.016545892            4 
 3292000   0.72547353   -8.1013864    682.67318  0.017281115  0.016540634            2 
 3293000   0.71201207   -8.0857563    683.29572  0.017291622  0.016535383            3 
 3294000   0.71707912   -8.0570873    684.82299   0.01732501  0.016530119            2 
 3295000   0.73295608   -8.0850445    683.65539  0.017290222  0.016524856            2 
 3296000   0.70438619   -8.0931072    682.74475  0.017261953  0.016519592            3 
 3297000   0.73050594   -8.0930577    682.71689  0.017256013  0.016514341            5 
 3298000   0.72679702   -8.0685414     683.0898  0.017260203  0.016509096            2 
 3299000   0.72840599   -8.0837055    683.89304  0.017275261  0.016503868            1 
 3300000   0.73357259   -8.0848444    682.78802  0.017242122  0.016498625            2 
 3301000   0.71404496    -8.067729    683.07214  0.017244071  0.016493379            3 
 3302000   0.72396787    -8.054895    684.14248  0.017265861  0.016488121            4 
 3303000   0.71212457   -8.0961171    681.46819  0.017193162  0.016482871            1 
 3304000    0.7091962   -8.0597286    683.33162  0.017234958  0.016477635            2 
 3305000   0.73782919   -8.0794134      684.026  0.017247252  0.016472398            5 
 3306000   0.73294564   -8.0649262    685.52052  0.017279706  0.016467158            4 
 3307000   0.71305283   -8.0864012    683.34194  0.017219583  0.016461943            4 
 3308000   0.71728833    -8.081112    684.21658  0.017236411  0.016456712            2 
 3309000   0.72719277   -8.0723854    683.71226  0.017218502  0.016451493            2 
 3310000   0.72449398   -8.0835454     682.8876  0.017192538  0.016446268            3 
 3311000   0.72603872   -8.0603694    683.54966  0.017204008  0.016441038            2 
 3312000   0.72373615   -8.0668928    683.13221  0.017188311   0.01643582            2 
 3313000   0.69462682   -8.0561434    683.72839  0.017198118  0.016430588            2 
 3314000   0.72712193   -8.0697834     683.4921  0.017186987  0.016425381            1 
 3315000    0.7081702   -8.0794999    684.42195  0.017205177  0.016420175            5 
 3316000   0.72513401   -8.0732721    683.40535  0.017174441  0.016414957            2 
 3317000    0.7391215   -8.1120761    682.90108  0.017156594  0.016409733            3 
 3318000   0.71879257   -8.0725734    684.08393  0.017181131  0.016404524            2 
 3319000    0.7369762   -8.0910254    683.55077  0.017162568  0.016399314            2 
 3320000   0.69715732   -8.0758695    684.57385  0.017183078  0.016394108            3 
 3321000   0.71623472   -8.0872757    682.82618   0.01713405  0.016388898            2 
 3322000   0.71959257   -8.1076103    682.47396  0.017120057  0.016383694            1 
 3323000   0.72644551   -8.0661752    683.36656   0.01713729  0.016378471            3 
 3324000   0.72619968   -8.0958003     683.1912  0.017127738  0.016373263            1 
 3325000   0.73302585   -8.1065558    683.16956  0.017122044  0.016368039            3 
 3326000   0.72994265    -8.081782    683.69927  0.017130168  0.016362831            4 
 3327000   0.71378046   -8.0781632    682.64646  0.017098649  0.016357632            2 
 3328000   0.70926134   -8.0639507    684.28061   0.01713443  0.016352425            5 
 3329000   0.72484751   -8.0647838    685.12871  0.017150513  0.016347252            5 
 3330000   0.69828217   -8.0687813    682.12055  0.017070084  0.016342073            2 
 3331000   0.71237473   -8.0720471    684.08696  0.017114154  0.016336866            1 
 3332000   0.71539927   -8.0795075    685.06631  0.017133511  0.016331671            2 
 3333000   0.73503814   -8.0715176     683.2896  0.017083948   0.01632646            2 
 3334000   0.70949541   -8.0460585    685.59362  0.017136413   0.01632128            1 
 3335000   0.71933136   -8.0784475    683.52133  0.017079493  0.016316084            2 
 3336000   0.70679448   -8.0658246    684.60658  0.017101483  0.016310899            7 
 3337000   0.72944797   -8.0642718    682.92272  0.017054308  0.016305719            2 
 3338000   0.71544702   -8.0677683    683.93891  0.017074568  0.016300521            3 
 3339000   0.71977798   -8.0953936    683.16497  0.017050139  0.016295316            3 
 3340000   0.71229062   -8.0796081    684.39319  0.017075678  0.016290101            3 
 3341000   0.73170853    -8.097164    683.28922  0.017043031  0.016284884            2 
 3342000   0.70944158   -8.0863465    682.86997  0.017027478  0.016279686            2 
 3343000    0.7287085   -8.1026734    682.44922  0.017011896  0.016274491            3 
 3344000   0.70099509   -8.0823905    683.41183  0.017030797  0.016269314            1 
 3345000   0.72612835   -8.1060619    683.96415  0.017039466  0.016264139            5 
 3346000   0.71628285    -8.091291    684.61073  0.017050476  0.016258966            1 
 3347000   0.71601925    -8.108463    685.18338   0.01705964  0.016253773            3 
 3348000   0.70950323   -8.1292492    682.91099  0.016997984   0.01624857            2 
 3349000   0.71758589   -8.0933793    685.35441  0.017053708  0.016243379            2 
 3350000   0.72455993   -8.0948359    683.94125  0.017013464  0.016238198            1 
 3351000   0.71320073   -8.1051698    684.13834  0.017013288  0.016233021            2 
 3352000    0.7146211   -8.0961708    684.40513  0.017014845  0.016227853            2 
 3353000   0.71787873   -8.1054289    684.64418  0.017015712  0.016222687            2 
 3354000   0.71372977   -8.0763882    683.41063   0.01697999   0.01621752            1 
 3355000    0.7097828   -8.1106931    684.51867  0.017002451  0.016212352            1 
 3356000   0.71715904   -8.0890016    684.05832  0.016985953  0.016207191            2 
 3357000    0.7284684   -8.1078999    684.18485  0.016984035  0.016202029            3 
 3358000   0.72298573   -8.0964246    684.57623  0.016988689  0.016196868            2 
 3359000   0.69768186    -8.095428    684.32114  0.016977303  0.016191704            3 
 3360000   0.71185587   -8.0983115    683.14314  0.016943034  0.016186515            2 
 3361000   0.71727029   -8.0952269     682.8037  0.016929577   0.01618135            1 
 3362000   0.72308345   -8.1177069     684.1431  0.016957741  0.016176173            4 
 3363000   0.71951879   -8.0991008    684.08237  0.016951194  0.016170997            1 
 3364000   0.74101207   -8.0834716    684.21535  0.016949449  0.016165812            1 
 3365000   0.71355223   -8.0855813    684.65722  0.016955355  0.016160653            2 
 3366000   0.71336319   -8.0821629    683.90129  0.016931603  0.016155493            2 
 3367000   0.70931791   -8.0837679    682.69312  0.016896672  0.016150341            3 
 3368000   0.69789724   -8.0856779    684.63377  0.016939672  0.016145189            1 
 3369000   0.71935127   -8.0790114    684.97722  0.016943139  0.016140027            1 
 3370000   0.72483258   -8.0676808    683.96206  0.016913008  0.016134872            3 
 3371000   0.71005342   -8.1155681    683.41918  0.016894571  0.016129691            2 
 3372000   0.71093679     -8.10462    682.86536  0.016875874  0.016124529            2 
 3373000   0.71730803   -8.0933331    684.59259  0.016913544  0.016119365            3 
 3374000   0.70989591   -8.0807935    684.42734  0.016904449  0.016114212            2 
 3375000   0.70494861   -8.0777427    683.91901  0.016886889  0.016109053            4 
 3376000   0.71660756   -8.0903956    684.70453  0.016901277    0.0161039            1 
 3377000   0.71040187   -8.1175645    682.51611  0.016842269  0.016098732            5 
 3378000    0.7416362   -8.0995205    683.27021  0.016855886  0.016093569            1 
 3379000   0.71511777   -8.1063739    684.38341  0.016878352  0.016088402            4 
 3380000   0.70693732   -8.0900952    683.35258  0.016847943  0.016083244            1 
 3381000   0.72540483   -8.1074391    683.41548   0.01684451  0.016078078            4 
 3382000   0.71285985   -8.1360848    684.31187  0.016861617  0.016072906            2 
 3383000   0.70332542   -8.1338144    686.09193  0.016900481  0.016067743            3 
 3384000   0.71531352       -8.129    684.18193  0.016848452  0.016062583            7 
 3385000    0.6951368   -8.1283213     682.7228  0.016807553  0.016057423            6 
 3386000   0.71187185   -8.1144444    683.24427  0.016815423  0.016052279            4 
 3387000   0.70207266   -8.0839131    683.59688  0.016819134   0.01604714            2 
 3388000   0.71103962   -8.0912429    686.12694  0.016876401  0.016042009            2 
 3389000    0.7126844   -8.1037629    685.32172  0.016851621  0.016036871            3 
 3390000   0.71673501   -8.0967936    683.50107  0.016801894   0.01603174            2 
 3391000    0.7091761   -8.1154143    684.79948  0.016828848  0.016026609            2 
 3392000   0.68894039   -8.1198917    684.26735  0.016810813  0.016021482            3 
 3393000   0.69397484   -8.1263999    684.66106  0.016815529  0.016016347            3 
 3394000   0.69652229   -8.1045735    683.58953  0.016784265  0.016011207            2 
 3395000   0.70467057   -8.1153258    684.50992  0.016801913  0.016006093            5 
 3396000   0.72129757   -8.0789036    685.28111  0.016815889  0.016000982            2 
 3397000   0.70734835    -8.118083    685.73425  0.016822055  0.015995871            2 
 3398000   0.70879592   -8.0986724    685.55394  0.016812683  0.015990743            2 
 3399000   0.72374202   -8.1105068    684.20472  0.016774657  0.015985622            2 
 3400000   0.71804728    -8.112759    684.67967  0.016781365  0.015980502            2 
 3401000   0.70424113   -8.1143397    684.76376  0.016778491  0.015975391            2 
 3402000   0.70258281   -8.1069863    683.67375  0.016746858  0.015970285            4 
 3403000   0.70874214   -8.1121512    685.05687  0.016775807  0.015965204            4 
 3404000   0.70806925   -8.1276667    685.81178   0.01678936  0.015960123            5 
 3405000   0.69658854   -8.1175101     685.2391  0.016770414  0.015955028            1 
 3406000   0.70196893   -8.1014484    686.25743  0.016790405  0.015949928            2 
 3407000   0.70285289    -8.103559    684.25381  0.016736469  0.015944823            4 
 3408000   0.70438249   -8.1200908    684.50021  0.016737583  0.015939724            2 
 3409000   0.70057331   -8.1194032    683.95389  0.016719319  0.015934623            5 
 3410000   0.70503886   -8.1172159    683.82551  0.016711278  0.015929506            3 
 3411000   0.69792544   -8.1234419    685.37711  0.016744286  0.015924398            2 
 3412000   0.70617833   -8.0926728    685.16251  0.016734137  0.015919314            2 
 3413000   0.70047508   -8.0956939    685.68505  0.016741993  0.015914222            1 
 3414000   0.70701446   -8.0917487    686.03886  0.016745725  0.015909149            1 
 3415000   0.70420084   -8.1136444     685.5004  0.016727682   0.01590407            1 
 3416000     0.711833   -8.0990725    685.23722  0.016716365  0.015898992            2 
 3417000   0.71066386   -8.1061775    683.92898  0.016679567  0.015893894            2 
 3418000   0.71362104   -8.1122214    684.61444  0.016691399  0.015888801            3 
 3419000   0.69176757    -8.094239     684.9139  0.016693816  0.015883706            2 
 3420000   0.69879097   -8.1165671    684.08267  0.016668681  0.015878613            1 
 3421000   0.72627183   -8.1142498     685.2501  0.016692247  0.015873513            3 
 3422000    0.7059936   -8.1034117     685.0078  0.016681468  0.015868412            2 
 3423000   0.70854424   -8.1201552    684.53133  0.016664995  0.015863321            2 
 3424000   0.70242004   -8.1150327    686.19981  0.016700735   0.01585822            2 
 3425000   0.70581597   -8.1482201     684.4471  0.016653214  0.015853107            3 
 3426000   0.70335324   -8.1410109    684.77447  0.016656316  0.015847988            1 
 3427000    0.7027584    -8.130387    684.08578  0.016634709  0.015842885            2 
 3428000   0.70755841    -8.145519    684.02284  0.016628327  0.015837788            1 
 3429000   0.70137892   -8.1367396      683.655  0.016614538  0.015832694            2 
 3430000    0.6973272   -8.1278678    684.09006  0.016620264  0.015827595            2 
 3431000   0.69400627   -8.1485566    684.81564  0.016633043  0.015822487            3 
 3432000   0.69992432   -8.1246433    682.57104  0.016573695  0.015817378            3 
 3433000   0.70498059   -8.1672084     683.8731  0.016600473   0.01581226            1 
 3434000   0.70074764   -8.1536662    683.88205  0.016595856  0.015807142            4 
 3435000   0.68940976    -8.161912    684.24275  0.016599775  0.015802027            1 
 3436000   0.69211866   -8.1808636     682.9621  0.016563885  0.015796914            1 
 3437000    0.6969833   -8.1663867    684.49854  0.016596318   0.01579181            2 
 3438000   0.70088405   -8.1285136    686.04163  0.016628894  0.015786708            2 
 3439000   0.69806456   -8.1357564    685.13352  0.016602053  0.015781605            2 
 3440000   0.71041206    -8.142424    684.59327  0.016584139  0.015776506            2 
 3441000    0.6808649   -8.1309563    684.76359  0.016583444    0.0157714            2 
 3442000   0.68978249   -8.1386821    686.18343  0.016613002  0.015766304            5 
 3443000     0.717688    -8.156218    683.98813  0.016555042  0.015761204            3 
 3444000   0.70121859   -8.1550286    684.41729   0.01656062  0.015756104            1 
 3445000   0.70005495   -8.1361729    683.42634  0.016531842  0.015751019            3 
 3446000   0.68790754   -8.1488344    684.34173  0.016549181  0.015745925            3 
 3447000   0.69191369   -8.1392046    684.54809  0.016549369  0.015740821            2 
 3448000   0.69877321   -8.1361854    684.74004  0.016549208  0.015735731            4 
 3449000   0.70418918   -8.1206089    683.19432  0.016507063  0.015730655            4 
 3450000    0.7013395   -8.1476056    684.34658  0.016530111  0.015725584            2 
 3451000   0.69488015    -8.124039    686.13591  0.016568529  0.015720513            2 
 3452000   0.69968869   -8.1426367    687.05543  0.016585927  0.015715467            1 
 3453000   0.70213871    -8.135997    685.04304  0.016532557  0.015710411            3 
 3454000   0.69237259   -8.1395625    687.05548  0.016576324   0.01570536            3 
 3455000   0.69256887   -8.1503921    686.38705  0.016555404  0.015700316            1 
 3456000   0.68297301   -8.1462128    684.54102  0.016506101  0.015695267            2 
 3457000   0.71820991   -8.1338886      684.283  0.016495107   0.01569022            4 
 3458000   0.69622266   -8.1645586    684.89862  0.016505172  0.015685171            2 
 3459000    0.6833431   -8.1459171    684.61952  0.016493676  0.015680122            2 
 3460000   0.69056425   -8.1083816    684.70926  0.016491071  0.015675078            3 
 3461000   0.70020618   -8.1603979    684.12807  0.016472312  0.015670024            3 
 3462000   0.70312171   -8.1377895    684.54405  0.016477567  0.015664966            3 
 3463000   0.69207466   -8.1286913    685.87301  0.016504789  0.015659911            1 
 3464000   0.69668587   -8.1468565    684.45797  0.016465983  0.015654864            4 
 3465000   0.71172476   -8.1307307     685.9342  0.016496734  0.015649802            2 
 3466000   0.70680164   -8.1442213    684.83942  0.016465652  0.015644742            2 
 3467000   0.68892912   -8.1383453    685.58634  0.016478856  0.015639693            3 
 3468000   0.69556789   -8.1354517    686.45313  0.016494933  0.015634643            2 
 3469000   0.69706915   -8.1453511    685.28646  0.016462152  0.015629603            2 
 3470000   0.68814542    -8.171299    684.31103  0.016433982  0.015624548            4 
 3471000    0.6956531   -8.1678198    685.22645  0.016451226    0.0156195            3 
 3472000   0.69259743   -8.1420385    684.88962  0.016438403  0.015614438            6 
 3473000    0.6754094    -8.171234    686.47106  0.016471616   0.01560939            2 
 3474000   0.70278288   -8.1689534    685.36316  0.016440298  0.015604335            9 
 3475000   0.69192256   -8.1639621    685.94198  0.016449448  0.015599278            2 
 3476000   0.67890089   -8.1628188     684.8172   0.01641775  0.015594228            1 
 3477000   0.70655283   -8.1520221    684.16249  0.016397337  0.015589185            3 
 3478000   0.71117103   -8.1578307    685.29176   0.01641968  0.015584139            2 
 3479000   0.70360092   -8.1671016    683.81847   0.01637967  0.015579086            4 
 3480000   0.68276916   -8.1509195     684.6491  0.016394854  0.015574029            5 
 3481000   0.67936011   -8.1628176     684.7186  0.016391808  0.015568974            2 
 3482000   0.69123238    -8.170202    684.37569  0.016378894  0.015563914            4 
 3483000   0.69934019   -8.1535667    685.46139  0.016400167  0.015558849            2 
 3484000    0.6934272   -8.1553755    686.02175  0.016408863    0.0155538            1 
 3485000   0.67901511   -8.1475626    684.67001  0.016371832  0.015548743            2 
 3486000   0.69044071   -8.1735562    686.11965  0.016401789  0.015543707            1 
 3487000   0.69442337   -8.1674741    683.65289  0.016338134  0.015538665            2 
 3488000   0.68712636   -8.1477687    684.84121  0.016361841  0.015533614            4 
 3489000   0.69165709   -8.1401913     685.6452  0.016376354  0.015528589            3 
 3490000   0.69403288   -8.1388636    684.27679  0.016338987  0.015523566            1 
 3491000   0.68167003   -8.1441808    685.12777  0.016354621  0.015518532            3 
 3492000   0.69446869   -8.1569157    685.12442  0.016349857  0.015513496            2 
 3493000   0.70530858   -8.1398174    685.72114  0.016359413  0.015508467            4 
 3494000   0.69087762   -8.1461168    683.78774  0.016308618  0.015503453            3 
 3495000   0.68768582   -8.1757805     685.7089  0.016349759  0.015498419            2 
 3496000   0.68356376   -8.1618958    685.54719  0.016341228  0.015493383            2 
 3497000   0.68850192   -8.1696993    684.46087  0.016310668   0.01548834            1 
 3498000   0.70256408   -8.1566877    684.72625  0.016312327  0.015483298            2 
 3499000   0.68329362    -8.160146    683.21282  0.016271621  0.015478276            2 
 3500000   0.68666837   -8.1648071     683.0182  0.016262338  0.015473256            1 
 3501000   0.70345057   -8.1757877    685.68915  0.016321269  0.015468225            4 
 3502000   0.68336499   -8.1354309    685.90306  0.016321699  0.015463192            2 
 3503000   0.69753668   -8.1670876    684.65465  0.016287341  0.015458177            2 
 3504000   0.67688706   -8.1755587    684.52298  0.016279561   0.01545314            1 
 3505000   0.70378813     -8.15167    685.53857  0.016299062  0.015448115            2 
 3506000   0.69842991   -8.1741722    684.57645  0.016271545  0.015443107            5 
 3507000    0.6903179   -8.1590481    686.46071  0.016311679   0.01543808            1 
 3508000   0.68940379   -8.1733945    685.41396  0.016282164  0.015433073            5 
 3509000   0.69499115   -8.1703484    684.91461  0.016265665  0.015428064            3 
 3510000   0.70124062   -8.1773186    685.08908  0.016265173   0.01542305            2 
 3511000     0.699148   -8.1581488    684.13838  0.016237975   0.01541804            2 
 3512000     0.687326   -8.1737819    684.06909  0.016231708  0.015413048            1 
 3513000   0.68636562   -8.1732694     685.6096   0.01626363  0.015408041            2 
 3514000    0.6859414   -8.1644606    684.51724  0.016233097  0.015403046            5 
 3515000   0.68089493   -8.1909809    684.72059    0.0162333  0.015398042            3 
 3516000   0.70194519   -8.1534348    685.20086  0.016240066   0.01539304            4 
 3517000   0.69072179   -8.1834234     684.7686  0.016225206  0.015388048            3 
 3518000   0.68884903   -8.1719323     685.1859  0.016230479  0.015383054            3 
 3519000   0.68786374   -8.1707872    684.94865  0.016220248  0.015378064            3 
 3520000    0.6793938   -8.1617586    685.83862   0.01623671  0.015373067            1 
 3521000   0.68423892   -8.1474968    685.04689   0.01621336  0.015368081            3 
 3522000   0.69313484   -8.1803742    684.21696   0.01618912  0.015363082            2 
 3523000   0.68032869   -8.1616086    685.81901   0.01622242  0.015358088            3 
 3524000   0.70648594   -8.1592684    685.72519  0.016215598    0.0153531            2 
 3525000   0.68463986   -8.1579185    686.00763  0.016217674   0.01534812            3 
 3526000   0.66901981   -8.1507719    684.30852  0.016172918  0.015343122            2 
 3527000   0.68201588   -8.1860309    684.48878  0.016172592  0.015338135            2 
 3528000   0.67812582   -8.1683782    687.07094     0.016229  0.015333154            2 
 3529000   0.70585454    -8.144649    686.28592  0.016205864  0.015328164            2 
 3530000   0.67594837    -8.166668    685.02671  0.016171547  0.015323174            2 
 3531000   0.69309645   -8.1757742    685.04708  0.016167447  0.015318184            2 
 3532000   0.67709105   -8.1551688    684.04018  0.016139113  0.015313186            2 
 3533000   0.68438339   -8.1858276    684.06486  0.016135127  0.015308184            3 
 3534000   0.70874436   -8.1884311    685.06642  0.016154179   0.01530318            3 
 3535000   0.68256808   -8.1886697    684.06835  0.016126081  0.015298187            2 
 3536000   0.68179641   -8.1732321    684.63118  0.016134785  0.015293205            3 
 3537000   0.66633691   -8.1826412    684.03999  0.016116294  0.015288203            2 
 3538000   0.68550973   -8.1750225    685.22598  0.016139674  0.015283205            1 
 3539000   0.68132512   -8.1668001    685.14277  0.016133154  0.015278208            1 
 3540000   0.67016713   -8.1519631    684.60962  0.016116046  0.015273221            2 
 3541000   0.69934337   -8.1616358     685.1433  0.016124054  0.015268235            1 
 3542000   0.68274772   -8.1635843    683.32305  0.016076676  0.015263241            2 
 3543000   0.68074324   -8.1730332    684.63691  0.016103041  0.015258242            2 
 3544000   0.67249449   -8.1800909    683.98905  0.016083264  0.015253244            2 
 3545000   0.69263027   -8.1492617    684.57487  0.016092498   0.01524826            2 
 3546000   0.68624109   -8.1648931     684.8389  0.016094165  0.015243278            4 
 3547000   0.69710418   -8.1737755    683.56909  0.016059794  0.015238288            3 
 3548000   0.68699521    -8.180798    683.82154  0.016061197    0.0152333            1 
 3549000   0.68564049   -8.1915982    683.77402  0.016055556  0.015228297            5 
 3550000   0.68035514   -8.1930232    684.43684  0.016066592  0.015223305            1 
 3551000   0.67325402   -8.1973332    683.69049  0.016044553  0.015218316            2 
 3552000   0.68403492   -8.1803499    684.50823  0.016059221  0.015213331            4 
 3553000   0.68060587     -8.19005    684.57407  0.016056245  0.015208356            3 
 3554000   0.67645137   -8.1926625    684.03267  0.016039033  0.015203384            2 
 3555000   0.67479466   -8.1971782    684.33588  0.016041629  0.015198401            3 
 3556000   0.68826674   -8.1838836    684.25247  0.016035163  0.015193424            1 
 3557000   0.68806865   -8.1788034    684.63543  0.016039627  0.015188448            3 
 3558000   0.69390517   -8.1975064    684.31063  0.016027512  0.015183479            4 
 3559000   0.68792238   -8.2004186     685.2078  0.016044015  0.015178495            2 
 3560000    0.6890304   -8.2072874    683.51273   0.01599983  0.015173517            5 
 3561000   0.66872009   -8.1957483    683.44075  0.015993652  0.015168526            2 
 3562000   0.70256415   -8.1869012    684.86759  0.016022543  0.015163556            1 
 3563000   0.68953917   -8.1978594    683.48641  0.015985743  0.015158591            3 
 3564000   0.67320862   -8.1979231    684.41047  0.016002864  0.015153633            2 
 3565000   0.68649107   -8.1843488    684.08388   0.01599074   0.01514868            2 
 3566000   0.67436862   -8.2045621      683.786  0.015979295  0.015143719            3 
 3567000   0.68076307   -8.1745976    684.61734  0.015994238   0.01513877            3 
 3568000   0.69214762   -8.1940035    685.71649  0.016015426  0.015133828            3 
 3569000   0.69207416   -8.1918169    685.34558  0.016002278  0.015128875            4 
 3570000    0.6707706   -8.2099387    684.73226  0.015983479  0.015123932            2 
 3571000   0.68352165   -8.1977917    685.36054  0.015993665  0.015118991            2 
 3572000   0.69323992   -8.1822245    685.11174  0.015983383  0.015114043            4 
 3573000    0.6667295   -8.1936479    686.48717  0.016010989  0.015109097            1 
 3574000    0.6771691    -8.222983    685.61889  0.015986264  0.015104142            2 
 3575000   0.67037533   -8.1952148    684.86093  0.015964124  0.015099193            1 
 3576000   0.67267122   -8.1964195    684.39396  0.015948778  0.015094248            3 
 3577000    0.6765515    -8.201947    684.33975  0.015943056  0.015089301            5 
 3578000   0.67459797   -8.2114366    685.49994  0.015965622  0.015084357            2 
 3579000   0.68166485   -8.2140107    685.43511  0.015959651  0.015079407            1 
 3580000   0.68887636   -8.2047751    684.42223  0.015931616  0.015074459            1 
 3581000    0.6801467   -8.2039636    685.09567  0.015942839   0.01506952            2 
 3582000   0.67300234   -8.2341827    683.09458  0.015891834  0.015064562            2 
 3583000   0.68125626    -8.218282    685.38964  0.015940777   0.01505961            4 
 3584000   0.67763853   -8.2049937    684.61643  0.015918351  0.015054677            1 
 3585000   0.69331187   -8.2065996    685.65226  0.015937988  0.015049743            4 
 3586000   0.66720189   -8.2148137     684.4249  0.015905022  0.015044806            1 
 3587000   0.67189157   -8.2100745    684.02188  0.015891225  0.015039874            2 
 3588000   0.68167894   -8.2113267    684.09233  0.015888432  0.015034949            3 
 3589000   0.67698645   -8.2213834    684.62749  0.015896431  0.015030023            2 
 3590000   0.66692396   -8.2112397    684.49308  0.015888883  0.015025093            7 
 3591000   0.67200954   -8.2081173    685.69533  0.015912358  0.015020151            2 
 3592000   0.67913647   -8.2293511    683.71589  0.015862006  0.015015211            8 
 3593000   0.67944906   -8.2109679    686.86813  0.015930702  0.015010282            3 
 3594000   0.68692938   -8.2075403    685.92527  0.015904407  0.015005354            4 
 3595000   0.70180147    -8.195609    684.16554  0.015859192  0.015000436            2 
 3596000   0.68697189   -8.2026955    686.10002  0.015899611  0.014995504            3 
 3597000   0.66712723   -8.2265447    684.36982  0.015855107   0.01499059            3 
 3598000   0.67173612   -8.2270185    683.67821  0.015834682  0.014985666            2 
 3599000    0.6840953   -8.2242423     684.0037  0.015837818  0.014980739            2 
 3600000   0.68655038   -8.2335762    685.13127   0.01585952  0.014975814            2 
 3601000   0.66617878   -8.2201988    683.05739  0.015807123  0.014970894            1 
 3602000   0.67456254      -8.2143    685.85377  0.015867429  0.014965977            2 
 3603000   0.67930931   -8.2085709    685.07742  0.015845069  0.014961053            2 
 3604000   0.66733649   -8.2286928    683.40631  0.015802033  0.014956124            4 
 3605000   0.67400268    -8.217135    684.85037   0.01583103  0.014951195            3 
 3606000   0.68841218   -8.2408311     684.1673  0.015810855   0.01494627            3 
 3607000   0.67483864   -8.2113586    684.08233  0.015804508  0.014941334            5 
 3608000   0.66361373    -8.210256    684.01371  0.015798543  0.014936412            3 
 3609000   0.67841651   -8.2356439    683.63269  0.015785367  0.014931485            3 
 3610000   0.68088893   -8.2135573    683.81245  0.015785144  0.014926563            3 
 3611000   0.67054698   -8.1942539    685.14521   0.01581153   0.01492165            3 
 3612000   0.67344144   -8.2022036     684.2882   0.01578738  0.014916726            5 
 3613000   0.68742368   -8.2093921    684.59062  0.015789986  0.014911826            3 
 3614000   0.66567382   -8.2019401    685.24105  0.015800614  0.014906923            3 
 3615000    0.6754906   -8.2087444    684.88919  0.015788133   0.01490201            2 
 3616000     0.679042   -8.2071423    684.40686  0.015772651  0.014897096            2 
 3617000   0.67365417   -8.2250392    684.08028  0.015760766  0.014892171            6 
 3618000   0.68865606   -8.2047129    685.11353  0.015780208  0.014887253            4 
 3619000   0.67555239   -8.2343077    683.14717  0.015730569  0.014882329            2 
 3620000   0.66933552    -8.205543    681.94764   0.01569861  0.014877416            3 
 3621000   0.67628367   -8.2231318    684.27681  0.015747878   0.01487251            3 
 3622000   0.68124945   -8.2038658    684.75147  0.015754451  0.014867597            3 
 3623000   0.68667001   -8.2185232       684.02  0.015733278  0.014862682            5 
 3624000   0.68836464   -8.2134561    684.26444  0.015734558   0.01485777            2 
 3625000   0.66633582    -8.218074    684.24017  0.015729659  0.014852851            6 
 3626000   0.67972937   -8.2102958    683.51266  0.015708601  0.014847939            3 
 3627000    0.6666814   -8.2235788    684.60352  0.015729334  0.014843025            3 
 3628000   0.67713046   -8.1974865    684.93897  0.015732703  0.014838108            2 
 3629000   0.66980528   -8.2140666    683.31068  0.015690977  0.014833207            4 
 3630000   0.66923178   -8.2263957    684.12801  0.015705418  0.014828296            4 
 3631000   0.65826526   -8.2401504    683.71242  0.015691555  0.014823382            3 
 3632000   0.68250295   -8.2047281     684.8054  0.015712312  0.014818472            3 
 3633000    0.6626358   -8.2030423    683.51356  0.015678355  0.014813567            3 
 3634000   0.66547716   -8.2247205    683.58839  0.015675757  0.014808664            2 
 3635000   0.66830741     -8.21713    684.48306  0.015691955   0.01480378            3 
 3636000   0.66576693   -8.2052676    684.04744  0.015677655  0.014798886            3 
 3637000   0.68948963   -8.2288138    683.48571  0.015660474  0.014793999            3 
 3638000   0.66584032   -8.2240115    683.44911   0.01565533  0.014789101            3 
 3639000   0.67226463   -8.2151522    683.63572  0.015655302  0.014784201            2 
 3640000   0.67511678   -8.2223113    685.44526  0.015692428  0.014779306            2 
 3641000   0.65462725   -8.2349801     683.8621  0.015651884  0.014774428            1 
 3642000   0.65910956    -8.218592    684.90165  0.015671372   0.01476955            5 
 3643000   0.66592366   -8.2052336    684.75336  0.015663678  0.014764672            2 
 3644000   0.67594408   -8.2189914     684.1735  0.015646119  0.014759797            1 
 3645000   0.67373422   -8.2344242    685.16236  0.015664434  0.014754906            3 
 3646000   0.67945984   -8.2165706    684.34129  0.015641372  0.014750022            2 
 3647000   0.66540618   -8.2177089    683.97666  0.015628751  0.014745148            2 
 3648000   0.67242161   -8.2241786    684.94601   0.01564661  0.014740259            2 
 3649000    0.6664005   -8.2202792    684.10445  0.015623103  0.014735381            5 
 3650000   0.66083652   -8.2278555    683.23857  0.015599054   0.01473052            2 
 3651000   0.67084539   -8.2207341    683.83737  0.015608449  0.014725657            3 
 3652000    0.6540412   -8.2016152    683.96676  0.015607128  0.014720787            2 
 3653000   0.66464431   -8.2239053      685.035  0.015627224  0.014715916            3 
 3654000   0.67320562   -8.2275151    685.59197   0.01563565  0.014711062            3 
 3655000   0.67020344   -8.2225423    685.32458  0.015625275  0.014706197            3 
 3656000   0.66569351   -8.2114797    685.79106  0.015631634  0.014701361            1 
 3657000   0.67001263   -8.2193201    684.38421  0.015595301  0.014696523            2 
 3658000   0.65838767   -8.2366862    685.23412    0.0156104  0.014691676            3 
 3659000   0.67318698   -8.2103374    684.37387  0.015586542   0.01468682            3 
 3660000   0.66522698    -8.229621    685.91453  0.015617362  0.014681977            3 
 3661000   0.65053367   -8.2133817    685.54259   0.01560463  0.014677145            4 
 3662000   0.66728579   -8.1943479    684.20065  0.015569831  0.014672317            2 
 3663000   0.65092305   -8.2250597    683.80342  0.015556543  0.014667488            3 
 3664000   0.67595728   -8.2072273    685.61174  0.015593426  0.014662668            2 
 3665000   0.66696726   -8.2193471    684.30485  0.015559455  0.014657854            1 
 3666000   0.65776659   -8.2242821    684.79324  0.015566313  0.014653035            2 
 3667000   0.66094633   -8.2212058    685.52864   0.01557878  0.014648218            2 
 3668000     0.655241   -8.2332785    684.30742  0.015546788  0.014643393            2 
 3669000    0.6700043   -8.2118625     685.5952    0.0155718  0.014638576            3 
 3670000   0.67538166   -8.2233531     684.5381  0.015543554  0.014633765            4 
 3671000   0.66344028   -8.2219325    683.17954  0.015508479  0.014628939            2 
 3672000    0.6731221   -8.2080495    684.90826  0.015543488  0.014624123            1 
 3673000   0.64701264   -8.2287848    684.12901  0.015521577  0.014619299            4 
 3674000   0.65995174   -8.2131975    685.51516  0.015548792  0.014614469            2 
 3675000    0.6778668   -8.2529387    684.19144  0.015514545  0.014609643            2 
 3676000   0.64844732   -8.2542535    684.67006  0.015521175  0.014604811            3 
 3677000   0.66338937   -8.2445136    682.62748  0.015470662  0.014599982            2 
 3678000   0.66952154   -8.2076493     685.0038  0.015520296  0.014595156            2 
 3679000   0.65699329   -8.2659819    684.09633  0.015495523  0.014590328            5 
 3680000   0.66050479     -8.23574    685.39791  0.015520786  0.014585499            8 
 3681000   0.66782847   -8.2366259     684.2964  0.015491633  0.014580677            2 
 3682000   0.63617197   -8.2320235    684.79652  0.015498744  0.014575852            2 
 3683000   0.66426004   -8.2348038    683.39404  0.015462803  0.014571015            2 
 3684000   0.65676595   -8.2361652    683.89816  0.015470009   0.01456619            2 
 3685000   0.67154652   -8.2375013    683.91121  0.015466106  0.014561362            2 
 3686000   0.65638498   -8.2401454    683.87326  0.015461052   0.01455654            1 
 3687000    0.6642521   -8.2544956    683.32408  0.015444446  0.014551713            2 
 3688000   0.65800746   -8.2335864    683.73442   0.01544953  0.014546896            3 
 3689000   0.65697124   -8.2458804    685.07874   0.01547571  0.014542084            3 
 3690000    0.6665463   -8.2702922    685.11602  0.015472358  0.014537269            3 
 3691000   0.65974194   -8.2573387      683.528  0.015432313  0.014532452            3 
 3692000   0.64634215   -8.2630593     683.6778  0.015431514  0.014527642            2 
 3693000     0.650478   -8.2498173    685.14636  0.015460474   0.01452283            3 
 3694000   0.67050808   -8.2485238    683.71786  0.015424063  0.014518026            3 
 3695000   0.67276761   -8.2469403    683.60972   0.01541745  0.014513218            2 
 3696000   0.66409638   -8.2370942    684.48452  0.015433002   0.01450842            1 
 3697000   0.66866974   -8.2598491    682.14879  0.015376179  0.014503621            1 
 3698000   0.66427709   -8.2484652    682.84801  0.015387777  0.014498812            3 
 3699000   0.66210988   -8.2347892    684.66484  0.015424548  0.014494011            2 
 3700000   0.64937996   -8.2361026    685.21196  0.015432702  0.014489213            2 
 3701000   0.67498451   -8.2238257    684.46726  0.015411764  0.014484421            2 
 3702000   0.65050592   -8.2436446     685.5089  0.015431048  0.014479631            3 
 3703000   0.65964364   -8.2363495    684.02402  0.015393465  0.014474841            2 
 3704000   0.65673065   -8.2579371    685.41763  0.015420663  0.014470041            2 
 3705000   0.65992563   -8.2650757    683.79386  0.015379979  0.014465251            3 
 3706000   0.66269644   -8.2569218    684.48046  0.015391268  0.014460465            2 
 3707000   0.65003933   -8.2643119    684.67156  0.015391412  0.014455675            2 
 3708000   0.65229751   -8.2513682    683.46509  0.015360147  0.014450889            2 
 3709000   0.66550765   -8.2381905    685.14971  0.015393855  0.014446116            2 
 3710000   0.64295647   -8.2639826    683.94952  0.015362747  0.014441346            2 
 3711000   0.64745242   -8.2342074    684.23312  0.015364976  0.014436574            4 
 3712000   0.67120537   -8.2425277    683.70504  0.015348982  0.014431811            1 
 3713000   0.65347752   -8.2464829    685.14523  0.015377171  0.014427039            3 
 3714000   0.66588691   -8.2720167     686.3625  0.015400343  0.014422264            3 
 3715000   0.67327123   -8.2510534    684.74457  0.015359905  0.014417495            1 
 3716000   0.65344793   -8.2399236     684.1125  0.015341597  0.014412738            2 
 3717000   0.64335219   -8.2324273    682.85705  0.015309323  0.014407979            3 
 3718000   0.64945859   -8.2701117    683.87467  0.015328014   0.01440321            3 
 3719000   0.66220362   -8.2448511    684.80915  0.015344832  0.014398449            1 
 3720000    0.6510591   -8.2518869    685.93349  0.015365894  0.014393698            2 
 3721000    0.6618239   -8.2603842    685.67519  0.015355979  0.014388948            2 
 3722000   0.65429697   -8.2349793     685.7323  0.015353132  0.014384217            3 
 3723000   0.65207748   -8.2591332    686.09022   0.01535702  0.014379482            3 
 3724000    0.6547134   -8.2558485    685.01057  0.015328736  0.014374744            2 
 3725000   0.66410497   -8.2324416    686.23617   0.01535204  0.014370009            2 
 3726000   0.66331175   -8.2680355    684.83001   0.01531647  0.014365266            2 
 3727000   0.65383606     -8.27083    683.96956  0.015293121   0.01436052            5 
 3728000   0.64758003   -8.2521993    683.50427  0.015278618  0.014355773            5 
 3729000   0.65677892   -8.2579811    684.83021  0.015304152  0.014351037            2 
 3730000   0.66572354   -8.2421982    685.65571  0.015318492  0.014346308            3 
 3731000   0.64929104    -8.266117    683.66408  0.015269903  0.014341568            5 
 3732000    0.6569535   -8.2745597    685.62057  0.015309498   0.01433683            1 
 3733000   0.63767078   -8.2692423    682.86986  0.015243992  0.014332083            2 
 3734000   0.65368086   -8.2556386    684.77853  0.015282506  0.014327334            3 
 3735000   0.65763325   -8.2694414    684.74902  0.015277756  0.014322608            1 
 3736000   0.65931397   -8.2493259    684.43366  0.015266632  0.014317878            2 
 3737000   0.65588248    -8.240502    683.89221  0.015250473  0.014313152            5 
 3738000   0.66542649   -8.2532044    684.29464  0.015255365  0.014308413            2 
 3739000   0.64391434    -8.269541    684.58661  0.015257792  0.014303683            1 
 3740000   0.64056509   -8.2493582    685.53649  0.015274877  0.014298955            3 
 3741000   0.64172459   -8.2908183    684.82771  0.015255005   0.01429421            5 
 3742000   0.64648701   -8.2551798    684.49019  0.015243412  0.014289479            4 
 3743000   0.64105383   -8.2673459    683.95482  0.015227421  0.014284753            4 
 3744000   0.65481913   -8.2905209    683.38633    0.0152107  0.014280025            2 
 3745000   0.65188962    -8.252758    685.07867  0.015244296  0.014275307            4 
 3746000   0.64754155   -8.2647418    684.69653  0.015231726  0.014270586            2 
 3747000    0.6398076   -8.2543845    685.11884  0.015237053  0.014265859            4 
 3748000   0.65719968    -8.266924     684.4282  0.015217632  0.014261137            2 
 3749000   0.65331941   -8.2378894    683.63794  0.015196007  0.014256412            3 
 3750000   0.65254762   -8.2563192    683.95825  0.015199072  0.014251706            1 
 3751000    0.6382059   -8.2577649    684.89039  0.015215729  0.014247001            2 
 3752000   0.66056062   -8.2728028    684.41549  0.015201126  0.014242296            1 
 3753000   0.64013492   -8.2518508    685.51352  0.015221457   0.01423759            3 
 3754000   0.66273845   -8.2721349    684.85424  0.015202767   0.01423289            1 
 3755000   0.65449515   -8.2756094    683.45405  0.015167644  0.014228183            5 
 3756000   0.64954584   -8.2584312    684.92855   0.01519632  0.014223468            6 
 3757000   0.65483807   -8.2892781    683.49477  0.015160473  0.014218753            3 
 3758000   0.66241963   -8.2636514    684.51989  0.015179171  0.014214036            4 
 3759000   0.65378438   -8.2634511    684.40806  0.015172654  0.014209315            1 
 3760000   0.65105695   -8.2811237    684.26165  0.015165373  0.014204594            3 
 3761000    0.6591997   -8.2862318    684.68379  0.015170695  0.014199876            7 
 3762000   0.65606536     -8.26303    683.85742  0.015148357  0.014195163            2 
 3763000   0.65487456   -8.2695567     683.9653   0.01514672  0.014190445            3 
 3764000   0.65706718   -8.2654381    684.22395  0.015148423  0.014185733            2 
 3765000   0.64074117   -8.2666331    684.08947  0.015141423  0.014181027            2 
 3766000   0.64334776   -8.2614196    684.31984  0.015142499  0.014176325            3 
 3767000   0.66485398   -8.2645956    683.62309  0.015123066  0.014171623            2 
 3768000   0.65341556   -8.2648576     685.7672  0.015166472  0.014166929            3 
 3769000   0.64799732   -8.2808294    683.20419  0.015105779  0.014162241            8 
 3770000      0.65255   -8.2810046    685.03595  0.015142262  0.014157557            9 
 3771000   0.64979116   -8.2615639    683.64724  0.015107559  0.014152879            8 
 3772000   0.65134789   -8.2299218    684.84607  0.015130039  0.014148207            7 
 3773000   0.63861397   -8.2659493    684.49117   0.01511819  0.014143533            4 
 3774000   0.64783264   -8.2728224    684.55471  0.015115587  0.014138859            7 
 3775000   0.65742389   -8.2714674    683.89559  0.015097033  0.014134177            4 
 3776000   0.64822185   -8.2571536    684.14676  0.015098578  0.014129486            3 
 3777000   0.66251219   -8.2818018    685.18633  0.015117517  0.014124811            1 
 3778000   0.65346002   -8.2758002    684.82757  0.015105602  0.014120132            1 
 3779000   0.65641312   -8.2766213    684.94478  0.015104189  0.014115461            7 
 3780000   0.64421421   -8.2717423    683.76942  0.015074282  0.014110784            4 
 3781000   0.64898832   -8.2888955    684.70066  0.015090819  0.014106107            2 
 3782000   0.65489827   -8.2918359    683.71708  0.015065157  0.014101429            1 
 3783000   0.63930255   -8.2627601    685.33082  0.015096723  0.014096746            3 
 3784000   0.64245074   -8.2651332    685.81471  0.015103389  0.014092066            2 
 3785000   0.63515953   -8.2742582    684.88335  0.015078894  0.014087392            4 
 3786000    0.6481575   -8.2598776    684.53839  0.015067318  0.014082716            2 
 3787000   0.63267115   -8.2917714    684.75685  0.015068147  0.014078051            1 
 3788000   0.63706832   -8.2829837    683.54823   0.01503758  0.014073382            4 
 3789000   0.64601068   -8.2815071    684.65621  0.015057979   0.01406872            3 
 3790000   0.64726217   -8.2627932    684.26772  0.015045464  0.014064056            2 
 3791000   0.65465848   -8.2857162    686.05505  0.015080784  0.014059401            2 
 3792000    0.6396255   -8.2734339    684.15944  0.015035149  0.014054748            3 
 3793000    0.6401561   -8.2872118    684.94487  0.015048442  0.014050096            4 
 3794000   0.63449223   -8.2895291    684.67137  0.015038468  0.014045444            3 
 3795000   0.64658381   -8.2763839    683.75251  0.015014328  0.014040788            3 
 3796000   0.61079367   -8.2805578    684.07093  0.015017363  0.014036137            2 
 3797000   0.65122676   -8.2625208    684.49401  0.015022694  0.014031496            2 
 3798000   0.64120531   -8.2700944    683.35903  0.014993835  0.014026848            2 
 3799000   0.65115919   -8.2862521    683.12889   0.01498484  0.014022207            4 
 3800000   0.64573992   -8.2873457    685.20798  0.015026491  0.014017568            2 
 3801000   0.64043385   -8.3053776    684.02133  0.014996521  0.014012923            2 
 3802000   0.64806681   -8.2410987    685.34583  0.015021608  0.014008284            3 
 3803000   0.63625192   -8.2837413    684.47004  0.014998467  0.014003653            1 
 3804000   0.65207646   -8.2918896    683.64774   0.01497651  0.013999017            3 
 3805000   0.63557291   -8.2798519    682.58651  0.014949332  0.013994386            1 
 3806000   0.65054075   -8.2907024    685.21503  0.015002956  0.013989752            2 
 3807000   0.63631836   -8.2855771    684.44988  0.014982267  0.013985123            2 
 3808000   0.65618782   -8.2730558     684.9109  0.014988421  0.013980486            2 
 3809000   0.65787323   -8.2877423    685.48103   0.01499696  0.013975847            3 
 3810000   0.64459985   -8.2853428    686.14196   0.01500748  0.013971226            2 
 3811000   0.64691007   -8.2689243    684.39003  0.014965233  0.013966603            3 
 3812000   0.62698352   -8.2758827     684.9649  0.014973874  0.013961971            2 
 3813000   0.64298969   -8.2793394    684.09802  0.014951001   0.01395734            7 
 3814000   0.63580581   -8.2924002    683.49073  0.014933812  0.013952701            2 
 3815000   0.64567029   -8.2824064    683.42715  0.014928509  0.013948065            3 
 3816000   0.64605843   -8.2882383    683.91825  0.014935322   0.01394344            3 
 3817000   0.64472077   -8.2916762    685.70253  0.014970364  0.013938816            2 
 3818000   0.64117585   -8.2932336    684.31763  0.014936215  0.013934204            2 
 3819000   0.64068862   -8.2797415    684.24133  0.014930639  0.013929591            2 
 3820000   0.63509285   -8.2810924    684.01917  0.014921884  0.013924982            1 
 3821000   0.64126702   -8.2914857    684.58555  0.014930331  0.013920369            3 
 3822000   0.62311695   -8.2842392    685.38855  0.014943933  0.013915758            1 
 3823000   0.64798343   -8.2899802    683.12721  0.014890732  0.013911144            1 
 3824000   0.64532819   -8.2826265    685.70103  0.014942927  0.013906538            1 
 3825000   0.63607315   -8.2699789    683.74062   0.01489631  0.013901939            2 
 3826000    0.6472008   -8.2845897    683.97037   0.01489742  0.013897342            4 
 3827000   0.64388776   -8.2861865    686.89506  0.014957213  0.013892753            4 
 3828000    0.6284778    -8.278235    683.97974  0.014889841  0.013888156            2 
 3829000   0.65399147   -8.2784845    684.10098  0.014888591  0.013883563            3 
 3830000   0.63199435    -8.280725    684.74339  0.014898681  0.013878965            3 
 3831000   0.64762229   -8.3061407    684.78046  0.014895599  0.013874363            2 
 3832000   0.64472545   -8.2976257    684.84405  0.014893094  0.013869756            2 
 3833000   0.63452643   -8.2806009    683.98243  0.014870476   0.01386516            3 
 3834000   0.62706504   -8.2882442    683.83258  0.014863341  0.013860565            1 
 3835000   0.63512636   -8.2955795    684.32774  0.014870225   0.01385597            1 
 3836000   0.62817647    -8.271695    685.55596   0.01489303  0.013851377            3 
 3837000   0.62190775   -8.2937652    685.04699  0.014878095  0.013846785            2 
 3838000   0.63309669   -8.3150054    684.52493  0.014862883  0.013842195            1 
 3839000   0.63799448   -8.3001371    684.78466  0.014864649  0.013837594            3 
 3840000   0.65125139   -8.2790465    685.19922  0.014869775  0.013833009            1 
 3841000   0.62831179   -8.3102595    684.03829  0.014840716  0.013828415            2 
 3842000   0.62446481   -8.2936994    684.34917  0.014843596   0.01382382            3 
 3843000   0.63602121   -8.3126839    685.41619  0.014862872  0.013819235            2 
 3844000   0.64826228   -8.3050401    682.99135  0.014806437  0.013814643            5 
 3845000   0.64312797   -8.3060274    684.86342   0.01484316  0.013810051            3 
 3846000   0.65446722   -8.3048633    685.00864  0.014842448  0.013805467            1 
 3847000   0.63288366   -8.2733029    684.95276  0.014837379  0.013800883            3 
 3848000   0.65239795   -8.3037421    684.28843  0.014819136  0.013796291            1 
 3849000   0.63232622   -8.2777785    683.48477  0.014797886  0.013791711            4 
 3850000   0.62932143   -8.3216405    683.60662   0.01479668  0.013787132            2 
 3851000   0.62711163   -8.3120378    683.32919  0.014786834  0.013782542            1 
 3852000   0.63747893   -8.3159735    683.57096  0.014788226  0.013777956            4 
 3853000   0.63785019   -8.2847587    685.15068  0.014818554  0.013773373            3 
 3854000   0.63078803   -8.3000218    684.33202  0.014797008  0.013768793            1 
 3855000    0.6467495   -8.3026762    684.04134  0.014786886  0.013764221            1 
 3856000   0.64387892   -8.3139455     683.5714  0.014772895  0.013759648            4 
 3857000   0.63604971   -8.3221011    683.78427  0.014773664  0.013755076            2 
 3858000   0.64209395   -8.3218561     684.9634  0.014795304  0.013750504            2 
 3859000   0.65527765    -8.301781    684.45406  0.014780471  0.013745936            2 
 3860000   0.64336459   -8.3150354    684.75874   0.01478322   0.01374137            1 
 3861000   0.62722342   -8.3041365    683.61357  0.014754674  0.013736785            2 
 3862000   0.62382937    -8.323049    684.77148  0.014775839  0.013732207            2 
 3863000   0.63395257   -8.3271044    683.63224  0.014747438  0.013727629            3 
 3864000   0.63005589   -8.3175897    684.77643  0.014768298  0.013723055            3 
 3865000    0.6234001   -8.3377852    683.98454  0.014747403  0.013718485            2 
 3866000    0.6273032   -8.3055075    684.98156  0.014765079   0.01371392            3 
 3867000   0.62877224   -8.3317924    684.28051  0.014746154  0.013709347            3 
 3868000   0.62883823   -8.2966865    684.11535  0.014738783   0.01370478            2 
 3869000   0.62920641   -8.3083149    683.02252  0.014711435  0.013700211            2 
 3870000   0.63880396   -8.3107493    683.69172  0.014722044  0.013695652            1 
 3871000   0.63573849   -8.3428644    684.58942  0.014737566  0.013691086            2 
 3872000   0.61731047   -8.3171996    682.56368  0.014690162  0.013686519            3 
 3873000   0.62850746   -8.3308324    682.45377  0.014684004  0.013681956            5 
 3874000   0.62711148   -8.3122457    682.79569  0.014687569  0.013677397            4 
 3875000   0.63286669   -8.3152303    682.84494  0.014684837  0.013672832            2 
 3876000   0.63720483    -8.314548    683.35668  0.014692051  0.013668268            2 
 3877000   0.63955177   -8.3397767     682.9507  0.014679535  0.013663712            3 
 3878000    0.6314972   -8.3274243    683.26402  0.014682483  0.013659152            2 
 3879000    0.6264335   -8.3044787    685.22767  0.014720883  0.013654593            3 
 3880000   0.63830371   -8.3110719    683.73109  0.014684946  0.013650038            2 
 3881000   0.63064643   -8.3200589    684.18758  0.014690964  0.013645491            2 
 3882000   0.62507756   -8.3038811    683.99346  0.014683013  0.013640943            2 
 3883000   0.63480422   -8.3335208    682.90039  0.014655773  0.013636398            3 
 3884000   0.63884865   -8.2997965    684.07541   0.01467721  0.013631851            3 
 3885000   0.63333617   -8.3239927    683.65232  0.014664357  0.013627312            1 
 3886000   0.64021188   -8.3206919    684.87041  0.014686705  0.013622766            2 
 3887000   0.62239332     -8.31666    684.89142  0.014683377  0.013618222            2 
 3888000   0.63715341   -8.3076819    682.78081  0.014634362  0.013613682            3 
 3889000   0.62046938   -8.3281588    685.09747  0.014680241  0.013609149            3 
 3890000   0.64846516   -8.3190901    685.21195  0.014678919  0.013604619            3 
 3891000   0.63684025   -8.3170095    683.46239  0.014637677  0.013600084            3 
 3892000   0.62700349   -8.3203433    685.03904  0.014667674  0.013595557            2 
 3893000   0.62793346   -8.3451601     682.8939  0.014617987  0.013591026            1 
 3894000   0.61614095   -8.3133096    683.60815  0.014629519  0.013586493            1 
 3895000   0.63064454   -8.3140929    683.67141  0.014627116  0.013581963            1 
 3896000   0.62088509   -8.3491606    683.26618  0.014614694  0.013577432            1 
 3897000   0.61535598   -8.3274159    683.15051   0.01460847  0.013572905            3 
 3898000   0.61695376   -8.3503324    683.67246  0.014615881  0.013568377            1 
 3899000   0.62321776   -8.3060958    683.38456  0.014605979  0.013563847            1 
 3900000   0.63705204   -8.3072939    683.50926  0.014604899  0.013559328            1 
 3901000   0.64487745   -8.3367049    683.38673  0.014598537  0.013554812            1 
 3902000    0.6097817   -8.3246518    683.31702  0.014593307  0.013550292            2 
 3903000   0.61745521   -8.3255066    682.88741  0.014580396  0.013545774            2 
 3904000   0.64004263   -8.3345579     684.3746  0.014608406  0.013541261            2 
 3905000   0.62570567   -8.3340412    683.82868  0.014593015  0.013536746            2 
 3906000    0.6176639   -8.3434403    684.02914  0.014593556  0.013532235            1 
 3907000   0.61331989   -8.3443143    683.54599  0.014579515  0.013527722            2 
 3908000   0.61652582   -8.3620516    682.82859  0.014560487  0.013523205            2 
 3909000   0.62233596   -8.3507688    683.59583  0.014573118  0.013518698            1 
 3910000   0.61716751   -8.3312499    683.66933  0.014570958  0.013514197            2 
 3911000   0.63043094   -8.3256598    683.59682  0.014565687  0.013509695            3 
 3912000    0.6237635   -8.3120384    685.74209  0.014607662  0.013505194            2 
 3913000    0.6144847   -8.3233426    684.50603  0.014577605  0.013500697            3 
 3914000   0.62545397   -8.3558732    683.59664  0.014554519  0.013496199            3 
 3915000   0.61810801   -8.3389636    683.26025  0.014543641  0.013491692            2 
 3916000    0.6208264   -8.3583981    682.51024  0.014523967  0.013487189            2 
 3917000   0.62562189   -8.3457477    683.95094  0.014550909  0.013482682            2 
 3918000   0.62849076   -8.3413117    683.75504  0.014543029  0.013478179            2 
 3919000   0.62819089    -8.356153    682.54129  0.014513509   0.01347368            5 
 3920000   0.62541914   -8.3234268    684.67678  0.014555204  0.013469187            3 
 3921000   0.62035078   -8.3484046    683.44475  0.014525307  0.013464691            2 
 3922000   0.62645908   -8.3326009    685.46572  0.014564544  0.013460196            6 
 3923000   0.62141285   -8.3425382    683.67191  0.014522727  0.013455703            5 
 3924000   0.63589362   -8.3643097    682.54885  0.014495176  0.013451204            4 
 3925000   0.62299004    -8.353686    682.65276  0.014493689  0.013446723            5 
 3926000   0.61991126   -8.3487792    683.13722  0.014500281  0.013442234            2 
 3927000   0.63618016   -8.3414483    683.25057  0.014498993  0.013437754            2 
 3928000    0.6195448   -8.3425948     683.1637  0.014493459  0.013433277            2 
 3929000   0.61343938    -8.336741    682.98345  0.014485948  0.013428793            2 
 3930000   0.62126835   -8.3371633    683.00465  0.014482711  0.013424315            2 
 3931000   0.62730037   -8.3542575    684.88231  0.014518831  0.013419833            4 
 3932000   0.61878022     -8.34382    683.07746  0.014476888  0.013415358            3 
 3933000   0.62634253   -8.3445486     683.9382  0.014491444  0.013410884            3 
 3934000   0.62767316   -8.3500824    683.95158  0.014488044  0.013406412            3 
 3935000    0.6098525   -8.3498016    683.58391  0.014476576  0.013401943            4 
 3936000   0.60902989   -8.3441979    683.75957  0.014476617  0.013397474            2 
 3937000   0.62228244   -8.3498649    684.09406   0.01448002  0.013393009            2 
 3938000   0.62609034   -8.3355087    682.71593   0.01444718  0.013388548            3 
 3939000   0.61547535   -8.3540102    682.95541  0.014448579  0.013384089            2 
 3940000   0.61361336   -8.3586816    684.39944  0.014475453  0.013379632            1 
 3941000   0.61904941   -8.3389825    684.96555  0.014483751  0.013375178            4 
 3942000   0.61669967   -8.3212385    683.78563  0.014455133  0.013370719            3 
 3943000   0.62823453   -8.3619781    683.05707   0.01443607  0.013366268            2 
 3944000   0.61984212   -8.3424999    683.41661  0.014440006  0.013361814            6 
 3945000   0.61701935   -8.3428645    682.82437  0.014423835  0.013357362            3 
 3946000   0.61606779   -8.3452375    682.70735  0.014417709  0.013352912            1 
 3947000   0.61049049   -8.3418969      682.978   0.01441977  0.013348457            1 
 3948000   0.61370163   -8.3191725    683.04118  0.014417451  0.013344006            2 
 3949000   0.62190622   -8.3536164    682.78472  0.014408389  0.013339551            5 
 3950000   0.61703842   -8.3497412    683.67697  0.014423565    0.0133351            2 
 3951000   0.63973533   -8.3330315    685.13189  0.014450601  0.013330652            3 
 3952000   0.61074607   -8.3535494    684.61877  0.014436125  0.013326205            3 
 3953000   0.61595317   -8.3476116      682.611  0.014390147  0.013321757            4 
 3954000   0.62382173   -8.3493162    683.15042  0.014397876  0.013317307            2 
 3955000   0.63019561   -8.3351823    682.14619  0.014373076  0.013312862            3 
 3956000   0.63314749   -8.3345965    683.00075  0.014387444  0.013308414            5 
 3957000   0.61801622   -8.3589294    683.57258  0.014395851  0.013303968            2 
 3958000   0.60703255   -8.3627611    682.29366  0.014365287  0.013299522            3 
 3959000   0.63222341     -8.34148    683.80082  0.014393383  0.013295076            2 
 3960000   0.62368562   -8.3513382    683.54321  0.014384327  0.013290628            2 
 3961000   0.62700847   -8.3662675    682.88596  0.014366868  0.013286179            1 
 3962000   0.62508013   -8.3580391    682.72462  0.014359848  0.013281742            3 
 3963000   0.61847417   -8.3360071    682.74826  0.014356722  0.013277299            1 
 3964000   0.61277686   -8.3500058    683.02548  0.014358928  0.013272858            1 
 3965000   0.61723659   -8.3343372    682.26962   0.01433942  0.013268425            2 
 3966000   0.62541494   -8.3422754    681.97174  0.014329546  0.013263985            1 
 3967000   0.61149162   -8.3532355     683.8223  0.014364808  0.013259548            2 
 3968000   0.61317911   -8.3537726    682.47221  0.014332834  0.013255111            3 
 3969000   0.61142346   -8.3508932    681.47325  0.014308248  0.013250683            6 
 3970000   0.62133568   -8.3655047    681.33395   0.01430172  0.013246246            4 
 3971000   0.61109324   -8.3462134    683.86424  0.014351218  0.013241806            6 
 3972000   0.62055582   -8.3556643    681.98867  0.014308255  0.013237374            2 
 3973000   0.60997642   -8.3503872    682.56608  0.014316765  0.013232937            2 
 3974000    0.6143541   -8.3836776    683.89636  0.014341058  0.013228507            2 
 3975000   0.60143051   -8.3514226    681.51439  0.014287514  0.013224078            4 
 3976000   0.61154581   -8.3886567    683.37596  0.014322937  0.013219652            2 
 3977000   0.60256812   -8.3745462    682.81696  0.014307622  0.013215222            3 
 3978000   0.62115523   -8.3496289     683.0588  0.014309092  0.013210795            2 
 3979000   0.59756268   -8.3709055    681.48442  0.014272523  0.013206369            3 
 3980000   0.62021304   -8.3470442    682.71389  0.014294679  0.013201954            3 
 3981000   0.61765984   -8.3587429     683.2857  0.014303058  0.013197534            2 
 3982000   0.60683568   -8.3651113    682.87675  0.014290908  0.013193115            3 
 3983000   0.61292591   -8.3686875    682.83466   0.01428644  0.013188695            3 
 3984000   0.61147703   -8.3518524     682.7823  0.014281758  0.013184279            5 
 3985000   0.61105722    -8.370571    682.41341   0.01427046  0.013179867            4 
 3986000   0.58988426   -8.3686351    682.86297  0.014276279  0.013175451            8 
 3987000   0.61658479   -8.3637877    682.60671  0.014267342  0.013171036            7 
 3988000   0.62559838   -8.3583298    682.13739  0.014253957   0.01316662            2 
 3989000    0.5982023   -8.3571662    682.42804  0.014256456  0.013162216            1 
 3990000   0.61761028   -8.3809336    681.59891  0.014235566  0.013157803            3 
 3991000   0.60109762   -8.3733816      681.877  0.014237806  0.013153392            3 
 3992000   0.62859423   -8.3725783    683.05428  0.014258815   0.01314898            2 
 3993000   0.61471798   -8.3728548    681.69602  0.014226898  0.013144583            3 
 3994000   0.60666784   -8.3679142    682.11461  0.014232069   0.01314018            5 
 3995000   0.61641997   -8.3656847    683.42623  0.014255866  0.013135777            2 
 3996000   0.60809118   -8.3825229    682.78592  0.014238946  0.013131377            8 
 3997000   0.61594398   -8.3619102    683.00391  0.014239928  0.013126981            5 
 3998000   0.60006171   -8.3872115    681.77041  0.014210656  0.013122589            6 
 3999000   0.61709259   -8.3750341    682.59652  0.014224317  0.013118197            3 
 4000000   0.61323038    -8.363194    681.76319    0.0142034  0.013113812            2 
 4001000   0.61879587   -8.3818921    683.23971  0.014230603  0.013109429            3 
 4002000   0.61886969   -8.3638694    681.78353  0.014196725  0.013105048            2 
 4003000   0.62025911   -8.3697454    681.61779  0.014189728  0.013100667            5 
 4004000   0.60172132   -8.3545211    682.35626  0.014201554  0.013096285            4 
 4005000   0.62604253   -8.3437525     682.5394  0.014201819  0.013091905            3 
 4006000   0.60839387   -8.3500932    683.22982  0.014212636  0.013087524            4 
 4007000   0.60136732   -8.3783846     683.9142  0.014223322  0.013083149            6 
 4008000   0.61201972   -8.3832995    682.46281  0.014189596  0.013078771            2 
 4009000   0.61655288   -8.3843197    682.86439  0.014194404  0.013074394            3 
 4010000   0.59874326   -8.3393839    683.55872  0.014205294  0.013070024            2 
 4011000   0.60096855   -8.3637461    682.36466  0.014176944  0.013065656            3 
 4012000   0.60300568   -8.3815423    683.38916   0.01419469  0.013061284            2 
 4013000   0.60497799   -8.3797608    682.49541  0.014172594  0.013056909            3 
 4014000   0.61535956    -8.378793    682.08691  0.014160582  0.013052535            4 
 4015000   0.61165034   -8.3675264    682.82268  0.014172326  0.013048165            6 
 4016000   0.61534528   -8.3746474    682.20818  0.014156046  0.013043796            2 
 4017000   0.60404857   -8.3488775     683.0597  0.014170187  0.013039427            2 
 4018000   0.60330316   -8.3667527    682.55726   0.01415624   0.01303507            4 
 4019000   0.60951928   -8.3619462    684.53444  0.014193714  0.013030714            2 
 4020000   0.60896102   -8.3804325     683.0799  0.014160031   0.01302635            4 
 4021000   0.60786785   -8.3673352    683.56442  0.014166551  0.013021993            2 
 4022000     0.601841   -8.3801848    683.05973  0.014152572  0.013017638            2 
 4023000   0.60844982   -8.3514374     683.0232  0.014148297  0.013013285            7 
 4024000   0.60725432   -8.3935056    682.95746   0.01414342  0.013008931            6 
 4025000   0.61887272   -8.3741281    682.42629  0.014128909  0.013004581            2 
 4026000   0.60693783   -8.3837578     682.7168  0.014131413  0.013000232            2 
 4027000   0.61971729   -8.3778867    682.41351  0.014121627   0.01299588            3 
 4028000   0.60918575     -8.38763    682.45874  0.014119057  0.012991521            4 
 4029000   0.61220745   -8.4059503    682.86383  0.014123931  0.012987175            2 
 4030000   0.60138058   -8.3702157    682.47115  0.014112307  0.012982825            2 
 4031000    0.6111329   -8.3878865    683.22987  0.014124491  0.012978477            2 
 4032000   0.60253769   -8.3881194    682.10123  0.014097661  0.012974133            2 
 4033000   0.61638112   -8.3867351    681.93486  0.014090728  0.012969783            6 
 4034000   0.60545721   -8.3933461     682.9431  0.014108063  0.012965437            4 
 4035000   0.61488505   -8.3952613     681.8062  0.014081086  0.012961086            2 
 4036000   0.60177098   -8.3942133    681.94349  0.014080432  0.012956743            2 
 4037000    0.6048922   -8.4039786    682.01669  0.014078455  0.012952397            2 
 4038000   0.60792489   -8.3731173    682.45075  0.014083927  0.012948055            2 
 4039000   0.61121905   -8.4097425    682.17432  0.014074736  0.012943716            3 
 4040000   0.61509972   -8.3937834    681.45729  0.014056462  0.012939378            4 
 4041000   0.59559759   -8.4166015    681.75341   0.01405909  0.012935036            9 
 4042000   0.61978192   -8.3951061     683.4578  0.014090751  0.012930702            2 
 4043000   0.61513554   -8.4063853    682.59427  0.014069467  0.012926367            6 
 4044000    0.6077112    -8.393432    681.27717  0.014038847  0.012922028            2 
 4045000   0.60127653   -8.3995389    682.12276  0.014052797  0.012917698            5 
 4046000   0.60934079    -8.414572    681.24236   0.01403119  0.012913366            2 
 4047000   0.61076546   -8.3868381    682.94473  0.014062777  0.012909031            1 
 4048000   0.60591027   -8.4076566    680.99176  0.014019099  0.012904692            4 
 4049000   0.61117368   -8.3965942    682.04877  0.014037391  0.012900364            5 
 4050000   0.60217197   -8.4126532    682.02646  0.014033466  0.012896032            4 
 4051000   0.61403903   -8.4129412    681.33702   0.01401582    0.0128917            2 
 4052000   0.60723776   -8.4055808    681.63021   0.01401839  0.012887372            2 
 4053000   0.59882309   -8.3973649    682.13601  0.014025331  0.012883046            2 
 4054000   0.60827422    -8.407267    682.94632  0.014038528  0.012878725            2 
 4055000   0.61673945   -8.3882428    681.16518  0.013998462  0.012874408            3 
 4056000   0.61353756   -8.4063644    681.81713  0.014008406   0.01287009            1 
 4057000   0.60088575   -8.4052457    681.35915  0.013995546   0.01286577            2 
 4058000    0.5962302    -8.397388    682.63992  0.014018398  0.012861454            2 
 4059000   0.60101338   -8.3999567    684.20234  0.014047022  0.012857141            3 
 4060000   0.60070615   -8.3901207    681.39565  0.013985953  0.012852832            1 
 4061000    0.5964494   -8.3945035    681.35595  0.013981695  0.012848515            1 
 4062000   0.60825044   -8.4003361    682.42251  0.014000134  0.012844207            2 
 4063000   0.60376603   -8.4138206    681.66257  0.013981101  0.012839896            2 
 4064000   0.60274208   -8.4070538    682.05441  0.013985696  0.012835578            3 
 4065000   0.60546384   -8.3990876    681.00543  0.013960751  0.012831278            2 
 4066000   0.60952891   -8.3947223     681.0163   0.01395754  0.012826975            3 
 4067000   0.60085909    -8.397472    681.51197  0.013964265   0.01282267            1 
 4068000   0.59553231   -8.3917012    682.68699  0.013984902  0.012818378            4 
 4069000    0.6058308    -8.402557    682.33522  0.013974261  0.012814078            1 
 4070000   0.58347342   -8.4102918    682.28401  0.013969779  0.012809782            2 
 4071000   0.59674682   -8.4015202    682.46867  0.013970127  0.012805487            1 
 4072000   0.60289227   -8.4091623    681.73072  0.013951595  0.012801192            3 
 4073000   0.58965939   -8.4123803    681.04878  0.013934217  0.012796898            3 
 4074000   0.59823062   -8.4231679     681.8664  0.013947521   0.01279261            1 
 4075000   0.59020893   -8.4263376     681.0468  0.013927337  0.012788315            3 
 4076000   0.59938514   -8.3999746     681.6833  0.013936934  0.012784024            2 
 4077000   0.59118085   -8.4183669    680.31055  0.013905456  0.012779733            2 
 4078000   0.60848435   -8.4081468    682.90534  0.013955071  0.012775447            1 
 4079000   0.59856083   -8.4071306    681.25387   0.01391791  0.012771159            2 
 4080000   0.60861396   -8.4019564    681.84753  0.013926624  0.012766878            3 
 4081000   0.60746479   -8.3904602    681.75386  0.013921299  0.012762601            3 
 4082000   0.59244535   -8.4091292     681.0004  0.013902507  0.012758319            2 
 4083000   0.59482652   -8.4095599    681.47946   0.01390888  0.012754044            1 
 4084000   0.58391612   -8.3913891    682.51987  0.013926703  0.012749771            2 
 4085000   0.59956213   -8.4147429    681.44128  0.013901291  0.012745499            1 
 4086000   0.58759812   -8.3868994    681.96581  0.013908586   0.01274123            5 
 4087000   0.59349184   -8.3977193    681.43129  0.013894285  0.012736963            2 
 4088000   0.60601027   -8.4026355    681.88308  0.013900095  0.012732698            3 
 4089000   0.61176529   -8.4158097    681.55752  0.013890061  0.012728433            2 
 4090000   0.58827548   -8.4128881     683.4647  0.013925524  0.012724174            3 
 4091000   0.60648165   -8.3946924    682.96164  0.013911872  0.012719917            1 
 4092000   0.59047605   -8.4190885    682.19938  0.013892949  0.012715659            1 
 4093000   0.59553951   -8.4089714    682.22089  0.013889993  0.012711401            2 
 4094000   0.60405243   -8.4120292    679.62715  0.013833805  0.012707141            2 
 4095000     0.604392   -8.4153122    681.20986  0.013862635  0.012702884            4 
 4096000   0.59412061    -8.420574    682.39655  0.013883393  0.012698629            2 
 4097000   0.59888625    -8.412649    682.75155  0.013887225  0.012694381            3 
 4098000   0.59475308   -8.3774983    680.80876   0.01384433  0.012690124            2 
 4099000   0.59479973   -8.4061833    681.07552  0.013846375  0.012685866            2 
 4100000   0.59529513   -8.4095066    681.20308  0.013845591  0.012681614            2 
 4101000   0.60053997   -8.4155956    681.80433  0.013854432  0.012677363            2 
 4102000   0.59558496   -8.4097721    681.41253  0.013843095  0.012673112            3 
 4103000   0.59422197   -8.4169273    681.21393  0.013835688   0.01266886            5 
 4104000    0.5897214   -8.4154982    680.39276  0.013815642   0.01266461            1 
 4105000   0.59018052   -8.4181124    680.39874  0.013812398  0.012660363            3 
 4106000   0.60000536   -8.4019325    681.79445  0.013837361  0.012656117            2 
 4107000   0.59107418   -8.4092803    681.98501  0.013837858  0.012651867            2 
 4108000   0.59122361   -8.4110879    682.55513  0.013846055  0.012647622            2 
 4109000   0.59283542   -8.4011021    682.28751  0.013837258  0.012643385            2 
 4110000   0.59904274   -8.4119583    682.08883  0.013829863  0.012639151            2 
 4111000   0.58933227   -8.3979049    681.72295  0.013819082  0.012634913            2 
 4112000   0.59286545   -8.4105023    682.22264  0.013825848  0.012630676            2 
 4113000    0.6105907    -8.432498    681.47371  0.013807312  0.012626444            3 
 4114000   0.58715467   -8.4277311    681.46317  0.013803743   0.01262221            4 
 4115000   0.58431734    -8.443366    679.63066  0.013763278  0.012617973            3 
 4116000   0.58630671    -8.411333    681.35416  0.013794828  0.012613747            2 
 4117000   0.58840595   -8.3997002    680.27797  0.013769694  0.012609519            2 
 4118000   0.59666973   -8.4049231      680.875  0.013778432  0.012605291            3 
 4119000   0.58382236    -8.425708    680.80597   0.01377369  0.012601064            3 
 4120000   0.59863238   -8.4112039    681.95057  0.013793499  0.012596833            3 
 4121000   0.60559198    -8.426484    682.59553  0.013803194   0.01259261            2 
 4122000   0.57272487   -8.4355107    681.34793  0.013774622  0.012588382            2 
 4123000   0.59127178   -8.4067585    680.71536  0.013758496  0.012584166            2 
 4124000   0.58843017   -8.4055279    681.60917  0.013773221  0.012579956            2 
 4125000   0.60074156   -8.4208354    679.65814  0.013730467  0.012575739            2 
 4126000   0.58984787   -8.3983068    681.71826  0.013768748  0.012571531            2 
 4127000   0.59726476   -8.4205988    681.11678  0.013753267  0.012567324            2 
 4128000    0.5858913    -8.415808    681.17061  0.013751022  0.012563108            3 
 4129000   0.59400321   -8.4083241    681.14779  0.013747231  0.012558899            3 
 4130000   0.59216238   -8.4285291    681.08827  0.013742701  0.012554693            2 
 4131000   0.57677092   -8.4309354    680.38985  0.013725285  0.012550486            2 
 4132000   0.58029962    -8.413794    681.74944  0.013749384  0.012546278            6 
 4133000    0.5877814   -8.4325438    682.13539  0.013753839  0.012542077            1 
 4134000   0.59043098   -8.4004932    680.97812  0.013727183  0.012537872            2 
 4135000    0.6062611   -8.4103241    680.93479   0.01372299  0.012533672            3 
 4136000   0.58801187   -8.4110087     681.0738  0.013722473  0.012529469            2 
 4137000   0.59458786   -8.4359615    681.33514  0.013724421  0.012525264            1 
 4138000   0.58488975    -8.423674    680.94767  0.013713301  0.012521067            1 
 4139000   0.59345953   -8.4205435    680.21406  0.013695217  0.012516872            1 
 4140000   0.60745449   -8.4188387    681.44643  0.013716716  0.012512678            1 
 4141000   0.57306006   -8.4238303    680.84158  0.013701231  0.012508482            2 
 4142000   0.59388559   -8.4024225    681.83704  0.013717951  0.012504289            3 
 4143000   0.59070075   -8.4370704    681.53827   0.01370863  0.012500101            3 
 4144000   0.58165892   -8.4404677    681.79146  0.013710414  0.012495913            2 
 4145000   0.59368543   -8.4229205    681.51633  0.013701575  0.012491731            2 
 4146000   0.59629541   -8.4289752    679.50842  0.013657912  0.012487546            1 
 4147000   0.58433542   -8.4316348    681.49462  0.013694531  0.012483356            2 
 4148000   0.57004044   -8.4349276    680.00005  0.013661203  0.012479174            3 
 4149000   0.58547009   -8.4307768    681.14811  0.013680969  0.012474994            4 
 4150000   0.59237201   -8.4356893    681.84995  0.013691766  0.012470811            2 
 4151000   0.58015903    -8.425954     681.8545  0.013688559  0.012466629            2 
 4152000   0.59232631   -8.4229107     681.0727  0.013669571  0.012462453            4 
 4153000   0.59876766   -8.4406426    680.66439  0.013658086  0.012458279            4 
 4154000   0.58492724    -8.424999    680.98467  0.013661224  0.012454103            3 
 4155000    0.5893857   -8.4293679    681.27549  0.013663768  0.012449935            3 
 4156000   0.59613953   -8.4282983    681.50921  0.013665167  0.012445765            1 
 4157000   0.58589744   -8.4121601    682.28995  0.013677531  0.012441601            1 
 4158000   0.58454828   -8.4285568    681.24932  0.013653385  0.012437444            4 
 4159000   0.60407551   -8.4266115    679.82511  0.013621566  0.012433281            3 
 4160000   0.58786304   -8.4187285    682.01237  0.013662107  0.012429116            3 
 4161000   0.59390857   -8.4314799    681.80751  0.013654721  0.012424958            3 
 4162000   0.58033354   -8.4241129    681.66248  0.013648536  0.012420803            2 
 4163000   0.58310861   -8.4263844    682.23004  0.013656619  0.012416648            2 
 4164000   0.58199246   -8.4389828     681.2061  0.013632847  0.012412486            2 
 4165000   0.58123422   -8.4252717    681.74088  0.013640274  0.012408332            3 
 4166000   0.58958568   -8.4253394    680.46291  0.013611436  0.012404171            2 
 4167000    0.5963302   -8.4206299    681.71305   0.01363317  0.012400013            4 
 4168000   0.57825339   -8.4321767    681.18649  0.013619372  0.012395861            3 
 4169000   0.58760331   -8.4149293    680.97286  0.013611835  0.012391713            1 
 4170000   0.58494477   -8.4376789    682.13091  0.013631713  0.012387568            2 
 4171000   0.58635198   -8.4259707    681.09267  0.013607701  0.012383427            2 
 4172000    0.5906275   -8.4307407    681.39685  0.013610515  0.012379286            2 
 4173000   0.59477807   -8.4284269    682.00409   0.01361938  0.012375151            2 
 4174000   0.57919826   -8.4154217    680.60384  0.013588162  0.012371012            2 
 4175000   0.58808234   -8.4117234    682.06993   0.01361417  0.012366875            2 
 4176000   0.58048439   -8.4371867    680.53095  0.013580199  0.012362745            2 
 4177000    0.5873679   -8.4419747    682.03101  0.013606875  0.012358613            2 
 4178000   0.58420315   -8.4211253    680.13427  0.013565786  0.012354478            3 
 4179000   0.59497921   -8.4180491    681.30502  0.013585886  0.012350344            2 
 4180000    0.5639492   -8.4368353    680.71498  0.013570873  0.012346214            2 
 4181000   0.58949738   -8.4538955    680.72115   0.01356775  0.012342079            3 
 4182000   0.59797122   -8.4485128     680.1996  0.013554113  0.012337951            2 
 4183000   0.57383857   -8.4589447    680.53096  0.013557474  0.012333816            2 
 4184000   0.59152051    -8.461437    681.55049   0.01357454  0.012329688            2 
 4185000   0.58112598   -8.4538649    680.25384  0.013545477  0.012325558            5 
 4186000   0.57586662   -8.4515153    680.81556  0.013553423   0.01232143            1 
 4187000   0.58552087   -8.4251771    681.10251  0.013555897  0.012317303            1 
 4188000   0.57369963   -8.4166516    681.63577  0.013563272  0.012313186            5 
 4189000   0.57291489   -8.4441493    680.70727  0.013541563  0.012309066            1 
 4190000   0.58078431   -8.4499662    681.59518   0.01355599  0.012304945            1 
 4191000   0.57309534   -8.4525895    680.71466  0.013535247   0.01230083            5 
 4192000    0.5919756   -8.4415717    681.73278  0.013552258   0.01229672            1 
 4193000   0.58125062   -8.4281635    680.65108  0.013527528  0.012292612            2 
 4194000   0.59767265   -8.4279225    682.16321  0.013554348    0.0122885            2 
 4195000    0.5744084   -8.4361473    680.47946  0.013517669  0.012284395            2 
 4196000   0.57985848   -8.4266236    681.38309  0.013532394  0.012280289            1 
 4197000    0.5803097   -8.4468116     682.1296  0.013543992  0.012276186            2 
 4198000   0.58212182   -8.4498443    680.78422  0.013514059  0.012272089            3 
 4199000   0.57943345   -8.4410108    682.25211  0.013539972   0.01226799            3 
 4200000   0.56722005   -8.4386005    681.20868  0.013516045  0.012263888            2 
 4201000   0.57562214   -8.4414588    681.66457  0.013521871  0.012259796            4 
 4202000   0.58756263   -8.4435736    681.56018  0.013516583  0.012255693            2 
 4203000   0.57585785   -8.4402456    680.86821  0.013499647  0.012251596            4 
 4204000   0.57711629   -8.4475881    681.40885  0.013507153  0.012247505            2 
 4205000   0.57471065   -8.4343052    681.46752  0.013505103  0.012243413            3 
 4206000   0.57555655   -8.4584789    680.32983  0.013479352  0.012239321            3 
 4207000   0.58834786   -8.4679211     679.9152  0.013467934   0.01223523            5 
 4208000   0.58018752   -8.4362423    680.81857  0.013482624  0.012231133            1 
 4209000   0.58978909   -8.4485247    680.61648  0.013475419  0.012227043            2 
 4210000   0.57190686   -8.4279206    681.34363  0.013486612  0.012222957            2 
 4211000   0.57503538   -8.4370977    681.92021  0.013494819  0.012218874            2 
 4212000   0.58006629   -8.4459388    681.12457  0.013475874  0.012214783            2 
 4213000   0.57282744   -8.4532664    681.46551  0.013479419  0.012210699            2 
 4214000   0.58708009   -8.4400618    681.38766  0.013474681  0.012206615            1 
 4215000   0.56892174   -8.4460392    680.77701  0.013459411  0.012202532            3 
 4216000   0.57167041   -8.4300811    681.17242  0.013464034  0.012198447            3 
 4217000   0.57971161   -8.4415226    680.17486  0.013441128  0.012194372            2 
 4218000   0.58185132   -8.4291551    680.39103  0.013442213  0.012190296            4 
 4219000   0.59168475   -8.4284651     680.6689  0.013444515   0.01218622            2 
 4220000   0.57248833   -8.4538063    681.52333  0.013458202  0.012182152            2 
 4221000    0.5882818   -8.4327202    679.99373  0.013424815  0.012178082            1 
 4222000   0.57628376   -8.4562735    680.53776  0.013432373   0.01217401            4 
 4223000   0.56731369   -8.4409385    680.46619   0.01342778  0.012169935            1 
 4224000   0.58469161   -8.4477283    681.41362  0.013443293  0.012165863            4 
 4225000   0.58554272   -8.4661761     681.2404  0.013436694  0.012161791            1 
 4226000   0.56558832   -8.4553752    681.51271  0.013438884  0.012157721            2 
 4227000   0.57032849   -8.4378875    681.49478  0.013435352  0.012153656            2 
 4228000    0.5760139   -8.4481898    680.75051  0.013417505  0.012149593            2 
 4229000   0.59064431   -8.4527876    680.05562  0.013400639  0.012145526            2 
 4230000   0.57826446   -8.4464882    680.37222  0.013403708  0.012141462            2 
 4231000   0.57965198   -8.4736927    680.26648  0.013398457  0.012137398            2 
 4232000   0.57438984   -8.4553336    680.49692  0.013399829  0.012133337            4 
 4233000   0.57370741   -8.4508991    680.53104  0.013397335  0.012129275            2 
 4234000   0.57928507   -8.4770892    680.27796   0.01338919  0.012125218            4 
 4235000   0.57437503   -8.4498754     681.4482  0.013409056  0.012121163            4 
 4236000   0.58842245   -8.4477069    680.87943  0.013394701  0.012117109            3 
 4237000   0.57070196    -8.473594    680.47649  0.013383614  0.012113058            4 
 4238000   0.56552791   -8.4499226     680.9908  0.013390569  0.012109007            3 
 4239000   0.57731356   -8.4639856     681.1719  0.013390971   0.01210496            1 
 4240000   0.56147939    -8.443295    680.11629  0.013367065  0.012100914            2 
 4241000   0.58687044   -8.4549363    681.07679  0.013382787  0.012096866            5 
 4242000   0.56973056   -8.4518972    680.28377  0.013364053  0.012092822            2 
 4243000   0.58297629   -8.4815057    681.25085  0.013379897  0.012088776            4 
 4244000   0.56667974    -8.472466    680.24423  0.013356979  0.012084735            2 
 4245000   0.57339701   -8.4684437     680.6017   0.01336085  0.012080688            2 
 4246000   0.58040901   -8.4464048    679.67221  0.013339461  0.012076644            3 
 4247000   0.58340993   -8.4555003     681.2409    0.0133671  0.012072605            1 
 4248000   0.56790411   -8.4650335    679.46625   0.01332914  0.012068564            4 
 4249000   0.57740964   -8.4690212    680.24732  0.013341322  0.012064525            3 
 4250000   0.57492834   -8.4610754    679.27829  0.013319182  0.012060487            5 
 4251000   0.57094053   -8.4691517    680.57211  0.013341412  0.012056452            1 
 4252000   0.57205487   -8.4630003    679.32392  0.013313811  0.012052418            8 
 4253000   0.57380424   -8.4636491    680.87461  0.013341065  0.012048387            1 
 4254000   0.56762423   -8.4561277    680.64149  0.013333362  0.012044356            3 
 4255000   0.56995658   -8.4777733    680.28443  0.013323236  0.012040326            4 
 4256000   0.57338069   -8.4716555    681.56458  0.013345171  0.012036293            2 
 4257000    0.5861217   -8.4541745    680.48584  0.013320919  0.012032267            2 
 4258000   0.57367331   -8.4745865    680.21652   0.01331252  0.012028242            2 
 4259000   0.57512866   -8.4538532    679.85623  0.013302345  0.012024218            2 
 4260000   0.56221946   -8.4830515    680.10064  0.013304003  0.012020196            2 
 4261000   0.56436536     -8.47447     681.6086  0.013330372   0.01201617            1 
 4262000    0.5631656   -8.4665518    680.14412   0.01329861  0.012012151            2 
 4263000   0.58195708    -8.452889    680.46047  0.013301675   0.01200814            3 
 4264000   0.55957395   -8.4692528    679.83062  0.013286246  0.012004123            1 
 4265000   0.55931185   -8.4615918    681.40921  0.013313974  0.012000107            1 
 4266000   0.55931554   -8.4655132    680.22385  0.013287698  0.011996089            2 
 4267000   0.55875208   -8.4852197    679.32942  0.013267116   0.01199208            1 
 4268000   0.56550575   -8.4639534    680.27054  0.013282383  0.011988068            4 
 4269000   0.57356384   -8.4732522    679.52893  0.013264795  0.011984063            2 
 4270000   0.58442198   -8.4589834    682.12096  0.013312275  0.011980057            2 
 4271000   0.56730647   -8.4638083    680.17765  0.013271241  0.011976052            3 
 4272000   0.55374707   -8.4565913    680.51159  0.013274649  0.011972046            2 
 4273000   0.56733054   -8.4782717    679.89861  0.013259588  0.011968043            5 
 4274000   0.57712077   -8.4703825    679.59486  0.013250563  0.011964047            2 
 4275000   0.56933171   -8.4752749    681.25176  0.013279761   0.01196005            5 
 4276000   0.56921204    -8.479472    681.07741  0.013273258  0.011956054            1 
 4277000   0.56960891   -8.4472791    680.69094  0.013262625  0.011952063            2 
 4278000    0.5550049   -8.4819969    679.87438  0.013243618   0.01194807            2 
 4279000   0.58055625   -8.4718452    679.32084  0.013229743  0.011944078            2 
 4280000   0.58429024   -8.4818999    679.45714  0.013229306  0.011940085            1 
 4281000   0.56716214   -8.4881778    679.35454  0.013224218   0.01193609            2 
 4282000   0.56501715   -8.4816627    680.16433  0.013236889  0.011932099            1 
 4283000   0.58180838    -8.476526    678.82532  0.013207746   0.01192811            1 
 4284000   0.56980812   -8.4648493    679.63543  0.013220422  0.011924124            3 
 4285000   0.56278895   -8.4511824    679.70333  0.013218657  0.011920138            2 
 4286000    0.5700236    -8.470134     680.8644  0.013238148  0.011916151            2 
 4287000   0.57052252   -8.4912076    680.96238  0.013236964  0.011912165            2 
 4288000   0.56949987   -8.4780821    680.63825  0.013227578  0.011908176            1 
 4289000   0.57531815   -8.4639473    680.27592  0.013217454  0.011904197            3 
 4290000   0.54880097   -8.4676545    678.76301  0.013184985  0.011900219            5 
 4291000   0.57358003   -8.4755867    680.60908  0.013217763  0.011896248            3 
 4292000   0.56163075   -8.4740607    680.06446   0.01320411  0.011892274            1 
 4293000   0.56508336   -8.4847606    680.01787  0.013200129  0.011888301            1 
 4294000   0.56399943   -8.4881953     679.2866  0.013182864  0.011884328            2 
 4295000   0.56185011   -8.4591516    679.87666  0.013191243  0.011880358            1 
 4296000   0.56246539   -8.4869675    679.57603  0.013182341  0.011876393            3 
 4297000    0.5594738   -8.4809009    679.55189  0.013178805  0.011872428            2 
 4298000   0.57426755   -8.4869094    679.58785  0.013176436  0.011868461            1 
 4299000    0.5614418   -8.4802393    680.50326  0.013191115  0.011864494            3 
 4300000   0.57739544   -8.4588913    679.61219  0.013170779  0.011860529            2 
 4301000   0.55521658   -8.4801598      680.025  0.013175715  0.011856567            3 
 4302000   0.56460403   -8.4847951     679.4134  0.013160805  0.011852607            2 
 4303000   0.56278227   -8.4916251    680.56658  0.013180079  0.011848648            3 
 4304000   0.56859398   -8.4616887    678.73624  0.013141578  0.011844687            2 
 4305000   0.55768927   -8.4787705    679.49532  0.013153219   0.01184073            1 
 4306000   0.56379875   -8.4923441    680.15801   0.01316299  0.011836774            1 
 4307000   0.56895643   -8.4836526    679.58178  0.013148785  0.011832822            4 
 4308000   0.57805663   -8.4856879      680.286  0.013159355  0.011828869            2 
 4309000   0.55578955   -8.4846613    680.46495  0.013159762  0.011824918            2 
 4310000    0.5573994   -8.4774481    679.80096   0.01314387  0.011820971            1 
 4311000   0.55276865   -8.4729006     680.3045  0.013150555  0.011817026            2 
 4312000   0.54387802   -8.4707065    680.02345  0.013142074  0.011813083            1 
 4313000   0.56715333   -8.4775825    679.78736  0.013134465  0.011809139            1 
 4314000   0.57337726   -8.4999012    679.63132  0.013128406  0.011805202            1 
 4315000   0.56726048   -8.4838847    680.90478  0.013149957   0.01180126            1 
 4316000    0.5572733   -8.4824542    680.04752  0.013130358  0.011797322            1 
 4317000   0.56052504   -8.4975158    679.80497  0.013122635  0.011793387            3 
 4318000   0.56647718   -8.4675137    680.99081  0.013142481  0.011789454            1 
 4319000   0.55430628    -8.470829    678.77968  0.013096776  0.011785519            1 
 4320000   0.56133497   -8.4882583    680.67899  0.013130382  0.011781583            1 
 4321000   0.55002323   -8.4831377    680.20711  0.013118242  0.011777656            2 
 4322000   0.54454303   -8.4998244    679.82457  0.013107831  0.011773724            2 
 4323000   0.55701275    -8.482364     680.1498  0.013111069  0.011769796            3 
 4324000   0.55830661   -8.4915247    679.99862  0.013105123  0.011765865            2 
 4325000   0.54248342   -8.4963787     679.3504  0.013089603  0.011761935            2 
 4326000   0.56764181   -8.4842324    679.52001  0.013089844  0.011758007            2 
 4327000   0.56799917   -8.4881936    678.84296   0.01307378  0.011754082            2 
 4328000   0.56151027   -8.4874503    680.14089   0.01309575  0.011750162            2 
 4329000    0.5521241   -8.4811042    679.77474  0.013085677  0.011746246            1 
 4330000   0.57249036   -8.5027614    679.31271  0.013073763  0.011742325            1 
 4331000   0.55947615   -8.4828603    678.74874  0.013059893  0.011738409            4 
 4332000   0.55633157    -8.493988    679.00084  0.013061727  0.011734496            2 
 4333000   0.55098674   -8.4703944    678.50369  0.013049152  0.011730579            1 
 4334000   0.56335354   -8.4883359    679.77857  0.013070654  0.011726669            3 
 4335000   0.55665018   -8.4802527    679.89568   0.01306989  0.011722756            2 
 4336000   0.54975619   -8.4878929    680.07423  0.013070307  0.011718849            1 
 4337000   0.55781611   -8.4891039    680.22519  0.013070194  0.011714945            1 
 4338000   0.55305459   -8.4953304    680.13897  0.013065525  0.011711044            1 
 4339000    0.5578099   -8.4793821    679.60995  0.013052354  0.011707144            1 
 4340000   0.55414307   -8.4667364    679.58448  0.013048857  0.011703242            2 
 4341000   0.54724954    -8.480453    679.97246  0.013053299   0.01169934            2 
 4342000   0.56282522   -8.4807759     679.8269  0.013047499  0.011695438            3 
 4343000   0.55467135   -8.4824209    679.92746  0.013046424  0.011691542            2 
 4344000   0.56440269   -8.5038132    679.92217   0.01304332  0.011687646            2 
 4345000   0.54869749   -8.4807527    680.91158  0.013059294  0.011683752            2 
 4346000   0.55678786   -8.4700762    680.20339   0.01304271  0.011679857            2 
 4347000   0.55584394    -8.480035    680.32399  0.013042021  0.011675967            2 
 4348000    0.5630988   -8.4820226    680.75848  0.013047349  0.011672078            2 
 4349000   0.55240981   -8.5017768    680.83216  0.013045761  0.011668189            2 
 4350000   0.54459577   -8.4984928    680.23987  0.013031415  0.011664302            3 
 4351000   0.56846818   -8.4902849    679.30518  0.013010518  0.011660416            2 
 4352000   0.55993265   -8.5259871    679.55219  0.013012259  0.011656528            1 
 4353000   0.54266867   -8.4685108    679.57658  0.013009736  0.011652645            1 
 4354000   0.55657834   -8.4849596    679.99203    0.0130147  0.011648759            3 
 4355000   0.55517775   -8.4888402    680.26221  0.013016881  0.011644879            2 
 4356000   0.55162787   -8.4977435    679.43722   0.01299811  0.011641002            2 
 4357000    0.5555275   -8.4952479    679.55501   0.01299738  0.011637122            2 
 4358000    0.5534129   -8.4934911    679.00667  0.012983912   0.01163325            2 
 4359000   0.55785613   -8.4630708    679.56293  0.012991568  0.011629377            2 
 4360000   0.54897469   -8.4856799    680.52079  0.013006896  0.011625504            1 
 4361000   0.54834475   -8.4767713    679.36812  0.012981887  0.011621632            2 
 4362000   0.54762209    -8.487043    679.65177   0.01298433  0.011617758            1 
 4363000   0.55204442   -8.4906252    680.22247  0.012992254  0.011613891            1 
 4364000   0.56321117   -8.5008729    678.98042  0.012965559   0.01161002            2 
 4365000   0.55690536    -8.504586    679.84651  0.012979124  0.011606149            2 
 4366000   0.55891154   -8.5170881    679.10626  0.012962022  0.011602283            3 
 4367000   0.55454333   -8.5071654    680.51917  0.012986016  0.011598414            1 
 4368000   0.55210146    -8.482915    679.04811  0.012954978  0.011594551            1 
 4369000   0.54506261   -8.4910384    678.95093  0.012950159  0.011590688            1 
 4370000   0.56273015   -8.5029777    679.79462  0.012963284  0.011586827            1 
 4371000   0.55181572   -8.4942843    679.98097  0.012963871  0.011582967            2 
 4372000   0.55420673   -8.4891657    678.84154  0.012939188  0.011579107            3 
 4373000    0.5719682   -8.4830607     678.7962  0.012935365  0.011575253            2 
 4374000   0.55688454   -8.4890718    679.81915  0.012951897  0.011571404            1 
 4375000   0.55404763    -8.481485    678.29755  0.012919953  0.011567553            1 
 4376000   0.55199656   -8.4914029    679.57817  0.012941388  0.011563699            2 
 4377000   0.56417341   -8.4877297    680.04782  0.012947373  0.011559853            1 
 4378000   0.56110663   -8.5030319    680.15917  0.012946535  0.011556002            2 
 4379000   0.54803175   -8.5046175    678.41663  0.012910418  0.011552157            2 
 4380000   0.53949105   -8.4922161    678.70038  0.012912869  0.011548316            1 
 4381000   0.55458353   -8.5017829    679.89804  0.012932703  0.011544468            1 
 4382000   0.55065384   -8.5096601    679.28892  0.012918167  0.011540622            1 
 4383000    0.5470569   -8.5051488    679.57349  0.012920631  0.011536776            3 
 4384000     0.548414   -8.4957668    678.75475   0.01290212  0.011532935            2 
 4385000   0.53987391    -8.522322     681.0094  0.012942026  0.011529091            2 
 4386000   0.54005285   -8.5074107    678.98637  0.012900638  0.011525251            4 
 4387000   0.55423117   -8.5015255    678.78908   0.01289395  0.011521413            1 
 4388000   0.54871184   -8.4938899    680.19939  0.012917795  0.011517582            2 
 4389000    0.5477906   -8.4845222    679.00047  0.012892088  0.011513745            3 
 4390000    0.5476096   -8.5054155    678.75716  0.012884532  0.011509913            3 
 4391000    0.5493572   -8.4983133    679.37953  0.012893409  0.011506079            1 
 4392000   0.53377943   -8.5011563    679.32063  0.012889356  0.011502246            1 
 4393000   0.55848863   -8.5170289    679.04868  0.012881263  0.011498416            3 
 4394000   0.54259813   -8.5120523    678.24832  0.012863153  0.011494585            2 
 4395000   0.53833577   -8.4995058     679.2747  0.012879687  0.011490756            1 
 4396000   0.55613995   -8.5056884    680.39906  0.012898071  0.011486933            3 
 4397000   0.54668604   -8.5019122    679.68327  0.012881572   0.01148311            1 
 4398000   0.55762724   -8.5113846    678.76114  0.012861171  0.011479292            2 
 4399000   0.55044972   -8.4905695    680.34518  0.012888255  0.011475477            1 
 4400000   0.54024247   -8.5140673    679.73463  0.012873762  0.011471666            3 
 4401000   0.55055589   -8.5092862    680.80713  0.012891145  0.011467857            2 
 4402000   0.53944371    -8.494832    678.66347  0.012847635  0.011464049            2 
 4403000   0.55270104   -8.4960469    679.78625  0.012865967  0.011460245            2 
 4404000   0.54166866   -8.5089897    678.77527  0.012843916   0.01145644            2 
 4405000   0.53844715   -8.5097845    680.17798  0.012867537  0.011452632            3 
 4406000   0.55060498    -8.524958    679.21033  0.012846314  0.011448823            2 
 4407000   0.54020777   -8.5046494    678.95364  0.012838545   0.01144502            1 
 4408000   0.54612824   -8.5104947    679.81266  0.012851873  0.011441218            4 
 4409000   0.55026526   -8.4853696    679.10788  0.012835637  0.011437417            2 
 4410000   0.55629239   -8.5007207    678.83004  0.012827476  0.011433615            2 
 4411000   0.54512135   -8.5073554    679.19668  0.012831495  0.011429815            3 
 4412000   0.55633618   -8.5022119    678.78562  0.012820822  0.011426014            2 
 4413000   0.53834601   -8.5082651    678.99639  0.012821897  0.011422216            1 
 4414000   0.54231007    -8.504199    679.55365  0.012829513  0.011418419            1 
 4415000   0.53958301   -8.4993117    679.28579  0.012821551  0.011414626            2 
 4416000    0.5382369   -8.5037728    679.98942  0.012831926   0.01141083            2 
 4417000   0.54145872   -8.5154264    678.91814   0.01280881  0.011407034            1 
 4418000   0.53955523    -8.521636    678.79869  0.012803657  0.011403239            3 
 4419000   0.54624242   -8.5276812     677.6928  0.012779905  0.011399446            1 
 4420000   0.54650959   -8.5007654    678.31879  0.012788816  0.011395653            3 
 4421000   0.54592097   -8.5106916    678.78018   0.01279462  0.011391862            3 
 4422000   0.52778695   -8.5182879    678.74148  0.012790997   0.01138807            2 
 4423000   0.54074863   -8.5169121    679.56107  0.012803547  0.011384284            2 
 4424000   0.54558353    -8.494053    680.53638  0.012819025  0.011380501            2 
 4425000   0.54659487    -8.514946    679.41389  0.012794989  0.011376716            2 
 4426000   0.53895709   -8.5235407    679.11427  0.012786456  0.011372929            1 
 4427000   0.54045882   -8.5225622    678.98812  0.012781193  0.011369143            2 
 4428000    0.5382053   -8.5097011    679.81384  0.012793847  0.011365357            2 
 4429000   0.54366891   -8.5264062    678.68549  0.012769728  0.011361577            3 
 4430000   0.54019734   -8.5053469    678.55787  0.012764444  0.011357797            2 
 4431000   0.54726333   -8.4896985    679.64213  0.012781955  0.011354022            3 
 4432000   0.55311288   -8.5223709    678.92625  0.012765611  0.011350247            2 
 4433000   0.53674014   -8.5372546    678.15416  0.012748217  0.011346474            2 
 4434000   0.53863348   -8.4955978    678.23668  0.012746893  0.011342698            2 
 4435000   0.55116092   -8.5158049    678.24761  0.012744224  0.011338922            2 
 4436000   0.54397895   -8.5211081    678.38742  0.012743978  0.011335148            4 
 4437000   0.54625097   -8.5318264    679.07817  0.012754079  0.011331378            2 
 4438000   0.53450501   -8.5312586    678.57531  0.012741763  0.011327608            1 
 4439000   0.53760664   -8.5177323    677.71542  0.012722749  0.011323838            4 
 4440000   0.54063118   -8.5094017    679.06505  0.012745215  0.011320072            2 
 4441000   0.53733196   -8.5027071    679.72732  0.012754772  0.011316307            2 
 4442000   0.54341979   -8.5152735    678.47901  0.012728482  0.011312548            2 
 4443000   0.55417608   -8.5195157    678.82019  0.012732017  0.011308788            2 
 4444000   0.53595131   -8.5170809    678.97989  0.012732146  0.011305023            3 
 4445000   0.53797757   -8.5238551     677.3719  0.012699136  0.011301262            3 
 4446000    0.5401305   -8.5321834    678.51451  0.012717696  0.011297503            1 
 4447000   0.54375673   -8.5246353    677.43887  0.012694679  0.011293743            1 
 4448000   0.53308008   -8.5136514    678.36133  0.012709108  0.011289986            3 
 4449000   0.53772874    -8.528053    678.13435  0.012701999   0.01128623            3 
 4450000   0.53901176   -8.5071264    679.76961  0.012729768  0.011282479            2 
 4451000   0.53808911   -8.5219193    678.47949  0.012702754  0.011278729            2 
 4452000   0.53962324   -8.5228769    678.45931  0.012699523  0.011274977            2 
 4453000   0.53147193     -8.51866    679.13636  0.012709341   0.01127123            3 
 4454000   0.54222943   -8.5075931    678.20971   0.01268915   0.01126748            1 
 4455000   0.53616468   -8.5143657    679.36153  0.012707847  0.011263737            2 
 4456000   0.54555046    -8.547902    679.48976  0.012707394  0.011259993            2 
 4457000   0.54066573   -8.5237688    678.96123  0.012694661  0.011256249            2 
 4458000   0.55207704    -8.517015    678.79839  0.012688769  0.011252509            3 
 4459000   0.53996028   -8.5245339    677.63444  0.012664171  0.011248769            1 
 4460000    0.5345463   -8.5169775    677.06916  0.012650769  0.011245028            4 
 4461000   0.53904799   -8.5373316    677.99813  0.012665287  0.011241291            3 
 4462000   0.52975396   -8.5105835    679.09029  0.012682846  0.011237555            2 
 4463000   0.55919067   -8.5266784    678.94122   0.01267722  0.011233826            3 
 4464000   0.52556168    -8.536829     678.3247  0.012662871  0.011230094            2 
 4465000   0.54544209    -8.537635    678.32963  0.012660127  0.011226362            3 
 4466000   0.53427814   -8.5331939    678.54227   0.01266126  0.011222631            2 
 4467000   0.54211156   -8.5212614    678.17876  0.012651645  0.011218906            3 
 4468000   0.53367821   -8.5093541     679.7413  0.012677956   0.01121518            2 
 4469000   0.53089855   -8.5127887    679.55813  0.012671704  0.011211456            2 
 4470000   0.54266278   -8.5184135    678.23026  0.012644114  0.011207731            1 
 4471000   0.53882416   -8.5245804    678.47024  0.012645759   0.01120401            1 
 4472000   0.54812798   -8.5343656    677.92006  0.012632679  0.011200288            3 
 4473000   0.53472147   -8.5153797    679.09211   0.01265169  0.011196567            3 
 4474000   0.54502806   -8.5253732    677.87772  0.012626243  0.011192844            2 
 4475000   0.52730634    -8.551621    679.07451  0.012645708  0.011189127            2 
 4476000   0.51751396   -8.5535054    677.14766  0.012607009  0.011185407            1 
 4477000   0.54000907   -8.5294878    677.94181  0.012618975  0.011181689            4 
 4478000   0.53745491   -8.5146835     677.7635  0.012612839  0.011177976            3 
 4479000   0.53382678   -8.5267789    679.17378  0.012636261  0.011174263            2 
 4480000   0.54052599   -8.5240279    678.11999  0.012613839   0.01117055            2 
 4481000   0.54202645   -8.5463892    678.47636  0.012617652  0.011166842            2 
 4482000   0.53280595   -8.5669939    678.54661  0.012616143   0.01116313            2 
 4483000   0.52513633   -8.5446909    678.08421  0.012604733  0.011159419            2 
 4484000   0.54193107   -8.5337843     677.6416  0.012593696   0.01115571            2 
 4485000   0.53087942   -8.5320728    678.60544  0.012608797  0.011152009            1 
 4486000   0.53539982   -8.5347536    679.13079  0.012615745   0.01114831            3 
 4487000   0.53918187   -8.5395603    678.45743  0.012600428  0.011144607            2 
 4488000   0.52506828    -8.535179    678.09669  0.012590922  0.011140905            3 
 4489000   0.52053965    -8.524372    677.86345  0.012583787  0.011137207            3 
 4490000   0.52310399   -8.5404697    679.13571  0.012604597  0.011133511            2 
 4491000   0.54124972   -8.5413841     677.6173  0.012573616   0.01112981            2 
 4492000   0.53789499    -8.530348    678.74752  0.012591784  0.011126116            2 
 4493000   0.53028465   -8.5334281    677.67081  0.012569011  0.011122421            1 
 4494000   0.53619055    -8.552596    678.14892   0.01257508  0.011118731            3 
 4495000   0.53079972   -8.5316802    678.35179  0.012576044   0.01111504            2 
 4496000   0.53202398   -8.5384116    678.64965  0.012578767   0.01111135            2 
 4497000   0.51916267    -8.548049    677.68627  0.012558118  0.011107659            2 
 4498000   0.53297953     -8.52941    678.06744  0.012562388  0.011103971            3 
 4499000   0.52386839   -8.5339003    677.79311  0.012554514  0.011100286            2 
 4500000   0.52802807   -8.5357853    677.54436  0.012547118  0.011096607            2 
 4501000   0.54158447   -8.5440536     678.1471   0.01255549  0.011092923            3 
 4502000   0.54357486   -8.5466999    678.35012  0.012556459  0.011089243            5 
 4503000   0.53048333   -8.5429876    677.68925   0.01254144  0.011085562            2 
 4504000   0.52882497   -8.5367189    678.66553  0.012556719  0.011081884            2 
 4505000   0.52579115   -8.5371755    677.25922  0.012527917  0.011078206            2 
 4506000   0.53166138   -8.5342308    677.01344  0.012520592   0.01107453            1 
 4507000   0.51845077   -8.5405055    678.16474  0.012539101  0.011070857            3 
 4508000   0.53945989   -8.5426523    678.27162  0.012538295  0.011067186            2 
 4509000   0.52773395   -8.5286875    677.12783  0.012514376  0.011063515            3 
 4510000   0.52367653   -8.5270763    677.78632  0.012523768  0.011059847            2 
 4511000   0.53217452   -8.5223701    678.08305  0.012526473  0.011056182            2 
 4512000   0.52427799   -8.5293886    678.12445  0.012524462  0.011052515            4 
 4513000   0.52176417    -8.541856    677.62668  0.012512495  0.011048849            3 
 4514000   0.52576054   -8.5300879    678.26453  0.012521498  0.011045185            2 
 4515000   0.52852463    -8.546768    677.86205  0.012511297  0.011041525            3 
 4516000   0.52581806   -8.5441517    677.87038   0.01250868  0.011037865            2 
 4517000   0.53570458    -8.537446    677.65627  0.012501961  0.011034203            1 
 4518000    0.5216391   -8.5463954    677.98172  0.012505196  0.011030543            2 
 4519000   0.53872614   -8.5391878    678.74986  0.012516594  0.011026884            1 
 4520000   0.53227035   -8.5523224    677.24462  0.012486073  0.011023223            2 
 4521000   0.53346162   -8.5577651    677.78858  0.012493338  0.011019565            1 
 4522000   0.53463817   -8.5557269    678.28211   0.01249967  0.011015907            2 
 4523000   0.52180662   -8.5598259    678.01998  0.012492077  0.011012251            1 
 4524000   0.53019008   -8.5471548     677.3103  0.012476243  0.011008597            2 
 4525000   0.52081927   -8.5323728    678.27444  0.012491242  0.011004943            1 
 4526000   0.52987248   -8.5682674     677.8855  0.012481321  0.011001292            3 
 4527000   0.52888559   -8.5391224    678.28247  0.012485871  0.010997642            2 
 4528000   0.52508659   -8.5298328    677.48583  0.012468452  0.010993995            2 
 4529000    0.5243071   -8.5490766    678.11142   0.01247721  0.010990349            3 
 4530000   0.53252035   -8.5534193    677.45288  0.012462341  0.010986698            4 
 4531000   0.52664581   -8.5547312    676.50604  0.012442177  0.010983054            3 
 4532000   0.53543817   -8.5450425    678.05145  0.012467848  0.010979411            4 
 4533000   0.51640925   -8.5524867    677.82084  0.012460858  0.010975771            2 
 4534000   0.52975514   -8.5411979    677.23607  0.012447362  0.010972129            2 
 4535000   0.52664343   -8.5332989    678.83163  0.012473937  0.010968491            3 
 4536000   0.52097426   -8.5485928    677.02055  0.012437914  0.010964851            2 
 4537000   0.52925084   -8.5382002    677.28213  0.012439977  0.010961215            2 
 4538000   0.52227798   -8.5439284    676.72457  0.012426997  0.010957583            2 
 4539000   0.52775615   -8.5467747    677.29735  0.012434775  0.010953951            2 
 4540000   0.52641707     -8.55476    677.52275  0.012436174  0.010950319            2 
 4541000   0.52380006   -8.5397777    677.26274  0.012428664  0.010946691            2 
 4542000   0.52814575    -8.572174    677.56468  0.012431467   0.01094306            3 
 4543000   0.51934313   -8.5480229    677.78894  0.012432844  0.010939436            5 
 4544000   0.51555555    -8.541327    678.29684  0.012439423  0.010935809            2 
 4545000   0.52446489   -8.5572499    676.96544  0.012412274  0.010932183            4 
 4546000   0.54079351   -8.5162903    678.17402  0.012431699  0.010928563            3 
 4547000   0.52520918   -8.5689436     677.6841  0.012419986  0.010924942            2 
 4548000   0.53064598   -8.5494936    676.62038  0.012397764   0.01092132            4 
 4549000   0.52092138   -8.5310618    676.71732  0.012396815  0.010917699            2 
 4550000   0.53322113   -8.5448953    678.11659  0.012419718  0.010914079            2 
 4551000   0.50718668   -8.5662302    677.89878     0.012413  0.010910462            2 
 4552000   0.52836262   -8.5492652    677.47685  0.012402549  0.010906845            2 
 4553000   0.52809468   -8.5472837    678.36535  0.012416087   0.01090323            2 
 4554000   0.52373387   -8.5436185    676.86915  0.012385982  0.010899617            3 
 4555000   0.50797332   -8.5397954    677.66571  0.012397836  0.010896007            3 
 4556000   0.51918821    -8.543274    676.75262  0.012378413  0.010892392            2 
 4557000   0.52232466    -8.548038    675.99737  0.012361886  0.010888784            2 
 4558000   0.52548543   -8.5459901    677.31444  0.012383254  0.010885177            2 
 4559000    0.5173536    -8.554109    676.59032  0.012367301  0.010881573            2 
 4560000   0.53034163   -8.5559106    677.39769  0.012379344  0.010877967            2 
 4561000   0.52007507   -8.5447338    677.74225  0.012382925  0.010874367            2 
 4562000   0.53763502   -8.5638851    676.74783  0.012362046  0.010870763            2 
 4563000   0.52320091   -8.5412322    676.82067  0.012360667   0.01086716            2 
 4564000   0.52287417   -8.5388424    677.82718  0.012376336  0.010863564            2 
 4565000   0.52078618   -8.5578231    677.18167  0.012361841  0.010859965            2 
 4566000    0.5200747   -8.5407435    677.42861  0.012363641  0.010856369            3 
 4567000   0.52702649   -8.5589786    676.88584   0.01235103  0.010852776            2 
 4568000   0.52154253   -8.5527973    678.02071  0.012369029  0.010849179            2 
 4569000   0.51150917   -8.5599784    677.09064  0.012349359  0.010845584            2 
 4570000   0.51501503   -8.5507156    678.10031  0.012365068  0.010841988            2 
 4571000   0.50555783   -8.5640763    678.07092  0.012361827    0.0108384            3 
 4572000   0.52330502   -8.5803706    677.88666  0.012355764   0.01083481            2 
 4573000   0.51719318    -8.540798    676.47213  0.012327286  0.010831221            2 
 4574000   0.52045298   -8.5727241    677.65597  0.012346159  0.010827636            2 
 4575000    0.5216813   -8.5552116    677.49323  0.012340496  0.010824053            2 
 4576000   0.51773657   -8.5533763    676.39052  0.012317718  0.010820471            1 
 4577000   0.52407648   -8.5603038      678.006   0.01234444  0.010816889            4 
 4578000   0.51983659   -8.5368265    676.80181  0.012319823  0.010813309            1 
 4579000   0.52851999   -8.5465914    677.20335   0.01232444  0.010809731            5 
 4580000   0.51023086   -8.5613034    677.67766   0.01233038   0.01080616            2 
 4581000   0.51233667   -8.5750086    676.67086  0.012309373  0.010802585            3 
 4582000    0.5176026   -8.5344521     677.5241  0.012322205  0.010799015            2 
 4583000    0.5189847   -8.5535904    676.80575  0.012306454   0.01079544            4 
 4584000   0.52401308   -8.5668365      677.089  0.012308919   0.01079187            2 
 4585000   0.52395953    -8.564467    677.50224  0.012313745    0.0107883            2 
 4586000    0.5161342   -8.5587394    677.94866  0.012319172  0.010784735            2 
 4587000   0.50786956   -8.5665134    677.31786  0.012305026  0.010781169            4 
 4588000   0.51164771   -8.5513646    677.27629  0.012301589  0.010777605            2 
 4589000     0.525004   -8.5638188    677.31484  0.012299608  0.010774043            2 
 4590000   0.50838451   -8.5566383    676.83573   0.01228823  0.010770483            2 
 4591000   0.51845994   -8.5625242     677.2776  0.012293574  0.010766923            3 
 4592000   0.51401582   -8.5420975    677.13835   0.01228837  0.010763365            2 
 4593000   0.51470872   -8.5530906     676.2699  0.012269938  0.010759807            2 
 4594000   0.51511866   -8.5524038     677.2244  0.012284581   0.01075625            4 
 4595000   0.52021018   -8.5421611    676.87326   0.01227554  0.010752693            3 
 4596000    0.5164266   -8.5654301    677.29506  0.012280517  0.010749139            6 
 4597000   0.52604778   -8.5483671    677.46957  0.012281009  0.010745585            2 
 4598000    0.5180217   -8.5695317      677.422  0.012277476  0.010742033            2 
 4599000   0.52271473   -8.5756476    676.98205  0.012266834  0.010738482            3 
 4600000    0.5093635   -8.5580303    676.58872  0.012257042  0.010734933            2 
 4601000   0.51521544   -8.5708183    676.80525    0.0122583  0.010731389            2 
 4602000   0.51017996   -8.5719545    678.28432  0.012282419  0.010727844            2 
 4603000   0.52104832   -8.5704088    676.88751  0.012254463  0.010724302            2 
 4604000   0.52324507   -8.5539591    678.32575  0.012277834  0.010720768            2 
 4605000   0.52083886    -8.536659    677.93703  0.012268133  0.010717232            3 
 4606000   0.51415679   -8.5574461    677.74195   0.01226194  0.010713697            3 
 4607000   0.51965069   -8.5512816    676.96147  0.012245161  0.010710163            1 
 4608000   0.51606257   -8.5576453    677.56473  0.012253413  0.010706631            2 
 4609000   0.50549838   -8.5579043    677.63569  0.012252037    0.0107031            3 
 4610000   0.52857563   -8.5577521    677.71486  0.012250811  0.010699569            2 
 4611000   0.50903904   -8.5587282    678.48937  0.012262152  0.010696043            3 
 4612000   0.51413007   -8.5850839    676.06434  0.012215675  0.010692516            2 
 4613000   0.50087538   -8.5574498    676.65503  0.012223698  0.010688989            2 
 4614000   0.49735545   -8.5705104    676.07242  0.012210526   0.01068546            2 
 4615000   0.51576394   -8.5638212    676.75933  0.012220284  0.010681934            2 
 4616000   0.51583646   -8.5735296    677.52668   0.01223149   0.01067841            4 
 4617000   0.50714495   -8.5511734    676.90626  0.012217642   0.01067489            3 
 4618000   0.50862589   -8.5750634    678.10733   0.01223667  0.010671366            2 
 4619000   0.50624207   -8.5588648    676.82274  0.012210846  0.010667847            3 
 4620000   0.51049158   -8.5529467    677.15643  0.012214221  0.010664329            3 
 4621000   0.50750228   -8.5539736    677.04512  0.012209571   0.01066081            6 
 4622000    0.5130761   -8.5676093    677.16935  0.012209169  0.010657295            2 
 4623000   0.51226708   -8.5785986    676.63651  0.012196923  0.010653782            3 
 4624000   0.50869676    -8.548902    676.57844  0.012193239  0.010650268            3 
 4625000   0.51583221   -8.5738175    676.29738  0.012185538  0.010646755            3 
 4626000   0.51321566    -8.576523    675.81226  0.012174165  0.010643246            2 
 4627000   0.51179566   -8.5640041    676.76828  0.012188752  0.010639741            1 
 4628000   0.50776519   -8.5735874    676.95856  0.012189545  0.010636236            3 
 4629000   0.51190862   -8.5467081    678.03447   0.01220628  0.010632737            2 
 4630000   0.50965099   -8.5582024    677.16705  0.012188032  0.010629233            3 
 4631000   0.51104563   -8.5671499    675.93429  0.012163217  0.010625728            3 
 4632000   0.51331618   -8.5626148    676.58897  0.012172369   0.01062223            4 
 4633000   0.51974775   -8.5642162    677.13817   0.01217962  0.010618729            2 
 4634000   0.51181935   -8.5707986    677.52883  0.012184017  0.010615228            4 
 4635000   0.51848754   -8.5704923    676.44805  0.012161957  0.010611732            1 
 4636000    0.5095599   -8.5804953    677.14992   0.01217195  0.010608233            2 
 4637000   0.51255651    -8.568755    676.67768  0.012160838  0.010604737            1 
 4638000   0.51432487   -8.5578523    676.56207  0.012156139  0.010601242            1 
 4639000   0.50872363   -8.5381578    676.35563   0.01214981  0.010597747            3 
 4640000   0.51203589   -8.5631399    676.58656  0.012151339  0.010594255            2 
 4641000   0.51882652   -8.5889096    676.71855  0.012151091  0.010590763            3 
 4642000   0.50481649   -8.5914276    676.74613  0.012148968  0.010587276            1 
 4643000    0.5139482   -8.5638945    677.01513   0.01215118  0.010583785            1 
 4644000   0.50850481   -8.5780878    676.48656  0.012139078  0.010580298            3 
 4645000   0.52085523   -8.5698529    676.96788    0.0121451  0.010576813            2 
 4646000   0.51219444   -8.5563059    676.12005  0.012127279  0.010573329            3 
 4647000    0.5100516   -8.5479702    677.13415  0.012142855  0.010569848            2 
 4648000   0.50752434   -8.5533135    675.88053  0.012117766  0.010566369            3 
 4649000   0.49921103   -8.5801246    676.32758  0.012123173  0.010562892            2 
 4650000   0.51227127   -8.5845515    677.16368   0.01213555  0.010559417            2 
 4651000   0.51929744   -8.5606294    677.29472  0.012135289   0.01055594            2 
 4652000   0.50974149   -8.5682262    675.80998  0.012106083  0.010552467            1 
 4653000   0.49657533   -8.5798945    676.33569  0.012112896  0.010548995            2 
 4654000   0.50298304   -8.5846865    676.28224  0.012109337   0.01054552            2 
 4655000   0.50929448   -8.5741867    676.62709  0.012112909  0.010542047            2 
 4656000   0.50726487   -8.5712417    676.21832  0.012102991  0.010538576            2 
 4657000   0.50556405   -8.5655484    676.76332  0.012110145  0.010535107            2 
 4658000   0.50733133   -8.5804391    677.48106  0.012120385  0.010531642            3 
 4659000   0.49461654   -8.5899957    676.48759  0.012100014  0.010528176            3 
 4660000   0.50670553   -8.5657155    677.07032  0.012107838  0.010524708            3 
 4661000   0.50130959    -8.586225    675.69779  0.012080701  0.010521242            4 
 4662000    0.5115758   -8.5786421    677.38384  0.012108248  0.010517777            2 
 4663000    0.5055979   -8.5844357     678.4477  0.012124664  0.010514314            2 
 4664000   0.51255808   -8.5834519    676.84776  0.012093478  0.010510852            2 
 4665000   0.49442759   -8.5767708    675.88112  0.012073618  0.010507392            3 
 4666000   0.50388907   -8.5644377     676.9152  0.012089499  0.010503935            2 
 4667000   0.49522281   -8.5856335    677.62214  0.012099531   0.01050048            2 
 4668000   0.50898773   -8.5767979    676.53022  0.012077446  0.010497024            2 
 4669000   0.50238468   -8.5755721    676.89065  0.012081292  0.010493573            2 
 4670000   0.49656885   -8.5651574    676.73368  0.012075904  0.010490119            3 
 4671000   0.49343584   -8.5863997    677.11389  0.012080102   0.01048667            2 
 4672000   0.51429081   -8.5956174    676.63291  0.012068938  0.010483221            2 
 4673000   0.49796597   -8.5693662    677.20038  0.012076474  0.010479774            2 
 4674000   0.51491758    -8.604055    676.84921   0.01206763  0.010476331            2 
 4675000   0.51350124    -8.570726     675.7804  0.012045996  0.010472887            1 
 4676000   0.49819801   -8.5693482    675.71679  0.012042287  0.010469443            1 
 4677000   0.50068846   -8.5647236    676.14134  0.012047276     0.010466            2 
 4678000   0.50929158   -8.5769967    676.49966  0.012051084  0.010462561            2 
 4679000    0.4957234   -8.5791683    677.17385  0.012060516  0.010459123            2 
 4680000   0.50510767   -8.5721217     676.7226  0.012049904  0.010455684            1 
 4681000   0.49534583   -8.5903607    676.76436  0.012048073  0.010452248            2 
 4682000   0.50875672    -8.581731    676.56718   0.01204199  0.010448813            3 
 4683000   0.50479654   -8.6000677     677.1399   0.01204961  0.010445379            2 
 4684000   0.50589113   -8.5743019    676.06165  0.012027855  0.010441945            1 
 4685000   0.50025626   -8.5766473    676.11669  0.012026266  0.010438515            2 
 4686000   0.50326361   -8.5793582    675.16126  0.012006709  0.010435086            3 
 4687000   0.51082629   -8.5915438    676.24479  0.012023412  0.010431658            3 
 4688000   0.51077817   -8.5840381    675.33966  0.012004758  0.010428231            2 
 4689000    0.4971013   -8.5795272    676.59655  0.012024535  0.010424806            2 
 4690000   0.49983381   -8.5658042    676.01991  0.012011725  0.010421378            1 
 4691000   0.49798417   -8.5810504    676.51212  0.012017909  0.010417952            2 
 4692000    0.5032525   -8.6017516    676.82762  0.012020951  0.010414531            2 
 4693000    0.4931053   -8.5927685    676.34938  0.012009897   0.01041111            2 
 4694000   0.50662696   -8.5894409    676.83817  0.012016016  0.010407688            3 
 4695000   0.50323589   -8.6003346    676.19146  0.012001978   0.01040427            3 
 4696000    0.5151059   -8.6078103    674.97071   0.01197776  0.010400853            2 
 4697000   0.50033327   -8.5759611    676.63836  0.012004797  0.010397439            2 
 4698000    0.5021429   -8.5774445    676.19822  0.011994434  0.010394026            3 
 4699000   0.49733103   -8.5789749    676.96016  0.012005394  0.010390611            5 
 4700000   0.49605072    -8.579133    675.23431   0.01197224  0.010387198            2 
 4701000   0.49665993   -8.6010122    676.04995  0.011984151  0.010383786            2 
 4702000   0.50599722   -8.5781484    675.68212  0.011975084  0.010380378            3 
 4703000   0.49676042   -8.5970964    676.20533  0.011981808  0.010376973            4 
 4704000   0.49345868   -8.5955011    675.95568  0.011974838  0.010373566            3 
 4705000   0.50949018   -8.5876232    675.68271  0.011967459  0.010370163            2 
 4706000   0.49293017   -8.5875291    676.78991  0.011984522  0.010366761            5 
 4707000   0.49606742   -8.5914157    676.31851   0.01197363  0.010363357            3 
 4708000   0.49913785   -8.5767054    675.71896  0.011960474  0.010359955            4 
 4709000   0.50835475   -8.5946748    676.47435  0.011971302  0.010356557            2 
 4710000   0.50336732   -8.5913101    675.69443  0.011954962  0.010353159            3 
 4711000   0.49850367   -8.5966646     676.1563  0.011960594  0.010349765            1 
 4712000   0.49870292   -8.5914529     675.4455  0.011945485  0.010346369            2 
 4713000   0.49518537   -8.5929711    676.88809  0.011968458  0.010342976            2 
 4714000    0.4958011    -8.581331    675.87046  0.011947929  0.010339589            2 
 4715000   0.48826019    -8.605062    675.41785  0.011937396  0.010336197            5 
 4716000   0.50379794   -8.5981346    675.69218  0.011939712  0.010332805            2 
 4717000   0.50695597   -8.5851707    675.06117  0.011926033  0.010329421            3 
 4718000   0.49975089   -8.5912232    676.70151  0.011952478  0.010326034            2 
 4719000   0.48988301   -8.5822872    675.92671  0.011936263  0.010322647            3 
 4720000   0.51465198   -8.6009324    675.95918  0.011934308  0.010319262            3 
 4721000   0.49477641   -8.5842963    676.16992    0.0119355  0.010315879            2 
 4722000   0.49183652   -8.5816888    676.02805  0.011930468  0.010312492            2 
 4723000   0.50733229   -8.5921173    675.60846  0.011920539   0.01030911            3 
 4724000   0.49238231   -8.5726039      676.628  0.011936001  0.010305731            2 
 4725000   0.50964621   -8.6115377    675.74772  0.011917949  0.010302353            3 
 4726000   0.48935726   -8.5924633    675.38617  0.011909052  0.010298978            3 
 4727000   0.50286776   -8.5909588    676.68385   0.01192941  0.010295605            5 
 4728000   0.49239058    -8.604314    675.57622  0.011907364   0.01029223            4 
 4729000   0.48883867   -8.5830353    675.99205  0.011912174  0.010288854            1 
 4730000   0.49328292    -8.589935    675.67643  0.011904095  0.010285483            3 
 4731000   0.48460316   -8.5756465    675.63016  0.011900764  0.010282114            1 
 4732000   0.49320239   -8.5794461    676.70577  0.011917191  0.010278743            2 
 4733000   0.49600305   -8.5835599    675.92332  0.011900897  0.010275376            2 
 4734000   0.49686266   -8.5968641    676.17322  0.011902782  0.010272009            3 
 4735000   0.48932269   -8.5921976    675.45896  0.011887697  0.010268644            6 
 4736000   0.48557463   -8.6110858    676.21156   0.01189843   0.01026528            5 
 4737000   0.50113137   -8.5948712    675.62901   0.01188567  0.010261918            3 
 4738000   0.48766388   -8.5938887    676.10957  0.011891613  0.010258559            2 
 4739000   0.50369339   -8.5935989    676.01613  0.011887461  0.010255201            2 
 4740000   0.50062941    -8.585415    676.52731   0.01189394  0.010251844            2 
 4741000   0.49464593   -8.5974581    676.69657  0.011894407  0.010248484            2 
 4742000   0.48597717    -8.597977     675.9117  0.011878105  0.010245129            3 
 4743000   0.50131054   -8.5976524    674.86335  0.011857182  0.010241771            2 
 4744000   0.49602557   -8.5967505    676.36588  0.011881076  0.010238422            2 
 4745000    0.4919123    -8.593881    675.60495  0.011865208   0.01023507            4 
 4746000   0.49435288   -8.5968059    675.68819   0.01186417  0.010231721            3 
 4747000   0.49069065   -8.5987401    674.83258   0.01184665  0.010228371            3 
 4748000   0.49791529   -8.5836081     676.8643  0.011879814  0.010225026            3 
 4749000   0.50084173   -8.5891784    675.69235  0.011856748  0.010221681            3 
 4750000   0.50007001   -8.5804227    676.49082   0.01186826  0.010218339            3 
 4751000   0.49200921   -8.5852746    677.39459  0.011881614  0.010214998            2 
 4752000   0.49361236   -8.6015413    675.59994  0.011847642  0.010211657            2 
 4753000   0.48828609   -8.5856315    676.58971  0.011862503  0.010208317            1 
 4754000   0.47665809   -8.5880956    676.27442  0.011854481  0.010204978            2 
 4755000   0.47819444   -8.6134476    675.59278  0.011840042  0.010201638            1 
 4756000   0.48441568   -8.5969086    676.28061  0.011849604  0.010198299            2 
 4757000   0.49181275   -8.5824931     675.6145  0.011835444  0.010194966            5 
 4758000   0.49210406   -8.5938052    675.05446  0.011823148   0.01019163            3 
 4759000    0.4837144   -8.5786262    675.35166  0.011825868    0.0101883            1 
 4760000   0.48474665   -8.6090459    675.78994  0.011831056  0.010184973            3 
 4761000   0.49001606   -8.6002638    674.96714   0.01181417  0.010181644            3 
 4762000   0.49137793   -8.6084635    675.28898  0.011817321  0.010178317            1 
 4763000   0.48298257   -8.5933726    676.05116  0.011828175  0.010174995            3 
 4764000   0.49512316   -8.5934889    675.28181  0.011812234   0.01017167            3 
 4765000   0.50087015   -8.5849842    675.70954  0.011817236  0.010168347            3 
 4766000    0.4914057   -8.5849754    675.49862  0.011811068  0.010165025            2 
 4767000   0.49530305   -8.5984275    675.70905  0.011812269  0.010161706            2 
 4768000   0.48160264   -8.6014991    676.34288   0.01182087  0.010158387            2 
 4769000   0.49560153   -8.6093987    675.87722  0.011810254  0.010155068            2 
 4770000   0.49093596   -8.6111998     675.5535  0.011802123  0.010151752            1 
 4771000   0.48653354   -8.6008585    677.14085  0.011827375  0.010148437            2 
 4772000   0.48507168   -8.5805069    675.43434  0.011795095  0.010145121            3 
 4773000   0.48517988   -8.6151542    676.53825  0.011811898  0.010141809            3 
 4774000   0.48962404   -8.6068286    675.64635  0.011793855  0.010138496            2 
 4775000   0.48915324   -8.6095267    675.88137  0.011795486  0.010135185            1 
 4776000   0.49053697   -8.6131518    675.62677  0.011788574  0.010131873            2 
 4777000    0.4800637   -8.6019916     675.2886  0.011780207  0.010128565            4 
 4778000   0.48658523   -8.6047391    675.92108  0.011788773  0.010125256            2 
 4779000   0.48472198   -8.6134312    675.60395  0.011780776  0.010121951            1 
 4780000   0.48549471   -8.6054737    675.53895  0.011777178  0.010118648            2 
 4781000   0.48179354   -8.6139129    675.26868  0.011770004  0.010115344            3 
 4782000    0.4812577   -8.6057131    675.49529  0.011771492  0.010112042            2 
 4783000   0.48542187   -8.6048075    676.54325  0.011787289   0.01010874            1 
 4784000   0.49104048   -8.6019845    675.55297  0.011767575   0.01010544            2 
 4785000   0.48894266   -8.5973292    675.94824     0.011772  0.010102139            2 
 4786000   0.48690184   -8.5961936    675.84302  0.011767708  0.010098843            1 
 4787000    0.4898554   -8.6029139    675.65334  0.011761948  0.010095548            3 
 4788000   0.48993746   -8.6087843    675.42933  0.011755593  0.010092252            2 
 4789000   0.48484604   -8.6101551    675.95805  0.011762338  0.010088959            1 
 4790000   0.47978312   -8.6118775    676.16138   0.01176342  0.010085665            1 
 4791000    0.4826594   -8.5983733    674.49279  0.011731942  0.010082375            1 
 4792000   0.49728935   -8.6174015    675.85478  0.011753179  0.010079084            2 
 4793000   0.48426514      -8.6105     676.2146  0.011756982  0.010075797            3 
 4794000   0.48136772   -8.6040802    676.25369   0.01175521  0.010072511            3 
 4795000   0.48571177   -8.5957523    676.06622    0.0117495  0.010069227            3 
 4796000   0.48864631   -8.5979617    675.39909  0.011735458  0.010065945            4 
 4797000   0.48557847   -8.6041814    674.95003  0.011725211  0.010062662            3 
 4798000   0.48527234   -8.6063755    674.68441  0.011718153  0.010059383            1 
 4799000    0.4940692   -8.6078773    675.79715  0.011735034  0.010056103            2 
 4800000   0.48722578   -8.6068056    675.66817   0.01173035  0.010052826            2 
 4801000   0.48637204   -8.6142794     675.4324  0.011723815   0.01004955            2 
 4802000   0.48458588   -8.6049744    675.48135  0.011722222  0.010046272            1 
 4803000    0.4841603   -8.6028659    675.09962  0.011713159  0.010042994            3 
 4804000   0.48391166    -8.624413    675.57114    0.0117189  0.010039723            2 
 4805000   0.48316396   -8.6018083    676.17891  0.011727001   0.01003645            3 
 4806000   0.49046235   -8.6017888    674.81074  0.011700838  0.010033177            3 
 4807000   0.47310743   -8.6030733    675.72495  0.011714253  0.010029906            1 
 4808000   0.47213434   -8.5946814    674.91985  0.011697862  0.010026637            2 
 4809000   0.48339789   -8.6078432     674.8238  0.011693765  0.010023367            3 
 4810000   0.47299463   -8.5924494    674.96477  0.011693776    0.0100201            2 
 4811000    0.4752914   -8.6312198    675.98569  0.011709029  0.010016832            2 
 4812000   0.47985579    -8.610114    675.18857  0.011692792  0.010013567            2 
 4813000   0.48325198   -8.6182342    674.68295  0.011681608  0.010010304            2 
 4814000   0.47749224   -8.6225791    676.34615  0.011707972  0.010007043            2 
 4815000   0.47935997   -8.6246828    675.34762  0.011688259  0.010003784            3 
 4816000   0.47851038   -8.6004789    675.13145  0.011682092  0.010000526            2 
 4817000   0.47928252   -8.6151114    675.00218   0.01167743 0.0099972663            3 
 4818000   0.48846678   -8.6240901     675.2674  0.011679594  0.009994007            1 
 4819000   0.48889201   -8.6109798    675.89838  0.011688082 0.0099907518            1 
 4820000   0.47826903   -8.6124438    675.85419  0.011684893 0.0099874979            2 
 4821000   0.47933368   -8.6188568    675.43712   0.01167526 0.0099842429            2 
 4822000   0.47754808   -8.6249904    675.17386  0.011668289 0.0099809935            1 
 4823000   0.47498171   -8.6062107    675.37494  0.011669344 0.0099777409            2 
 4824000    0.4858596   -8.6256988    674.96698  0.011659877 0.0099744928            3 
 4825000   0.48478306   -8.6051461    675.41378  0.011665178 0.0099712428            2 
 4826000   0.48408578   -8.6143667    676.58479  0.011682981 0.0099679964            2 
 4827000   0.48837962    -8.616462    674.94133  0.011652188 0.0099647512            2 
 4828000    0.4898961    -8.621324    674.94203  0.011649786 0.0099615051            1 
 4829000   0.48581944   -8.6174569    675.67349  0.011659997 0.0099582607            2 
 4830000   0.48327341    -8.618751      675.602  0.011656349 0.0099550203            2 
 4831000   0.47451161   -8.6133745    674.76728  0.011639538  0.009951782            2 
 4832000   0.47700007   -8.6270814    675.88622  0.011656426 0.0099485414            3 
 4833000    0.4881545   -8.6265958    675.33033  0.011644429 0.0099453012            2 
 4834000   0.47398639   -8.6157913    675.67706  0.011647998 0.0099420621            2 
 4835000   0.48820721   -8.6178414    675.34808  0.011639919 0.0099388238            3 
 4836000   0.47862051   -8.6073139    674.84044  0.011628764 0.0099355881            2 
 4837000   0.46947794   -8.6346744    675.47328  0.011637263 0.0099323555            2 
 4838000   0.47495851   -8.6164214     674.6065  0.011619927 0.0099291263            3 
 4839000   0.47744347   -8.6285625    675.10988  0.011626195 0.0099258955            3 
 4840000    0.4820376   -8.6200549    675.30527  0.011627157 0.0099226666            1 
 4841000   0.48508755   -8.6174876    675.45202  0.011627281 0.0099194408            5 
 4842000   0.47220126   -8.6292436    675.04844  0.011617934 0.0099162183            3 
 4843000    0.4828908   -8.6429046    674.92978  0.011613493 0.0099129929            3 
 4844000   0.47253202   -8.6180469    674.68386  0.011606865 0.0099097693            3 
 4845000   0.48260339    -8.620128    674.10488  0.011594511 0.0099065476            1 
 4846000   0.47229944   -8.6132493     674.2723  0.011594998 0.0099033269            3 
 4847000   0.48920948   -8.6262902    674.73772  0.011600607 0.0099001082            2 
 4848000   0.47734964   -8.6264491    675.65199   0.01161393 0.0098968858            3 
 4849000   0.47622453   -8.6136247    674.17731  0.011586191 0.0098936706            2 
 4850000   0.47749304   -8.6227252    675.26989  0.011602575 0.0098904559            2 
 4851000   0.47795177   -8.6266665    675.12376  0.011597673   0.00988724            2 
 4852000   0.46573569   -8.6114604     675.1278  0.011595352 0.0098840279            4 
 4853000   0.47576221   -8.6159114    674.40963  0.011580631 0.0098808155            2 
 4854000   0.47224202   -8.6233682    674.85351  0.011585866 0.0098776064            1 
 4855000   0.46385703   -8.6099865    675.37947  0.011592507 0.0098743983            3 
 4856000   0.47489123   -8.6141612    674.33773  0.011572243 0.0098711905            2 
 4857000   0.47733867   -8.6340191    674.85982  0.011578818  0.009867987            1 
 4858000   0.47558144    -8.617741    674.86669  0.011576552 0.0098647807            1 
 4859000   0.48293906    -8.611938    674.72141  0.011571678 0.0098615789            2 
 4860000   0.46560713   -8.6121119    674.70024  0.011568934 0.0098583768            2 
 4861000   0.45978653   -8.6314373    675.23201  0.011575671 0.0098551749            2 
 4862000   0.46133045   -8.6292562    675.17792  0.011572362 0.0098519771            3 
 4863000   0.47836006   -8.6209098    675.16162  0.011569703 0.0098487789            4 
 4864000   0.47514477   -8.6233575    676.21647  0.011585397 0.0098455847            2 
 4865000   0.47551566   -8.6274321    675.64368  0.011573205 0.0098423882            2 
 4866000   0.46362819   -8.6297793    675.05943  0.011560821 0.0098391978            2 
 4867000   0.47575128   -8.6287606    674.26437  0.011544832  0.009836004            3 
 4868000   0.46412553    -8.637031    675.21177  0.011558679 0.0098328103            2 
 4869000   0.47941505   -8.6059927    674.45953   0.01154343  0.009829622            2 
 4870000    0.4797504   -8.6155659    674.93165  0.011549138 0.0098264337            2 
 4871000    0.4720681   -8.6186783    675.54675  0.011557291 0.0098232452            3 
 4872000   0.46604586   -8.6184244    675.97336  0.011562215 0.0098200552            2 
 4873000   0.46710107   -8.6204066    675.37577  0.011549623 0.0098168679            2 
 4874000   0.48572382   -8.6414085    674.19197  0.011527013 0.0098136817            2 
 4875000   0.46616917   -8.6246616    675.26179  0.011542937 0.0098104998            2 
 4876000   0.46121088   -8.6307349    674.47087  0.011527052 0.0098073198            3 
 4877000   0.46850891   -8.6317071    674.50662  0.011525299   0.00980414            1 
 4878000   0.46341684   -8.6193567    674.14841  0.011516817   0.00980096            3 
 4879000   0.47803054   -8.6211963    673.91391  0.011510451 0.0097977837            3 
 4880000    0.4582901   -8.6252989    675.04475  0.011527403 0.0097946077            1 
 4881000    0.4756293   -8.6389785    675.55324  0.011533723 0.0097914331            2 
 4882000   0.46944583    -8.636618    674.55551   0.01151433  0.009788258            2 
 4883000   0.46337575   -8.6236433    675.08427  0.011520996 0.0097850847            2 
 4884000   0.47358526   -8.6351924    674.18548  0.011503301 0.0097819164            2 
 4885000   0.46080404    -8.615891    674.97486  0.011514413 0.0097787483            6 
 4886000   0.46973229   -8.6208321    674.48056  0.011503625   0.00977558            2 
 4887000   0.46465615   -8.6263175    674.77494  0.011506291 0.0097724105            2 
 4888000   0.47045219   -8.6414207    673.93411  0.011489602 0.0097692436            2 
 4889000   0.47096009   -8.6245008    675.03081  0.011505946 0.0097660782            3 
 4890000   0.46394563    -8.628534    675.40191  0.011509917 0.0097629136            2 
 4891000   0.47656968   -8.6294888    674.67237  0.011495133 0.0097597515            2 
 4892000    0.4547298    -8.629217    676.01869  0.011515718 0.0097565904            2 
 4893000   0.47546354   -8.6336389    674.82725  0.011493073 0.0097534294            4 
 4894000   0.46534553    -8.629272    675.13387  0.011495945 0.0097502722            2 
 4895000   0.44874904   -8.6417425    674.16301  0.011477069 0.0097471165            2 
 4896000   0.47338404    -8.612838    673.68089  0.011466518 0.0097439606            1 
 4897000   0.46612405   -8.6254781    675.62465  0.011497254 0.0097408082            2 
 4898000   0.47007299   -8.6246501    674.52663  0.011476226 0.0097376533            2 
 4899000   0.45851249   -8.6371563    674.64833  0.011475953 0.0097345005            3 
 4900000   0.46219533   -8.6379042    674.74383  0.011475235 0.0097313476            1 
 4901000   0.46435959   -8.6309289    673.97395  0.011459803 0.0097281983            1 
 4902000   0.47052759   -8.6426646    673.33857  0.011446664 0.0097250491            5 
 4903000   0.47247203   -8.6345553    674.45053  0.011463229 0.0097219005            2 
 4904000   0.46429056   -8.6412074    675.27653  0.011474927 0.0097187553            2 
 4905000   0.47266477   -8.6146226    674.32646  0.011456447 0.0097156114            3 
 4906000   0.46348156    -8.646584    674.97007  0.011465044 0.0097124702            3 
 4907000   0.46217196   -8.6323262    674.38553   0.01145278 0.0097093265            2 
 4908000   0.47944739   -8.6424125    674.83554  0.011458088 0.0097061838            3 
 4909000    0.4610855   -8.6484248    675.53285  0.011467591 0.0097030459            2 
 4910000   0.46608701    -8.642213    675.32087  0.011461658 0.0096999075            1 
 4911000   0.47321184   -8.6384387    675.01849  0.011454193 0.0096967684            2 
 4912000   0.46852256   -8.6423318    674.12153  0.011436644 0.0096936314            2 
 4913000   0.45959034   -8.6528998    675.45665  0.011456962 0.0096904972            2 
 4914000   0.46653653   -8.6324284    674.64098  0.011440798 0.0096873609            3 
 4915000   0.45779855   -8.6398947    674.43008  0.011434895 0.0096842272            2 
 4916000   0.46615399   -8.6385561    674.16204  0.011428025 0.0096810946            1 
 4917000   0.46640445   -8.6384048     676.0075  0.011456978 0.0096779644            1 
 4918000   0.47426832   -8.6373738    674.48579  0.011428863 0.0096748357            2 
 4919000   0.47109742   -8.6426625     674.7654  0.011431277 0.0096717079            2 
 4920000   0.46537577   -8.6358112    673.91222  0.011414502 0.0096685813            2 
 4921000   0.45683989   -8.6402236    674.39515  0.011420361 0.0096654568            1 
 4922000   0.45081215   -8.6365268       674.74  0.011423879 0.0096623319            2 
 4923000   0.46667994   -8.6565972     674.9244   0.01142468 0.0096592092            3 
 4924000   0.46215951   -8.6336511    674.49958   0.01141517 0.0096560895            2 
 4925000   0.47551948   -8.6426657    674.12175  0.011406459 0.0096529667            3 
 4926000   0.46048779   -8.6452755    675.14318  0.011421423 0.0096498458            1 
 4927000   0.47181679    -8.647487    673.95079  0.011398938 0.0096467271            2 
 4928000   0.46452495   -8.6293009    674.08976  0.011398975 0.0096436093            4 
 4929000   0.46676579   -8.6325966    674.22229  0.011398903 0.0096404939            2 
 4930000   0.46407259   -8.6336649    674.21121  0.011396403 0.0096373802            4 
 4931000   0.46899627   -8.6221468    674.97647  0.011407025 0.0096342689            2 
 4932000    0.4515372   -8.6263582    674.25635  0.011392544 0.0096311601            2 
 4933000   0.46019105   -8.6325574    673.71296  0.011381055 0.0096280502            2 
 4934000   0.46466468   -8.6542065    674.92854   0.01139928 0.0096249396            2 
 4935000   0.46811556   -8.6419066    673.98958  0.011381114 0.0096218305            2 
 4936000   0.45562348   -8.6438032    675.29223  0.011400801  0.009618724            3 
 4937000    0.4760127   -8.6489839     673.8855  0.011374747  0.009615619            5 
 4938000   0.46401636   -8.6458004    674.10683  0.011376178 0.0096125159            2 
 4939000   0.45440186   -8.6475309     674.3038  0.011377198 0.0096094141            2 
 4940000   0.46995866   -8.6444749    674.81713  0.011383555 0.0096063114            1 
 4941000   0.46044652   -8.6386679    674.35521   0.01137346 0.0096032117            1 
 4942000   0.47202169   -8.6325435    673.98275  0.011364878 0.0096001133            1 
 4943000   0.46411262    -8.632604    674.66145  0.011374021 0.0095970148            2 
 4944000   0.47023937   -8.6523471    673.59176  0.011353691 0.0095939182            4 
 4945000   0.45672939    -8.645252    675.05516  0.011376056 0.0095908217            2 
 4946000    0.4576823   -8.6583704    674.35495  0.011361958 0.0095877259            2 
 4947000   0.45664806    -8.651553    673.99974  0.011353678 0.0095846331            1 
 4948000   0.44915036    -8.651634    674.33506  0.011357031  0.009581538            1 
 4949000   0.46148714     -8.65416    674.48678  0.011357291 0.0095784475            2 
 4950000   0.46492858   -8.6426441    674.73638  0.011359198 0.0095753561            1 
 4951000   0.45822995   -8.6453516     673.6077  0.011337907 0.0095722671            2 
 4952000   0.46585384   -8.6489475    674.36317   0.01134833 0.0095691809            3 
 4953000   0.44933352   -8.6445856    674.54203  0.011349048 0.0095660947            2 
 4954000   0.45934419    -8.640017    673.99581  0.011337569 0.0095630115            2 
 4955000    0.4583579   -8.6503447    674.38069  0.011341754 0.0095599265            2 
 4956000   0.46847749     -8.64971    674.14017  0.011335421  0.009556846            2 
 4957000   0.45608141   -8.6565534    674.67307  0.011342093 0.0095537648            3 
 4958000   0.46082228   -8.6495768    674.09212  0.011330041 0.0095506858            2 
 4959000   0.46802017   -8.6485085    673.54595  0.011318578 0.0095476092            3 
 4960000   0.46733453   -8.6627639    674.65548  0.011334938 0.0095445319            2 
 4961000    0.4715059   -8.6545792    674.49505  0.011329958 0.0095414559            2 
 4962000   0.44786736   -8.6489669    674.51635  0.011328032 0.0095383804            3 
 4963000   0.45135361   -8.6291552    673.87842  0.011315038 0.0095353066            1 
 4964000   0.46729212   -8.6495003    674.13774  0.011317112 0.0095322353            3 
 4965000   0.44760772   -8.6436249    674.13333  0.011314759 0.0095291637            3 
 4966000   0.46467976   -8.6524782    674.44486  0.011317708 0.0095260927            4 
 4967000   0.45368437   -8.6605263    674.92693  0.011323517 0.0095230239            2 
 4968000   0.44471189   -8.6631273     674.5372  0.011314701 0.0095199538            3 
 4969000    0.4564561   -8.6566177    674.03403  0.011303985 0.0095168866            2 
 4970000   0.45475423   -8.6572557    674.95054  0.011317078 0.0095138251            1 
 4971000   0.45286819   -8.6634155    673.80322  0.011295568 0.0095107612            2 
 4972000   0.45372275    -8.657467     674.0897  0.011298098 0.0095076993            2 
 4973000   0.45064742    -8.647748    673.59261  0.011287496 0.0095046379            1 
 4974000   0.44968011   -8.6420384    673.86489  0.011289788 0.0095015783            3 
 4975000   0.45936726   -8.6313723     673.8322  0.011286972 0.0094985206            1 
 4976000   0.45202812   -8.6590012    673.90593  0.011285938 0.0094954637            2 
 4977000   0.45349421   -8.6721481    674.37417   0.01129151 0.0094924099            2 
 4978000   0.45458008   -8.6421428    674.21191  0.011286526  0.009489353            2 
 4979000   0.45330341   -8.6428552    673.87954  0.011278696 0.0094862986            1 
 4980000   0.44963278   -8.6513471     673.8612  0.011276125 0.0094832468            5 
 4981000   0.45826968   -8.6678014     675.5671  0.011302401 0.0094801937            2 
 4982000   0.45946098   -8.6490662    673.17273  0.011260082 0.0094771428            4 
 4983000   0.44930755   -8.6460711    673.87791  0.011269615 0.0094740934            2 
 4984000   0.45682194   -8.6565652    674.34421  0.011275151 0.0094710436            4 
 4985000   0.44983004    -8.643242    674.12488  0.011269222 0.0094679965            2 
 4986000   0.46169659    -8.638052     674.5047   0.01127331 0.0094649495            1 
 4987000   0.44934078   -8.6528306    674.65278  0.011273524 0.0094619036            6 
 4988000   0.45363415   -8.6528323    673.73219  0.011255884 0.0094588611            1 
 4989000   0.46198024   -8.6650996     674.1182  0.011260075  0.009455819            2 
 4990000   0.45417466    -8.669011    672.96451  0.011238552 0.0094527778            3 
 4991000   0.44590895   -8.6502181    674.17751  0.011256554 0.0094497404            4 
 4992000   0.46050821   -8.6580764    674.29759  0.011256303 0.0094467013            4 
 4993000   0.45984187   -8.6467132    673.53569  0.011241333 0.0094436647            4 
 4994000   0.44900659    -8.652155    674.23651  0.011250776 0.0094406291            5 
 4995000   0.45581173   -8.6520765    672.64324  0.011221943  0.009437597            1 
 4996000   0.45150523    -8.675723     673.5355  0.011234579 0.0094345635            3 
 4997000   0.45136464   -8.6606085    673.39337  0.011229961 0.0094315308            2 
 4998000   0.45408749   -8.6314351    673.59862  0.011231136  0.009428501            3 
 4999000    0.4684651   -8.6628996    674.63452  0.011246158  0.009425472            4 
 5000000    0.4581806   -8.6656809    674.52138  0.011242023 0.0094224445            2 
 5001000   0.45101625   -8.6499546    674.71193   0.01124295 0.0094194178            4 
 5002000   0.44845852   -8.6644211    673.60147  0.011222202 0.0094163922            2 
 5003000   0.45812176   -8.6614322    673.09751  0.011211565 0.0094133667            3 
 5004000   0.45093715   -8.6529254    673.89556  0.011222615 0.0094103442            1 
 5005000   0.44995494   -8.6646747    673.65295  0.011216333 0.0094073231            3 
 5006000   0.45184597   -8.6714063    673.60126  0.011213232 0.0094043014            1 
 5007000   0.44923682   -8.6411237    673.65022  0.011211807 0.0094012824            2 
 5008000   0.45583143   -8.6646006    673.32589  0.011204171 0.0093982623            3 
 5009000   0.45229451    -8.664615    673.82656  0.011210264  0.009395245            7 
 5010000     0.454234   -8.6492151    673.62983  0.011204754   0.00939223            2 
 5011000   0.44449963   -8.6648605    673.72562  0.011204111 0.0093892178            6 
 5012000   0.46200656   -8.6399427    673.15533  0.011192394 0.0093862038            2 
Loop time of 11874.8 on 48 procs for 5000000 steps with 4000 atoms

Performance: 72759.128 tau/day, 421.060 timesteps/s
99.4% CPU use with 48 MPI tasks x no OpenMP threads

MPI task timing breakdown:
Section |  min time  |  avg time  |  max time  |%varavg| %total
---------------------------------------------------------------
Pair    | 781.24     | 828.31     | 889.11     |  96.7 |  6.98
Neigh   | 77.939     | 81.051     | 83.616     |  17.7 |  0.68
Comm    | 750.35     | 810.81     | 871.4      | 108.5 |  6.83
Output  | 13.9       | 13.905     | 13.987     |   0.3 |  0.12
Modify  | 10003      | 10037      | 10053      |   9.3 | 84.52
Other   |            | 103.6      |            |       |  0.87

Nlocal:        83.3333 ave          90 max          76 min
Histogram: 1 2 7 6 5 9 5 8 3 2
Nghost:        2052.62 ave        2075 max        2038 min
Histogram: 2 7 14 5 5 4 3 5 2 1
Neighs:        13336.1 ave       14996 max       11472 min
Histogram: 1 1 3 11 4 14 3 6 2 3
FullNghs:      26672.9 ave       29152 max       24134 min
Histogram: 1 2 7 8 6 7 6 6 4 1

Total # of neighbors = 1280299
Ave neighs/atom = 320.07475
Neighbor list builds = 267804
Dangerous builds = 0

#clear
#
#next RN
#
#jump SELF
Total wall time: 3:17:58
