
units lj                  # Use reduced LJ style units
atom_style atomic         # Uncharged point particles
atom_modify map hash      # Needed for indexing of clusters etc
                          # Used to be able to find where atoms are in relation to each other.

lattice fcc 1.0 spacing 1 1 1
Lattice spacing in x,y,z = 1.5874011 1.5874011 1.5874011
region box block 0 10 0 10 0 10 units lattice
create_box 2 box
Created orthogonal box = (0.0000000 0.0000000 0.0000000) to (15.874011 15.874011 15.874011)
  3 by 4 by 4 MPI processor grid
create_atoms 1 box
Created 4000 atoms
  using lattice units in orthogonal box = (0.0000000 0.0000000 0.0000000) to (15.874011 15.874011 15.874011)
  create_atoms CPU = 0.002 seconds
set type 1 type/fraction 2 0.22 78393
Setting atom values ...
  910 settings made for type/fraction
mass 1 1.0
mass 2 1.0
pair_style lj/cut  3.5
pair_modify tail  yes
pair_coeff 1  1  1.0  1.0   # Intearaction between 1 and 1 set with epsilon = 1 and sigma = 1
pair_coeff 1  2  1.5  0.8
pair_coeff 2  2  0.5  0.88

write_data data.0
System init for write_data ...
Neighbor list info ...
  update every 1 steps, delay 10 steps, check yes
  max neighbors/atom: 2000, page size: 100000
  master list distance cutoff = 3.8
  ghost atom cutoff = 3.8
  binsize = 1.9, bins = 9 9 9
  1 neighbor lists, perpetual/occasional/extra = 1 0 0
  (1) pair lj/cut, perpetual
      attributes: half, newton on
      pair build: half/bin/atomonly/newton
      stencil: half/bin/3d
      bin: standard
WARNING: Not all mixed pair coeffs generated from mixing. Use write_data with 'pair ij' option to store all pair coeffs. (../write_data.cpp:312)


#############################
#   M E L T   S Y S T E M   #
#############################

velocity all create 2.4 8172548 mom yes dist gaussian # Assign velocities
                                                    # Temperature 2.4, random number seed, zero linear momentum
                                                                                # Gaussian distribution

timestep 0.002   # simulation timestep
thermo 1000       # output thermodynamic data every 1000 steps bf 100

# Define a fix  in this case with index 1 applied to all
# particles in the simulation. This fix is for simulations
# in the anisotropic NPT ensemble. Note that we use the MTK
# correction.
fix 1 all npt temp 2.4 2.4 0.1 iso 5.68 5.68 0.5 mtk yes tchain 5 pchain 5 # Use NPT ensemble
                                                                         # Set temperature and pressure and damping
                                                                         # Numbers of thermostats in chain and in barostat
run 10000          # run for 10000 steps
Per MPI rank memory allocation (min/avg/max) = 3.642 | 3.644 | 3.648 Mbytes
Step Temp E_pair E_mol TotEng Press Volume 
       0          2.4   -6.9213593            0   -3.3222593   -3.6990896         4000 
    1000    2.3857526   -4.8363773            0   -1.2586431    6.0207687    4389.5567 
    2000     2.437471   -4.9321561            0   -1.2768636    5.4251503     4396.987 
    3000    2.4325727   -4.9308364            0   -1.2828896    5.5192356    4392.0451 
    4000    2.4109867   -4.9183393            0   -1.3027634    5.5527533     4393.078 
    5000    2.4124452   -4.8862473            0   -1.2684842    5.5286881    4415.8235 
    6000    2.4239109   -4.8793568            0   -1.2443994    5.9077866    4388.5477 
    7000    2.4169683    -4.810006            0   -1.1854598    6.1098179    4388.3604 
    8000    2.3924342    -4.899334            0   -1.3115799    5.4482417    4415.3351 
    9000    2.3774626   -4.8717431            0   -1.3064407    5.8696475    4378.4147 
   10000    2.4239899   -4.9071349            0   -1.2720591     5.838833    4374.4622 
Loop time of 2.30539 on 48 procs for 10000 steps with 4000 atoms

Performance: 749547.581 tau/day, 4337.660 timesteps/s
99.6% CPU use with 48 MPI tasks x no OpenMP threads

MPI task timing breakdown:
Section |  min time  |  avg time  |  max time  |%varavg| %total
---------------------------------------------------------------
Pair    | 0.98422    | 1.0468     | 1.096      |   2.6 | 45.40
Neigh   | 0.19827    | 0.20566    | 0.21464    |   0.9 |  8.92
Comm    | 0.71845    | 0.78283    | 0.84053    |   3.5 | 33.96
Output  | 0.00024288 | 0.00024692 | 0.0003079  |   0.0 |  0.01
Modify  | 0.23156    | 0.25514    | 0.27897    |   2.7 | 11.07
Other   |            | 0.01475    |            |       |  0.64

Nlocal:        83.3333 ave          94 max          71 min
Histogram: 1 2 2 9 9 4 12 4 0 5
Nghost:        1546.46 ave        1568 max        1521 min
Histogram: 3 0 3 6 6 9 10 6 3 2
Neighs:        8722.69 ave       10173 max        7430 min
Histogram: 4 1 9 3 10 8 3 4 3 3

Total # of neighbors = 418689
Ave neighs/atom = 104.67225
Neighbor list builds = 907
Dangerous builds = 211

# Equilibrate just above the melting temperature to avoid step fn in T

fix 1 all npt temp 1.25 1.25 0.1 iso 5.68 5.68 0.5 mtk yes tchain 5 pchain 5
run 2000
Per MPI rank memory allocation (min/avg/max) = 3.642 | 3.645 | 3.649 Mbytes
Step Temp E_pair E_mol TotEng Press Volume 
   10000    2.4239899   -4.9071349            0   -1.2720591     5.838833    4374.4622 
   11000    1.2301153    -6.585682            0   -4.7409704    5.8474903    3585.1169 
   12000    1.2425616   -6.6273773            0   -4.7640008    5.5302818    3588.1252 
Loop time of 0.517972 on 48 procs for 2000 steps with 4000 atoms

Performance: 667217.865 tau/day, 3861.214 timesteps/s
99.6% CPU use with 48 MPI tasks x no OpenMP threads

MPI task timing breakdown:
Section |  min time  |  avg time  |  max time  |%varavg| %total
---------------------------------------------------------------
Pair    | 0.22747    | 0.25059    | 0.27863    |   2.3 | 48.38
Neigh   | 0.032515   | 0.034742   | 0.03787    |   0.7 |  6.71
Comm    | 0.14866    | 0.17537    | 0.20069    |   2.9 | 33.86
Output  | 5.245e-05  | 5.3998e-05 | 6.8356e-05 |   0.0 |  0.01
Modify  | 0.042038   | 0.052582   | 0.062797   |   3.1 | 10.15
Other   |            | 0.004629   |            |       |  0.89

Nlocal:        83.3333 ave          95 max          74 min
Histogram: 3 1 5 10 11 11 3 1 1 2
Nghost:        1764.46 ave        1791 max        1735 min
Histogram: 1 3 3 4 8 12 7 5 2 3
Neighs:        10643.5 ave       12382 max        9057 min
Histogram: 2 1 7 7 7 15 4 2 0 3

Total # of neighbors = 510887
Ave neighs/atom = 127.72175
Neighbor list builds = 142
Dangerous builds = 10

#############################
# L I N E A R  Q U E N C H  #
#############################

# Define solid atoms. This closely follows ten Wolde  Ruiz-Montero and Frenkel  Faraday Discuss  1996  104  93-110
# Compute components of the per-atom q6 vector
compute q6 all orientorder/atom degrees 1 6 components 6 nnn NULL cutoff 1.3 # compute the Q6 parameter.
                                                                             # Use all neighbours within 1.3 unit cell.

# get number of connections
compute coord_number all coord/atom orientorder q6 0.5

# An atom is solid if it has 8 or more connections (of a possible 14)
variable is_solid atom c_coord_number>=8
group solid dynamic all var is_solid    # Must be dynamic to update
dynamic group solid defined

# do clustering
compute cluster solid cluster/atom 1.3 # Create a cluster where all atoms within are solid and max 1.3 units from another member

# define chunks one chunk per cluster
compute clus_chunks solid chunk/atom c_cluster nchunk every compress yes  # Says which atoms are in which chunk

# count the size of each chunk
compute size_chunks solid property/chunk clus_chunks count


# Find the maximum entry in the vector of chunk sizes
variable max_n equal max(c_size_chunks)


# Thermo style which includes this variable
# thermo_style custom step temp pe vol v_max_n

thermo ${N}  # Print the thermo information every 100 steps
thermo 1000  

# Reset the npt fix at a lower temperature (below freezing)
fix 1  all npt temp  ${temp} ${temp}  0.1  iso  5.68  5.68  0.5  mtk yes tchain  5  pchain  5
fix 1  all npt temp  0.45 ${temp}  0.1  iso  5.68  5.68  0.5  mtk yes tchain  5  pchain  5
fix 1  all npt temp  0.45 0.45  0.1  iso  5.68  5.68  0.5  mtk yes tchain  5  pchain  5

dump dmp2 all dcd ${N} traj.dcd
dump dmp2 all dcd 1000 traj.dcd


compute msd all msd com yes
variable twopoint equal c_msd[4]/6/(step*dt+1.0e-6)
fix 9 all vector 10 c_msd[4]
variable fit equal slope(f_9)/6/(10*dt)
thermo_style custom step temp pe c_msd[4] v_twopoint v_fit v_max_n

fix 1 all npt temp 1.25 ${temp} 0.1 iso 5.68 5.68 0.5 mtk yes tchain 5 pchain 5
fix 1 all npt temp 1.25 0.45 0.1 iso 5.68 5.68 0.5 mtk yes tchain 5 pchain 5
run 5000000 # 5000000  # Run for this many steps
Neighbor list info ...
  update every 1 steps, delay 10 steps, check yes
  max neighbors/atom: 2000, page size: 100000
  master list distance cutoff = 3.8
  ghost atom cutoff = 3.8
  binsize = 1.9, bins = 9 9 9
  4 neighbor lists, perpetual/occasional/extra = 1 3 0
  (1) pair lj/cut, perpetual
      attributes: half, newton on
      pair build: half/bin/atomonly/newton
      stencil: half/bin/3d
      bin: standard
  (2) compute orientorder/atom, occasional
      attributes: full, newton on
      pair build: full/bin/atomonly
      stencil: full/bin/3d
      bin: standard
  (3) compute coord/atom, occasional
      attributes: full, newton on
      pair build: full/bin/atomonly
      stencil: full/bin/3d
      bin: standard
  (4) compute cluster/atom, occasional
      attributes: full, newton on
      pair build: full/bin/atomonly
      stencil: full/bin/3d
      bin: standard
Per MPI rank memory allocation (min/avg/max) = 9.777 | 9.784 | 9.791 Mbytes
Step Temp PotEng c_msd[4] v_twopoint v_fit v_max_n 
   12000    1.2425616   -6.6273773            0            0 8.3333333e+20            3 
   13000    1.2587752   -6.6199078   0.54407416 0.0034876547  0.045465929            1 
   14000    1.2631604   -6.6625956    1.0408871 0.0061957565  0.044128553            3 
   15000     1.255155   -6.6231631    1.5572013  0.008651118  0.042421126            1 
   16000    1.2464255   -6.6347298    2.0720384  0.010791867  0.042729624            2 
   17000    1.2357222   -6.6320149    2.5749211  0.012622162  0.042768291            2 
   18000    1.2839498   -6.6133066    3.0357161  0.014054241  0.042344477            1 
   19000    1.2639756   -6.6304005    3.5487577  0.015564726  0.041954157            2 
   20000    1.2531802   -6.6361464     4.015143  0.016729762  0.041683543            1 
   21000    1.2218587   -6.6322767    4.4567672  0.017685584  0.041330804            3 
   22000    1.2523662   -6.6253428    4.8332466  0.018307752  0.040751663            1 
   23000    1.2376613   -6.6201329     5.343183  0.019359358  0.040275003            1 
   24000    1.2508133   -6.6605109    5.7789908   0.02006594  0.039929202            2 
   25000    1.2256526   -6.6587622    6.2073983  0.020691327  0.039619277            1 
   26000    1.2883605   -6.5680448    6.6878934  0.021435555  0.039380636            2 
   27000    1.2373901   -6.6084045    7.1887661  0.022187549  0.039250262            2 
   28000    1.2438912   -6.5733568    7.6922898  0.022893719  0.039247978            2 
   29000    1.2400263   -6.6250482     8.180711   0.02350779  0.039239892            2 
   30000    1.2495616   -6.6072114    8.5866371  0.023851769  0.039194141            1 
   31000    1.2700997   -6.6383813    9.0784134  0.024404337  0.039208268            3 
   32000    1.2595931   -6.6276327    9.5223969  0.024797908  0.039179273            3 
   33000    1.2609329   -6.6235862    10.080993  0.025457052  0.039161991            4 
   34000    1.2438259   -6.6123093    10.542696  0.025839942  0.039220838            2 
   35000    1.2291875   -6.6325019    11.146646  0.026539632   0.03928889            1 
   36000    1.2637336    -6.635676    11.670898  0.027015968  0.039398104            1 
   37000    1.2411164   -6.6521445    12.115422  0.027286985  0.039516434            2 
   38000    1.2396511   -6.6160265     12.61715  0.027669187  0.039615316            2 
   39000     1.242924   -6.6295523    13.077762  0.027943935  0.039696525            2 
   40000     1.220911   -6.5990335    13.552974  0.028235363  0.039733208            1 
   41000    1.2499891   -6.6569754    13.918867   0.02829038  0.039783425            1 
   42000    1.2080542    -6.610812    14.427341  0.028625675  0.039772884            2 
   43000    1.2425957   -6.6069277    14.972444  0.029016363  0.039776188            2 
   44000    1.2296708   -6.6563159    15.402527  0.029171452  0.039793085            3 
   45000    1.2638332   -6.6068373    15.943343  0.029524708   0.03979716            3 
   46000    1.2406867   -6.6457791    16.363434  0.029643901  0.039785651            2 
   47000    1.2168391   -6.6626777    16.834397   0.02984822   0.03980666            2 
   48000    1.2413884   -6.5912847    17.504268  0.030389354  0.039839425            2 
   49000    1.2683745   -6.6358559    17.931638  0.030495982  0.039900637            1 
   50000    1.2459657   -6.6143348    18.292515  0.030487524  0.039919241            1 
   51000    1.2374638   -6.6187881    18.783051   0.03069126  0.039931204            2 
   52000    1.2600219   -6.6411194    19.147839  0.030685639  0.039927407            1 
   53000     1.228448   -6.6268328     19.79497  0.031124167  0.039914942            3 
   54000    1.2385115   -6.6714408       20.188   0.03115432  0.039919055            2 
   55000    1.2493634   -6.6742918    20.616407   0.03123698  0.039923826            2 
   56000    1.2702659   -6.6437182    21.251739  0.031624612  0.039936429            1 
   57000    1.2359607   -6.6752534    21.699362  0.031724213  0.039955185            1 
   58000    1.2373585    -6.663164    22.160693  0.031840076  0.039969271            2 
   59000      1.21187   -6.6499951     22.70962  0.032075735  0.039994418            1 
   60000     1.224637   -6.6982591    23.209436  0.032235328  0.040012967            2 
   61000    1.2473184   -6.6368196    23.523295  0.032135649  0.040025222            3 
   62000    1.2731749    -6.653202    24.019095   0.03228373  0.040027437            3 
   63000    1.2491167   -6.6553163    24.517158  0.032430103  0.040015444            1 
   64000      1.23039    -6.648647    25.212667  0.032828994   0.04002817            1 
   65000    1.2287756   -6.6018626    25.605406  0.032827443   0.04003425            1 
   66000    1.2519384   -6.6424346    26.125228  0.032986399  0.040054382            1 
   67000    1.2286822   -6.6579463    26.558204  0.033032591  0.040065738            1 
   68000    1.2549824    -6.652813    27.019527  0.033112166  0.040079771            2 
   69000    1.2354746   -6.6183626    27.661761  0.033407923  0.040094457            3 
   70000    1.2593754   -6.6566974    28.115536  0.033470876  0.040125981            2 
   71000    1.2429279    -6.665245    28.609578  0.033579317  0.040151577            2 
   72000    1.2314663   -6.6664947    29.192307  0.033787392  0.040191296            2 
   73000    1.2321398   -6.6368622    29.788703  0.034005369  0.040230717            2 
   74000    1.2252278     -6.66912    30.283275  0.034102787  0.040270695            2 
   75000    1.2457281   -6.6432785    30.827163  0.034252403  0.040324061            1 
   76000    1.2333255   -6.6583239    31.305606  0.034326322  0.040364402            2 
   77000    1.2570258   -6.6652187    31.823761    0.0344413  0.040407428            1 
   78000    1.2389114   -6.5791328    32.366839  0.034579956  0.040446044            1 
   79000     1.248967   -6.6627211    32.921305  0.034727115  0.040482065            1 
   80000    1.2279215   -6.6524092    33.287524  0.034674503  0.040524099            3 
   81000    1.2214472   -6.6585869    33.963996  0.034942383  0.040569547            1 
   82000    1.2381455   -6.6001906    34.523614  0.035084973  0.040613381            1 
   83000    1.1968926   -6.6481806    35.097539  0.035238493  0.040665999            1 
   84000    1.2527246   -6.6223568    35.548588  0.035266456  0.040720242            1 
   85000    1.2436692   -6.6452907    35.933925  0.035229338   0.04076372            2 
   86000     1.241424   -6.6590891    36.260446  0.035136091  0.040793443            6 
   87000     1.229177   -6.6404384     36.84924  0.035296207  0.040816225            2 
   88000    1.2595519    -6.646595     37.37646  0.035394375  0.040845014            1 
   89000    1.2317359   -6.6864594    38.183559  0.035752395  0.040881264            3 
   90000    1.2705989   -6.6891614    38.620382  0.035759613  0.040922878            2 
   91000    1.2396847   -6.6424154     39.10829  0.035813452  0.040957766            1 
   92000    1.2402654   -6.6828569    39.663042  0.035926669  0.040994316            4 
   93000    1.2453206   -6.6424509    39.923697  0.035773922  0.041023609            1 
   94000    1.2330256   -6.6517751    40.501316  0.035905422  0.041046579            1 
   95000    1.2386267   -6.6574481    41.100816  0.036053348  0.041073914            1 
   96000    1.2373995   -6.6532677      41.6404   0.03614618  0.041102925            2 
   97000    1.2201505   -6.6605273    42.173489   0.03623152  0.041130857            3 
   98000     1.265503   -6.6302632    42.684998  0.036296767  0.041163993            3 
   99000    1.2269418   -6.6529375    43.308799  0.036455218  0.041191813            4 
  100000    1.2593758      -6.6239    43.871583  0.036559652  0.041226872            3 
  101000    1.2296853   -6.6275145    44.045581  0.036341238  0.041256198            2 
  102000    1.2463508   -6.6455053    44.504066  0.036359531  0.041277194            4 
  103000    1.2057328   -6.6568709    45.123841  0.036507962  0.041298057            1 
  104000    1.2182694   -6.6667175    45.491342  0.036451395  0.041309666            2 
  105000    1.2553785   -6.6514169    45.996575  0.036505218  0.041323214            2 
  106000     1.241694   -6.6698738    46.287175  0.036389288  0.041327726            1 
  107000    1.2161365   -6.6728623    46.798741  0.036447617  0.041329903            2 
  108000    1.2360807   -6.6818872    47.195813  0.036416522  0.041332304            1 
  109000    1.2437247   -6.6876455    47.681728   0.03645392  0.041326614            3 
  110000    1.2449207   -6.6564082    48.187777  0.036505891  0.041323536            2 
  111000    1.2668132   -6.6915506    48.586912  0.036476661   0.04132067            1 
  112000    1.2310941   -6.6565032    49.376201  0.036738245  0.041320387            1 
  113000    1.2512359   -6.6564295    49.900591  0.036799846  0.041327614            2 
  114000    1.2281054   -6.6701453    50.415701  0.036853583  0.041329712            3 
  115000    1.1939463   -6.6491805    50.861643  0.036856263  0.041331738            3 
  116000    1.2329536   -6.6617098    51.379071  0.036910252  0.041331923            1 
  117000     1.220379   -6.6676297    51.788952  0.036886718  0.041327233            1 
  118000    1.2479446   -6.6503766     52.28236  0.036922571  0.041322452            2 
  119000    1.2361702   -6.6414232    52.617787  0.036847189  0.041316587            1 
  120000    1.2180743   -6.6352332    53.334497  0.037037845  0.041317433            1 
  121000    1.2253262    -6.670671    53.752491  0.037019622  0.041319442            1 
  122000      1.23239   -6.6651677    54.096564  0.036951205  0.041317146            2 
  123000    1.2524305   -6.6500322    54.781499  0.037114837  0.041311687            1 
  124000     1.269605   -6.6415965    55.322497  0.037179097  0.041308914            3 
  125000    1.2440431   -6.6715291    55.845716  0.037230477  0.041309325            1 
  126000    1.2328221   -6.6616653     56.34145  0.037262864  0.041310914            2 
  127000    1.2319751   -6.6248911    56.767851  0.037249246  0.041314034            5 
  128000    1.2622567   -6.6220982    57.395417  0.037366808  0.041323972            1 
  129000    1.2209288   -6.6292125    57.834735   0.03736094  0.041329553            3 
  130000    1.2120538   -6.6283556    58.449788  0.037467813  0.041333374            3 
  131000    1.2122761   -6.6557842    58.848856  0.037435659  0.041336217            3 
  132000      1.22648   -6.7029369     58.94374  0.037211957  0.041333147            2 
  133000    1.2446173   -6.6849815    59.592698  0.037338783  0.041329452            1 
  134000    1.2466621   -6.6674565    60.273477  0.037483506  0.041328883            3 
  135000    1.2478568   -6.6198064     60.68016  0.037456889  0.041329007            1 
  136000    1.2322426   -6.6575436     61.04261   0.03740356  0.041330114            2 
  137000    1.2162752   -6.6926011    61.575298   0.03745456  0.041329516            1 
  138000    1.2591046    -6.629133    62.153994  0.037532605  0.041322508            2 
  139000    1.2423113   -6.6557013    62.477003  0.037456236  0.041318778            3 
  140000    1.2141442   -6.6218224    63.001938  0.037501153  0.041314859            2 
  141000    1.2195636   -6.6848648    63.447736  0.037498662  0.041310194            2 
  142000    1.2305036   -6.6716343    63.829528  0.037458643  0.041307841            3 
  143000    1.2434775    -6.672291     64.32564  0.037485804   0.04130149            1 
  144000     1.254002   -6.6517013    65.012176  0.037622787   0.04129796            1 
  145000    1.2183068   -6.7062042    65.393377  0.037582401   0.04129205            2 
  146000    1.2500351   -6.6435263    66.236048  0.037805964   0.04128856            1 
  147000    1.2234559    -6.649567    66.408882  0.037646759  0.041281325            1 
  148000    1.2267093    -6.660992    66.587039  0.037492702  0.041276392            3 
  149000    1.2456793   -6.6894584    67.426132  0.037710364  0.041271305            1 
  150000    1.2318789    -6.675039    67.952366  0.037751314  0.041268931            1 
  151000    1.2336454   -6.7511902    68.522242  0.037815807  0.041266186            1 
  152000     1.219227   -6.6854986    69.126406  0.037898249  0.041266435            2 
  153000    1.2304336     -6.67862    69.495893  0.037851794  0.041266196            1 
  154000    1.2051766   -6.6726365    69.904923  0.037827339  0.041263709            3 
  155000     1.231647   -6.6789651     70.41818  0.037859236  0.041262837            1 
  156000    1.2353274   -6.6790526    70.717984  0.037776701  0.041257371            3 
  157000    1.2352107   -6.6847203    71.417607  0.037907434  0.041253679            1 
  158000    1.2301665   -6.6260436    71.984405  0.037966458  0.041251496            1 
  159000    1.2314591   -6.6831403    72.387443  0.037938911  0.041246573            3 
  160000     1.234626   -6.6679185    72.772227  0.037902202  0.041245052            1 
  161000    1.2140055   -6.6810133     73.66813  0.038130502  0.041244636            1 
  162000    1.2406177    -6.678669    73.945625  0.038037873  0.041245782            1 
  163000    1.2071842   -6.6317904    74.966197  0.038326276  0.041250264            2 
  164000    1.2071242   -6.6765827     75.12587  0.038173714  0.041251454            2 
  165000    1.2159583   -6.7046165     75.43109   0.03809651  0.041251353            1 
  166000    1.2266803   -6.6712185    75.575134  0.037939324  0.041248962            2 
  167000    1.2330445   -6.6952323    75.814019  0.037831347  0.041239363            4 
  168000    1.2119377   -6.7321596    76.038639  0.037717579   0.04122636            2 
  169000    1.2460541    -6.616185    77.083835   0.03800978  0.041215497            1 
  170000    1.2228024   -6.6572157    77.290498  0.037887499  0.041204028            3 
  171000    1.2103562   -6.6838851    77.386759  0.037712845  0.041187396            1 
  172000    1.2029171   -6.6524821    77.952399  0.037767635  0.041171142            1 
  173000      1.22845     -6.67078    78.490109  0.037808338  0.041155598            1 
  174000    1.2284194   -6.6898165    78.935077  0.037804156  0.041136228            2 
  175000    1.2179323   -6.6102591     79.72106  0.037962409  0.041119466            4 
  176000    1.2454278   -6.6952503    79.150846  0.037476726  0.041096159            3 
  177000    1.2292052   -6.6561467    79.913924  0.037624258  0.041072386            3 
  178000    1.2130229   -6.6780396    80.471244  0.037673803  0.041049622            1 
  179000     1.210919   -6.6492025    80.636778  0.037540399   0.04102493            2 
  180000    1.2510428   -6.6648442    81.494277  0.037728832  0.041000451            2 
  181000    1.2215597   -6.6894749    82.082327  0.037791126  0.040982111            3 
  182000    1.2342953   -6.6752054    82.516894  0.037782461  0.040965642            3 
  183000    1.2201293   -6.6556893    83.089586  0.037836788  0.040948376            1 
  184000    1.2221492   -6.6713417    83.655317  0.037887372  0.040933496            2 
  185000     1.189566    -6.669752    83.975996  0.037827025  0.040917206            4 
  186000    1.2509286   -6.7142261     84.12619  0.037690945  0.040900719            2 
  187000    1.2123784     -6.64395    85.212629  0.037973542   0.04088498            1 
  188000    1.1981095   -6.6583183    85.642056  0.037961904  0.040871454            1 
  189000     1.192551   -6.7372809    86.032984  0.037933414  0.040860151            2 
  190000     1.226089   -6.7435647    86.291244  0.037847037  0.040846353            2 
  191000    1.2235266   -6.6544199    86.773492   0.03785929  0.040833633            2 
  192000    1.2145711   -6.6527604    87.831311  0.038121229  0.040823297            2 
  193000    1.2436463   -6.6679438    88.410246  0.038173681  0.040817215            2 
  194000    1.1899592   -6.7060913    88.678607  0.038092185  0.040808871            2 
  195000    1.2231858   -6.6685523    89.085002  0.038070514  0.040799735            1 
  196000     1.212364   -6.6769498     89.44733  0.038030327  0.040793276            1 
  197000    1.2356511   -6.7030068    90.231169  0.038168853  0.040788746            1 
  198000    1.2183834   -6.6810242    90.727004  0.038184766  0.040786653            4 
  199000    1.2140463   -6.6518436    91.240351  0.038207852  0.040781415            1 
  200000    1.2037718   -6.7168928    91.724413  0.038218505  0.040776483            1 
  201000    1.2105657   -6.6878549    91.810421  0.038064022  0.040768714            4 
  202000    1.2218323    -6.692267    92.534177  0.038174165  0.040759572            4 
  203000    1.2441309   -6.7067136    92.668947  0.038041439  0.040752905            3 
  204000     1.177378   -6.7025895    93.242758  0.038089362  0.040743339            4 
  205000    1.1858259   -6.6947385    93.872524  0.038159562  0.040735507            3 
  206000    1.2192687   -6.6765583    94.548134  0.038247627  0.040730819            3 
  207000    1.2276849   -6.6411027    95.450928  0.038426299  0.040727488            2 
  208000    1.2236718   -6.6853359    95.671273  0.038329837   0.04072388            1 
  209000    1.2107009   -6.6755073    95.870665  0.038225943  0.040718359            2 
  210000    1.2135823   -6.6934405    95.772411  0.038004925  0.040710811            3 
  211000    1.2109246   -6.6465173    96.341963  0.038049748  0.040700492            3 
  212000    1.2151279   -6.7231993    97.015142  0.038134883  0.040689727            3 
  213000    1.2213713   -6.6998352    97.085131  0.037983228  0.040677229            1 
  214000    1.2119179   -6.6972657    97.463841  0.037953209  0.040665315            1 
  215000    1.1927739     -6.70586    98.434922   0.03815307  0.040654238            3 
  216000    1.2105272   -6.6848649    98.923416  0.038164898  0.040644845            2 
  217000    1.2155707   -6.6761885    99.577228  0.038240103  0.040636516            1 
  218000    1.2109542   -6.7126978    99.870649  0.038176854   0.04063074            2 
  219000    1.2322198   -6.6358341    100.35716  0.038187657  0.040621193            1 
  220000    1.2178745   -6.6725113    100.97031  0.038246329  0.040613496            2 
  221000    1.2379069   -6.6751145     101.2919  0.038194531   0.04060606            3 
  222000    1.2121668   -6.6894626    101.76316  0.038199383  0.040598409            3 
  223000    1.2211659   -6.7023804    101.69882  0.038004044   0.04058829            1 
  224000    1.2310274    -6.671313    102.64666  0.038187001  0.040577847            2 
  225000     1.213349   -6.7000865    103.25052  0.038240932  0.040568728            3 
  226000    1.2179367   -6.7441633    103.49429  0.038161612  0.040559467            1 
  227000    1.1927549   -6.6948202    104.09846  0.038215295  0.040549025            2 
  228000    1.1922623   -6.6591943    104.80751  0.038306839  0.040541362            7 
  229000    1.2302345    -6.678891     105.4929  0.038388973  0.040534513            3 
  230000    1.2153059   -6.6931851    105.71044  0.038300883  0.040528912            2 
  231000    1.2240141   -6.7104232     106.3081  0.038350686  0.040522726            1 
  232000    1.2348313   -6.6692311    106.69587  0.038324667  0.040516069            2 
  233000     1.233521   -6.7231962    106.84064  0.038211961  0.040507815            3 
  234000    1.1967985   -6.6720024    107.35199  0.038230767  0.040500569            2 
  235000    1.2231974   -6.7354273    107.89425  0.038260371  0.040493348            1 
  236000    1.2040745   -6.7184622    108.35814  0.038262055  0.040484407            2 
  237000    1.2182946    -6.715451     108.7336  0.038232629  0.040477769            2 
  238000    1.2064735   -6.6950224    109.14886  0.038217388  0.040468492            1 
  239000    1.2061235   -6.6682276    109.65523  0.038234042    0.0404608            2 
  240000    1.2561823   -6.7400717    110.01725  0.038200433  0.040450056            1 
  241000    1.2168305   -6.7012486    110.53868  0.038222228  0.040440277            5 
  242000     1.212181   -6.6636941    111.12443  0.038265988    0.0404304            3 
  243000    1.2257745   -6.7548353    110.95629  0.038050853  0.040419002            2 
  244000    1.2299735   -6.7223969    111.24135  0.037992265  0.040407242            2 
  245000    1.2193068   -6.7179864    111.60984  0.037962532  0.040394377            1 
  246000    1.2421939   -6.6785168    112.21405   0.03801289  0.040380597            2 
  247000    1.2171295   -6.7023538    112.80083  0.038056961  0.040366678            4 
  248000    1.2237041    -6.718261     113.1295  0.038013943  0.040354057            3 
  249000    1.2243116   -6.7018686    113.67417  0.038043566  0.040341723            1 
  250000    1.2168793    -6.678529    114.60156  0.038200518  0.040329125            1 
  251000    1.2274195   -6.7121655    114.67031  0.038071153  0.040317843            2 
  252000    1.2106263   -6.7144306    115.35993  0.038148125  0.040305625            2 
  253000    1.2005453   -6.6854837    115.63152  0.038086798  0.040292628            1 
  254000    1.1870373   -6.7436814    115.91509  0.038029884  0.040280338            2 
  255000     1.248671   -6.6429296    116.70113  0.038137625  0.040268973            2 
  256000    1.2053665   -6.7402951    116.76782  0.038010358  0.040257819            2 
  257000    1.1954878   -6.6883173    117.66535  0.038153487  0.040246649            1 
  258000    1.2064891     -6.71266    118.27631  0.038202943  0.040236621            2 
  259000    1.1929908   -6.7115677    118.16902  0.038020919  0.040225287            2 
  260000    1.2374556   -6.7486317    118.91365  0.038113349  0.040214427            2 
  261000    1.2042331   -6.6912215    119.42608  0.038130933   0.04020529            1 
  262000    1.2254048   -6.7078829    119.81139   0.03810795  0.040195063            3 
  263000    1.2163674   -6.6984744    120.32032   0.03812431  0.040185107            2 
  264000    1.2401358   -6.6641724    120.97193  0.038185583  0.040174505            1 
  265000    1.2099388   -6.7431079    120.86387  0.038007507  0.040164268            1 
  266000    1.2141276     -6.72842    121.57478  0.038087336  0.040154304            4 
  267000    1.2103336    -6.725592    122.38287    0.0381969  0.040144613            2 
  268000     1.204547   -6.7329256    122.52151  0.038097484  0.040134336            2 
  269000    1.1974146   -6.6998755    123.14004  0.038147473  0.040123666            2 
  270000    1.2235363   -6.7565582    123.30894  0.038058314  0.040114331            3 
  271000    1.2140357   -6.7332865    124.10166  0.038161641  0.040106892            3 
  272000    1.1949604    -6.695355    125.15605  0.038344377  0.040100132            1 
  273000    1.2200405    -6.726059    125.13253  0.038196743   0.04009305            1 
  274000    1.1978587   -6.6968821     125.6717  0.038221321  0.040085996            1 
  275000    1.2114294   -6.7000723    125.94427  0.038164932  0.040077461            1 
  276000    1.2010912   -6.6787683    126.22871  0.038112532  0.040067568            1 
  277000    1.2165633   -6.6946113    127.38908  0.038324032  0.040058424            3 
  278000    1.2248375   -6.7251574    127.01532  0.038074135  0.040049983            1 
  279000     1.196333   -6.7095899    127.95664  0.038218828   0.04004079            2 
  280000    1.1730346   -6.7033861    128.30174  0.038185042   0.04003206            1 
  281000    1.1992409   -6.6844671    129.24677   0.03832941  0.040023603            3 
  282000    1.2492668   -6.6940538    129.43686  0.038249663  0.040016249            1 
  283000    1.1969343   -6.6876813    130.30755  0.038370892   0.04001125            2 
  284000    1.2210519   -6.7092202    130.40107  0.038263225  0.040006206            1 
  285000    1.2078142   -6.7591009    130.68602  0.038212288  0.039999567            1 
  286000    1.2014891   -6.7103402    131.32404  0.038264581   0.03999236            2 
  287000    1.2114951   -6.7166525    131.74176  0.038252544  0.039984495            2 
  288000    1.2333847   -6.7210446    132.02213  0.038200847  0.039976488            2 
  289000    1.2045587    -6.719599    132.89778   0.03832116    0.0399709            1 
  290000    1.2184582   -6.6787623    133.72812  0.038427621  0.039967572            1 
  291000    1.2019896   -6.7284664    134.06973  0.038393393  0.039963771            3 
  292000    1.2039569    -6.736937    134.27442  0.038320325  0.039960307            2 
  293000     1.219678     -6.70346    135.22357  0.038459492  0.039956534            2 
  294000    1.2167603   -6.6823452    136.12483  0.038584135   0.03995374            1 
  295000    1.2189766   -6.7428067    136.10894  0.038448853  0.039951358            3 
  296000    1.1920401   -6.7390234    136.17676  0.038338053   0.03994786            1 
  297000    1.1883099   -6.7098975    136.67047  0.038347494  0.039942699            4 
  298000    1.2135836    -6.743718    136.86906  0.038274344  0.039937284            2 
  299000    1.2106853   -6.7166224    137.50721  0.038324194   0.03993225            3 
  300000    1.1809232   -6.7688042    138.09001  0.038358336  0.039926481            1 
  301000    1.2250972   -6.7356794     138.2953  0.038287736  0.039920806            2 
  302000    1.1941582   -6.7451795    138.80852  0.038302572  0.039914862            4 
  303000    1.2122229     -6.72062    138.41127  0.038066905  0.039908186            2 
  304000    1.1864871   -6.6929623    139.69382  0.038293262  0.039901819            1 
  305000    1.1988047   -6.7850743    139.32713  0.038067521  0.039895069            2 
  306000    1.2010322   -6.7376442    140.60439  0.038290956  0.039888533            1 
  307000    1.2181099   -6.6785277    141.20351  0.038328856  0.039881968            2 
  308000     1.206246   -6.7277268     141.2229  0.038209658  0.039874784            2 
  309000    1.2043098    -6.683389    141.63903  0.038198227  0.039866413            3 
  310000    1.2083378   -6.6963229    142.21221  0.038229088  0.039858836            3 
  311000    1.2077647   -6.6996544    142.67918  0.038231291  0.039850127            1 
  312000    1.2026936    -6.737085    142.36606  0.038025123  0.039841702            3 
  313000    1.1795651   -6.6797523    143.36921  0.038170716  0.039831992            5 
  314000    1.2199582   -6.7293391    144.03629  0.038226192  0.039822572            1 
  315000    1.1832365   -6.7443731     144.0809  0.038116639  0.039813131            2 
  316000    1.2297966   -6.7423689    144.07558  0.037994615  0.039802151            3 
  317000    1.1913705   -6.6993821    144.62115  0.038018179  0.039791751            2 
  318000     1.202797   -6.7059832    145.18357   0.03804601  0.039782445            1 
  319000    1.2200415   -6.7109795    145.68168  0.038056864  0.039771442            3 
  320000    1.1953968   -6.7259346    145.95346  0.038008712  0.039760486            2 
  321000    1.2156412    -6.758305     146.1697  0.037946443  0.039750106            1 
  322000    1.1747944   -6.7259259    146.53265  0.037922529  0.039739409            2 
  323000    1.2023086   -6.7041468     146.9983  0.037925257  0.039727465            1 
  324000    1.2107293   -6.7526913    147.36534  0.037902608  0.039716133            1 
  325000    1.2031351   -6.7173551    148.05143  0.037961905  0.039705048            2 
  326000    1.2122156   -6.6977572    148.90592  0.038063884  0.039694876            2 
  327000    1.1905302   -6.7378101    149.17093  0.038015018  0.039684714            2 
  328000    1.1982029   -6.7244652    149.12243  0.037886795  0.039673474            2 
  329000    1.2005274   -6.7298494    149.70135  0.037918275   0.03966345            1 
  330000    1.1635314   -6.7379302    150.00799  0.037880805  0.039652011            1 
  331000    1.1994607    -6.732758    150.36018  0.037855031  0.039640024            1 
  332000    1.1902584   -6.6860678    151.30115  0.037977195  0.039627402            1 
  333000    1.1935138   -6.7215348    150.91996  0.037767758  0.039614325            1 
  334000    1.2096905   -6.7230081    151.57916  0.037819151  0.039600927            2 
  335000    1.1880842   -6.6981925    152.01718   0.03781522  0.039587097            1 
  336000    1.2177018   -6.7195495    152.45491  0.037811238   0.03957301            3 
  337000    1.1883653   -6.7175761     152.7462  0.037771067  0.039558849            2 
  338000    1.2033256   -6.7150896    153.48436  0.037841312  0.039544275            2 
  339000     1.201003   -6.7298368    153.14321  0.037645824  0.039530042            1 
  340000    1.1956378   -6.7251226    154.15278  0.037782543  0.039516437            2 
  341000    1.1810133   -6.7173707    154.67207  0.037798648  0.039502949            4 
  342000    1.1941094   -6.7511738    155.14203  0.037802639   0.03949028            1 
  343000    1.1633902   -6.7186662     155.9405   0.03788642  0.039478726            4 
  344000    1.1669112    -6.707522    156.48633  0.037908511  0.039468051            3 
  345000    1.1791439   -6.6932365    156.95912  0.037912832  0.039456919            2 
  346000    1.1924429   -6.7194892    156.31996  0.037649317  0.039445417            1 
  347000    1.2011293   -6.7202224    157.37299  0.037793705   0.03943351            3 
  348000    1.2152332   -6.7178967    157.24174  0.037653674  0.039421055            3 
  349000    1.2017671   -6.7206797    158.13447  0.037758947  0.039408702            2 
  350000    1.2045287   -6.7161075    158.59282  0.037760196  0.039396519            2 
  351000    1.1811383   -6.7176399    159.34924  0.037832202  0.039385739            2 
  352000    1.1883601   -6.7203027    160.13635  0.037911067  0.039375425            1 
  353000    1.2119413   -6.6868248    160.73288  0.037944496  0.039366276            2 
  354000     1.191868   -6.7585483     160.9658  0.037892138  0.039356707            1 
  355000     1.197801   -6.6791245    161.78998  0.037978869   0.03934821            2 
  356000     1.188478   -6.7354146    162.02888   0.03792811  0.039339945            3 
  357000    1.2000118   -6.7349107    162.41761  0.037912607  0.039330724            2 
  358000    1.1992125   -6.7070276    163.67098  0.038098459  0.039322466            2 
  359000    1.2009828   -6.7250722     163.4388  0.037938441  0.039314887            1 
  360000    1.1905014   -6.7184598    163.68946  0.037891078  0.039306622            2 
  361000    1.2284112   -6.7320957    164.26494  0.037918962  0.039298062            1 
  362000    1.1769599    -6.704108    165.17691   0.03802415  0.039290404            1 
  363000    1.1978214   -6.7647663    165.44865  0.037981785  0.039282611            2 
  364000     1.194895   -6.7321396     166.5187  0.038122412  0.039275554            5 
  365000    1.2197324   -6.7431087    166.55794  0.038026927  0.039268906            1 
  366000    1.2106016   -6.7746817    166.02244  0.037801102   0.03926051            1 
  367000    1.2040823   -6.6579584    167.59055  0.038054166  0.039253403            3 
  368000    1.1676799   -6.7188439    167.82906  0.038004769  0.039246614            2 
  369000    1.1993898   -6.7387666    168.15335  0.037975012  0.039239212            1 
  370000    1.1848035   -6.7090179    168.81095  0.038020484  0.039232972            2 
  371000    1.2081588   -6.7389508    168.97069  0.037953885  0.039226997            3 
  372000    1.1975658   -6.7898597     169.4389  0.037956744  0.039221227            2 
  373000    1.2147961   -6.7621611    170.01563  0.037983831  0.039213662            1 
  374000    1.1917066   -6.7750225     170.3942  0.037966622  0.039207084            1 
  375000    1.1877537   -6.7397924    170.80121  0.037955824  0.039200125            3 
  376000    1.1461635   -6.7564868    171.19911  0.037943064  0.039194735            2 
  377000    1.2028813   -6.7038389    172.79256  0.038194641  0.039189915            2 
  378000    1.1687266   -6.7664644    173.67578  0.038288311  0.039187402            2 
  379000    1.1980365   -6.7503904    173.94912  0.038247387  0.039184324            1 
  380000    1.2016236   -6.7468031     174.0405  0.038166776  0.039181172            2 
  381000    1.1905819   -6.7473693    173.74025  0.038000929  0.039177365            5 
  382000    1.2297109   -6.7623727    174.33312  0.038030786  0.039173443            2 
  383000    1.1795276   -6.7524779    175.55318   0.03819695  0.039170378            1 
  384000    1.2080181   -6.7353748    175.10144  0.037999444   0.03916631            3 
  385000    1.1860347   -6.7375163    176.11856  0.038120901  0.039161969            1 
  386000    1.1821185   -6.7300728    176.02774  0.038002534  0.039157489            2 
  387000    1.2371946   -6.7374809    177.06336  0.038127338  0.039153029            2 
  388000    1.1896274   -6.7876533    177.56648   0.03813713  0.039148724            1 
  389000    1.1777388   -6.7306032    177.68313  0.038064081  0.039144201            2 
  390000    1.2120299    -6.747521     178.3306   0.03810483   0.03914124            1 
  391000    1.1905434   -6.7496618    178.72329  0.038091068  0.039138842            5 
  392000    1.1885609   -6.7689501    179.80171  0.038223153  0.039136049            2 
  393000    1.1898648   -6.7764693    180.19031  0.038208293  0.039133093            1 
  394000    1.1936244   -6.7457567    180.47622  0.038171789  0.039130254            2 
  395000    1.1969086   -6.7577099    180.78162  0.038139583  0.039126821            3 
  396000    1.1910884   -6.7446422    181.24302  0.038140365  0.039124127            2 
  397000    1.1820901   -6.7934996    181.61191  0.038121727  0.039121429            1 
  398000    1.2061368   -6.7566804    182.25142  0.038159845  0.039118176            1 
  399000    1.1944071   -6.7559934    181.85156  0.037980693  0.039114067            1 
  400000    1.2239251   -6.7732129     182.2119  0.037960813   0.03910906            2 
  401000      1.16873    -6.715754    182.81933   0.03799238  0.039103097            2 
  402000    1.1962465   -6.7619234    182.50035  0.037831748  0.039097773            1 
  403000    1.1996526   -6.7415515    184.23618  0.038096811  0.039092298            1 
  404000    1.1869726   -6.7721862    184.27479  0.038010476   0.03908764            2 
  405000    1.2085785   -6.7681461    184.51647  0.037966352  0.039082898            2 
  406000     1.170804   -6.7346115    185.72563  0.038121024  0.039078327            2 
  407000    1.1861032   -6.7515798    185.20026  0.037919791  0.039073579            3 
  408000    1.1801017    -6.747064    185.86028  0.037961658  0.039067969            1 
  409000    1.2025889   -6.7237625    186.82695    0.0380658  0.039061966            3 
  410000    1.1933456   -6.7436631       186.45  0.037896342  0.039055933            2 
  411000    1.1900034   -6.7687542    186.49862  0.037813995  0.039050012            1 
  412000    1.1909197   -6.7358721     187.4895  0.037922633  0.039043971            2 
  413000    1.1800298   -6.7747053    187.74673  0.037882714  0.039037516            1 
  414000    1.1778518     -6.71286    188.95913  0.038035252  0.039031027            2 
  415000    1.1941327    -6.769478    188.36194  0.037823683  0.039025056            1 
  416000    1.1879454   -6.7660077    189.34276  0.037929239  0.039018019            3 
  417000    1.1921868   -6.7846583    189.76512  0.037922686  0.039010951            4 
  418000    1.1864263   -6.7555785    189.19465  0.037718232  0.039003664            4 
  419000    1.2165584   -6.7372808    190.36537  0.037861052   0.03899643            1 
  420000    1.1936488   -6.7404192    191.44369  0.037984858  0.038989435            3 
  421000    1.1690747   -6.7301057    190.88673  0.037784389  0.038982049            3 
  422000    1.1875987   -6.7778438    191.45674  0.037807414  0.038974537            2 
  423000     1.181015   -6.7944612    191.40329  0.037707505  0.038967263            2 
  424000    1.1695945   -6.7319867      192.485  0.037831172  0.038959824            1 
  425000    1.1848451   -6.7469886    193.68412  0.037977279  0.038953583            3 
  426000    1.1706749   -6.7211149     194.3061    0.0380098  0.038947421            1 
  427000    1.1946659   -6.7169079    194.57691  0.037973636  0.038942041            3 
  428000    1.1760713   -6.7226315    194.55469  0.037880585  0.038937408            2 
  429000    1.1577016   -6.7999315     194.5805    0.0377973  0.038932047            2 
  430000    1.1744386   -6.7684771    195.72068  0.037930365  0.038926344            1 
  431000    1.1820644   -6.7717615    196.19474  0.037934018  0.038921746            1 
  432000    1.1694751   -6.7437699    196.63365  0.037930873  0.038917018            1 
  433000    1.1774787   -6.7898037     197.0538  0.037924134   0.03891214            2 
  434000    1.1711834   -6.7368414    197.53091  0.037928362  0.038907548            1 
  435000     1.173745   -6.7281686    197.61367  0.037857025  0.038903035            5 
  436000    1.1881927   -6.7580961     198.5005  0.037939697  0.038898406            1 
  437000    1.2069873    -6.696735    199.20296  0.037986835  0.038893748            1 
  438000    1.1608292   -6.7752059    199.20832  0.037901125  0.038888572            1 
  439000    1.1831784   -6.7426448    199.52048  0.037874048   0.03888345            2 
  440000     1.181151    -6.811261    199.91072  0.037861878    0.0388773            1 
  441000    1.1799333   -6.7269131    201.32946  0.038044116  0.038872724            1 
  442000    1.1950833   -6.7558299    201.09012  0.037912918  0.038867679            2 
  443000    1.1884897    -6.752263     201.4717  0.037899116  0.038862272            2 
  444000    1.1850601   -6.7875898    201.76634  0.037869059  0.038857079            3 
  445000     1.173906   -6.7661181     202.2796  0.037880075  0.038852522            2 
  446000    1.2021207   -6.8039095    202.34274   0.03780694  0.038847928            5 
  447000    1.1990274   -6.7731498    202.71366  0.037791511  0.038843022            2 
  448000    1.1984487   -6.8005313     203.5284  0.037858705  0.038838616            2 
  449000    1.1785325   -6.7363493    204.36057  0.037928837  0.038834283            2 
  450000     1.171946    -6.755124    205.01376  0.037965511  0.038830025            2 
  451000     1.184611   -6.7150087    205.65626  0.038000048  0.038826055            3 
  452000    1.1705224    -6.747903    206.34016  0.038042066  0.038823064            2 
  453000    1.1840292   -6.7530502    206.07638  0.037909563  0.038819743            7 
  454000    1.1705099   -6.7424225     207.8481  0.038151267   0.03881635            1 
  455000    1.1606885   -6.8024607    207.77913  0.038054785  0.038813715            3 
  456000    1.1535002   -6.7813075    208.75455  0.038149588  0.038810957            2 
  457000    1.1878978   -6.7527226    208.85523  0.038084469  0.038808689            2 
  458000    1.1942105   -6.7660344    209.32826  0.038087384  0.038806928            2 
  459000    1.1920018   -6.7610194    209.41917  0.038020909  0.038803928            2 
  460000     1.179595   -6.8076197    210.07144  0.038056421  0.038801181            4 
  461000    1.1765209   -6.7513701    210.24337  0.038004948   0.03879815            3 
  462000    1.1993813   -6.7778493    210.72488  0.038009538  0.038795273            2 
  463000      1.16794   -6.7604977    210.64927  0.037913835  0.038791491            2 
  464000    1.1821965   -6.7474345     211.7074  0.038022163  0.038788171            2 
  465000    1.1920327   -6.7612206    211.63232  0.037926939  0.038784442            1 
  466000    1.1847933    -6.730498    212.26461  0.037958621  0.038781018            1 
  467000    1.1880479    -6.792808    212.84709  0.037981279  0.038776868            2 
  468000     1.179493   -6.7335939    213.04464  0.037935298  0.038773327            2 
  469000    1.1539211   -6.7987419    212.58586  0.037772896  0.038768562            1 
  470000    1.1687352   -6.7617347    214.09651  0.037960374  0.038763816            2 
  471000    1.2087439   -6.7643959    214.35656  0.037925789  0.038759963            1 
  472000    1.1749887   -6.7555113    215.46261  0.038040715  0.038756506            1 
  473000    1.1640927   -6.7555222    215.90381  0.038038022  0.038753261            2 
  474000    1.2000492   -6.7491058    215.71089  0.037923855  0.038749841            1 
  475000    1.1909045   -6.7464042    216.00558  0.037895715  0.038746312            3 
  476000    1.1842838     -6.75728    217.39586    0.0380595   0.03874335            3 
  477000    1.1636017   -6.7801745     217.4707  0.037992785   0.03873942            2 
  478000     1.177128   -6.8100767    217.12863  0.037853667  0.038734831            1 
  479000    1.1925558   -6.7955786    217.00802  0.037753658  0.038729912            1 
  480000    1.1867593   -6.7712352    217.97228   0.03784241  0.038725151            2 
  481000    1.1801536   -6.7894986    217.92085  0.037754825   0.03872034            2 
  482000    1.1614125   -6.7779066    218.25368  0.037734039  0.038715049            2 
  483000    1.1525889   -6.7948431    219.27607   0.03783231  0.038709317            2 
  484000    1.1670359   -6.8030247    218.98955  0.037704813  0.038704177            2 
  485000    1.1750513   -6.7518545    220.60435  0.037904528  0.038699407            1 
  486000     1.165018   -6.7602843    220.44484  0.037799183  0.038694264            1 
  487000    1.1746212   -6.7683677    220.91746  0.037802439  0.038689763            2 
  488000    1.1506556   -6.7833278    221.39834  0.037807093  0.038686186            1 
  489000    1.1646711   -6.7599779    222.13963  0.037856106  0.038682705            4 
  490000    1.1582611   -6.7371473    222.61726  0.037860077  0.038678401            1 
  491000    1.1603281   -6.7961353    223.58632   0.03794744  0.038674484            4 
  492000    1.1471576   -6.7882179    223.33001  0.037826899  0.038670916            3 
  493000    1.1870424    -6.803473    223.35714  0.037754757  0.038666855            1 
  494000    1.1899794   -6.7774295    224.70093  0.037905015  0.038662491            5 
  495000     1.172593   -6.8240469    225.39401  0.037945119   0.03865859            1 
  496000    1.1714722   -6.7595321    225.79662   0.03793626   0.03865477            2 
  497000    1.1470168   -6.7850412    225.51979  0.037813513  0.038650741            4 
  498000    1.1599739   -6.7686031    226.14383  0.037842006  0.038646142            1 
  499000    1.1885545   -6.7786042    227.05346   0.03791808  0.038642228            3 
  500000    1.1861257   -6.8009908     226.7057  0.037784284   0.03863771            4 
  501000    1.1546997   -6.7800219    226.59357  0.037690214  0.038632424            1 
  502000     1.165281   -6.7908782    227.82181  0.037819025  0.038628215            3 
  503000    1.1485285   -6.7773396    228.97897  0.037935548  0.038623667            2 
  504000    1.1639438   -6.7831934    228.78048  0.037827461  0.038619551            1 
  505000    1.1743524   -6.7722067    228.70141  0.037739507  0.038614652            1 
  506000    1.1585114   -6.7806239    229.38235  0.037777067  0.038609921            1 
  507000    1.1643099   -6.7978632    229.59256  0.037737107  0.038604802            5 
  508000      1.18315   -6.7897214    229.93429   0.03771888  0.038599218            2 
  509000    1.1592115    -6.769829    230.50272  0.037737838  0.038593126            1 
  510000    1.1497132   -6.7920887    230.36102   0.03764069  0.038586813            1 
  511000     1.148531   -6.8030854    230.52921  0.037594456  0.038579418            1 
  512000    1.1474838   -6.8099798    231.05521  0.037606643  0.038572934            4 
  513000     1.162292    -6.762971    231.71871  0.037641116  0.038566852            2 
  514000    1.1740281   -6.7605403    232.61684  0.037713495  0.038561029            1 
  515000    1.1876434    -6.759836     232.6395  0.037643932  0.038555315            2 
  516000     1.169354    -6.742685    233.18607  0.037659249  0.038549304            2 
  517000    1.1865463   -6.7663882    233.37892  0.037617492   0.03854341            1 
  518000    1.1674617   -6.7866925    232.92496   0.03747184  0.038537008            2 
  519000    1.1683942   -6.7832581    233.42292  0.037479596  0.038529823            2 
  520000    1.1647158   -6.7888527    234.08086  0.037512959  0.038523017            2 
  521000     1.190354   -6.7474976    235.42046  0.037655224  0.038516832            1 
  522000    1.1902703   -6.7664306    235.27595  0.037560018  0.038510407            3 
  523000    1.1843462   -6.7799564    235.88699  0.037585563  0.038504344            1 
  524000    1.1954501   -6.7970658    236.53805  0.037617374   0.03849817            1 
  525000    1.1513876   -6.7593025    236.75486  0.037580136  0.038491976            2 
  526000    1.1538909   -6.8077096    237.29481  0.037594235  0.038485581            4 
  527000     1.164103   -6.7712722    238.07355   0.03764604  0.038479633            1 
  528000    1.1632516   -6.7468158     237.9388  0.037553472  0.038474011            2 
  529000    1.1818432   -6.8169229    238.43879  0.037561246  0.038468442            3 
  530000      1.17393   -6.8081334    238.22696   0.03745707  0.038462164            1 
  531000    1.1641503   -6.7516811    240.63963  0.037765165  0.038456214            1 
  532000    1.1738062   -6.7881508    239.23813  0.037474644  0.038450382            1 
  533000    1.1653832   -6.7869254    239.74241  0.037483178  0.038443876            2 
  534000    1.1864059   -6.7612702    239.78308  0.037419332  0.038436598            2 
  535000    1.1584759   -6.8020514    239.85087  0.037359949  0.038428975            1 
  536000    1.1509249   -6.7870399    240.80553   0.03743867  0.038420922            3 
  537000    1.1831799   -6.7814806    240.81877  0.037371006  0.038412513            2 
  538000    1.1647912   -6.7673322    240.75782  0.037292103  0.038404175            3 
  539000    1.1680903   -6.7619169    240.50006  0.037183065  0.038395544            1 
  540000    1.1667881   -6.8058455    241.49347  0.037267511  0.038386112            2 
  541000    1.1506693   -6.8190791    242.29258  0.037321715  0.038377338            2 
  542000    1.1571248   -6.7250182    243.07359  0.037372939  0.038369032            2 
  543000    1.1678949   -6.7619179    243.30473  0.037339584  0.038360484            3 
  544000    1.1644288   -6.7768823    243.59029  0.037314689  0.038352113            2 
  545000     1.180224   -6.7998441     243.7639  0.037272768  0.038343609            1 
  546000    1.1762937     -6.79032    244.63958  0.037338153  0.038335213            3 
  547000    1.1838186   -6.8017138    244.43179  0.037238237  0.038326633            3 
  548000    1.1728517   -6.7759972    244.74442  0.037217826  0.038318582            3 
  549000    1.1826289   -6.7992912     245.8813  0.037322602  0.038310891            5 
  550000    1.1842922   -6.8312759    246.01553   0.03727508  0.038303487            2 
  551000     1.169558   -6.8270125    246.61597  0.037298241  0.038296061            2 
  552000    1.1637873   -6.7797951    247.64778   0.03738644  0.038288944            4 
  553000    1.1712763   -6.8023897    247.64906  0.037319026  0.038281427            5 
  554000    1.1664248    -6.822451    248.55696  0.037388231  0.038273946            2 
  555000    1.1759042   -6.7902666     248.3766  0.037293784  0.038267003            3 
  556000    1.1766931   -6.7804299    249.42014  0.037383114  0.038259953            1 
  557000    1.1607744   -6.7832011    248.76017  0.037217261  0.038252262            3 
  558000    1.1773716   -6.8169978    249.41383  0.037248182  0.038244346            3 
  559000    1.1278998   -6.8452582    249.79103  0.037237781  0.038236268            2 
  560000    1.1373561   -6.8353173    250.21649  0.037234596  0.038227968            2 
  561000    1.1607775   -6.8185258    249.72783  0.037095637  0.038220017            3 
  562000    1.1676767   -6.7999802    250.84361  0.037195078  0.038211746            2 
  563000    1.1688697   -6.8171195    250.77006  0.037118126    0.0382037            5 
  564000    1.1614058   -6.7937172    252.18695  0.037261666  0.038195559            1 
  565000    1.1910879   -6.8102409     253.2196  0.037348024  0.038187585            1 
  566000    1.1575097    -6.813439    251.87813   0.03708453  0.038179791            3 
  567000    1.1749719   -6.8110088    253.26763  0.037223343  0.038172432            2 
  568000    1.1514978   -6.7675165    254.09343  0.037278965  0.038165241            2 
  569000    1.1437132   -6.8216332    253.67784  0.037152584  0.038157864            3 
  570000    1.1606424   -6.7747694    254.52581  0.037211376   0.03814975            1 
  571000    1.1740921   -6.8040508    254.76121  0.037180562  0.038141756            3 
  572000    1.1549112   -6.8339304    255.39321  0.037207635  0.038134207            4 
  573000    1.1453705   -6.7698155    255.90646  0.037217344  0.038127002            2 
  574000    1.1751313   -6.8250878    255.92427  0.037155091  0.038120194            2 
  575000    1.1604131     -6.82198    257.01133  0.037248019  0.038113437            1 
  576000     1.143906   -6.7907153     257.9992  0.037326273  0.038106568            4 
  577000    1.1675405   -6.7827174    258.52387  0.037337358  0.038100374            2 
  578000    1.1314314   -6.8120128    258.56978  0.037279379  0.038094068            1 
  579000    1.1429537   -6.7880284     257.9078  0.037119717  0.038087097            3 
  580000    1.1824095   -6.8174883    258.25318  0.037105341  0.038080333            1 
  581000    1.1724808    -6.807013    259.86056  0.037272025  0.038073475            2 
  582000    1.1218267   -6.8120402    260.14224  0.037248317  0.038066938            2 
  583000    1.1750962    -6.828524    259.62119  0.037109946   0.03806042            2 
  584000    1.1551129   -6.8003205    260.80613  0.037215486  0.038053701            2 
  585000    1.1482661   -6.8488147    261.35857  0.037230565  0.038046667            2 
  586000    1.1641339    -6.811876    261.05924  0.037124465  0.038039693            2 
  587000    1.1647292   -6.7830577    262.85427  0.037316052  0.038033098            2 
  588000     1.146596   -6.8083498     261.5569  0.037068722  0.038025972            2 
  589000     1.125878    -6.807293    262.25093   0.03710398   0.03801874            2 
  590000    1.1520807   -6.8099395    262.16066  0.037028342  0.038011228            2 
  591000    1.1362879   -6.8467088    263.19698  0.037111813  0.038003779            2 
  592000    1.1542921   -6.8262365    262.89931  0.037007222  0.037995769            3 
  593000    1.1486861   -6.7738961    263.98375  0.037097211  0.037988319            2 
  594000    1.1565357   -6.8079921    264.38235  0.037090678  0.037980836            2 
  595000    1.1523151   -6.8122274    264.61211  0.037060519  0.037973472            4 
  596000    1.1498709   -6.7896019    265.52038  0.037125332  0.037966312            6 
  597000    1.1577695   -6.8195629    266.42148  0.037188928  0.037958873            3 
  598000    1.1334501    -6.817195    265.44479  0.036990634  0.037951278            1 
  599000    1.1448427   -6.8123759     266.3461   0.03705427  0.037943446            2 
  600000    1.1788784   -6.8246162    266.84929  0.037062401  0.037936051            1 
  601000    1.1570652    -6.808624    267.34308  0.037069202   0.03792892            2 
  602000    1.1766433   -6.8310673    267.72212  0.037060094  0.037922053            1 
  603000    1.1490565   -6.8000294    269.64351  0.037264167  0.037915326            4 
  604000    1.1623369   -6.7856044    269.15432  0.037134978  0.037908644            1 
  605000     1.158635   -6.7839024    269.84637  0.037168922  0.037902016            1 
  606000     1.167047   -6.8074506    269.36579  0.037041501  0.037894884            1 
  607000    1.1397468   -6.8396003    270.20092  0.037095128  0.037887552            1 
  608000    1.1313441   -6.8445942    270.31258  0.037049422  0.037880394       -1e+20 
  609000    1.1681202   -6.7836413    271.22743   0.03711377  0.037872884            3 
  610000    1.1433523   -6.8118834    271.60495  0.037104502  0.037865888            2 
  611000    1.1616818   -6.7919824    270.73452  0.036925057  0.037858649            2 
  612000    1.1418311   -6.8245713    271.85103  0.037016753   0.03785155            1 
  613000    1.1961824   -6.8203305    272.03843  0.036981842  0.037844318            3 
  614000    1.1600483   -6.8165315    272.96279  0.037047067  0.037837577            3 
  615000    1.1918366   -6.7954227    273.42784  0.037049843  0.037830985            2 
  616000    1.1524171   -6.8142744    273.46525  0.036994758  0.037823725            2 
  617000    1.1938478   -6.8172227    273.82436  0.036983301  0.037816355            1 
  618000     1.164605   -6.7946291    274.32383  0.036990808  0.037808935            2 
  619000    1.1602739    -6.821393    274.30861  0.036928999  0.037801202            2 
  620000    1.1528053   -6.8530515    274.69183  0.036920946  0.037793727            2 
  621000    1.1842016   -6.8047248    275.00839  0.036903971   0.03778566            1 
  622000    1.1320504   -6.8283991    275.01375  0.036845358  0.037777844            5 
  623000    1.1496532   -6.8378115    275.35852  0.036832332  0.037769887            1 
  624000    1.1447857   -6.8497691    275.91386   0.03684747  0.037761969            2 
  625000    1.1476896   -6.8074812    275.79689  0.036772919  0.037754123            2 
  626000    1.1597103   -6.8117912     276.4474  0.036800772  0.037746068            3 
  627000    1.1602964   -6.8191502    277.29082  0.036854176  0.037737887            3 
  628000    1.1216595   -6.7901448    278.19616  0.036915627  0.037729991            2 
  629000    1.1575728   -6.8221512    277.65524  0.036785273   0.03772207            1 
  630000    1.1564119   -6.8278474    278.69969  0.036865038  0.037714641            1 
  631000    1.1356966   -6.7978613    277.79357  0.036686948  0.037706817            2 
  632000    1.1565594   -6.7923955    279.22105  0.036817122  0.037698728            2 
  633000     1.127657   -6.8102479    280.55902    0.0369351  0.037690758            1 
  634000    1.1518111   -6.8304984    279.56661    0.0367464  0.037682479            1 
  635000    1.1549643   -6.8261528     279.7997   0.03671912   0.03767359            2 
  636000    1.1409803   -6.8189948     280.1839  0.036711727  0.037665046            1 
  637000    1.1473033   -6.8139425    280.94814  0.036754074  0.037656491            2 
  638000    1.1530748   -6.7857781    281.51612  0.036770653  0.037648433            1 
  639000    1.1176397   -6.8090485    281.63763  0.036728955  0.037640047            3 
  640000    1.1477985   -6.8068663    281.87729  0.036702772  0.037631707            2 
  641000    1.1300596   -6.7929219    281.86241  0.036643579  0.037623338            3 
  642000     1.128975   -6.7976896    282.39207  0.036655253  0.037614612            8 
  643000    1.1337863   -6.8209603    282.90435  0.036664638  0.037605139            7 
  644000    1.1574166   -6.8154476    283.75492  0.036717769   0.03759604            1 
  645000    1.1265766    -6.852079    282.79456  0.036536765  0.037587554            2 
  646000    1.1706169   -6.8140773    284.32225  0.036677277  0.037578599            3 
  647000    1.1378649   -6.8093657    284.05489  0.036586153  0.037569876            1 
  648000     1.169682   -6.8172315    284.31802  0.036563531   0.03756094            2 
  649000    1.1481046     -6.80711    285.48388  0.036656893  0.037551568            3 
  650000    1.1539926   -6.8719956    285.01545  0.036540442  0.037542231            2 
  651000    1.1631645   -6.8013625    285.65263  0.036565877  0.037532859            3 
  652000    1.1420391   -6.7703213    286.53612  0.036622715  0.037523944            4 
  653000    1.1335861   -6.8243487    286.34389  0.036542099   0.03751497            1 
  654000    1.1460053   -6.8227115    287.74054  0.036664187  0.037506114            2 
  655000    1.1440362   -6.8149699    286.38029  0.036435151  0.037496881            2 
  656000    1.1593642   -6.8137361    287.53177  0.036525886  0.037487723            1 
  657000     1.151788   -6.8212173    287.77891  0.036501637  0.037478595            2 
  658000    1.1346292   -6.8352982    288.84653  0.036581374  0.037469554            3 
  659000    1.1400419   -6.8542347    287.87813  0.036403405  0.037460423            2 
  660000    1.1593579   -6.8009684    289.68026   0.03657579  0.037451628            1 
  661000    1.1146391   -6.8655146    288.49536  0.036371074  0.037442272            3 
  662000    1.1325641   -6.8304457    289.33746  0.036422137  0.037432571            1 
  663000    1.1403038   -6.8459015    289.83505  0.036429745  0.037422945            1 
  664000    1.1425014   -6.8664358    289.48902  0.036331453  0.037413507            1 
  665000    1.1590071   -6.8158649    290.93962  0.036458599  0.037403918            3 
  666000    1.1615075   -6.8425095    291.05453  0.036418235  0.037394505            2 
  667000    1.1361985   -6.7859453    291.86655  0.036465086  0.037385405            2 
  668000    1.1591604   -6.8169429    292.36818  0.036473077  0.037376377            1 
  669000    1.1381511    -6.790437    293.47874  0.036556894  0.037367671            2 
  670000    1.1304965   -6.8331109    293.18791  0.036466158  0.037358854            2 
  671000    1.1464165   -6.8827044    292.23165  0.036293052  0.037349381            4 
  672000    1.1356958   -6.8680057    294.14944  0.036476865  0.037340212            2 
  673000    1.1423068   -6.8460858    293.73556  0.036371417  0.037330812            3 
  674000    1.1604795   -6.8346267    293.82259  0.036328213  0.037321116            1 
  675000    1.1446761   -6.8258506    295.41725  0.036471266  0.037311947            1 
  676000    1.1247792   -6.8237072    295.12301  0.036381041  0.037302816            1 
  677000    1.1171891    -6.834786    294.93888  0.036304638  0.037293278            1 
  678000    1.1500696   -6.8768805    294.95183  0.036252683  0.037283458            3 
  679000    1.1122639   -6.8231386      296.435   0.03638132  0.037273822            2 
  680000    1.1387278   -6.8166852     296.4897  0.036334522  0.037264673            1 
  681000    1.1252271    -6.838395    296.09126  0.036232411   0.03725507            1 
  682000    1.1215777   -6.8337223    297.62312  0.036366462  0.037245783            6 
  683000    1.1272029   -6.7738398    297.39424   0.03628529  0.037236581            2 
  684000    1.1342037   -6.8587137     297.9592  0.036301072  0.037226924            4 
  685000    1.1470666   -6.8186024    297.53177  0.036196079  0.037216855            2 
  686000     1.123488   -6.8664116    296.23049  0.035985239  0.037206293            4 
  687000    1.1468656   -6.8171047    296.90496  0.036014672   0.03719546            1 
  688000    1.1388877   -6.8529765      297.778  0.036068072  0.037184778            2 
  689000    1.1480897   -6.8406562    298.40863  0.036091997  0.037173714            3 
  690000    1.1162856   -6.8279151     297.9477  0.035984022  0.037162795            4 
  691000    1.1281696   -6.8048587    299.56863  0.036127427  0.037152332            2 
  692000    1.1220456   -6.8351117    300.29966  0.036163254  0.037141775            2 
  693000    1.1471707   -6.8063547    300.60926  0.036148299  0.037131334            2 
  694000    1.1300022   -6.8039251    299.24816  0.035932776   0.03712052            1 
  695000    1.1600787   -6.8518561    299.80546  0.035947897    0.0371095            3 
  696000    1.1097292   -6.8034149     301.0875  0.036049749   0.03709849            4 
  697000    1.1323555   -6.8294165    301.43571  0.036039659  0.037087781            3 
  698000    1.1292783   -6.8409561    301.13892  0.035952594  0.037076764            1 
  699000    1.1371487   -6.8518454    302.04144  0.036008755  0.037066057            1 
  700000    1.1528584   -6.8324997    302.70917  0.036036805  0.037055178            3 
  701000     1.134129   -6.8641168    303.12199  0.036034473  0.037044441            5 
  702000    1.1192983   -6.8226389    304.08609  0.036097589  0.037034461            2 
  703000    1.1292658   -6.8464863    304.94903  0.036148534  0.037024842            1 
  704000    1.1289534   -6.8631896    303.87748  0.035970346  0.037015177            3 
  705000    1.1509703   -6.8578504    304.88157  0.036038011  0.037005344            2 
  706000    1.1410058   -6.8086745    305.61167  0.036073144  0.036995745            2 
  707000    1.1472945   -6.8467464    306.17586  0.036088621  0.036985734            2 
  708000    1.1241234   -6.8323577    305.35799  0.035941383  0.036976206            2 
  709000    1.1686188   -6.8710186    306.53234  0.036028719  0.036966367            2 
  710000    1.1293773   -6.8655637    306.83942  0.036014016  0.036956791            4 
  711000    1.1376869   -6.8536633     307.0463  0.035987612  0.036947152            1 
  712000    1.1446036   -6.8513344    307.67159  0.036010252   0.03693782            6 
  713000    1.1464643   -6.8574078    307.99441  0.035997477  0.036928187            2 
  714000    1.1329473   -6.8396964    307.07115  0.035839304  0.036918229            4 
  715000    1.1032721   -6.8405099    309.37681  0.036057903  0.036908936            2 
  716000    1.1457689   -6.8597315    309.42355  0.036012983  0.036899416            3 
  717000    1.1504272   -6.7928324    310.72129  0.036113585  0.036890306            1 
  718000    1.1122028   -6.8520798    310.71329  0.036062359  0.036881753            2 
  719000    1.1225562   -6.8687249    311.79929  0.036138072  0.036872733            1 
  720000    1.1453301   -6.8240884    311.82413  0.036090756   0.03686448            3 
  721000    1.1098522   -6.8866919    312.11752  0.036074609  0.036856106            1 
  722000    1.1436592   -6.8163695    312.62069   0.03608272  0.036847508            1 
  723000    1.1346578   -6.8526462    312.21408  0.035985947  0.036838731            2 
  724000    1.1291816   -6.8797319    312.67876  0.035989728  0.036830108            4 
  725000     1.128012   -6.8537779    314.70081  0.036172507  0.036821539            3 
  726000    1.1337769     -6.85594      313.907  0.036031566  0.036813282            1 
  727000    1.1425515   -6.8618491    314.48541  0.036048304  0.036805168            2 
  728000    1.1750255   -6.8369128    314.73443  0.036027293  0.036797122            2 
  729000    1.1411579   -6.8539676    316.10247  0.036134256   0.03678903            2 
  730000    1.1510016   -6.8234808    315.69692  0.036038462  0.036780812            4 
  731000    1.1377253   -6.8763207    316.23656  0.036050679  0.036772441            1 
  732000    1.1362118   -6.8498876    315.73743  0.035944607  0.036764287            2 
  733000    1.1230921    -6.847507    316.76214  0.036012067  0.036756041            2 
  734000    1.1373481   -6.8506498    317.16237  0.036008444  0.036747531            2 
  735000     1.151225   -6.8473196     317.9238  0.036045782  0.036739912            1 
  736000    1.1423457   -6.8321742    319.24535  0.036146439  0.036732057            3 
  737000    1.1304737   -6.9003227    316.97716  0.035840927  0.036723435            2 
  738000     1.154161   -6.8531522    318.35596  0.035948053  0.036714848            2 
  739000    1.1175527   -6.8502636    318.62148  0.035929351  0.036706425            3 
  740000    1.1467637   -6.8544436    319.29937  0.035957137  0.036698064            2 
  741000    1.1395795   -6.8678698    318.87737  0.035861153  0.036690107            2 
  742000    1.1249726   -6.8778738    319.22304  0.035851645  0.036681965            2 
  743000    1.1480758   -6.8650929     320.5381  0.035950886   0.03667316            2 
  744000    1.1333403   -6.8078698     320.0205   0.03584459  0.036664841            3 
  745000    1.1160873   -6.8628492    320.32124  0.035830116  0.036656041            4 
  746000    1.1153901   -6.8810639    321.39947  0.035902533  0.036647669            2 
  747000    1.1626426   -6.8528075    321.89636  0.035909902  0.036639685            2 
  748000      1.12188   -6.8596732    321.79084  0.035850138  0.036631153            4 
  749000    1.1479036   -6.8637788    322.09763  0.035836408  0.036622702            5 
  750000    1.1461666   -6.8896151    322.23719  0.035804133  0.036614167            2 
  751000    1.1309019   -6.8511644    322.66944  0.035804421  0.036605222            2 
  752000    1.1513598   -6.8281756    324.36448  0.035944645  0.036596378            3 
  753000    1.1206407   -6.8991375    323.92322  0.035848076  0.036587503            3 
  754000    1.1316008   -6.7821494    324.62737  0.035878357  0.036579021            2 
  755000    1.1240313   -6.8953094    324.37552  0.035803038  0.036570875            2 
  756000    1.1300456   -6.8735952    324.69579  0.035790982  0.036562459            2 
  757000    1.1292128   -6.8008692    325.79359  0.035864552  0.036553752            2 
  758000    1.1490882   -6.8444374    325.34982   0.03576845  0.036545419            2 
  759000    1.1183348   -6.8215253    326.39697  0.035836294   0.03653725            1 
  760000    1.1497176   -6.8536409    326.30978  0.035779581  0.036528966            2 
  761000    1.1477468   -6.8673507    326.78772  0.035784901  0.036520352            1 
  762000    1.1320286   -6.8597718    326.99177  0.035760255  0.036511915            3 
  763000    1.1208593   -6.8825529    327.55402  0.035774794  0.036503422            3 
  764000    1.1359446   -6.8685793     328.4448   0.03582513  0.036495599            1 
  765000    1.1356129   -6.8602037    328.83748  0.035821076  0.036487607            1 
  766000    1.1381175   -6.8913739    329.00353  0.035792377  0.036479748            2 
  767000    1.1491835   -6.8699827    329.83383  0.035835922  0.036472382            2 
  768000    1.1291895   -6.8464252    329.98416  0.035805573  0.036464575            2 
  769000    1.1078456   -6.8532022    330.02051  0.035762951   0.03645632            3 
  770000    1.1224867   -6.8467261    330.77777   0.03579846   0.03644855            2 
  771000    1.1359277   -6.8321821    332.24531  0.035910648  0.036440785            2 
  772000    1.1196953   -6.8442175    331.84567  0.035820992   0.03643308            2 
  773000    1.1271275   -6.8544238    332.13981  0.035806361  0.036425326            1 
  774000    1.1557224   -6.8380602    332.42187  0.035790468   0.03641761            4 
  775000    1.1126721   -6.8730671    332.30145  0.035731339  0.036409701            1 
  776000    1.1311912   -6.8306147    334.15093  0.035883906  0.036401999            1 
  777000    1.1183638   -6.8749781    332.62349  0.035673905  0.036394102            1 
  778000    1.1477827   -6.8571031    334.37159  0.035815295   0.03638654            2 
  779000    1.1149324   -6.8322517    334.46091  0.035778873  0.036378929            2 
  780000    1.1315631   -6.8779452    333.30968  0.035610009   0.03637076            2 
  781000    1.1543425   -6.8758945     334.9023  0.035734347  0.036362941            1 
  782000    1.1229011    -6.891226    334.63313  0.035659967  0.036355062            2 
  783000    1.1471804   -6.8663644    335.60555  0.035717918  0.036346893            2 
  784000    1.1124404   -6.8045794    336.68143  0.035786716  0.036339337            1 
  785000    1.1270859   -6.8988483    336.28453  0.035698995  0.036331452            4 
  786000    1.1369409   -6.8688507    336.65748  0.035693117  0.036323417            2 
  787000    1.1442614   -6.9040622     336.7252  0.035654935  0.036315611            1 
  788000    1.1411418    -6.899476    335.78131  0.035509868  0.036307287            2 
  789000    1.1376859   -6.8564097    337.72029  0.035669655  0.036299421            2 
  790000     1.154414   -6.9293607    337.13659  0.035562932  0.036291604            1 
  791000     1.143004   -6.8456519    338.47121  0.035658577  0.036283435            2 
  792000    1.1131499    -6.904213    337.11344   0.03547069  0.036275166            2 
  793000    1.1319233   -6.8692925    339.43021  0.035669421  0.036266977            3 
  794000    1.1213627   -6.8449684    340.27764  0.035713438  0.036258884            1 
  795000    1.1155345   -6.8619703    339.98748  0.035638101   0.03625082            2 
  796000    1.1495764   -6.8731863    339.51348  0.035543706  0.036242876            2 
  797000    1.1176416   -6.8722725    339.36196  0.035483266  0.036234204            3 
  798000     1.137738   -6.8211918    340.30164   0.03553693  0.036225233            1 
  799000    1.1037143   -6.8483379    340.74055   0.03553823  0.036216661            2 
  800000    1.1385832    -6.835491    340.44112  0.035462616  0.036208047            1 
  801000    1.1488764   -6.8553353    341.18939  0.035496191  0.036199626            2 
  802000    1.1347488   -6.8708171    341.33975  0.035467555  0.036191211            4 
  803000    1.1106776    -6.855296    342.32626  0.035525764  0.036182972            3 
  804000    1.1192638   -6.8679714    342.24401  0.035473052   0.03617463            1 
  805000    1.1204387    -6.877589    342.09567  0.035413631  0.036165747            7 
  806000    1.1221883   -6.8665448    342.84842   0.03544752  0.036157195            2 
  807000    1.1108588   -6.8882584    342.92187   0.03541118  0.036148363            1 
  808000    1.1368977    -6.932854    343.56504  0.035433688  0.036139432            1 
  809000    1.1371911   -6.8842937    345.03793  0.035541608  0.036130906            2 
  810000    1.1371648   -6.8815637    345.20778  0.035515204  0.036122745            3 
  811000    1.1561184   -6.8499395     344.9137  0.035441194  0.036114785            2 
  812000    1.1213815   -6.8771954    345.80017  0.035488523  0.036106538            1 
  813000    1.1051052   -6.8784137    345.75585  0.035440329  0.036098497            5 
  814000    1.1226028   -6.8688024    346.19859  0.035442116  0.036090205            1 
  815000    1.1270198   -6.8662614    346.99099  0.035479651  0.036081779            1 
  816000      1.10657     -6.91816    345.24894  0.035258266  0.036073285            1 
  817000    1.1435397   -6.8947511    346.75933  0.035369169    0.0360649            7 
  818000    1.1219338   -6.8775531     348.2859  0.035481449  0.036056526            2 
  819000     1.118722   -6.8783572    348.15703  0.035425013  0.036048451            2 
  820000    1.1379608   -6.8583286    347.88286   0.03535395  0.036040597            2 
  821000    1.1125436   -6.8931336    349.00619  0.035424907   0.03603261            1 
  822000    1.0991912   -6.8676377    350.16154   0.03549894  0.036025053            2 
  823000    1.1120653   -6.8879033     350.1586  0.035455509  0.036017697            3 
  824000    1.1287794   -6.8750616    349.91667  0.035388013  0.036009851            1 
  825000    1.1227414   -6.9118099    351.01792  0.035456355  0.036001793            2 
  826000    1.1174805   -6.9092628    350.14372  0.035325234  0.035993956            1 
  827000    1.1466915    -6.889547    349.72687  0.035240515   0.03598563            1 
  828000    1.1175234   -6.8695746    350.91024  0.035317053  0.035977415            1 
  829000    1.1112789   -6.9157134    351.70866   0.03535471  0.035968957            3 
  830000    1.1377807   -6.9037513    351.43134  0.035284271  0.035960505            3 
  831000    1.1090095   -6.8698229    351.66402  0.035265145  0.035952178            2 
  832000    1.1241009   -6.8790366    352.14311  0.035270744  0.035943575            1 
  833000    1.1173784   -6.8612723    352.80776  0.035294894   0.03593493            3 
  834000    1.0938248   -6.8741868    352.66253  0.035238062  0.035926358            1 
  835000    1.1124919   -6.8728276    353.18519  0.035248023  0.035917634            2 
  836000    1.1310743   -6.8939711    353.61164  0.035248369   0.03590931            2 
  837000     1.132847   -6.8731259    354.69799  0.035314416  0.035901126            2 
  838000    1.1029873   -6.9223308      354.309  0.035233592  0.035893183            2 
  839000    1.0933049   -6.8623844    354.73373  0.035233783  0.035884829            3 
  840000      1.13031   -6.9161733    354.52579  0.035171209  0.035876679            3 
  841000    1.0862493    -6.931074    355.57378  0.035233232  0.035868075            2 
  842000    1.1120745   -6.8884926    355.89605  0.035223283  0.035859866            2 
  843000    1.1180143    -6.864244    356.37947  0.035229287  0.035851596            1 
  844000    1.1193098   -6.8600602    356.58122  0.035207467   0.03584366            4 
  845000    1.1157255    -6.872609    357.31613  0.035238277  0.035835787            1 
  846000    1.1127483   -6.8724469    357.61285  0.035225852  0.035827571            2 
  847000    1.1164178   -6.8949461    357.30243  0.035153722  0.035819328            2 
  848000    1.1293422   -6.9093644    358.23987   0.03520439  0.035811303            2 
  849000    1.1090246   -6.9136569    358.39572  0.035178221  0.035803374            2 
  850000    1.1358661   -6.9381929    358.16828  0.035114537  0.035795427            2 
  851000    1.1289134   -6.9119838    359.36034  0.035190006  0.035787659            1 
  852000    1.1066274   -6.8784606    360.24788  0.035235513  0.035779997            2 
  853000    1.1256289   -6.8787776    359.82525  0.035152916  0.035772309            3 
  854000    1.0993555   -6.9127102    360.62711  0.035189999  0.035764515            3 
  855000    1.1269276   -6.8520809    360.98807  0.035184022  0.035756901            2 
  856000    1.1448608   -6.8524687     362.9807  0.035336907  0.035749185            2 
  857000    1.1109254   -6.9052789    361.04125  0.035107084  0.035741243            1 
  858000     1.170382    -6.894479    361.82792  0.035142572  0.035733202            2 
  859000    1.1223397   -6.8895405    362.45504  0.035162499  0.035725176            2 
  860000    1.1173191   -6.8639556    362.86599  0.035161433  0.035717152            1 
  861000    1.1071771   -6.8774738    363.84887  0.035215725  0.035709269            2 
  862000    1.1028473   -6.8719207    363.81665  0.035171757  0.035701381            2 
  863000    1.1239301   -6.9044756    363.27558  0.035078755  0.035693566            2 
  864000    1.1236282    -6.867496    364.09633  0.035117316   0.03568563            2 
  865000    1.1048171   -6.9172073    363.89841  0.035057651  0.035677327            3 
  866000    1.1164828   -6.8920358    364.29881  0.035055697  0.035669383            4 
  867000    1.1085321   -6.9174626    364.22641  0.035008305  0.035660883            2 
  868000    1.0990582   -6.9087715    365.23474  0.035064779  0.035652489            1 
  869000    1.1123831   -6.8735385    365.64242  0.035063523  0.035644401            3 
  870000    1.1126017   -6.8754263    365.95813  0.035053461  0.035636245            2 
  871000    1.0833967    -6.934967    365.92121  0.035009683  0.035628257            2 
  872000    1.1159079    -6.876583    367.43986  0.035114665    0.0356202            2 
  873000    1.1265936   -6.9136645    366.43243  0.034978277  0.035611912            3 
  874000    1.0814322    -6.916149    366.54081   0.03494859   0.03560365            2 
  875000    1.0974207    -6.877313    367.56395   0.03500609  0.035595548            2 
  876000    1.0749077   -6.8537545    368.70631  0.035074801  0.035587194            2 
  877000    1.1148637   -6.8910134    369.20941  0.035082612  0.035579562            2 
  878000    1.1300403   -6.9132367    369.55907  0.035075841  0.035571616            2 
  879000    1.0981528    -6.855808    370.76408  0.035150178  0.035563971            2 
  880000    1.1176648   -6.8903202    369.77023   0.03501612  0.035556169            5 
  881000    1.1041885   -6.9199988    370.62922  0.035057626  0.035548455            1 
  882000    1.0922241   -6.9069361    371.18763  0.035070637  0.035540907            3 
  883000     1.113796   -6.8926769    370.14421  0.034932448  0.035533167            1 
  884000     1.125523   -6.8715891    371.12145  0.034985054  0.035525462            3 
  885000    1.0894729   -6.8936771    371.33565  0.034965692  0.035517609            3 
  886000    1.0996814   -6.9099449    372.23674   0.03501098   0.03550969            2 
  887000    1.1124691   -6.8738442    370.19078  0.034779291   0.03550182            1 
  888000    1.0916997    -6.910579    372.14111  0.034923152  0.035493585            2 
  889000    1.1210413   -6.9053667    372.14798  0.034884513  0.035485604            2 
  890000    1.1271139   -6.9079663    372.08388  0.034839315  0.035477149            1 
  891000     1.116257   -6.9254514    371.91385  0.034784311  0.035469011            2 
  892000    1.1176948   -6.9292106    372.70879  0.034819581  0.035460623            2 
  893000    1.1104989   -6.8836743    373.65139  0.034868551  0.035452223            3 
  894000    1.0958458   -6.8776146    374.50416  0.034909038  0.035444072            2 
  895000    1.1316058   -6.9599367    373.88279  0.034812178  0.035435681            2 
  896000     1.120557   -6.9367239    374.21251  0.034803991   0.03542738            1 
  897000    1.1330333   -6.9097614    374.16721  0.034760982  0.035418808            2 
  898000    1.0940901   -6.9052599    374.26509  0.034731355  0.035410251            2 
  899000    1.1373501    -6.886732    374.44305  0.034709219   0.03540156            2 
  900000     1.108159   -6.9038718      373.033  0.034540093  0.035392256            2 
  901000    1.1048302   -6.8988291    374.16657  0.034606601  0.035382851            2 
  902000     1.088154    -6.913321    374.32939  0.034583277  0.035373511            1 
  903000    1.1287757    -6.931817    373.68996  0.034485969  0.035363788            2 
  904000    1.1379405   -6.9155795    375.36319  0.034602064  0.035354057            1 
  905000    1.1025645   -6.9124526    374.29801  0.034465747  0.035344182            2 
  906000    1.1041253   -6.9221234     373.6878  0.034371578  0.035334149            1 
  907000    1.1191471   -6.8937295    375.99746  0.034545889  0.035324352            2 
  908000    1.1142094   -6.8925149    375.29635  0.034443497  0.035314191            3 
  909000    1.1061762   -6.9238613    376.02113  0.034472051  0.035304461            3 
  910000    1.0987935    -6.942495    376.90112  0.034514754  0.035294649            3 
  911000    1.1140298   -6.9179829    376.20575   0.03441326  0.035284491            2 
  912000    1.0921739   -6.9360614    375.27497  0.034290476   0.03527419            2 
  913000    1.1049424   -6.8810523    376.70506  0.034383449  0.035264003            1 
  914000    1.0884925   -6.9131604    377.86224  0.034451335  0.035254126            2 
  915000    1.1020568   -6.9367106    377.48276  0.034379122  0.035244096            2 
  916000    1.0948948   -6.9250694    377.79616  0.034370102  0.035233903            2 
  917000    1.1047195   -6.9001257    378.28384   0.03437694   0.03522378            2 
  918000    1.0975905   -6.9440226    379.75114  0.034472689   0.03521407            2 
  919000    1.1133391   -6.9232279    380.12422  0.034469008  0.035204373            2 
  920000    1.1041244   -6.9282227    380.23063  0.034441181   0.03519482            3 
  921000    1.0978982   -6.9095356     381.4027  0.034509835  0.035185354            3 
  922000    1.1152254   -6.8755709    380.69226  0.034408194  0.035176053            2 
  923000    1.0935373    -6.887447    380.57844  0.034360639  0.035166322            4 
  924000    1.1181563   -6.9496811    381.30937  0.034389373  0.035156397            1 
  925000    1.0999655   -6.9318981    382.78967  0.034485556  0.035146812            3 
  926000    1.1044757   -6.9340008    382.39652  0.034412934  0.035137255            2 
  927000    1.1202901    -6.873874    383.15913  0.034444366  0.035127901            2 
  928000    1.0902209   -6.9452825    383.35888  0.034425187  0.035118851            2 
  929000    1.1271604   -6.9152624    383.97785  0.034443653  0.035109641            2 
  930000    1.0913652   -6.9290247    385.04818  0.034502525   0.03510077            2 
  931000    1.1093033   -6.9094668    383.98188  0.034370021  0.035091563            2 
  932000    1.0900845   -6.9349517    384.16283  0.034349323  0.035082372            3 
  933000    1.0880785     -6.93829    385.66117  0.034446335  0.035073199            1 
  934000    1.0854457   -6.9211731    384.54941  0.034310261  0.035064188            2 
  935000    1.0909334   -6.8927575    386.44553   0.03444256  0.035055127            2 
  936000    1.0935206   -6.9187186    385.77775   0.03434631   0.03504606            1 
  937000    1.0734343    -6.910678    386.74227  0.034395435   0.03503678            1 
  938000    1.1169149   -6.9115448    386.68878  0.034354014  0.035027531            4 
  939000    1.1323266   -6.9490371    385.60211   0.03422099  0.035018426            2 
  940000    1.1307756   -6.9580344    387.27038  0.034332481  0.035009187            2 
  941000    1.1000599   -6.9268616    387.49874  0.034316219  0.034999841            3 
  942000    1.0941954   -6.9088392    387.01302  0.034236821  0.034990452            2 
  943000     1.122448   -6.9332065    387.05124  0.034203892  0.034981206            1 
  944000    1.0979962   -6.9311845    388.14159  0.034263911  0.034972001            2 
  945000    1.1018199   -6.9467283     388.6838  0.034275467  0.034962955            3 
  946000     1.098791   -6.9188635    389.40595   0.03430285  0.034953693            5 
  947000    1.1322819   -6.9316118    388.04945  0.034147259  0.034944326            1 
  948000    1.0979501   -6.9818636    389.06884  0.034200847  0.034934956            1 
  949000    1.0715497   -6.9008893    390.55798  0.034295572    0.0349256            2 
  950000    1.0948368   -6.9647642    391.10101  0.034307106  0.034916467            2 
  951000    1.0896186   -6.9119273    391.15464   0.03427573  0.034907281            2 
  952000    1.1106678    -6.936904    390.85266  0.034213293  0.034898264            2 
  953000    1.0963741   -6.9562858    390.72956  0.034166628  0.034888823            6 
  954000    1.0854929   -6.9044199    391.19182  0.034171193   0.03487959            2 
  955000    1.0893686   -6.9442681    391.23553  0.034139226  0.034870428            2 
  956000    1.0761403   -6.9038561    392.45185  0.034209541  0.034861158            2 
  957000    1.0963385   -6.9754315    391.13459   0.03405909  0.034851647            1 
  958000    1.0976402   -6.8924613    393.49407  0.034228781  0.034842253            1 
  959000    1.0949143   -6.9426162    393.08591  0.034157622  0.034832798            2 
  960000    1.0970681   -6.9024901    394.14463  0.034213943  0.034823214            1 
  961000     1.105268   -6.9289675    393.11731  0.034089257  0.034813568            1 
  962000    1.0907163    -6.926219    392.96467  0.034040599  0.034803973            1 
  963000     1.101662   -6.9217922    394.44959  0.034133748  0.034794396            4 
  964000    1.1105844   -6.9448839    394.49903  0.034102613   0.03478448            2 
  965000    1.0876388   -6.9335049    394.26996  0.034047493  0.034774807            2 
  966000    1.1050785   -6.9195017     396.0166  0.034162923   0.03476531            2 
  967000    1.0953065   -6.9655821     394.8667  0.034028499  0.034755772            3 
  968000    1.1121797   -6.9571567    394.90464  0.033996611   0.03474619            2 
  969000    1.1102634   -6.9686297    394.47705  0.033924755  0.034736574            6 
  970000    1.0881015   -6.8906309     396.4705   0.03406104  0.034726955            2 
  971000    1.0923558   -6.9538481    395.44303  0.033937782  0.034717426            3 
  972000    1.0936646   -6.9298237    395.43353  0.033902052  0.034707995            3 
  973000     1.093372   -6.9633671    396.15042  0.033928608  0.034698301            4 
  974000    1.0740977   -6.9221526    396.82538  0.033951521  0.034688463            1 
  975000    1.0861199   -6.8892943    395.45732  0.033799771  0.034678727            1 
  976000     1.112975   -6.9289217    396.66283  0.033868069   0.03466912            2 
  977000    1.1052762   -6.9510058      396.915  0.033854913  0.034659187            2 
  978000    1.0711995   -6.8730589    397.99662  0.033912459  0.034649344            2 
  979000    1.0896532   -6.9156306    398.12805  0.033889007  0.034639492            2 
  980000    1.0832963   -6.9301555    398.26816   0.03386634  0.034629277            1 
  981000    1.0758391    -6.918796    397.15522  0.033737277  0.034619312            3 
  982000    1.0901644   -6.9283705     398.9065  0.033851536  0.034609341            1 
  983000    1.1100546     -6.94609    399.14131  0.033837005  0.034599573            2 
  984000    1.1150274   -6.9515814     399.1593  0.033804141  0.034589692            2 
  985000    1.0905536    -6.965843     398.8737   0.03374566  0.034579809            1 
  986000    1.0833562    -6.927859    399.35909  0.033752458   0.03457011            2 
  987000    1.0950254   -6.9399954    398.94025  0.033682899  0.034560494            2 
  988000    1.0725739   -6.9381538    401.31378  0.033849003  0.034550869            4 
  989000    1.0717421   -6.9085423    401.18174  0.033803652  0.034541389            2 
  990000    1.0969116   -6.8933227    404.44274  0.034044001  0.034532011            2 
  991000    1.0868334    -6.971217    401.77137  0.033785013  0.034522548            1 
  992000    1.0837956     -6.95868    402.43693  0.033806865  0.034512716            2 
  993000    1.1119189   -6.9630234    402.17476  0.033750819  0.034503098            2 
  994000    1.0643306   -6.9226572    404.07095  0.033875834  0.034493503            2 
  995000    1.0927939   -6.9681588    403.04284  0.033755682  0.034483893            2 
  996000    1.0823141   -6.9014416    405.13173  0.033896564  0.034474364            2 
  997000    1.0873673   -6.9201287     404.8498  0.033839001  0.034464932            3 
  998000    1.1113386    -6.951253    403.91922   0.03372739  0.034455679            2 
  999000    1.1000269   -6.9728348    405.63778  0.033836985  0.034446603            2 
 1000000    1.0998569   -6.9821942    406.07867  0.033839889  0.034437524            2 
 1001000    1.1015516   -6.9469741    405.68249  0.033773101  0.034428282            1 
 1002000    1.1088577   -6.9021182    406.15123  0.033778379  0.034419104            2 
 1003000    1.1038783   -6.9262396    407.38948  0.033847581  0.034410073            7 
 1004000    1.1198398   -6.9725437    406.37541  0.033729699  0.034400845            2 
 1005000    1.0933771   -6.9414067    405.78962  0.033647564  0.034391488            2 
 1006000    1.0822717   -6.9610279    408.25937  0.033818702  0.034382237            1 
 1007000    1.0983364   -6.9204064    409.09891  0.033854594  0.034373123            2 
 1008000    1.0703437   -6.9513527    407.29244  0.033671663  0.034364016            2 
 1009000    1.0843384   -6.9484223    408.52766  0.033740309  0.034354388            2 
 1010000    1.0833835   -6.9987073    406.96501  0.033577971  0.034345023            2 
 1011000    1.0639601   -6.9555806    408.13421  0.033641132  0.034335505            2 
 1012000    1.0792374    -6.972575    408.81654  0.033664076  0.034326126            1 
 1013000     1.112493    -6.955126     409.4974  0.033686854   0.03431652            3 
 1014000    1.0943432    -6.985943    409.01385  0.033613893  0.034307176            2 
 1015000    1.0906715   -6.8990372    410.19202  0.033677506   0.03429765            1 
 1016000    1.0737903   -6.9464235    410.19564  0.033644655  0.034287945            3 
 1017000    1.0874738   -6.9680409    409.37397  0.033544245  0.034278477            3 
 1018000    1.1089649   -6.9624302    409.59533  0.033529415   0.03426917            2 
 1019000    1.0895563   -6.8991573    410.17534  0.033543943  0.034259771            3 
 1020000    1.0783517   -6.9588069    410.79842  0.033561963  0.034250245            3 
 1021000    1.0987757   -6.8905189    411.36672  0.033575475  0.034240713            3 
 1022000    1.0666332     -6.88243    412.36803  0.033624269  0.034231309            3 
 1023000    1.0848766   -6.9167771      411.582  0.033527371  0.034221594            2 
 1024000    1.0876111   -6.9728969    411.50804   0.03348861     0.034212            3 
 1025000    1.0684941   -6.9824503    412.54689  0.033540398  0.034202493            1 
 1026000    1.0762823   -6.9373251    413.63155  0.033595805  0.034193044            1 
 1027000    1.0830802   -6.9140994    414.26943  0.033614851  0.034183573            1 
 1028000    1.1197001   -6.9369298    413.32313  0.033505441  0.034174379            1 
 1029000    1.0973603   -6.9430062    413.58989  0.033494484     0.034165            2 
 1030000    1.1006449   -6.9695361    413.72233   0.03347268  0.034155507            3 
 1031000     1.083439    -6.930181    414.13506  0.033473574  0.034146224            3 
 1032000    1.0946484    -6.983539    412.17676  0.033283007  0.034136868            3 
 1033000    1.0607244   -6.9606812     413.8178  0.033383172  0.034127175            1 
 1034000    1.0989754   -6.9503393    414.24901  0.033385639  0.034117545            1 
 1035000    1.0635661   -6.9414224    414.16328   0.03334648  0.034107936            2 
 1036000    1.0890323   -6.9760326    414.54105  0.033344679   0.03409828            2 
 1037000    1.1034924   -6.9368287    416.70993  0.033486816  0.034088891            2 
 1038000    1.1011016   -6.9294228    416.03395  0.033400285   0.03407932            2 
 1039000    1.0814373   -6.9849688    415.31906  0.033310801  0.034069498            1 
 1040000    1.0851063   -6.9758267    417.06572  0.033418728  0.034059674            7 
 1041000     1.109001   -6.9329975    416.47837  0.033339607  0.034049892            1 
 1042000    1.0973433   -6.9541299    417.52373  0.033391213  0.034040446            2 
 1043000    1.0838895   -6.9497275    418.30314  0.033421472   0.03403086            1 
 1044000    1.0836555   -6.9621996    417.77526  0.033347322  0.034021225            2 
 1045000    1.0840364   -6.9338536    419.47057  0.033450604  0.034011586            2 
 1046000    1.0982248   -6.9792401    417.96862  0.033298966  0.034001748            1 
 1047000    1.0754801    -6.963352    419.29196   0.03337249  0.033992159            1 
 1048000    1.0840799   -6.9519623    419.54876  0.033361066  0.033982734            3 
 1049000    1.0696004   -6.9403753    419.85521  0.033353608  0.033973405            2 
 1050000    1.0659846   -6.9658194    418.65109  0.033226277  0.033963938            4 
 1051000    1.0680947   -6.9832626    419.83865  0.033288824  0.033954502            2 
 1052000    1.0691076   -6.9282733    420.24089  0.033289044  0.033944909            3 
 1053000    1.0766546   -6.9343511     421.4094  0.033349905  0.033935308            1 
 1054000    1.0914598   -6.9473467    421.16451  0.033298902  0.033925623            1 
 1055000    1.1066306   -6.9800783    420.85664  0.033243021  0.033916144            3 
 1056000    1.0896035   -6.9280713    423.17921  0.033394824  0.033906735            1 
 1057000    1.0811384   -6.9743764     422.1908  0.033285304  0.033897224            2 
 1058000    1.0883827   -6.9871886    422.20084  0.033254634   0.03388762            3 
 1059000    1.0847267   -6.9379451    422.17904  0.033221517  0.033877941            1 
 1060000    1.0809596   -6.9372358    422.30148  0.033199802  0.033868492            2 
 1061000    1.1035323   -6.9784588    423.00123  0.033223471  0.033858698            2 
 1062000    1.0842111   -6.9563062    423.24798  0.033211549  0.033848965            4 
 1063000    1.0859721   -6.9541835    423.24205  0.033179841  0.033839414            1 
 1064000    1.1096355    -6.965371    423.77989  0.033190781  0.033829612            1 
 1065000    1.0731853   -6.9738864    423.44063   0.03313307  0.033820028            1 
 1066000    1.0991772   -6.9388371    424.34967  0.033173051  0.033810426            2 
 1067000    1.0574577   -6.9660962    423.78467  0.033097835  0.033801004            1 
 1068000    1.0935311   -6.9744951       424.11  0.033092228  0.033791332            2 
 1069000    1.0287814   -6.9986985    424.14221  0.033063783  0.033781566            4 
 1070000    1.0819075   -6.9377331    425.19705  0.033115035  0.033771837            3 
 1071000    1.0690654   -7.0028601     424.5554  0.033034189  0.033762078            5 
 1072000    1.0777066   -6.9706544    426.02265  0.033117433  0.033752446            1 
 1073000    1.0851077   -6.9854324    426.87788  0.033152988  0.033742624            3 
 1074000    1.0696472   -6.9984423    424.74054  0.032956281  0.033732734            2 
 1075000    1.0607908   -6.9783014    426.28352  0.033045234  0.033722878            3 
 1076000    1.0979206   -6.9531465    426.16239  0.033005142  0.033712981            3 
 1077000    1.0825763   -6.9437814     425.9392  0.032957227  0.033703148            1 
 1078000    1.0701252   -6.9979299    426.58159  0.032976314  0.033693105            2 
 1079000    1.0746277    -6.984167    426.75675  0.032959279  0.033683239            5 
 1080000    1.0757455   -6.9525298    428.60878  0.033071665  0.033673834            2 
 1081000    1.0702648   -6.9933985     428.2914  0.033016605  0.033664251            4 
 1082000    1.1107411   -6.9941648    429.32463  0.033065668  0.033654952            4 
 1083000    1.0904391   -6.9397816    430.39513  0.033117508  0.033645502            2 
 1084000    1.0642867   -6.9431134    430.55726   0.03309942  0.033636492            3 
 1085000    1.0914866   -6.9623825     431.1006  0.033110645  0.033627561            2 
 1086000    1.0866129   -6.9457341     432.4608   0.03318453  0.033618376            2 
 1087000    1.0791908   -6.9762817    430.52481  0.033005582   0.03360911            3 
 1088000    1.0824018   -6.9413541    431.66879  0.033062867   0.03359996            2 
 1089000    1.0756828   -6.9535537    431.31192  0.033005197   0.03359086            1 
 1090000    1.0799395   -6.9635471    431.11165  0.032959606  0.033581632            1 
 1091000    1.0943798   -6.9582277    432.41051  0.033028606  0.033572584            4 
 1092000    1.0861058    -7.012866    432.29997  0.032989924  0.033563468            7 
 1093000    1.0606099   -6.9524015    433.68626  0.033065436  0.033554366            1 
 1094000    1.0942936   -6.9980771    433.92645  0.033053508  0.033545593            3 
 1095000    1.0864959   -7.0244278    434.37113  0.033057163  0.033536483            2 
 1096000    1.0721993   -6.9419289    435.86003  0.033140209  0.033527835            1 
 1097000    1.0576171   -6.9618878    433.92231  0.032962801  0.033518995            1 
 1098000    1.0952691    -6.955624     435.8079  0.033075888  0.033510115            4 
 1099000     1.088565    -6.963551    436.14906   0.03307166  0.033501318            1 
 1100000    1.0709966   -7.0226897    434.65599  0.032928484  0.033492576            3 
 1101000    1.0795955   -6.9803714    435.53273  0.032964936   0.03348387            2 
 1102000    1.0781236   -6.9572499    435.62642  0.032942107  0.033475071            2 
 1103000    1.0752654   -6.9416676    436.20857  0.032956223  0.033466111            2 
 1104000    1.0772979   -6.9506293    437.17854  0.032999588  0.033457359            2 
 1105000    1.0639176   -6.9762787     438.1764  0.033044978   0.03344857            2 
 1106000    1.0757957   -6.9565823     439.3542  0.033103842  0.033440137            2 
 1107000    1.0597361   -6.9976862    437.42658   0.03292883  0.033431575            3 
 1108000    1.0503828   -6.9459938    439.41783  0.033048874  0.033422918            2 
 1109000    1.0850565   -6.9379843     438.8949  0.032979779   0.03341438            1 
 1110000    1.0563829   -6.9887725    439.29653   0.03298022  0.033405616            5 
 1111000    1.0793004   -6.9967165     437.8588  0.032842694  0.033396735            2 
 1112000    1.0724998   -6.9516598    441.26513   0.03306843  0.033388184            1 
 1113000    1.0495268   -6.9895425    439.60576  0.032914478  0.033379746            1 
 1114000    1.0831241   -7.0227582    440.55114  0.032955651  0.033371127            1 
 1115000    1.0925498   -6.9648829     442.1906  0.033048625  0.033362616            2 
 1116000    1.0519863    -6.987414    441.96851  0.033002428  0.033354258            2 
 1117000    1.0617603   -6.9824143    441.01179  0.032901507  0.033345673            4 
 1118000    1.0857117   -7.0109617    443.32319  0.033044364  0.033337342            3 
 1119000    1.0605471   -6.9809957    443.51058  0.033028789  0.033329197            1 
 1120000    1.0749774   -7.0202305    443.04585  0.032964721  0.033320967            1 
 1121000    1.0647708   -6.9969797    442.07131  0.032862869   0.03331296            1 
 1122000    1.0715834    -7.029778    442.51202  0.032866311  0.033304753            5 
 1123000    1.0540089   -6.9334175    446.53933  0.033135896  0.033296738            1 
 1124000    1.0551066    -7.006516    444.76719  0.032975029  0.033288915            1 
 1125000    1.0658471   -6.9856583    444.21089  0.032904511  0.033281063            2 
 1126000    1.0727021   -6.9787251    445.82112  0.032994458  0.033273323            1 
 1127000    1.0682846   -7.0065964    445.16172  0.032916424  0.033265547            2 
 1128000    1.0927677   -6.9897733    446.67417  0.032998979  0.033257868            1 
 1129000    1.0720511   -7.0055987    446.31208  0.032943023  0.033250171            5 
 1130000    1.0759399   -7.0004398    446.85111  0.032953621  0.033242441            2 
 1131000    1.0723646   -6.9659708    447.39792  0.032964775  0.033234664            1 
 1132000    1.0769484   -6.9580707    446.98729  0.032905425   0.03322682            1 
 1133000    1.0795287   -6.9945077    448.01959  0.032952309  0.033219004            5 
 1134000    1.0739845   -6.9877642    448.60209  0.032966056  0.033211061            2 
 1135000    1.0582546   -6.9613158    450.08267  0.033045717  0.033203256            1 
 1136000    1.0588777   -7.0007713    447.20762  0.032805723   0.03319547            3 
 1137000    1.0467949   -6.9701563    449.59436    0.0329518  0.033187542            2 
 1138000    1.0676487   -6.9713727    448.13535  0.032816004  0.033179881            2 
 1139000    1.0566606   -6.9681611    448.95311  0.032847023  0.033172005            1 
 1140000    1.0592258   -6.9885239    449.07975  0.032827467  0.033163872            2 
 1141000    1.0649509   -6.9676123    447.78999  0.032704498  0.033155511            4 
 1142000    1.0591745   -7.0045315    449.03408  0.032766643  0.033147339            1 
 1143000     1.082637   -6.9995647    449.18217  0.032748773  0.033139135            1 
 1144000    1.0808242   -7.0046418    449.54771  0.032746774  0.033130928            2 
 1145000    1.0685041    -6.949838    450.44001  0.032783115  0.033122756            2 
 1146000     1.058593   -6.9736689    451.35093  0.032820748  0.033114748            3 
 1147000    1.0671746   -7.0136524    450.14853  0.032704775  0.033106503            2 
 1148000    1.0882734   -6.9912069    451.13807  0.032748118  0.033098449            1 
 1149000    1.0667212   -7.0140289    452.44642  0.032814507   0.03309041            1 
 1150000    1.0654234   -7.0008677    451.49522  0.032717045  0.033082425            1 
 1151000    1.0757205   -7.0019213    452.49426  0.032760951   0.03307434            3 
 1152000    1.0569154   -7.0089663    451.64504  0.032671082  0.033066273            3 
 1153000    1.0912943   -6.9834507    452.87916  0.032731943  0.033058252            2 
 1154000    1.0733797   -7.0082924     452.7883  0.032697017  0.033050265            3 
 1155000    1.0483815    -7.007522    453.56673  0.032724873   0.03304218            4 
 1156000    1.0559732   -6.9719335    453.03949  0.032658556  0.033033921            3 
 1157000    1.0664642   -6.9946261     454.0838  0.032705546  0.033025702            3 
 1158000    1.0616133   -7.0099915    454.20351  0.032685917  0.033017747            3 
 1159000    1.0448522   -7.0267498    454.23483  0.032659968  0.033009618            2 
 1160000    1.0640029    -7.009233    454.91001  0.032680317  0.033001498            1 
 1161000    1.0685618   -7.0326564     453.5306  0.032553158  0.032993439            2 
 1162000    1.0488618   -7.0024005    454.72894  0.032611083  0.032985218            2 
 1163000    1.0777355    -7.022034    455.47852  0.032636752   0.03297723            3 
 1164000    1.0487103   -6.9830588    455.90517  0.032639259  0.032969137            2 
 1165000    1.0239089   -6.9876837    456.25229  0.032636072  0.032961171            5 
 1166000    1.0569657   -6.9962303    456.50751  0.032626323  0.032952822            1 
 1167000    1.0541556   -6.9930482     455.7754  0.032546087  0.032944645            1 
 1168000    1.0271723   -6.9774568    456.16775  0.032546215  0.032936429            3 
 1169000     1.103616   -7.0478311    457.48792  0.032612484  0.032928402            2 
 1170000    1.0800358   -6.9530786    458.63254  0.032666136  0.032920505            2 
 1171000    1.0601252   -7.0142628    457.55152  0.032561309  0.032912599            3 
 1172000    1.0851835   -6.9863488    458.11335  0.032573475  0.032904669            3 
 1173000     1.082909   -6.9794185    458.04492  0.032540844  0.032896587            3 
 1174000     1.059707   -7.0113886     458.2281  0.032526128  0.032888417            3 
 1175000    1.0669848    -6.999931    458.88299  0.032544893  0.032880398            4 
 1176000    1.0603715   -6.9935084    459.08504  0.032531536  0.032872389            2 
 1177000    1.0661219   -6.9669391    459.93571  0.032564126  0.032864352            2 
 1178000    1.0917595   -7.0202661    459.79484  0.032526516  0.032856256            6 
 1179000    1.0741875   -6.9552453    461.42255  0.032613977  0.032848183            4 
 1180000    1.0708178   -6.9993119    460.18499   0.03249894  0.032840383            1 
 1181000    1.0450482   -6.9712529    461.37016  0.032555049  0.032832387            4 
 1182000    1.0621789   -7.0045788     460.9972  0.032501213  0.032824176            2 
 1183000    1.0763148   -6.9911334    461.65977  0.032520412  0.032816078            2 
 1184000    1.0598893   -7.0100675    462.06909  0.032521755  0.032808118            1 
 1185000    1.0754084   -6.9983733    461.29862  0.032440128  0.032799888            3 
 1186000    1.0959714   -6.9765125    462.08918  0.032468323  0.032791815            2 
 1187000    1.0717986   -7.0030081     461.7699  0.032418555  0.032783757            4 
 1188000    1.0553553    -7.029916    462.00377  0.032407672  0.032775604            2 
 1189000    1.0758766   -7.0061093    463.19164   0.03246367  0.032767437            1 
 1190000    1.0497535   -7.0054011     462.9635  0.032420413  0.032759309            2 
 1191000    1.0533264   -7.0104005    463.27497  0.032414986  0.032751098            2 
 1192000    1.0409232    -6.970021    465.41836  0.032537637  0.032743019            2 
 1193000    1.0840404   -6.9880069    464.39176  0.032438653  0.032734985            6 
 1194000    1.0447568    -6.995703    464.87292  0.032445067  0.032726946            1 
 1195000    1.0419376   -6.9959693     464.2683  0.032375753  0.032718764            1 
 1196000    1.0758594   -7.0024014    464.43235  0.032360113  0.032710621            3 
 1197000    1.0824282   -7.0009633    464.89408  0.032365224  0.032702556            1 
 1198000    1.0639392   -7.0146691    464.94441  0.032341709  0.032694526            3 
 1199000    1.0722124   -7.0367361    465.93052  0.032383272  0.032686459            1 
 1200000    1.0607838   -7.0072862    465.61602  0.032334446  0.032678155            3 
 1201000    1.0685953   -6.9923523    466.38916  0.032361169  0.032669918            3 
 1202000    1.0682167   -7.0090618    465.40104  0.032265741  0.032661561            5 
 1203000    1.0722181   -6.9834742    467.24007  0.032366312  0.032653376            3 
 1204000    1.0505589   -6.9970318    467.58398  0.032363232  0.032645305            2 
 1205000    1.0471176   -7.0230929    467.16343  0.032307291  0.032637119            2 
 1206000    1.0630352   -7.0094009    467.66609  0.032315236  0.032629007            3 
 1207000    1.0421409   -7.0695168    467.28576  0.032262204  0.032620869            1 
 1208000    1.0682645   -7.0339872    466.97228  0.032213871  0.032612689            2 
 1209000    1.0815398   -7.0060028    468.59909  0.032299358  0.032604672            1 
 1210000    1.0483345   -6.9887573     469.8488  0.032358733   0.03259656            2 
 1211000    1.0613639    -7.030001    469.37952  0.032299719  0.032588746            2 
 1212000    1.0778648   -6.9987261    469.81891  0.032303281  0.032580905            2 
 1213000    1.0634343   -7.0406596    470.61104  0.032331069  0.032573162            4 
 1214000    1.0691842   -7.0002884    470.70434  0.032310841  0.032565394            2 
 1215000    1.0649142   -7.0372327    470.04272   0.03223887  0.032557602            1 
 1216000    1.0540684   -6.9960503    470.81903  0.032265559  0.032549759            3 
 1217000    1.0516382    -7.001941    471.15009  0.032261715  0.032541767            4 
 1218000    1.0466405     -6.95718    471.99857   0.03229328  0.032533937            2 
 1219000    1.0629291   -7.0518008    470.66777  0.032175812  0.032526072            4 
 1220000    1.0571896   -7.0188565    471.42462  0.032201135   0.03251807            3 
 1221000    1.0487918   -7.0532505    472.52241  0.032249686  0.032510138            5 
 1222000    1.0385272   -6.9982243     473.2288  0.032271468  0.032502295            1 
 1223000    1.0606322   -6.9851176    474.46092  0.032329035  0.032494786            3 
 1224000    1.0309009   -6.9885994    473.90621  0.032264856  0.032487159            3 
 1225000    1.0632969   -6.9704831    474.80636  0.032299752  0.032479281            3 
 1226000    1.0564892   -7.0110258    473.02954  0.032152633  0.032471362            3 
 1227000    1.0562039   -7.0124042    474.24104  0.032208709  0.032463351            1 
 1228000    1.0555622   -7.0204458    473.73779   0.03214833  0.032455398            3 
 1229000    1.0513058   -7.0149867    474.41165  0.032167864  0.032447366            3 
 1230000    1.0508574   -7.0246137    474.39736  0.032140742  0.032439264            2 
 1231000    1.0455113    -7.007916    474.30809   0.03210859  0.032431176            2 
 1232000    1.0654345   -6.9929098    474.94617  0.032125688    0.0324231            2 
 1233000    1.0291666   -7.0282596    475.56715  0.032141602  0.032415044            1 
 1234000    1.0875499   -7.0395802    475.59843  0.032117668  0.032406706            1 
 1235000    1.0471363   -7.0138367    476.02461  0.032120419  0.032398699            1 
 1236000    1.0492798   -7.0048896    476.47122  0.032124543  0.032390696            3 
 1237000     1.035262   -7.0431901    477.03935  0.032136846  0.032382741            2 
 1238000      1.02257   -7.0540658    473.15129  0.031849171  0.032374595            3 
 1239000    1.0472807   -7.0116856    478.57756  0.032188429  0.032366579            5 
 1240000    1.0479929   -7.0086328    475.29295   0.03194173  0.032358661            2 
 1241000    1.0333043   -7.0020973     476.4738  0.031995286  0.032350665            2 
 1242000    1.0564016   -7.0076985     478.8093  0.032126228  0.032342611            2 
 1243000    1.0553102   -6.9979727    477.82375  0.032034309  0.032334686            1 
 1244000    1.0478169   -7.0355324    478.65543   0.03206427  0.032326809            1 
 1245000    1.0553722   -7.0014162    480.08544  0.032134233  0.032318861            3 
 1246000    1.0246486   -7.0156433    479.81893  0.032090619   0.03231108            3 
 1247000    1.0686007   -7.0324317    480.59703  0.032116882  0.032303285            2 
 1248000    1.0605717   -7.0116702    480.58232  0.032090166  0.032295792            3 
 1249000    1.0546781    -7.010657    480.66191  0.032069783  0.032288308            3 
 1250000    1.0606773   -7.0350772    480.79945  0.032053297  0.032280568            2 
 1251000    1.0626775    -7.019775     479.6762  0.031952851  0.032272779            2 
 1252000    1.0591198    -6.987097    481.81263  0.032069531  0.032265075            2 
 1253000    1.0572057   -6.9879622    482.00718  0.032056875  0.032257451            2 
 1254000    1.0402826   -6.9953304    482.58511  0.032069718  0.032249929            3 
 1255000     1.042842   -7.0512157     482.2638  0.032022829  0.032242232            1 
 1256000    1.0616543   -7.0212203    482.93156  0.032041637  0.032234585            2 
 1257000    1.0755619   -6.9990135    484.47033  0.032118161  0.032226876            2 
 1258000    1.0453314   -7.0624757    481.89667  0.031922143  0.032219134            1 
 1259000    1.0813131    -7.003715    482.19549  0.031916567   0.03221139            3 
 1260000    1.0711395   -6.9850428    483.88391  0.032002904  0.032203656            2 
 1261000    1.0414163   -7.0185773    483.09095  0.031925122  0.032196032            4 
 1262000    1.0394744   -7.0195652    485.21426  0.032040033  0.032188205            3 
 1263000    1.0479737    -7.072655    483.15134  0.031878552  0.032180354            4 
 1264000    1.0570129   -7.0396866    484.23925  0.031925056  0.032172461            1 
 1265000    1.0521329   -7.0392496    485.57172  0.031987597  0.032164637            7 
 1266000    1.0476464   -7.0558861    483.66712  0.031836962  0.032156882            2 
 1267000    1.0721071   -7.0187113    484.59114  0.031872608  0.032149095            2 
 1268000    1.0642161   -7.0182822    486.17404  0.031951501   0.03214127            3 
 1269000    1.0455609   -6.9969862    486.49576   0.03194745  0.032133575            3 
 1270000    1.0479294   -7.0115979    486.20059  0.031902926  0.032125798            1 
 1271000    1.0463615   -7.0434949    485.45885  0.031829193  0.032117973            2 
 1272000    1.0294546   -7.0475829    486.61046  0.031879616  0.032110191            3 
 1273000    1.0599347   -7.0396356    486.25341    0.0318312  0.032102437            3 
 1274000    1.0505437   -7.0321759    487.61692  0.031895403  0.032094591            5 
 1275000    1.0422185   -7.0092469    486.07172  0.031769393  0.032087096            4 
 1276000    1.0292106   -7.0283809    488.14361  0.031879807   0.03207953            2 
 1277000     1.037814   -7.0074614    488.51702  0.031879211  0.032071857            2 
 1278000    1.0436573   -7.0234722     487.8032   0.03180772  0.032064176            5 
 1279000    1.0472429   -7.0527236    489.99914  0.031925928  0.032056508            4 
 1280000    1.0401932   -7.0800268    486.58355  0.031678616  0.032048752            2 
 1281000    1.0268653   -7.0112806    487.74465  0.031729421  0.032040992            2 
 1282000     1.019399   -6.9920361    488.45259  0.031750688  0.032033299            2 
 1283000    1.0463473   -7.0377307     488.6965  0.031741784  0.032025615            1 
 1284000    1.0511288    -7.043555    489.82969  0.031790608  0.032017916            3 
 1285000    1.0355859   -7.0276281    491.78177  0.031892463  0.032010172            1 
 1286000    1.0520788   -7.0314109    490.11022  0.031759345  0.032002597            1 
 1287000    1.0262363   -7.0642648    491.52468  0.031826255   0.03199483            3 
 1288000    1.0448853   -7.0330586    490.75252  0.031751587  0.031987313            2 
 1289000    1.0266364   -7.0322738    490.21153  0.031691979  0.031979546            3 
 1290000    1.0494693   -6.9780797    491.70373  0.031763807  0.031971774            1 
 1291000    1.0569777   -7.0054064    491.57261  0.031730739  0.031964028            1 
 1292000    1.0346814   -7.0401887    491.80761  0.031721337  0.031956259            3 
 1293000    1.0326104   -7.0752229     490.0429  0.031583069  0.031948322            4 
 1294000    1.0296233   -7.0371538     492.4043  0.031710736  0.031940413            1 
 1295000    1.0432381   -7.0274315    491.79711  0.031647176  0.031932415            2 
 1296000    1.0512596    -7.052973    493.51847  0.031733441  0.031924314            3 
 1297000    1.0441329   -7.0006386     492.4474  0.031640157  0.031916175            2 
 1298000    1.0429992   -7.0469742    492.79889  0.031638347  0.031908061            2 
 1299000    1.0439252   -7.0206023    493.18861  0.031638992  0.031900053            2 
 1300000    1.0255869   -7.0520526    493.43539  0.031630474  0.031892185            6 
 1301000    1.0598622   -7.0495923    492.85304   0.03156886   0.03188413            4 
 1302000     1.048618   -7.0610012    493.62229  0.031593848  0.031876104            2 
 1303000    1.0274063   -6.9923849    494.20839  0.031607085  0.031868297            2 
 1304000    1.0586155   -7.0606013    494.87093  0.031625188  0.031860413            2 
 1305000    1.0262566   -7.0119837    495.06281  0.031613207  0.031852574            2 
 1306000    1.0427146   -7.0136472    495.48634  0.031616025  0.031844871            3 
 1307000    1.0323098   -7.0315473      495.701  0.031605521  0.031837072            3 
 1308000    1.0668412   -7.0787852    495.56121  0.031572452  0.031829354            2 
 1309000    1.0514181   -7.0578567    496.19923   0.03158895  0.031821587            3 
 1310000    1.0557657   -7.0108784    498.35957  0.031702263  0.031813916            1 
 1311000    1.0322481   -7.0157811     497.7449   0.03163901  0.031806366            1 
 1312000    1.0233506   -7.0366947    498.60859  0.031669753  0.031798748            1 
 1313000    1.0547851   -7.0063474    498.02941  0.031608873   0.03179138            2 
 1314000    1.0415286   -7.0294232    498.21893  0.031596837  0.031783985            6 
 1315000    1.0442189   -7.0743727    498.54393  0.031593405  0.031776463            3 
 1316000    1.0304982   -7.0603736    500.20179  0.031674379  0.031768948            6 
 1317000    1.0263263    -7.032938     499.1672  0.031584864  0.031761461            3 
 1318000    1.0629252   -7.0355194    499.72259  0.031596016  0.031753953            2 
 1319000    1.0456097   -7.0391274    499.34984  0.031548512  0.031746467            3 
 1320000    1.0583425     -7.08431    499.01605  0.031503539  0.031739047            2 
 1321000    1.0210391   -7.0579351    499.99118  0.031541205  0.031731505            2 
 1322000    1.0450206   -7.0346345    499.92934  0.031513448   0.03172404            3 
 1323000    1.0289986   -7.0398848    500.36021  0.031516768  0.031716505            1 
 1324000    1.0634151   -7.0552759    499.45319  0.031435876  0.031709019            3 
 1325000    1.0356073    -7.020032    501.24428  0.031524797  0.031701243            3 
 1326000    1.0444096   -7.0592811    502.01513  0.031549468  0.031693682            1 
 1327000     1.046109    -7.035836    503.01333  0.031588378  0.031686064            2 
 1328000    1.0444977   -7.0710103     500.0091  0.031376073   0.03167853            3 
 1329000    1.0433437   -7.0570691    502.38758  0.031501604  0.031670763            2 
 1330000    1.0373197   -7.0225468    504.73948  0.031625281  0.031663145            3 
 1331000    1.0314818   -7.0793592    503.67688  0.031534991  0.031655732            3 
 1332000    1.0445829   -7.0198169    502.65308  0.031447264    0.0316481            3 
 1333000    1.0396739   -7.0382652     504.5067  0.031539554  0.031640342            1 
 1334000    1.0298719   -7.0203614    503.50462  0.031453312  0.031632658            2 
 1335000    1.0511419   -7.0762644     502.8196  0.031386991  0.031625029            1 
 1336000    1.0414265   -7.0501677    504.06783  0.031441357  0.031617208            1 
 1337000    1.0544279   -7.0650536    502.85993  0.031342554  0.031609457            2 
 1338000    1.0122666   -7.0851182    504.24331  0.031405288  0.031601618            3 
 1339000    1.0396409   -7.0298478    504.88516   0.03142178  0.031594071            2 
 1340000    1.0380745   -7.0622057    506.07554  0.031472359  0.031586559            3 
 1341000    1.0194756   -7.0714615    504.77522  0.031368085  0.031578986            3 
 1342000    1.0326343   -7.0496623     506.4151  0.031446541  0.031571532            3 
 1343000    1.0435079   -7.0475432    506.02372  0.031398841   0.03156404            2 
 1344000    1.0237213   -7.0614226    507.07721  0.031440799   0.03155668            3 
 1345000    1.0511779   -7.0342279    506.13703  0.031359172   0.03154929            2 
 1346000    1.0292708   -7.0515818    507.37301  0.031412395  0.031541874            1 
 1347000    1.0287017   -7.0362828    508.00784   0.03142835  0.031534588            3 
 1348000    1.0249716    -7.015699     508.1264  0.031412364  0.031527123            1 
 1349000    1.0460121   -7.0295232    508.92184  0.031438216  0.031519686            1 
 1350000    1.0360179   -7.0492516    506.94782  0.031293076  0.031512234            2 
 1351000    1.0019507   -7.0462908    509.76038  0.031443399  0.031504697            4 
 1352000    1.0493415   -7.0673043    509.89026  0.031428147  0.031497293            2 
 1353000    1.0335204   -7.0574995    510.18334   0.03142297  0.031489893            2 
 1354000    1.0238371   -7.0447219    509.17914  0.031337958  0.031482567            3 
 1355000     1.015331   -7.0217942    511.45751  0.031454951  0.031475418            2 
 1356000    1.0234963   -7.0327428    510.70197  0.031385322  0.031468374            2 
 1357000    1.0348106   -7.0617008    510.46646  0.031347732  0.031460982            2 
 1358000    1.0366861   -7.0513312     510.8954   0.03135097  0.031453789            3 
 1359000     1.031279   -7.0333508    511.48015  0.031363757   0.03144656            3 
 1360000    1.0273228   -7.0418435    511.82147   0.03136161  0.031439316            2 
 1361000    1.0550964   -7.0568074     511.4077  0.031313231  0.031431999            2 
 1362000    1.0271748   -7.0741879    511.02447  0.031266794  0.031424738            1 
 1363000    1.0217009   -7.0655852    512.85477  0.031355758  0.031417335            2 
 1364000    1.0244057   -7.0462604    512.08697  0.031285861  0.031410099            3 
 1365000    1.0577551   -7.0382505     511.9711  0.031255867  0.031402846            4 
 1366000    1.0089609   -7.0301717    513.78804  0.031343829  0.031395718            3 
 1367000    1.0420025   -7.0828803    513.08822  0.031278238  0.031388541            5 
 1368000    1.0461139   -7.0568056    515.38839  0.031395492  0.031381389            1 
 1369000    1.0331269   -7.0919606    512.70593  0.031209273   0.03137414            2 
 1370000    1.0423528   -7.0377918    514.73642  0.031310001  0.031366985            2 
 1371000    1.0182239   -7.0670747    514.73353  0.031286988  0.031359802            2 
 1372000      1.03996   -7.1088257      513.527  0.031190901  0.031352486            2 
 1373000    1.0239348    -7.072383    514.38244  0.031220105  0.031345095            3 
 1374000    1.0174369   -7.0579656    513.44809  0.031140714  0.031337593            2 
 1375000    1.0341122   -7.0423738    514.18976  0.031163016   0.03133024            1 
 1376000    1.0378108   -7.0730463    515.18348   0.03120055  0.031322834            2 
 1377000    1.0232446    -7.075732    516.24302  0.031242013  0.031315632            1 
 1378000    1.0168783   -7.0700715    516.46647  0.031232854  0.031308332            2 
 1379000    1.0101935   -7.0561245    516.25451  0.031197396  0.031300996            2 
 1380000    1.0120898   -7.0564514    516.24994  0.031174514  0.031293686            4 
 1381000    1.0329963   -7.0209661    515.74423  0.031121423  0.031286494            5 
 1382000    1.0483688   -7.1107503    515.76083  0.031099905  0.031279066            4 
 1383000    1.0350125   -7.0721589    515.51557   0.03106264  0.031271654            1 
 1384000    1.0253711   -7.0765699    517.53045  0.031161516  0.031264353            2 
 1385000    1.0734442   -7.0727357    518.55157  0.031200455  0.031257144            2 
 1386000    1.0277814   -7.0511112       518.96  0.031202501  0.031249876            3 
 1387000    1.0236471   -7.0713552    519.70257   0.03122462  0.031242886            1 
 1388000    1.0298823   -7.0536084    519.77052  0.031206203  0.031235747            1 
 1389000    1.0473388    -7.091165    518.16977  0.031087699  0.031228727            3 
 1390000    1.0312282   -7.0305776    521.10496  0.031241304  0.031221531            4 
 1391000    1.0091474   -7.0877319    518.73006  0.031076567  0.031214458            2 
 1392000     1.039971   -7.0548554    520.77049  0.031176394  0.031207351            2 
 1393000    1.0276749   -7.0646017    519.73973  0.031092351   0.03120019            3 
 1394000    1.0290093   -7.0520616    521.03282  0.031147347  0.031193076            2 
 1395000    1.0059938    -7.048892    521.04465  0.031125726  0.031185861            3 
 1396000     1.046472   -7.0681262    521.05451  0.031104018  0.031178644            1 
 1397000     1.023714   -7.0258045    521.53154  0.031110209  0.031171453            3 
 1398000    1.0426698   -7.0691752    521.59463  0.031091716  0.031164128            3 
 1399000    1.0366319   -7.0507997    521.73495   0.03107785  0.031156786            2 
 1400000    1.0514324   -7.1113424    519.84945   0.03094342  0.031149543            4 
 1401000    1.0094968   -7.0852755    522.29562  0.031066834  0.031142292            2 
 1402000    1.0223402   -7.0642841    523.30182  0.031104483  0.031135227            1 
 1403000    1.0095122   -7.0603089    524.02936  0.031125526  0.031128135            2 
 1404000     1.023683   -7.0683566    521.93565  0.030979086  0.031121065            1 
 1405000    1.0344718   -7.0766678     524.9975  0.031138642  0.031113972            3 
 1406000    1.0114384   -7.0663862    524.35567  0.031078454  0.031107016            1 
 1407000    1.0499784    -7.062656    522.86982  0.030968362  0.031099917            2 
 1408000    1.0278467   -7.0946551    523.90366  0.031007555  0.031092747            5 
 1409000    1.0222557    -7.093405     524.3798  0.031013709  0.031085489            2 
 1410000    1.0278196   -7.0970107    524.64831  0.031007583  0.031078148            1 
 1411000    1.0299731   -7.0578861    526.07872  0.031070087  0.031070991            3 
 1412000    1.0075936   -7.0670445    524.37944  0.030947795  0.031063837            6 
 1413000    1.0338941   -7.0802566    524.06809  0.030907531  0.031056664            2 
 1414000    1.0311134   -7.0478884    525.49894  0.030969999  0.031049319            1 
 1415000    1.0250641   -7.0729073    525.45391   0.03094546  0.031042051            2 
 1416000    1.0156525   -7.0484202    526.43279  0.030981214  0.031034789            4 
 1417000    1.0207512   -7.0830592    526.17276  0.030944058  0.031027637            3 
 1418000    1.0003671    -7.092858    525.75555  0.030897717  0.031020369            3 
 1419000    1.0018055   -7.0739852    526.69139  0.030930901  0.031012977            6 
 1420000    1.0140387   -7.0273677    526.76441  0.030913404  0.031005769            2 
 1421000    1.0173719   -7.0792365    526.37482  0.030868802  0.030998679            2 
 1422000     1.032382   -7.0946923    526.78506  0.030871136  0.030991391            3 
 1423000     1.021464   -7.0181685    529.84122  0.031028415  0.030984264            4 
 1424000    1.0458292   -7.0647207    527.75633  0.030884617  0.030977407            4 
 1425000    1.0247852   -7.0730168    529.13889  0.030943795  0.030970329            1 
 1426000    1.0313586   -7.0617622    529.53563   0.03094528  0.030963253            2 
 1427000   0.99557742   -7.0682995    530.44989  0.030976985  0.030956274            6 
 1428000    1.0218213   -7.0524457     529.1366  0.030878653  0.030949375            1 
 1429000    1.0182953   -7.0680612    529.07325   0.03085335  0.030942283            3 
 1430000    1.0243606    -7.059603    530.72021  0.030927751  0.030935178            3 
 1431000     1.031143   -7.1104336    529.50194  0.030835193  0.030928183            2 
 1432000     1.041688   -7.0809797    530.95648  0.030898305  0.030921135            2 
 1433000    1.0274642   -7.0405477     531.3881  0.030901843  0.030914104            2 
 1434000    1.0217293   -7.1000512    532.01699  0.030916841  0.030907236            2 
 1435000    1.0107109    -7.136743    531.28356  0.030852704  0.030900188            2 
 1436000    1.0411053   -7.0879841    531.54753  0.030846537  0.030893141            3 
 1437000    1.0159402   -7.0416507    532.91359  0.030904291  0.030886072            3 
 1438000    1.0121221   -7.1297737    529.71892  0.030697666  0.030878728            3 
 1439000    1.0405153   -7.0360528    532.67951  0.030847783    0.0308715            1 
 1440000     1.004608    -7.087715    532.22866   0.03080027  0.030864471            1 
 1441000    1.0361395   -7.0896467    532.47046  0.030792879  0.030857509            2 
 1442000    1.0265613    -7.073434    534.92111  0.030913148  0.030850568            2 
 1443000     1.035189   -7.0772195    534.58364  0.030872236  0.030843659            1 
 1444000    1.0116735   -7.1066912    533.19786  0.030770883  0.030836536            2 
 1445000      1.00744   -7.0928868    531.35478  0.030643298  0.030829377            1 
 1446000    1.0157234   -7.0826733    533.17028  0.030726734  0.030822144            2 
 1447000    1.0419821   -7.0745107    532.62566  0.030674134  0.030814912            2 
 1448000    1.0215583    -7.050327    534.69272  0.030771911  0.030807775            1 
 1449000    1.0028567   -7.0660406    534.22126   0.03072356  0.030800583            4 
 1450000    1.0268412   -7.0970144    534.71881  0.030730966  0.030793448            1 
 1451000    1.0292365    -7.059036    535.04612  0.030728585  0.030786343            2 
 1452000    1.0289837   -7.0700735    535.07769  0.030709234   0.03077916            3 
 1453000    1.0210822   -7.0889031    535.42186  0.030707838  0.030771931            5 
 1454000    1.0076402   -7.1262706    534.42308  0.030629475  0.030764677            3 
 1455000    1.0300313   -7.0750946    534.75234  0.030627282  0.030757451            2 
 1456000    1.0126934   -7.1100753    534.17919  0.030573442   0.03075016            2 
 1457000    1.0059067   -7.1437707    534.74981  0.030585095  0.030742843            4 
 1458000    1.0071157   -7.1050168    535.92364   0.03063121  0.030735571            6 
 1459000    1.0112865   -7.1125251    535.32152  0.030575824  0.030728236            2 
 1460000    1.0364741   -7.0969603    536.30208  0.030610849  0.030720811            1 
 1461000     1.039619   -7.1024796    536.62219  0.030608156  0.030713395            3 
 1462000    1.0020288   -7.1229095    534.73109  0.030479428  0.030705877            1 
 1463000    1.0094698   -7.0921879    537.96262  0.030642665  0.030698376            4 
 1464000    1.0192968   -7.1406761    535.48936  0.030480951  0.030690898            7 
 1465000    1.0305835   -7.1065711    536.21625  0.030501493  0.030683206            2 
 1466000    1.0199051   -7.0632534    537.87415  0.030574929   0.03067559            1 
 1467000    1.0196199   -7.0947163    538.74963  0.030603819  0.030668133            1 
 1468000    1.0304642   -7.0702839    537.54386  0.030514525   0.03066076            2 
 1469000    1.0149573    -7.103012    539.12899  0.030583673  0.030653369            2 
 1470000    1.0256791   -7.1027429    538.19437  0.030509885  0.030646008            3 
 1471000    1.0265798    -7.092151    539.25068  0.030548985  0.030638433            2 
 1472000    1.0125319   -7.0957754    538.66695  0.030495185  0.030631015            1 
 1473000    1.0053815    -7.123375    539.07459  0.030497544  0.030623693            1 
 1474000    1.0111053   -7.0957468    539.68146  0.030511164  0.030616363            2 
 1475000   0.98460732   -7.0991689    540.69233  0.030547589  0.030608999            3 
 1476000    1.0167671   -7.1159005    538.83943   0.03042228  0.030601665            2 
 1477000    1.0363951   -7.1112117    539.91036  0.030462106  0.030594266            4 
 1478000    1.0136531   -7.1214633    541.18008  0.030513085  0.030586975            5 
 1479000   0.97670559   -7.1070572    541.86142  0.030530844    0.0305798            7 
 1480000    1.0142495   -7.1007781    540.48796   0.03043288  0.030572486            2 
 1481000    1.0135358   -7.0731637     540.8844  0.030434639  0.030565143            2 
 1482000    1.0098341   -7.1323708    540.87268  0.030413443  0.030557747            7 
 1483000     1.031461   -7.1063148    541.67535   0.03043804   0.03055039            3 
 1484000   0.98772208   -7.0988214    542.40934  0.030458745  0.030543147            2 
 1485000    1.0120087   -7.1027849     541.0406  0.030361426  0.030535843            2 
 1486000    1.0260265   -7.0346859    543.68958  0.030489546  0.030528555            2 
 1487000    1.0092294   -7.0706878    544.79935  0.030531235  0.030521282            5 
 1488000    1.0273886   -7.1352435    543.91879  0.030461402  0.030514113            5 
 1489000   0.99970883   -7.1082042    543.11286  0.030395839  0.030506782            2 
 1490000      1.03378   -7.1155043    544.80869  0.030470285  0.030499485            3 
 1491000    1.0040773   -7.1030177    543.82852  0.030395066  0.030492243            3 
 1492000    1.0092072    -7.120406    545.25331  0.030454273  0.030485008            3 
 1493000   0.99329323   -7.0817544    546.44144  0.030500192  0.030477913            3 
 1494000   0.99332691   -7.1003899    543.87622  0.030336692  0.030470792            5 
 1495000    1.0059379   -7.0849387    546.31177  0.030452161  0.030463562            3 
 1496000    1.0107657   -7.1324149    546.24697  0.030428196  0.030456285            2 
 1497000    1.0054454   -7.1440476     544.6309  0.030317908  0.030448984            2 
 1498000    1.0091096   -7.1017635    544.35212  0.030282161  0.030441531            1 
 1499000   0.99815952    -7.141029    545.07031  0.030301885  0.030434123            3 
 1500000     1.018342   -7.1285445    546.63014  0.030368341  0.030426772            2 
 1501000    1.0086229    -7.056979     546.5793  0.030345287  0.030419466            6 
 1502000    1.0054731   -7.1388144    547.28176  0.030364057  0.030412197            3 
 1503000   0.99396038   -7.1162523    546.73004  0.030313264  0.030404889            2 
 1504000    1.0076878   -7.1002579    546.10117  0.030258265  0.030397694            2 
 1505000    1.0061831    -7.073057     549.1219  0.030405421  0.030390583            3 
 1506000    1.0141889   -7.0979091    548.52186  0.030352028  0.030383502            2 
 1507000    1.0121968   -7.1182963     547.4102  0.030270416  0.030376432            3 
 1508000    1.0031943   -7.1011448    550.57612  0.030425294  0.030369246            3 
 1509000    1.0111844   -7.1296442    548.02749  0.030264385   0.03036212            2 
 1510000    1.0076204   -7.0837649    549.76984  0.030340499  0.030354968            1 
 1511000   0.99232403   -7.1403056    548.58857  0.030255271  0.030347905            3 
 1512000    1.0110034   -7.0864279    549.72594  0.030297947  0.030340791            2 
 1513000    1.0143019    -7.114916    548.95077  0.030235227  0.030333787            2 
 1514000    1.0065386   -7.1297708    551.29149  0.030344093  0.030326728            3 
 1515000     1.012657    -7.150024    549.94176  0.030249822  0.030319699            3 
 1516000   0.99750315   -7.1018378    550.81196  0.030277702  0.030312764            5 
 1517000    1.0063557   -7.1108824    551.31989  0.030285645   0.03030592            2 
 1518000    1.0014301   -7.0759242     553.6003  0.030390881  0.030299169            3 
 1519000    1.0134118   -7.1124236    551.71814  0.030267618  0.030292302            3 
 1520000    1.0156288   -7.1391453    551.00965  0.030208862  0.030285317            4 
 1521000    1.0104779   -7.1128338    551.53976  0.030218045  0.030278416            3 
 1522000    1.0185131   -7.1070686    553.13147  0.030285341  0.030271411            1 
 1523000    1.0274131   -7.0988823    553.04968  0.030260981  0.030264435            1 
 1524000     1.017123   -7.1474118     552.2572  0.030197791  0.030257457            5 
 1525000   0.99708994   -7.1398854    554.66821  0.030309738  0.030250366            4 
 1526000    1.0246868   -7.0889957    553.66783  0.030235247   0.03024331            3 
 1527000   0.99630603   -7.1083842    552.97687  0.030177738  0.030236238            2 
 1528000   0.99261304   -7.1196001    552.18965  0.030115055  0.030228999            3 
 1529000    1.0310992   -7.1425615    552.92217  0.030135283  0.030221723            3 
 1530000   0.98785774   -7.0839452    554.41746   0.03019703  0.030214504            4 
 1531000     1.032837   -7.1369354    553.09033  0.030105069  0.030207342            3 
 1532000   0.98405514   -7.0972362    555.26243   0.03020357  0.030200113            2 
 1533000   0.99131481   -7.1146303    554.23756  0.030128156  0.030192826            2 
 1534000    1.0081615   -7.0601323    555.08471  0.030154537  0.030185643            2 
 1535000    1.0076443   -7.0641911    553.48869  0.030048246  0.030178428            4 
 1536000    1.0215751    -7.125185     554.5747  0.030087603  0.030171202            1 
 1537000    1.0175449   -7.1093765    553.94725  0.030034008  0.030164133            3 
 1538000    1.0241422   -7.1413806    555.18439  0.030081512  0.030156974            2 
 1539000    1.0080335    -7.112515    556.76646  0.030147632  0.030149782            2 
 1540000    1.0236768   -7.1211166    555.84305  0.030078087  0.030142561            1 
 1541000   0.98223222   -7.1263836      555.886  0.030060891  0.030135442            2 
 1542000    1.0005046   -7.1180204    556.68526   0.03008459  0.030128221            2 
 1543000   0.99878428   -7.1204371    558.01537  0.030136928  0.030121163            2 
 1544000    1.0078119   -7.1586767    555.92636  0.030004661  0.030114054            3 
 1545000    1.0067101   -7.0939167    557.07217  0.030047042  0.030106749            2 
 1546000   0.99782326   -7.1181217    556.16677  0.029978804  0.030099664            1 
 1547000   0.99263066   -7.1234475      557.843   0.03004972  0.030092453            1 
 1548000    1.0131292   -7.1473654    557.82448  0.030029311  0.030085358            3 
 1549000    1.0081485    -7.094917    558.46123   0.03004418  0.030078333            2 
 1550000    1.0094698   -7.1300409    559.76742  0.030095022  0.030071222            2 
 1551000    1.0055721   -7.1326265    558.46882  0.030005847  0.030064005            3 
 1552000   0.99976932   -7.1137073    558.10649  0.029967058  0.030056856            3 
 1553000   0.97836215   -7.1296275    558.20207  0.029952891  0.030049641            2 
 1554000   0.99613131   -7.1262432    558.83307  0.029967453  0.030042564            1 
 1555000    1.0079367   -7.1373128    559.01284  0.029957816  0.030035423            2 
 1556000   0.99096511   -7.1313657    560.07924  0.029995675  0.030028292            2 
 1557000   0.98461238   -7.1145641    560.33735  0.029990224  0.030021264            3 
 1558000   0.97892595   -7.1200385    560.62372  0.029986292  0.030014194            2 
 1559000   0.97993073   -7.1200216    561.13943  0.029994624  0.030007121            4 
 1560000    1.0231617   -7.1552335    558.91414  0.029856524  0.030000002            1 
 1561000   0.98387378   -7.1171369    562.04529  0.030004553  0.029992998            2 
 1562000    0.9909048   -7.1337198    560.55244    0.0299057  0.029986021            3 
 1563000    1.0122769   -7.1300019     561.6357  0.029944322  0.029978893            2 
 1564000    1.0026273   -7.1464774     561.1715  0.029900442  0.029971704            2 
 1565000    1.0059389   -7.1246808    562.49336  0.029951723  0.029964601            2 
 1566000    1.0099151   -7.1305257    561.09535  0.029858203  0.029957462            3 
 1567000   0.98237138   -7.1485286    561.77106  0.029875083  0.029950343            4 
 1568000    0.9959643   -7.1189416    563.47226  0.029946443  0.029943218            2 
 1569000    1.0147811   -7.1485694      563.131  0.029909231  0.029936219            5 
 1570000    1.0022803   -7.1529827    563.87186  0.029929504  0.029929094            3 
 1571000     1.006364   -7.1294482    562.74318  0.029850582  0.029922014            3 
 1572000    1.0071408   -7.1283835    562.70841   0.02982975  0.029914926            2 
 1573000   0.99718543   -7.1150405    563.88605  0.029873175  0.029907723            2 
 1574000    1.0006627   -7.1280505    563.29682     0.029823  0.029900534            6 
 1575000    1.0003442   -7.1736808     562.9336  0.029784846  0.029893345            2 
 1576000   0.99459356    -7.125781    563.84154  0.029813956  0.029886103            3 
 1577000     1.007948   -7.1399281    563.82468   0.02979416  0.029878873            2 
 1578000   0.98766835   -7.1220258    563.39315   0.02975249  0.029871558            2 
 1579000     0.977008   -7.1374027    563.44906  0.029736598    0.0298642            2 
 1580000   0.98156048   -7.1419678    563.22019  0.029705706  0.029856758            2 
 1581000   0.98810462    -7.147071    564.65956  0.029762785  0.029849364            3 
 1582000     1.006237   -7.1404581    563.43131  0.029679273  0.029841988            2 
 1583000   0.97796019   -7.1681341    562.46541  0.029609676  0.029834431            1 
 1584000   0.99554712   -7.1159957    565.35943  0.029743236  0.029826804            5 
 1585000   0.99811015   -7.1561032    563.71257  0.029637885  0.029819245            2 
 1586000    1.0048765   -7.1472172    564.69992  0.029671076  0.029811718            2 
 1587000   0.99578848   -7.1100421    564.95656  0.029665856  0.029804089            2 
 1588000   0.98155966   -7.1626523    563.21539  0.029555803  0.029796514            3 
 1589000    1.0097935    -7.140142    565.21969  0.029642317  0.029788945            4 
 1590000   0.96970736   -7.1270145    565.76221  0.029652108  0.029781404            2 
 1591000   0.99225238   -7.1101268    566.59573  0.029677128  0.029773843            4 
 1592000   0.96888898   -7.1050684    566.72325  0.029665162  0.029766246            2 
 1593000   0.98852142    -7.137213    568.20365  0.029723983  0.029758728            1 
 1594000    1.0047316   -7.1402346     564.3348  0.029503074  0.029751059            2 
 1595000    1.0052373   -7.1133175    567.51211  0.029650581  0.029743449            5 
 1596000   0.98797594   -7.1518228    566.01805  0.029553992   0.02973578            2 
 1597000     1.003706   -7.1489633    565.83566  0.029525969  0.029728152            2 
 1598000    1.0048569   -7.1474375    564.45781  0.029435639  0.029720441            1 
 1599000    1.0163413      -7.1516    565.64291  0.029478992  0.029712712            2 
 1600000   0.99437343   -7.1525886      566.217  0.029490469  0.029704913            7 
 1601000    1.0124056   -7.1290775    565.85755  0.029453339  0.029697046            3 
 1602000   0.99714454   -7.1197091     567.5142   0.02952113  0.029689238            3 
 1603000    1.0102861   -7.1658767    567.66928  0.029510776  0.029681412            2 
 1604000    1.0016076   -7.1568594    568.18686  0.029519268  0.029673581            2 
 1605000   0.98772354   -7.1351098    567.06762  0.029442763  0.029665841            3 
 1606000   0.98655352   -7.1212286    566.81372  0.029411256  0.029658004            2 
 1607000   0.98337942   -7.1662656    566.27266  0.029364896  0.029650224            2 
 1608000    1.0290583   -7.1476964    566.44898  0.029355772  0.029642345            3 
 1609000    1.0025289   -7.1539612    567.80988  0.029408011  0.029634485            2 
 1610000    1.0122839   -7.1403582    567.70581  0.029384359  0.029626615            2 
 1611000   0.99516001   -7.1643172    567.95235  0.029378872  0.029618845            2 
 1612000    0.9908987   -7.1616643    567.96767  0.029361439  0.029610943            1 
 1613000   0.98292096   -7.1351918    569.70057  0.029432763  0.029603139            3 
 1614000   0.99960285   -7.1624976     569.9529  0.029427556  0.029595382            3 
 1615000   0.97280627   -7.1253105    571.31844  0.029479796  0.029587617            2 
 1616000   0.98321915   -7.1518136    568.08882  0.029295009  0.029579876            2 
 1617000    0.9902548   -7.1524299    567.71635  0.029257697  0.029572026            1 
 1618000    1.0068994   -7.1533485    568.80383  0.029295623  0.029564217            2 
 1619000   0.98569701   -7.1594562    568.26598  0.029249844  0.029556258            1 
 1620000    1.0174179   -7.0909959     570.5753  0.029350581  0.029548479            4 
 1621000    1.0012917   -7.1328172    571.69659  0.029390119  0.029540742            2 
 1622000   0.99451745   -7.1444438    570.57509   0.02931438  0.029532951            2 
 1623000   0.99609903    -7.139243    570.81384  0.029308577   0.02952518            4 
 1624000    1.0022196   -7.1581644    570.46724  0.029272744  0.029517369            2 
 1625000   0.98302912   -7.1503675    571.99478  0.029333065  0.029509703            3 
 1626000   0.97380004   -7.1333448    573.31194  0.029382531  0.029501881            1 
 1627000   0.98082897   -7.1788703    569.71352  0.029180164  0.029493901            2 
 1628000    1.0061916    -7.108201    571.46658  0.029251975  0.029486073            2 
 1629000   0.98137368   -7.1335703    571.17921  0.029219317  0.029478346            2 
 1630000   0.99003877   -7.1584078    572.61363  0.029274726   0.02947056            3 
 1631000     1.004673   -7.1578628    573.10609  0.029281938  0.029462801            1 
 1632000    1.0146578   -7.1480121     573.7255  0.029295624  0.029454949            3 
 1633000    0.9939108   -7.1667088    571.74903  0.029176824  0.029447165            4 
 1634000    1.0004144   -7.1738067    573.24642  0.029235333  0.029439263            1 
 1635000   0.98495721   -7.1291071    571.89861  0.029148757  0.029431354            1 
 1636000   0.98721026   -7.1479166     572.1179   0.02914211   0.02942335            1 
 1637000   0.98984513   -7.1867667    572.14233  0.029125551  0.029415312            4 
 1638000   0.98294735   -7.1397123    570.53739  0.029026119  0.029407164            2 
 1639000   0.98714452   -7.1666132    572.81866  0.029124398  0.029399193            1 
 1640000   0.99252037   -7.1672343    572.68998    0.0291001  0.029391233            2 
 1641000   0.98259869   -7.1667077    573.53265   0.02912516  0.029383169            4 
 1642000    1.0133958   -7.1573399    573.32916  0.029097095  0.029375075            2 
 1643000    1.0165128   -7.1958708    572.89503  0.029057366  0.029367079            3 
 1644000   0.99555109   -7.1329096    573.67829  0.029079394  0.029359107            2 
 1645000    1.0066949   -7.1094133    575.66267  0.029162242  0.029351281            3 
 1646000   0.98854896   -7.1873533    573.87101  0.029053818  0.029343407            2 
 1647000   0.99966431   -7.1319822    574.31099  0.029058439  0.029335448            1 
 1648000   0.98311754   -7.1274543    574.55582  0.029053187  0.029327528            1 
 1649000   0.96917097   -7.1677092    575.88397  0.029102687  0.029319648            4 
 1650000   0.96977846   -7.1076126    577.15117  0.029149049  0.029311615            1 
 1651000   0.99731742   -7.1474288     575.2656   0.02903622  0.029303629            2 
 1652000    1.0133093   -7.1554282    576.56775  0.029084329   0.02929575            3 
 1653000   0.97492385   -7.1474012    578.19194  0.029148616  0.029287859            3 
 1654000   0.99119965   -7.1499299    577.22355  0.029082202  0.029279997            2 
 1655000   0.97871661   -7.2025536    575.21096  0.028963291  0.029272049            2 
 1656000    1.0041626   -7.1557137    577.03169  0.029037424  0.029264088            1 
 1657000   0.99678265   -7.1533638    580.48972   0.02919381  0.029256324            1 
 1658000   0.98439851   -7.1567571     578.9993  0.029101292  0.029248669            2 
 1659000   0.98555866   -7.1083459    576.77618  0.028972081  0.029240892            2 
 1660000   0.98620346   -7.1784096    577.91982  0.029012039  0.029233081            2 
 1661000   0.97623288    -7.185172    578.75889  0.029036669  0.029225302            3 
 1662000    1.0063891   -7.1677305    578.27384  0.028994877  0.029217463            5 
 1663000   0.98583225   -7.1801796    578.77551  0.029002581  0.029209611            4 
 1664000   0.99071362   -7.1548051    581.59152  0.029126178  0.029201928            2 
 1665000    1.0072569   -7.1691985    578.22501  0.028940191  0.029194151            2 
 1666000   0.96560356   -7.1642057    580.60462  0.029041848  0.029186434            5 
 1667000   0.97412602   -7.1738134    580.28824   0.02900861  0.029178695            3 
 1668000   0.98845608   -7.1957799     580.4335  0.028998476  0.029170977            6 
 1669000   0.99327899   -7.1306915    581.38201  0.029028461  0.029163407            2 
 1670000   0.97246134   -7.1549725    580.98709  0.028991372  0.029155913            3 
 1671000   0.97360212   -7.1818166    581.52764  0.029000979  0.029148411            5 
 1672000    1.0048283   -7.1631623    581.77812  0.028996118  0.029140713            2 
 1673000   0.98480701   -7.2034189    580.71703  0.028925933  0.029132989            2 
 1674000   0.99186461   -7.1780054    580.63254  0.028904447  0.029125282            2 
 1675000   0.99839984   -7.2183163    581.09148  0.028910024   0.02911765            2 
 1676000   0.98802903   -7.1508239    581.79666  0.028927837  0.029109925            1 
 1677000   0.98885914   -7.1668127    581.44781  0.028893252  0.029102339            3 
 1678000   0.96866077   -7.1925605     583.3034  0.028968186  0.029094706            4 
 1679000   0.98077808   -7.1590815    582.47941  0.028910036  0.029087099            2 
 1680000   0.98430991   -7.1607552    581.53326  0.028845896  0.029079556            1 
 1681000   0.96596077   -7.1498792    583.91711  0.028946912  0.029071932            2 
 1682000   0.99788942   -7.1382954    583.59269  0.028913629  0.029064292            1 
 1683000   0.98773869   -7.1432223    583.74522  0.028904002  0.029056702            3 
 1684000   0.98837439   -7.1443185    585.28778  0.028963172  0.029049098            5 
 1685000   0.98438208    -7.168573    584.71055  0.028917436  0.029041405            1 
 1686000   0.96414964   -7.1761983    583.58358  0.028844582  0.029033778            2 
 1687000    1.0014697   -7.1965083    583.18148  0.028807621   0.02902611            1 
 1688000   0.98218668   -7.1301437    585.55436  0.028907699  0.029018444            3 
 1689000   0.98938242   -7.1379052    585.37588  0.028881778  0.029010905            4 
 1690000   0.95931775   -7.1559042    586.75664  0.028932773  0.029003366            2 
 1691000   0.99289738   -7.2011295    585.31499  0.028844618  0.028995919            4 
 1692000   0.96629598   -7.1999573    587.36639  0.028928604  0.028988357            2 
 1693000   0.97001894   -7.1807469    586.24118  0.028856132  0.028980936            2 
 1694000   0.99045603   -7.1712527    586.75994  0.028864617  0.028973414            4 
 1695000   0.98938385   -7.2005094    587.24668  0.028871518  0.028965828            3 
 1696000   0.96791606   -7.1809576    586.01066  0.028793763  0.028958297            6 
 1697000   0.99009281   -7.1609528    588.44499  0.028896336  0.028950865            2 
 1698000     0.987808     -7.18748    586.31047  0.028774562  0.028943551            3 
 1699000   0.97958523   -7.1704335    587.04264  0.028793538  0.028936177            3 
 1700000   0.95354456   -7.1982118     587.2747  0.028787976   0.02892873            3 
 1701000   0.97450056   -7.2022798    587.49038  0.028781618  0.028921292            3 
 1702000   0.98033545   -7.1945737    587.48766  0.028764574  0.028913776            1 
 1703000     0.971723    -7.184996    590.44254  0.028892276  0.028906294            3 
 1704000   0.97188182   -7.1471483    591.68633  0.028936147  0.028899016            2 
 1705000   0.98302856   -7.2219981    588.94692  0.028785284  0.028891695            2 
 1706000   0.98146612   -7.1928332    587.93431  0.028718948  0.028884328            3 
 1707000   0.96630803   -7.1680472    588.80529  0.028744644  0.028876895            2 
 1708000   0.97338499   -7.1577535    588.67077  0.028721251  0.028869525            2 
 1709000   0.99794298   -7.1875792    590.41993  0.028789737  0.028862098            2 
 1710000   0.98027787   -7.2116903    587.87267  0.028648765  0.028854578            2 
 1711000   0.96841272   -7.1987814    589.10099  0.028691846  0.028847129            2 
 1712000   0.96556906   -7.1947388    590.56298  0.028746251  0.028839589            4 
 1713000    0.9685665   -7.1672945    589.69316  0.028687155  0.028832124            2 
 1714000    1.0041023   -7.1476996    590.03627    0.0286871  0.028824622            4 
 1715000   0.97598512   -7.1710617    591.72375  0.028752369  0.028817045            4 
 1716000    1.0003545   -7.1991313    589.99618  0.028651718  0.028809518            2 
 1717000   0.96343539   -7.1718269    593.49796  0.028804987  0.028801985            2 
 1718000   0.98158415   -7.1516325    591.71485  0.028701729  0.028794479            2 
 1719000   0.97739477   -7.1779766    591.80295  0.028689304  0.028786914            2 
 1720000   0.97216471    -7.175796    592.09067  0.028686563  0.028779332            1 
 1721000   0.99117419    -7.174713    590.46258  0.028591061  0.028771768            2 
 1722000   0.95875675   -7.1502353    592.49098  0.028672618  0.028764186            4 
 1723000   0.94975087   -7.1906299    591.71317  0.028618358  0.028756591            3 
 1724000   0.97775849   -7.1930383    592.44077  0.028636928  0.028748962            1 
 1725000   0.97178378   -7.1634812    592.91277  0.028643129  0.028741347            1 
 1726000   0.96186909    -7.174287    592.69523  0.028616031  0.028733798            3 
 1727000   0.96450213   -7.1728185    592.75813  0.028602496  0.028726204            2 
 1728000   0.98333065   -7.1607688    593.88021  0.028640057   0.02871861            2 
 1729000   0.98096674   -7.1790591    590.41997  0.028456717  0.028711065            1 
 1730000   0.97201821   -7.1910266    593.02321  0.028565665  0.028703439            3 
 1731000   0.97401881   -7.1572441    594.07522  0.028599808  0.028695821            2 
 1732000   0.96147579    -7.214737    592.57952  0.028511332  0.028688049            5 
 1733000   0.99981967    -7.195775     593.5346  0.028540806  0.028680477            4 
 1734000   0.99782348   -7.2083024    593.06803  0.028501924  0.028672925            3 
 1735000   0.96367159   -7.1930367    593.25103  0.028494286  0.028665304            4 
 1736000   0.99227527   -7.1953291    594.69131   0.02854701  0.028657682            2 
 1737000   0.98498809   -7.1841698     593.9168  0.028493418  0.028650177            3 
 1738000    1.0012037   -7.1559263    596.43583  0.028597806  0.028642702            3 
 1739000   0.97802269   -7.1710709    595.26547  0.028525277  0.028635263            1 
 1740000   0.96195889   -7.2023252    596.01295  0.028544681  0.028627741            2 
 1741000   0.97695838   -7.1651655    596.32406  0.028543177  0.028620268            3 
 1742000   0.99915153   -7.1298576     595.2745  0.028476584  0.028612726            1 
 1743000    0.9572162   -7.1956224    596.70015  0.028528406  0.028605319            5 
 1744000   0.94677899    -7.197626    596.89464  0.028521342  0.028597878            4 
 1745000   0.98188794   -7.1970583    596.57782  0.028489867  0.028590461            3 
 1746000   0.96978523   -7.1775124    596.68645  0.028478735  0.028582964            3 
 1747000   0.97883551   -7.1699728    596.30143  0.028444067  0.028575545            3 
 1748000   0.95658285   -7.1944963    597.46751  0.028483386  0.028568124            2 
 1749000   0.97180756    -7.183987    597.70262  0.028478303  0.028560698            3 
 1750000   0.95940394   -7.2085068    598.46687  0.028498422  0.028553206            2 
 1751000   0.97356434   -7.1730232    597.76588  0.028448786  0.028545709            2 
 1752000   0.95669725   -7.1969775    598.12671   0.02844971    0.0285381            3 
 1753000    0.9630627   -7.2189081    596.08595  0.028336468  0.028530535            2 
 1754000    0.9600815   -7.1957974    597.87377  0.028405253  0.028523006            3 
 1755000   0.94421382   -7.2002787    598.66562  0.028426668   0.02851547            2 
 1756000   0.98395415   -7.2123997    597.79776  0.028369294  0.028507932            3 
 1757000   0.95919247   -7.2027683    597.13184  0.028321563  0.028500312            2 
 1758000   0.95854467   -7.1705326    597.27625  0.028312299  0.028492709            1 
 1759000   0.96953291   -7.1661812    598.89587  0.028372933  0.028485203            2 
 1760000   0.97436579   -7.2230898    599.42666  0.028381944  0.028477687            2 
 1761000   0.95951112    -7.186125    598.23038  0.028309217  0.028470129            3 
 1762000   0.97494853   -7.2001041    599.05396  0.028332102  0.028462688            3 
 1763000   0.96871706    -7.218087    601.11738  0.028413565  0.028455263            2 
 1764000    0.9812342   -7.1712127    600.69069    0.0283773  0.028447862            2 
 1765000   0.98143481   -7.2161439    599.10281  0.028286252  0.028440393            3 
 1766000   0.96917996   -7.2061944    600.05597  0.028315212  0.028432767            3 
 1767000   0.97746218   -7.1928916    599.65835  0.028280435   0.02842522            4 
 1768000   0.96566084   -7.2326912    601.34275  0.028343833  0.028417702            4 
 1769000   0.95449989   -7.2020196    600.78033  0.028301316   0.02841016            3 
 1770000   0.98044169   -7.1908717    600.74832  0.028283819  0.028402693            2 
 1771000   0.97079787   -7.1775659    602.44258  0.028347571  0.028395238            4 
 1772000   0.96303987   -7.2098468    601.49949  0.028287222  0.028387722            1 
 1773000   0.96686783   -7.1942873    603.60621  0.028370286  0.028380332            4 
 1774000   0.96111487   -7.1842423    602.42399  0.028298759  0.028372923            2 
 1775000   0.96736075   -7.2252509    602.64136  0.028293022  0.028365606            3 
 1776000   0.95064045   -7.1856362    602.66094  0.028278009  0.028358307            3 
 1777000   0.97339455   -7.1857889    602.63529  0.028260893  0.028350909            4 
 1778000   0.95214595   -7.1923495    604.16241  0.028316573  0.028343594            3 
 1779000   0.98137117   -7.2083473    601.68464  0.028184591  0.028336208            1 
 1780000   0.95598194   -7.2121128    603.31287  0.028244984  0.028328784            4 
 1781000   0.98906341   -7.2190169    601.52436  0.028145441  0.028321383            7 
 1782000   0.95227429   -7.2029319    603.89464   0.02824049   0.02831395            2 
 1783000   0.96687222   -7.1909649     603.3451  0.028198967  0.028306585            4 
 1784000   0.96832077   -7.1755457    603.98831  0.028213206   0.02829922            2 
 1785000   0.98150948   -7.2372483    602.85683  0.028144577  0.028291819            2 
 1786000    0.9721959   -7.1812876    604.55031  0.028207834  0.028284326            1 
 1787000   0.93354797    -7.210778    605.46372  0.028234645  0.028276838            3 
 1788000   0.96190982    -7.212634    604.98903  0.028196729  0.028269394            1 
 1789000   0.95133925    -7.204151    605.72675  0.028215332  0.028261948            2 
 1790000    0.9369654    -7.225967    603.50418  0.028096098  0.028254492            1 
 1791000   0.95902008   -7.2120394    605.41361  0.028169254  0.028247076            3 
 1792000   0.95749648    -7.219787    605.67435   0.02816566  0.028239597            3 
 1793000   0.96896123   -7.1993244    605.65116  0.028148873  0.028232196            1 
 1794000   0.96168263   -7.2072233    605.78785  0.028139532  0.028224741            2 
 1795000   0.97613279   -7.2071315    606.05422  0.028136222  0.028217463            1 
 1796000    0.9658949   -7.2210761    607.67294  0.028195664  0.028210194            3 
 1797000   0.96385872   -7.1932663    607.66359  0.028179539  0.028202891            3 
 1798000   0.99228089   -7.1733261    606.06272   0.02808967  0.028195542            3 
 1799000    0.9621748   -7.1889101    608.57896  0.028190613   0.02818821            2 
 1800000   0.95089655   -7.2432401     607.7853  0.028138208  0.028180764            3 
 1801000   0.96789745   -7.2003979    608.46238  0.028153914  0.028173415            2 
 1802000   0.96036085   -7.2134036    606.84163  0.028063338  0.028166106            4 
 1803000   0.98210112   -7.1822651    609.02752  0.028148804  0.028158815            2 
 1804000   0.94811955    -7.197243    608.55775    0.0281115  0.028151444            1 
 1805000    0.9620678   -7.1961998    610.00212   0.02816261  0.028144192            2 
 1806000   0.95913062   -7.1914992    610.57905  0.028173637  0.028136943            3 
 1807000   0.94660553   -7.1837997    609.63535  0.028114524  0.028129628            4 
 1808000   0.98996177   -7.1776508    610.26845  0.028128155  0.028122404            2 
 1809000   0.96529084   -7.2104145     608.7228  0.028041404  0.028115229            2 
 1810000   0.96483758   -7.1999433    610.41098  0.028103636    0.0281079            3 
 1811000   0.95692276   -7.2280254    610.21078  0.028078906  0.028100675            3 
 1812000   0.96016128   -7.2192426    608.03242  0.027963227  0.028093341            3 
 1813000   0.97048879   -7.2095698    609.90699  0.028033967  0.028086078            2 
 1814000   0.96967029   -7.2276358    610.97974  0.028067794  0.028078763            4 
 1815000   0.96376374   -7.2347762    610.51955  0.028031201  0.028071563            2 
 1816000   0.99096248   -7.2336775    611.81243  0.028075093  0.028064364            5 
 1817000   0.97086758    -7.227866    610.97124  0.028021062   0.02805719            2 
 1818000   0.96103999   -7.2223942    610.63456  0.027990216   0.02805003            2 
 1819000   0.96333273   -7.2562175    610.61046  0.027973725  0.028042849            3 
 1820000   0.96226827    -7.218621    612.14765  0.028028739  0.028035635            2 
 1821000   0.95538158   -7.2083113    612.30402  0.028020503   0.02802841            2 
 1822000   0.95865518   -7.2024985    613.69834  0.028068896  0.028021315            3 
 1823000   0.93279839   -7.2490427    611.45376  0.027950894  0.028014063            3 
 1824000   0.97084918   -7.2312731      610.672  0.027899854   0.02800686            1 
 1825000   0.95096345   -7.2389948    613.12001  0.027996348  0.027999675            2 
 1826000   0.96828508   -7.1881368     612.0306  0.027931298  0.027992455            2 
 1827000   0.95758832   -7.1893715    614.08205  0.028009581  0.027985296            4 
 1828000   0.94915856   -7.2465732    612.27367  0.027911819  0.027978239            4 
 1829000   0.96941169   -7.2286267    615.01302   0.02802137  0.027971129            4 
 1830000   0.95621814   -7.2314998    613.00689  0.027914704  0.027963967            2 
 1831000   0.94960091   -7.2469354    614.44039    0.0279647  0.027956881            1 
 1832000   0.96654936   -7.2298347    616.01216  0.028020931  0.027949839            1 
 1833000    0.9613974   -7.1688313    616.63481  0.028033952  0.027942799            2 
 1834000   0.96024385   -7.2220107    616.31401   0.02800409  0.027935783            1 
 1835000   0.96019043   -7.1969869    615.38183  0.027946496  0.027928712            2 
 1836000   0.95915845   -7.2168293     616.6185  0.027987405  0.027921715            2 
 1837000   0.95058917   -7.2179787    618.98264  0.028079416  0.027914697            2 
 1838000   0.96077662    -7.196618    616.54075  0.027953425  0.027907766            5 
 1839000   0.95357035   -7.2301726    617.11019  0.027964029  0.027900838            2 
 1840000    0.9643934   -7.2162308    616.50728  0.027921525  0.027893888            2 
 1841000   0.94823347   -7.2203543    617.95534  0.027971906  0.027886877            7 
 1842000   0.94962785   -7.2070426    617.32083  0.027928014  0.027879976            2 
 1843000   0.98485118   -7.1683405    617.80485  0.027934746  0.027873061            4 
 1844000   0.94370248    -7.228578    620.02115  0.028019755  0.027866289            2 
 1845000   0.97083639   -7.2300492     618.6665  0.027943383  0.027859407            3 
 1846000   0.96184826   -7.2106382    620.23889  0.027999227  0.027852637            3 
 1847000    0.9539873   -7.2429388    619.72502  0.027960883  0.027845885            5 
 1848000   0.95842867   -7.2425771    619.61592  0.027940833  0.027839041            4 
 1849000   0.97471272   -7.2027581    620.52297  0.027966602  0.027832223            2 
 1850000   0.95239265   -7.2076537    619.82609  0.027920094  0.027825356            4 
 1851000   0.94931599   -7.1805223    621.13215   0.02796381  0.027818473            2 
 1852000   0.95992131   -7.2107902    620.42232  0.027916771  0.027811648            3 
 1853000   0.96831924   -7.2502658    621.27393  0.027940004  0.027804825            4 
 1854000    0.9641485   -7.2601688    619.60342  0.027849848  0.027797954            2 
 1855000   0.96502214   -7.2285968    621.51824  0.027920856  0.027791097            3 
 1856000   0.94128374   -7.2466577    620.28142  0.027850279   0.02778425            4 
 1857000   0.97007452   -7.2240604    621.88804  0.027907379   0.02777751            3 
 1858000   0.95709476   -7.2193643    622.49458  0.027919563   0.02777075            2 
 1859000   0.94307797   -7.2298186    621.46789  0.027858521  0.027763999            3 
 1860000   0.95694079   -7.2203164    621.48906  0.027844492  0.027757241            2 
 1861000   0.95338749   -7.2450786    621.46637  0.027828514  0.027750405            6 
 1862000   0.95320941   -7.2554842    621.87824  0.027832001  0.027743532            2 
 1863000   0.94067164   -7.2265893    621.27279   0.02778998  0.027736634            7 
 1864000    0.9479445   -7.2005536    623.87264  0.027891302  0.027729772            2 
 1865000   0.96860917   -7.2403044    622.64325  0.027821414  0.027722909            1 
 1866000   0.94260524   -7.2247908    623.54359  0.027846713  0.027716109            3 
 1867000   0.96483063   -7.2405974    623.80914   0.02784365  0.027709326            4 
 1868000   0.92915298   -7.2483896    623.97406  0.027836102  0.027702574            5 
 1869000   0.94412389   -7.2221769     622.6445  0.027761927   0.02769574            2 
 1870000   0.95807561   -7.2354668    623.05679  0.027765454  0.027688805            4 
 1871000   0.96184544   -7.2096197    624.41815  0.027811249  0.027682034            2 
 1872000   0.96919574   -7.2506132     622.9649  0.027731699  0.027675172            6 
 1873000   0.94272043   -7.2254692     624.4373  0.027782403  0.027668427            6 
 1874000   0.95089137   -7.2706576    622.38236  0.027676199  0.027661535            2 
 1875000   0.97111621   -7.1941921    624.92732  0.027774547  0.027654652            3 
 1876000   0.95982981   -7.1996702     627.1553  0.027858711  0.027647852            3 
 1877000   0.94002555   -7.2550292     624.0058   0.02770404  0.027640959            4 
 1878000   0.95310278   -7.2787095    623.94848  0.027686745  0.027634078            2 
 1879000   0.94452507   -7.2668491    623.33341  0.027644732  0.027627183            2 
 1880000   0.93305829   -7.2301398    625.48195  0.027725264  0.027620279            2 
 1881000   0.94070469   -7.2506506     624.6599  0.027674105  0.027613322            1 
 1882000   0.95232573   -7.2484295    624.92537  0.027671155  0.027606322            2 
 1883000   0.94679749   -7.2190007    625.11691  0.027664937   0.02759939            3 
 1884000   0.95054972   -7.2362752    625.42077  0.027663693   0.02759238            3 
 1885000   0.94960919   -7.2603703    625.31468  0.027644327  0.027585377            4 
 1886000   0.94377569   -7.2570518    625.69663  0.027646546  0.027578352            3 
 1887000   0.96234321   -7.2391811    626.19956  0.027654105  0.027571376            1 
 1888000   0.96534565   -7.2516855    625.94203  0.027628091  0.027564389            3 
 1889000   0.95439731   -7.2358605     624.2057  0.027536867  0.027557403            2 
 1890000   0.93474188   -7.2273653    626.85562  0.027639137  0.027550403            1 
 1891000   0.95934319   -7.2570266    627.53562  0.027654487   0.02754352            3 
 1892000   0.96103742   -7.2632854    625.96964  0.027570897  0.027536545            2 
 1893000   0.94784905   -7.2579152     626.8441  0.027594827  0.027529656            2 
 1894000    0.9510675   -7.2257665    627.13311  0.027592974  0.027522724            2 
 1895000   0.94933876   -7.2530119    626.34596  0.027543798  0.027515714            2 
 1896000   0.93103809   -7.2352975    627.61425  0.027585015  0.027508749            2 
 1897000    0.9425339   -7.2399492    629.19138  0.027639755  0.027501741            3 
 1898000   0.93554885   -7.2410096    626.94394  0.027526516  0.027494815            2 
 1899000   0.94342231   -7.2910861    626.02064  0.027471504  0.027487812            2 
 1900000   0.95909975   -7.2634956    628.54812    0.0275679  0.027480772            3 
 1901000   0.93929804   -7.2729892      627.558  0.027509995  0.027473765            2 
 1902000   0.95925954    -7.234799    629.30294  0.027571983  0.027466747            5 
 1903000   0.94652691   -7.2538771    628.99836  0.027544157  0.027459824            3 
 1904000   0.94210234    -7.243659    628.67748  0.027515646  0.027452925            2 
 1905000   0.93988192   -7.2449026    628.56638  0.027496342  0.027446015            4 
 1906000   0.95843855   -7.2383469    628.73295  0.027489199  0.027439083            3 
 1907000   0.91064411   -7.2607943    628.41361  0.027460829  0.027432098            1 
 1908000   0.93057734    -7.256009    627.66384   0.02741369  0.027425045            3 
 1909000   0.97257429   -7.2547974    627.73232  0.027402319  0.027418038            3 
 1910000   0.94046272     -7.26028    628.29024  0.027412314  0.027411014            2 
 1911000   0.94957927   -7.2702354    630.38911  0.027489496  0.027403981            2 
 1912000   0.95783652   -7.2482768    629.59087  0.027440327  0.027396938            4 
 1913000   0.92464847   -7.2580906    628.98341  0.027399521  0.027389877            2 
 1914000   0.93903229   -7.2282856    632.38215  0.027533183   0.02738283            3 
 1915000   0.93970047   -7.2249484    630.65593  0.027443687   0.02737581            1 
 1916000   0.95893479   -7.2629138    629.91884  0.027397305  0.027368794            2 
 1917000   0.93872043   -7.2570028    628.85474  0.027336756  0.027361709            3 
 1918000   0.94298924   -7.2633703    629.61522  0.027355545  0.027354656            2 
 1919000   0.95901889   -7.2702554    630.94684  0.027399116  0.027347584            3 
 1920000   0.94337759   -7.2342773    631.52395  0.027409894   0.02734059            3 
 1921000   0.95664285    -7.286839    630.79582  0.027364039  0.027333632            2 
 1922000   0.95902055   -7.2541522    631.40966  0.027376416  0.027326614            4 
 1923000   0.95519879   -7.2366559    632.01579  0.027388447  0.027319596            2 
 1924000   0.95764093   -7.2263389    630.75622  0.027319656  0.027312653            3 
 1925000   0.93366594   -7.2564445    631.42723  0.027334512  0.027305672            3 
 1926000   0.94672459   -7.2361157    633.75863  0.027421194  0.027298758            4 
 1927000   0.93359872   -7.2308525    634.96147  0.027458981  0.027291896            1 
 1928000   0.93880461   -7.2646269    632.89431   0.02735539  0.027284949            2 
 1929000   0.95378333   -7.2840529    633.39762  0.027362953  0.027277982            2 
 1930000   0.94471857   -7.2521577    633.68309    0.0273611  0.027271023            3 
 1931000   0.94167262   -7.2489109    633.25404  0.027328415  0.027264135            1 
 1932000   0.94803374   -7.2424375    633.53259  0.027326285  0.027257214            2 
 1933000    0.9459347   -7.3044663    633.62783  0.027316254  0.027250295            4 
 1934000   0.93734378   -7.2863993    632.65733  0.027260312  0.027243269            2 
 1935000    0.9381539    -7.237323    635.17177  0.027354512  0.027236291            4 
 1936000    0.9342515   -7.2289336    634.31842  0.027303651  0.027229329            1 
 1937000   0.94568056   -7.2884943    635.54851  0.027342476  0.027222363            2 
 1938000   0.94036181   -7.3082128    634.32612  0.027275805  0.027215393            2 
 1939000   0.95187206   -7.2805005    635.50467  0.027312389  0.027208426            2 
 1940000    0.9396498   -7.2547499    634.84832  0.027270117  0.027201508            3 
 1941000   0.93674511   -7.2587292    635.76245  0.027295314  0.027194546            8 
 1942000   0.94860044   -7.2427921     636.2088  0.027300412  0.027187631            5 
 1943000    0.9394217   -7.2404866    636.24229  0.027287798  0.027180815            3 
 1944000   0.94000526   -7.2528346    635.38808  0.027237143  0.027174057            4 
 1945000   0.95395892   -7.2512533    636.95905  0.027290448  0.027167369            5 
 1946000   0.92505086   -7.2518373    638.02196  0.027321941  0.027160642            4 
 1947000   0.91915707   -7.2664923    638.00972  0.027307384  0.027153771            7 
 1948000   0.94320937   -7.2353929    637.65106  0.027278023  0.027146972            1 
 1949000   0.93053001   -7.2388611    638.23316  0.027288916  0.027140335            2 
 1950000   0.93807309   -7.2672996    637.11702  0.027227223  0.027133648            2 
 1951000   0.93523263   -7.2225462    640.43046  0.027354795  0.027126988            2 
 1952000   0.96347799   -7.2517575    639.02757   0.02728089  0.027120349            2 
 1953000   0.95398664   -7.2703255    638.81997  0.027258063  0.027113694            4 
 1954000   0.93177383   -7.2722206    638.91967  0.027248365  0.027106967            1 
 1955000    0.9485259   -7.2394878    639.47388  0.027258051  0.027100258            7 
 1956000   0.93304544   -7.2788682    638.30405  0.027194276  0.027093586            3 
 1957000   0.94555527   -7.2616547    639.59964  0.027235549  0.027086888            3 
 1958000   0.92867965   -7.2487829    639.27402  0.027207781  0.027080189            2 
 1959000   0.94304218   -7.2473797    639.21511  0.027191386  0.027073481            4 
 1960000   0.92705208   -7.2694504    639.55817  0.027192099  0.027066705            4 
 1961000   0.93359127    -7.271859    640.24115  0.027207256  0.027059993            2 
 1962000   0.94483209   -7.2703151    639.81363  0.027175231  0.027053254            4 
 1963000   0.91689907   -7.2666693    638.13937  0.027090311  0.027046452            3 
 1964000    0.9483064   -7.2826625    639.21841  0.027122302   0.02703959            3 
 1965000   0.93718247   -7.2761451    640.54874  0.027164917  0.027032703            2 
 1966000   0.91744292   -7.2643325    638.86462  0.027079714  0.027025836            4 
 1967000   0.94099755   -7.2948303    639.47346  0.027091741  0.027019013           11 
 1968000   0.93460239   -7.2679766    638.77264  0.027048299  0.027012105            2 
 1969000   0.92303459   -7.2595377     640.1379  0.027092344   0.02700521            1 
 1970000   0.95058656   -7.2860007    640.94842  0.027112877  0.026998434            2 
 1971000   0.92820412   -7.2554416    641.36015  0.027116529  0.026991581            3 
 1972000   0.95259934    -7.245072     640.7204  0.027075744  0.026984683            2 
 1973000   0.94886614   -7.2488396    641.10192  0.027078135  0.026977815            2 
 1974000   0.93715096   -7.2373804    641.81144   0.02709437  0.026970954            1 
 1975000   0.93373866   -7.3005587    642.02682  0.027089739  0.026964085            3 
 1976000   0.93177648   -7.3197238     639.0845  0.026951944   0.02695714            1 
 1977000   0.95292848   -7.2664934    642.33628  0.027075378  0.026950243            3 
 1978000   0.93940216   -7.2581873    642.63329  0.027074203  0.026943408            6 
 1979000   0.94583045   -7.2724395    643.13551   0.02708167   0.02693657            2 
 1980000   0.91718713   -7.2756848    642.24172  0.027030375  0.026929809            3 
 1981000   0.97193437   -7.2945406    640.91836  0.026961062  0.026922989            3 
 1982000   0.94032295   -7.2738264    641.89226  0.026988407  0.026916204            4 
 1983000   0.92239249   -7.3012053     642.0915  0.026983169  0.026909231            3 
 1984000   0.93981178   -7.2678097    641.65341  0.026951168  0.026902262            4 
 1985000     0.930769   -7.3024554     642.3096  0.026965139  0.026895298            2 
 1986000   0.94094855   -7.2794405    642.47739  0.026958602  0.026888281            3 
 1987000   0.94452012   -7.2632591    643.83817  0.027002104  0.026881352            3 
 1988000   0.92529437    -7.277616    642.57133  0.026935418  0.026874442            2 
 1989000   0.92532793   -7.2589941     643.4339  0.026958015  0.026867581            6 
 1990000    0.9343314   -7.2776779    642.00768  0.026884744  0.026860618            3 
 1991000   0.93789974   -7.2606885    643.45751  0.026931923   0.02685369            3 
 1992000   0.94570041    -7.289527    642.74974  0.026888794  0.026846748            2 
 1993000   0.91557902   -7.2576525    643.95816   0.02692583  0.026839822            7 
 1994000   0.93726903   -7.2936291    642.46027  0.026849727  0.026832782            6 
 1995000   0.92484621   -7.2868032    643.26473  0.026869872  0.026825845            3 
 1996000   0.92041208   -7.2797196    642.84402  0.026838845  0.026818894            2 
 1997000    0.9443631   -7.2502307     643.5974  0.026856844  0.026811887            1 
 1998000   0.92387265   -7.3187448    641.77973   0.02676759  0.026804892            4 
 1999000   0.95276262   -7.2732734    643.30239  0.026817675  0.026797945            3 
 2000000   0.92161987   -7.3133792    642.46292  0.026769289  0.026791037            2 
 2001000   0.92955544    -7.275283    646.52509  0.026925083  0.026784129            3 
 2002000   0.90511707   -7.2894248    647.33598  0.026945387  0.026777373            3 
 2003000   0.92517538   -7.2782195    646.25673  0.026887033  0.026770591            5 
 2004000   0.92030217   -7.2727651    646.59462  0.026887667  0.026763819            2 
 2005000   0.93861991    -7.289076    647.01931  0.026891908  0.026757076            1 
 2006000   0.93584572    -7.266674    645.82878  0.026829046  0.026750397            2 
 2007000   0.92965894   -7.2680753    647.39864   0.02688086  0.026743653            3 
 2008000   0.93167763   -7.2304923    648.59552  0.026917145  0.026736972            5 
 2009000   0.94686764    -7.300341    647.36888  0.026852865  0.026730228            3 
 2010000   0.93184964   -7.2756656    646.32532   0.02679624  0.026723495            2 
 2011000   0.93700129    -7.310096    646.70463  0.026798634  0.026716709            3 
 2012000    0.9357642   -7.2911676    647.22472  0.026806855  0.026709929            3 
 2013000   0.92253892   -7.2947498    647.70966  0.026813614  0.026703215            3 
 2014000   0.93287605   -7.2902864    648.62376  0.026838123  0.026696437            2 
 2015000   0.92493913   -7.2725805    647.93252  0.026796217  0.026689774            8 
 2016000   0.95104057    -7.295414    649.26522  0.026838013  0.026683176            2 
 2017000   0.91875278   -7.2587332    648.79496  0.026805278  0.026676486            2 
 2018000   0.93124026   -7.2445762    650.34926   0.02685618  0.026669788            2 
 2019000   0.93613352   -7.3200095    649.70938  0.026816468  0.026663095            5 
 2020000   0.94022109   -7.2877403    648.59438  0.026757194  0.026656358            2 
 2021000   0.92824793    -7.253394    649.15489  0.026767066  0.026649596            4 
 2022000   0.92811326   -7.2833594    649.43613  0.026765419  0.026642895            5 
 2023000   0.94198358   -7.2863885    649.07272  0.026737219   0.02663619            4 
 2024000   0.92699786   -7.3035316    649.26303  0.026731844  0.026629429            2 
 2025000   0.90512626   -7.3061685    650.19628  0.026757049  0.026622695            3 
 2026000   0.93033373   -7.2763343    650.41271  0.026752744  0.026616092            3 
 2027000   0.93251069   -7.3350035    650.95789  0.026761959  0.026609456            7 
 2028000   0.92365584   -7.2910768    649.97315  0.026708299  0.026602802            3 
 2029000   0.93338375   -7.2836404    652.39797  0.026794725  0.026596176            2 
 2030000   0.92462875   -7.2627396    653.96235  0.026845745  0.026589616            9 
 2031000   0.92570791   -7.2438454    652.08175  0.026755365  0.026583139            3 
 2032000   0.94139092   -7.2678314    653.11328  0.026784501  0.026576593            3 
 2033000   0.91856975   -7.2969757    652.26927   0.02673673  0.026570003            2 
 2034000   0.93429803   -7.3028764    654.28529  0.026806182  0.026563399            2 
 2035000   0.93334858    -7.305684    652.34499  0.026713554  0.026556775            2 
 2036000   0.93946984   -7.3042138    653.08162  0.026730584  0.026550182            4 
 2037000   0.92731492    -7.311278    653.75979  0.026745205  0.026543665            2 
 2038000   0.94064577   -7.2921276     653.9711  0.026740722  0.026537179            2 
 2039000   0.94153417   -7.2786494    655.00038  0.026769674  0.026530698            2 
 2040000   0.93188018   -7.3240687    655.05641   0.02675884  0.026524188            2 
 2041000   0.92684669   -7.3083549    654.99753  0.026743326  0.026517797            2 
 2042000   0.91216003   -7.3078675    654.58154  0.026713253  0.026511368            2 
 2043000   0.91028819   -7.2856421    656.90001  0.026794747  0.026504896            1 
 2044000   0.93253372   -7.2877239    654.10521  0.026667695  0.026498458            1 
 2045000   0.92978324   -7.3358222    654.18641  0.026657963  0.026492004            4 
 2046000   0.93713692   -7.2864459    657.67659  0.026787088  0.026485577            3 
 2047000   0.92192734    -7.293106     654.9987  0.026664985  0.026479191            1 
 2048000    0.9403454   -7.3271366    656.45104  0.026711061  0.026472805            2 
 2049000   0.92150492   -7.2659735    656.80008  0.026712221  0.026466409            3 
 2050000   0.93744038   -7.2799808    658.08483  0.026751416  0.026459977            2 
 2051000   0.91294721   -7.2672429    657.36153  0.026708985   0.02645363            1 
 2052000   0.92399234   -7.2939655    657.70441  0.026709893  0.026447323            1 
 2053000   0.93880249   -7.3250236    656.60699  0.026652338  0.026440964            2 
 2054000   0.95440086   -7.3015427    658.48019   0.02671536  0.026434569            6 
 2055000   0.91429354   -7.2994448    656.35898  0.026616342  0.026428161            2 
 2056000   0.91485688   -7.3165505    656.50792  0.026609432  0.026421761            5 
 2057000   0.90527224   -7.3144616    656.64519  0.026602058  0.026415262            7 
 2058000   0.93952788   -7.3081533    657.33966  0.026617252  0.026408794            3 
 2059000   0.94146044   -7.2564554    657.21137  0.026599133  0.026402273            4 
 2060000   0.90917447   -7.2895864    658.40456  0.026634489  0.026395943            1 
 2061000   0.92612129   -7.3042107    657.29343  0.026576639    0.0263895            3 
 2062000   0.92101584   -7.3046459    657.23337  0.026561323  0.026383144            4 
 2063000   0.91394608    -7.325129    656.58736  0.026522353  0.026376679            5 
 2064000   0.92235275   -7.3230923    658.12199  0.026571463  0.026370137            2 
 2065000     0.941391   -7.3168788    657.79863  0.026545546  0.026363652            5 
 2066000   0.92916744   -7.2825124    659.27919  0.026592416  0.026357245            2 
 2067000   0.89324189   -7.3083477    658.65581  0.026554419  0.026350808            4 
 2068000   0.92659942   -7.3351203    659.19234  0.026563199  0.026344255            3 
 2069000   0.90808686   -7.2872126    657.94162  0.026499985  0.026337733            3 
 2070000   0.91409085   -7.2744535     660.0753   0.02657308  0.026331255            2 
 2071000   0.90392355    -7.307421    657.79314  0.026468418  0.026324723            4 
 2072000   0.91289505   -7.2943562    658.76764  0.026494838   0.02631821            2 
 2073000   0.90846439   -7.2893217    659.15371  0.026497576  0.026311663            4 
 2074000   0.92446945   -7.2985996    659.61579  0.026503367  0.026305149            1 
 2075000   0.91379721   -7.2818997    659.47913  0.026485106  0.026298668            2 
 2076000   0.90534048   -7.2953142    659.72024  0.026482026  0.026292154            4 
 2077000   0.91911739   -7.3202152    659.49201  0.026460119  0.026285579            2 
 2078000   0.91497886   -7.3350263    658.06274  0.026390068  0.026278905            6 
 2079000    0.9126692   -7.3136989    660.16547  0.026461659  0.026272287            2 
 2080000   0.89673508   -7.2715296    661.07214  0.026485262  0.026265738            2 
 2081000   0.92332676   -7.2608445    661.62696  0.026494753   0.02625918            3 
 2082000   0.91743636   -7.3340214     656.9737  0.026295777  0.026252563            3 
 2083000   0.91662843   -7.3343505    659.81163  0.026396689  0.026245942            2 
 2084000   0.92997107   -7.3486139    659.14757  0.026357469  0.026239304            2 
 2085000   0.92665413   -7.3153673    660.91213  0.026415353  0.026232767            2 
 2086000   0.90018715   -7.3142724    661.87749  0.026441255  0.026226138            2 
 2087000   0.91954916   -7.2942868    659.37848  0.026328801  0.026219522            2 
 2088000   0.91761198   -7.3095242    660.91959  0.026377698   0.02621292            2 
 2089000   0.91420858   -7.3302465    659.00319  0.026288622  0.026206307            2 
 2090000   0.92357308   -7.3229192      661.727  0.026384649   0.02619965            3 
 2091000   0.91732097   -7.3251572    661.70523  0.026371163  0.026193118            5 
 2092000   0.94273836   -7.3420049    660.37233  0.026305463  0.026186467            6 
 2093000   0.91559197   -7.3048879    659.88759  0.026273594  0.026179752            2 
 2094000   0.91703643   -7.3392606    661.17842  0.026312417   0.02617301            3 
 2095000   0.94546259    -7.355106    660.06921  0.026255736  0.026166327            2 
 2096000   0.90751291    -7.301539    662.36901  0.026334646  0.026159679            3 
 2097000    0.8856082   -7.3184556    662.02654  0.026308478  0.026153009            1 
 2098000   0.91323457   -7.2935508    663.03718  0.026336081  0.026146322            2 
 2099000   0.91772681   -7.3542006    662.54238   0.02630389  0.026139604            1 
 2100000   0.90339995   -7.3355468    661.04509  0.026231948  0.026132909            2 
 2101000   0.92584108   -7.3134676    664.19817  0.026344525  0.026126311            3 
 2102000   0.93570849   -7.3186813     662.9093  0.026280895   0.02611976            2 
 2103000   0.91721319   -7.3071916    663.87025  0.026306477  0.026113224            3 
 2104000   0.92791169    -7.308093    663.63325  0.026284587  0.026106646            3 
 2105000   0.89403247   -7.3062691      663.274  0.026257878  0.026100098            8 
 2106000   0.93677532   -7.3401276     664.3472  0.026287876  0.026093545            4 
 2107000    0.9063471   -7.2830056    664.42415  0.026278443  0.026087064            3 
 2108000   0.93274075   -7.2739876    665.36685  0.026303244  0.026080592            3 
 2109000   0.92077508   -7.2994428    665.46604  0.026294691   0.02607407            2 
 2110000   0.92755721   -7.3405343     665.3454  0.026277465   0.02606758            2 
 2111000   0.90362313   -7.3266958    664.74347  0.026241255  0.026061004           11 
 2112000   0.91345562   -7.3541378    663.90791  0.026195861  0.026054405            2 
 2113000    0.9159078    -7.290356    664.80478  0.026218835  0.026047858            3 
 2114000   0.91428387   -7.2793752    667.50222  0.026312765  0.026041362            3 
 2115000   0.90893766   -7.3052759    667.66035  0.026306554  0.026034886            2 
 2116000   0.89812146   -7.2948368    664.88933  0.026184992   0.02602841            2 
 2117000   0.91604355   -7.2962376    667.04741  0.026257574  0.026021914            2 
 2118000   0.92554444   -7.3127168    664.46668  0.026143637  0.026015383            6 
 2119000   0.91144862   -7.3624883    665.98284  0.026190925  0.026008923            3 
 2120000   0.90883729   -7.2894017    667.21818   0.02622713  0.026002431            2 
 2121000   0.94202746   -7.2906275     668.6269  0.026270112  0.025995995            2 
 2122000   0.90123672     -7.33158    666.44468  0.026172034    0.0259895            5 
 2123000    0.9184617   -7.3467851    665.51143  0.026123074  0.025982913            3 
 2124000   0.90187689   -7.3341165    666.35412  0.026143837  0.025976358            3 
 2125000   0.92026538   -7.3020657    669.21259  0.026243631  0.025969852            3 
 2126000   0.89985101   -7.3396449    665.37429  0.026080836  0.025963339            3 
 2127000   0.90319521   -7.3254166    667.01424  0.026132826  0.025956799            2 
 2128000   0.92106476   -7.3381121    665.50266  0.026061351  0.025950259            6 
 2129000   0.91269242   -7.3462481    666.05201  0.026070613  0.025943679            3 
 2130000   0.89683562   -7.3306108    667.91174  0.026131132  0.025937162            4 
 2131000   0.92110569   -7.2709909    669.09836  0.026165273  0.025930703            2 
 2132000   0.91087169   -7.3269511    667.76275  0.026100795  0.025924232            4 
 2133000   0.90572647   -7.2989657    668.91172  0.026133448  0.025917703            3 
 2134000    0.9009356   -7.3520879    667.66247  0.026072418  0.025911197            3 
 2135000   0.91129942   -7.3602096    666.80683  0.026026809  0.025904598            2 
 2136000   0.92294865   -7.3464417    668.75444  0.026090607  0.025898009            2 
 2137000   0.93642131   -7.2882357     669.3626  0.026102114  0.025891411            4 
 2138000   0.89650278   -7.3399455     670.1812  0.026121811  0.025884893            4 
 2139000   0.89870235   -7.3156062    669.41874  0.026079895  0.025878336            3 
 2140000   0.91060541   -7.3219213    668.32619  0.026025163   0.02587176            1 
 2141000   0.88036917   -7.3098409    669.68332  0.026065831  0.025865212            4 
 2142000    0.9183234   -7.3336271    669.77961  0.026057408  0.025858686            3 
 2143000   0.92283205   -7.3110335    670.57961  0.026076357  0.025852182            2 
 2144000   0.90867577   -7.3217318    670.30772  0.026053627  0.025845685            3 
 2145000   0.90861783   -7.3233887    669.05847  0.025992947   0.02583911            3 
 2146000   0.89923216   -7.3462521    669.23469  0.025987678  0.025832592            4 
 2147000   0.91131821    -7.358111     671.7941  0.026074915  0.025826105            2 
 2148000   0.90626265   -7.3275701    670.82781  0.026025288   0.02581961            5 
 2149000   0.90659228   -7.3345228    671.50735  0.026039528  0.025813183            2 
 2150000   0.91695491   -7.3609265    670.93248  0.026005135  0.025806715            1 
 2151000   0.91672453    -7.361507    671.31118  0.026007717  0.025800124            1 
 2152000   0.89458835   -7.3595554    669.44598  0.025923404  0.025793558            4 
 2153000   0.90867854     -7.36209    670.27582  0.025943483  0.025787028            7 
 2154000   0.91544039   -7.3345531    669.34523  0.025895436  0.025780462            5 
 2155000   0.90895807   -7.3088018    672.28396   0.02599706  0.025773932            4 
 2156000   0.91359009   -7.3312065    670.72191  0.025924626  0.025767423            4 
 2157000   0.91412212   -7.3174445    671.35764  0.025937167  0.025760923            4 
 2158000   0.88059362   -7.3607072    671.43807  0.025928254    0.0257543            3 
 2159000   0.91013858   -7.3246517    673.34129  0.025989705  0.025747698            3 
 2160000   0.87469611   -7.3286306    673.77277   0.02599432  0.025741215            2 
 2161000   0.89200752   -7.3244126    672.44165   0.02593096  0.025734707            2 
 2162000   0.91254783   -7.3477249    671.82175  0.025895072   0.02572817            3 
 2163000   0.90878593   -7.3479264    673.13565   0.02593372  0.025721634            2 
 2164000   0.90761521   -7.3239582    672.69983  0.025904954   0.02571507            3 
 2165000   0.89402234   -7.3157344    672.75942  0.025895282  0.025708527            2 
 2166000    0.9107989   -7.3337432    673.09319  0.025896168  0.025701903            5 
 2167000   0.89686606   -7.3487452    671.11519  0.025808152  0.025695298            3 
 2168000   0.92553488   -7.3143219    672.52461  0.025850423   0.02568868            2 
 2169000   0.92092771   -7.3201614    673.17051  0.025863321  0.025682089            6 
 2170000   0.89066007   -7.3138061    674.40618  0.025898855  0.025675566            2 
 2171000   0.90113388   -7.3225536    674.04278  0.025872976  0.025669009            2 
 2172000    0.8946175   -7.3589534    671.22452  0.025752936  0.025662448            4 
 2173000   0.91671618   -7.3122932    674.71261  0.025874851  0.025655892            2 
 2174000   0.90609836   -7.3443701    673.90635  0.025832043  0.025649282            3 
 2175000    0.9132259   -7.3173019    674.96205  0.025860615  0.025642667            4 
 2176000   0.89250406    -7.329311    674.55575   0.02583317   0.02563608            1 
 2177000    0.8903644   -7.3357363    675.05776  0.025840521  0.025629576            7 
 2178000   0.91133976    -7.318442    674.82561  0.025819774  0.025623036            3 
 2179000   0.92639248   -7.3241333    676.02083  0.025853634  0.025616525            2 
 2180000   0.91623369   -7.3698263    674.32837  0.025777078  0.025610062            3 
 2181000   0.89873595   -7.3263041    676.55975  0.025850518  0.025603566            3 
 2182000     0.913282   -7.3874392    675.53679  0.025799602  0.025597066            4 
 2183000    0.9134198   -7.3500242    675.98844  0.025805025  0.025590574            3 
 2184000   0.90734567   -7.3236407    675.35282  0.025768957  0.025584084            1 
 2185000   0.91361807   -7.3254222    676.62349  0.025805625  0.025577666            6 
 2186000   0.92991641   -7.3346552    675.62174  0.025755632  0.025571129            2 
 2187000   0.91360364   -7.3385623    676.26147  0.025768232  0.025564562            3 
 2188000    0.8806702   -7.3587546    675.67386  0.025734074  0.025558051            3 
 2189000    0.8932101   -7.3544435    676.07869   0.02573773  0.025551566            3 
 2190000   0.89721309    -7.335836    676.69073  0.025749267  0.025544985            3 
 2191000    0.9007468   -7.3385452    679.22578  0.025833934  0.025538525            4 
 2192000    0.8935792   -7.3614886    675.26331  0.025671507  0.025532069            2 
 2193000   0.91252306   -7.3294151    678.78373  0.025793575  0.025525658            4 
 2194000   0.91637724   -7.3280759    679.27296  0.025800401  0.025519237            3 
 2195000   0.90070166   -7.3772443    677.06436  0.025704797  0.025512858            3 
 2196000   0.90473222   -7.3325598    677.38523  0.025705268  0.025506398            3 
 2197000    0.8846329    -7.342706    679.63112  0.025778756  0.025499972            1 
 2198000   0.89922004   -7.3779235    676.62911  0.025653212  0.025493535            2 
 2199000   0.90138383   -7.3727734    678.40007  0.025708658  0.025487026            3 
 2200000   0.89440899   -7.3575529    678.33051  0.025694337  0.025480608            2 
 2201000   0.89096181   -7.3335844    679.06155  0.025710342  0.025474143            2 
 2202000   0.91512146   -7.3548679    679.85971  0.025728872   0.02546772            5 
 2203000   0.90155644   -7.3659985     678.3856  0.025661431  0.025461293            5 
 2204000   0.89424747   -7.3434914    679.30639  0.025684603  0.025454875            2 
 2205000   0.88504826   -7.3279032    680.95888  0.025735407  0.025448468            4 
 2206000   0.88096481   -7.3515786    678.89318  0.025645708  0.025442037            1 
 2207000   0.90018317    -7.316123    680.23838  0.025684881  0.025435652            5 
 2208000   0.90373029     -7.35494    680.67144  0.025689593  0.025429328            3 
 2209000   0.87873332   -7.3397571    679.74581  0.025643044  0.025422977            3 
 2210000    0.8822126   -7.3341607    681.47626  0.025696692  0.025416549            2 
 2211000   0.88977468   -7.3649711    680.16582  0.025635678  0.025410164            3 
 2212000   0.89178938   -7.3441075    684.02293  0.025769399  0.025403811            2 
 2213000   0.90037029   -7.3616809     681.9594   0.02568005  0.025397462            6 
 2214000   0.90729678   -7.3273092    682.09036   0.02567338  0.025391138            3 
 2215000   0.90441813   -7.3772406    681.37326   0.02563481  0.025384785            2 
 2216000    0.8762428    -7.341205     682.4962  0.025665471   0.02537848            3 
 2217000   0.90158567   -7.3501158    683.49101  0.025691287  0.025372124            2 
 2218000   0.90306459   -7.3431074    680.82016  0.025579357  0.025365787            2 
 2219000     0.903536    -7.342468    682.02066  0.025612913  0.025359419            2 
 2220000   0.89129323   -7.3487244    681.47357   0.02558084  0.025353082            1 
 2221000   0.89627871   -7.3639391    680.62627  0.025537531  0.025346736            7 
 2222000   0.90251936   -7.3394652    682.20981  0.025585427   0.02534042            5 
 2223000   0.90650892   -7.3075736    684.59545  0.025663347  0.025334178            2 
 2224000   0.89447035   -7.3375069    683.75157  0.025620188  0.025327873            1 
 2225000    0.8933891   -7.3759878    683.37516  0.025594575  0.025321522            5 
 2226000   0.89245243   -7.3499624    681.91346  0.025528357  0.025315222            3 
 2227000   0.90846185   -7.3716513    682.92881  0.025554887  0.025308945            3 
 2228000   0.87491088   -7.3654544    683.71018  0.025572643  0.025302685            4 
 2229000   0.88781529   -7.3705439    682.44023  0.025513692  0.025296448            2 
 2230000   0.90055866   -7.3768118    686.29669  0.025646364  0.025290205            3 
 2231000    0.9064911   -7.3534414    685.13278  0.025591393  0.025283962            3 
 2232000   0.90914889   -7.3635563    684.81451  0.025568045   0.02527769            5 
 2233000   0.89720485   -7.3947649    683.29219  0.025499783  0.025271431            3 
 2234000   0.91379614   -7.3850621    684.44262  0.025531282  0.025265145            2 
 2235000   0.89766605   -7.3740885    684.78987  0.025532806  0.025258859            3 
 2236000   0.90655911   -7.3390509    685.71069  0.025555705  0.025252592            2 
 2237000    0.9208508   -7.3583013    684.98944  0.025517413  0.025246345            2 
 2238000   0.88768339   -7.3431429    685.19991  0.025513848  0.025240095            6 
 2239000   0.89023094   -7.3911169    685.98974   0.02553185  0.025233909            2 
 2240000   0.90250101   -7.3569322    687.40543  0.025573119  0.025227724            5 
 2241000   0.90086741   -7.3790641    685.42549  0.025488082  0.025221524            2 
 2242000   0.88323542   -7.3902682    686.58788  0.025519918  0.025215301            4 
 2243000   0.89383938   -7.3494783    685.61377   0.02547235   0.02520906            4 
 2244000   0.90782265   -7.3495666    686.64907  0.025499445  0.025202872            3 
 2245000   0.89014773     -7.35836    688.62906  0.025561584  0.025196703            4 
 2246000   0.88452856   -7.3868602    686.67739   0.02547779  0.025190546            2 
 2247000   0.89358058   -7.3404622    689.20961  0.025560362  0.025184376            2 
 2248000   0.90169611   -7.3557779    686.47907  0.025447771  0.025178178            2 
 2249000   0.87895227   -7.3529508    686.71963  0.025445369  0.025171956            3 
 2250000   0.88904712   -7.3380111     688.7148  0.025507955  0.025165795            2 
 2251000   0.88862393   -7.3489656    689.63012  0.025530509  0.025159703            5 
 2252000   0.88790613   -7.3615104    689.21254   0.02550372  0.025153618            2 
 2253000   0.88779298    -7.332109    688.30135  0.025458698  0.025147576            3 
 2254000   0.87799371   -7.3534987    689.05475  0.025475257   0.02514149            2 
 2255000   0.90044484   -7.3764185    688.31932  0.025436782  0.025135397            2 
 2256000     0.887645   -7.3634753    690.17529  0.025494064   0.02512929            4 
 2257000   0.92225299   -7.3774756    688.50125  0.025420959  0.025123106            3 
 2258000   0.89067847   -7.3914651    689.52935  0.025447644  0.025116952            3 
 2259000   0.89067907   -7.3812791     689.0621  0.025419142  0.025110784            2 
 2260000   0.89577487   -7.3526837    690.23664  0.025451204  0.025104694            2 
 2261000   0.88077043   -7.3884668    688.34878  0.025370366   0.02509859            7 
 2262000   0.89290409   -7.3597631    688.71942  0.025372805  0.025092497            2 
 2263000    0.8915629   -7.4016854    689.91909   0.02540577  0.025086361            3 
 2264000   0.89043707   -7.3889335    689.34691  0.025373488  0.025080162            7 
 2265000   0.89048055   -7.3470817    688.23515  0.025321381  0.025074016            3 
 2266000   0.88945425   -7.3538858    690.93986  0.025409674  0.025067885            2 
 2267000   0.90446623   -7.3537642    691.94384  0.025435371  0.025061745            3 
 2268000   0.87048828   -7.3972893    689.94598  0.025350749  0.025055568            5 
 2269000   0.89177007   -7.3769942    690.58276  0.025362963  0.025049402            2 
 2270000   0.86415281   -7.3786253    689.77729  0.025322221  0.025043249            2 
 2271000   0.89206876   -7.3562183    691.18842  0.025362851  0.025037088            2 
 2272000       0.8835    -7.356616    692.92581  0.025415412  0.025031044            2 
 2273000   0.89527781   -7.3938371     688.6359  0.025246953  0.025024941            4 
 2274000   0.87321092   -7.3887912    691.16301   0.02532846  0.025018829            3 
 2275000   0.88273677   -7.4016478    694.05207  0.025423153   0.02501277            1 
 2276000   0.90085901   -7.4019825    690.95998  0.025298769  0.025006628            3 
 2277000   0.87405792   -7.3775301    694.16459   0.02540494  0.025000548            2 
 2278000   0.87941598   -7.3748061      691.618  0.025300629  0.024994459            4 
 2279000   0.88873276   -7.4095755    691.30662  0.025278142  0.024988359            3 
 2280000   0.88350367   -7.3828028    691.00576  0.025256059  0.024982151            5 
 2281000   0.89512253   -7.3748654    692.57094  0.025302168  0.024976044            2 
 2282000   0.90466728   -7.3903819    692.82283  0.025300279  0.024969923            2 
 2283000   0.87415249   -7.3715489     694.2718  0.025342086  0.024963853            2 
 2284000   0.89934489   -7.3918233    693.64434  0.025308098  0.024957835            4 
 2285000   0.90058723   -7.3702729    694.72291  0.025336357  0.024951788            2 
 2286000    0.9064392    -7.404253    692.21418  0.025233821   0.02494573            1 
 2287000   0.89397612   -7.3566582    693.46056  0.025268203  0.024939599            2 
 2288000    0.8740616   -7.3778795    693.80065  0.025269546  0.024933525            2 
 2289000    0.8917654   -7.3518502    696.43161  0.025354289   0.02492749            3 
 2290000   0.88759224   -7.3392371    695.39797  0.025305603  0.024921463            3 
 2291000   0.88786664   -7.4203406    693.68196  0.025232139  0.024915416            4 
 2292000   0.89097714   -7.3803437    693.26895  0.025206114  0.024909373            9 
 2293000   0.88029634   -7.3596499    694.84483  0.025252392   0.02490334            5 
 2294000   0.87450641   -7.4124428    695.08148  0.025249981  0.024897275            2 
 2295000   0.88877532   -7.3964735     695.4896  0.025253798  0.024891208            3 
 2296000   0.87930446   -7.4020425    695.91817  0.025258354  0.024885178            2 
 2297000   0.88233229   -7.3780582    695.58311  0.025235202   0.02487914            3 
 2298000   0.88322763   -7.3628382     696.6127  0.025261557  0.024873121            2 
 2299000    0.8876559   -7.3464509    696.81526  0.025257911  0.024867127            3 
 2300000     0.887212   -7.3529964    695.75144  0.025208386  0.024861073            1 
 2301000   0.90789543    -7.388864    696.92104  0.025239789  0.024855039            2 
 2302000   0.88839783   -7.3973673    696.98748   0.02523123  0.024849021            3 
 2303000   0.90506245   -7.4261131    694.29912  0.025122996  0.024842891            3 
 2304000   0.86200828   -7.4151445    696.35212  0.025186347  0.024836771            2 
 2305000   0.89870039   -7.3711477    695.58651  0.025147741  0.024830709            2 
 2306000    0.8695407   -7.3818519    695.23327   0.02512407  0.024824592            2 
 2307000   0.88219882   -7.3895411    695.63029  0.025127521  0.024818479            3 
 2308000   0.87648828   -7.4003104      695.956  0.025128394  0.024812414            2 
 2309000    0.8917413   -7.3834144    698.46107  0.025207921   0.02480634            5 
 2310000   0.88175488    -7.398484     696.4822   0.02512562    0.0248003            1 
 2311000   0.88337062   -7.3796308    697.52233  0.025152255  0.024794247            3 
 2312000   0.90444011   -7.3843808    697.72615  0.025148722  0.024788184            3 
 2313000   0.90332966    -7.395817    695.43981  0.025055477  0.024782103            3 
 2314000   0.87651137   -7.3716513    698.74935  0.025163834  0.024776079            1 
 2315000   0.86947131   -7.4048781    698.18146  0.025132522   0.02477004            1 
 2316000   0.88045401   -7.3830626    697.62878  0.025101784  0.024763991            4 
 2317000   0.84183622   -7.3934686    697.42208  0.025083516  0.024757927            3 
 2318000   0.90704577   -7.3782135    698.65711  0.025117095  0.024751922            1 
 2319000   0.87219578   -7.4229152     698.3041  0.025093578  0.024745883            4 
 2320000   0.87440207   -7.3714246    696.36551  0.025013129  0.024739855            3 
 2321000   0.89393823   -7.3964014    697.52908  0.025044129  0.024733779            3 
 2322000    0.8982365   -7.3734919    698.20267  0.025057518  0.024727709            4 
 2323000   0.86788313   -7.4114959    697.57394  0.025024176  0.024721604            4 
 2324000   0.86937542   -7.3529485    697.62057  0.025015081  0.024715476            1 
 2325000   0.87606496   -7.3626209    698.64376  0.025040995  0.024709357            2 
 2326000   0.89544713   -7.3687988    699.53197  0.025062051  0.024703226           10 
 2327000   0.86361215   -7.3923774    697.85987  0.024991401  0.024697106            4 
 2328000   0.87872281   -7.3896522    697.28043  0.024959924  0.024690975            2 
 2329000   0.86755557   -7.3820923    698.16395   0.02498082  0.024684828            4 
 2330000   0.86936323   -7.4059349    698.48714  0.024981657  0.024678682            2 
 2331000   0.87409667   -7.3761622    699.01256  0.024989724  0.024672547            1 
 2332000   0.87405125    -7.406848    699.77003  0.025006076  0.024666425            4 
 2333000   0.86490356   -7.4060689    697.89231  0.024928287   0.02466024            2 
 2334000   0.85686387   -7.3850973    700.31792   0.02500421  0.024654084            6 
 2335000   0.86726001   -7.4052984    699.21117  0.024954003  0.024647956            2 
 2336000   0.89282125   -7.3999602    699.52988  0.024954691  0.024641724            2 
 2337000   0.86765303   -7.4249538    699.71429  0.024950588  0.024635497            3 
 2338000   0.88820117   -7.4061759    698.90718  0.024911148  0.024629271            2 
 2339000   0.89327648   -7.4374356    699.80711   0.02493256  0.024623039            3 
 2340000   0.86958094   -7.3633645    699.54057  0.024912414  0.024616856            2 
 2341000   0.87828256   -7.3793394     700.3702  0.024931304  0.024610695            4 
 2342000   0.87134012   -7.3554433    699.33418  0.024883795  0.024604516            5 
 2343000   0.86401004   -7.4045188    700.34534  0.024909139   0.02459836            5 
 2344000   0.88784549   -7.4021234    701.01411  0.024922288  0.024592199            3 
 2345000   0.86546764   -7.3825295    700.80998  0.024904406  0.024586016            3 
 2346000   0.86970895    -7.440915    701.21287  0.024908102  0.024579758            3 
 2347000   0.86122478   -7.4595042    698.25073  0.024792314  0.024573422            5 
 2348000   0.88166462    -7.399756      697.522  0.024755892   0.02456715            7 
 2349000   0.87490424   -7.4236421    700.10846   0.02483711  0.024560864            2 
 2350000   0.86822342   -7.3804812    700.44229  0.024838379  0.024554617            1 
 2351000   0.89010602   -7.4011319    700.90904  0.024844359   0.02454843            3 
 2352000   0.85229698   -7.3869073    700.67219  0.024825404  0.024542223            4 
 2353000   0.88103763   -7.4228525    700.38255  0.024804595  0.024536046            2 
 2354000    0.8798373   -7.3783098    704.09891   0.02492562  0.024529837           12 
 2355000   0.88843472   -7.4043722    702.32681  0.024852329  0.024523688            3 
 2356000   0.87860759   -7.3954855    699.68197   0.02474823  0.024517456            4 
 2357000   0.86237355   -7.4149047    701.77839  0.024811851  0.024511267            1 
 2358000   0.86122559    -7.422421    702.89544  0.024840806  0.024505085            2 
 2359000   0.87090386   -7.3863423    701.20913  0.024770706  0.024498899            6 
 2360000    0.8729786   -7.4218016    703.07252  0.024826007  0.024492728            4 
 2361000   0.88605149   -7.4306839    701.34077  0.024754369   0.02448655            5 
 2362000   0.89419003   -7.4044452    701.12866  0.024736405   0.02448039            2 
 2363000   0.87781749   -7.3788823     702.9129   0.02478886  0.024474266            3 
 2364000   0.87823054   -7.4081511    702.00501   0.02474637  0.024468114            2 
 2365000   0.89702017   -7.4366559    703.21682  0.024778605  0.024461974            2 
 2366000    0.8700106   -7.3916672    703.66294  0.024783845  0.024455872            2 
 2367000   0.85784059    -7.404588    702.67111  0.024738456  0.024449755            4 
 2368000   0.87619998   -7.3993698    704.70965  0.024799749  0.024443599            2 
 2369000    0.8611343    -7.445478    704.03307   0.02476548  0.024437453            6 
 2370000   0.88463051   -7.4131236    703.23303    0.0247269  0.024431312           11 
 2371000   0.88120059   -7.4284909    701.42629  0.024652969  0.024425121            4 
 2372000   0.88704015   -7.4346207    702.56814  0.024682692  0.024418928            4 
 2373000   0.88648186   -7.4348682    702.75334  0.024678794  0.024412743            5 
 2374000   0.87686604   -7.3903528    702.90652  0.024673776  0.024406557            4 
 2375000   0.88237714   -7.4426302    704.22151  0.024709527  0.024400354            2 
 2376000   0.85810033   -7.4178299    704.43418  0.024706586  0.024394169            3 
 2377000    0.8674024   -7.4002614    704.46265   0.02469719  0.024388027            5 
 2378000    0.8887869   -7.4283622    704.16383  0.024676333  0.024381901            2 
 2379000   0.87208285   -7.4197072    702.43244  0.024605312  0.024375753            3 
 2380000    0.8710226   -7.4152884    706.09082  0.024723068  0.024369614            2 
 2381000    0.8711229    -7.416628     704.6372  0.024661809   0.02436352            4 
 2382000   0.87400771   -7.4050221    707.16395  0.024739853  0.024357407            3 
 2383000   0.87364019   -7.3715041    705.83784  0.024683097  0.024351332            3 
 2384000   0.88356869   -7.4270703    705.50283  0.024661033  0.024345247            3 
 2385000   0.87412094   -7.4112916    705.89016  0.024664226  0.024339103            4 
 2386000   0.86905849   -7.3912635    704.21125  0.024595252  0.024333002            2 
 2387000   0.84636176   -7.4141292    703.54472  0.024561679  0.024326833            2 
 2388000   0.87228863   -7.4007276    706.86285  0.024667185  0.024320624            4 
 2389000   0.87475344   -7.4345419    705.67617  0.024615466  0.024314486            2 
 2390000     0.864866   -7.4059749    705.96018  0.024615069  0.024308306            2 
 2391000   0.85961687   -7.4105108    706.11076  0.024610022  0.024302107            3 
 2392000   0.87557933   -7.4234446    706.44512  0.024611382   0.02429588            2 
 2393000   0.86155725   -7.4295713    705.68637  0.024574675  0.024289698            1 
 2394000   0.86781343   -7.4144821    707.53325  0.024628698   0.02428348            2 
 2395000   0.86379509    -7.417685    707.08842  0.024602937  0.024277291            2 
 2396000    0.8677532   -7.4145214    705.08067  0.024522839  0.024271051            2 
 2397000    0.8610951    -7.428265    705.67516  0.024533276  0.024264807            3 
 2398000   0.87987154   -7.4173077    707.43216  0.024584103  0.024258622            2 
 2399000   0.87799449   -7.4231969      706.069  0.024526504  0.024252417            2 
 2400000   0.86288683   -7.4064956    707.87437  0.024578971  0.024246183            2 
 2401000   0.90153976   -7.4280211    706.92145   0.02453566  0.024239982            2 
 2402000    0.8877659    -7.429231    707.10231   0.02453172  0.024233839            1 
 2403000    0.8666945   -7.3925137    707.68674  0.024541779  0.024227619            3 
 2404000   0.88533186   -7.4261329    709.15672  0.024582526  0.024221438            6 
 2405000    0.8719185    -7.411579    704.96677  0.024427123  0.024215166            6 
 2406000   0.85297692   -7.4321428    705.48248  0.024434832  0.024208894            1 
 2407000   0.87071675   -7.4320242    705.34859  0.024420045  0.024202551            2 
 2408000   0.86557605   -7.4324288    704.89723  0.024394284  0.024196209            3 
 2409000   0.86920927   -7.4536033    706.01771  0.024422918  0.024189861            2 
 2410000   0.87662894   -7.4340179    705.34836  0.024389639  0.024183552            2 
 2411000   0.84853569   -7.4343522     708.3578  0.024483541  0.024177265            4 
 2412000   0.85656572   -7.4626297    706.99727  0.024426384  0.024170985            2 
 2413000    0.8513468   -7.4661728    706.30707  0.024392425  0.024164651            4 
 2414000   0.86265327   -7.4472282    707.48166  0.024422869  0.024158361            6 
 2415000   0.86852417   -7.4403354      705.966  0.024360456  0.024152038            3 
 2416000   0.85861391   -7.4291988    706.16408  0.024357205  0.024145739            5 
 2417000   0.87628299   -7.4252093    707.56963  0.024395588  0.024139474            3 
 2418000    0.8700088   -7.4152165    707.91385  0.024397362  0.024133162            2 
 2419000   0.88203408   -7.3921558    708.29542  0.024400421  0.024126876            3 
 2420000    0.8715289   -7.4540589     708.2357  0.024388282  0.024120584            4 
 2421000    0.8726419   -7.4080202    707.18167  0.024341927  0.024114268            3 
 2422000   0.84633568     -7.44107    708.31992   0.02437104  0.024107943            4 
 2423000   0.85685022   -7.4167977    708.65291  0.024372435  0.024101702            2 
 2424000   0.86886297   -7.4130274    711.20183  0.024450008  0.024095545            2 
 2425000   0.86999629   -7.4046375    710.42905  0.024413369  0.024089369            2 
 2426000   0.86151853   -7.4064228    710.23642  0.024396689  0.024083198            4 
 2427000   0.88722807   -7.4155883    709.72526  0.024369086  0.024076994            1 
 2428000   0.88149342   -7.4243246    709.72421  0.024359013  0.024070795            2 
 2429000   0.85517436   -7.4110796    709.20214  0.024331074  0.024064576            7 
 2430000   0.84355171   -7.4251507    708.70211  0.024303913  0.024058334            3 
 2431000   0.86686879   -7.4335634    707.91982  0.024267099  0.024052074            3 
 2432000   0.85382727   -7.4032342    711.48903  0.024379421  0.024045841            3 
 2433000   0.87652511   -7.4339233    709.11441  0.024288067  0.024039644            4 
 2434000   0.85421377   -7.4335503    710.66276    0.0243311   0.02403339            3 
 2435000   0.86367852   -7.4420987    710.29922  0.024308666  0.024027133            4 
 2436000   0.86471788    -7.433803    710.50893  0.024305861  0.024020884            3 
 2437000   0.87518678   -7.4250271    711.03861     0.024314  0.024014679            3 
 2438000   0.86444533   -7.4349981     708.6225  0.024221442  0.024008472            3 
 2439000   0.87189124   -7.3984792    710.43847  0.024273557  0.024002283            2 
 2440000    0.8554473   -7.3985307    709.76682   0.02424067  0.023996126            3 
 2441000   0.86464718   -7.4452959    708.82474  0.024198578   0.02398993            4 
 2442000   0.86388927    -7.441399    710.55154  0.024247596  0.023983713            4 
 2443000   0.86606485   -7.4429151    709.45882  0.024200396  0.023977458           14 
 2444000     0.862693   -7.4249039    710.27056  0.024218172  0.023971193            3 
 2445000   0.86690958   -7.4128911    710.31008  0.024209614  0.023964935            3 
 2446000    0.8599429   -7.4430582    710.85745  0.024218365  0.023958722            3 
 2447000   0.86843824   -7.4456323    711.10172  0.024216786  0.023952448            2 
 2448000   0.85134286   -7.4248874    711.20055  0.024210258  0.023946178            2 
 2449000   0.85782688   -7.4544445    708.85978  0.024120722  0.023939902            4 
 2450000   0.85774193   -7.4360498    711.70534  0.024207665  0.023933657            3 
 2451000   0.85993356   -7.4528447    712.54388  0.024226298  0.023927411            3 
 2452000   0.83758519   -7.4266826    711.47881  0.024180221   0.02392112            5 
 2453000   0.85257288   -7.4782735    709.94468  0.024118246  0.023914837            2 
 2454000   0.87530042   -7.4384632    710.47762  0.024126515  0.023908541            2 
 2455000   0.87580907   -7.4441826    711.96492  0.024167173   0.02390223            2 
 2456000   0.86345097   -7.4550909    712.71195   0.02418268  0.023895955            3 
 2457000   0.84899227   -7.4681998    711.77803  0.024141162  0.023889725            3 
 2458000   0.85606129   -7.4056554    714.22716  0.024214374  0.023883448            3 
 2459000   0.86132753   -7.4387058    714.92377  0.024228134  0.023877259            3 
 2460000   0.85379847   -7.4013359    714.41329  0.024200992  0.023871094            5 
 2461000   0.84287921   -7.3983584    715.90523  0.024241678  0.023864971            4 
 2462000   0.88054039   -7.4282006    713.45621  0.024148937  0.023858797            3 
 2463000   0.85679101    -7.437071     713.9919  0.024157257  0.023852646            4 
 2464000   0.85472241   -7.4721076    711.95012    0.0240784  0.023846391            6 
 2465000   0.86507913    -7.475261    714.56304  0.024156966  0.023840153            2 
 2466000   0.86136155   -7.4153807    713.54017  0.024112604  0.023833954            4 
 2467000   0.86208187   -7.4606197    713.87865  0.024114263  0.023827756            2 
 2468000   0.83697458    -7.440625    713.79202  0.024101567  0.023821507            5 
 2469000    0.8531472   -7.4539404    713.75662  0.024090611  0.023815292            3 
 2470000   0.83767242    -7.463017    714.15388  0.024094261  0.023809049            2 
 2471000   0.84953434   -7.4369776    714.68322  0.024102361   0.02380279            3 
 2472000   0.89455357   -7.4704747    711.46366  0.023984077  0.023796498            2 
 2473000   0.84656185   -7.4344503    713.65551  0.024048238  0.023790203            2 
 2474000   0.86203658   -7.4273827    713.40364  0.024030034  0.023783958            2 
 2475000   0.86853936   -7.4451831    716.65804    0.0241299  0.023777734            6 
 2476000   0.83707303   -7.4385694     713.8485  0.024025596  0.023771512            4 
 2477000   0.85883614   -7.4393657    712.99994  0.023987348  0.023765249            3 
 2478000   0.85880145   -7.4546364    714.07722  0.024013896  0.023759031            3 
 2479000   0.84198049   -7.4223362     714.7577  0.024027084   0.02375279            3 
 2480000   0.85773942   -7.4803157    714.27905  0.024001312  0.023746514            5 
 2481000   0.84473988   -7.4535203    713.84895  0.023977192  0.023740235            7 
 2482000   0.84436351    -7.452416    713.30398  0.023949234  0.023733954            4 
 2483000   0.84755241   -7.4522499    713.58254  0.023948937  0.023727688            2 
 2484000   0.85099517   -7.4415206     715.9622  0.024019129  0.023721412           10 
 2485000   0.85930615   -7.4573635    713.97313  0.023942761  0.023715129            2 
 2486000   0.85860271   -7.4532061    714.22329  0.023941516  0.023708842            3 
 2487000   0.84847708   -7.4333364    715.59339  0.023977797   0.02370257            3 
 2488000    0.8497647   -7.4652445    715.30595  0.023958533  0.023696306            2 
 2489000   0.86009267   -7.4896698    713.80212  0.023898558  0.023689982            2 
 2490000   0.85747838   -7.4581593    715.54458  0.023947275  0.023683683            2 
 2491000   0.84604531   -7.4564004     715.9382   0.02395083   0.02367736            5 
 2492000   0.86325739   -7.4524827    713.61505  0.023863532  0.023671056            4 
 2493000   0.84943115   -7.4671792    714.44938  0.023881849  0.023664743            2 
 2494000   0.85623542    -7.449483    716.92638  0.023955038  0.023658457            3 
 2495000   0.84641062   -7.4730955    714.19826  0.023854317  0.023652154            4 
 2496000   0.86972454   -7.4353564    719.30385  0.024015219  0.023645869            2 
 2497000   0.84220593   -7.4333679    716.50091  0.023912058  0.023639694            3 
 2498000   0.84259669   -7.4156596    716.98528  0.023918644  0.023633483            4 
 2499000   0.85537926   -7.4372523    719.07539  0.023978771  0.023627325            1 
 2500000   0.86176959   -7.4162883    718.62277  0.023954092   0.02362121            3 
 2501000   0.85320752   -7.4391105    717.97542  0.023922945  0.023615079            5 
 2502000   0.85194214   -7.4805558    715.39543  0.023827452  0.023608925            5 
 2503000   0.86420855   -7.4491886     718.6702  0.023926961  0.023602777            5 
 2504000   0.85586376   -7.4442616    717.78059  0.023887799  0.023596558            3 
 2505000   0.86158651   -7.4747287    716.62432  0.023839798  0.023590344            2 
 2506000    0.8577893   -7.4904432    717.37535  0.023855259   0.02358415            2 
 2507000   0.85368113   -7.4577998    716.31034  0.023810342  0.023577918            5 
 2508000    0.8300943   -7.4485084    718.19723  0.023863544  0.023571712            5 
 2509000   0.85005024   -7.4603699    718.44932  0.023862406  0.023565514            2 
 2510000   0.85528648   -7.4486402    719.07947   0.02387382  0.023559327           10 
 2511000   0.86507277   -7.4423201      717.677  0.023817768  0.023553115           10 
 2512000   0.85883929   -7.4619864     716.7893  0.023778838  0.023546897            4 
 2513000   0.84756219   -7.4814233    718.05161  0.023811235  0.023540657            5 
 2514000   0.85741753   -7.4540819    717.39844  0.023780113  0.023534459            2 
 2515000   0.83191501   -7.4769245    716.30593  0.023734458  0.023528225            2 
 2516000   0.84195379   -7.4425893    719.74311  0.023838868  0.023522058            2 
 2517000   0.83996913   -7.4473976    719.83266  0.023832362  0.023515917            4 
 2518000   0.83885349   -7.4375371    716.42168  0.023710011   0.02350974            3 
 2519000   0.85957588   -7.4570997    720.09198  0.023822019  0.023503535            2 
 2520000   0.85912488   -7.4276299    719.28829  0.023785989  0.023497406            1 
 2521000   0.83814286   -7.4860703    719.53207  0.023784612  0.023491257            2 
 2522000   0.85997455   -7.4754751     718.4533  0.023739535  0.023485097            4 
 2523000   0.83724854   -7.4852794    718.17759   0.02372102  0.023478902            3 
 2524000    0.8429627   -7.4824666    718.33327  0.023716761  0.023472726            5 
 2525000   0.84798156   -7.4764219    719.21209  0.023736373  0.023466515            3 
 2526000   0.85759093   -7.4406637      721.075  0.023788433  0.023460353            2 
 2527000   0.85650608   -7.4549039    719.26882  0.023719457  0.023454212            4 
 2528000   0.83397521   -7.4735656    717.83123  0.023662686  0.023448014            2 
 2529000   0.84516533   -7.4426271    721.40695  0.023771153  0.023441811            2 
 2530000   0.85293249   -7.4975294    719.05187  0.023684185  0.023435604            6 
 2531000   0.87058067   -7.4871702    720.65248  0.023727528  0.023429408            4 
 2532000   0.83875486   -7.4946866    719.70788  0.023687068   0.02342321            3 
 2533000   0.85835719   -7.4589521     720.5957  0.023706925  0.023416958            3 
 2534000   0.85487786   -7.4936662    721.66927  0.023732875  0.023410764            2 
 2535000   0.84111058   -7.4765245     722.0271  0.023735276  0.023404553            2 
 2536000   0.83079428   -7.4625817    719.72625   0.02365031   0.02339842           14 
 2537000   0.84765329   -7.4609648    720.21597  0.023657074  0.023392257            3 
 2538000    0.8430552   -7.4728675    722.77038  0.023731625  0.023386107            3 
 2539000     0.874919   -7.4614381    723.22896   0.02373733  0.023380022            7 
 2540000   0.86346127   -7.4565452    721.72061  0.023678498  0.023373946            5 
 2541000   0.83173129    -7.459158    722.16479  0.023683746  0.023367871            3 
 2542000   0.82987314   -7.4733965    722.79938  0.023695233  0.023361758            4 
 2543000    0.8453943   -7.4553849    722.94883  0.023690812  0.023355724            2 
 2544000   0.84500794   -7.4401183    724.18786  0.023722087  0.023349683            2 
 2545000   0.82745646   -7.4830425    723.87021  0.023702364  0.023343662           13 
 2546000   0.86835206   -7.4610792    723.72971  0.023688456  0.023337683            2 
 2547000   0.83628448   -7.4724242    723.50568  0.023671826   0.02333172            2 
 2548000   0.82884228   -7.4477813    725.70258  0.023734386  0.023325766            4 
 2549000   0.84896916   -7.4984645    724.67766  0.023691567  0.023319756            2 
 2550000   0.85504207   -7.4786592    725.78039  0.023718313  0.023313782            6 
 2551000   0.85448361   -7.4988257    725.20567  0.023690241  0.023307819            3 
 2552000   0.85262799    -7.487644    725.82729  0.023701257  0.023301853            2 
 2553000   0.82972294   -7.4941591    724.74647  0.023656694  0.023295873            4 
 2554000   0.86545746   -7.4894571    724.90346  0.023652553  0.023289927            4 
 2555000   0.84155967   -7.4969489    723.51738  0.023598088  0.023283964            3 
 2556000   0.85496489    -7.503232    724.59974  0.023624144  0.023277966            2 
 2557000   0.85778846   -7.4846768    725.53086   0.02364525  0.023271964            5 
 2558000   0.85327742   -7.4988116    726.56645  0.023669744  0.023266015            2 
 2559000   0.84637243   -7.4894313    725.38096  0.023621889  0.023260028            3 
 2560000    0.8324377   -7.5109588    724.33033  0.023578461  0.023254047            3 
 2561000    0.8511725   -7.4768531    727.00104  0.023656158  0.023248037            4 
 2562000   0.83119279   -7.4948277    724.84173  0.023576689  0.023242074            3 
 2563000   0.82835409   -7.5002874    726.02768   0.02360605  0.023236086            2 
 2564000   0.84947744   -7.4832353    725.61412  0.023583402  0.023230072            2 
 2565000   0.83936314   -7.4901048    725.43684  0.023568448  0.023224064            3 
 2566000   0.84269326   -7.4653365    725.59932   0.02356454  0.023218126            5 
 2567000   0.83662441   -7.4624617     728.4553  0.023648075  0.023212221            2 
 2568000   0.82890889   -7.4707534    725.00384  0.023526864  0.023206304            4 
 2569000   0.83550284   -7.4591765    728.05896  0.023616808  0.023200395            4 
 2570000   0.86696624   -7.4615852    727.41985  0.023586895  0.023194463            4 
 2571000   0.83416888   -7.4596948    726.37674  0.023543911  0.023188566            2 
 2572000   0.84673974    -7.465503    727.05872  0.023556853  0.023182677            2 
 2573000     0.844306   -7.4852387    727.73838  0.023569711  0.023176763            2 
 2574000   0.83184025   -7.4598751    729.17348  0.023607015  0.023170863            6 
 2575000   0.84191364   -7.4746713    725.56211  0.023480974  0.023164946            3 
 2576000   0.83103541   -7.4694332    727.72702  0.023541894  0.023159013            4 
 2577000   0.82830329   -7.4768364    729.39372  0.023586655  0.023153066            2 
 2578000   0.84639378   -7.4748266    729.91963  0.023594506   0.02314715            3 
 2579000   0.83119734   -7.4654712    729.90501  0.023584885   0.02314127            7 
 2580000   0.84580594   -7.4953351    728.90189  0.023543343  0.023135353            3 
 2581000   0.83952139   -7.4792411    726.20793   0.02344724    0.0231294            4 
 2582000   0.85567825   -7.5077298    726.65554  0.023452606  0.023123463            3 
 2583000   0.83978562   -7.4930679    727.84203  0.023481805  0.023117507            3 
 2584000   0.83025214   -7.4812549    728.42217  0.023491427  0.023111543            4 
 2585000   0.82620777   -7.4451883    729.40033  0.023513873  0.023105604            3 
 2586000   0.84188346   -7.5109042    728.97269  0.023490999  0.023099617            3 
 2587000   0.83489765   -7.5047525    728.85592  0.023478157  0.023093611            3 
 2588000   0.84974746   -7.4733022    729.96615  0.023504835  0.023087647            2 
 2589000    0.8213484   -7.4689083    728.93014   0.02346241  0.023081712            4 
 2590000   0.80893939   -7.5188199    728.21642  0.023430387  0.023075681            2 
 2591000   0.84432497   -7.5058767     729.7224   0.02346978  0.023069669            3 
 2592000   0.84005699   -7.4747791    727.79777  0.023398848   0.02306369            2 
 2593000   0.82715149   -7.4968088      726.937  0.023362161  0.023057701            3 
 2594000   0.83445088   -7.4928726    727.87474   0.02338328  0.023051691            2 
 2595000   0.84825285   -7.5012503    728.76844  0.023402968  0.023045661            5 
 2596000   0.85291953   -7.4622622    728.04263  0.023370655  0.023039681            7 
 2597000   0.84794888   -7.4918026    728.92756  0.023390051  0.023033716            3 
 2598000   0.83359998   -7.4681379    729.75343  0.023407539   0.02302773            3 
 2599000    0.8464482   -7.4942774    727.61548  0.023329982  0.023021702            4 
 2600000   0.83398512   -7.5056027    727.67618  0.023322955  0.023015666            8 
 2601000     0.825678   -7.4828962    729.48936   0.02337208  0.023009718            4 
 2602000   0.84121947   -7.4661713    730.54102  0.023396779  0.023003768            3 
 2603000    0.8471833   -7.5061411    727.14972   0.02327922  0.022997782            5 
 2604000   0.82852741   -7.4919653    728.37872  0.023309611  0.022991753            4 
 2605000   0.82103036    -7.496339    728.42191  0.023302045  0.022985705            2 
 2606000   0.82983543    -7.501292    728.55607  0.023297393  0.022979652            2 
 2607000   0.84431055   -7.4956415    729.70683  0.023325241  0.022973631            4 
 2608000   0.82787188   -7.5183747     729.8405  0.023320568  0.022967627            3 
 2609000   0.83783484   -7.5058516    731.16768  0.023354021  0.022961626            4 
 2610000   0.83674655   -7.5094095    729.87597  0.023303831  0.022955606            9 
 2611000   0.82969014   -7.5135068    728.77535  0.023259778  0.022949587            2 
 2612000   0.83774178    -7.504894    728.87072  0.023253915  0.022943531            4 
 2613000   0.84572614   -7.4726502    732.75453  0.023368878   0.02293748            2 
 2614000   0.83852549   -7.5039464     729.8325  0.023266784  0.022931473            2 
 2615000   0.83560055   -7.5175924    729.59099  0.023250191   0.02292545            4 
 2616000   0.82317698   -7.4920106    729.85755  0.023249795  0.022919369            9 
 2617000   0.84373954   -7.4859333    730.33264  0.023256039  0.022913313            2 
 2618000   0.83247086   -7.4925165    728.29444  0.023182278  0.022907249            3 
 2619000   0.82518855   -7.4824031    728.88978  0.023192369  0.022901238            3 
 2620000   0.82761708   -7.5120562    730.72233  0.023241804  0.022895218            4 
 2621000    0.8236996   -7.4849767     731.2501  0.023249717  0.022889176            3 
 2622000   0.83113242   -7.4995188    729.16618  0.023174618  0.022883109            5 
 2623000   0.82471584   -7.4898617    729.63789  0.023180769  0.022877093            6 
 2624000   0.83547392   -7.4776625     730.9943  0.023215012  0.022871072            3 
 2625000   0.82919326   -7.4816412    732.33359  0.023248685  0.022865058            5 
 2626000    0.8523161   -7.5157917    730.91153  0.023194704  0.022859059            3 
 2627000   0.83506637   -7.5439359    731.63785  0.023208915  0.022853029            4 
 2628000   0.82544116   -7.5489413    731.43181   0.02319355  0.022846999            3 
 2629000   0.84013092   -7.4734647    731.14803  0.023175733   0.02284096            4 
 2630000   0.83271987   -7.5137239     731.8678  0.023189727  0.022834924            6 
 2631000    0.8416995   -7.5358316    731.98581  0.023184651  0.022828925            2 
 2632000   0.83454466   -7.5092141    732.22786  0.023183506  0.022822917            2 
 2633000    0.8210338   -7.5282083    729.87742  0.023100311  0.022816939            9 
 2634000   0.83313765   -7.5288106    732.44593  0.023172802  0.022810927            5 
 2635000   0.84011984   -7.5456826     732.4265  0.023163394  0.022804871            4 
 2636000   0.83349956   -7.5061311    733.44205  0.023186711  0.022798861            4 
 2637000   0.82604616   -7.5142267    730.18267  0.023074917  0.022792831            3 
 2638000   0.81702302   -7.4846249    732.27885  0.023132387  0.022786837            2 
 2639000   0.84535744   -7.4724219    733.99529  0.023177823  0.022780853            2 
 2640000   0.82858823   -7.5370251    731.73969  0.023097844  0.022774837            6 
 2641000   0.82062106   -7.5165665    732.41512   0.02311041  0.022768772            3 
 2642000   0.82676125   -7.5158572    732.88245  0.023116403  0.022762745            4 
 2643000   0.83209904   -7.4994855    732.69205  0.023101654   0.02275675            9 
 2644000   0.82419885   -7.4978194    733.75545  0.023126432  0.022750745            4 
 2645000   0.82902563    -7.503566    731.77763  0.023055376  0.022744736            3 
 2646000   0.83215923   -7.4917621    733.03312  0.023086203  0.022738732            4 
 2647000   0.84376699   -7.5188258    734.53862  0.023124878  0.022732719            4 
 2648000    0.8208302   -7.4899305    735.26106   0.02313888   0.02272668            6 
 2649000    0.8298163   -7.5315193    732.25356  0.023035534   0.02272068            4 
 2650000   0.82143375    -7.511694    733.37957   0.02306225  0.022714678            5 
 2651000   0.81110393   -7.5236903    732.78806  0.023034957  0.022708683            4 
 2652000   0.81201594   -7.5180483    733.74215  0.023056252  0.022702725            2 
 2653000    0.8080937    -7.510999    734.14645   0.02306026  0.022696692            2 
 2654000   0.83962703    -7.524418    733.53514  0.023032377  0.022690675            4 
 2655000   0.84069465   -7.5112657    735.17591  0.023075201  0.022684663            7 
 2656000   0.81866792   -7.4855266     734.3677  0.023041155   0.02267868            1 
 2657000   0.81648558   -7.5085496    734.02288  0.023021669  0.022672701            8 
 2658000   0.82335307   -7.5010717    734.56801  0.023030098  0.022666724            2 
 2659000   0.82460629   -7.5047857     733.0709  0.022974517  0.022660734            2 
 2660000   0.81872053   -7.5154714    733.00238  0.022963734  0.022654734            4 
 2661000   0.82176189   -7.5232965     734.7937  0.023011202  0.022648741            3 
 2662000   0.82403459   -7.5219442    735.20989  0.023015586  0.022642724            9 
 2663000   0.82450856   -7.5237094    735.89305  0.023028322  0.022636665           10 
 2664000   0.84447422   -7.5020986    735.75037  0.023015214  0.022630676            2 
 2665000   0.83618798   -7.5136639    733.76049  0.022944356  0.022624667            3 
 2666000   0.83668026   -7.5242515    735.73018  0.022997318  0.022618685            3 
 2667000   0.83448767    -7.491354     734.8887  0.022962402    0.0226127            3 
 2668000   0.82429072     -7.54191    734.15141  0.022930766  0.022606698            4 
 2669000   0.83510701   -7.5284273    734.15612  0.022922322  0.022600707            4 
 2670000   0.82585689   -7.5153088    734.07729  0.022911276  0.022594719            2 
 2671000   0.80540479   -7.4978498    735.68939  0.022952995  0.022588722            4 
 2672000   0.83167974   -7.5240547    734.70499  0.022913703  0.022582737            5 
 2673000   0.81271391   -7.5363745    735.77962  0.022938634  0.022576721            5 
 2674000   0.80583171    -7.555655    733.72896  0.022866148   0.02257067            3 
 2675000   0.82302637   -7.5235537    736.06032  0.022930228  0.022564632            3 
 2676000   0.82614927   -7.5416512    735.34047  0.022899242  0.022558643            4 
 2677000   0.82920818   -7.5214421    736.60523  0.022930059  0.022552627            3 
 2678000   0.81391267   -7.5278631    735.06412  0.022873541  0.022546638            2 
 2679000   0.84968149   -7.5164828    736.15003  0.022898781  0.022540641            4 
 2680000   0.82413874   -7.5212801    735.78184  0.022878788  0.022534679            5 
 2681000   0.84037387    -7.548423    733.93387  0.022812815  0.022528669            5 
 2682000   0.81749615   -7.5222403    736.75713  0.022892031  0.022522638            6 
 2683000    0.8288909   -7.5398796    735.72717  0.022851509  0.022516653            2 
 2684000   0.83231612   -7.5536347    735.62659  0.022839872  0.022510642            3 
 2685000    0.8389066    -7.548959     736.6562  0.022863321  0.022504617            4 
 2686000   0.82042713    -7.523737    736.61872  0.022853646  0.022498631            4 
 2687000   0.81858199   -7.5254619     735.0983  0.022797987  0.022492619            3 
 2688000   0.82003572   -7.5156815     735.9588  0.022816183  0.022486606            2 
 2689000   0.82682131   -7.5083744    737.49368  0.022855265  0.022480613            2 
 2690000   0.82306915   -7.5521207     734.9701  0.022768591   0.02247459            8 
 2691000      0.82618   -7.5322413    736.75909   0.02281553  0.022468553            3 
 2692000   0.81822874    -7.544537    735.97233    0.0227827  0.022462557            5 
 2693000   0.83229975   -7.5435371    737.48056  0.022820911  0.022456551            5 
 2694000   0.85789361   -7.5371207    735.80713  0.022760676   0.02245052            5 
 2695000   0.81664428   -7.5142841    736.87145  0.022785141  0.022444507            3 
 2696000   0.82773791   -7.5669507    737.36014  0.022791795  0.022438475            4 
 2697000   0.82281098   -7.5544063     735.6416  0.022730243  0.022432463            5 
 2698000   0.84457225   -7.5174599    735.05088  0.022703573  0.022426401            5 
 2699000   0.81727877   -7.5572853    734.93061  0.022691448  0.022420348            2 
 2700000   0.81517737   -7.5300209    735.42992  0.022698454  0.022414302            4 
 2701000   0.81981924   -7.5247999    736.38362  0.022719475  0.022408233            3 
 2702000   0.79667068   -7.5810283    735.10836  0.022671736  0.022402126            5 
 2703000   0.84017498    -7.538335    736.94125  0.022719856  0.022396008            4 
 2704000   0.80581859   -7.5539039    736.16533  0.022687541   0.02238991            6 
 2705000   0.82361071   -7.5297704    736.68924  0.022695294  0.022383822            3 
 2706000   0.81969602   -7.5344693    737.82529  0.022721892  0.022377746            4 
 2707000   0.82005308     -7.50444    735.60297  0.022645086  0.022371657            3 
 2708000   0.83197449   -7.5456852    737.11172  0.022683152  0.022365568            4 
 2709000   0.81376514   -7.5266719    737.28876  0.022680225  0.022359475            3 
 2710000   0.82512879   -7.5038328    737.09089  0.022665771  0.022353384            2 
 2711000   0.81529958    -7.515873    736.22855  0.022630903  0.022347304            5 
 2712000   0.82654582    -7.525054     734.7128  0.022575983   0.02234117            4 
 2713000   0.81276562   -7.5817036    736.95729  0.022636604  0.022335029            7 
 2714000   0.82601104   -7.5451567     737.3438  0.022640131  0.022328925            4 
 2715000   0.82096141   -7.5937289    736.46568   0.02260484   0.02232284            5 
 2716000   0.81200354   -7.5103564    736.63763  0.022601793  0.022316745            2 
 2717000   0.81039716    -7.539663    737.46833  0.022618952  0.022310682            4 
 2718000   0.80630143   -7.5329666    740.33742  0.022698596  0.022304649            2 
 2719000   0.79587892   -7.5560672    737.67093  0.022608524   0.02229862            8 
 2720000   0.81977482   -7.4945069    740.82781  0.022696931  0.022292642            2 
 2721000   0.83002356   -7.5013129    738.78482   0.02262602  0.022286628            2 
 2722000   0.81197279   -7.5222943    739.35693  0.022635223  0.022280609            1 
 2723000   0.81677352   -7.5660891    738.69305  0.022606594  0.022274594            5 
 2724000   0.81724899   -7.5658347    738.64196  0.022596732  0.022268537            3 
 2725000   0.79310877    -7.535581    737.46509  0.022552449  0.022262459            4 
 2726000   0.82118769   -7.5229545    738.70045  0.022581941  0.022256436            2 
 2727000   0.80821612   -7.5105345    738.91455  0.022580203   0.02225044            5 
 2728000   0.80836749   -7.5391867    737.91377  0.022541354  0.022244396            4 
 2729000   0.82450464   -7.5516804    740.29579  0.022605832  0.022238351            3 
 2730000   0.81893625   -7.5256585    738.82848  0.022552762  0.022232324            3 
 2731000   0.81447248   -7.5389134      738.664  0.022539485  0.022226259            3 
 2732000   0.81600257   -7.5389977    738.42414  0.022523918  0.022220221            3 
 2733000   0.81633726    -7.535265    739.80792  0.022557871  0.022214181            2 
 2734000   0.81827697   -7.5346395    737.10338  0.022467184  0.022208108            5 
 2735000    0.7930196    -7.561837    739.35734  0.022527646  0.022202003            4 
 2736000   0.80954089   -7.5461637    738.95204  0.022507067  0.022195917            3 
 2737000   0.80171606   -7.5544932    738.82274  0.022494907  0.022189816            3 
 2738000   0.81424801   -7.5286169    740.02454  0.022523269  0.022183698            3 
 2739000   0.80759586   -7.5664427    737.71328  0.022444727   0.02217757            4 
 2740000   0.78693531   -7.5397836    738.99245  0.022475439  0.022171463            5 
 2741000    0.8046232   -7.5207906    737.76069  0.022429791  0.022165371            2 
 2742000   0.81366981    -7.567158    738.12413  0.022432656  0.022159256            3 
 2743000   0.81850054    -7.540824    739.58625  0.022468898  0.022153129            4 
 2744000   0.80560914   -7.5873868    737.94263  0.022410794  0.022147008            5 
 2745000   0.80695035   -7.5268895    740.19539   0.02247102   0.02214087            3 
 2746000   0.81540261   -7.5431413    740.07647  0.022459228  0.022134724            5 
 2747000   0.83254635   -7.5661469    738.41203  0.022400559   0.02212859            4 
 2748000   0.82182439   -7.5616484    738.51719  0.022395596  0.022122434            4 
 2749000    0.7980844   -7.5370035    737.35059  0.022352085  0.022116299            2 
 2750000   0.81406551     -7.54194    738.09248  0.022366439  0.022110178            2 
 2751000   0.79489569   -7.5830555    738.56284  0.022372557  0.022104057            1 
 2752000   0.80887693   -7.5583831    737.47785  0.022331573  0.022097914            6 
 2753000   0.81125035   -7.5437422     737.3331  0.022319079  0.022091751            3 
 2754000   0.79187362   -7.5845424    741.26205  0.022429861  0.022085605            2 
 2755000   0.82827531   -7.5559375    739.20313  0.022359441  0.022079449            2 
 2756000   0.79048879   -7.5701469     738.8672  0.022341171  0.022073281            5 
 2757000   0.82005397   -7.5881219     736.6498  0.022266044  0.022067072            3 
 2758000   0.80979282   -7.5403427    739.09647  0.022331897  0.022060885            5 
 2759000    0.8011144   -7.5526059    739.67299  0.022341216  0.022054719            8 
 2760000   0.79781554   -7.5637783    738.45969  0.022296488  0.022048552            3 
 2761000   0.80223708   -7.5660339    739.12288  0.022308429  0.022042402            2 
 2762000   0.81028099   -7.5883933    738.85938  0.022292402  0.022036283            4 
 2763000    0.8078037   -7.5587022    740.39629  0.022330688  0.022030137            3 
 2764000   0.81818405   -7.5760353    737.89253  0.022247122  0.022024008            4 
 2765000   0.79718472   -7.5615541    740.58297  0.022320162  0.022017877            2 
 2766000   0.80984654   -7.5630869    740.42399  0.022307303  0.022011734            4 
 2767000   0.80336791   -7.5880951    739.05176  0.022257914  0.022005608            1 
 2768000   0.82822517   -7.5579108    739.30977   0.02225764  0.021999502            1 
 2769000   0.80330103   -7.5813337    739.79618   0.02226424  0.021993384            3 
 2770000   0.80930467   -7.5469854    740.40474  0.022274511  0.021987323            3 
 2771000     0.813176   -7.5242813    740.10845  0.022257562  0.021981245            3 
 2772000   0.81772319   -7.5747835    739.80398  0.022240379  0.021975169            3 
 2773000   0.80300731   -7.5486897    739.63728  0.022227349  0.021969075            3 
 2774000   0.80085438   -7.5291513    741.77947   0.02228369  0.021962963            7 
 2775000   0.82031556   -7.5530057    741.19366  0.022258068  0.021956863            5 
 2776000   0.81422335    -7.578928     741.2244  0.022250973  0.021950781            4 
 2777000   0.80419875   -7.5763799     740.8518  0.022231779  0.021944716            5 
 2778000   0.81126513   -7.5365885    742.19251  0.022263994  0.021938644            7 
 2779000   0.79494679   -7.5543171    741.15414  0.022224845  0.021932558            6 
 2780000   0.80830306    -7.576357    741.56508  0.022229169  0.021926499            5 
 2781000   0.79525953   -7.5863587    742.35095  0.022244725  0.021920455            6 
 2782000   0.81410655   -7.5644551    743.18582  0.022261737  0.021914424            3 
 2783000   0.79500924   -7.5591157    742.15677  0.022222924  0.021908379            3 
 2784000   0.81813428    -7.572483    741.98469  0.022209791  0.021902325            3 
 2785000   0.81045644   -7.5392319    742.69628  0.022223108  0.021896287            3 
 2786000   0.80221816   -7.5797244     741.4123  0.022176726  0.021890237            4 
 2787000   0.80924611   -7.5503213    741.54728  0.022172805  0.021884202            4 
 2788000   0.78722977   -7.5680397    741.60574  0.022166599  0.021878162            5 
 2789000   0.80233365   -7.5719215       741.77  0.022163559  0.021872112            2 
 2790000   0.79937302    -7.577505    740.89274  0.022129413   0.02186605            4 
 2791000   0.79687372   -7.5760375    740.84144  0.022119952  0.021859941            5 
 2792000    0.8142808   -7.5618667    743.38994  0.022188095   0.02185387            2 
 2793000   0.80863711   -7.5469594    743.89738  0.022195291  0.021847814           11 
 2794000   0.82074492   -7.5736907    742.32849  0.022140554  0.021841789            2 
 2795000   0.79185813   -7.5543029    743.51673   0.02216806  0.021835742            3 
 2796000   0.80472459   -7.5387872    743.24664  0.022152082  0.021829693            2 
 2797000   0.80973394   -7.5448862    742.91518  0.022134286  0.021823651            2 
 2798000   0.79758761   -7.5845598    742.40708  0.022111242  0.021817611            5 
 2799000   0.81017563    -7.591746    742.05141  0.022092754  0.021811523            4 
 2800000   0.81170309   -7.5739399    742.96403  0.022112025  0.021805464            2 
 2801000   0.79830913   -7.5647418    742.46284  0.022089219   0.02179942            5 
 2802000   0.80552947   -7.5751285    742.88141  0.022093785  0.021793362            1 
 2803000   0.80220383    -7.562755    742.60346  0.022077639  0.021787312            4 
 2804000   0.79432299   -7.5791527    743.98749  0.022110898  0.021781255            2 
 2805000   0.80730858   -7.5742509    743.43389  0.022086568  0.021775193            3 
 2806000    0.7888787   -7.5429702    742.41215  0.022048353  0.021769164            3 
 2807000   0.80120885   -7.5647444    743.57934   0.02207515   0.02176314            4 
 2808000   0.81902441    -7.568978     743.8936  0.022076614  0.021757115            7 
 2809000   0.80412259   -7.5713894    742.72483  0.022034082  0.021751089            6 
 2810000    0.8084351   -7.5521947    743.46059   0.02204806  0.021745037            4 
 2811000   0.79647136   -7.5780914    744.40859  0.022068321  0.021738989            2 
 2812000   0.80307436   -7.5937952    743.03827  0.022019863  0.021732927            3 
 2813000   0.80210264   -7.5788394     744.0903  0.022043201  0.021726882            1 
 2814000    0.7909558   -7.5819128    745.53594  0.022078179  0.021720842            4 
 2815000   0.81056124   -7.5603944    744.52535  0.022040419  0.021714802            4 
 2816000   0.80110153   -7.5617105    743.07348  0.021989627  0.021708766           11 
 2817000   0.81463923    -7.577657    745.34326  0.022048966  0.021702741            7 
 2818000   0.79584097   -7.5631444    745.38689  0.022042432  0.021696708            4 
 2819000   0.79711647   -7.5706872    743.78328  0.021987208  0.021690673            2 
 2820000   0.79175531   -7.5717681    745.27209  0.022023407  0.021684617            5 
 2821000   0.80501803   -7.5615244    745.61851  0.022025833   0.02167856            2 
 2822000   0.79521459   -7.5638603    744.61346  0.021988349  0.021672531            4 
 2823000   0.81796562   -7.5885838    744.48954  0.021976902  0.021666459            7 
 2824000    0.7996899   -7.6052146    742.57249   0.02191255  0.021660384            3 
 2825000   0.79070702   -7.5784678    744.49969  0.021961643  0.021654349            3 
 2826000   0.80357271   -7.5708548    745.30948  0.021977751  0.021648282            2 
 2827000   0.78837539   -7.5578993    745.91337  0.021987778   0.02164225            3 
 2828000   0.80074018   -7.5719539     744.7786  0.021946564  0.021636167            6 
 2829000    0.7998523   -7.5820328    744.89797  0.021942323   0.02163011            3 
 2830000   0.81470899   -7.5784453    745.24887  0.021944902  0.021624059            3 
 2831000   0.79867913   -7.5700109    746.15673  0.021963874  0.021618026            2 
 2832000   0.78924418   -7.5851978    745.49306   0.02193659  0.021611998            2 
 2833000   0.80783671   -7.5931333    746.67893  0.021963729   0.02160599            2 
 2834000   0.79158855   -7.5715939    744.38159  0.021888426  0.021599922            6 
 2835000   0.79980304   -7.5972607    744.85085  0.021894499  0.021593858            3 
 2836000   0.82004519   -7.5677878    746.81337  0.021944445  0.021587841            6 
 2837000   0.81090016   -7.5567565    745.56817  0.021900134  0.021581836            3 
 2838000   0.80009584   -7.5590927    746.20345  0.021911071  0.021575834            3 
 2839000   0.79589169   -7.5749022    745.48364  0.021882225  0.021569813            4 
 2840000     0.798699   -7.5904892      746.743  0.021911473  0.021563807            2 
 2841000   0.80071248    -7.584038    745.73499  0.021874193  0.021557773            4 
 2842000   0.79207589   -7.5413808    746.95645  0.021902312  0.021551713            2 
 2843000   0.79013631   -7.5817778     745.8457   0.02186205  0.021545649            3 
 2844000    0.7972816    -7.598626     743.5846  0.021788109  0.021539552            4 
 2845000   0.78212227   -7.6246953    745.35786  0.021832392   0.02153346            3 
 2846000   0.80969945   -7.6186947    744.20456  0.021790951  0.021527398            2 
 2847000   0.79827649   -7.5794892    743.74841  0.021769945  0.021521323            4 
 2848000   0.78839289   -7.5716116    746.31211  0.021837316   0.02151528            3 
 2849000   0.79568733   -7.5798095    745.08359  0.021793717  0.021509267            8 
 2850000   0.79726259   -7.5611722    746.15813  0.021817489  0.021503269            3 
 2851000   0.80616728   -7.5793186    746.10391  0.021808252  0.021497264            3 
 2852000   0.80411374   -7.5665444    744.83828  0.021763624  0.021491253            3 
 2853000   0.79861854   -7.5901144    747.19439  0.021824816  0.021485248            3 
 2854000   0.79911178    -7.589366    747.20204  0.021817392  0.021479259            3 
 2855000   0.80928623   -7.5850647    746.84359  0.021799288  0.021473267            4 
 2856000   0.79181528   -7.5871239    747.93963  0.021823635  0.021467255            3 
 2857000   0.79586895   -7.5980659    748.12905  0.021821522  0.021461282            3 
 2858000   0.79668191   -7.5660426    748.21712  0.021816454  0.021455298            4 
 2859000   0.78651219   -7.5937819    748.45591  0.021815784  0.021449328            2 
 2860000   0.78461567   -7.5688387    749.60282  0.021841574   0.02144338            5 
 2861000   0.79650908   -7.5541479    749.39765  0.021827964  0.021437446            6 
 2862000   0.79366017   -7.5676465    746.54937  0.021737403    0.0214315            2 
 2863000   0.79751514   -7.5914875    746.90759  0.021740237  0.021425557            3 
 2864000   0.79126934   -7.6333059     746.3251  0.021715698  0.021419593            3 
 2865000   0.78880949   -7.6245934    748.31069  0.021765872  0.021413624            4 
 2866000   0.78798876   -7.5956975    746.56809  0.021707609  0.021407618            2 
 2867000    0.7755092   -7.5948053    746.38532  0.021694725  0.021401635            4 
 2868000   0.80790018   -7.6146436    748.03812  0.021735185  0.021395648            3 
 2869000   0.79123692   -7.6310174    747.17955  0.021702671  0.021389605            3 
 2870000    0.8011214    -7.597952     746.7964  0.021683984  0.021383564            2 
 2871000   0.78593148   -7.6549136    747.03965  0.021683492  0.021377541            5 
 2872000   0.78470985   -7.6148869       747.49  0.021689009  0.021371534            4 
 2873000   0.78635704   -7.5722844    748.91978  0.021722931  0.021365545            8 
 2874000   0.78904238   -7.5897382    748.45413  0.021701871  0.021359602            2 
 2875000     0.791314   -7.6173344    747.65488  0.021671156  0.021353598            3 
 2876000   0.79173908   -7.5879495    747.48412  0.021658673  0.021347598            7 
 2877000   0.77886887    -7.609543    747.32811  0.021646626  0.021341587            6 
 2878000   0.79087167   -7.5949662     747.0897  0.021632201  0.021335573            3 
 2879000   0.80731619   -7.6044038    746.98698  0.021621714  0.021329555            5 
 2880000   0.78929187   -7.6282926    747.93881  0.021641748  0.021323537            3 
 2881000   0.79710283   -7.5955291    747.46597  0.021620559  0.021317519            3 
 2882000   0.79021894   -7.6064439    749.05646  0.021659046  0.021311519            2 
 2883000   0.80929777   -7.5849881    748.89061   0.02164674  0.021305539            2 
 2884000   0.81941778   -7.6078674    748.68199  0.021633206  0.021299563            3 
 2885000    0.8032467    -7.575734      750.266  0.021671462  0.021293613            3 
 2886000   0.80797521   -7.5926258    749.27185  0.021635246   0.02128765            3 
 2887000   0.78746095   -7.5932325    749.87557  0.021645179  0.021281676            2 
 2888000   0.78852064   -7.6292248    749.09435  0.021615142  0.021275686            2 
 2889000   0.80200428   -7.6044841    749.06764  0.021606889  0.021269715            3 
 2890000   0.77580885   -7.6341228    749.01628  0.021597932  0.021263737            2 
 2891000   0.79434696    -7.622951    748.87416  0.021586365  0.021257731            3 
 2892000   0.78860664   -7.5965173    748.09732  0.021556516  0.021251718            3 
 2893000   0.79287916   -7.5811715    749.44581  0.021587908  0.021245709            2 
 2894000   0.80795048   -7.6264632    748.18921  0.021544264  0.021239687            5 
 2895000   0.79260596   -7.5878554    748.65786  0.021550313  0.021233648            4 
 2896000   0.79470705   -7.5980295    747.78531  0.021517763  0.021227601            3 
 2897000   0.77782677   -7.5985517     750.1201  0.021577497  0.021221529            3 
 2898000   0.80038809   -7.6054024    748.39676  0.021520496   0.02121547            2 
 2899000   0.79294595    -7.620414    746.04184  0.021445379  0.021209402            6 
 2900000   0.78900354   -7.6309369    746.29198  0.021445172  0.021203305            3 
 2901000   0.79458253   -7.6105099    747.21692  0.021464349  0.021197231            7 
 2902000   0.79226456   -7.5957744    747.83708  0.021474761  0.021191192            4 
 2903000   0.78724146   -7.5899882    748.12374  0.021475593  0.021185144            2 
 2904000   0.79569362   -7.6285813    747.05766  0.021437605  0.021179099           11 
 2905000   0.78583131   -7.6201027    748.85481  0.021481779  0.021173022            3 
 2906000   0.77537605   -7.6276594    748.43386  0.021462315  0.021166975            2 
 2907000    0.7886148   -7.6243152    748.47095  0.021455996  0.021160881            1 
 2908000   0.78543994   -7.6220593    748.35494  0.021445293  0.021154787            2 
 2909000   0.79651463   -7.5928681    749.83809  0.021480408  0.021148702            2 
 2910000   0.79810969   -7.6000777    749.41174  0.021460817  0.021142647            2 
 2911000   0.77076832   -7.6074654    747.60125  0.021401616  0.021136575            2 
 2912000   0.77775315    -7.607604    751.53827  0.021506933  0.021130514            4 
 2913000   0.79375769   -7.6103802    748.20752  0.021404266  0.021124472            3 
 2914000   0.78732667   -7.6245405    748.53848  0.021406385  0.021118418            2 
 2915000   0.78062651   -7.6030787    749.69657  0.021432149  0.021112369            4 
 2916000    0.7945304   -7.6234121    748.75884  0.021398001  0.021106336            4 
 2917000   0.77730293   -7.5964923    748.98068  0.021397003  0.021100328            3 
 2918000   0.78702813   -7.6299921    748.75658   0.02138327   0.02109432            3 
 2919000   0.78342911   -7.6029203    749.20992  0.021388887  0.021088276            2 
 2920000   0.80153111   -7.6347912    748.30032  0.021355603  0.021082223            6 
 2921000   0.80383472    -7.614742    749.13591   0.02137213  0.021076178            5 
 2922000   0.79651662   -7.6118641    750.91287  0.021415494  0.021070151            4 
 2923000   0.79446649   -7.6189706    748.90198  0.021350838  0.021064121            1 
 2924000   0.77655904   -7.6272329    748.52454  0.021332779  0.021058082            4 
 2925000   0.76732553   -7.6227861    749.85847  0.021363489  0.021052036            3 
 2926000   0.79230225   -7.5988932    750.13644  0.021364105  0.021046005            2 
 2927000   0.79165562   -7.6121242    749.78854  0.021346901  0.021039975            5 
 2928000   0.79972815   -7.5989529    751.47803  0.021387694  0.021033952            4 
 2929000   0.77809564   -7.6071034    749.54412  0.021325371  0.021027934            6 
 2930000    0.7566118   -7.6383803    749.30254  0.021311221  0.021021899            7 
 2931000   0.80739417   -7.6449619    750.30604  0.021332482  0.021015886            4 
 2932000   0.79635081   -7.6266249     750.7852  0.021338824  0.021009839            5 
 2933000   0.77685795   -7.6160679     750.5092  0.021323707  0.021003815            4 
 2934000   0.79158724   -7.6290863    749.17429  0.021278525  0.020997757            2 
 2935000   0.79407662   -7.6427088    749.39675  0.021277591  0.020991701            3 
 2936000    0.7761765   -7.6512399    747.48747  0.021216152  0.020985578            3 
 2937000   0.78648267   -7.6403916    750.35423  0.021290269  0.020979482            1 
 2938000   0.75267738   -7.6126514    750.31631  0.021281947  0.020973425            3 
 2939000   0.77188431   -7.6292483    750.46572  0.021278942  0.020967363            7 
 2940000   0.76812122   -7.6138666    749.71237  0.021250351  0.020961253            3 
 2941000   0.77062017   -7.6238231    749.77666  0.021244947  0.020955152            3 
 2942000   0.76578036   -7.6406085     748.1506  0.021191667  0.020949024            4 
 2943000   0.76645517   -7.6000781    748.59419  0.021197027  0.020942903            3 
 2944000    0.7731074   -7.6263766      748.249  0.021180055  0.020936796            5 
 2945000    0.7646379    -7.653288    748.69388  0.021185452  0.020930708            6 
 2946000   0.78921343   -7.6520992    748.24554  0.021165579  0.020924602            5 
 2947000   0.77359336   -7.6200595    748.76723  0.021173149  0.020918495            4 
 2948000   0.77857071   -7.6672733    748.76773  0.021165981  0.020912366            4 
 2949000   0.77920143   -7.6616007    748.42966   0.02114925  0.020906215            4 
 2950000   0.79698048    -7.661216    750.08738  0.021188909  0.020900069            3 
 2951000   0.76479518   -7.6173554    749.32193  0.021160113  0.020893961            2 
 2952000   0.77924532   -7.6283277    749.44362   0.02115638  0.020887898            2 
 2953000   0.78243809   -7.5990017    749.92679  0.021162851  0.020881817            4 
 2954000   0.77610942    -7.629974    750.27454  0.021165497  0.020875732            2 
 2955000   0.78575208   -7.5883167    750.67818  0.021169717  0.020869626            2 
 2956000   0.78140428   -7.6608772    748.65633  0.021105557  0.020863517            6 
 2957000   0.79784788    -7.619045    752.20219  0.021198348  0.020857418            3 
 2958000   0.77798431   -7.6076218    749.62284  0.021118516  0.020851363            7 
 2959000   0.77359126   -7.6375492    748.39108  0.021076689  0.020845285            3 
 2960000   0.76552639   -7.6250077    748.25896  0.021065849  0.020839178            2 
 2961000   0.77704665   -7.6076436    751.30936  0.021144584  0.020833121            3 
 2962000   0.78401084   -7.6187739    750.16554  0.021105265   0.02082706            7 
 2963000   0.78516419    -7.627547     751.5499  0.021137077  0.020820987            2 
 2964000   0.78385866     -7.61729    750.94211  0.021112857  0.020814923            7 
 2965000   0.78424761   -7.5914914    749.84329  0.021074854  0.020808856            3 
 2966000   0.78470309    -7.612503    749.31766   0.02105298  0.020802821            5 
 2967000   0.78787824   -7.6171114    750.61497  0.021082321  0.020796753            7 
 2968000   0.78126847    -7.642782    751.94862  0.021112663  0.020790705            4 
 2969000   0.75300874   -7.6137059    752.84363  0.021130673  0.020784648            3 
 2970000   0.75017842   -7.6358848    750.64211  0.021061788  0.020778609            2 
 2971000   0.77643392    -7.649558    751.55417  0.021080281  0.020772542            3 
 2972000   0.77088541   -7.5992801    751.99096  0.021085435  0.020766489            3 
 2973000   0.78280059   -7.6204589    750.46385  0.021035538  0.020760439            2 
 2974000   0.77380912   -7.6117626     751.2119  0.021049426  0.020754377            8 
 2975000   0.77723489   -7.5939715     752.7522  0.021085496  0.020748309            3 
 2976000   0.78292189   -7.6305069    751.37849  0.021039944  0.020742249            4 
 2977000   0.79607327   -7.6102945     751.8004  0.021044687  0.020736196            2 
 2978000    0.7880143   -7.6454213     751.0783  0.021017414  0.020730145            3 
 2979000   0.77830843   -7.6519635    751.23678  0.021014792  0.020724075            2 
 2980000   0.76842406   -7.6459137     750.6947  0.020992581   0.02071801            3 
 2981000    0.7796344   -7.6449167     751.4696  0.021007201  0.020711929            4 
 2982000   0.77512438   -7.6243985    750.79596  0.020981331  0.020705843            7 
 2983000   0.78036846   -7.6596349    751.77151  0.021001551  0.020699747            6 
 2984000   0.77269436   -7.6236697    750.80578  0.020967543  0.020693639            5 
 2985000   0.77811713   -7.6384762    752.26988  0.021001393  0.020687555            3 
 2986000   0.77603016   -7.6318789    750.68239  0.020950055  0.020681447            7 
 2987000   0.76477562    -7.636495    751.40679  0.020963252  0.020675358            3 
 2988000   0.78432992   -7.6440886    750.61907  0.020934267  0.020669286            3 
 2989000   0.77385596   -7.6393804    751.33649  0.020947265  0.020663235            3 
 2990000   0.78219867   -7.6304944    752.04536  0.020960016  0.020657167            8 
 2991000   0.78182593   -7.6434095    751.21815  0.020929961  0.020651113            2 
 2992000   0.76912651   -7.6411124    751.22823  0.020923246   0.02064505            5 
 2993000   0.75083728   -7.6387868    751.04212  0.020911073  0.020638975            4 
 2994000   0.76950588   -7.6429483    750.18281  0.020880172  0.020632872            2 
 2995000   0.76723239   -7.6582538    751.57714  0.020911996  0.020626758            5 
 2996000   0.76001537   -7.6342184    752.32633  0.020925855  0.020620705            4 
 2997000   0.77922936   -7.6250451    752.35575   0.02091969   0.02061466            4 
 2998000   0.76559218   -7.6534126    752.20206  0.020908441  0.020608615            6 
 2999000   0.77679914    -7.631532    752.99029  0.020923371  0.020602564            3 
 3000000   0.76930096   -7.6485738    751.98992  0.020888609  0.020596537            3 
 3001000   0.77040287   -7.6548964    753.06398  0.020911473  0.020590506            2 
 3002000   0.76825569    -7.640371    753.50758  0.020916822  0.020584481            4 
 3003000   0.78120472   -7.6522441    751.09102  0.020842797   0.02057844            6 
 3004000   0.77964104   -7.6546547    751.28863   0.02084134  0.020572391            3 
 3005000   0.76615273   -7.6263917    753.00246  0.020881932  0.020566333            4 
 3006000   0.75734835   -7.6655062    751.13516  0.020823219  0.020560274            4 
 3007000   0.78485416   -7.6741595    751.54635  0.020827689  0.020554177            2 
 3008000   0.76773962   -7.6451264     752.9699  0.020860203  0.020548122            5 
 3009000   0.76534031   -7.6297708    752.91853  0.020851848  0.020542069            4 
 3010000   0.75759882   -7.6435662    753.21278  0.020853067  0.020536027            5 
 3011000   0.77303335   -7.6539666    752.70076   0.02083197  0.020529997            3 
 3012000   0.78288711   -7.6280862    751.96976   0.02080483  0.020523969            4 
 3013000   0.78805005   -7.6527743    752.90177  0.020823702  0.020517938            4 
 3014000   0.75777999   -7.6655762    750.90786  0.020761664  0.020511891            5 
 3015000   0.76841018   -7.6176558    753.12706  0.020816116  0.020505858            6 
 3016000   0.78156976   -7.6514385    752.79314  0.020799987  0.020499815            4 
 3017000   0.74996224   -7.6462038    753.49754  0.020812549  0.020493771            5 
 3018000   0.78905737   -7.6711378    752.00665  0.020764487  0.020487692            5 
 3019000   0.76878158   -7.6456196    753.84442  0.020808337  0.020481652            4 
 3020000   0.75054706   -7.6641095    753.71425  0.020797855   0.02047562            5 
 3021000   0.75251146   -7.6750405    753.26804  0.020778662  0.020469584            8 
 3022000   0.77834166   -7.6473681    752.47866  0.020750018  0.020463563            3 
 3023000   0.76177271   -7.6493211    753.10891  0.020760528  0.020457556            6 
 3024000   0.79256579   -7.6701699    752.62817  0.020740415  0.020451519            6 
 3025000   0.77279537   -7.6746338    753.40423  0.020754938  0.020445493           11 
 3026000   0.77174229   -7.6645479    754.32168  0.020773344  0.020439475            2 
 3027000   0.76274679   -7.6776897    753.35967  0.020739997  0.020433433            2 
 3028000   0.76056803   -7.6471513    752.51525  0.020709909  0.020427377            3 
 3029000   0.76303904   -7.6593215    755.16612  0.020776002  0.020421338            4 
 3030000   0.74935991   -7.6609892    752.27132   0.02068953  0.020415305            4 
 3031000   0.75073789   -7.6497078    754.83536  0.020753199  0.020409319            4 
 3032000   0.76430687   -7.6648292    753.91976   0.02072119  0.020403346            9 
 3033000   0.76817871      -7.6907    751.27085  0.020641577  0.020397347            3 
 3034000    0.7711467   -7.6673869    752.29177  0.020662815  0.020391341            2 
 3035000   0.75435009   -7.6669239    754.73771  0.020723166  0.020385323            5 
 3036000   0.76401416   -7.6778606    754.72507  0.020715993   0.02037928            2 
 3037000   0.76739651   -7.6789318    753.75322  0.020682505   0.02037321            3 
 3038000   0.76181226   -7.6709049    754.92147  0.020707743  0.020367157            3 
 3039000   0.77441903   -7.6727065    754.35328  0.020685348  0.020361082            3 
 3040000    0.7579058   -7.6827147    752.65791   0.02063207   0.02035501            2 
 3041000   0.77014249   -7.6600223    753.22166  0.020640734   0.02034896            4 
 3042000   0.77038644   -7.6612481      753.406  0.020638998  0.020342916            3 
 3043000   0.75793821   -7.6810602    753.85729  0.020644575  0.020336888            2 
 3044000   0.74543064   -7.6641672    752.09852  0.020589644  0.020330843            2 
 3045000   0.76758227   -7.6852371    753.67676  0.020626074  0.020324803            3 
 3046000   0.77826435    -7.677415    753.82894  0.020623466  0.020318755            2 
 3047000    0.7573088   -7.7076175    753.88002  0.020618095  0.020312713            3 
 3048000   0.76530215    -7.662102    752.90785  0.020584751  0.020306669            2 
 3049000   0.76853213   -7.6851897    751.96263  0.020552165  0.020300621            2 
 3050000   0.75359828   -7.6539066    754.43467  0.020612969  0.020294612            7 
 3051000   0.75908182   -7.6742749    753.55335  0.020582141   0.02028859            4 
 3052000   0.76141392   -7.7077152    752.93883  0.020558618  0.020282569            5 
 3053000   0.75555008    -7.666027     754.6276   0.02059798  0.020276519            5 
 3054000   0.76062155   -7.6724021    754.07421  0.020576135  0.020270518            4 
 3055000   0.77782779   -7.6854857    756.11146  0.020624972  0.020264524            5 
 3056000   0.77682363   -7.6674615    756.05595  0.020616709  0.020258517            4 
 3057000   0.76190447   -7.6423333    755.72567  0.020600961  0.020252542            3 
 3058000   0.76845714   -7.6739396    755.64119  0.020591923  0.020246544            7 
 3059000   0.76200137   -7.6861465     754.8448  0.020563496  0.020240566            3 
 3060000   0.76117495   -7.6928365    754.50811  0.020547606  0.020234602            4 
 3061000   0.76314133   -7.6866781    753.78496  0.020521207  0.020228613            8 
 3062000   0.75132392   -7.6587021    753.17165  0.020497813    0.0202226            3 
 3063000   0.77523325   -7.6815033    754.30857  0.020522053  0.020216601            2 
 3064000   0.75560627   -7.6588412    755.38755    0.0205447  0.020210605            2 
 3065000   0.76471593   -7.6867116      753.157  0.020477352  0.020204597            9 
 3066000   0.76167395   -7.6885011    755.60204  0.020537129  0.020198606            3 
 3067000   0.77204288   -7.6547124    755.98465  0.020540828  0.020192629            2 
 3068000   0.75598608   -7.6698166     754.3779   0.02049049  0.020186653            1 
 3069000    0.7663641   -7.6851723    753.33504  0.020455497  0.020180678            3 
 3070000    0.7571936   -7.6870602    754.76954  0.020487772  0.020174674            4 
 3071000   0.77239377   -7.6898732    755.56888  0.020502792  0.020168719            4 
 3072000   0.74808413   -7.6776378    753.98333  0.020453107  0.020162758            8 
 3073000   0.74632603   -7.6977757    755.20744  0.020479646  0.020156761            3 
 3074000   0.76227383    -7.697831    756.03243  0.020495349  0.020150783            6 
 3075000   0.77291537   -7.6638746    756.36963  0.020497822  0.020144795            3 
 3076000    0.7599534   -7.7002971    754.75361  0.020447378  0.020138834            5 
 3077000   0.78020005   -7.6717918     755.9289  0.020472563  0.020132881            6 
 3078000   0.76021758   -7.6808424    753.45464  0.020398924  0.020126901            9 
 3079000   0.74192977   -7.6965077    755.06452   0.02043587  0.020120914            4 
 3080000   0.76865913   -7.6698193    755.59506  0.020443589  0.020114956            3 
 3081000   0.75501403    -7.698379    755.70773  0.020440001  0.020109021            3 
 3082000   0.75607703      -7.6807    756.76539  0.020461967  0.020103073            7 
 3083000   0.76254419   -7.6908637    756.67983  0.020453017  0.020097132            2 
 3084000   0.76375821   -7.6832631     757.3224  0.020463748  0.020091205            3 
 3085000   0.75529304   -7.7096748     755.8058  0.020416148  0.020085262            3 
 3086000   0.75713911    -7.697783    757.50924  0.020455531  0.020079317            3 
 3087000   0.75195489   -7.6722516      757.541  0.020449763  0.020073375            3 
 3088000   0.74367652   -7.6608163    756.60945  0.020418001  0.020067461            7 
 3089000   0.76853404     -7.66266    758.95467  0.020474659  0.020061582            3 
 3090000   0.74845043   -7.7064986    756.83946  0.020410989  0.020055661            3 
 3091000    0.7567796   -7.6736537    758.41197   0.02044678  0.020049753            2 
 3092000   0.75338195   -7.6956738    755.63756  0.020365394  0.020043865            3 
 3093000   0.74422163   -7.6609037    757.12359  0.020398847  0.020037963            3 
 3094000   0.74664931   -7.6584981    758.92179  0.020440686  0.020032075            3 
 3095000   0.75145956    -7.680475    758.11511  0.020412362  0.020026187            2 
 3096000   0.75540704   -7.6916929    757.88084  0.020399463    0.0200203            5 
 3097000   0.76721256   -7.6655632    758.59768  0.020412165  0.020014398            1 
 3098000   0.76149353   -7.6783659    756.39923  0.020346439  0.020008515            4 
 3099000   0.76976376   -7.6846081     757.6816  0.020374357   0.02000265            4 
 3100000   0.75667324   -7.6690591    758.47691  0.020389164  0.019996774            3 
 3101000   0.75145587   -7.7028708    758.14956  0.020373792  0.019990899            2 
 3102000   0.77254442   -7.6967952    756.51975  0.020323441  0.019985009            3 
 3103000   0.77133325   -7.6802611    758.22813  0.020362771  0.019979132            4 
 3104000   0.73581622   -7.6998973    757.64503  0.020340556  0.019973255            4 
 3105000   0.76214383    -7.692828    759.01215  0.020370696  0.019967355            5 
 3106000   0.75132502   -7.6870314    758.64237  0.020354217  0.019961474            3 
 3107000   0.75610656   -7.6965647    757.38448  0.020313928  0.019955583            3 
 3108000   0.74091046   -7.6706184    759.06972  0.020352577  0.019949702            6 
 3109000   0.75289632   -7.6977657    757.71814  0.020309803  0.019943794            5 
 3110000   0.76017879   -7.6775214    757.94537  0.020309361  0.019937907           10 
 3111000   0.75936028   -7.6935662    757.15615  0.020281693  0.019932035            2 
 3112000   0.75573904    -7.671978    757.06384  0.020272703  0.019926118            4 
 3113000   0.74888833   -7.6769308    757.00793  0.020264695  0.019920208            5 
 3114000    0.7584035   -7.7069223    759.56185  0.020326532  0.019914313            3 
 3115000   0.76001726   -7.6899888    759.65103  0.020322392  0.019908445            4 
 3116000   0.74765355   -7.6785661    758.42265  0.020283019  0.019902571            4 
 3117000   0.75493502   -7.6774819    758.04901  0.020266523  0.019896693            2 
 3118000   0.74360702   -7.6492762    758.51181  0.020272392  0.019890844            2 
 3119000   0.75402869   -7.6712378    759.99714  0.020305577  0.019884996            2 
 3120000     0.742383   -7.6701157    758.58554  0.020261366  0.019879153            3 
 3121000   0.75164004   -7.6823876    759.69803  0.020284579  0.019873287            3 
 3122000    0.7658607   -7.6938425    758.80923  0.020254357  0.019867397            3 
 3123000   0.75031105   -7.7085138    757.66177  0.020217253  0.019861485            3 
 3124000   0.74561941   -7.7077039    757.45802  0.020205346  0.019855565            6 
 3125000   0.73207718   -7.6781065    758.31534  0.020221742  0.019849661            4 
 3126000   0.75394837   -7.6928723    757.31879  0.020188707  0.019843776            4 
 3127000   0.76482349   -7.7087141    756.01546  0.020147518  0.019837887            3 
 3128000    0.7540673   -7.6875097    758.84328  0.020216413  0.019831988            2 
 3129000     0.754115   -7.6842844    757.47509  0.020173514  0.019826113            3 
 3130000   0.75182576   -7.6795736     756.4676  0.020140245  0.019820247            3 
 3131000   0.76824057   -7.6945682    760.07357  0.020229787   0.01981437            2 
 3132000   0.74913293   -7.7144396    757.12421  0.020144854  0.019808478            3 
 3133000   0.75759173   -7.6970976    756.52334  0.020122442   0.01980259            3 
 3134000   0.76413873   -7.6970819    755.63775  0.020092474  0.019796694            3 
 3135000   0.74258435   -7.7151865    758.03274  0.020149727  0.019790806            3 
 3136000   0.74358742   -7.7088523    759.67127  0.020186843  0.019784912            6 
 3137000   0.74097837   -7.7133789     758.7941  0.020157106  0.019779036            5 
 3138000   0.74016483    -7.717359    759.32907  0.020164889  0.019773134            4 
 3139000   0.76920489   -7.6930259    759.36119  0.020159318   0.01976726            3 
 3140000   0.75978965   -7.6948624     758.1022  0.020119485  0.019761373            2 
 3141000   0.75463998   -7.6932037    756.76859  0.020077698  0.019755504            4 
 3142000   0.73506568    -7.705832    757.71816  0.020096493  0.019749595            4 
 3143000   0.73652573   -7.6873039    757.40063   0.02008168  0.019743684            3 
 3144000   0.75049165   -7.7011354    757.12085  0.020067877   0.01973774            3 
 3145000   0.76074765   -7.7017252    758.46072  0.020096998  0.019731807            3 
 3146000   0.74171177    -7.686596    756.74619  0.020045195  0.019725888            3 
 3147000   0.73911247   -7.7102035    758.99894  0.020098478  0.019719955            6 
 3148000   0.74850241   -7.7060009    756.43621  0.020024254  0.019714044            7 
 3149000   0.75469161   -7.7023313    758.20635  0.020064739  0.019708131            3 
 3150000   0.75287583   -7.7076626    759.35458  0.020088746  0.019702246            2 
 3151000   0.73712218   -7.6586234    759.19212  0.020078074  0.019696369            4 
 3152000   0.75415214   -7.7135637    757.73728   0.02003324  0.019690491            7 
 3153000    0.7394112   -7.7234689    759.10225  0.020062963  0.019684606            8 
 3154000   0.76793973   -7.7131452    759.10054  0.020056556   0.01967871            4 
 3155000   0.74414233   -7.7071252    759.23954  0.020053871  0.019672826            3 
 3156000   0.76059524   -7.7046146     760.1555  0.020071702  0.019666943            6 
 3157000   0.72581226    -7.710535    758.16458  0.020012791  0.019661074            5 
 3158000   0.74730964   -7.7031576    757.62001  0.019992084    0.0196552            3 
 3159000   0.73907685   -7.7462675    757.89592  0.019993034  0.019649302            6 
 3160000   0.73432412   -7.6946329    759.10443  0.020018577  0.019643418            3 
 3161000   0.76073963   -7.6933875    759.18108  0.020014265  0.019637548            2 
 3162000   0.75163305   -7.7148686    758.17538   0.01998143  0.019631682            3 
 3163000   0.73258995   -7.7047306    758.98173  0.019996357  0.019625803            3 
 3164000   0.73013299   -7.7235405    760.22792  0.020022859  0.019619931            4 
 3165000   0.74217218   -7.7274943    758.28628   0.01996541  0.019614054            5 
 3166000   0.73268647   -7.7161207      758.007  0.019951753  0.019608173            4 
 3167000   0.75463863   -7.7048821    758.27867  0.019952601  0.019602312            3 
 3168000   0.74045073   -7.6941919    760.11806  0.019994688  0.019596471            2 
 3169000   0.73512364   -7.7189839    757.67923  0.019924246  0.019590642            6 
 3170000   0.75172003   -7.7135082    762.19707  0.020036726  0.019584807            3 
 3171000   0.74351412   -7.7141188    760.94245  0.019997436  0.019578977            2 
 3172000   0.73412348   -7.7115387    758.90506  0.019937607  0.019573142            5 
 3173000   0.72643544   -7.7034602    759.94916  0.019958745  0.019567331            3 
 3174000   0.74950624   -7.7049672    761.65576  0.019997263  0.019561515            2 
 3175000   0.74491168   -7.6929024    758.12053  0.019898177  0.019555697            9 
 3176000   0.74312498   -7.7072888    759.71805  0.019933828  0.019549896            5 
 3177000   0.74689287   -7.6730176    760.73922  0.019954339  0.019544093            6 
 3178000   0.73638421   -7.7054709    761.29836  0.019962722  0.019538313            5 
 3179000    0.7493202   -7.6692791    765.43385  0.020064849  0.019532542            2 
 3180000   0.75266974   -7.7020314    760.90376  0.019939826  0.019526789            3 
 3181000   0.74611973   -7.6978528    763.31739  0.019996788  0.019521024            3 
 3182000   0.73591358   -7.6887783    763.46828  0.019994455  0.019515265            3 
 3183000   0.74744316   -7.6954177     762.4972   0.01996275  0.019509491            2 
 3184000   0.73494292   -7.6824801    763.03239  0.019970488  0.019503722            5 
 3185000   0.73112262   -7.7027735    761.86593  0.019933698  0.019497962            5 
 3186000   0.73802364   -7.7208551    762.06073  0.019932536  0.019492171            3 
 3187000   0.73809598   -7.7186456    761.02875  0.019899298  0.019486381            5 
 3188000   0.75203443   -7.7247131    759.59683  0.019855626  0.019480566            4 
 3189000   0.73382446   -7.7254072    762.62616  0.019928561   0.01947475            4 
 3190000   0.75588961   -7.7071385    759.69016  0.019845615  0.019468924            5 
 3191000     0.718422   -7.7169497    760.03245  0.019848335  0.019463068            5 
 3192000   0.74944311   -7.7480262    759.99056  0.019841023  0.019457221            3 
 3193000   0.73203586   -7.7199023    759.55159  0.019823353  0.019451382            5 
 3194000   0.72461786   -7.7273081     760.6495  0.019845792  0.019445548            3 
 3195000   0.74695967   -7.7540549    760.28552  0.019830087  0.019439702            3 
 3196000   0.74454276   -7.7311063    760.33441  0.019825157  0.019433877            2 
 3197000   0.74955534    -7.703017    760.05849  0.019811763  0.019428071            4 
 3198000   0.76440292   -7.7381034    760.08397  0.019806232  0.019422269            5 
 3199000   0.74499309   -7.7501403     759.4199  0.019782742   0.01941647            3 
 3200000   0.74810927    -7.729993    760.24755  0.019798113  0.019410657            3 
 3201000   0.75558479   -7.6870689    760.63799  0.019802093  0.019404883            4 
 3202000   0.75275421   -7.7350457    762.29896  0.019839136  0.019399116            3 
 3203000    0.7482778   -7.7085484     762.0111  0.019825453  0.019393369            3 
 3204000   0.73517501   -7.7060652    761.66094  0.019810158  0.019387596            3 
 3205000   0.73028686   -7.7212474    759.93164  0.019759013    0.0193818            4 
 3206000   0.73639794   -7.7411085    762.22777  0.019812533  0.019376012            2 
 3207000   0.74414536   -7.7278908    761.61374    0.0197904  0.019370217            2 
 3208000   0.75627768   -7.7213498    760.72137   0.01976105  0.019364419            5 
 3209000   0.75453006   -7.7257468    761.92633  0.019786183  0.019358637            3 
 3210000   0.72929809      -7.7187    760.76004  0.019749742  0.019352866            5 
 3211000   0.74100292   -7.7561895    761.10327  0.019752498  0.019347088            5 
 3212000   0.73402605   -7.7456684    761.16106  0.019747848  0.019341298            3 
 3213000   0.75842572    -7.708288    761.62215  0.019753661  0.019335528            4 
 3214000   0.73514572   -7.7305222    761.27237  0.019738446  0.019329781            3 
 3215000   0.73814368   -7.7148655    761.85594  0.019747432  0.019324015            2 
 3216000   0.71848609   -7.7293621    761.10867  0.019721929  0.019318252            3 
 3217000    0.7367795   -7.7026764    762.68588  0.019756654  0.019312478            2 
 3218000    0.7396421   -7.7254333    762.99098  0.019758416  0.019306761            2 
 3219000   0.73985594   -7.7012337     763.7216  0.019771192  0.019301046            2 
 3220000   0.75331901   -7.7619803    762.72857  0.019739352  0.019295313            2 
 3221000   0.72579813   -7.7039296    763.66498  0.019757451   0.01928959            3 
 3222000   0.73370685   -7.7243774    762.55975  0.019722733  0.019283867            4 
 3223000   0.73398857   -7.6961965    761.97506  0.019701496  0.019278148            3 
 3224000   0.71425245   -7.7271486     764.9498  0.019772276  0.019272453            5 
 3225000   0.73004693   -7.7218214    762.10529  0.019692643  0.019266758            3 
 3226000   0.72721413   -7.7239079    763.21829  0.019715289  0.019261066            4 
 3227000     0.751926   -7.7443263    764.02239  0.019729945  0.019255387            5 
 3228000   0.72914557   -7.7464024    762.92067  0.019695391  0.019249694            6 
 3229000   0.73696051   -7.7176927    765.19468  0.019747979     0.019244            7 
 3230000   0.72458403   -7.7205026    763.79256   0.01970569  0.019238318            3 
 3231000   0.71493461   -7.7363701    762.76976  0.019673211  0.019232626            3 
 3232000   0.72083251   -7.7314304    763.49468  0.019685816  0.019226935            4 
 3233000   0.74155961   -7.7154267    764.30613  0.019700643  0.019221248            3 
 3234000   0.71928156   -7.7297256    763.05254  0.019662248  0.019215559            3 
 3235000   0.72835748   -7.7499951    765.34437  0.019715208  0.019209894            3 
 3236000    0.7283891   -7.7147414    763.93306  0.019672771  0.019204225            3 
 3237000   0.73787404   -7.7281997    762.98657  0.019642328  0.019198559            3 
 3238000    0.7173754   -7.7140973    764.03944  0.019663358  0.019192883            7 
 3239000   0.73141053   -7.7621456    763.61424  0.019646348  0.019187204            5 
 3240000   0.73262223   -7.7237091    762.69248  0.019616576  0.019181511            5 
 3241000   0.73042382   -7.7495378    763.50318  0.019631368  0.019175824            4 
 3242000   0.74442316   -7.7370946    764.41501  0.019648751   0.01917016            4 
 3243000   0.72662594   -7.7231763    764.66551  0.019649129  0.019164501            5 
 3244000   0.74883465   -7.7246002    765.63044   0.01966786  0.019158836            2 
 3245000   0.73462716   -7.7186885    765.67694  0.019662993  0.019153184            8 
 3246000   0.73110289   -7.7486893    764.97304  0.019638864  0.019147506            4 
 3247000   0.73206935   -7.7517759    764.64843  0.019624485  0.019141837            3 
 3248000    0.7247485   -7.7794566    764.41077  0.019612345  0.019136153            5 
 3249000   0.74727738   -7.7528247    764.11113  0.019598623  0.019130454            2 
 3250000   0.71613532   -7.7288392    763.79418  0.019584466  0.019124755            3 
 3251000   0.74107893   -7.7638855    763.72387   0.01957664  0.019119048            2 
 3252000   0.71374686   -7.7465143    762.94509  0.019550663  0.019113343            2 
 3253000   0.73569273   -7.7301368    764.73424  0.019590487  0.019107665            5 
 3254000   0.72291112   -7.7253228    764.32018  0.019573863  0.019101972            4 
 3255000   0.73630089    -7.713825    763.42559  0.019544946  0.019096301            6 
 3256000   0.71665395   -7.7724287    763.24853  0.019534412  0.019090617            4 
 3257000   0.73524783   -7.7511755    763.85276  0.019543874  0.019084899            3 
 3258000   0.72053083   -7.7695241    763.41461  0.019526668  0.019079179            4 
 3259000   0.74316701   -7.7672617    762.33299  0.019493019  0.019073476            3 
 3260000   0.72879121   -7.7456466    764.66776  0.019546722  0.019067761            2 
 3261000   0.72104318   -7.7700167    760.23976  0.019427572  0.019062039            3 
 3262000   0.73869773   -7.7715723    762.35203  0.019475578  0.019056313            3 
 3263000   0.73785209   -7.7490285    762.85017  0.019482331  0.019050596            3 
 3264000   0.73587051   -7.7522327    764.23873  0.019511814  0.019044885            5 
 3265000   0.74017049   -7.7706472    763.38612  0.019484077  0.019039162            4 
 3266000   0.72607585   -7.7339438    764.98423  0.019518887  0.019033463            3 
 3267000   0.71737764   -7.7484111    764.81357   0.01950856  0.019027765            2 
 3268000   0.72858061    -7.758134    762.74905  0.019449945  0.019022075            1 
 3269000    0.7272823   -7.7609868    764.12762  0.019479138  0.019016379            4 
 3270000   0.73592614   -7.7188109    764.19189  0.019474819  0.019010691            2 
 3271000   0.70110781   -7.7305927    764.33097  0.019472408  0.019005021            6 
 3272000    0.7319521   -7.7607296    763.55075  0.019446586   0.01899932            3 
 3273000   0.73072415   -7.7532199    764.18529    0.0194568  0.018993614            3 
 3274000   0.72244136   -7.7615527    765.01964  0.019472094   0.01898792            4 
 3275000   0.73007945   -7.7591002     764.0385  0.019441183  0.018982242            4 
 3276000   0.71726876    -7.762444    763.18301  0.019413487  0.018976557            4 
 3277000   0.72249271   -7.7354412    762.94723  0.019401567  0.018970867            5 
 3278000   0.70932574   -7.7468332    763.49459  0.019409564  0.018965162            4 
 3279000   0.72953195   -7.7577851    763.52714  0.019404471  0.018959443            2 
 3280000   0.73590423   -7.7848004    762.31364  0.019367724  0.018953743            6 
 3281000    0.7287348    -7.761948    763.85251  0.019400907  0.018948035            6 
 3282000   0.73440504   -7.7229419    764.34867  0.019407594  0.018942334            7 
 3283000   0.73742343   -7.7389604    764.98159  0.019417748   0.01893665            3 
 3284000   0.72565672   -7.7581618    762.83254  0.019357301  0.018930972            2 
 3285000   0.72298585   -7.7486733    764.66417  0.019397873   0.01892528            1 
 3286000   0.72825166   -7.7535071    762.36167  0.019333579  0.018919585            6 
 3287000   0.72062323   -7.7817241    764.19264  0.019374116  0.018913903            6 
 3288000   0.73027126   -7.7320348    763.84129  0.019359319  0.018908209            3 
 3289000   0.72963225   -7.7551963    763.87277  0.019354231  0.018902535            4 
 3290000   0.72285082   -7.7543692    763.36322  0.019335441  0.018896849            6 
 3291000   0.73530289    -7.741716    766.27449  0.019403284  0.018891174            3 
 3292000   0.72083739   -7.7295487     766.4432  0.019401661  0.018885527            3 
 3293000   0.73113884    -7.730161    766.96142  0.019408883  0.018879891            3 
 3294000   0.73316411   -7.7452806    764.93343  0.019351686  0.018874259            3 
 3295000   0.73050894   -7.7511698      764.258  0.019328731  0.018868619            4 
 3296000   0.73429446   -7.7421673    763.70999  0.019309011  0.018862974            6 
 3297000   0.72282319   -7.7479191    764.81893  0.019331183  0.018857322            6 
 3298000   0.72088792   -7.7545249    762.94235  0.019277904  0.018851653            2 
 3299000   0.73469219   -7.7760992    763.22309  0.019279153  0.018845973            6 
 3300000   0.73028371   -7.7532633    764.49903  0.019305531  0.018840287            6 
 3301000   0.70693343   -7.7374778    764.51057  0.019299974  0.018834592            3 
 3302000   0.71982209   -7.7659806    763.67875  0.019273136    0.0188289            8 
 3303000   0.72979211    -7.752958    762.84714   0.01924632  0.018823214            2 
 3304000   0.72760014   -7.7991934    762.88502   0.01924145  0.018817506            7 
 3305000   0.71902633   -7.7465371    763.93238  0.019262037  0.018811828            3 
 3306000   0.71365551   -7.7801789    764.40919  0.019268229  0.018806133            3 
 3307000   0.70503154   -7.7743031    762.99339  0.019226726  0.018800444            2 
 3308000   0.73187545   -7.7568112    765.47808  0.019283507  0.018794763            7 
 3309000   0.71812071    -7.752757    765.49095  0.019278003   0.01878908            7 
 3310000   0.71876561   -7.7618154    764.42993  0.019245467  0.018783416            3 
 3311000    0.7218599   -7.7406483    763.69985  0.019221279  0.018777754            2 
 3312000   0.72430158   -7.7617603      764.266   0.01922972  0.018772067            3 
 3313000   0.70900963   -7.7691478    764.81776  0.019237794  0.018766375            4 
 3314000   0.72382983    -7.777412    763.50879  0.019199074  0.018760681            4 
 3315000    0.7050559   -7.7680671    764.23773  0.019211607  0.018754995            4 
 3316000   0.72371625   -7.7608826    763.68121  0.019191828   0.01874933            7 
 3317000   0.71580364    -7.718273    765.43071  0.019229995  0.018743671            2 
 3318000   0.70888758   -7.7614037    763.22258  0.019168741  0.018737991            3 
 3319000   0.73317512   -7.7652051    765.21389  0.019212963  0.018732321            4 
 3320000   0.70256122   -7.7488855    766.10496  0.019229542  0.018726652            4 
 3321000   0.72015704   -7.7671191    765.55918  0.019210057   0.01872099            2 
 3322000   0.70377385   -7.7741705    765.68435  0.019207414  0.018715314            3 
 3323000   0.72815253   -7.7601098     765.0569  0.019185899  0.018709643            3 
 3324000   0.70635901   -7.7742631    763.39165  0.019138379  0.018703984            4 
 3325000   0.72257078   -7.7677929    764.23488  0.019153756  0.018698308            3 
 3326000   0.72213032   -7.7547903    763.95063  0.019140876  0.018692639            3 
 3327000    0.7349341    -7.770772    765.65755  0.019177877  0.018686951            5 
 3328000   0.72761689   -7.7710139    763.18271  0.019110144  0.018681269            4 
 3329000   0.71677699   -7.7672485    763.93182  0.019123156  0.018675592            4 
 3330000   0.71303393    -7.774484    764.17084  0.019123394  0.018669915            3 
 3331000   0.72322965   -7.7839874    763.49728  0.019100803  0.018664234            6 
 3332000   0.72035046   -7.7647138    765.90117  0.019155191  0.018658575            4 
 3333000   0.71147225   -7.7720901    765.09999  0.019129413  0.018652915            6 
 3334000   0.72134183   -7.7484386    765.04738   0.01912236  0.018647263            3 
 3335000   0.72852704   -7.7647169    764.75448  0.019109307  0.018641628            3 
 3336000   0.72745367   -7.7400757    766.33617   0.01914309     0.018636            6 
 3337000   0.70109025   -7.7621326     765.5499  0.019117718  0.018630383            2 
 3338000   0.72588833   -7.7615339    765.63624  0.019114146  0.018624743            5 
 3339000     0.706064   -7.7468789    763.37886  0.019052083    0.0186191            3 
 3340000   0.72300737   -7.7881429    764.92673  0.019084998  0.018613444            4 
 3341000   0.70239556   -7.7758716    764.67935  0.019073116  0.018607792            2 
 3342000   0.71414599   -7.7903117     764.2924   0.01905776  0.018602146            3 
 3343000   0.71518336    -7.803479    765.81879  0.019090108  0.018596499            2 
 3344000   0.73814084   -7.7579864    764.19143  0.019043845  0.018590854           11 
 3345000   0.71976436   -7.7937355    763.90447  0.019031003  0.018585209            2 
 3346000   0.73079331    -7.786998    765.12411  0.019055691  0.018579564            4 
 3347000   0.71504445   -7.8044276    764.40178  0.019032013  0.018573913            3 
 3348000   0.70815129   -7.8007801    764.69498  0.019033627  0.018568254            2 
 3349000   0.71809244   -7.7903339    764.76882  0.019029781  0.018562611            6 
 3350000   0.72164554   -7.7872602    764.92406  0.019027962  0.018556979            5 
 3351000   0.71789822   -7.7854987    764.57614  0.019013631   0.01855134            5 
 3352000   0.72793217   -7.7863983    764.57587  0.019007952    0.0185457            3 
 3353000   0.71621249   -7.7861689    765.89503  0.019035069  0.018540057            6 
 3354000   0.71725546   -7.7588566    765.28649  0.019014274  0.018534417            6 
 3355000   0.70836933   -7.7814522    765.14657  0.019005131  0.018528774            3 
 3356000    0.6972938   -7.7943675    765.81511  0.019016068  0.018523132            4 
 3357000   0.70864639   -7.7710916    767.21305  0.019045106  0.018517502            2 
 3358000   0.70448425   -7.8176098    764.28996  0.018966894  0.018511856            7 
 3359000    0.7130952   -7.8055407    763.67885  0.018946086  0.018506203            5 
 3360000   0.71753683   -7.7983264    764.07387  0.018950245  0.018500546            3 
 3361000   0.70082667   -7.7962159    765.22085  0.018973045  0.018494888            3 
 3362000   0.71274842   -7.7828584     764.8745  0.018958817  0.018489242            3 
 3363000   0.71063045   -7.7753537    764.00357  0.018931598  0.018483598            2 
 3364000   0.71569909   -7.8378505    764.56104   0.01893978  0.018477923            2 
 3365000   0.69502885   -7.7818756     767.3101  0.019002231  0.018472274            4 
 3366000   0.70984804   -7.7858695    764.79625   0.01893435  0.018466627            4 
 3367000   0.70709029   -7.7993605    765.16214  0.018937782  0.018460988            6 
 3368000   0.71150854   -7.8014343     765.6381  0.018943936  0.018455341            3 
 3369000   0.71233694   -7.7788102    763.93594  0.018896209  0.018449688            4 
 3370000    0.6975841   -7.7974389    764.47351  0.018903895  0.018444048            6 
 3371000   0.69478026   -7.7758802    764.66848  0.018903107  0.018438412            7 
 3372000     0.723079   -7.7848315    766.09028  0.018932638  0.018432786            4 
 3373000   0.70802179   -7.7928437    764.94814  0.018898808   0.01842715            8 
 3374000   0.71487023   -7.8032355     764.7138  0.018887419  0.018421507            4 
 3375000    0.7104927   -7.7967213    763.79411  0.018859114  0.018415854            2 
 3376000   0.71587756   -7.7774626    765.54224  0.018896679  0.018410224            4 
 3377000   0.71006298   -7.8059546    764.29503  0.018860306  0.018404581            4 
 3378000   0.72141732   -7.7890371    764.33467    0.0188557  0.018398913            4 
 3379000   0.70674538   -7.7970856    762.38321  0.018801993  0.018393251            5 
 3380000   0.70274803   -7.8085692    764.82918  0.018856735  0.018387588            6 
 3381000    0.7088783   -7.7843486    762.77763  0.018800592  0.018381915            3 
 3382000   0.71737062   -7.8283897    763.67428  0.018817127   0.01837624            1 
 3383000   0.69534547   -7.8047419     763.9405  0.018818122  0.018370573            2 
 3384000   0.69737736   -7.7927509    764.64127  0.018829819  0.018364927            3 
 3385000    0.7107764   -7.8267246    765.22717   0.01883868  0.018359289            2 
 3386000   0.69992962   -7.8029925    765.51771  0.018840267   0.01835362            6 
 3387000   0.70937743    -7.795847    764.86462  0.018818636  0.018347961            2 
 3388000   0.72462492   -7.8274928    763.90187  0.018789401  0.018342322            4 
 3389000   0.72540226   -7.8138383    765.88697  0.018832669  0.018336675            4 
 3390000   0.70130768   -7.7869657     765.2855  0.018812328  0.018331056            3 
 3391000    0.7013395   -7.7741046     767.0126  0.018849223  0.018325448            7 
 3392000   0.71039162   -7.7772126    766.47321  0.018830415  0.018319841            4 
 3393000   0.70745601   -7.7858037    767.11037  0.018840514  0.018314225            3 
 3394000   0.70436073    -7.809517    763.87493  0.018755523  0.018308616            4 
 3395000   0.71887799   -7.7881247    766.28431  0.018809139   0.01830301            5 
 3396000   0.69629834   -7.8176185    764.62225  0.018762815   0.01829741            3 
 3397000    0.7108954   -7.8281494    764.75217  0.018760479  0.018291801            6 
 3398000   0.69926514   -7.7944172    766.08005  0.018787523  0.018286188            3 
 3399000   0.69490633   -7.7817801     765.8069  0.018775299  0.018280565            3 
 3400000   0.70245681   -7.8032601    765.84077  0.018770607  0.018274955            9 
 3401000   0.69924475   -7.8027404    763.94896  0.018718734  0.018269346            5 
 3402000    0.7226192   -7.8079165     765.3881  0.018748484  0.018263737            4 
 3403000   0.71859447   -7.8178783    765.95524  0.018756863   0.01825813            4 
 3404000   0.70707248   -7.8246534    765.77861  0.018747028   0.01825252            4 
 3405000   0.70532848   -7.8204579    765.58986  0.018736903  0.018246908            6 
 3406000   0.71921766   -7.7975181    766.28284  0.018748357  0.018241296           11 
 3407000   0.69771668     -7.81807    765.17585  0.018715777  0.018235689            4 
 3408000   0.70668397   -7.8160764    764.23796  0.018687352  0.018230076            5 
 3409000    0.6933544   -7.8379056    764.41629   0.01868623   0.01822447            8 
 3410000   0.70309802   -7.7842697     765.5864  0.018709345  0.018218852            4 
 3411000   0.70556869   -7.8210303     766.1059  0.018716552  0.018213252            4 
 3412000   0.70104689   -7.8189133    765.84881  0.018704787  0.018207653            5 
 3413000   0.71237012   -7.8198621    766.23668  0.018708777  0.018202055            4 
 3414000   0.71073538   -7.7913437    768.15641  0.018750157  0.018196457            3 
 3415000   0.71054988   -7.8207743    765.88498  0.018689238   0.01819087            3 
 3416000   0.69049059   -7.8168673    765.82618  0.018682333  0.018185279            5 
 3417000   0.69833525   -7.8111757    766.09368  0.018683389  0.018179706            6 
 3418000   0.71170203   -7.8225898     766.1206  0.018678579  0.018174145            3 
 3419000   0.71107228   -7.8260304    766.25611  0.018676419    0.0181686            5 
 3420000   0.70768578   -7.7982449    768.15788  0.018717297   0.01816306            3 
 3421000   0.71128881    -7.812328    767.05298  0.018684911  0.018157542            3 
 3422000   0.70832102   -7.7923541    766.03636  0.018654694  0.018152007            5 
 3423000   0.71128336   -7.8364068    766.71509  0.018665768  0.018146486            3 
 3424000   0.70678891   -7.8300791    767.32299  0.018675112  0.018140946            4 
 3425000   0.69752945   -7.8553861    768.07244  0.018687894  0.018135411            8 
 3426000   0.70216229   -7.8018434    768.07661  0.018682541  0.018129882            6 
 3427000   0.70208022   -7.8125476    767.08025  0.018652861  0.018124373            3 
 3428000   0.69964705   -7.8109418    769.18298  0.018698536  0.018118854            5 
 3429000   0.69555514   -7.7981959    766.92121  0.018638116  0.018113331            4 
 3430000   0.70925567   -7.7985947    767.69271  0.018651426  0.018107809            2 
 3431000   0.71035771   -7.8025537    768.12718  0.018656543  0.018102304            3 
 3432000   0.67710047   -7.8266549    766.66152  0.018615519  0.018096794            5 
 3433000   0.70682023   -7.8168081    765.36136  0.018578536  0.018091278            6 
 3434000   0.70587443    -7.825507     766.9723  0.018612218  0.018085771            3 
 3435000   0.70421348   -7.8266585    766.71829  0.018600638  0.018080258            5 
 3436000   0.70619826   -7.8069714    765.50681  0.018565842  0.018074744            4 
 3437000   0.70842727   -7.8399872    767.10778  0.018599258  0.018069245            4 
 3438000    0.7151272   -7.8192054    768.34379  0.018623807  0.018063749            3 
 3439000   0.70309731   -7.7863732    768.59578  0.018624498  0.018058272            6 
 3440000   0.69059749   -7.7871098    769.94132  0.018651679  0.018052815            9 
 3441000   0.70325774    -7.811585    767.36573  0.018583884  0.018047333            3 
 3442000   0.70180679    -7.797078    768.70108  0.018610814  0.018041858            6 
 3443000    0.6944026   -7.8036095    768.16699  0.018592482  0.018036398            2 
 3444000   0.69413096    -7.825098    768.72368  0.018600554  0.018030937            4 
 3445000   0.69529631   -7.8039534    768.43506  0.018588173  0.018025457            3 
 3446000   0.70539545   -7.8396551    767.95979  0.018571285   0.01801996            3 
 3447000   0.71754605   -7.8119438    766.63816  0.018533946  0.018014477            2 
 3448000   0.70000428   -7.7957428    767.72681  0.018554882  0.018008992            6 
 3449000   0.71038224   -7.8073957    767.36922  0.018540863  0.018003528            3 
 3450000   0.70436145   -7.8034344    768.22027  0.018556045  0.017998069            3 
 3451000   0.70514024   -7.8029812    769.90478  0.018591345  0.017992616            3 
 3452000   0.70975561   -7.7962713    769.79948  0.018583417  0.017987185            2 
 3453000   0.70718711   -7.7952697    769.23259  0.018564355   0.01798174            3 
 3454000   0.70583062   -7.8145488    769.83877  0.018573605  0.017976304            2 
 3455000   0.70260416   -7.8074959    770.71902   0.01858946  0.017970872            3 
 3456000   0.70612931   -7.8094142    768.99318  0.018542467  0.017965437            5 
 3457000   0.70043198   -7.8121916    768.73006   0.01853076  0.017959993            6 
 3458000   0.70179249   -7.7920605    769.83967  0.018552142   0.01795454            4 
 3459000   0.69794592   -7.7964222    769.68043  0.018542942  0.017949101            3 
 3460000   0.69179537   -7.8349357    768.31939  0.018504802  0.017943659            6 
 3461000     0.703564   -7.8247297     769.6441  0.018531352  0.017938217            3 
 3462000   0.69956998   -7.8267776    768.96229  0.018509587   0.01793276            3 
 3463000   0.68943306   -7.8104782    769.78121  0.018523949  0.017927318            3 
 3464000   0.70011709   -7.8324862    769.19831  0.018504578  0.017921876            3 
 3465000   0.69924115   -7.7987442    767.39714   0.01845592   0.01791642            5 
 3466000   0.68965511   -7.8067969     767.6008  0.018455491  0.017910958            6 
 3467000   0.68795266   -7.8423094    766.19811  0.018416453    0.0179055            5 
 3468000   0.70454205   -7.8252977    767.63955  0.018445779  0.017900035            8 
 3469000   0.69132988   -7.8269459    768.09993  0.018451521  0.017894576            3 
 3470000   0.68887204    -7.821111    769.83754  0.018487933  0.017889114            3 
 3471000   0.68711686   -7.8202292     768.0287  0.018439179  0.017883652            4 
 3472000   0.68867488    -7.816912    769.54996  0.018470381  0.017878203            5 
 3473000   0.72435479   -7.7988773     768.7094  0.018444894  0.017872749            5 
 3474000   0.70589179     -7.82393     768.3132   0.01843008  0.017867307            4 
 3475000   0.71629074   -7.8260126    768.53414  0.018430075  0.017861877            4 
 3476000    0.6979497   -7.8499802    769.18834  0.018440457  0.017856443            3 
 3477000   0.70422372   -7.8307757     767.2559  0.018388839  0.017850983            3 
 3478000   0.69389342   -7.8464685    767.87473  0.018398379  0.017845541            3 
 3479000   0.68628803   -7.8148423    767.83512  0.018392141  0.017840107            3 
 3480000   0.70627019   -7.8265487    768.17733  0.018395051  0.017834675            6 
 3481000   0.69754797   -7.8256484    769.24199  0.018415254  0.017829271            5 
 3482000   0.68725009   -7.8221187    768.74812  0.018398146  0.017823873            4 
 3483000    0.7026035   -7.7979391    768.43691  0.018385418  0.017818478            3 
 3484000   0.69071984   -7.8573295    769.84685  0.018413865  0.017813079            9 
 3485000   0.68806932    -7.817026    769.95022  0.018411053  0.017807696            2 
 3486000   0.71331224   -7.8481613    768.03701  0.018360036  0.017802303            3 
 3487000   0.69496187   -7.8221305    769.67873  0.018394005  0.017796902            9 
 3488000   0.68454971   -7.8292992    769.32992  0.018380398  0.017791519            4 
 3489000   0.70412226   -7.8085915    769.31387  0.018374746  0.017786136            4 
 3490000   0.69591186   -7.8192043    770.74647  0.018403688  0.017780752            1 
 3491000   0.68486652   -7.8119549    771.24212  0.018410248  0.017775373            7 
 3492000   0.68515779   -7.8269649     770.5138  0.018387596  0.017769979            6 
 3493000   0.66777089   -7.8537503    768.75672  0.018340412  0.017764568            7 
 3494000   0.70319996   -7.8180758    769.74672  0.018358775  0.017759185           11 
 3495000   0.70411745   -7.8297472    770.16636  0.018363528  0.017753801            4 
 3496000   0.70370623   -7.8562229    768.83133  0.018326452  0.017748413            6 
 3497000   0.69449053   -7.8224277    769.11661   0.01832801   0.01774303            2 
 3498000   0.69547094   -7.8490822    768.84292   0.01831625  0.017737649            3 
 3499000   0.68131522   -7.8280823    770.07106  0.018340265  0.017732271            3 
 3500000   0.70051915   -7.8089828    769.78425  0.018328196  0.017726906            4 
 3501000   0.69558355    -7.820686    771.04811  0.018353045   0.01772154            4 
 3502000   0.68854715   -7.8334363    771.37544  0.018355593  0.017716178            3 
 3503000   0.68660692   -7.8657951    770.58264  0.018331493  0.017710817            5 
 3504000   0.68781999   -7.8506844    769.16201  0.018292475  0.017705444            3 
 3505000    0.6956406   -7.8484773    770.40186  0.018316735   0.01770005            5 
 3506000   0.69599642   -7.8439334    770.92622  0.018323974  0.017694673            4 
 3507000   0.69385312   -7.8459592    770.19043  0.018301265  0.017689287            5 
 3508000   0.68395591    -7.833201     769.4233  0.018277824  0.017683908            6 
 3509000   0.67654493   -7.8504268    768.79073  0.018257593  0.017678514            7 
 3510000   0.67894902    -7.851418    768.85194  0.018253845  0.017673134            6 
 3511000   0.69773567   -7.8297182    769.35794  0.018260656  0.017667772            3 
 3512000   0.68475127   -7.8105583    770.11826  0.018273497   0.01766242            4 
 3513000   0.70503454    -7.848726    770.24099  0.018271207  0.017657066            3 
 3514000    0.6886341   -7.8367323    770.36193  0.018268875  0.017651699            3 
 3515000   0.69640976   -7.8427296    770.73988  0.018272638  0.017646337            5 
 3516000    0.6911701   -7.8567667    769.79259  0.018244989  0.017640971           10 
 3517000   0.70952146   -7.8353501    770.03471  0.018245538   0.01763561            8 
 3518000   0.69893786   -7.8523096    770.46202  0.018250474  0.017630249            8 
 3519000    0.6883751    -7.864018    769.92073   0.01823247  0.017624891           12 
 3520000   0.68971084   -7.8180259    770.65007  0.018244556  0.017619547            4 
 3521000   0.68679445   -7.8087741    769.43647  0.018210652  0.017614185            4 
 3522000    0.6878251   -7.8406931    770.36156   0.01822737  0.017608842            4 
 3523000   0.69063905   -7.8357378    770.14161  0.018216993    0.0176035            3 
 3524000   0.68257936   -7.8592136    768.33706  0.018169151  0.017598158            5 
 3525000   0.68995461   -7.8581637    768.21846  0.018161193  0.017592805            5 
 3526000   0.67959617    -7.846096    768.69266   0.01816725  0.017587441            4 
 3527000   0.70107583   -7.8412292    769.91036  0.018190869   0.01758207            6 
 3528000   0.68634696   -7.8598546    769.72186  0.018181261  0.017576715            5 
 3529000   0.67643105   -7.8429381    769.84829  0.018179094  0.017571348            4 
 3530000   0.68701759   -7.8584445    769.10939  0.018156501   0.01756597            6 
 3531000   0.67338463   -7.8639862    768.58305  0.018138937  0.017560583            6 
 3532000    0.6758879   -7.8584638    770.09597  0.018169497  0.017555218            2 
 3533000   0.68370852   -7.8819349    770.63582  0.018177088  0.017549847            8 
 3534000   0.69381913   -7.8676289    770.66185  0.018172558  0.017544461            9 
 3535000    0.6706598   -7.8291145     770.6062  0.018166106  0.017539088            4 
 3536000   0.67635325   -7.8674849    770.55774  0.018159826  0.017533724            4 
 3537000   0.68695299   -7.8541353    770.89105  0.018162545  0.017528369            4 
 3538000    0.7001954   -7.8363973    772.08301  0.018185486  0.017523037            6 
 3539000   0.69019492   -7.8366102    769.76657  0.018125802  0.017517698            4 
 3540000   0.69219882   -7.8595473    771.43641  0.018159991  0.017512359            8 
 3541000   0.67525426   -7.8533799    771.14082  0.018147906  0.017507016            4 
 3542000   0.68413159   -7.8641058    770.55237  0.018128938  0.017501666            5 
 3543000   0.68336441   -7.8598414    770.50229  0.018122643  0.017496327           12 
 3544000    0.6743584   -7.8687265    769.49228   0.01809378  0.017490978            4 
 3545000   0.67068527   -7.8449015    770.45315  0.018111263  0.017485625            4 
 3546000   0.67589284   -7.8406612    768.45789  0.018059266  0.017480261            3 
 3547000   0.67548024   -7.8470892    769.92219  0.018088577  0.017474907            9 
 3548000   0.68621334   -7.8577707    769.33167  0.018069609   0.01746955            3 
 3549000   0.69918696    -7.869921    768.01588  0.018033622  0.017464205            3 
 3550000   0.69591046   -7.8725252    770.92439  0.018096817  0.017458852            2 
 3551000   0.68022102   -7.8493585    769.71019  0.018063226  0.017453499            3 
 3552000   0.69395546   -7.8379253    771.11841  0.018091179   0.01744816            4 
 3553000   0.68485492   -7.8502838    770.58024  0.018073465  0.017442827            2 
 3554000   0.68661402   -7.8832447    768.92923  0.018029667  0.017437461            4 
 3555000   0.66821938   -7.8456151     771.2307  0.018078544  0.017432096            5 
 3556000    0.6729145   -7.8428168     770.2605  0.018050724  0.017426734            2 
 3557000   0.67720828   -7.8706557    768.14702  0.017996135  0.017421368            4 
 3558000   0.68347859   -7.8467931    769.46349  0.018021911  0.017416011            4 
 3559000     0.677438   -7.8466167    768.91216  0.018003938  0.017410637            4 
 3560000   0.69165352   -7.8349508    770.23326  0.018029805  0.017405271            2 
 3561000   0.67837898   -7.8543965    769.69587  0.018012166  0.017399903            2 
 3562000   0.67605511    -7.843202    769.03736  0.017991703  0.017394538            3 
 3563000   0.68750019   -7.8889509    770.05413  0.018010434   0.01738917            4 
 3564000   0.68057354    -7.871682    769.03887  0.017981642  0.017383803            7 
 3565000   0.67081944   -7.8468533    769.79203  0.017994204  0.017378439            3 
 3566000    0.6783779   -7.8626409    768.89186  0.017968122  0.017373088            3 
 3567000   0.68115402   -7.8660588    768.68364   0.01795822  0.017367737            4 
 3568000   0.68601167   -7.8572176    769.63468  0.017975399  0.017362399            5 
 3569000   0.67719369   -7.8643289    770.15829  0.017982588  0.017357072            3 
 3570000   0.68478343     -7.84812    771.42545   0.01800713  0.017351756            3 
 3571000   0.67105183   -7.8732287    770.84954  0.017988648  0.017346441            4 
 3572000   0.68459084   -7.8664536    770.04825  0.017964918  0.017341107            2 
 3573000   0.69236502   -7.8832128    768.57007  0.017925414  0.017335766            2 
 3574000    0.6838819   -7.8569279    770.19055  0.017958183   0.01733042            5 
 3575000   0.68391264   -7.8411892    770.05469  0.017949993  0.017325102            2 
 3576000   0.69605224   -7.8490489    769.91665  0.017941756  0.017319773            6 
 3577000   0.69038125   -7.8550251    772.46654  0.017996145  0.017314462            2 
 3578000   0.67610637   -7.8641905    769.37359  0.017919079  0.017309151            3 
 3579000   0.68771474   -7.8504801    770.24774  0.017934426  0.017303824            3 
 3580000   0.68439302   -7.8674867     769.7869  0.017918689  0.017298502            4 
 3581000   0.68231853   -7.8874225     769.0426  0.017896365  0.017293174            8 
 3582000   0.68231042   -7.8776473    769.89785  0.017911266  0.017287844            5 
 3583000   0.67063177     -7.85765    770.81152  0.017927517  0.017282513            3 
 3584000   0.68188497   -7.8724944    770.10697  0.017906133  0.017277183            5 
 3585000     0.679028   -7.8595593    770.20004  0.017903302  0.017271858            3 
 3586000   0.67206007   -7.8690312    770.22082  0.017898792  0.017266538            6 
 3587000   0.68312102   -7.8762166    768.55446  0.017855089  0.017261215            3 
 3588000   0.67474804   -7.8768253    770.08523  0.017885666  0.017255895            7 
 3589000   0.68686124     -7.88102    769.92859  0.017877045  0.017250573            6 
 3590000   0.64461493   -7.8444802    769.74195  0.017867733  0.017245272            5 
 3591000   0.68290064    -7.880787    770.72183  0.017885497  0.017239974            3 
 3592000   0.68361938   -7.8531414    769.75738  0.017858143  0.017234661            7 
 3593000   0.68525724   -7.8736762     770.5877   0.01787243   0.01722935            3 
 3594000   0.68906509   -7.8706464    770.44646  0.017864183  0.017224043            3 
 3595000   0.67629141   -7.9022572    769.34288  0.017833632  0.017218734            3 
 3596000   0.66756622   -7.8817605    770.64815  0.017858921  0.017213425            6 
 3597000   0.67877771     -7.87381     770.3562  0.017847192  0.017208108            3 
 3598000   0.67548467   -7.8899434    771.00673  0.017857299  0.017202797            4 
 3599000   0.66631368   -7.8939373    768.15525  0.017786312  0.017197492            5 
 3600000   0.66592915   -7.8994752    769.27333  0.017807253  0.017192165            5 
 3601000   0.67443359   -7.9036533    768.57646  0.017786181  0.017186835            7 
 3602000   0.66560792   -7.9094831    769.13727  0.017794218  0.017181504            9 
 3603000   0.67794267   -7.9036238    769.17185  0.017790079  0.017176155            4 
 3604000   0.68069868   -7.8778711    769.23534  0.017786611  0.017170835           13 
 3605000   0.68951673   -7.8874591    768.31267  0.017760348  0.017165522            6 
 3606000   0.67724242   -7.8745458    770.62586   0.01780888  0.017160214            8 
 3607000   0.66064189   -7.8834332    769.35141  0.017774499  0.017154897           12 
 3608000   0.67651279   -7.9045186    770.24847  0.017790292  0.017149587            9 
 3609000   0.66120231   -7.8835118    769.30817   0.01776365  0.017144282            4 
 3610000   0.68177358   -7.8654246    769.09466  0.017753801  0.017138973            3 
 3611000   0.67911803   -7.8892689    769.95127  0.017768653  0.017133669            5 
 3612000   0.68549464   -7.8815828    769.25901  0.017747762  0.017128362            1 
 3613000   0.66738278   -7.8902741    770.70617  0.017776229  0.017123064            3 
 3614000   0.66591743   -7.8921001    769.89233  0.017752544  0.017117753            5 
 3615000   0.68587284   -7.8631847    771.15682  0.017776782  0.017112461            3 
 3616000   0.65151852   -7.8656839    768.89826  0.017719816  0.017107179            5 
 3617000   0.67925323   -7.8801366    770.35619  0.017748507  0.017101894            5 
 3618000   0.66750876   -7.8924536    769.82604   0.01773139  0.017096599            5 
 3619000   0.68430682   -7.8716194    769.92755  0.017728828  0.017091314            4 
 3620000   0.68474065    -7.896852    770.80946  0.017744232  0.017086029            4 
 3621000   0.68093955   -7.8901544    769.54164  0.017710155  0.017080736            5 
 3622000   0.67931009   -7.8954303     769.6582  0.017707947  0.017075446            4 
 3623000   0.67116771   -7.9164991    768.65255  0.017679928  0.017070156            3 
 3624000   0.69424558   -7.8809437    768.71047  0.017676381   0.01706487            5 
 3625000   0.69166085   -7.8849721    770.46788  0.017711905  0.017059591            2 
 3626000   0.66602851   -7.8925578    770.20923  0.017701076  0.017054321            4 
 3627000   0.67082996   -7.9045573    771.30317   0.01772133  0.017049038            4 
 3628000   0.68037702   -7.8883017    770.14039  0.017689737  0.017043751            3 
 3629000   0.66089034   -7.8850147     770.3253  0.017689109  0.017038458            5 
 3630000   0.67326065   -7.9040673    770.95565  0.017698706  0.017033168            3 
 3631000    0.6726879   -7.9128004    768.93643   0.01764749  0.017027892            5 
 3632000   0.67255158   -7.8915539    770.74088  0.017684033   0.01702263            4 
 3633000   0.68139554   -7.8733392    769.83098  0.017658294   0.01701736            7 
 3634000   0.68054054   -7.8979183    770.18264  0.017661499  0.017012086            7 
 3635000   0.67849389   -7.9010865    769.35245  0.017637608  0.017006819            6 
 3636000   0.66294619   -7.9324293    769.49772  0.017636086  0.017001556            9 
 3637000   0.67873365   -7.9123607    770.83765  0.017661939  0.016996285            5 
 3638000   0.66897826   -7.9062939    770.69804  0.017653886  0.016991015            8 
 3639000   0.66816903   -7.9146072     769.3527  0.017618226  0.016985745            8 
 3640000   0.66407593   -7.8971035    769.90818  0.017626103  0.016980472            4 
 3641000   0.66939527   -7.8968839    769.66569  0.017615712  0.016975215            2 
 3642000   0.65885101   -7.8789346    770.58325   0.01763187  0.016969958            3 
 3643000   0.65550798   -7.8837201    770.74797  0.017630798  0.016964713            5 
 3644000   0.67165418   -7.8872918    770.56574  0.017621792  0.016959468            5 
 3645000   0.66250014   -7.9038039    771.56279  0.017639753  0.016954207            3 
 3646000   0.67757541   -7.9158257    771.15892  0.017625684  0.016948949            4 
 3647000   0.66521977   -7.9122286    768.12217  0.017551462   0.01694369            2 
 3648000   0.68677121   -7.9067705    770.62294  0.017603777  0.016938426            3 
 3649000   0.66465693    -7.917845    770.72396   0.01760126  0.016933175            4 
 3650000   0.66650099   -7.8935183    770.45834  0.017590373  0.016927915            3 
 3651000   0.67457158   -7.9254194    770.29445  0.017581814  0.016922675            3 
 3652000   0.66933007   -7.8949987    772.10654  0.017618349  0.016917445            4 
 3653000   0.67316968   -7.8807178    769.95188  0.017564374  0.016912212            6 
 3654000   0.66251859   -7.8754381    769.67349  0.017553218  0.016906992            3 
 3655000   0.66595965   -7.8846875    771.84888  0.017598014  0.016901763            6 
 3656000   0.67793155   -7.8889723    770.95032  0.017572719  0.016896545            6 
 3657000   0.67076715   -7.9085507    771.63224  0.017583453  0.016891316            5 
 3658000   0.66711593   -7.8704252    771.70969   0.01758041  0.016886105            3 
 3659000   0.67991398   -7.8973005    770.02892  0.017537326  0.016880884            2 
 3660000   0.67038666   -7.9137918    769.43392  0.017518987  0.016875663            3 
 3661000   0.66818865   -7.8995547    770.51844  0.017538888  0.016870438            5 
 3662000   0.66921045    -7.897869    769.80297  0.017517817  0.016865215            5 
 3663000   0.67780236   -7.9167023    770.91044   0.01753823  0.016859998            4 
 3664000   0.66179668   -7.8917609    771.76887  0.017552967  0.016854803            7 
 3665000   0.66394076   -7.8843134    772.45725   0.01756383  0.016849615            4 
 3666000   0.67005661   -7.8724761    772.10471  0.017551025  0.016844432            3 
 3667000   0.64501005   -7.9021788    772.84941  0.017563163  0.016839244            3 
 3668000   0.66322385   -7.9044313    772.05812  0.017540397  0.016834056            9 
 3669000   0.67093498    -7.883285    773.03653  0.017557839  0.016828863            5 
 3670000   0.67290817    -7.877845     771.4929  0.017518004  0.016823667            6 
 3671000   0.65927533   -7.8910155    771.54356  0.017514382  0.016818478            4 
 3672000   0.66570325    -7.889669    772.06007  0.017521334  0.016813307            4 
 3673000   0.66922504    -7.898533    772.26844  0.017521291  0.016808119            4 
 3674000   0.65029661   -7.8932632    771.35363  0.017495773   0.01680296            4 
 3675000   0.66683758   -7.9006419    771.88661  0.017503098  0.016797797            8 
 3676000   0.65399893   -7.8835394    772.06049  0.017502278  0.016792648            6 
 3677000    0.6811504   -7.8788123    772.93535  0.017517345  0.016787493            4 
 3678000   0.66879803    -7.879663     771.5321  0.017480789  0.016782351            2 
 3679000   0.66108407   -7.8970031    772.22644  0.017491765  0.016777189            4 
 3680000   0.67001412   -7.9038848    771.68175  0.017474677  0.016772028            3 
 3681000    0.6643659   -7.9313888     773.2011  0.017504326  0.016766856            5 
 3682000   0.66437085   -7.9264358    770.96854  0.017449043  0.016761684            4 
 3683000   0.64792425    -7.910691    771.21525  0.017449888  0.016756508            4 
 3684000   0.66592869   -7.9124518    771.85043  0.017459519  0.016751331            4 
 3685000   0.65682393     -7.91201     772.1498  0.017461551   0.01674616            2 
 3686000   0.64620313    -7.919362    770.44823  0.017418345  0.016740997            3 
 3687000   0.66524682    -7.922127    770.72367  0.017419846  0.016735816            2 
 3688000   0.63967089   -7.9136215     770.4595  0.017409153  0.016730624            3 
 3689000    0.6638304   -7.9101714    769.48201  0.017382353  0.016725435            5 
 3690000   0.65050104   -7.9303338    771.25306  0.017417639  0.016720253            4 
 3691000   0.65590028   -7.9394483    770.89148  0.017404757  0.016715065            6 
 3692000    0.6688981   -7.9366663    771.01422  0.017402813  0.016709889            6 
 3693000   0.64417886   -7.9183723     771.4231  0.017407327  0.016704714            3 
 3694000   0.67265059   -7.9053157    770.82232  0.017389062  0.016699543            6 
 3695000   0.66813598   -7.9162138    772.42312  0.017420458  0.016694383            9 
 3696000   0.65398183   -7.9196182    770.78801  0.017378878  0.016689217            3 
 3697000   0.64615947   -7.9172359    772.23839   0.01740687  0.016684045            3 
 3698000   0.65872416    -7.946481    770.56609  0.017364478  0.016678871            3 
 3699000   0.65362027   -7.8769382    771.00326  0.017369633  0.016673709            4 
 3700000    0.6629539   -7.9136973    770.86383  0.017361798  0.016668546            6 
 3701000    0.6675806   -7.9150502     771.7125  0.017376216  0.016663383            7 
 3702000   0.66534435   -7.9276042    769.70073  0.017326236  0.016658216            5 
 3703000   0.65772791    -7.915419    769.97088  0.017327637   0.01665305           11 
 3704000   0.66847886   -7.9243338     770.5775  0.017336607  0.016647874            4 
 3705000   0.65776254   -7.9288303    770.08774  0.017320912  0.016642695            2 
 3706000   0.66745693   -7.9126805    769.49196  0.017302841  0.016637528            3 
 3707000   0.66057517   -7.9218094    770.17469  0.017313522  0.016632373            7 
 3708000   0.66637835   -7.9191466    771.48148  0.017338221  0.016627223            6 
 3709000    0.6669804   -7.9142372    771.30729  0.017329633  0.016622076            4 
 3710000   0.66529866   -7.8967862    771.31261  0.017325081  0.016616942            3 
 3711000   0.66008798    -7.914467    771.41747  0.017322767  0.016611806            4 
 3712000   0.66604634   -7.9021147    772.84739  0.017350202   0.01660668            4 
 3713000   0.64668838   -7.9029647    772.51377  0.017338041  0.016601565            7 
 3714000    0.6478005   -7.9375868    771.32193  0.017306631  0.016596442            7 
 3715000   0.64779874   -7.9095097    770.59912  0.017285759  0.016591314            9 
 3716000   0.65474515   -7.9049956    771.28227  0.017296427  0.016586179            9 
 3717000   0.64454308   -7.9150458    770.83493  0.017281744  0.016581044            2 
 3718000   0.68329646   -7.9191347       770.13  0.017261296  0.016575893            4 
 3719000   0.66988218   -7.9350386    770.53491  0.017265728  0.016570752            3 
 3720000   0.65752978   -7.9372204    771.32352  0.017278753    0.0165656            4 
 3721000   0.64856803   -7.9114608    772.32375   0.01729651  0.016560442            4 
 3722000    0.6448685   -7.9150511    770.82888  0.017258393  0.016555299            4 
 3723000   0.66011968   -7.9178909    771.85281  0.017276677  0.016550171            4 
 3724000   0.66909621   -7.9351979    769.52451  0.017219936  0.016545031            4 
 3725000   0.65226451   -7.9298967    772.19777  0.017275118  0.016539882            4 
 3726000   0.65567903   -7.9369092     771.0079   0.01724387  0.016534736            6 
 3727000   0.65241633   -7.9324815    770.81485  0.017234927  0.016529587            4 
 3728000   0.65637286    -7.929186    770.91307  0.017232499  0.016524454            9 
 3729000   0.66243983   -7.9326242     771.6537  0.017244429  0.016519302            6 
 3730000   0.65937944   -7.9216372    770.43936  0.017212676  0.016514172            7 
 3731000   0.65454572   -7.9260852    772.00114  0.017242945  0.016509025            2 
 3732000    0.6670608   -7.9253344    771.12752  0.017218817  0.016503877            5 
 3733000   0.65343841    -7.923851    770.97773  0.017210861  0.016498746            3 
 3734000   0.66001296   -7.9172782    771.51128  0.017218159  0.016493616            4 
 3735000   0.64730228   -7.9366681    772.11084  0.017226926  0.016488477            7 
 3736000    0.6511609    -7.927299    771.82341  0.017215904  0.016483356            4 
 3737000   0.64499942   -7.9511347    772.01916  0.017215662  0.016478226            3 
 3738000   0.63432096   -7.9389261    772.34123  0.017218237  0.016473103            2 
 3739000   0.64771033   -7.9262173    770.26581  0.017167376  0.016467979            5 
 3740000   0.65918219   -7.9244597    770.88717   0.01717663  0.016462868            4 
 3741000   0.66471371   -7.9115122    771.80003  0.017192374  0.016457758            4 
 3742000   0.65871366   -7.9443956    771.98276  0.017191848  0.016452648            4 
 3743000   0.66514189   -7.9353811    771.42997  0.017174948  0.016447515            5 
 3744000   0.65098849   -7.9467459    770.91442  0.017158886  0.016442384            5 
 3745000   0.65968007   -7.9224415    772.39177  0.017187178  0.016437275            2 
 3746000   0.66263193   -7.9491431    771.64456  0.017165967  0.016432154            4 
 3747000   0.65484043   -7.9300994    772.38866  0.017177935  0.016427034            5 
 3748000    0.6596083   -7.9364926    771.43825   0.01715222  0.016421925            3 
 3749000   0.66039255   -7.9454182    771.22448  0.017142893  0.016416804            4 
 3750000   0.64408421   -7.9387823    771.64104  0.017147579  0.016411699            3 
 3751000   0.66227042   -7.9651587    771.01612  0.017129124  0.016406596            4 
 3752000   0.64970846   -7.9250146    771.54049  0.017136205  0.016401489            4 
 3753000   0.65598158   -7.9418954    771.40164  0.017128556  0.016396382            5 
 3754000   0.64451581   -7.9407477    771.12779  0.017117914  0.016391269            4 
 3755000   0.65953404   -7.9157122    770.34717  0.017096031  0.016386168            3 
 3756000   0.66128679   -7.9554989    771.27662  0.017112101   0.01638107            2 
 3757000   0.65433705   -7.9432556    771.01986  0.017101851  0.016375958            6 
 3758000   0.63954061   -7.9543138    770.87855  0.017094167  0.016370853            3 
 3759000   0.65507689    -7.949975    771.24365  0.017097713  0.016365754            6 
 3760000   0.64731211   -7.9673779    771.34895    0.0170955  0.016360657            6 
 3761000   0.64979222   -7.9736512    772.29021   0.01711181  0.016355563            3 
 3762000   0.65753786   -7.9582488    771.17526  0.017082564   0.01635047            8 
 3763000   0.64183193   -7.9194522    771.26384  0.017079986  0.016345383            3 
 3764000   0.65644321   -7.9433511    773.47224  0.017124341  0.016340304            4 
 3765000    0.6523674   -7.9514941    772.03965  0.017088084  0.016335208            4 
 3766000   0.65361686   -7.9244701    771.88782  0.017080187  0.016330125            1 
 3767000   0.65307621   -7.9726382    771.18591  0.017060126  0.016325032            4 
 3768000   0.64758459   -7.9467029     771.0917  0.017053514  0.016319945            4 
 3769000   0.64589377   -7.9651734    769.92311  0.017023152  0.016314857            6 
 3770000   0.64994389   -7.9756182    770.15115  0.017023677  0.016309756            6 
 3771000   0.65066185   -7.9263173    772.45278  0.017070025  0.016304671            5 
 3772000   0.66642654    -7.944195    771.29097  0.017039832  0.016299596            3 
 3773000   0.63907265   -7.9469241    770.33207  0.017014137  0.016294509            7 
 3774000   0.66011361   -7.9632386    771.56772  0.017036913   0.01628942            3 
 3775000   0.66344749   -7.9430641    769.31493   0.01698267  0.016284331            8 
 3776000   0.65478842   -7.9409932    772.14644  0.017040661  0.016279247            6 
 3777000   0.65764321   -7.9536019    770.37933  0.016997161  0.016274165            5 
 3778000    0.6519338   -7.9489616    770.34673  0.016991943   0.01626908            4 
 3779000   0.63956914   -7.9479618    772.84113  0.017042452  0.016264002            3 
 3780000   0.64504587   -7.9473279     770.3377  0.016982754  0.016258923            4 
 3781000   0.64974426   -7.9569792     770.4349  0.016980404  0.016253834            4 
 3782000   0.62788853    -7.934195    771.63141  0.017002279  0.016248756            7 
 3783000   0.63918423   -7.9415176    771.64825  0.016998155  0.016243682            9 
 3784000    0.6304119   -7.9567947    768.92772   0.01693375  0.016238599            4 
 3785000   0.64888576   -7.9749951    770.28092  0.016959069  0.016233519            2 
 3786000   0.64014775   -7.9520024    771.50848  0.016981609  0.016228444            3 
 3787000   0.64171186   -7.9480707    769.84948  0.016940619  0.016223365            5 
 3788000   0.66187082   -7.9343691    771.99686  0.016983387  0.016218291            5 
 3789000   0.63081789   -7.9429835    772.49018  0.016989755  0.016213223            4 
 3790000   0.64535888   -7.9635594    771.22531  0.016957461  0.016208152            3 
 3791000   0.64531622   -7.9850922    770.39972   0.01693484  0.016203072            5 
 3792000   0.64715786   -7.9726947     772.1898  0.016969713   0.01619801            6 
 3793000   0.63581527   -7.9544052    770.63125  0.016930997  0.016192952            3 
 3794000   0.65501384   -7.9664443    770.75098  0.016929164  0.016187886            6 
 3795000   0.64441022    -7.978592    771.63064  0.016944019  0.016182815            5 
 3796000   0.63278837   -7.9820329    770.01217  0.016904025  0.016177748            5 
 3797000   0.64560845   -7.9614981    771.15056  0.016924558   0.01617268            4 
 3798000   0.64391996   -7.9461808     770.7395  0.016911083  0.016167627            4 
 3799000     0.641463    -7.966116    770.68709  0.016905481  0.016162575            2 
 3800000   0.62989108   -7.9596303    769.89396   0.01688364  0.016157523            4 
 3801000   0.64609343   -7.9587509    772.64614  0.016939536  0.016152472            5 
 3802000   0.63253991   -7.9798426    771.44405  0.016908733  0.016147426            4 
 3803000   0.64764684   -7.9395534    772.19091  0.016920653  0.016142377            3 
 3804000   0.66144535   -7.9612209    770.59302    0.0168812  0.016137348            4 
 3805000   0.65058289   -7.9614566    771.81164  0.016903452  0.016132316            5 
 3806000    0.6511242   -7.9616497    772.50338  0.016914157  0.016127286            3 
 3807000   0.63604252    -7.949365    771.48591  0.016887442  0.016122258            7 
 3808000   0.63872838   -7.9352433    769.79083  0.016845913  0.016117233            6 
 3809000   0.64155969   -7.9438106    770.17433   0.01684988  0.016112204            5 
 3810000   0.64568931   -7.9655349     770.2324  0.016846728  0.016107172            4 
 3811000   0.63260444   -7.9463757    772.01607   0.01688131  0.016102148            5 
 3812000     0.643025      -7.9569      771.392  0.016863239  0.016097137            7 
 3813000   0.66016813   -7.9510456    770.77428  0.016845316  0.016092107            4 
 3814000   0.63138477   -7.9612773    771.25143  0.016851325  0.016087077            3 
 3815000   0.63868957    -7.961524    770.40838  0.016828492  0.016082045            4 
 3816000   0.63315585   -7.9616964    770.74275  0.016831384  0.016077016            4 
 3817000   0.63905973    -7.954868    771.71542   0.01684821  0.016071999            3 
 3818000   0.64547616   -7.9527657    769.59056  0.016797419  0.016066992            3 
 3819000   0.63289191   -7.9553236    770.79045  0.016819203  0.016061975            3 
 3820000   0.63829132    -7.968926    771.11699  0.016821924  0.016056956            6 
 3821000   0.64514078   -7.9477813    770.79527  0.016810505   0.01605194           17 
 3822000   0.64807265   -7.9678386    771.50453  0.016821571  0.016046925            9 
 3823000   0.63237103   -7.9500701    771.68232  0.016821046  0.016041917           11 
 3824000   0.64440604   -7.9725913     771.5931  0.016814703  0.016036903            3 
 3825000   0.63289252    -7.961537    771.39102  0.016805905  0.016031887            6 
 3826000   0.63673505   -7.9603912    771.23514  0.016798117  0.016026871            7 
 3827000   0.63820779   -7.9690395    772.05679  0.016811619  0.016021855            3 
 3828000   0.64600846   -7.9843978    771.20094  0.016788596  0.016016847           15 
 3829000   0.64549745   -7.9667073    771.06508  0.016781255  0.016011836            8 
 3830000   0.63040996   -7.9517607     770.6398   0.01676762  0.016006827            4 
 3831000   0.64748587   -7.9769132    770.89248  0.016768739  0.016001817            3 
 3832000   0.62414818   -7.9707215    770.74112  0.016761072  0.015996788            5 
 3833000   0.63499256   -7.9879095    770.73322  0.016756527   0.01599177            6 
 3834000    0.6332278   -7.9800816    772.50117  0.016790583  0.015986759            3 
 3835000   0.63847836   -7.9920745    769.63414  0.016723906   0.01598175            5 
 3836000   0.64114818   -7.9634797    771.16003  0.016752694  0.015976734            6 
 3837000   0.64676566   -7.9859792    770.99591  0.016744764   0.01597173            6 
 3838000   0.64354297   -7.9853654    772.25205  0.016767675  0.015966724            5 
 3839000   0.63274219   -7.9804784    771.10441  0.016738396  0.015961727            7 
 3840000   0.63998714   -7.9678409    770.93921  0.016730451  0.015956722            5 
 3841000   0.64331121   -7.9735965    771.25486  0.016732944  0.015951721            9 
 3842000   0.64617318   -7.9883938    770.86515  0.016720136  0.015946731            5 
 3843000   0.63909856   -7.9740781    770.27636  0.016703018  0.015941725            7 
 3844000    0.6338353    -7.958007    771.94663  0.016734882  0.015936724            6 
 3845000    0.6315491   -7.9804366    770.68383  0.016703161  0.015931724            5 
 3846000   0.65741151   -7.9541661    772.48066  0.016737751  0.015926723            5 
 3847000   0.64777452   -7.9513059    770.63729  0.016693469  0.015921729            6 
 3848000   0.63666133   -7.9685931    771.49789  0.016707768  0.015916742            8 
 3849000   0.63483272   -7.9597064    771.79005  0.016709753  0.015911758           10 
 3850000    0.6460606   -7.9816308    771.12304  0.016690975  0.015906767            4 
 3851000   0.61321348   -7.9775848     771.3454  0.016691452  0.015901781           12 
 3852000   0.65021754   -7.9964227    771.59859  0.016692597  0.015896788            8 
 3853000   0.62029854    -7.969368    770.94612  0.016674153    0.0158918           10 
 3854000    0.6343238   -7.9916896    771.90257  0.016690507  0.015886815            8 
 3855000   0.63078312   -7.9758025    771.12818  0.016669438  0.015881829            6 
 3856000   0.62571253   -8.0090245    770.50862  0.016651725  0.015876838            8 
 3857000   0.62470551   -7.9870004    772.25634  0.016685168  0.015871856            7 
 3858000   0.63234538   -7.9763511    772.05604  0.016676517  0.015866888            7 
 3859000   0.64010278   -7.9805933    771.69403  0.016664378  0.015861911           10 
 3860000   0.64122935   -7.9807039    769.60028  0.016614859  0.015856935           11 
 3861000   0.62499969   -7.9743623    771.35996  0.016648536  0.015851958            3 
 3862000   0.61974311   -7.9745341    771.11595   0.01663896  0.015846984            7 
 3863000   0.64252192   -7.9780747    772.26274  0.016659391  0.015842005            6 
 3864000   0.63109978   -7.9721263    771.57338  0.016640213  0.015837043            6 
 3865000   0.63702054   -7.9805894     771.3713   0.01663155  0.015832074            8 
 3866000   0.63448666    -8.023789    769.87781  0.016595055  0.015827108            5 
 3867000   0.63041355   -7.9743051    770.77464   0.01661009  0.015822131            6 
 3868000   0.62877305   -7.9615631    771.33484  0.016617865  0.015817165            3 
 3869000   0.63691619   -7.9642523    771.32422  0.016613341  0.015812216            5 
 3870000   0.63032985   -7.9698197     772.0804  0.016625332  0.015807254            6 
 3871000   0.63226028   -7.9745978    771.92618  0.016617717  0.015802295            7 
 3872000   0.63841556   -7.9726516    771.54924  0.016605313   0.01579735            3 
 3873000   0.63295489    -7.970709    771.94365  0.016609511  0.015792405            3 
 3874000   0.63444963   -7.9771253    771.25149  0.016590335  0.015787459            8 
 3875000   0.64019579   -7.9744412    770.85701   0.01657757   0.01578252           12 
 3876000   0.63406268   -7.9753801     770.6518  0.016568881  0.015777578            6 
 3877000   0.61700468   -7.9839941    771.69008  0.016586925  0.015772637            4 
 3878000   0.63623744   -7.9920355    772.47317  0.016599475  0.015767691           11 
 3879000   0.63805051   -7.9869737    771.26498   0.01656924  0.015762752            6 
 3880000    0.6324333    -7.993543    772.31493   0.01658752  0.015757814            6 
 3881000   0.62947579   -7.9930678    771.68006  0.016569614   0.01575288            4 
 3882000   0.63128701    -7.975876     772.2941  0.016578527  0.015747938            7 
 3883000   0.63249258   -7.9942056    771.58072  0.016558948   0.01574299            7 
 3884000   0.63168508   -7.9946285      771.873  0.016560955  0.015738054           11 
 3885000   0.62358189   -7.9585367    772.00021  0.016559421   0.01573312            6 
 3886000   0.64553835   -7.9836263     771.4698  0.016543785   0.01572819            5 
 3887000   0.62539596   -7.9836296    769.74827  0.016502621  0.015723254            3 
 3888000   0.61663276   -7.9837152     771.5205  0.016536362  0.015718328            3 
 3889000   0.63941423   -7.9979288    769.81152   0.01649549  0.015713399            9 
 3890000   0.65064526   -7.9868998    769.50772  0.016484741  0.015708462            7 
 3891000   0.60445535   -7.9805069    770.02735  0.016491634  0.015703522           12 
 3892000   0.62588675   -7.9942568    771.71639  0.016523561  0.015698594            5 
 3893000   0.63570353   -7.9921557    770.87453  0.016501296  0.015693674            5 
 3894000   0.62226444   -7.9919901    769.93214  0.016476891   0.01568876            6 
 3895000   0.62981074   -7.9929838    771.88824  0.016514511  0.015683836            6 
 3896000   0.64002828   -7.9965053    770.24146  0.016475048  0.015678916            7 
 3897000   0.63340936   -7.9897601    770.18365  0.016469584  0.015673982            4 
 3898000   0.64029077   -8.0123092    771.11993  0.016485376  0.015669064            4 
 3899000   0.60887164   -7.9859733     770.0655  0.016458611  0.015664145            4 
 3900000   0.63297388   -7.9931496    771.18918  0.016478401  0.015659225            5 
 3901000   0.63991179   -7.9958278    769.90534  0.016446752  0.015654309            5 
 3902000   0.62096597   -7.9833467    770.89118  0.016463591  0.015649398            7 
 3903000   0.62958089   -7.9926178    771.81589  0.016479116  0.015644491            3 
 3904000   0.62091706   -7.9768704    771.83446  0.016475291   0.01563958            4 
 3905000   0.62495051    -7.972513     771.7029  0.016468265  0.015634675            5 
 3906000   0.62716884   -7.9738568    772.51691  0.016481416  0.015629775            6 
 3907000   0.64334899   -8.0008809     771.4428  0.016454287  0.015624865            3 
 3908000     0.629172   -7.9866463    770.24554  0.016424547   0.01561995            4 
 3909000   0.62284281   -8.0055325     770.4352  0.016424388  0.015615032            3 
 3910000   0.62010091   -7.9758161    770.17582  0.016414659  0.015610117            2 
 3911000   0.63080278   -7.9877504    773.30592  0.016477157  0.015605217            2 
 3912000   0.62653912   -7.9819223    770.90744  0.016421852   0.01560031            4 
 3913000   0.62141178   -7.9893908    772.08745  0.016442786   0.01559541            7 
 3914000   0.61358016    -8.001537    771.66897  0.016429675  0.015590521            3 
 3915000   0.64108916   -7.9898367    770.54571  0.016401569  0.015585613           10 
 3916000   0.63276104   -7.9938129    771.38896  0.016415325  0.015580716            9 
 3917000   0.62382938   -7.9933614    772.61371  0.016437191  0.015575823            5 
 3918000   0.63136685   -7.9640315     771.2176  0.016403301  0.015570933            5 
 3919000   0.62981967   -7.9969423    771.11618  0.016396959  0.015566041            4 
 3920000   0.62228476   -7.9751034    771.11993  0.016392856  0.015561145            7 
 3921000   0.62524614   -7.9859697    770.48519  0.016375185  0.015556252            3 
 3922000   0.62020742   -7.9913859     772.7712  0.016419582  0.015551366            9 
 3923000   0.60090423   -7.9791097    770.62981  0.016369908  0.015546473            3 
 3924000    0.6219621   -7.9726367    771.84018  0.016391441  0.015541591            6 
 3925000   0.62329166   -7.9825019    771.71538  0.016384615   0.01553672            8 
 3926000   0.61299558   -8.0123516    771.88735  0.016384092  0.015531845            7 
 3927000   0.61201824   -7.9853165     771.3035   0.01636753  0.015526965            5 
 3928000   0.63684063   -7.9923601     771.4156  0.016365742  0.015522083            9 
 3929000   0.63032928   -8.0007389    772.11651  0.016376443  0.015517209            5 
 3930000   0.61442307   -7.9989547    770.10951  0.016329718  0.015512329            6 
 3931000   0.62567485   -7.9672747    770.86792  0.016341642  0.015507451            6 
 3932000   0.62679277   -8.0144051    770.69513  0.016333824  0.015502577            5 
 3933000   0.62670031   -8.0025333    772.63618  0.016370798  0.015497701            4 
 3934000   0.61263803   -7.9911172    770.86354  0.016329087  0.015492818            6 
 3935000   0.62227636   -8.0202568     769.6342  0.016298903  0.015487936            5 
 3936000   0.61803366   -7.9891506    769.52043  0.016292353   0.01548304            3 
 3937000   0.62939527   -8.0052014    770.55426  0.016310098  0.015478157            4 
 3938000   0.63274363   -8.0185045    771.87933  0.016333996  0.015473271            4 
 3939000   0.61443827   -8.0217732    770.12711   0.01629278  0.015468375            4 
 3940000   0.62639596   -7.9931248    770.51927  0.016296939  0.015463493           15 
 3941000   0.62431402    -7.998408    769.57287  0.016272792  0.015458606            4 
 3942000    0.6192439   -7.9974388    769.74771   0.01627236  0.015453715            4 
 3943000   0.63257451   -7.9985937    771.09514   0.01629671  0.015448825            3 
 3944000   0.61622687     -7.99192     771.3938  0.016298889  0.015443955            5 
 3945000   0.61215525   -8.0171841    769.56868  0.016256204  0.015439074            5 
 3946000   0.62187167   -8.0282534    769.63438  0.016253471  0.015434191           11 
 3947000   0.62127085   -7.9815992    772.11387  0.016301703  0.015429304            6 
 3948000   0.62101582   -7.9791413    770.46981  0.016262872  0.015424428            7 
 3949000   0.61944522   -8.0049368    771.01815  0.016270325  0.015419556            4 
 3950000   0.61444452   -8.0114384    770.84863  0.016262629  0.015414682            4 
 3951000   0.61801968   -8.0011743    770.72244  0.016255852   0.01540981            3 
 3952000   0.61169712   -7.9911039    771.12982  0.016260329  0.015404944            5 
 3953000   0.60455105   -8.0009378    770.33146  0.016239385  0.015400079            9 
 3954000    0.6239538   -8.0081742    769.55079  0.016218825  0.015395206            3 
 3955000   0.61529655   -8.0129261    771.00645  0.016245395  0.015390338            3 
 3956000   0.60627923   -8.0333699    770.59508  0.016232623  0.015385469            2 
 3957000    0.6181774   -8.0095702    770.23229  0.016220881  0.015380593            4 
 3958000   0.61328075   -7.9972991    770.34783  0.016219215  0.015375729            3 
 3959000   0.61762987   -8.0122886     770.6113  0.016220664  0.015370868            3 
 3960000   0.60923394   -7.9995192    771.02638  0.016225303  0.015365999            4 
 3961000    0.6129227   -8.0081955    769.85143  0.016196487  0.015361137            4 
 3962000   0.62068459   -7.9920744    769.10267   0.01617665  0.015356274            6 
 3963000   0.61329965   -7.9951571    770.84026  0.016209106  0.015351419            4 
 3964000   0.62495473   -7.9919812     771.2819  0.016214302  0.015346567            8 
 3965000   0.63433393   -8.0175584    770.83084  0.016200732  0.015341719            4 
 3966000   0.61785258    -8.015217    771.97887   0.01622077  0.015336868            4 
 3967000   0.61584086   -8.0021585    770.03969  0.016175945  0.015332018            3 
 3968000   0.62096344   -8.0168131    768.48141  0.016139143  0.015327161            7 
 3969000   0.60909561   -7.9783348    770.38032  0.016174946  0.015322313            3 
 3970000   0.64120505   -8.0135138    769.28236  0.016147825  0.015317473            4 
 3971000   0.62180866   -8.0086143    771.47649  0.016189803  0.015312637            4 
 3972000   0.61465882   -8.0025104    770.31445  0.016161347  0.015307787            6 
 3973000   0.62205107   -8.0260302     769.5878  0.016142038  0.015302938            3 
 3974000   0.61914491   -8.0263476    770.86374  0.016164732  0.015298095            3 
 3975000   0.61249419    -8.016571    770.21301  0.016147023  0.015293252            4 
 3976000   0.59492644   -8.0232467    771.35192  0.016166833  0.015288411            6 
 3977000   0.62437616   -7.9917135    769.97357  0.016133886  0.015283575            5 
 3978000   0.61555834   -8.0089545    768.87593  0.016106836  0.015278731            8 
 3979000   0.59693604   -8.0176129    771.09907  0.016149348  0.015273886            3 
 3980000    0.6124458   -8.0189068    769.41041  0.016109933  0.015269042            4 
 3981000   0.60907328   -8.0289174    769.76457    0.0161133  0.015264194            4 
 3982000   0.62410695   -8.0204736    770.36634  0.016121847  0.015259353            2 
 3983000   0.62296509   -8.0267148    771.58042  0.016143201  0.015254515            3 
 3984000   0.60951051   -8.0171198    769.58488  0.016097408  0.015249677            3 
 3985000   0.61070782   -8.0232756    769.78478  0.016097549  0.015244839            4 
 3986000   0.61196362    -8.014146    769.75996  0.016092991  0.015240003            3 
 3987000   0.62244013   -8.0317736      769.276   0.01607884  0.015235167            4 
 3988000   0.61497295    -8.031637     770.2108  0.016094341  0.015230332            2 
 3989000   0.62607728   -8.0427401    769.26204  0.016070486  0.015225508            2 
 3990000   0.61505177   -8.0279288    769.90737  0.016079937  0.015220674            5 
 3991000   0.60357268    -8.042049      770.104  0.016080013  0.015215838            8 
 3992000   0.61113511   -8.0125864    770.32901  0.016080682  0.015210997            5 
 3993000   0.61444401   -8.0436242    770.54047  0.016081068  0.015206159            6 
 3994000   0.60938378   -8.0266846    768.54553  0.016035418  0.015201314            6 
 3995000   0.61286101   -8.0501981    769.70931   0.01605568  0.015196474            6 
 3996000   0.60893057    -8.022964    768.93515  0.016035518  0.015191638            8 
 3997000   0.61225179   -8.0315109    769.16813  0.016036363  0.015186802            4 
 3998000   0.61291107   -8.0305011    769.51768  0.016039638  0.015181966            2 
 3999000   0.60377496   -8.0373727    769.06423  0.016026178  0.015177142            5 
 4000000   0.61780632   -8.0167203    768.71904   0.01601498  0.015172319            6 
 4001000   0.60036571   -8.0450917    768.74976  0.016011617  0.015167497            8 
 4002000   0.60413543   -8.0179774    769.36806  0.016020491  0.015162671            7 
 4003000   0.60220713   -8.0283992    769.75745  0.016024595  0.015157851            2 
 4004000   0.60784093   -8.0446525    769.17704  0.016008513  0.015153037            4 
 4005000   0.62770599   -8.0277862    768.45794  0.015989554  0.015148222            4 
 4006000   0.61569008   -8.0411553    768.89063  0.015994563  0.015143399            2 
 4007000   0.61138138   -8.0365979    770.06886  0.016015075  0.015138588            5 
 4008000   0.61950883   -8.0202491     769.8093  0.016005682  0.015133778            7 
 4009000   0.61008716   -8.0325377    770.03676  0.016006418  0.015128971           13 
 4010000    0.6082976   -8.0167428    770.41317  0.016010249  0.015124164            7 
 4011000    0.6243647   -8.0277291    770.22873  0.016002425  0.015119356            7 
 4012000   0.60716403   -8.0301292    769.95843  0.015992822  0.015114542            4 
 4013000   0.61373807   -8.0297954    770.24795  0.015994849   0.01510973            6 
 4014000   0.60745258   -8.0481064     769.4471  0.015974238  0.015104915            4 
 4015000   0.59966302   -8.0511747    769.44925  0.015970304  0.015100095            2 
 4016000    0.6061822   -8.0441596     768.7938  0.015952727   0.01509528            6 
 4017000   0.61703777   -8.0395041    769.39116  0.015961148  0.015090464            3 
 4018000   0.59624483   -8.0561911    769.15269  0.015952229  0.015085645            4 
 4019000   0.60816766    -8.047732    768.93858  0.015943821  0.015080822            3 
 4020000   0.60617281   -8.0326152    768.74202   0.01593578  0.015076007            9 
 4021000   0.62560009   -8.0311287    770.14351  0.015960862  0.015071197            7 
 4022000   0.59313936   -8.0414582    770.50381  0.015964359  0.015066395            5 
 4023000   0.59830012   -8.0214856    768.96996  0.015928618  0.015061601            7 
 4024000   0.60804985     -8.03838    768.65143  0.015918063  0.015056807           11 
 4025000   0.60768228   -8.0530812    768.39692  0.015908839  0.015052006            4 
 4026000   0.60037171    -8.038866    769.61786  0.015930159  0.015047219            3 
 4027000   0.61069208   -8.0479926    768.90436  0.015911439  0.015042428            4 
 4028000   0.61683484   -8.0321579    769.82805  0.015926598  0.015037638            3 
 4029000   0.59858039    -8.057369    768.98526  0.015905213  0.015032845            5 
 4030000   0.61510948   -8.0236355     769.4877  0.015911656  0.015028055            2 
 4031000   0.60633942   -8.0281941     767.6873  0.015870489  0.015023281            4 
 4032000   0.60340575   -8.0454269    768.98663  0.015893407  0.015018496            5 
 4033000   0.61215369   -8.0309589    767.62617  0.015861356  0.015013708            8 
 4034000   0.59695005   -8.0574884    769.96985  0.015905839  0.015008923            7 
 4035000   0.60577786   -8.0615143    768.58491  0.015873294  0.015004128            7 
 4036000   0.60722356   -8.0708894    768.54184  0.015868472   0.01499935            4 
 4037000   0.61023015   -8.0495218    770.25651  0.015899936  0.014994564            3 
 4038000    0.6104479   -8.0538923     769.1751  0.015873681  0.014989786            4 
 4039000   0.59934782   -8.0556396    768.36178  0.015852971  0.014985007            6 
 4040000   0.60546506   -8.0386818    767.79202  0.015837294  0.014980231            7 
 4041000   0.60868595     -8.05509    769.68285  0.015872368  0.014975457            5 
 4042000   0.59369679   -8.0631609    770.02038    0.0158754  0.014970682            3 
 4043000    0.6064241   -8.0364674    770.21182  0.015875419  0.014965907            2 
 4044000   0.61219625   -8.0691634    769.61015  0.015859095  0.014961134            7 
 4045000   0.60483919   -8.0536242    769.68156  0.015856645  0.014956368            4 
 4046000   0.59210437   -8.0280067    768.51973  0.015828796  0.014951597            6 
 4047000   0.60565468   -8.0478059    768.59844  0.015826506   0.01494683            6 
 4048000   0.59578345   -8.0660997    769.90532    0.0158495   0.01494206            5 
 4049000   0.59210238   -8.0544952    770.13884  0.015850392  0.014937297            6 
 4050000   0.61276739   -8.0546035    768.61893  0.015815204  0.014932534            7 
 4051000   0.60436853   -8.0750215    768.36175   0.01580601  0.014927767            5 
 4052000   0.61068526   -8.0460199    768.74789   0.01581005  0.014923004            6 
 4053000   0.60440994   -8.0614297    768.35608  0.015798094  0.014918246            4 
 4054000   0.59208458   -8.0709092    769.25943  0.015812766  0.014913487            6 
 4055000   0.60125689   -8.0428881    768.57355  0.015794771  0.014908724            5 
 4056000   0.59393988   -8.0454813    769.96218  0.015819407  0.014903973            4 
 4057000   0.60444414   -8.0646069    769.52732  0.015806575  0.014899225            4 
 4058000   0.61128049   -8.0237144    769.12365  0.015794391  0.014894478            4 
 4059000   0.60709709   -8.0448233    770.11639  0.015810881  0.014889738            9 
 4060000   0.60776566   -8.0371661    768.50463  0.015773905  0.014884986           10 
 4061000   0.59725349   -8.0575567    769.60804  0.015792663  0.014880238            6 
 4062000   0.61230886    -8.050476    769.44743   0.01578548  0.014875488            5 
 4063000   0.59304371   -8.0574671    768.76233  0.015767543   0.01487075            4 
 4064000    0.6195483   -8.0386409    769.19715  0.015772579  0.014866008            4 
 4065000   0.58373457   -8.0630976    769.89453  0.015782996  0.014861273           10 
 4066000   0.59628793   -8.0435658    769.15294  0.015763915   0.01485655            6 
 4067000   0.59420427   -8.0501725    769.97311  0.015776844  0.014851811            5 
 4068000   0.59211909    -8.054614    769.11233  0.015755333  0.014847067            7 
 4069000   0.60140944    -8.054862    768.45542  0.015738007   0.01484233           11 
 4070000   0.61301195   -8.0487954    768.21323  0.015729182  0.014837591            5 
 4071000   0.58748844   -8.0719966    769.77944  0.015757378  0.014832861            7 
 4072000   0.61179704   -8.0513206    769.69696   0.01575182  0.014828133           10 
 4073000    0.5938648    -8.056834    767.02433  0.015693271  0.014823401            4 
 4074000   0.59997452   -8.0737956    768.83601  0.015726477  0.014818674            3 
 4075000   0.61237448    -8.044988    769.12728  0.015728574  0.014813954            7 
 4076000   0.58765465   -8.0584526    769.93968  0.015741325  0.014809229            5 
 4077000   0.60431647   -8.0659527    770.06876  0.015740102  0.014804509            4 
 4078000   0.59769866   -8.0506567    768.27221   0.01569953  0.014799794            4 
 4079000   0.61448665    -8.065433    769.21254  0.015714892  0.014795076            6 
 4080000   0.59703708   -8.0483557    769.76512  0.015722327  0.014790358            2 
 4081000   0.57724227   -8.0564107    769.54428  0.015713965  0.014785644            9 
 4082000   0.59935663   -8.0788585    769.65712  0.015712419   0.01478093            8 
 4083000   0.58626523   -8.0712297    768.35374  0.015681969  0.014776216            5 
 4084000   0.59626892    -8.055476    768.25414  0.015676096  0.014771507           18 
 4085000   0.59229541   -8.0432314    768.96598   0.01568678  0.014766807            6 
 4086000   0.59948742    -8.030874     769.5432  0.015694714  0.014762107           11 
 4087000   0.61160259   -8.0422488    768.35738  0.015666695  0.014757404            6 
 4088000   0.59555078   -8.0559634    768.67024   0.01566924  0.014752699            8 
 4089000   0.60294352   -8.0726164    768.04419  0.015652649  0.014748002            5 
 4090000   0.61525732   -8.0621647    769.12853  0.015670915  0.014743307            5 
 4091000   0.60023517   -8.0470117     768.8066  0.015660527  0.014738608           15 
 4092000   0.58779899   -8.0631455    767.98807  0.015640031  0.014733905            6 
 4093000   0.60518387   -8.0713118    768.62482  0.015649174  0.014729197            8 
 4094000   0.58432776   -8.0812076     769.1234    0.0156555  0.014724495            7 
 4095000   0.59142418   -8.0659015    768.20444  0.015632976  0.014719789            7 
 4096000   0.60185646   -8.0646531     769.5504  0.015656543  0.014715087            5 
 4097000   0.59057482   -8.0645234    768.71626  0.015635755  0.014710392           10 
 4098000   0.58715078   -8.0677083    769.17913  0.015641352  0.014705701            6 
 4099000   0.58383766   -8.0531226    769.79512  0.015650059   0.01470101            7 
 4100000   0.59548016   -8.0691437    767.99671  0.015609689   0.01469632           10 
 4101000   0.58549592   -8.0663662     768.4065   0.01561421  0.014691629            6 
 4102000   0.60371687    -8.076124    769.45265  0.015631656  0.014686941            2 
 4103000   0.59902504   -8.0446592    769.30137  0.015624774   0.01468226            5 
 4104000   0.61227635   -8.0615399    767.88131  0.015592132   0.01467758            9 
 4105000   0.58999849   -8.0582378    769.77853  0.015626848  0.014672886            8 
 4106000   0.58402698   -8.0514953    768.75381  0.015602245  0.014668195            7 
 4107000   0.59270235   -8.0476459    769.02549  0.015603959  0.014663508            5 
 4108000     0.605977   -8.0706506    768.47279  0.015588948  0.014658824            5 
 4109000   0.59081336   -8.0915419    769.75209  0.015611099  0.014654146           11 
 4110000   0.59095165   -8.0563026    768.57163  0.015583366  0.014649459            8 
 4111000    0.5940532   -8.0449143    768.40257  0.015576149  0.014644779            4 
 4112000   0.59881351   -8.0720508    768.92707   0.01558299  0.014640104            5 
 4113000   0.59172256   -8.0530803    769.35295   0.01558783   0.01463543            4 
 4114000   0.58852967   -8.0669541    768.31898  0.015563097  0.014630762            6 
 4115000   0.58497861   -8.0710636    769.07335  0.015574592  0.014626083            5 
 4116000   0.58051312   -8.0680801    769.20042  0.015573381  0.014621411           11 
 4117000   0.59932827   -8.0520685    767.82542  0.015541766  0.014616741            6 
 4118000   0.59829183   -8.0591582    767.56821  0.015532787  0.014612069            5 
 4119000   0.59594619   -8.0771943    768.02826  0.015538324    0.0146074            4 
 4120000   0.57378535   -8.0589125    768.27473  0.015539537  0.014602733            9 
 4121000     0.599302   -8.0438903    768.84409   0.01554728  0.014598071            7 
 4122000   0.59347072   -8.0804882    766.78681  0.015501917   0.01459341            7 
 4123000    0.5898548   -8.0543149    768.11497  0.015525001  0.014588749            5 
 4124000   0.58194999   -8.0742769    767.93397  0.015517579  0.014584089            3 
 4125000    0.5956269   -8.0657658    767.95178  0.015514177  0.014579427            5 
 4126000     0.572544   -8.0816776    768.11659  0.015513746  0.014574766            3 
 4127000    0.5916549   -8.0759285    769.41583  0.015536221  0.014570098            6 
 4128000   0.59315185    -8.092782    769.25037  0.015529118  0.014565431            3 
 4129000   0.58990239   -8.0853971    768.27543   0.01550568  0.014560765            6 
 4130000   0.60340937   -8.0802366    766.44001  0.015464891  0.014556094            6 
 4131000   0.59590472   -8.0845133    769.04881  0.015513774  0.014551418            5 
 4132000   0.57255376     -8.08464    770.10823  0.015531386   0.01454676            3 
 4133000   0.58514191   -8.0915439    767.37423  0.015472502  0.014542095            4 
 4134000   0.59671821   -8.0783441    768.20916   0.01548559  0.014537434            4 
 4135000   0.58671837    -8.083262    767.89141  0.015475442  0.014532772            5 
 4136000   0.58672999   -8.0902222    768.00925  0.015474074  0.014528113           11 
 4137000   0.58963206   -8.0773913    767.82385  0.015466599  0.014523458            7 
 4138000   0.59372278    -8.046496    769.13623  0.015489291  0.014518813            5 
 4139000   0.59351753    -8.097526     767.8848  0.015460353  0.014514155            7 
 4140000   0.58653293   -8.0773767    767.81016  0.015455116  0.014509499            3 
 4141000   0.58523477   -8.0987151    766.46462  0.015424306  0.014504851            8 
 4142000   0.59867504   -8.0797234    767.23838   0.01543615  0.014500203            4 
 4143000   0.59507483   -8.0932959    767.80939  0.015443909  0.014495559            4 
 4144000   0.59577135   -8.0883864    767.22185  0.015428367  0.014490907            4 
 4145000   0.59478927    -8.095167    766.92486  0.015418674   0.01448626            4 
 4146000   0.59561275   -8.0802357    766.72329  0.015410904  0.014481621            6 
 4147000   0.58387994   -8.0874267    768.76953  0.015448307  0.014476976            3 
 4148000    0.5909052   -8.0828265    768.67609  0.015442705   0.01447233            6 
 4149000   0.58705773   -8.0775851    768.89375  0.015443355  0.014467682            5 
 4150000   0.59666318   -8.0940014    767.93447  0.015420371  0.014463037            6 
 4151000   0.58335643   -8.0867906    766.77009  0.015393281  0.014458395            4 
 4152000   0.59263566   -8.0889211    767.18491  0.015397899  0.014453753            4 
 4153000    0.5770068   -8.1010461    768.32684  0.015417105   0.01444911            4 
 4154000   0.58577611   -8.0938789    768.44903  0.015415845  0.014444479            4 
 4155000    0.5913869   -8.0873166    766.64644  0.015375982  0.014439851            4 
 4156000   0.59736932   -8.1035396    766.84029  0.015376169  0.014435223            2 
 4157000   0.58241807   -8.0668865    767.87706  0.015393254  0.014430595            6 
 4158000   0.58759971   -8.0910224    768.05189  0.015393055  0.014425965            3 
 4159000   0.58429022   -8.0762808    767.50059  0.015378308  0.014421343            5 
 4160000   0.58465621   -8.1226169    768.89006  0.015402445  0.014416712            4 
 4161000   0.58270327   -8.0893126     768.3725  0.015388378  0.014412086            4 
 4162000   0.58999646   -8.0939788    767.07347  0.015358671  0.014407468            4 
 4163000    0.5860393   -8.1045049    768.04356  0.015374401  0.014402848            2 
 4164000   0.57923673    -8.080622    766.82904  0.015346402  0.014398222            3 
 4165000   0.58573708   -8.1011859    767.85715  0.015363288  0.014393598            3 
 4166000   0.58618104   -8.1051578    767.90263   0.01536051  0.014388988            3 
 4167000   0.60074621   -8.0923844    767.30037   0.01534478  0.014384381            4 
 4168000   0.58956561   -8.0977151    766.19604  0.015319019  0.014379768            4 
 4169000   0.58699983   -8.1038153    767.53372  0.015342083   0.01437516            3 
 4170000    0.5899044   -8.1091289    767.72661  0.015342258  0.014370552            6 
 4171000   0.58309173   -8.1022901     768.9465  0.015362952  0.014365954            3 
 4172000   0.58210469   -8.0924552    767.87872  0.015337942  0.014361356            3 
 4173000   0.57829952   -8.1019186    767.56615  0.015328024  0.014356762            2 
 4174000   0.57891584   -8.0816956    766.64279  0.015305917  0.014352175            6 
 4175000   0.58294018   -8.1015901    768.04416  0.015330223  0.014347586            5 
 4176000   0.58321312   -8.1051408    768.05855  0.015326839  0.014342993            3 
 4177000   0.58799689   -8.0983913    770.02578  0.015362417  0.014338398            5 
 4178000   0.59117573   -8.0760696    766.94423  0.015297276   0.01433381            5 
 4179000   0.57165466   -8.0732721    768.63879  0.015327407  0.014329222            6 
 4180000   0.58492704   -8.0928859    767.55932  0.015302219  0.014324639            9 
 4181000   0.58281248   -8.1022746    767.82481  0.015303851  0.014320054            7 
 4182000   0.57371338   -8.0982391    767.87999  0.015301291  0.014315479            3 
 4183000   0.57987037   -8.1147297    767.73433  0.015294731  0.014310897            8 
 4184000   0.59072889   -8.0946502    768.43803  0.015305091  0.014306321            4 
 4185000   0.58249066   -8.0984392    769.32258  0.015319048  0.014301747            3 
 4186000   0.59698319   -8.1156191     768.4328  0.015297675  0.014297173            5 
 4187000   0.58145093   -8.1132333    768.24401  0.015290264  0.014292594            5 
 4188000   0.58908163    -8.106278    768.05454  0.015282843  0.014288018           12 
 4189000    0.5868183   -8.1047338    767.64815   0.01527111  0.014283445           14 
 4190000   0.58898694   -8.0880111    768.47369  0.015283884   0.01427887            7 
 4191000   0.57982144   -8.1080471     767.4888  0.015260654  0.014274305            3 
 4192000   0.58482079   -8.0909971    768.94783  0.015286018   0.01426974            7 
 4193000   0.58999262   -8.1050228    767.02435  0.015244144  0.014265168            9 
 4194000   0.57373875   -8.1007183    768.16116  0.015263097  0.014260611            4 
 4195000   0.57439382   -8.0928832    767.24754   0.01524131  0.014256058            4 
 4196000   0.58291923   -8.1015899     768.2155  0.015256901  0.014251499            5 
 4197000   0.57631772   -8.1037332    768.10212  0.015251015  0.014246945           10 
 4198000   0.58904536   -8.1174029    768.27288  0.015250772  0.014242384            5 
 4199000   0.58261741    -8.105805    767.09547  0.015223773  0.014237835            3 
 4200000   0.57024926    -8.100906    767.47775  0.015227733  0.014233275            3 
 4201000   0.58127149   -8.1336396    767.31294  0.015220839  0.014228707            3 
 4202000   0.56437643   -8.0960212    767.94786  0.015229808   0.01422415            9 
 4203000   0.58601305   -8.1071932    769.11621   0.01524935  0.014219595            8 
 4204000   0.57807747   -8.1203595    767.25857    0.0152089  0.014215043            9 
 4205000    0.5842406   -8.1127863    768.70045  0.015233858  0.014210493            3 
 4206000   0.57616598   -8.1072715    767.16927  0.015199898  0.014205946            3 
 4207000   0.56056584   -8.1152957    766.75781  0.015188135  0.014201399            7 
 4208000   0.58259151   -8.0960486    768.42355  0.015217513  0.014196858            4 
 4209000    0.5827546    -8.100988    767.80068  0.015201566  0.014192317           10 
 4210000   0.56196259   -8.1143333    766.56471   0.01517349  0.014187778            4 
 4211000   0.58205543   -8.1171893    767.39704  0.015186358  0.014183236            3 
 4212000   0.57149896    -8.094767    767.38444  0.015182503  0.014178708            7 
 4213000   0.56963997   -8.1295968    765.78708  0.015147304  0.014174174            4 
 4214000   0.57085915   -8.1326254    767.71721  0.015181878  0.014169634            5 
 4215000   0.58707882   -8.1208182    768.84576  0.015200588  0.014165101            4 
 4216000   0.57403471   -8.1173423    768.44848   0.01518913  0.014160565            5 
 4217000   0.56909132   -8.1009644    767.22743  0.015161399  0.014156029            4 
 4218000   0.57404905    -8.110862    767.00461  0.015153402  0.014151499            3 
 4219000   0.57198459   -8.1202828    765.98106  0.015129593  0.014146964            8 
 4220000   0.57784024   -8.0939554      767.631   0.01515859  0.014142432            3 
 4221000   0.57785033   -8.1190508    769.78284  0.015197482  0.014137906            5 
 4222000   0.58387688   -8.1110481    769.36062  0.015185548  0.014133382            5 
 4223000   0.57183679   -8.1213056    767.71475  0.015149474  0.014128858            7 
 4224000   0.57995071   -8.0991427    765.76987  0.015107518  0.014124335            4 
 4225000   0.57731261   -8.1315513    766.88034  0.015125845  0.014119817            4 
 4226000   0.57114537   -8.1185796    766.32582  0.015111331  0.014115295            5 
 4227000   0.57389671   -8.1101686    765.81922  0.015097769  0.014110774            6 
 4228000   0.58737517   -8.0940605    766.54801  0.015108562  0.014106258            6 
 4229000   0.56949587   -8.1206819    767.89968  0.015131625   0.01410174            5 
 4230000   0.58181464   -8.1055054    767.80207  0.015126124  0.014097227           15 
 4231000   0.57350605   -8.1055782    768.43917  0.015135097  0.014092717            5 
 4232000   0.57696041   -8.1278836    766.65012  0.015096292  0.014088205            4 
 4233000   0.57698861   -8.1333988    766.87452  0.015097144  0.014083695            8 
 4234000   0.56857093   -8.1349517    766.95974  0.015095255  0.014079185            4 
 4235000   0.58114584   -8.1090572    767.12027   0.01509485  0.014074679            4 
 4236000   0.58044303     -8.11778    765.89925  0.015067266  0.014070178            5 
 4237000   0.56792248   -8.1118745    768.53206  0.015115492  0.014065677            4 
 4238000   0.56790697   -8.0960627    767.80848  0.015097697  0.014061178            3 
 4239000   0.58098939   -8.1058909    766.10003  0.015060549  0.014056679            5 
 4240000   0.56569023   -8.0992275    767.21444    0.0150789  0.014052178            3 
 4241000   0.56772045   -8.1090861    766.92612  0.015069679  0.014047677            6 
 4242000   0.57304221   -8.1127363    768.13138  0.015089804  0.014043175            7 
 4243000    0.5692421   -8.1179738    766.95229   0.01506309   0.01403867            3 
 4244000   0.57883024   -8.1083065    767.33632  0.015067081   0.01403417            5 
 4245000    0.5681307   -8.1248481    766.16603  0.015040558  0.014029673            5 
 4246000   0.56948057   -8.1264721    767.00472  0.015053476  0.014025175            3 
 4247000   0.57717571   -8.1280018    766.98742  0.015049592  0.014020684            3 
 4248000   0.56232282   -8.1253282    768.01767   0.01506626  0.014016194            7 
 4249000   0.56824276   -8.1322319    766.39049  0.015030801    0.0140117            5 
 4250000   0.57516275   -8.1171237    767.96154  0.015058069  0.014007206            3 
 4251000   0.56763716   -8.1333595    766.60758  0.015027985   0.01400272            2 
 4252000   0.55992611   -8.1277507    766.37546  0.015019902  0.013998231            4 
 4253000   0.57583587   -8.1057797    767.26396  0.015033779  0.013993744            3 
 4254000   0.57415134   -8.1090103    766.60376  0.015017312   0.01398926            6 
 4255000   0.56865704   -8.1208904    767.28567  0.015027138   0.01398478            5 
 4256000   0.56654744   -8.1074003    767.86601   0.01503497  0.013980297            3 
 4257000     0.574991   -8.1356434    766.62451  0.015007135  0.013975821            5 
 4258000   0.58229425   -8.1234631    767.21269  0.015015122   0.01397135            4 
 4259000   0.56607017    -8.126561    768.11716  0.015029294  0.013966877            3 
 4260000    0.5608876   -8.1205589      767.579  0.015015239  0.013962409            4 
 4261000   0.58045224    -8.121864    767.13181  0.015002969   0.01395794            4 
 4262000   0.57217312   -8.1151346    766.84893  0.014993918  0.013953474            6 
 4263000   0.56654958   -8.1153665    767.89509  0.015010851  0.013949007            3 
 4264000   0.56972609   -8.1299558    766.97351   0.01498932  0.013944534            5 
 4265000   0.56996605   -8.1314844    768.22226  0.015010204  0.013940063            3 
 4266000   0.55724622   -8.1042463    767.14188  0.014985581  0.013935599            7 
 4267000   0.56242622   -8.1404613    766.07169  0.014961169  0.013931126            3 
 4268000   0.55702191   -8.1354156    769.13258  0.015017428  0.013926659            4 
 4269000    0.5645399   -8.1269208    766.22956  0.014957241  0.013922197            6 
 4270000   0.54257947   -8.1261828    767.45008  0.014977558  0.013917741            4 
 4271000    0.5574984   -8.1386417    766.74906  0.014960374  0.013913282            4 
 4272000   0.57328713   -8.1229986    767.16474   0.01496498  0.013908829            3 
 4273000   0.56830503   -8.1148943    767.02043  0.014958663  0.013904381            6 
 4274000   0.56035019   -8.1090064    766.34044  0.014941905  0.013899927            5 
 4275000   0.55077031   -8.1375522    766.62045  0.014943868  0.013895469            6 
 4276000   0.56954868   -8.1103092    768.28063  0.014972728  0.013891024            6 
 4277000   0.56847894   -8.1267003     766.7383  0.014939177  0.013886574            8 
 4278000   0.56252841   -8.1195278    766.76798  0.014936263  0.013882125            9 
 4279000   0.57229188   -8.1201905    767.01818  0.014937645  0.013877679           14 
 4280000   0.57082746   -8.0997987    766.39803   0.01492208  0.013873238            6 
 4281000   0.56353724   -8.1198671     765.8527  0.014907979  0.013868791            6 
 4282000   0.56809819   -8.1132488    766.60091  0.014919059  0.013864355            6 
 4283000    0.5581796    -8.129976     765.7196  0.014898428   0.01385992            5 
 4284000   0.57811746   -8.1304624    767.13044  0.014922394  0.013855482           13 
 4285000   0.55762201   -8.1257153    767.02569  0.014916875  0.013851047            9 
 4286000   0.57204029   -8.1385213    767.10696  0.014914974  0.013846608            7 
 4287000   0.57915316   -8.1174875    766.35627  0.014896903  0.013842168            5 
 4288000   0.55982437   -8.1324368    767.12314  0.014908332  0.013837736            5 
 4289000   0.58024245   -8.1162655    766.34165  0.014889672  0.013833305            6 
 4290000    0.5648613   -8.1533453    766.45891  0.014888479  0.013828866            4 
 4291000   0.56753131   -8.1436608    766.91542  0.014893875  0.013824431            7 
 4292000   0.56161928   -8.1339333    767.13392  0.014894647  0.013819998            4 
 4293000    0.5637841   -8.1507574    766.62732  0.014881344  0.013815562            7 
 4294000   0.56290595   -8.1403015    765.71978  0.014860266  0.013811132            3 
 4295000   0.58129284   -8.1164364    766.41796  0.014870352  0.013806704            4 
 4296000   0.57054477   -8.1107017    766.08559  0.014860444  0.013802275            5 
 4297000   0.58188437   -8.1168781    765.92663  0.014853903  0.013797851            6 
 4298000   0.56772262   -8.1390552    767.25405  0.014876184  0.013793435            5 
 4299000   0.56726511   -8.1229195    767.72825  0.014881915  0.013789018            5 
 4300000    0.5560798   -8.1278394     765.8606   0.01484226  0.013784603            9 
 4301000   0.55685521   -8.1350447    766.19995  0.014845384  0.013780186            5 
 4302000   0.55408112   -8.1474294    768.22777  0.014881214  0.013775766            5 
 4303000   0.56746517   -8.1447241    766.71627  0.014848483  0.013771349            3 
 4304000   0.57181234   -8.1407364    766.49868   0.01484082  0.013766933            3 
 4305000   0.57411092    -8.130466    765.09243  0.014810152  0.013762521            3 
 4306000   0.56396396   -8.1299904    766.54236  0.014834772  0.013758104            3 
 4307000   0.56044734   -8.1403845    766.08275  0.014822435   0.01375369            7 
 4308000   0.56883155   -8.1402104    766.67656  0.014830481  0.013749282            7 
 4309000   0.57176353   -8.1357234     767.0482  0.014834227  0.013744872            5 
 4310000   0.55944205   -8.1335719    765.59364  0.014802661  0.013740461            7 
 4311000   0.56643307   -8.1393255    766.36537  0.014814145  0.013736056            5 
 4312000   0.56193308   -8.1298445    766.97784  0.014822546  0.013731648            6 
 4313000   0.57361016    -8.160337    767.58929  0.014830924  0.013727241            8 
 4314000   0.56947116   -8.1485528    766.24475  0.014801513  0.013722839           11 
 4315000   0.55600059   -8.1519503    765.82775   0.01479003   0.01371843            9 
 4316000   0.56673859   -8.1406433     767.1556  0.014812241   0.01371403            5 
 4317000   0.56380428   -8.1641305    765.60777  0.014778932  0.013709627            8 
 4318000   0.55450418   -8.1527663     765.8828  0.014780817  0.013705231            6 
 4319000   0.56485756   -8.1354563    765.82388  0.014776258  0.013700836            5 
 4320000   0.56223394   -8.1458504    766.37532  0.014783474  0.013696443            7 
 4321000   0.56298094   -8.1218701       766.01  0.014773008  0.013692051            7 
 4322000   0.56099367   -8.1568354     765.9601  0.014768628  0.013687662            4 
 4323000     0.561874   -8.1469495    765.20543  0.014750664  0.013683272            4 
 4324000   0.55952147   -8.1484808    766.56278  0.014773412  0.013678884            4 
 4325000   0.56247873   -8.1506093    768.67449  0.014810684  0.013674503            5 
 4326000   0.55856832   -8.1276913    766.36744  0.014762819  0.013670114            5 
 4327000    0.5550515   -8.1533365    766.59172  0.014763726  0.013665732            4 
 4328000   0.54908849   -8.1307468    767.12345  0.014770553  0.013661349            4 
 4329000   0.55978724   -8.1408376    765.06125  0.014727444  0.013656967            4 
 4330000   0.56329362     -8.13852    765.76781  0.014737641  0.013652586            4 
 4331000   0.56310603    -8.159266    766.59678  0.014750188  0.013648202            6 
 4332000   0.55102917   -8.1497446    765.91337  0.014733637  0.013643822            5 
 4333000   0.54996851   -8.1381711    767.12837  0.014753604  0.013639444            6 
 4334000   0.56457507      -8.1397    764.84082  0.014706215  0.013635065            9 
 4335000   0.55186806   -8.1589388    766.12676  0.014727543  0.013630692            6 
 4336000   0.55182996   -8.1341303    765.42092   0.01471058  0.013626322            6 
 4337000   0.55190615   -8.1654055    765.97125  0.014717763  0.013621946            4 
 4338000   0.54966653   -8.1542029    765.60175  0.014707272  0.013617568            3 
 4339000   0.55917383   -8.1428625    765.76784  0.014707072    0.0136132            5 
 4340000   0.55672997   -8.1551286    766.07803   0.01470964  0.013608832            3 
 4341000   0.55739955   -8.1568655    765.13654  0.014688177  0.013604457            6 
 4342000     0.545741   -8.1328685    765.86696  0.014698813  0.013600092            3 
 4343000   0.57557243   -8.1484727    765.33573  0.014685235  0.013595728            5 
 4344000   0.55201688   -8.1565437    765.99601  0.014694521  0.013591363            4 
 4345000   0.54261609   -8.1567382    764.65416  0.014665404  0.013586995            4 
 4346000   0.54394641    -8.170612     764.8269  0.014665342  0.013582629            4 
 4347000   0.55450101   -8.1411894    766.08814  0.014686146  0.013578266            5 
 4348000   0.55102535   -8.1786399     765.3676  0.014668959  0.013573907            6 
 4349000   0.56486602   -8.1532182    765.39426  0.014666097  0.013569548            4 
 4350000   0.55240827   -8.1465572    766.67601   0.01468728   0.01356519            5 
 4351000   0.56703281   -8.1547292    765.93623  0.014669735  0.013560835            4 
 4352000   0.55419805   -8.1534367    764.74707  0.014643594  0.013556477            5 
 4353000   0.55438814   -8.1442233    765.32857  0.014651362  0.013552122            4 
 4354000   0.55415154   -8.1372517    764.81519  0.014638172  0.013547772            6 
 4355000   0.54859495   -8.1550066    764.99731  0.014638295  0.013543424            4 
 4356000   0.55697022   -8.1617675    766.05498  0.014655169  0.013539079            4 
 4357000     0.557398   -8.1538574    764.56761  0.014623357  0.013534737            5 
 4358000   0.55951984   -8.1696315    765.84223  0.014644375  0.013530395            9 
 4359000     0.551636   -8.1553957    765.59062  0.014636205  0.013526058            6 
 4360000   0.56561151    -8.158583    765.33518  0.014627966  0.013521712            7 
 4361000   0.54191718   -8.1545592    764.82692  0.014614899   0.01351737            5 
 4362000   0.55511675   -8.1618996    764.54507  0.014606164  0.013513031            5 
 4363000   0.55490607   -8.1682028    765.59627  0.014622895  0.013508694            7 
 4364000   0.54529102   -8.1571068     765.9282  0.014625882  0.013504358            4 
 4365000   0.54727447   -8.1569465    766.59331  0.014635229  0.013500026            4 
 4366000   0.54824985   -8.1619386    765.51618  0.014611318  0.013495695            7 
 4367000   0.54993318   -8.1699199    765.84468  0.014614241  0.013491366            4 
 4368000   0.55836378   -8.1552342    765.08161  0.014596337  0.013487039            7 
 4369000   0.55481957   -8.1615952     765.7002  0.014604795  0.013482711            4 
 4370000   0.55319639   -8.1504464    765.82796  0.014603889  0.013478388            4 
 4371000   0.55590084    -8.160839    766.33727  0.014610258  0.013474069            5 
 4372000   0.54375883    -8.143503     766.2841  0.014605903  0.013469746            6 
 4373000   0.56154495   -8.1588797     765.8821  0.014594902  0.013465428            5 
 4374000   0.55593707   -8.1491118    765.65827  0.014587301  0.013461109            6 
 4375000   0.55465559   -8.1615624    765.81009  0.014586859  0.013456794            6 
 4376000   0.55108156    -8.161632    764.77163   0.01456375  0.013452477            7 
 4377000   0.55883711   -8.1628404    765.22549  0.014569063  0.013448158            3 
 4378000    0.5492922   -8.1657063    765.67406  0.014574274  0.013443844            3 
 4379000   0.54799573   -8.1481851    765.87751  0.014574818  0.013439529            5 
 4380000   0.55016746   -8.1595933    764.93494  0.014553557   0.01343522            6 
 4381000   0.54448597   -8.1720205     764.3478  0.014539066  0.013430909            5 
 4382000   0.53161805   -8.1640609     765.8273  0.014563885  0.013426598            3 
 4383000   0.55177086   -8.1745078    766.18367  0.014567337  0.013422288            9 
 4384000   0.54537803   -8.1807735    765.62679  0.014553429  0.013417979            7 
 4385000   0.55596655   -8.1482422    764.54012  0.014529459  0.013413672            5 
 4386000   0.55221421   -8.1597294     766.1887  0.014557469  0.013409372            3 
 4387000    0.5501096   -8.1785703    764.98206   0.01453123  0.013405069            7 
 4388000   0.54968349    -8.163276    765.67832  0.014541141  0.013400763            5 
 4389000    0.5607885    -8.145971    765.94296  0.014542853  0.013396463           10 
 4390000   0.56548525   -8.1684933    765.48119  0.014530774  0.013392169            7 
 4391000   0.54501884   -8.1679565    765.65392  0.014530743  0.013387874            5 
 4392000   0.53847429    -8.155778     764.9493  0.014514065  0.013383584            8 
 4393000   0.54139456   -8.1672222    766.13301  0.014533216  0.013379289            3 
 4394000   0.53939174   -8.1540358    765.66021  0.014520942  0.013374999            5 
 4395000   0.54544489   -8.1655752    765.64666  0.014517381  0.013370708            4 
 4396000   0.55229294   -8.1664966    765.10169  0.014503748  0.013366417            4 
 4397000   0.53795735   -8.1670274      764.845  0.014495584   0.01336213            5 
 4398000   0.55872276   -8.1856768    765.18449  0.014498721  0.013357853            4 
 4399000   0.54161922   -8.1693762    764.81246  0.014488377  0.013353568            3 
 4400000   0.54374116    -8.167295    764.72574  0.014483442  0.013349286            4 
 4401000   0.55069786   -8.1610737    765.45085  0.014493881  0.013345005            3 
 4402000   0.53993872   -8.1745814    765.24504  0.014486692   0.01334072            5 
 4403000    0.5480848   -8.1707504    765.50622  0.014488346  0.013336438            4 
 4404000   0.53747502   -8.1653875    766.66379  0.014506959  0.013332164            5 
 4405000   0.53333006   -8.1775745    765.63503  0.014484204  0.013327889            7 
 4406000   0.55606699   -8.1693412    764.46911  0.014458865  0.013323614            3 
 4407000   0.54587794    -8.171433    764.72453  0.014460414  0.013319336            4 
 4408000   0.54285401   -8.1732801    764.76636  0.014457924  0.013315061            5 
 4409000   0.55520888   -8.1864811    763.59331  0.014432473   0.01331079            3 
 4410000   0.54572545   -8.1698769     766.0386  0.014475408  0.013306521            4 
 4411000   0.53650048   -8.1808679    767.50259  0.014499785  0.013302259            4 
 4412000   0.55032159   -8.1707458    764.57741  0.014441248  0.013297994            3 
 4413000   0.53802828    -8.171939    765.15411  0.014448865   0.01329373            4 
 4414000   0.54053605    -8.160871    765.91614  0.014459979  0.013289474            4 
 4415000   0.55166312   -8.1766637    765.72439  0.014453084  0.013285217            4 
 4416000   0.54732383   -8.1574691    764.98303  0.014435821  0.013280955            3 
 4417000   0.55649292   -8.1530525    764.36355  0.014420865  0.013276699            5 
 4418000   0.57016686   -8.1739428    764.94718   0.01442861  0.013272446            3 
 4419000   0.54409038   -8.1771806    764.72552  0.014421165  0.013268187            4 
 4420000   0.54620762   -8.1815744    764.36318   0.01441107  0.013263928            5 
 4421000   0.55670147   -8.1719677    765.07187  0.014421169  0.013259668            4 
 4422000   0.55277921   -8.1828165    765.34687   0.01442309  0.013255416            5 
 4423000   0.53031918   -8.1660597    766.92148  0.014449496  0.013251166            4 
 4424000   0.55004521   -8.1741902    764.75882  0.014405493  0.013246914            4 
 4425000    0.5368471   -8.1508422    765.79544   0.01442176  0.013242664            4 
 4426000   0.54513775   -8.1771637    764.70165  0.014397907  0.013238413            5 
 4427000    0.5466999   -8.1837802    766.37427   0.01442614  0.013234175            4 
 4428000    0.5439699   -8.1599769    764.24901  0.014382886  0.013229937            4 
 4429000   0.54463207    -8.174835    763.78074  0.014370828  0.013225697            4 
 4430000   0.55432015   -8.1881845    764.89574  0.014388558  0.013221451            7 
 4431000   0.55254784   -8.1850163    766.58305  0.014417044  0.013217209            5 
 4432000   0.53812995   -8.1794375     765.4665  0.014392797  0.013212972            4 
 4433000   0.53725077   -8.1913186    765.48907  0.014389974  0.013208731            4 
 4434000   0.55994515   -8.1704867     765.3517  0.014384147  0.013204495            8 
 4435000   0.54584825   -8.1860929    765.06093   0.01437544  0.013200265            5 
 4436000   0.54191136   -8.1679322    764.80651   0.01436742  0.013196035            6 
 4437000   0.54175155   -8.1811022    764.75444  0.014363204  0.013191805            4 
 4438000   0.54492482   -8.1661813    764.67864  0.014358544  0.013187576            4 
 4439000   0.54090388    -8.165879    765.25432  0.014366117  0.013183351            4 
 4440000   0.53335916   -8.1652407    765.28469  0.014363451  0.013179121            7 
 4441000   0.54274409   -8.1794514    765.10507  0.014356847  0.013174896            5 
 4442000   0.54265224   -8.1772383    764.71963  0.014346384  0.013170675            5 
 4443000   0.53471554   -8.1884509    764.63553  0.014341577  0.013166451            4 
 4444000   0.54296685   -8.1994548    763.77578  0.014322228  0.013162227            4 
 4445000   0.53680955   -8.1811499     764.4704  0.014332029  0.013158006            4 
 4446000   0.54221627   -8.1802022    763.93961  0.014318856  0.013153788            3 
 4447000    0.5425816   -8.1841051    765.18947  0.014339058  0.013149569            3 
 4448000   0.53195545   -8.1880673    764.81374  0.014328795  0.013145349            5 
 4449000   0.53348368   -8.1732966    764.78997  0.014325129  0.013141125            3 
 4450000   0.53741681    -8.201045     765.6127  0.014337316  0.013136908            6 
 4451000   0.54211438   -8.1825146    763.77744  0.014299735  0.013132689            7 
 4452000   0.54616291   -8.1812701    763.65183  0.014294172  0.013128476            5 
 4453000   0.53452429   -8.1804198    765.19578  0.014319855  0.013124263           11 
 4454000   0.53976849   -8.1891408     765.7495     0.014327  0.013120053           10 
 4455000   0.54576933   -8.1880229    764.69256  0.014304013  0.013115844            5 
 4456000   0.55327997    -8.186171    764.88397  0.014304383  0.013111642           11 
 4457000   0.54494293   -8.1870763    765.19589  0.014307006  0.013107442            4 
 4458000   0.54701801   -8.1700055    764.61791  0.014292992  0.013103235            6 
 4459000    0.5416749   -8.1874147     764.8955  0.014294975  0.013099035            7 
 4460000   0.53932652   -8.1806292    764.50562  0.014284485  0.013094832            6 
 4461000   0.53241196   -8.1644826    763.90908  0.014270139  0.013090631            5 
 4462000   0.53302378     -8.19162    764.55931  0.014279085  0.013086433            4 
 4463000   0.53008296   -8.1933327    765.85318  0.014300044  0.013082232            7 
 4464000   0.53542102   -8.1728406     765.3025  0.014286561  0.013078035            4 
 4465000   0.52782662   -8.1747269    764.29548  0.014264567  0.013073842            5 
 4466000    0.5470707   -8.2020248    764.96793   0.01427392   0.01306965            2 
 4467000   0.52893839   -8.1804289    764.48964  0.014261802  0.013065459            3 
 4468000   0.53383702   -8.1851269    764.17479  0.014252738  0.013061273            4 
 4469000   0.52646857   -8.1776709    764.35124  0.014252839   0.01305709            4 
 4470000   0.52982373   -8.1643852    765.65214  0.014273903  0.013052908            8 
 4471000   0.53766347   -8.1728063    765.31485  0.014264424  0.013048731            5 
 4472000   0.52906826   -8.1838098    765.42707  0.014263325  0.013044553            3 
 4473000   0.53411143   -8.1740436    765.03151  0.014252767  0.013040375            3 
 4474000   0.55331684   -8.1712034    764.20603  0.014234206  0.013036197            4 
 4475000   0.54180633   -8.1811439    765.23248  0.014250139  0.013032024            7 
 4476000   0.53323579   -8.1746781    765.36414  0.014249407  0.013027855            3 
 4477000   0.54609377   -8.1680585    765.34583  0.014245883  0.013023685            4 
 4478000   0.53523616   -8.1811127    763.77473  0.014213465  0.013019517            5 
 4479000   0.53102999   -8.1846143    763.42529   0.01420379  0.013015346            4 
 4480000   0.53356612   -8.1784847    764.35989  0.014218004  0.013011175            4 
 4481000   0.55184916   -8.1935588    764.85258  0.014223993  0.013007006            9 
 4482000   0.53612456   -8.1813907    764.88943  0.014221505  0.013002841            4 
 4483000   0.53468916    -8.205117    763.89336  0.014199817  0.012998675            6 
 4484000   0.54111998    -8.205554    765.75255  0.014231203   0.01299451            3 
 4485000   0.53571589   -8.1935999    763.80932  0.014191923  0.012990345            4 
 4486000   0.53367371   -8.1723012    763.38291  0.014180839  0.012986184            5 
 4487000   0.53871812   -8.1842347    764.17431  0.014192376  0.012982021            6 
 4488000   0.54543551   -8.1983444     763.8661  0.014183491  0.012977859            3 
 4489000   0.53936403   -8.1747563    764.05746  0.014183884  0.012973705            4 
 4490000   0.54075509   -8.1939259     763.4607  0.014169649  0.012969549            4 
 4491000   0.54265184    -8.195139    763.63433  0.014169716  0.012965395            3 
 4492000   0.53278548   -8.1889672    764.47836  0.014182219  0.012961246            5 
 4493000   0.53559311   -8.1843429    764.31888  0.014176105  0.012957095            4 
 4494000   0.53059177   -8.1869478    764.51223  0.014176536  0.012952946            4 
 4495000   0.54216056   -8.2016926    763.74433  0.014159146  0.012948796            4 
 4496000   0.53626113   -8.1891873    763.82754  0.014157539  0.012944644            9 
 4497000   0.53988845   -8.1996323    763.25969  0.014143868    0.0129405            5 
 4498000   0.52790631   -8.1856216    764.08448  0.014156004  0.012936352            4 
 4499000   0.53256986   -8.1912116    763.75041   0.01414667  0.012932209            3 
 4500000   0.51986178   -8.1781783    764.81467  0.014163235  0.012928068            6 
 4501000   0.53362847   -8.1994972    764.66639  0.014157343  0.012923923            5 
 4502000   0.52284551   -8.1744678    764.45975  0.014150373  0.012919777            3 
 4503000   0.52973984   -8.1872446    764.94861  0.014156277  0.012915638            3 
 4504000   0.53088538   -8.1852366    764.32235  0.014141547  0.012911501            5 
 4505000   0.52376282   -8.1923758     763.5547  0.014124208  0.012907359            5 
 4506000   0.53539996   -8.1978654    764.56513  0.014139761  0.012903221            4 
 4507000   0.53790985   -8.1869984    763.44499  0.014115912  0.012899086            8 
 4508000   0.54079675   -8.2013038    764.82252  0.014138245  0.012894953            6 
 4509000   0.54577172   -8.1866672    763.90741  0.014118197  0.012890827            5 
 4510000   0.52630003   -8.1924314    763.64012  0.014110128  0.012886698            3 
 4511000   0.53187964   -8.2165158    763.00806  0.014095324  0.012882573            3 
 4512000   0.52881884   -8.2114113    763.93749  0.014109365  0.012878443            3 
 4513000    0.5326998   -8.2078747    764.67753  0.014119904  0.012874321            7 
 4514000   0.52436323   -8.1791313     762.9769  0.014085381  0.012870193            4 
 4515000   0.52696139   -8.2094509    764.05934   0.01410224  0.012866069            5 
 4516000   0.51661972   -8.1852668     764.5332  0.014107861  0.012861945            6 
 4517000    0.5218431    -8.204927    764.80368  0.014109728  0.012857824            6 
 4518000   0.52360531   -8.1921521    765.02293  0.014110649  0.012853705            3 
 4519000   0.52385171   -8.1941805    763.74843  0.014084024  0.012849588            7 
 4520000   0.53065053   -8.2138258    764.46201  0.014094064  0.012845478            4 
 4521000   0.52732272   -8.1922085    764.09303  0.014084145  0.012841365            4 
 4522000   0.52645112   -8.1952663    765.81643   0.01411279  0.012837252            5 
 4523000   0.54739221   -8.2042707    763.74309   0.01407147  0.012833141            8 
 4524000   0.53232107   -8.1943675    762.93732  0.014053517  0.012829033            8 
 4525000   0.51805238   -8.1887523    764.31794  0.014075837  0.012824925           11 
 4526000   0.53488444   -8.2162706    764.32387  0.014072836  0.012820825            8 
 4527000    0.5250906   -8.1883045    764.08919  0.014065407  0.012816716            7 
 4528000   0.51768789   -8.2054487    764.15443  0.014063502  0.012812614            8 
 4529000     0.529892   -8.1969429    763.51545  0.014048639  0.012808514            3 
 4530000   0.51892758     -8.19684    764.32885  0.014060501  0.012804411            6 
 4531000   0.52105264   -8.2024044      764.955  0.014068914   0.01280031            5 
 4532000   0.53200987   -8.2039685    763.81331  0.014044817  0.012796211            7 
 4533000   0.52639936   -8.1974469     763.2393  0.014031166  0.012792108            5 
 4534000   0.51858353   -8.2128522    763.36271  0.014030339  0.012788008            5 
 4535000   0.51984862   -8.1986971    763.69848  0.014033416  0.012783912           11 
 4536000   0.53000407   -8.1959991    764.02885  0.014036391  0.012779822            5 
 4537000   0.52845406   -8.2070128    764.32749  0.014038783  0.012775733           11 
 4538000   0.53780067    -8.185613    764.71874  0.014042874  0.012771643            8 
 4539000   0.52845844    -8.188555    764.91046    0.0140433  0.012767554            7 
 4540000   0.52465068   -8.1842816    764.23487  0.014027806  0.012763469            6 
 4541000   0.52298683   -8.1909686     763.2531    0.0140067  0.012759382            5 
 4542000   0.52418673   -8.1907038    763.19778  0.014002601    0.0127553            3 
 4543000   0.52708841    -8.207657    763.24782  0.014000437  0.012751219            3 
 4544000   0.53201436   -8.2012188    762.76968  0.013988587  0.012747139            8 
 4545000   0.52624403   -8.1992452     762.8283  0.013986584  0.012743059            6 
 4546000   0.53858629   -8.2043608    764.01114   0.01400519  0.012738983            8 
 4547000   0.54619452   -8.1987276    763.45836  0.013991979  0.012734905            6 
 4548000   0.52769971    -8.210152    762.88203  0.013978343  0.012730833            4 
 4549000   0.53264103   -8.1955276    763.68398  0.013989961  0.012726758            5 
 4550000   0.52036431    -8.208903     761.8601  0.013953482  0.012722684            4 
 4551000   0.52817722   -8.2026651    764.71438   0.01400268  0.012718609            3 
 4552000   0.52562035   -8.2044088    763.17874  0.013971491  0.012714539            2 
 4553000   0.51374404   -8.2002993    764.09892  0.013985265  0.012710468            7 
 4554000   0.52075735   -8.2138846    763.63086  0.013973629  0.012706403            9 
 4555000   0.51810207   -8.2197847    763.92236  0.013975894  0.012702338            6 
 4556000   0.53036285   -8.1985211     765.0756   0.01399392  0.012698272            7 
 4557000   0.51748163   -8.2116703    764.48391  0.013980029   0.01269421           11 
 4558000   0.52608355   -8.2028684    764.03822  0.013968813  0.012690148            6 
 4559000   0.52015538   -8.2121746    763.40037   0.01395409   0.01268609            9 
 4560000   0.51716128   -8.2113651    764.18899  0.013965442  0.012682032            4 
 4561000   0.51320989   -8.2001393    763.77805  0.013954872  0.012677976            4 
 4562000   0.51128347   -8.1940735    763.55794  0.013947792  0.012673923            4 
 4563000   0.51563731   -8.2034965     762.8841  0.013932429  0.012669873            5 
 4564000   0.52125349   -8.2094707    764.43365   0.01395767  0.012665825            8 
 4565000    0.5234676   -8.2079432    763.70184  0.013941253  0.012661778            3 
 4566000   0.52815946   -8.2039602    763.32792  0.013931375  0.012657729            5 
 4567000   0.52038061   -8.1996448    764.42654  0.013948371  0.012653681            4 
 4568000   0.52283363   -8.2111304    763.92013   0.01393608  0.012649639            3 
 4569000   0.53051433   -8.2016124     764.4581  0.013942841  0.012645594            6 
 4570000   0.52461336   -8.2145031    761.89692  0.013893088  0.012641547            7 
 4571000   0.51577549   -8.2106973    762.81216  0.013906734    0.0126375            4 
 4572000    0.5101748   -8.2009881    761.76868  0.013884673  0.012633462            5 
 4573000   0.51588195   -8.2130033    763.18998  0.013907537  0.012629424            7 
 4574000   0.51773077   -8.2088983    764.26508  0.013924083  0.012625383            6 
 4575000   0.50920142    -8.194167    763.04682  0.013898849   0.01262134            5 
 4576000   0.51675036   -8.2039852    762.61921  0.013888025  0.012617307            5 
 4577000   0.51979084   -8.2194243    762.97288   0.01389143  0.012613274            5 
 4578000   0.51828916   -8.2162966     763.2424  0.013893301  0.012609244            3 
 4579000   0.51341431    -8.199168    762.23362  0.013871908  0.012605213            5 
 4580000   0.50891238   -8.2169532    764.64505  0.013912756  0.012601186            4 
 4581000   0.52578011   -8.1994163    763.58315  0.013890402   0.01259716            5 
 4582000    0.5253482   -8.2127519    763.30153  0.013882248  0.012593136            6 
 4583000   0.52958882   -8.2124486    762.82635  0.013870579  0.012589106            6 
 4584000   0.52220719   -8.2182815    763.95003  0.013887981   0.01258508            4 
 4585000   0.52920401   -8.2103872    765.18182   0.01390734  0.012581061            4 
 4586000    0.5140997   -8.2120731    763.63625  0.013876222   0.01257704            4 
 4587000   0.52211491   -8.2110831    763.97294  0.013879314  0.012573021            6 
 4588000   0.52932338    -8.218401    763.89777  0.013874923  0.012569004            5 
 4589000   0.51535238   -8.2042867    762.86443  0.013853135  0.012564986            7 
 4590000   0.51380168   -8.2131348     764.8074  0.013885392  0.012560974            5 
 4591000    0.5329679   -8.2157738    763.86411  0.013865246  0.012556965           15 
 4592000   0.52398511   -8.2006187    763.52019  0.013855985  0.012552955            4 
 4593000   0.52202972   -8.2246838    763.73888  0.013856936  0.012548945            5 
 4594000   0.52479015   -8.2200317    764.68835  0.013871143  0.012544935            7 
 4595000   0.50911283    -8.215482    763.67691  0.013849781  0.012540928            7 
 4596000   0.52954375   -8.2192374    763.42319  0.013842167  0.012536925            8 
 4597000   0.51105741   -8.2230048    762.02504   0.01381381  0.012532917            4 
 4598000   0.51100517   -8.2193079    763.01602  0.013828767  0.012528912            3 
 4599000    0.5091072     -8.23365    762.67627  0.013819603  0.012524908            5 
 4600000   0.51034682   -8.1920457    763.64616  0.013834169  0.012520907            6 
 4601000   0.51739119   -8.2147072    762.37574  0.013808153   0.01251691            8 
 4602000   0.50551031   -8.2272464    763.30833   0.01382204  0.012512914            4 
 4603000     0.510243   -8.2112209    762.85767  0.013810878  0.012508921            3 
 4604000   0.51220059   -8.2233156    763.73095  0.013823685  0.012504926            3 
 4605000   0.51837091   -8.2215495    763.97236  0.013825052  0.012500931            6 
 4606000   0.51044154   -8.2194733    762.92408  0.013803084  0.012496935            7 
 4607000   0.50256188   -8.2231706    763.97771  0.013819147  0.012492945            4 
 4608000   0.52464102   -8.2054196    763.25581  0.013803093  0.012488958            8 
 4609000   0.51642148   -8.2204267    763.64195  0.013807079  0.012484969            8 
 4610000   0.51748896   -8.2361082    762.66108  0.013786354  0.012480981            4 
 4611000   0.52169477   -8.2267062    762.94317  0.013788462  0.012476999            9 
 4612000   0.51358522   -8.2162573    763.79511  0.013800866  0.012473012            6 
 4613000   0.51615351   -8.2222932    764.10421  0.013803458  0.012469034            8 
 4614000   0.51116284   -8.2007141    762.72486  0.013775554   0.01246506            9 
 4615000   0.52136707   -8.2282521    763.82308  0.013792399  0.012461087            9 
 4616000   0.51940212   -8.2089787     761.1791  0.013741679  0.012457115            4 
 4617000   0.52560935   -8.2272203    763.47874   0.01378021  0.012453141            5 
 4618000   0.51078912   -8.2137562    762.55623  0.013760579  0.012449165            5 
 4619000   0.51324109   -8.2193184    763.09081  0.013767244  0.012445193            4 
 4620000   0.50678731   -8.2191386    762.09473  0.013746297  0.012441218            6 
 4621000   0.50346476   -8.2271337    763.15037   0.01376236  0.012437243            5 
 4622000   0.50823648   -8.2365628    764.27585  0.013779674  0.012433271            5 
 4623000   0.51346979    -8.203205     762.8215  0.013750478  0.012429302            7 
 4624000   0.51583394   -8.2139599    762.58987   0.01374333  0.012425335            9 
 4625000   0.51491049     -8.21128    763.79549  0.013762081  0.012421371            6 
 4626000   0.50407306   -8.2197145    763.44307  0.013752757  0.012417407            7 
 4627000   0.52020641   -8.2382801    762.54476  0.013733606  0.012413444            7 
 4628000   0.51687521   -8.2201789     763.6438  0.013750429  0.012409487            6 
 4629000   0.52022654   -8.2246093    763.97867  0.013753487  0.012405528            6 
 4630000    0.5200431   -8.2401466    763.18623  0.013736253  0.012401572            5 
 4631000   0.50549316   -8.2274506    762.57588  0.013722304  0.012397615            5 
 4632000   0.50942612   -8.2234663    761.90514  0.013707274  0.012393655            6 
 4633000   0.50971054   -8.2355153    763.07604  0.013725377  0.012389698            6 
 4634000   0.50196575   -8.2099229    762.27954  0.013708091  0.012385744            5 
 4635000    0.5104963   -8.2132021    762.38489  0.013707028  0.012381793            4 
 4636000   0.50204084   -8.2387897    763.73313  0.013728306  0.012377841            5 
 4637000   0.50324016   -8.2302329    762.66353  0.013706123   0.01237389            4 
 4638000   0.50224187   -8.2052001    762.68389  0.013703534   0.01236994            6 
 4639000   0.51471682   -8.2402174    761.71418  0.013683161  0.012365989            8 
 4640000   0.50389636   -8.2289475    762.99665  0.013703244   0.01236204            7 
 4641000   0.51572208   -8.2267319    763.00725  0.013700482  0.012358095            4 
 4642000   0.50721894   -8.2249341    762.80203  0.013693847  0.012354151            5 
 4643000   0.49849889   -8.2316221    761.88961  0.013674521  0.012350212            6 
 4644000   0.51553806   -8.2348512    763.45736  0.013699709  0.012346275           11 
 4645000   0.50896796   -8.2286289    762.30747   0.01367613  0.012342336            6 
 4646000   0.50589323   -8.2122525    762.84624   0.01368285  0.012338402            6 
 4647000   0.51043875   -8.2306719     761.4632  0.013655104  0.012334466            6 
 4648000   0.51065989   -8.2301416    763.41543  0.013687167  0.012330531            7 
 4649000   0.50873503   -8.2302596    761.55441  0.013650864    0.0123266            7 
 4650000   0.51030874   -8.2189604     762.7748  0.013669799   0.01232267            6 
 4651000   0.50328143   -8.2371165    762.40588   0.01366025  0.012318739            5 
 4652000   0.50360427   -8.2320209    762.19683  0.013653569   0.01231481            5 
 4653000   0.50038414   -8.2340614    762.51379  0.013656311  0.012310883            4 
 4654000   0.50575363   -8.2368362    762.57921  0.013654548  0.012306959            7 
 4655000   0.51600353   -8.2502671    761.22014  0.013627285  0.012303036            9 
 4656000   0.50285806   -8.2457791    762.52083  0.013647638  0.012299116            7 
 4657000   0.51047143   -8.2312735    761.79466  0.013631713  0.012295197            6 
 4658000   0.50056551   -8.2307357    763.17125  0.013653414   0.01229128            8 
 4659000   0.50803587   -8.2435776    762.21351  0.013633353  0.012287365            8 
 4660000   0.50736723   -8.2270962    762.78166  0.013640588  0.012283447            5 
 4661000    0.5157022   -8.2339953    761.96851  0.013623123  0.012279528           11 
 4662000    0.4982524   -8.2387531    761.12783  0.013605174  0.012275609            8 
 4663000    0.5113112   -8.2383921    762.00174  0.013617874  0.012271696            5 
 4664000   0.50481524   -8.2542164    762.70022  0.013627434  0.012267784            4 
 4665000    0.5148983   -8.2257524    763.04012  0.013630584  0.012263875            7 
 4666000   0.50928842   -8.2379606    763.31755  0.013632618  0.012259968            8 
 4667000   0.50575603   -8.2436005    762.29491  0.013611437  0.012256058           11 
 4668000   0.50570681   -8.2510736    763.11777  0.013623211  0.012252148            8 
 4669000   0.50693086   -8.2407908    762.76463   0.01361399  0.012248242            4 
 4670000   0.49935247   -8.2375729     762.5756  0.013607702  0.012244338           12 
 4671000   0.50819729   -8.2386867    761.79016  0.013590776   0.01224044            7 
 4672000   0.50898517   -8.2397365    762.59889  0.013602292  0.012236541            8 
 4673000   0.51493206   -8.2425398    762.16866  0.013591709  0.012232643            5 
 4674000   0.49901113   -8.2333975    763.96689  0.013620862  0.012228748            5 
 4675000   0.50735261   -8.2415441    762.26146  0.013587548  0.012224852            9 
 4676000   0.51322619   -8.2265244    761.59419  0.013572751  0.012220957            6 
 4677000   0.50462193   -8.2473571    762.84456  0.013592127  0.012217066            8 
 4678000   0.51029156   -8.2185538    761.77335  0.013570139  0.012213176            7 
 4679000   0.49651765   -8.2410083    761.50367  0.013562436   0.01220929            5 
 4680000   0.49657251   -8.2258218    762.35299  0.013574661  0.012205405            8 
 4681000   0.49056237   -8.2534609    762.44583  0.013573414  0.012201523            6 
 4682000   0.49839539   -8.2443469    760.98311  0.013544481  0.012197639            9 
 4683000   0.50603994   -8.2311606    762.19686  0.013563187  0.012193756           10 
 4684000   0.49931447   -8.2570078    762.17915  0.013559976  0.012189873            8 
 4685000   0.50977265   -8.2469756     762.1526   0.01355661  0.012185989           13 
 4686000   0.49818108   -8.2396762    762.33547  0.013556969  0.012182111            4 
 4687000   0.51165342   -8.2440991    761.90827  0.013546481  0.012178235            5 
 4688000   0.50072777   -8.2454179    762.35635  0.013551556  0.012174358            6 
 4689000   0.51268207   -8.2524418    764.62841  0.013589045  0.012170486           11 
 4690000   0.50764402    -8.228976     762.3604  0.013545849  0.012166612           14 
 4691000   0.50273678   -8.2392251    761.87194  0.013534284  0.012162744            5 
 4692000   0.50004912    -8.234157    762.26581  0.013538395  0.012158875            9 
 4693000   0.49876559    -8.244001    761.91763  0.013529328  0.012155007           10 
 4694000   0.49820831   -8.2326247    761.50751  0.013519165  0.012151138           10 
 4695000   0.49826529   -8.2489087    762.53217  0.013534472  0.012147277            9 
 4696000   0.48677831   -8.2313124    762.58212  0.013532477  0.012143412           10 
 4697000    0.5012179   -8.2439688    762.54138  0.013528873  0.012139549           11 
 4698000   0.50369942   -8.2429678      760.875  0.013496435  0.012135687            5 
 4699000   0.49221955   -8.2445649    761.81674  0.013510264  0.012131825           10 
 4700000   0.50111611   -8.2621922      763.073  0.013529663  0.012127962           10 
 4701000   0.49900908   -8.2290585    762.81419  0.013522197  0.012124105            7 
 4702000   0.50589449   -8.2563728    761.83517   0.01350197  0.012120247            8 
 4703000   0.49261688    -8.248685    762.49984  0.013510877  0.012116394            6 
 4704000   0.50270681   -8.2373268     762.0213  0.013499527  0.012112539           12 
 4705000   0.49262379   -8.2511184    761.78003  0.013492385  0.012108687            8 
 4706000   0.49960842   -8.2623767    762.62926  0.013504556  0.012104833           13 
 4707000   0.51235089   -8.2466522    761.43931  0.013480619  0.012100984            8 
 4708000   0.49971902   -8.2390669    761.77866  0.013483763  0.012097135            4 
 4709000   0.49109724   -8.2503857    761.79533  0.013481194  0.012093291            9 
 4710000   0.49898376   -8.2511654     762.7349  0.013494956  0.012089448            8 
 4711000   0.49888874    -8.252092    762.39049  0.013485999  0.012085602            8 
 4712000    0.5008255   -8.2410949    762.57784   0.01348645  0.012081762           13 
 4713000   0.49236277   -8.2677967    760.78572  0.013451901  0.012077922            9 
 4714000   0.48351476   -8.2509585    762.68926  0.013482698   0.01207408            6 
 4715000   0.49626098   -8.2489163    762.03188   0.01346822  0.012070243            4 
 4716000   0.49422906   -8.2695591    761.99257  0.013464669  0.012066408           10 
 4717000   0.48538156   -8.2506514    761.68329  0.013456351  0.012062573            6 
 4718000   0.49222869   -8.2440616    761.52944  0.013450781  0.012058738            6 
 4719000   0.48915866   -8.2432819    761.01194  0.013438793  0.012054903            8 
 4720000    0.5035592   -8.2636308    761.57791  0.013445938  0.012051072            4 
 4721000   0.51860267    -8.236156    762.50001  0.013459366  0.012047241            4 
 4722000   0.50078404    -8.249317    762.10967  0.013449627  0.012043412            8 
 4723000   0.48992436   -8.2407111     762.6138  0.013455674  0.012039584            4 
 4724000   0.49249939   -8.2538525    762.32953  0.013447811  0.012035758            8 
 4725000   0.48912123   -8.2510654     761.2981  0.013426774  0.012031929           13 
 4726000   0.49838958   -8.2579137     761.2721  0.013423475  0.012028108           10 
 4727000   0.49955029   -8.2536396    760.64237  0.013409533  0.012024291            8 
 4728000   0.48754133   -8.2474313    761.80844   0.01342725  0.012020468           13 
 4729000   0.49764228   -8.2393244    761.44057  0.013417928  0.012016647            4 
 4730000    0.4898387   -8.2528103     761.7107   0.01341985  0.012012831            6 
 4731000   0.50321337   -8.2346123    761.99161  0.013421962  0.012009017            9 
 4732000   0.48921723    -8.244878    762.34855  0.013425411    0.0120052            5 
 4733000   0.50168822   -8.2548915    762.79365  0.013430411  0.012001389            9 
 4734000   0.47939997   -8.2552761     763.5866  0.013441533  0.011997577           13 
 4735000   0.48975733   -8.2638039    761.20476  0.013396775  0.011993767           10 
 4736000   0.50346049    -8.255923    762.21401  0.013411705  0.011989957            7 
 4737000   0.48569652    -8.254782    760.32792  0.013375693  0.011986149            8 
 4738000    0.4884317   -8.2623737    762.41262  0.013409537   0.01198234            4 
 4739000   0.49426474   -8.2492698    761.95155  0.013398599  0.011978536            7 
 4740000   0.49835016   -8.2447148    762.15808  0.013399404  0.011974731           11 
 4741000   0.50077212   -8.2518012    762.43237  0.013401399  0.011970928           10 
 4742000   0.47835906   -8.2396575    761.96508  0.013390361  0.011967125            7 
 4743000    0.4850107   -8.2474071     762.3618  0.013394508  0.011963326           11 
 4744000    0.4916414   -8.2641521    761.21567  0.013371551  0.011959525           20 
 4745000   0.49597317   -8.2549551    761.82054  0.013379356  0.011955723           10 
 4746000   0.49843707   -8.2388653    762.56178  0.013389552  0.011951924            9 
 4747000   0.49047458   -8.2613227    762.17028  0.013379859  0.011948131            7 
 4748000   0.48805725   -8.2556503    761.17136  0.013359508  0.011944342            5 
 4749000   0.49339959   -8.2661215    761.58546  0.013363962  0.011940546           13 
 4750000   0.48221486   -8.2595386    761.67852  0.013362781  0.011936755            5 
 4751000   0.49175364   -8.2564439    762.34886  0.013371726  0.011932967            6 
 4752000    0.4840089   -8.2494431    761.06781  0.013346447  0.011929178            8 
 4753000    0.5127309     -8.25801      761.099  0.013344186  0.011925394            5 
 4754000   0.49697468   -8.2595147    761.01836  0.013339966  0.011921607            7 
 4755000    0.4995612   -8.2556296    760.87222  0.013334599  0.011917822           12 
 4756000   0.49694697   -8.2669436      762.054  0.013352502   0.01191404           11 
 4757000   0.49053682   -8.2601758    762.01537  0.013349018  0.011910262            6 
 4758000   0.48809305   -8.2687831    761.12126  0.013330553  0.011906481            6 
 4759000   0.48754852   -8.2722783    762.52016  0.013352248  0.011902705           10 
 4760000   0.47934583   -8.2508463     761.3094  0.013328246  0.011898926            8 
 4761000   0.49359743   -8.2755227    761.55101  0.013329675   0.01189515            4 
 4762000   0.48818544   -8.2547028    762.11365  0.013336722  0.011891375            7 
 4763000   0.49705333   -8.2645182    761.27348  0.013319222  0.011887603           12 
 4764000   0.49033383    -8.259929    762.12867  0.013331386  0.011883835            3 
 4765000   0.48924894   -8.2760228    761.07667   0.01331019  0.011880064            5 
 4766000   0.49045604   -8.2814683     761.0522   0.01330697  0.011876294            6 
 4767000    0.4842828   -8.2544054    761.07474  0.013304572  0.011872529            3 
 4768000   0.50025053   -8.2778361    761.81448  0.013314711  0.011868765            5 
 4769000   0.48289223    -8.273256    762.81339  0.013329374  0.011865002            7 
 4770000   0.49538619   -8.2567101    760.33775  0.013283329   0.01186124           12 
 4771000   0.49310369   -8.2725774    761.84468  0.013306866  0.011857479            8 
 4772000   0.49297958    -8.270179    761.37147  0.013295814  0.011853719           11 
 4773000   0.49221562   -8.2545844    759.67094  0.013263338  0.011849961            8 
 4774000   0.48915058   -8.2589465    761.24009   0.01328795  0.011846206            8 
 4775000   0.48376173   -8.2591518    762.05305  0.013299355  0.011842453           13 
 4776000   0.48412349   -8.2763203    761.08889  0.013279748  0.011838698           12 
 4777000   0.47933504   -8.2661166    761.00588  0.013275519  0.011834944           10 
 4778000   0.48152843   -8.2728623    760.95404  0.013271837  0.011831193           15 
 4779000   0.50140889   -8.2774353     762.5244  0.013296443   0.01182744            6 
 4780000   0.49265372    -8.283447    762.13554  0.013286882  0.011823691            8 
 4781000   0.48688447   -8.2673721    761.39593  0.013271211  0.011819945           11 
 4782000   0.49156903   -8.2640995    762.18109  0.013282118  0.011816199           12 
 4783000   0.49328915   -8.2755475    760.34566  0.013247363  0.011812455           10 
 4784000   0.50644723   -8.2650495     760.3238  0.013244213  0.011808712            7 
 4785000   0.49221287   -8.2614387    760.19548  0.013239211   0.01180497           13 
 4786000   0.49314089   -8.2659555    761.22202  0.013254319  0.011801228           19 
 4787000   0.49479241   -8.2687943    760.66303  0.013241819  0.011797491            9 
 4788000   0.48421982    -8.275852    761.50762  0.013253753  0.011793752            9 
 4789000   0.47903552   -8.2641544    761.09468    0.0132438  0.011790016           13 
 4790000   0.48053848   -8.2691669     761.9813   0.01325646  0.011786284           14 
 4791000   0.49265369   -8.2687969    762.18719  0.013257274   0.01178255            7 
 4792000   0.49056938   -8.2691328    761.30414  0.013239151  0.011778823           12 
 4793000   0.49713544   -8.2594218    762.30509  0.013253792  0.011775094           14 
 4794000   0.48585188   -8.2925353    761.71687  0.013240802  0.011771371           11 
 4795000    0.4885675   -8.2752718    761.64405  0.013236775  0.011767646            8 
 4796000   0.49471927   -8.2698092    762.68764  0.013252148  0.011763919            9 
 4797000   0.48402209   -8.2757234    760.61037  0.013213299  0.011760189            7 
 4798000     0.491392   -8.2536753    762.05363  0.013235613  0.011756468           14 
 4799000    0.4926981    -8.271744    762.24683  0.013236209  0.011752748           10 
 4800000    0.4820333   -8.2687885    760.83033   0.01320886  0.011749028           11 
 4801000   0.50004298   -8.2716413    761.45445  0.013216942  0.011745309            9 
 4802000   0.47313123   -8.2844862    761.49834  0.013214951  0.011741594           10 
 4803000   0.48954551    -8.272852    760.34601  0.013192206  0.011737877           14 
 4804000   0.48305307   -8.2458987    760.38295  0.013190101  0.011734163           10 
 4805000   0.47953723   -8.2621981    761.71256  0.013210415   0.01173045           14 
 4806000   0.48003055   -8.2653955     760.9511  0.013194464  0.011726738           14 
 4807000   0.46786823   -8.2806943    760.78618   0.01318886  0.011723025           15 
 4808000   0.48263109   -8.2619672    762.03088   0.01320769  0.011719314           13 
 4809000   0.48632617   -8.2652154    761.66816  0.013198658  0.011715606           11 
 4810000   0.47754114    -8.279702    761.15742  0.013187065  0.011711896           11 
 4811000    0.4791765   -8.2710928    761.58519  0.013191734   0.01170819            9 
 4812000   0.48216396    -8.281851    761.37561  0.013185363  0.011704484           15 
 4813000   0.48309133   -8.2656129    762.19541  0.013196818  0.011700778           13 
 4814000   0.47045286    -8.287702    760.80243  0.013169963  0.011697075           10 
 4815000   0.48335035   -8.2799831    760.61293  0.013163948  0.011693376            8 
 4816000   0.48090698    -8.273352    759.54514  0.013142739  0.011689677           14 
 4817000   0.47424038    -8.269745    760.51256  0.013156746   0.01168598           12 
 4818000   0.47625106   -8.2811559    761.73953  0.013175237  0.011682285           13 
 4819000   0.47826487   -8.2707319    760.27003  0.013147092  0.011678595           10 
 4820000   0.46923722    -8.267127    760.51979  0.013148682  0.011674899           12 
 4821000    0.4868808   -8.2600414    761.45833  0.013162178  0.011671207           13 
 4822000   0.46888757    -8.256299    761.52695  0.013160634  0.011667516           14 
 4823000   0.47649053   -8.2758083    760.88449  0.013146805  0.011663824            7 
 4824000   0.47760398   -8.2750902    760.86262  0.013143702  0.011660137            7 
 4825000   0.47238749   -8.2684919    759.99602  0.013126011   0.01165645            9 
 4826000   0.47856429   -8.2840348    761.80651  0.013154554  0.011652763           11 
 4827000   0.48477453   -8.2897972    761.42084   0.01314517  0.011649081           12 
 4828000   0.47932622   -8.2901451    761.06586  0.013136321  0.011645398            9 
 4829000   0.46848247   -8.2861915    761.09947   0.01313418  0.011641716           15 
 4830000   0.47261131   -8.2711573    761.34098  0.013135628  0.011638034           10 
 4831000   0.46835153   -8.2834907    762.45093  0.013152055  0.011634354           18 
 4832000   0.47084849   -8.2852283    760.80125  0.013120882  0.011630675            9 
 4833000    0.4895906   -8.2814169    760.47271  0.013112503  0.011626999           13 
 4834000   0.47873409   -8.2763933    761.19204  0.013122191  0.011623324            9 
 4835000   0.48317006   -8.2671892    760.44204   0.01310655  0.011619651           11 
 4836000   0.47583964   -8.2676467    759.79738  0.013092731  0.011615979            9 
 4837000   0.48124084   -8.2836871    761.15127   0.01311335  0.011612311           12 
 4838000    0.4719009   -8.2796614    762.19671  0.013128647  0.011608643           15 
 4839000   0.48126499   -8.2622512    761.29162  0.013110347  0.011604975           10 
 4840000   0.46600308   -8.2674761    761.13918  0.013105013   0.01160131           13 
 4841000   0.48132803   -8.2816721    760.26737  0.013087299  0.011597644           10 
 4842000   0.48789073   -8.2946341    760.63785  0.013090972  0.011593979            7 
 4843000   0.47703513    -8.280773    762.36611  0.013118007  0.011590315            7 
 4844000   0.48553402   -8.2741252    761.03929  0.013092473  0.011586654           13 
 4845000   0.48258843   -8.2754601     761.3362  0.013094878  0.011582995            7 
 4846000   0.47002411   -8.2786725    762.14681  0.013106115   0.01157934            5 
 4847000   0.47367375   -8.2662174    760.93181  0.013082522  0.011575686            8 
 4848000   0.47896224   -8.2872755    760.65776  0.013075113   0.01157203            9 
 4849000   0.48035775   -8.2839548     761.4935  0.013086779  0.011568377            7 
 4850000   0.46419443   -8.2721975    760.66883  0.013069911  0.011564725            6 
 4851000   0.48063073   -8.2827884    761.44525  0.013080555  0.011561072            8 
 4852000   0.48093776   -8.2775587    760.37695  0.013059511  0.011557424            9 
 4853000   0.47279756   -8.2741429    761.25632   0.01307192  0.011553779            7 
 4854000   0.46925106   -8.2946234    761.10772  0.013066676  0.011550134            7 
 4855000   0.47581775   -8.2792669    760.11131  0.013046881  0.011546487           15 
 4856000   0.48039235   -8.2715367    761.61477  0.013069995  0.011542846            7 
 4857000     0.485477   -8.2836751    760.21014  0.013043205  0.011539203            9 
 4858000   0.47292762   -8.2757362    761.52028  0.013062994  0.011535563           16 
 4859000   0.47083793   -8.2823631    760.89592  0.013049597  0.011531923            6 
 4860000   0.48025275   -8.2959096    761.47423  0.013056828  0.011528287            4 
 4861000     0.470742   -8.2819877    760.94201  0.013045018  0.011524652            4 
 4862000   0.47529661    -8.288278    760.75632  0.013039153  0.011521015           15 
 4863000   0.47067795    -8.286641    761.62017  0.013051274  0.011517381            5 
 4864000   0.46944559   -8.2992333    760.11481    0.0130228  0.011513747            5 
 4865000   0.47223877   -8.2801297     760.9711  0.013034791  0.011510115            9 
 4866000   0.46778439   -8.2979375    760.57365  0.013025306  0.011506487            7 
 4867000   0.47613715   -8.2719593    760.56701  0.013022516  0.011502856            8 
 4868000    0.4801468    -8.273015      759.514  0.013001815  0.011499229           11 
 4869000   0.46322857   -8.2792784    760.65668  0.013018701  0.011495603            8 
 4870000    0.4761973   -8.2857389    761.01126  0.013022096  0.011491979            7 
 4871000   0.46966628   -8.2803852    760.63348  0.013012959  0.011488356           10 
 4872000   0.47124634   -8.2721855    760.44823  0.013007119  0.011484734           11 
 4873000   0.46122201   -8.2935751    760.83653  0.013011091  0.011481113            7 
 4874000   0.46312014   -8.3010664    759.80993  0.012990869  0.011477492            5 
 4875000   0.48066976   -8.2973459    761.32214  0.013014054  0.011473875            7 
 4876000   0.47288203   -8.3024927     760.4066  0.012995738  0.011470259            7 
 4877000   0.46640511   -8.2797875    759.92513  0.012984846  0.011466645            9 
 4878000   0.47318093   -8.2871345    760.22438  0.012987296  0.011463033            9 
 4879000    0.4703459   -8.2812282    761.01656  0.012998165  0.011459421            8 
 4880000   0.47590131   -8.2691527    759.67544    0.0129726   0.01145581            6 
 4881000   0.47659374   -8.2876351    759.50974  0.012967113    0.0114522            9 
 4882000   0.47300228    -8.289886    762.16934  0.013009855  0.011448592            6 
 4883000   0.46820366    -8.315039    760.50516   0.01297879  0.011444984            5 
 4884000   0.47292236    -8.297718    759.68638  0.012962162   0.01144138            4 
 4885000   0.47776192   -8.2986556    759.94794   0.01296397  0.011437774           15 
 4886000   0.47191713   -8.2945485    760.33639  0.012967942  0.011434169            9 
 4887000   0.47365112   -8.3033563    760.79358  0.012973085  0.011430569            4 
 4888000   0.47130375   -8.3050476    759.58708  0.012949862  0.011426964            7 
 4889000   0.47331812   -8.2736004     760.7022   0.01296622  0.011423365            6 
 4890000   0.46821555      -8.3056    760.59265  0.012961702  0.011419764            4 
 4891000   0.46579129   -8.2983582    760.56252  0.012958538  0.011416166            6 
 4892000    0.4707855   -8.2930286    761.27073  0.012967953   0.01141257            3 
 4893000   0.46946066   -8.2692193    760.05699  0.012944632  0.011408976            5 
 4894000   0.47078725   -8.2841474    759.82252  0.012937994  0.011405384           11 
 4895000   0.47817559   -8.2857855    759.14369  0.012923794  0.011401792            6 
 4896000   0.46383098   -8.3021246    761.75077  0.012965529  0.011398205           15 
 4897000   0.46764692   -8.2938004    760.12698  0.012935249  0.011394616            7 
 4898000   0.46668567   -8.2867387    759.88129  0.012928428  0.011391029            9 
 4899000   0.46491947    -8.310965     760.0433  0.012928545  0.011387443            6 
 4900000   0.45904694   -8.3015496    759.91165  0.012923667  0.011383859            6 
 4901000   0.46379596   -8.2956294    760.37777  0.012928956  0.011380275            6 
 4902000   0.46237402   -8.2986184    760.26794  0.012924452  0.011376693            4 
 4903000   0.46760299   -8.3042544    761.03878  0.012934917  0.011373111            6 
 4904000   0.46260007   -8.2885304    759.56674  0.012907265  0.011369535            7 
 4905000   0.46785942   -8.2919848    760.59323  0.012922073  0.011365957            6 
 4906000   0.46740831   -8.3020776    760.04371  0.012910105  0.011362381            9 
 4907000   0.46512546    -8.294336    760.46476  0.012914625  0.011358806           11 
 4908000    0.4668752   -8.2775173    760.50865  0.012912739  0.011355236            6 
 4909000   0.47486638   -8.3035002    760.91609  0.012917025  0.011351663            4 
 4910000    0.4559522   -8.3042146    760.54487  0.012908093  0.011348092           11 
 4911000   0.46565554   -8.3032613    760.25843  0.012900605  0.011344523            3 
 4912000   0.46902234   -8.3054429    760.25157  0.012897862  0.011340955            5 
 4913000   0.46537243    -8.312845    759.45484  0.012881723  0.011337389            7 
 4914000   0.45710348   -8.3110017    760.34427  0.012894185  0.011333825            6 
 4915000    0.4629153   -8.3004231    759.06458  0.012869864  0.011330261            6 
 4916000   0.47387429   -8.3035011    760.46203  0.012890935  0.011326699            5 
 4917000   0.46638216   -8.2904499    760.92531  0.012896165   0.01132314            7 
 4918000     0.466965   -8.3112664    759.67927  0.012872429  0.011319579            8 
 4919000    0.4579126   -8.3001766    759.63402  0.012869046  0.011316021            5 
 4920000   0.46456552   -8.3011817    761.12828  0.012891739  0.011312465            5 
 4921000   0.46061538   -8.2998592    760.69073   0.01288171  0.011308911            6 
 4922000   0.45828349   -8.2836348    760.92762  0.012883103  0.011305358            6 
 4923000   0.45806748   -8.2873951    759.00079   0.01284787  0.011301802           10 
 4924000   0.46163884   -8.3056235    759.75672  0.012858054   0.01129825           16 
 4925000   0.46325642   -8.2985853    758.99315  0.012842524  0.011294702           10 
 4926000   0.46248329   -8.2993634    760.51768  0.012865707  0.011291152            5 
 4927000   0.46711699   -8.2974712    759.69366  0.012849159  0.011287602            9 
 4928000   0.45921628   -8.2854063    759.85835  0.012849336  0.011284054            7 
 4929000   0.46060351   -8.2895026     760.5308  0.012858098  0.011280509            6 
 4930000   0.46254379   -8.3028644    760.33511  0.012852182  0.011276965           11 
 4931000   0.47094729   -8.2944946     761.2114  0.012864385  0.011273426            4 
 4932000   0.46467994     -8.30771    760.42888  0.012848555  0.011269887            8 
 4933000    0.4546424    -8.300935    760.01246  0.012838916  0.011266348            6 
 4934000   0.45209916   -8.3003984    759.86792  0.012833872  0.011262812            6 
 4935000   0.46052814   -8.2917208    759.22757  0.012820459  0.011259276            5 
 4936000   0.45890116   -8.2987411     760.0018  0.012830933  0.011255741           10 
 4937000     0.468468   -8.3055219    760.59139  0.012838286  0.011252206            6 
 4938000   0.46669494   -8.2950852    759.42772  0.012816048  0.011248673            5 
 4939000   0.46369923   -8.3040268    760.69049  0.012834759  0.011245142           10 
 4940000   0.46758591   -8.3123583    759.62979  0.012814268  0.011241611            5 
 4941000   0.45105786   -8.3116072    758.76128  0.012797026  0.011238083            8 
 4942000   0.47185937   -8.2915065     760.2218  0.012819064  0.011234556            6 
 4943000   0.45959028   -8.2996121    759.46827  0.012803767  0.011231031            8 
 4944000   0.45927062   -8.3149768    760.64642  0.012821036  0.011227505           10 
 4945000   0.46746602      -8.2909    759.96655  0.012806986  0.011223984           10 
 4946000   0.45408073   -8.3080531    760.40569  0.012811796  0.011220465            8 
 4947000   0.46885631   -8.3009998    760.47637  0.012810396  0.011216947            6 
 4948000   0.45699114   -8.2999982    759.23224  0.012786854  0.011213429            5 
 4949000   0.46443937   -8.3064698    761.36351  0.012820157  0.011209911            6 
 4950000   0.45728377   -8.3192247    760.05961  0.012795616  0.011206394            5 
 4951000   0.46285851   -8.3043412    760.35014  0.012797922  0.011202877            6 
 4952000   0.46138595   -8.3046977    759.22794  0.012776453  0.011199364            8 
 4953000   0.46799305   -8.2929451    759.59898  0.012780116  0.011195851            9 
 4954000   0.47057549   -8.2950325    760.40453  0.012791087  0.011192344            7 
 4955000   0.45154633     -8.30698    760.66122  0.012792822  0.011188837            7 
 4956000   0.46435938   -8.3162026    759.64853  0.012773213  0.011185333            6 
 4957000    0.4512296   -8.3021047    760.52122  0.012785307  0.011181825           22 
 4958000   0.46258835   -8.3055513    760.21576  0.012777595   0.01117832            5 
 4959000   0.44850936   -8.3007766    761.22246  0.012791935  0.011174817           10 
 4960000   0.46393013   -8.2994185    759.75428  0.012764689  0.011171315            8 
 4961000   0.45244947   -8.3154485    759.07775  0.012750752  0.011167813            8 
 4962000   0.46149178    -8.302667    759.46089  0.012754617  0.011164313            5 
 4963000   0.46086488   -8.2926297    760.52796  0.012769964  0.011160811            5 
 4964000   0.45916724   -8.3043894    758.36707  0.012731115  0.011157314            6 
 4965000   0.45407373    -8.312654    759.33744  0.012744838  0.011153818           14 
 4966000   0.44997869   -8.3058066    760.40989  0.012760268  0.011150324            8 
 4967000    0.4655595   -8.3027983    759.79103  0.012747316   0.01114683            6 
 4968000   0.45822009   -8.3112597    759.48293  0.012739582   0.01114334            5 
 4969000   0.45658517   -8.3207653    759.01695  0.012729204  0.011139849            5 
 4970000   0.46076464    -8.294785    758.96423  0.012725758  0.011136359           10 
 4971000   0.46524532   -8.2942187    759.41665  0.012730783  0.011132871            4 
 4972000   0.46883563   -8.2984267    759.87375  0.012735883  0.011129383            8 
 4973000   0.44479501   -8.3043226    760.23991  0.012739458  0.011125896            6 
 4974000   0.45959913   -8.3119078    760.12843  0.012735029  0.011122411            4 
 4975000   0.44760261   -8.3179304    759.64619  0.012724392  0.011118927            6 
 4976000   0.45644466   -8.3191596    759.07486  0.012712266  0.011115444            4 
 4977000   0.45756373    -8.311639    758.86603  0.012706216  0.011111963            7 
 4978000   0.45054529   -8.3028397    759.71878  0.012717939  0.011108483           13 
 4979000   0.45036094   -8.3152485    758.99171  0.012703215  0.011105006           10 
 4980000   0.45053452   -8.3117052    760.34735  0.012723349  0.011101527            6 
 4981000   0.45037684    -8.309869    759.20643  0.012701707   0.01109805           13 
 4982000   0.45057287   -8.3096317    759.55542  0.012704995  0.011094573            5 
 4983000   0.44812114   -8.3064273     759.4257  0.012700276  0.011091101            5 
 4984000   0.44998665   -8.3142238    759.68709  0.012702098  0.011087629            8 
 4985000   0.46171765   -8.3258063    758.37553  0.012677625  0.011084157            6 
 4986000   0.45597977   -8.3081832    758.88518    0.0126836  0.011080688           10 
 4987000   0.46005004   -8.3092266    760.02445  0.012700094  0.011077219           10 
 4988000   0.45763377   -8.2987176    759.29006  0.012685279  0.011073752            4 
 4989000   0.46010479   -8.3059248    759.69936  0.012689573  0.011070289            8 
 4990000   0.45786631   -8.3081265    760.70783  0.012703872  0.011066827            7 
 4991000   0.45561662   -8.2987491    758.19824  0.012659424  0.011063363            3 
 4992000   0.44943424   -8.2950764    759.62357  0.012680682  0.011059898           10 
 4993000   0.44654611   -8.3100676    759.44755  0.012675204  0.011056437            5 
 4994000   0.44990627   -8.3153855    759.94524  0.012680971  0.011052979           11 
 4995000   0.45630419   -8.3145866    759.22848  0.012666474   0.01104952            4 
 4996000    0.4470752   -8.2999542    759.26866  0.012664609  0.011046062            6 
 4997000    0.4553972   -8.3244764    759.17661   0.01266054   0.01104261            4 
 4998000   0.44381958   -8.3172261    760.11538  0.012673659  0.011039157            8 
 4999000   0.45557507   -8.3165776    759.66851  0.012663675  0.011035706            8 
 5000000   0.46372228    -8.311895    758.77556  0.012646259  0.011032255            5 
 5001000   0.44685283   -8.3002452    759.79842  0.012660775  0.011028808            6 
 5002000   0.45367757   -8.3126424     759.6405  0.012655613   0.01102536            9 
 5003000   0.45376687   -8.3136869    758.66475   0.01263683  0.011021912           11 
 5004000   0.44876953   -8.3154551    759.10512  0.012641639  0.011018466            6 
 5005000   0.44287814    -8.325799    760.15201  0.012656544  0.011015022            6 
 5006000   0.44263639   -8.3248722    759.62678  0.012645272  0.011011578            7 
 5007000   0.44455416   -8.3084132    759.17117  0.012635164  0.011008138           13 
 5008000   0.44628421   -8.2951225    758.38552  0.012619567  0.011004699            8 
 5009000    0.4566495   -8.3274561    758.89597   0.01262554  0.011001257            8 
 5010000   0.45807108   -8.3263328    758.90811  0.012623222   0.01099782           15 
 5011000   0.45311338   -8.3338048    759.14455  0.012624635   0.01099438           10 
 5012000   0.45193783   -8.3112216    759.62523  0.012630108  0.010990943           13 
Loop time of 11586.7 on 48 procs for 5000000 steps with 4000 atoms

Performance: 74568.398 tau/day, 431.530 timesteps/s
99.4% CPU use with 48 MPI tasks x no OpenMP threads

MPI task timing breakdown:
Section |  min time  |  avg time  |  max time  |%varavg| %total
---------------------------------------------------------------
Pair    | 734.22     | 785.17     | 837        |  87.5 |  6.78
Neigh   | 74.999     | 77.704     | 80.218     |  14.6 |  0.67
Comm    | 712.34     | 769.04     | 823.82     |  95.7 |  6.64
Output  | 13.604     | 13.609     | 13.7       |   0.4 |  0.12
Modify  | 9815.2     | 9834.3     | 9848.7     |   8.3 | 84.88
Other   |            | 106.9      |            |       |  0.92

Nlocal:        83.3333 ave          92 max          76 min
Histogram: 3 3 3 10 5 15 4 1 2 2
Nghost:        1958.15 ave        1985 max        1923 min
Histogram: 1 2 1 6 4 13 8 7 4 2
Neighs:        12439.4 ave       14024 max       11284 min
Histogram: 4 6 6 6 8 10 3 1 2 2
FullNghs:      24878.9 ave       27587 max       22465 min
Histogram: 3 2 5 9 6 9 8 2 2 2

Total # of neighbors = 1194187
Ave neighs/atom = 298.54675
Neighbor list builds = 268500
Dangerous builds = 0

#clear
#
#next RN
#
#jump SELF
Total wall time: 3:13:09
