
units lj                  # Use reduced LJ style units
atom_style atomic         # Uncharged point particles
atom_modify map hash      # Needed for indexing of clusters etc
                          # Used to be able to find where atoms are in relation to each other.

lattice fcc 1.0 spacing 1 1 1
Lattice spacing in x,y,z = 1.5874011 1.5874011 1.5874011
region box block 0 10 0 10 0 10 units lattice
create_box 2 box
Created orthogonal box = (0.0000000 0.0000000 0.0000000) to (15.874011 15.874011 15.874011)
  3 by 4 by 4 MPI processor grid
create_atoms 1 box
Created 4000 atoms
  using lattice units in orthogonal box = (0.0000000 0.0000000 0.0000000) to (15.874011 15.874011 15.874011)
  create_atoms CPU = 0.018 seconds
set type 1 type/fraction 2 0.15 78393
Setting atom values ...
  634 settings made for type/fraction
mass 1 1.0
mass 2 1.0
pair_style lj/cut  3.5
pair_modify tail  yes
pair_coeff 1  1  1.0  1.0   # Intearaction between 1 and 1 set with epsilon = 1 and sigma = 1
pair_coeff 1  2  1.5  0.8
pair_coeff 2  2  0.5  0.88

write_data data.0
System init for write_data ...
Neighbor list info ...
  update every 1 steps, delay 10 steps, check yes
  max neighbors/atom: 2000, page size: 100000
  master list distance cutoff = 3.8
  ghost atom cutoff = 3.8
  binsize = 1.9, bins = 9 9 9
  1 neighbor lists, perpetual/occasional/extra = 1 0 0
  (1) pair lj/cut, perpetual
      attributes: half, newton on
      pair build: half/bin/atomonly/newton
      stencil: half/bin/3d
      bin: standard
WARNING: Not all mixed pair coeffs generated from mixing. Use write_data with 'pair ij' option to store all pair coeffs. (../write_data.cpp:312)


#############################
#   M E L T   S Y S T E M   #
#############################

velocity all create 2.4 1741580 mom yes dist gaussian # Assign velocities
                                                    # Temperature 2.4, random number seed, zero linear momentum
                                                                                # Gaussian distribution

timestep 0.002   # simulation timestep
thermo 1000       # output thermodynamic data every 1000 steps bf 100

# Define a fix  in this case with index 1 applied to all
# particles in the simulation. This fix is for simulations
# in the anisotropic NPT ensemble. Note that we use the MTK
# correction.
fix 1 all npt temp 2.4 2.4 0.1 iso 5.68 5.68 0.5 mtk yes tchain 5 pchain 5 # Use NPT ensemble
                                                                         # Set temperature and pressure and damping
                                                                         # Numbers of thermostats in chain and in barostat
run 10000          # run for 10000 steps
Per MPI rank memory allocation (min/avg/max) = 3.642 | 3.644 | 3.648 Mbytes
Step Temp E_pair E_mol TotEng Press Volume 
       0          2.4   -7.3553801            0   -3.7562801   -3.3553213         4000 
    1000    2.3734417   -4.7476281            0   -1.1883556    5.6636276    4636.1295 
    2000    2.3748342   -4.7336075            0   -1.1722467    5.8653062     4627.984 
    3000    2.3617873   -4.7160257            0   -1.1742304    5.8428081    4638.4703 
    4000    2.3776688   -4.6976701            0   -1.1320586    5.8036347    4653.1778 
    5000    2.3638147   -4.8153372            0   -1.2705015    5.4190742    4624.4661 
    6000    2.4422788   -4.7304202            0   -1.0679178    5.4339084    4670.6405 
    7000    2.3840065   -4.6322833            0   -1.0571675    5.9144599    4671.9144 
    8000    2.3904425   -4.7282155            0   -1.1434481    5.6403505    4650.3635 
    9000    2.4072995   -4.7087118            0   -1.0986653     5.863361    4640.0483 
   10000    2.4648479   -4.7436424            0   -1.0472949    5.6946062    4645.2464 
Loop time of 2.23548 on 48 procs for 10000 steps with 4000 atoms

Performance: 772988.242 tau/day, 4473.312 timesteps/s
99.6% CPU use with 48 MPI tasks x no OpenMP threads

MPI task timing breakdown:
Section |  min time  |  avg time  |  max time  |%varavg| %total
---------------------------------------------------------------
Pair    | 0.93846    | 0.99443    | 1.1466     |   3.5 | 44.48
Neigh   | 0.19195    | 0.19998    | 0.23146    |   1.4 |  8.95
Comm    | 0.6234     | 0.78045    | 0.85656    |   5.4 | 34.91
Output  | 0.00023704 | 0.00024101 | 0.00030297 |   0.0 |  0.01
Modify  | 0.19728    | 0.24585    | 0.29817    |   6.1 | 11.00
Other   |            | 0.01454    |            |       |  0.65

Nlocal:        83.3333 ave          91 max          75 min
Histogram: 4 1 1 9 4 11 10 2 3 3
Nghost:        1491.17 ave        1517 max        1465 min
Histogram: 2 6 3 2 11 9 5 2 4 4
Neighs:        8204.71 ave        9497 max        7071 min
Histogram: 2 2 4 10 6 14 6 1 2 1

Total # of neighbors = 393826
Ave neighs/atom = 98.456500
Neighbor list builds = 902
Dangerous builds = 191

# Equilibrate just above the melting temperature to avoid step fn in T

fix 1 all npt temp 1.25 1.25 0.1 iso 5.68 5.68 0.5 mtk yes tchain 5 pchain 5
run 2000
Per MPI rank memory allocation (min/avg/max) = 3.642 | 3.644 | 3.648 Mbytes
Step Temp E_pair E_mol TotEng Press Volume 
   10000    2.4648479   -4.7436424            0   -1.0472949    5.6946062    4645.2464 
   11000    1.2655329   -6.3579539            0   -4.4601291    5.7156685    3817.6638 
   12000    1.2397433   -6.3792484            0   -4.5200983    5.5004267    3821.3169 
Loop time of 0.478985 on 48 procs for 2000 steps with 4000 atoms

Performance: 721525.841 tau/day, 4175.497 timesteps/s
99.6% CPU use with 48 MPI tasks x no OpenMP threads

MPI task timing breakdown:
Section |  min time  |  avg time  |  max time  |%varavg| %total
---------------------------------------------------------------
Pair    | 0.21177    | 0.2323     | 0.25411    |   1.8 | 48.50
Neigh   | 0.030915   | 0.032992   | 0.03639    |   0.5 |  6.89
Comm    | 0.13919    | 0.16129    | 0.18613    |   2.7 | 33.67
Output  | 4.8029e-05 | 5.0014e-05 | 6.4163e-05 |   0.0 |  0.01
Modify  | 0.039853   | 0.04793    | 0.055472   |   2.0 | 10.01
Other   |            | 0.004429   |            |       |  0.92

Nlocal:        83.3333 ave          93 max          76 min
Histogram: 4 2 8 5 10 11 1 6 0 1
Nghost:        1694.79 ave        1711 max        1663 min
Histogram: 1 0 2 3 4 5 9 13 6 5
Neighs:        9974.75 ave       11316 max        8896 min
Histogram: 3 3 6 8 8 9 4 5 1 1

Total # of neighbors = 478788
Ave neighs/atom = 119.69700
Neighbor list builds = 140
Dangerous builds = 7

#############################
# L I N E A R  Q U E N C H  #
#############################

# Define solid atoms. This closely follows ten Wolde  Ruiz-Montero and Frenkel  Faraday Discuss  1996  104  93-110
# Compute components of the per-atom q6 vector
compute q6 all orientorder/atom degrees 1 6 components 6 nnn NULL cutoff 1.3 # compute the Q6 parameter.
                                                                             # Use all neighbours within 1.3 unit cell.

# get number of connections
compute coord_number all coord/atom orientorder q6 0.5

# An atom is solid if it has 8 or more connections (of a possible 14)
variable is_solid atom c_coord_number>=8
group solid dynamic all var is_solid    # Must be dynamic to update
dynamic group solid defined

# do clustering
compute cluster solid cluster/atom 1.3 # Create a cluster where all atoms within are solid and max 1.3 units from another member

# define chunks one chunk per cluster
compute clus_chunks solid chunk/atom c_cluster nchunk every compress yes  # Says which atoms are in which chunk

# count the size of each chunk
compute size_chunks solid property/chunk clus_chunks count


# Find the maximum entry in the vector of chunk sizes
variable max_n equal max(c_size_chunks)


# Thermo style which includes this variable
# thermo_style custom step temp pe vol v_max_n

thermo ${N}  # Print the thermo information every 100 steps
thermo 1000  

# Reset the npt fix at a lower temperature (below freezing)
fix 1  all npt temp  ${temp} ${temp}  0.1  iso  5.68  5.68  0.5  mtk yes tchain  5  pchain  5
fix 1  all npt temp  0.45 ${temp}  0.1  iso  5.68  5.68  0.5  mtk yes tchain  5  pchain  5
fix 1  all npt temp  0.45 0.45  0.1  iso  5.68  5.68  0.5  mtk yes tchain  5  pchain  5

dump dmp2 all dcd ${N} traj.dcd
dump dmp2 all dcd 1000 traj.dcd


compute msd all msd com yes
variable twopoint equal c_msd[4]/6/(step*dt+1.0e-6)
fix 9 all vector 10 c_msd[4]
variable fit equal slope(f_9)/6/(10*dt)
thermo_style custom step temp pe c_msd[4] v_twopoint v_fit v_max_n

fix 1 all npt temp 1.25 ${temp} 0.1 iso 5.68 5.68 0.5 mtk yes tchain 5 pchain 5
fix 1 all npt temp 1.25 0.45 0.1 iso 5.68 5.68 0.5 mtk yes tchain 5 pchain 5
run 2000000 # 5000000  # Run for this many steps
Neighbor list info ...
  update every 1 steps, delay 10 steps, check yes
  max neighbors/atom: 2000, page size: 100000
  master list distance cutoff = 3.8
  ghost atom cutoff = 3.8
  binsize = 1.9, bins = 9 9 9
  4 neighbor lists, perpetual/occasional/extra = 1 3 0
  (1) pair lj/cut, perpetual
      attributes: half, newton on
      pair build: half/bin/atomonly/newton
      stencil: half/bin/3d
      bin: standard
  (2) compute orientorder/atom, occasional
      attributes: full, newton on
      pair build: full/bin/atomonly
      stencil: full/bin/3d
      bin: standard
  (3) compute coord/atom, occasional
      attributes: full, newton on
      pair build: full/bin/atomonly
      stencil: full/bin/3d
      bin: standard
  (4) compute cluster/atom, occasional
      attributes: full, newton on
      pair build: full/bin/atomonly
      stencil: full/bin/3d
      bin: standard
Per MPI rank memory allocation (min/avg/max) = 9.762 | 9.767 | 9.772 Mbytes
Step Temp PotEng c_msd[4] v_twopoint v_fit v_max_n 
   12000    1.2397433   -6.3792484 4.8008103e-30 3.3338959e-32 8.3333333e+20            1 
   13000    1.2552501    -6.348202   0.53817949 0.0034498684  0.044208556            3 
   14000    1.2464259   -6.4081021     1.053808 0.0062726662  0.042488858            2 
   15000    1.2489773   -6.4064426    1.5871836 0.0088176865  0.043242505            3 
   16000    1.2204388   -6.4211443    2.0923877  0.010897852   0.04372587            2 
   17000    1.2275385   -6.4031958    2.6311102  0.012897598  0.043647107            1 
   18000    1.2594816   -6.3657709    3.1522728  0.014593855   0.04358669            3 
   19000    1.2566878   -6.3960276    3.6687277  0.016090911  0.043516079            3 
   20000    1.2126351   -6.3769925    4.1708939  0.017378724  0.043324685            1 
   21000    1.2525836   -6.4236996    4.6922681  0.018620111  0.043398494            4 
   22000    1.2421727   -6.3861184     5.226217  0.019796276  0.043333748            2 
   23000    1.2418749   -6.3683348    5.7423894  0.020805758  0.043330018            5 
   24000    1.2581189    -6.434349     6.192827  0.021502871  0.043254004            4 
   25000    1.2472276   -6.3783504     6.763479   0.02254493  0.043168809            2 
   26000    1.2271962   -6.4029711    7.3065733  0.023418504  0.043213928            3 
   27000    1.2293015   -6.4222733    7.8047971  0.024088879  0.043191234            2 
   28000     1.228101   -6.3923144    8.2927081  0.024680678  0.043163829            1 
   29000    1.2571915   -6.4084873    8.8059468  0.025304445  0.043182163            4 
   30000    1.2314261   -6.4291973     9.356633  0.025990647  0.043181488            3 
   31000    1.2508924   -6.4222371    9.9208517  0.026668956  0.043200827            7 
   32000    1.2195261   -6.3947851    10.558364  0.027495739  0.043349354            2 
   33000    1.2369112   -6.4317478    11.093234  0.028013217  0.043482522            1 
   34000    1.2349663   -6.4143712    11.713147  0.028708694  0.043694656            2 
   35000    1.2569161    -6.419608    12.188779  0.029020901  0.043848236            3 
   36000    1.2471795   -6.3852709    12.692269  0.029380252   0.04392972            2 
   37000    1.2432282    -6.380323    13.287754  0.029927372  0.044026153            2 
   38000    1.2278358   -6.4183326    13.892038  0.030464995  0.044154153            3 
   39000    1.2177965   -6.4046205    14.335985  0.030632447  0.044249125            2 
   40000    1.2416823   -6.4150333    14.833127  0.030902348  0.044278913            1 
   41000    1.2327799   -6.4192218    15.379286  0.031258712  0.044298953            3 
   42000    1.2501033   -6.3964824    15.998602  0.031743258  0.044347208            2 
   43000    1.2631403   -6.4390559    16.312711  0.031613781  0.044373434            3 
   44000    1.2423627   -6.4099397    16.889546  0.031987777   0.04432841            1 
   45000    1.2464099   -6.4088706    17.298865  0.032034934  0.044266225            2 
   46000    1.2305714   -6.4077483    17.700976  0.032066985  0.044155052            1 
   47000    1.2289644    -6.448207    18.167114  0.032211194  0.044065538            3 
   48000    1.2847312   -6.4066038    18.792184  0.032625319  0.043965236            2 
   49000    1.2814248    -6.423912    19.215274  0.032679037  0.043885808            3 
   50000    1.2661376   -6.4399896     19.73885  0.032898083  0.043794488            2 
   51000    1.2209874   -6.3931727    20.459866  0.033431152  0.043755188            3 
   52000    1.2426401   -6.4200625    21.048793   0.03373204  0.043747887            7 
   53000    1.2302591   -6.4086621    21.577555  0.033926972  0.043746436            1 
   54000    1.2315587   -6.4562806    22.027773  0.033993476  0.043742163            2 
   55000    1.2383874   -6.4372414    22.492321  0.034079274  0.043724566            2 
   56000    1.2445855   -6.4474501    23.186807  0.034504177  0.043741023            2 
   57000     1.238803   -6.4249601    23.805953  0.034804024   0.04376381            1 
   58000     1.233772   -6.4212865    24.174886  0.034734031  0.043789738            1 
   59000    1.2503415   -6.4128294    24.583032  0.034721797  0.043782792            2 
   60000    1.2353339   -6.4073793    25.165074  0.034951491  0.043771272            1 
   61000    1.2183812   -6.4279194    25.624599  0.035006282  0.043758123            2 
   62000    1.2414898   -6.3812977    26.277623  0.035319385  0.043745684            1 
   63000    1.2159111   -6.3991949    26.900455  0.035582612  0.043745321            4 
   64000    1.2166723   -6.4120774    27.350782  0.035612998  0.043760797            3 
   65000    1.2459735   -6.4170021    27.977165   0.03586816  0.043779979            3 
   66000    1.2371254   -6.4340046    28.307057  0.035741234  0.043806426            2 
   67000    1.2134709   -6.4088453    28.933192  0.035986557  0.043813798            1 
   68000     1.263007   -6.4219521    29.384627  0.036010573  0.043819963            4 
   69000    1.2312205   -6.4439439    29.837078  0.036035118  0.043803449            1 
   70000    1.2298732   -6.4418793    30.305768  0.036078295  0.043779436            5 
   71000    1.1990194   -6.4534587     30.83509   0.03619142  0.043752386            3 
   72000    1.2236689   -6.3862181    31.520493  0.036482052  0.043745909            1 
   73000    1.2471398   -6.4247641    31.897482  0.036412651  0.043740095            3 
   74000    1.2280724   -6.4473161    32.229057  0.036293983  0.043705745            2 
   75000    1.2396498   -6.4616505    32.675722  0.036306357  0.043667125            1 
   76000     1.237645   -6.4909535    33.064861   0.03625533  0.043612879            1 
   77000     1.211502   -6.4599689    33.300661  0.036039676  0.043534859            5 
   78000    1.2348822   -6.4655919    33.675811   0.03597843  0.043443944            7 
   79000    1.2100216   -6.4600532    34.256477  0.036135524  0.043359298            2 
   80000    1.2188355   -6.4450163    34.628986   0.03607186   0.04327175            3 
   81000    1.2665146   -6.4322807    35.030097  0.036039194  0.043172439            1 
   82000    1.2391147   -6.4021968    35.539022  0.036116892  0.043079095            2 
   83000    1.2368051   -6.4573224     35.98582  0.036130342  0.042987774            2 
   84000    1.2044271   -6.4378892    36.594991  0.036304555  0.042906335            1 
   85000    1.2196489    -6.429843    36.952514  0.036227954  0.042827914            2 
   86000    1.2287769   -6.4424255    37.368365  0.036209656   0.04275517            2 
   87000    1.2242271   -6.4066954    37.794172  0.036201314  0.042677683            2 
   88000    1.2179965   -6.4162058     38.32623  0.036293778  0.042602007            1 
   89000    1.2068134   -6.4538467    38.757605  0.036289892    0.0425289            2 
   90000    1.2299082   -6.4552802    39.247122  0.036339928  0.042464251            2 
   91000    1.2502932   -6.4562141    39.752824  0.036403685  0.042398964            3 
   92000    1.2220102   -6.4526875      40.1397  0.036358424  0.042330313            1 
   93000    1.2085008   -6.4276781    40.445024  0.036241061  0.042263459            1 
   94000    1.2363941   -6.4559321    41.262751  0.036580453  0.042197587            2 
   95000    1.2229692   -6.4691047    41.690031  0.036570202  0.042133424            1 
   96000    1.2122844   -6.4729725    42.072115  0.036520933  0.042074677            3 
   97000    1.2187142   -6.4838706    42.483066  0.036497479  0.042019598            4 
   98000    1.2365964   -6.4442304    43.001067  0.036565533  0.041967923            2 
   99000    1.2023899   -6.4602612     43.57443  0.036678813  0.041919968            3 
  100000    1.2284476   -6.4326611    43.988049  0.036656707  0.041873936            2 
  101000    1.2349899   -6.4479644    44.505243  0.036720497  0.041826321            2 
  102000     1.212429    -6.472036    45.150341  0.036887533  0.041788214            1 
  103000    1.2184077   -6.4553491    45.628978  0.036916649  0.041754155            1 
  104000     1.202373   -6.4541762    46.152309  0.036981016  0.041722883            1 
  105000    1.1966467   -6.4887121    46.571567  0.036961561  0.041694768            1 
  106000    1.2264594   -6.4722249    47.150671  0.037068137  0.041667096            6 
  107000    1.2003898    -6.484833     47.62524  0.037091308  0.041641228            3 
  108000    1.1968654   -6.4427181    48.013417  0.037047389  0.041614891            1 
  109000    1.2208363   -6.5011877    48.717592  0.037245865  0.041588832            3 
  110000    1.2214254   -6.4627738    49.292323  0.037342669  0.041566142            3 
  111000    1.2131213   -6.4780938    49.447869  0.037123024  0.041543789            4 
  112000    1.2120266   -6.4489981    50.117173  0.037289563  0.041521721            1 
  113000    1.2144628   -6.4232983    50.436895   0.03719535  0.041497318            2 
  114000    1.2198639   -6.4583102    51.051236  0.037318155  0.041476119            2 
  115000    1.1931269   -6.4326959    51.366592  0.037222168   0.04145033            4 
  116000    1.2130654   -6.4372782    52.050936  0.037392914  0.041426432            2 
  117000    1.2109913   -6.4422992    52.326337   0.03726947  0.041398948            1 
  118000    1.1916909   -6.4407315     52.72315  0.037233863  0.041370641            1 
  119000    1.2030886   -6.5014207    53.136986  0.037210774  0.041340907            2 
  120000    1.2229862   -6.4594876    53.515721  0.037163695  0.041304183            3 
  121000    1.1896635   -6.4389054    54.192994  0.037322998   0.04127182            4 
  122000    1.2085415    -6.469202    54.345324  0.037121123  0.041239434            3 
  123000    1.2127639   -6.4435975     54.60723  0.036996768  0.041196155            2 
  124000    1.2259862   -6.4362054    55.145789  0.037060342  0.041153805            5 
  125000    1.2130541   -6.4277903    55.835463  0.037223642  0.041113068            4 
  126000    1.2005707   -6.4503075    56.400666  0.037302028  0.041082039            1 
  127000    1.2085998   -6.4627568    56.831752  0.037291175  0.041050274            2 
  128000    1.2160859   -6.4763618    57.028825  0.037128141  0.041020916            1 
  129000    1.1965662   -6.4867833     57.83949  0.037364012  0.040994907            5 
  130000    1.2034074   -6.4395105    58.416095  0.037446215  0.040968021            1 
  131000    1.2054041   -6.5066651    58.523811  0.037228887  0.040941486            1 
  132000    1.2014166   -6.4709813    59.041124  0.037273437  0.040909824            2 
  133000    1.2139642   -6.4523336    59.760728  0.037444065  0.040881766            2 
  134000    1.2224862   -6.4675258    60.265185  0.037478349  0.040855788            2 
  135000    1.1829771    -6.477988    60.212403   0.03716815  0.040829257            1 
  136000    1.2223193   -6.4808722    60.689809  0.037187383  0.040799696            6 
  137000    1.2013213   -6.4496967    60.942478  0.037069634  0.040766079            3 
  138000    1.2133306   -6.5121609     61.10087  0.036896661  0.040725162            2 
  139000    1.1975835   -6.4879275    61.923936  0.037124661  0.040683374            2 
  140000    1.2021442    -6.501067    62.347911  0.037111852  0.040649256            3 
  141000    1.2222024   -6.5113988    62.838786  0.037138762   0.04061659            4 
  142000    1.2082219   -6.4852791    63.581593  0.037313141  0.040588235            3 
  143000    1.1948697   -6.4864806     64.16402   0.03739162  0.040561732            2 
  144000    1.2111489   -6.5085558    64.164262  0.037132096  0.040530649            3 
  145000    1.2135051    -6.456639    64.721055  0.037196008  0.040500703            3 
  146000    1.1993402   -6.5218551    65.149028  0.037185518  0.040471048            1 
  147000    1.1944278   -6.4978413    65.709653   0.03725037  0.040441213            3 
  148000     1.182803   -6.4954982    65.814918  0.037057949  0.040412405            1 
  149000     1.178095   -6.4936438    66.451938  0.037165513  0.040382467            2 
  150000    1.1757671   -6.4908477    67.028719  0.037238177  0.040355304            1 
  151000    1.1993425   -6.4958388    67.260654  0.037119566  0.040327252            1 
  152000    1.1997894   -6.5152731    67.670817  0.037100228  0.040293088            2 
  153000    1.2242431   -6.4892151    68.235206  0.037165145  0.040262025            2 
  154000    1.2273685   -6.4881266    68.791779  0.037224989  0.040231979            2 
  155000    1.1956561   -6.5231265    69.196853  0.037202609   0.04020642            3 
  156000    1.1968474   -6.5092219    70.033693  0.037411161  0.040185597            2 
  157000    1.2115528    -6.513212    70.591684  0.037469047  0.040168373            1 
  158000    1.2083855   -6.4955595     71.06866   0.03748347  0.040152483            3 
  159000    1.1957736   -6.5238922    71.719152  0.037588654  0.040137932            1 
  160000     1.188801   -6.4773621    72.289612  0.037650839  0.040124948            3 
  161000     1.191088   -6.4514854    72.971714  0.037770038  0.040115476            4 
  162000    1.2228416   -6.4963767    73.311867  0.037711865  0.040107364            4 
  163000    1.2176291   -6.4727319    73.524704  0.037589317  0.040096424            3 
  164000    1.1846764   -6.5272883     73.72857  0.037463704  0.040084531            2 
  165000    1.1855084   -6.5244648    74.318447  0.037534569  0.040073393            5 
  166000    1.1922195   -6.4973269    74.974622  0.037637862  0.040061132            2 
  167000    1.2027602   -6.5137603    75.613574  0.037731324  0.040052264            2 
  168000      1.18614   -6.5558611    75.948708   0.03767297  0.040046888            1 
  169000    1.1910887   -6.4810715    76.961234  0.037949326  0.040042873            1 
  170000    1.1710071   -6.4878712    77.316715   0.03790035  0.040039552            2 
  171000    1.1858681   -6.5163081    77.388736  0.037713809     0.040036            1 
  172000    1.1711208   -6.4991919    78.127795  0.037852614  0.040033519            4 
  173000    1.2080752   -6.4961761    78.498811  0.037812529  0.040029024            2 
  174000    1.1590312   -6.5083821    79.201996   0.03793199  0.040023197            4 
  175000    1.1641314   -6.5181606    79.414762  0.037816553  0.040018773            2 
  176000    1.1841301   -6.4983695    80.089281  0.037921061  0.040014044            2 
  177000    1.1906372   -6.5070464    79.829425  0.037584475  0.040005426            2 
  178000    1.1655085   -6.5361532    79.951343  0.037430404  0.039989269            1 
  179000     1.209583   -6.5398211    80.557725  0.037503596  0.039970556            4 
  180000    1.1645889   -6.5126695    80.886659  0.037447527  0.039949684            1 
  181000    1.2004127   -6.5246667    81.195418  0.037382789  0.039929699            4 
  182000    1.1824336   -6.5150242     81.73175  0.037422963  0.039909809            6 
  183000     1.191959   -6.5158552    82.153309  0.037410432  0.039887807            2 
  184000    1.1598487   -6.5282318    82.492364  0.037360672  0.039864881            4 
  185000     1.200615   -6.5849788    82.561137  0.037189701  0.039841029            1 
  186000    1.1736164   -6.5206942    83.123526  0.037241723  0.039816649            2 
  187000    1.2071339   -6.4942134    83.599336  0.037254606  0.039792555            5 
  188000    1.1637926   -6.5288372    84.204323  0.037324611  0.039768918            2 
  189000    1.2108363   -6.5232247    84.848785  0.037411281  0.039747729            2 
  190000    1.1580293   -6.5163462    85.421045  0.037465371  0.039729487            4 
  191000    1.1800427   -6.5403439    85.801426  0.037435177  0.039713402            1 
  192000     1.201497   -6.4551396    86.779497  0.037664712  0.039698919            2 
  193000    1.2019683   -6.5103873    87.030669  0.037578009  0.039685016            1 
  194000      1.17596   -6.5331498      87.4857  0.037579768     0.039669            2 
  195000    1.2050653   -6.5257033    88.186062  0.037686351   0.03965452            1 
  196000    1.2110637   -6.5373531    88.348612  0.037563185  0.039641544            1 
  197000    1.1921896   -6.5372114    88.546527   0.03745623   0.03962869            4 
  198000    1.1843884   -6.5290502    89.467184  0.037654539  0.039617145            2 
  199000     1.191619   -6.5468223    90.067482  0.037716701  0.039604389            1 
  200000    1.1847633   -6.5148964    89.954471  0.037481029  0.039590776            4 
  201000    1.1949308   -6.5763148    90.586012  0.037556389  0.039578465            1 
  202000    1.1720257   -6.5325971    91.220784  0.037632337  0.039569092            2 
  203000    1.1752971   -6.5033952    91.739245  0.037659788   0.03956075            3 
  204000     1.199687   -6.5207658    92.298937  0.037703814  0.039551977            2 
  205000    1.1438262   -6.5528787      92.6608  0.037666992  0.039542004            2 
  206000    1.1592837   -6.5147838    93.191785  0.037698942  0.039533613            2 
  207000    1.1740069   -6.5702227    93.666893  0.037708089  0.039524232            2 
  208000    1.2016521    -6.525591    94.221037  0.037748813  0.039516753            2 
  209000    1.1934212   -6.5446287    94.585606  0.037713559  0.039507126            2 
  210000    1.1549655   -6.5365356    94.637101  0.037554405  0.039497009            3 
  211000    1.1683369   -6.5223191    94.871043  0.037468816  0.039485534            5 
  212000    1.1687959   -6.5720229    95.597752  0.037577733  0.039471987            3 
  213000    1.1510638   -6.4978509    96.136247   0.03761199  0.039456221            4 
  214000    1.1856786   -6.5326946    96.228519  0.037472164  0.039442198            3 
  215000    1.1890813   -6.5127916    96.611561  0.037446341  0.039427228            1 
  216000    1.1809034    -6.557747    96.702777   0.03730817  0.039410357            4 
  217000    1.1773614   -6.5303153    97.036856  0.037264537  0.039393866            3 
  218000    1.1578437   -6.5600134    98.004998  0.037463684  0.039377229            2 
  219000     1.148206   -6.5194829    98.220802  0.037374734  0.039360523            3 
  220000    1.1535839   -6.5811997    98.647555  0.037366498  0.039345247            2 
  221000     1.186525   -6.5495166    99.040774  0.037345691  0.039328891            2 
  222000     1.166033   -6.5287855    99.467819   0.03733777  0.039312192            1 
  223000    1.1867539   -6.5359321    100.08033  0.037399228  0.039296841            4 
  224000    1.1265358   -6.5515984    100.39918  0.037350886  0.039281078            3 
  225000    1.1926777   -6.5561791    101.00514  0.037409312  0.039266477            2 
  226000      1.12346   -6.5656725    101.44933  0.037407571   0.03925209            2 
  227000    1.1422705   -6.5342873    102.30325  0.037556258  0.039239319            3 
  228000    1.1556629   -6.5428073    102.60821  0.037503001  0.039229051            2 
  229000     1.148232   -6.5544515    103.24781  0.037571983  0.039220053            4 
  230000    1.1494857   -6.5332472    104.58719  0.037893909  0.039214032            1 
  231000    1.1758787   -6.5539266    104.55869  0.037719586  0.039206862            3 
  232000    1.1593521   -6.5250015    104.45108  0.037518347  0.039199544            2 
  233000    1.1710932    -6.546215    105.15908  0.037610542  0.039190266            2 
  234000    1.1788275   -6.5216482    105.86092  0.037699757  0.039182497            1 
  235000    1.1816954   -6.5892249     106.3813  0.037723866  0.039176542            2 
  236000     1.172049   -6.5851369    106.51103  0.037609826  0.039170205            4 
  237000    1.1510443   -6.5589925    107.18944  0.037689676  0.039163002            2 
  238000     1.142178   -6.5712282    107.88118  0.037773524  0.039157807            3 
  239000    1.1361587   -6.5768691    108.06099  0.037678169  0.039152934            3 
  240000     1.161954   -6.5632659     108.5026  0.037674515  0.039146766            5 
  241000    1.1378536   -6.5739584    109.08023  0.037717921  0.039141259            2 
  242000    1.1733061   -6.5477588    109.43084  0.037682795  0.039136243            2 
  243000    1.1427322   -6.5374117    109.91853  0.037694969  0.039129793            2 
  244000    1.1756186   -6.5284302    110.04511  0.037583711  0.039120566            2 
  245000    1.1654779   -6.5333656    110.35207  0.037534716  0.039111189            2 
  246000    1.1448405   -6.5628453    110.51561  0.037437539  0.039099788            3 
  247000    1.1435038   -6.5520336     111.1773  0.037509209  0.039088107            3 
  248000    1.1836396   -6.5838424    111.32335   0.03740704  0.039076932            2 
  249000    1.1521508   -6.5740754    112.02002  0.037489968   0.03906331            3 
  250000    1.1535215   -6.5571924    112.78734   0.03759578  0.039050891            5 
  251000    1.1341741   -6.5373482    113.15584   0.03756834  0.039040055            2 
  252000    1.1610854   -6.5713911    113.45053   0.03751671  0.039030086            3 
  253000    1.1461029    -6.566927    113.37504  0.037343556  0.039018184            4 
  254000    1.1506796   -6.5598543     114.0235  0.037409285   0.03900628            2 
  255000    1.1475134   -6.6116946     114.6001  0.037451014  0.038994354            3 
  256000    1.1547917   -6.5613485    115.47888  0.037590783  0.038984753            2 
  257000    1.1371769   -6.5701914    116.10254  0.037646739   0.03897768            2 
  258000    1.1366545    -6.551294    116.29795  0.037563938  0.038970881            3 
  259000    1.1477836   -6.5139128    116.97638  0.037637187  0.038963914            1 
  260000    1.1551043   -6.5757761    117.21005  0.037567323  0.038957417            3 
  261000    1.1520534   -6.5768702    117.93701  0.037655494  0.038949476            3 
  262000    1.1315186    -6.548351    118.10183  0.037564194  0.038939969            2 
  263000    1.1499173   -6.5528673    118.16739  0.037442139  0.038928118            2 
  264000    1.1556708   -6.5333804    118.41414    0.0373782  0.038914624            3 
  265000    1.1694724   -6.5875347    118.65464   0.03731278  0.038899828            3 
  266000    1.1494916   -6.5970691    118.42972  0.037102043  0.038884358            3 
  267000     1.166471   -6.5421844    119.44866  0.037281106  0.038868965            2 
  268000    1.1548604   -6.5815205    119.64421  0.037202801  0.038854156            4 
  269000    1.1396222   -6.5788033    119.93024  0.037153112  0.038838982            4 
  270000    1.1217087   -6.5747868    120.89276  0.037312579  0.038823885            4 
  271000    1.1277772   -6.5613176    121.10825  0.037241158  0.038809711            2 
  272000    1.1603207    -6.636398    121.66347  0.037274349  0.038796461            2 
  273000    1.1545544   -6.5815917    122.19414  0.037299797  0.038783549            3 
  274000    1.1630688   -6.5627126    122.62825  0.037295697  0.038771556            2 
  275000    1.1418672   -6.6196594    123.15353  0.037319251  0.038760077            1 
  276000    1.1313267   -6.5959428     123.7119  0.037352626  0.038747311            3 
  277000    1.1760518   -6.5849824    123.57145  0.037175526  0.038733611            4 
  278000    1.1837745   -6.5879814    124.07615   0.03719309  0.038719356            3 
  279000    1.1456011   -6.5656197    124.93877  0.037317435  0.038706725            2 
  280000    1.1497327   -6.6071419    125.57395  0.037373199  0.038694592            5 
  281000    1.1415759   -6.5722418    125.58671  0.037243982  0.038682573            2 
  282000    1.1447288   -6.6126551    126.33592  0.037333311  0.038671231            2 
  283000    1.1444513   -6.6003334    126.50621  0.037251535   0.03866016            2 
  284000    1.0979441   -6.5912269    127.58895  0.037438073  0.038649723            4 
  285000    1.1523997   -6.6089752    128.02867  0.037435283   0.03863996            2 
  286000    1.1359598   -6.6278094    128.24308  0.037366865   0.03863018            3 
  287000    1.1539301    -6.580126    128.95285  0.037442756  0.038622794            2 
  288000    1.1545255   -6.5854392     129.5487  0.037485157  0.038615907            3 
  289000    1.1316557   -6.5922428    130.11552  0.037518893  0.038609601            2 
  290000    1.1227865   -6.6265059    130.04014  0.037367855  0.038602486            4 
  291000    1.1199776   -6.6172763    130.23893   0.03729637  0.038594702            3 
  292000     1.113121   -6.6336645    130.72695   0.03730792  0.038584929            2 
  293000    1.1436384   -6.5660316    131.48072  0.037394973  0.038576164            3 
  294000    1.1269292   -6.6224561    132.08336  0.037438594  0.038566989            3 
  295000    1.1437634    -6.624828    131.91809  0.037264998  0.038557681            3 
  296000    1.1243853   -6.5782364    133.31532  0.037532467  0.038548675            2 
  297000    1.1303429    -6.586479    133.16211  0.037363106  0.038542254            2 
  298000    1.1354407   -6.5853349    133.38285  0.037299454  0.038533181            2 
  299000    1.1414139   -6.5632021    133.66681   0.03725385  0.038523975            2 
  300000    1.1338984   -6.6231278      133.741  0.037150279  0.038514065            3 
  301000    1.1274564   -6.6098883    134.35184   0.03719597  0.038500584            4 
  302000    1.1377715   -6.6077242    134.52588  0.037120828  0.038487698            2 
  303000    1.1216967    -6.584289    134.90783  0.037103363  0.038474653            3 
  304000    1.1605696   -6.6236675    135.60985  0.037173754  0.038461179            1 
  305000    1.1426558   -6.5999216    135.61932   0.03705446  0.038448556            2 
  306000    1.1288195   -6.6116428    135.89559  0.037008603  0.038433149            3 
  307000    1.1212133   -6.6498765    135.64575  0.036820236  0.038417225            2 
  308000    1.1523344   -6.6184164    137.15353  0.037108639  0.038401732            2 
  309000    1.1373729   -6.6162814    136.65451  0.036853967   0.03838624            2 
  310000    1.1235049   -6.6279182    136.91172  0.036804227  0.038368762            1 
  311000    1.1314024    -6.633782    137.42739  0.036824059   0.03835037            3 
  312000    1.1211863    -6.579987    137.04501  0.036603903  0.038332541            5 
  313000    1.1319316   -6.6236203    138.07922  0.036762306  0.038314468            4 
  314000    1.1237636   -6.6043531    138.41519  0.036734392  0.038296705            3 
  315000    1.0874515   -6.6344262    138.71065  0.036695938  0.038279397            2 
  316000    1.1117798   -6.6423763    139.13942  0.036692885  0.038260918            3 
  317000    1.1090918   -6.6262697    139.86483  0.036767831  0.038241663            4 
  318000    1.1180874   -6.6157896     139.6238  0.036589047  0.038223567            2 
  319000    1.1286967   -6.5955315    140.34737  0.036663366  0.038203811            3 
  320000    1.1219236   -6.6160934     140.7817  0.036661901  0.038185176            2 
  321000    1.1448004   -6.6142341    140.73546  0.036535686  0.038166825            3 
  322000    1.1316571   -6.6382586    141.07719  0.036510659  0.038146216            3 
  323000    1.1376908   -6.6455906    141.26487  0.036446046  0.038126141            1 
  324000    1.1238131   -6.5911253    141.97534  0.036516292   0.03810615            1 
  325000    1.0959634   -6.6361949    142.54304  0.036549498  0.038085893            3 
  326000    1.1150377   -6.6075827     142.9965  0.036553296  0.038065113            6 
  327000    1.1140844     -6.61254    143.22153  0.036498861  0.038045864            3 
  328000    1.1276171   -6.6077206    144.21382  0.036639691  0.038026656            3 
  329000    1.1231433   -6.6304793    144.23576   0.03653388  0.038008099            2 
  330000    1.1047652   -6.6239982    144.46828   0.03648189  0.037989674            3 
  331000    1.1288114   -6.6663979    144.88895   0.03647758  0.037970263            2 
  332000    1.1056603   -6.6186388    145.61582  0.036550156  0.037949734            3 
  333000    1.1160765   -6.5893116    145.51366  0.036414829  0.037929405            2 
  334000    1.1005501   -6.6460012    145.30927  0.036254808  0.037907882            2 
  335000    1.1368079   -6.6294663    145.52852  0.036201126   0.03788624            3 
  336000    1.1129099   -6.6104652    146.48859  0.036331495  0.037864952            2 
  337000      1.12252   -6.6460687     146.9371  0.036334594  0.037844243            2 
  338000    1.1396433   -6.6300528    147.18795  0.036288943  0.037823931            2 
  339000    1.1032764   -6.6781147    147.57536  0.036277128  0.037803091            1 
  340000    1.1178594   -6.6293437    147.80222  0.036226035  0.037781933            3 
  341000    1.0931225   -6.6246364    147.99229  0.036166248  0.037760906            2 
  342000    1.1118967   -6.6432777    148.70386  0.036233885  0.037739714            2 
  343000    1.1261979   -6.6373166    148.77024  0.036144373  0.037718144            3 
  344000    1.1275929   -6.6430493    149.62551   0.03624649   0.03769672            2 
  345000    1.1046134   -6.6262893     149.8277  0.036190266  0.037675422            2 
  346000    1.0984237   -6.6557241    149.69629  0.036054019   0.03765437            3 
  347000    1.1127768   -6.6135891    150.58281  0.036163019  0.037633119            3 
  348000    1.1091693   -6.6556409    150.67052  0.036080105  0.037611844            4 
  349000    1.1178586   -6.6155985    150.90151   0.03603188  0.037590287            2 
  350000    1.1099611   -6.6018815    152.27527  0.036256016  0.037570066            1 
  351000    1.1311271   -6.6199319    152.55983  0.036220282   0.03755054            2 
  352000    1.0934429   -6.6067874    152.78992  0.036171856  0.037531927            2 
  353000    1.1078455   -6.6501293     152.7009  0.036048371  0.037513258            4 
  354000    1.1191963   -6.6409057    153.49659  0.036133848  0.037493307            3 
  355000    1.0970762   -6.6011141    154.16869  0.036189832  0.037474053            1 
  356000    1.0995341   -6.6517423    154.14209  0.036081951  0.037454315            2 
  357000     1.122948   -6.6328061    154.22555  0.036000361  0.037434368            1 
  358000    1.0988577   -6.6391413     154.7238  0.036015782  0.037414174            3 
  359000    1.1223382   -6.6713337    154.63834  0.035895622  0.037392463            3 
  360000    1.1031327    -6.630208    154.99459  0.035878378  0.037371249            5 
  361000    1.1221818   -6.6366074    155.76238  0.035956227  0.037349493            4 
  362000    1.1217565   -6.6450133    155.58772  0.035816693  0.037327438            5 
  363000    1.0939094   -6.6544677    156.07864  0.035830725  0.037304977            2 
  364000    1.1099366    -6.652915    156.05808  0.035727582  0.037282364            2 
  365000    1.1173207   -6.6738566    156.45969   0.03572139  0.037260251            5 
  366000     1.101056   -6.6367314    157.16559  0.035784516  0.037238006            1 
  367000    1.1152637   -6.6492645    157.62757  0.035791909  0.037216543            4 
  368000    1.1181025   -6.6427075    157.24313  0.035607592  0.037193902            2 
  369000    1.0927429   -6.6590604    157.81202   0.03563957  0.037171103            2 
  370000    1.1098575   -6.6357442     158.0892  0.035605676  0.037147989            3 
  371000    1.1093194   -6.6436831    158.69213  0.035645133  0.037124098            2 
  372000    1.1165603    -6.655857    159.02298  0.035623427  0.037100465            3 
  373000    1.1093446   -6.6796819    159.08103  0.035540891  0.037077233            2 
  374000    1.1044932   -6.6757945    159.49358  0.035537786  0.037054092            3 
  375000    1.1009741   -6.6614336    159.29252  0.035398338  0.037029614            4 
  376000    1.0827614   -6.6477969     160.2971   0.03552684  0.037005477            5 
  377000    1.0895114   -6.6997525    160.00861  0.035368835  0.036980734            3 
  378000    1.1222556   -6.6832211    160.30213  0.035339976  0.036955797            4 
  379000    1.0946005   -6.6675566     161.3622  0.035479816  0.036931559            4 
  380000    1.0903948   -6.6838264    160.70755  0.035242884  0.036906735            1 
  381000    1.1074643   -6.6465562    161.63294  0.035352787  0.036882532            3 
  382000    1.1056457   -6.6687327    162.04239  0.035349561   0.03685742            3 
  383000    1.1195064   -6.6711035    162.47495  0.035351383  0.036833211            2 
  384000    1.0920284   -6.6444526    162.59237  0.035284803   0.03680889            3 
  385000    1.1144349   -6.6490095    162.45135   0.03516263  0.036784372            2 
  386000    1.0923353   -6.6693616    162.85135   0.03515789  0.036758127            4 
  387000    1.1013382   -6.6598089    162.97115  0.035092841   0.03673225            2 
  388000    1.1001249   -6.7155478    163.07198  0.035024052  0.036706351            5 
  389000    1.0899026   -6.6884182    164.09383  0.035152921  0.036680276            2 
  390000    1.0871396    -6.661579    164.00781  0.035044405   0.03665509            3 
  391000    1.1037658    -6.662554    164.80427  0.035124525  0.036629969            4 
  392000    1.0966025   -6.6731122    165.76038  0.035238177   0.03660536            3 
  393000    1.0989589   -6.6723574    165.59804  0.035114088  0.036581418            2 
  394000    1.0992058   -6.7231384    165.96556  0.035102699   0.03655664            1 
  395000    1.1139008   -6.6745536    166.28982   0.03508224  0.036532465            5 
  396000    1.0843718   -6.6700887    167.27379  0.035200714  0.036508558            3 
  397000    1.0944017   -6.6656088    166.79567  0.035011686  0.036485075            2 
  398000    1.0974215   -6.7014009    167.56182  0.035084134  0.036460436            3 
  399000    1.1038873   -6.6521809    167.36836  0.034955799  0.036436066            2 
  400000    1.0886709   -6.6919307     167.1262  0.034817958  0.036411886            2 
  401000    1.0865108   -6.7082708    167.31482  0.034770329  0.036386451            2 
  402000    1.1022014   -6.6671531     168.3526  0.034898964  0.036361159            2 
  403000    1.0964211   -6.6745805    168.86359  0.034918029  0.036336359            2 
  404000    1.0860162   -6.6746675    169.02282  0.034864443  0.036311149            1 
  405000    1.0964954   -6.6824246    169.45744  0.034867786  0.036286484            2 
  406000    1.0931117   -6.6807283    170.10061  0.034913917  0.036263238            3 
  407000    1.0781506   -6.6910043    170.28984   0.03486688  0.036240134            6 
  408000    1.0970365   -6.6926023    171.15287  0.034957695  0.036217338            5 
  409000    1.0690182   -6.6973792    171.70258  0.034984226  0.036195388            5 
  410000    1.1026524   -6.6978034    171.71847  0.034902129   0.03617368            8 
  411000    1.0924153    -6.705592    172.82024    0.0350406  0.036152825            1 
  412000    1.0679295   -6.6989874    172.50827  0.034892449  0.036131003            4 
  413000    1.0727676    -6.725927    172.64896  0.034836352  0.036109298            2 
  414000    1.0840257   -6.6966987    172.95283  0.034813371  0.036087993            3 
  415000    1.0941512    -6.684053     174.0376   0.03494731  0.036066671            2 
  416000    1.0721658   -6.7115438    174.01312  0.034858398  0.036045366            3 
  417000    1.0831419    -6.722566    174.11965  0.034796093  0.036023448            2 
  418000    1.0743111   -6.6645762    174.59241    0.0348071  0.036001408            2 
  419000    1.0863022    -6.681188    175.78155  0.034960531   0.03598101            3 
  420000    1.0765468   -6.6760729    175.47462  0.034816394  0.035960522            2 
  421000    1.0815518   -6.7262127    175.76195  0.034790567  0.035940098            5 
  422000    1.0861279   -6.7132715    176.22226  0.034799024  0.035919869            2 
  423000    1.0804488   -6.6961615    176.23778  0.034719815  0.035899278            2 
  424000    1.0976105   -6.7103607    177.21142  0.034829288  0.035878537            2 
  425000    1.0775333   -6.6818007    177.39897  0.034784112  0.035858443            2 
  426000    1.0616684   -6.6983401    177.54629  0.034731278  0.035838631            2 
  427000    1.1064854   -6.7125496    178.00384  0.034739235  0.035818533            2 
  428000    1.0873578   -6.7379989    178.14174  0.034684918  0.035798767            2 
  429000    1.0810664   -6.6835042    178.99385   0.03476959  0.035779025            3 
  430000    1.0913791   -6.6994763    179.32929  0.034753739  0.035759893            5 
  431000    1.0887997   -6.7168312    179.33472  0.034674153  0.035739667            5 
  432000    1.1107968   -6.7129161    179.63987  0.034652752  0.035719463            3 
  433000    1.0606231    -6.696606    179.90317  0.034623396  0.035699807            3 
  434000    1.0887852    -6.681959     180.4121   0.03464134  0.035679687            3 
  435000    1.0979609   -6.6994563    181.17576  0.034708001  0.035659971            4 
  436000    1.0864835   -6.7187373    182.25577  0.034834818  0.035641111            3 
  437000    1.0767342   -6.7335424    181.83551  0.034674963  0.035622925            3 
  438000    1.0834836   -6.7150855    182.05582  0.034637713  0.035604113            2 
  439000    1.0948586   -6.7353472     182.5761  0.034657573  0.035585569            2 
  440000    1.0894773   -6.7136645    183.45474  0.034745216  0.035567563            1 
  441000    1.0909466   -6.7087178    183.48051  0.034671299  0.035550504            8 
  442000    1.0598164   -6.7449397    183.48811   0.03459429  0.035533118            5 
  443000    1.0818746   -6.7172994    184.30173   0.03466925  0.035515569            2 
  444000    1.0799217   -6.6957597    184.63796  0.034654272   0.03549745            5 
  445000    1.0782548   -6.7111253    184.50473  0.034551448  0.035479833            4 
  446000    1.0770554   -6.7739478    184.79995  0.034529139  0.035462124            6 
  447000    1.0828992   -6.7414946    185.24375  0.034534628   0.03544382            1 
  448000    1.0898437   -6.7178464    185.47054  0.034499728  0.035425483            2 
  449000    1.0969658   -6.7484578    185.76023  0.034476658  0.035406508            4 
  450000    1.0816663   -6.7241846    185.95686  0.034436455  0.035387732            3 
  451000    1.0919582    -6.742198    186.02927   0.03437348  0.035369095            2 
  452000    1.0844454   -6.7401026    187.00545  0.034477407  0.035350209            5 
  453000    1.0584847   -6.6717218    187.88999  0.034564015  0.035332609            6 
  454000    1.0739712   -6.7434808    187.68381  0.034450038  0.035315134            2 
  455000    1.0521586   -6.7119265    188.46567  0.034517521    0.0352985            1 
  456000    1.0761902   -6.7239191    189.10267  0.034558236  0.035281686            2 
  457000    1.0676713   -6.7597838    188.68349  0.034406181  0.035264131            5 
  458000    1.0804822   -6.7614083    188.85659  0.034362553  0.035246523            7 
  459000    1.0835329   -6.6861581    189.50695  0.034405764  0.035228563            5 
  460000    1.0643723   -6.7999877    189.74899  0.034374817  0.035211069            3 
  461000    1.0860675   -6.7009996    190.47571  0.034431617  0.035193668            3 
  462000    1.0601971   -6.7164015    190.68517  0.034394872  0.035176592            2 
  463000    1.0676347   -6.7168932    190.52824  0.034292339  0.035159029            1 
  464000    1.0832733   -6.7376725    190.29791  0.034177068  0.035140116            4 
  465000     1.082369   -6.6830377    190.62614  0.034162391  0.035121375            3 
  466000    1.0702588    -6.709203    190.99131  0.034154383  0.035102504            1 
  467000    1.1058934   -6.7325063    191.55978  0.034182687   0.03508343            2 
  468000    1.0651986   -6.7486898    190.86143  0.033985298  0.035063816            4 
  469000    1.0714284   -6.7600999    192.04436   0.03412302  0.035044115            2 
  470000    1.0515902   -6.7328604    192.71854  0.034169954  0.035025379            3 
  471000     1.045228   -6.7196269     194.0928  0.034340553  0.035007867            2 
  472000    1.0701724   -6.7349574    193.40279  0.034145972  0.034990591            5 
  473000    1.0636522   -6.7388661    193.78912  0.034141846  0.034973243            2 
  474000    1.0491818   -6.7407613     195.3217  0.034339258  0.034956683            3 
  475000    1.0710135     -6.75674    194.55075   0.03413171  0.034939616            2 
  476000    1.0784523   -6.7057207    195.42163   0.03421247  0.034922958            4 
  477000    1.0770392   -6.7625923    196.43999  0.034318656  0.034906807            1 
  478000     1.045313   -6.7481951    196.15405   0.03419701  0.034890734            1 
  479000     1.049767   -6.7640605    195.87791  0.034077576  0.034873741            3 
  480000    1.0578618   -6.7450535    196.86059  0.034177186  0.034856215            6 
  481000    1.0625309   -6.7440852    197.16559  0.034158973  0.034838872            3 
  482000    1.0696235   -6.7112901    197.19794  0.034093697  0.034822457            4 
  483000    1.0412097   -6.7335506    197.42928  0.034063023   0.03480595            1 
  484000    1.0569288   -6.7563465    197.66312  0.034032906  0.034789106            3 
  485000    1.0463982   -6.7456638    198.13195  0.034043291  0.034772499            2 
  486000    1.0395869   -6.7334506    199.33026  0.034178714  0.034756137            3 
  487000    1.0648367   -6.7413134    198.61905  0.033986833  0.034739566            2 
  488000     1.066081   -6.7418437    199.34349  0.034040896  0.034722858            5 
  489000    1.0359934   -6.7691446    199.26122  0.033957263  0.034706455            4 
  490000    1.0567463   -6.7811131    199.97046  0.034008581  0.034689277            3 
  491000    1.0752644   -6.7937003     199.8289  0.033915292   0.03467228            3 
  492000    1.0491575   -6.7534905    200.64212  0.033984099  0.034655725            2 
  493000    1.0564551   -6.7421101    200.11241  0.033825628   0.03463848            3 
  494000    1.0461103   -6.7727098    200.93652  0.033896174  0.034622082            5 
  495000     1.078883    -6.766359    201.68329  0.033953415  0.034604653            3 
  496000    1.0661668   -6.7407505    201.78875  0.033902679  0.034587938            2 
  497000    1.0634198   -6.7377016    202.63681  0.033976661  0.034571246            2 
  498000    1.0564338   -6.7773712    201.60339  0.033735507  0.034554174            3 
  499000     1.079357   -6.7548861    201.96216  0.033727816  0.034535625            5 
  500000    1.0638755    -6.748785     202.6198  0.033769966  0.034517291            3 
  501000    1.0536713   -6.7587773    203.16563  0.033793351  0.034499394            4 
  502000     1.055278   -6.7584408    203.41927  0.033768139  0.034482023            4 
  503000    1.0624396   -6.7884036    203.53623  0.033720382  0.034464851            8 
  504000    1.0328342   -6.7598036    203.30666  0.033615519  0.034446687            3 
  505000    1.0613905    -6.758751    204.85518  0.033804484  0.034429074            3 
  506000     1.061021   -6.7386585    204.99302  0.033760378  0.034412069            3 
  507000    1.0735452   -6.7706926    205.06522  0.033705658  0.034394867            6 
  508000    1.0435172   -6.7582611     205.4717  0.033705988  0.034377707            3 
  509000    1.0528008   -6.7793745    205.71945  0.033680329   0.03436028            2 
  510000    1.0660877   -6.7853576    206.40215  0.033725841  0.034343242            3 
  511000    1.0607788   -6.7433605     206.0376  0.033600392  0.034326204            2 
  512000     1.043263   -6.7251576    206.74997  0.033650711  0.034308818            3 
  513000    1.0578634   -6.7824929    206.41853  0.033531275    0.0342915            3 
  514000    1.0542444   -6.7958734    207.20278  0.033593187  0.034273959            3 
  515000    1.0431158   -6.7436088    208.04541  0.033664306  0.034256764            2 
  516000    1.0461637   -6.7846904    207.43648  0.033500724   0.03423905            2 
  517000    1.0450448   -6.7968334    207.28216  0.033411051  0.034220533            2 
  518000    1.0672302   -6.7993413     207.1598  0.033326866  0.034202155            3 
  519000    1.0330474   -6.7575078    208.30415  0.033446396  0.034183512            3 
  520000    1.0491661   -6.8015684    208.34122  0.033388015  0.034165545            3 
  521000    1.0521833   -6.7562484    208.96197  0.033423219  0.034147307            4 
  522000    1.0349914    -6.749593    209.11686  0.033383917  0.034129565            2 
  523000    1.0298046   -6.7643813    208.65614  0.033246676  0.034111654            2 
  524000    1.0458453   -6.7932177    210.08635   0.03341068  0.034093744            3 
  525000    1.0486527   -6.8077642    210.22998  0.033369839  0.034075729            5 
  526000    1.0484657   -6.7746472    210.95741  0.033421642  0.034058093            3 
  527000    1.0512132   -6.7797174    210.60154  0.033301951  0.034040832            4 
  528000    1.0414677   -6.8009304    211.21753    0.0333361  0.034023549            4 
  529000    1.0449587   -6.7473555    211.59474  0.033332505  0.034006305            4 
  530000    1.0297192    -6.784925    212.37912  0.033392944  0.033989048            6 
  531000    1.0501505    -6.815792    212.26747  0.033312535  0.033971705            4 
  532000    1.0574084   -6.7751129     213.3616  0.033421304  0.033954656            3 
  533000    1.0358437   -6.7712131    213.05058  0.033309971  0.033937648            4 
  534000    1.0368077   -6.7659515    213.23652  0.033276611  0.033919862            5 
  535000    1.0563901    -6.760482    213.74713  0.033293945   0.03390261            3 
  536000     1.051398   -6.7791082    214.20311  0.033302723  0.033885609            3 
  537000    1.0465031    -6.792066    213.93534  0.033199153  0.033868934            2 
  538000    1.0464462   -6.7399737    215.28864  0.033347063  0.033851994            3 
  539000    1.0417333   -6.7600952    215.44873  0.033309946  0.033835794            3 
  540000    1.0379309   -6.7997128      215.474  0.033252161  0.033819374            3 
  541000    1.0484809   -6.8154213    215.73577  0.033231018  0.033802649            3 
  542000    1.0287667   -6.7815025    215.69292  0.033163118  0.033786094            5 
  543000     1.023513   -6.7685364     216.5901  0.033239733   0.03376947            1 
  544000    1.0287266   -6.8235188    216.38883  0.033147799  0.033752425            1 
  545000    1.0334911   -6.7894022    216.53809    0.0331098  0.033735207            5 
  546000    1.0213706    -6.806947     216.3388  0.033018743  0.033717576            5 
  547000    1.0728731   -6.7886481    216.98852  0.033057361  0.033699929            2 
  548000    1.0327708   -6.8061668    217.09706  0.033013543  0.033682514            2 
  549000    1.0212749   -6.7910745    217.50816   0.03301581  0.033664903            2 
  550000    1.0354557   -6.7653725    217.96461  0.033024941  0.033647365            3 
  551000    1.0203388   -6.8055979    218.31767  0.033018401  0.033629961            3 
  552000    1.0316869   -6.8225975    218.95686  0.033055081  0.033612876            2 
  553000    1.0271513   -6.8017632    218.18352   0.03287877  0.033595292            2 
  554000    1.0505503   -6.8082539     218.9828  0.032939652  0.033577684            3 
  555000    1.0289376   -6.8161379    219.21502  0.032915168  0.033560421            6 
  556000    1.0486211   -6.7988946    220.34437  0.033025235   0.03354388            6 
  557000    1.0530469   -6.8111374    220.13642  0.032934832  0.033527277            2 
  558000    1.0134631     -6.80146    220.97979   0.03300176  0.033510811            3 
  559000    1.0498226    -6.806598    221.31653  0.032992923  0.033494816            3 
  560000    1.0211278   -6.8230164    220.95326   0.03287995  0.033478371            3 
  561000    1.0469809   -6.7536309    222.03548  0.032982098  0.033462024            2 
  562000    1.0094141   -6.8374535    221.91424  0.032905434  0.033444973            3 
  563000    1.0340571   -6.8137016    222.50567  0.032934528  0.033428215            2 
  564000    1.0339478   -6.8084961    222.37002  0.032856091  0.033412035            2 
  565000    1.0184471   -6.7898657    223.31727   0.03293765  0.033396134            3 
  566000    1.0331852   -6.7731965    223.73958  0.032941635  0.033380775            4 
  567000    1.0313319   -6.8071898    223.99148  0.032920559  0.033365317            3 
  568000    1.0237331   -6.8091385     224.7366  0.032971918   0.03335013            2 
  569000    1.0207598   -6.8427043    224.55703  0.032887673  0.033334751            2 
  570000    1.0147413   -6.8534004    223.87889  0.032730831  0.033319021            2 
  571000    1.0201915   -6.7973408    225.46246  0.032904621  0.033303058            2 
  572000    1.0275917   -6.8048533     224.8067  0.032751559  0.033287311            6 
  573000    1.0433691   -6.7892704     225.5417  0.032801294  0.033271433            3 
  574000    1.0336568   -6.7931066    225.72377  0.032770582  0.033255301            3 
  575000    1.0169075   -6.7929804    226.64147   0.03284659  0.033239754            5 
  576000    1.0106426   -6.7692091    226.34113  0.032746113  0.033223812            2 
  577000    1.0150078   -6.8568532    226.79545  0.032754976  0.033207609            3 
  578000    1.0297542   -6.8189886    226.31183   0.03262858   0.03319112            3 
  579000    1.0262238   -6.8005656    227.06447  0.032680551  0.033174362            3 
  580000    1.0300178   -6.7786994    227.67698  0.032712209  0.033157747            7 
  581000    1.0175395   -6.8209536    226.65553  0.032509399  0.033140861            3 
  582000    1.0290303   -6.8310923    227.64865  0.032595741  0.033123777            2 
  583000    1.0273937   -6.8361218    228.07342  0.032600546  0.033107034            2 
  584000    1.0045807   -6.8381782    227.87996  0.032517118  0.033090478            2 
  585000    1.0278361   -6.8334502    228.31588   0.03252363  0.033073728            2 
  586000    1.0012414   -6.8078102    228.97925  0.032562464  0.033057238            3 
  587000    1.0422256   -6.7752761    229.33529  0.032557536  0.033041504            1 
  588000     1.026243   -6.8334695     229.6172   0.03254212  0.033025096            1 
  589000    1.0066694    -6.846617    229.94796  0.032533668  0.033008401            6 
  590000    1.0150168   -6.8102164    230.15757  0.032508131  0.032991501            5 
  591000    1.0283201   -6.8206059    230.35203  0.032480546  0.032974617            2 
  592000    1.0034456   -6.8711209    230.07889  0.032387232   0.03295792            4 
  593000    1.0324222   -6.8583162    230.94896  0.032454884  0.032941205            8 
  594000    1.0150905   -6.8507624    230.88954  0.032391911  0.032924251            3 
  595000    1.0195186   -6.8150114    231.01047  0.032354407  0.032907734            2 
  596000    1.0228276   -6.8663805    231.45587  0.032362397  0.032891181            3 
  597000   0.99766028   -6.8491172     231.6221  0.032331393  0.032874404            4 
  598000       1.0312    -6.845864    231.39438  0.032245594  0.032857046            1 
  599000    1.0216182   -6.8216316    231.88636  0.032260205  0.032840015            3 
  600000     1.018722   -6.8159491    231.55853  0.032160907  0.032822578            4 
  601000    1.0027288   -6.8374343    232.77306  0.032275799   0.03280461            2 
  602000    1.0056354   -6.8657258     231.9228  0.032104485  0.032787085            4 
  603000    1.0177054   -6.7982693     233.0872  0.032212161  0.032769819            3 
  604000    1.0017711   -6.8127182    233.49909  0.032215658  0.032752508            2 
  605000    1.0348155    -6.853058    233.30168  0.032135218  0.032735008            2 
  606000    1.0127837   -6.8400138     233.4329  0.032100234  0.032717245            2 
  607000    1.0246327   -6.8673965    233.32006  0.032031858  0.032699609            3 
  608000   0.99252386   -6.8450448    233.93484  0.032063437  0.032681709            2 
  609000   0.98865627    -6.867012    234.50403  0.032088674   0.03266381            4 
  610000   0.99758992   -6.8336622    234.18824  0.031992929  0.032646001            5 
  611000    1.0358611   -6.8437169    234.58625  0.031994852  0.032627937            4 
  612000    1.0106424   -6.8325094    234.60553  0.031945198  0.032609207            4 
  613000   0.98945723   -6.8320204    234.63481  0.031897065  0.032590256            3 
  614000   0.99325888   -6.8909289    234.12352  0.031775722  0.032571367            5 
  615000    1.0297365   -6.8613277    234.74919  0.031808833  0.032552416            3 
  616000     1.011374   -6.8563848    235.33787  0.031836833  0.032532902            2 
  617000     1.024756   -6.8455513    235.43237  0.031797997  0.032513586            3 
  618000    1.0098162   -6.8376902     235.3048  0.031729343  0.032494394            2 
  619000    1.0170982   -6.8374962    236.15394    0.0317924   0.03247496            3 
  620000   0.98786366    -6.819268     236.3332  0.031765215  0.032455532            3 
  621000     1.021869   -6.8656563      235.751  0.031635936  0.032436221            3 
  622000    1.0101017   -6.8640674     236.2451  0.031651273  0.032416667            4 
  623000    1.0197391   -6.8607203    236.51677  0.031636807  0.032396781            4 
  624000    1.0154089   -6.8554325    237.07949  0.031661256  0.032376786            2 
  625000    1.0069216   -6.8693199    237.08858   0.03161181   0.03235704            4 
  626000    1.0085197    -6.827905    237.73585  0.031647477  0.032337387            4 
  627000    1.0060176   -6.8880559    238.04181  0.031637667  0.032318316            5 
  628000    1.0133343   -6.8742249    237.28693  0.031487119  0.032299312            4 
  629000   0.99747886   -6.8638291    237.98947  0.031530137  0.032279735            3 
  630000   0.98799728   -6.8719969    238.18465  0.031505906  0.032260465            2 
  631000   0.98751639   -6.8474102    239.00511   0.03156433  0.032241611            5 
  632000    1.0178352   -6.8540752    239.14445   0.03153276  0.032222527            3 
  633000   0.99966524   -6.8902073    238.95965  0.031458616  0.032203395            6 
  634000    1.0083804   -6.8896566     239.8616  0.031527549  0.032183997            5 
  635000   0.99279879   -6.8205025    240.01114  0.031497524  0.032164682            3 
  636000    1.0233539   -6.8900342    238.92839   0.03130613  0.032145458            5 
  637000    1.0006185   -6.9313941     239.9506  0.031390712  0.032125861            1 
  638000    1.0149461   -6.8801268    240.10798  0.031362066  0.032106988            2 
  639000   0.99859169   -6.8722881    240.68617  0.031388389  0.032087844            3 
  640000    0.9982395   -6.8609828    241.06814   0.03138908  0.032069179            3 
  641000   0.99573146   -6.8476333    241.66637  0.031417885  0.032050437            5 
  642000   0.99388709   -6.8692479    242.43917  0.031469258  0.032031935            4 
  643000    0.9931857   -6.8476442    241.98248  0.031361131  0.032013226            4 
  644000   0.99098717   -6.8610008    242.42546  0.031369754   0.03199454            5 
  645000    1.0241104   -6.8941395    242.31856  0.031307307  0.031975955            3 
  646000   0.97686026   -6.8675389     243.0534  0.031353637  0.031957354            4 
  647000   0.99737243   -6.8446178    242.97795   0.03129546   0.03193896            2 
  648000   0.99015834   -6.8640731    243.67134  0.031336335  0.031920524            5 
  649000   0.97691731   -6.9332385    243.32194  0.031243187  0.031901946            3 
  650000   0.97098565   -6.8497077    243.89397  0.031268458  0.031883176            3 
  651000    1.0102443   -6.8950253    243.66762  0.031191451  0.031864685            3 
  652000   0.97031539   -6.8902952    244.28384  0.031222373  0.031846145            4 
  653000   0.99842654   -6.9166993    244.48321  0.031200002   0.03182765            2 
  654000    1.0020399   -6.8658942    244.85932  0.031200219  0.031808666            3 
  655000     1.005231   -6.8960101    244.94479  0.031163459  0.031790081            4 
  656000   0.97237266   -6.8919599    245.22865  0.031152014   0.03177174            2 
  657000     0.995287   -6.9044737    245.35005  0.031119996  0.031753217            3 
  658000   0.98399638   -6.8818403    246.42378  0.031208686  0.031735104            4 
  659000   0.99461533   -6.8768337    246.66633     0.031192  0.031716956            3 
  660000    1.0022577   -6.8825311    246.46418  0.031119214  0.031698783            2 
  661000    1.0055798   -6.8879481    247.25757   0.03117216  0.031680548            2 
  662000   0.96687083   -6.8994793    247.48791  0.031154067   0.03166207            3 
  663000   0.97245848   -6.9264767    246.79346  0.031019791  0.031643528            6 
  664000    0.9805453   -6.8850665    247.89129  0.031110855  0.031624886            3 
  665000   0.99496624   -6.9008376    247.85904   0.03106003  0.031606431            1 
  666000    1.0130302   -6.8639102    248.41073  0.031082424  0.031587953            3 
  667000   0.99090054   -6.9064722    248.84802  0.031090457  0.031569919            6 
  668000   0.99208111   -6.9053658    248.17459  0.030959904  0.031551797            2 
  669000   0.99506636   -6.8834533    249.23601  0.031045841  0.031533811            2 
  670000   0.96433957   -6.8900846    249.04909  0.030976255  0.031515603            4 
  671000   0.97406645   -6.8778223    248.91776   0.03091378  0.031497123            4 
  672000    0.9938859   -6.8602652    249.18069  0.030900383  0.031478603            3 
  673000    1.0018614   -6.9231594    249.42538  0.030884768  0.031460356            5 
  674000   0.98615053   -6.9123625    250.56865  0.030980298  0.031442131            4 
  675000   0.97041537   -6.9103882    250.86417  0.030970886  0.031424036            3 
  676000   0.97697566   -6.9227789     250.3053  0.030856176  0.031406101            2 
  677000   0.99726028   -6.8999955    251.22376  0.030923654  0.031388304            3 
  678000   0.98110133   -6.9469992     250.1717  0.030748734  0.031370356            3 
  679000   0.97438224   -6.9161385    251.43736  0.030858782  0.031352243            2 
  680000   0.96260225   -6.9194436    250.82444  0.030738289  0.031334001            3 
  681000   0.99400378   -6.8997178    251.86475  0.030820454  0.031315747            3 
  682000   0.98219234   -6.8881312     252.2618  0.030823779  0.031297519            2 
  683000   0.96677752   -6.8776265    252.49824  0.030807497  0.031279167            2 
  684000   0.98148309   -6.8714561    252.37037  0.030746878   0.03126109           19 
  685000   0.98162878   -6.8718088    253.20463  0.030803483  0.031242951            3 
  686000   0.99182054     -6.92392    252.98752  0.030732206  0.031225032            3 
  687000   0.98400715   -6.9114474     252.6303  0.030644141   0.03120717            3 
  688000   0.96806517   -6.9252677     253.0393   0.03064914  0.031188904            2 
  689000   0.96997518   -6.9396693    252.66392  0.030559255  0.031170469            2 
  690000   0.97613976   -6.9250134    253.18664  0.030578097  0.031152239            4 
  691000   0.95810433   -6.9320603    253.53017  0.030575273  0.031133788            5 
  692000   0.97947956   -6.9365986    252.87906  0.030452681  0.031115156            3 
  693000   0.98525966   -6.9162169    254.07325  0.030552339  0.031096821            4 
  694000   0.96028843   -6.9290816    254.48931  0.030558274  0.031078566            3 
  695000   0.97369649   -6.9455356    254.17014  0.030476036  0.031060187            3 
  696000   0.98376995   -6.9468949    254.03963  0.030416622  0.031041443            3 
  697000   0.96548991   -6.9434097    254.59598    0.0304395  0.031022565            5 
  698000     0.975929   -6.9694361    254.35638  0.030367285   0.03100376            2 
  699000   0.97099252   -6.9094016    255.74649  0.030489567  0.030985054            2 
  700000   0.99466007   -6.9329262    255.09557   0.03036852  0.030966542            4 
  701000   0.96534448   -6.9090756     255.6802  0.030394698  0.030947878            2 
  702000    0.9854071   -6.9223558    256.30506  0.030425577  0.030929147            3 
  703000   0.97393483   -6.8934115    256.86361  0.030448508  0.030910413            3 
  704000    0.9573331   -6.9466587    256.22433  0.030329585  0.030891797            2 
  705000    0.9574725   -6.9049499    256.57632  0.030328171  0.030873476            3 
  706000   0.93498113   -6.9215223     257.2464  0.030364306  0.030855327            3 
  707000   0.94592011   -6.8975008    256.95135   0.03028658   0.03083706            3 
  708000   0.96067137   -6.8835415    258.22068  0.030393206   0.03081911            3 
  709000   0.95927721   -6.9291728    257.78167  0.030298739  0.030800957            3 
  710000   0.96854447   -6.9291008    257.54095  0.030227811  0.030782722            3 
  711000   0.97071407   -6.9091523    258.04273  0.030244108   0.03076447            2 
  712000   0.97708586     -6.91099     258.0304  0.030200187  0.030746134            6 
  713000    0.9760211   -6.9198558     258.4832  0.030210752  0.030727779            6 
  714000   0.95740818    -6.923457    259.13865  0.030244941  0.030709313            2 
  715000   0.98152935   -6.9114055    258.90797  0.030175755  0.030691029            3 
  716000   0.94956306   -6.9088748    259.45348  0.030197099  0.030672872            6 
  717000   0.96336597   -6.9455037    260.20957   0.03024286  0.030654984            4 
  718000   0.97852028   -6.9381709    259.34797   0.03010074  0.030636673            9 
  719000   0.95811644    -6.955015    260.05656  0.030141001  0.030618389            4 
  720000   0.98053509   -6.9410285    260.66314  0.030169345  0.030600312            2 
  721000   0.95284945   -6.9248987     259.8708  0.030035923  0.030582396            3 
  722000   0.94906719   -6.9138325    260.45628  0.030061898   0.03056452            9 
  723000   0.96342468    -6.948593     261.4155  0.030130878  0.030546578            5 
  724000   0.98365101   -6.9118633    261.82651  0.030136569   0.03052898            5 
  725000   0.95586817    -6.970068    261.56248  0.030064653  0.030511198            4 
  726000   0.95895399   -6.9152344    261.79274  0.030049672  0.030493652            2 
  727000   0.96884638   -6.9329717    261.76338  0.030004972   0.03047602            4 
  728000   0.93995906   -6.9355151     262.2347  0.030017709  0.030458182            2 
  729000    0.9632624   -6.9386555     262.6009  0.030018393  0.030440409            3 
  730000   0.95722578   -6.9651549    262.80475  0.030000542   0.03042275            6 
  731000   0.94836329   -6.9545294    263.20003  0.030004563  0.030405081            3 
  732000   0.97005231   -6.9376619    262.99303  0.029940008   0.03038726            5 
  733000   0.94242799   -6.9416486    264.79429  0.030103943  0.030369698            2 
  734000   0.98049519   -6.9359331    263.53884  0.029920395  0.030352349            3 
  735000   0.96424844   -6.9766191    263.89162  0.029919685  0.030334949            5 
  736000   0.97091305   -6.9411307    265.05065  0.030010264  0.030317714            4 
  737000   0.93838357   -6.9450706    264.57168  0.029915387  0.030300658            3 
  738000   0.96774284   -6.9329924    264.56243  0.029873806  0.030283804            5 
  739000   0.97122836   -6.8995155    265.49831  0.029938916  0.030266695            3 
  740000   0.94949052    -6.927863    265.07871  0.029851207  0.030249649            5 
  741000   0.96444495   -6.9215243     265.4132  0.029848538   0.03023247            5 
  742000   0.96951611   -6.9484172    265.95583  0.029869253  0.030215224            6 
  743000   0.96804918   -6.9600331    265.95838  0.029829338  0.030197904            4 
  744000   0.99330164   -6.9526584     266.0126  0.029795318  0.030180671            5 
  745000   0.96887473   -6.9753886     266.1771  0.029773725  0.030163365            4 
  746000   0.95400425   -6.9233809    266.07798  0.029722741  0.030145647            5 
  747000   0.96697844   -6.9689482    266.22997  0.029699907  0.030127913            2 
  748000   0.95544005    -6.980263     266.4545  0.029685216  0.030110358            3 
  749000    0.9794352   -6.9280697    267.64983  0.029778575  0.030092732            2 
  750000   0.94144746   -6.9784598    266.62992  0.029625546  0.030075065            3 
  751000   0.94744287   -6.9506166    267.12614  0.029641161  0.030057395            5 
  752000   0.94591933   -6.9263417    267.41389  0.029633632  0.030039867            5 
  753000   0.97287631    -6.933162     268.7508  0.029742231   0.03002251            4 
  754000    0.9531511   -6.9353611    268.18064   0.02963977  0.030005146            5 
  755000   0.96880927   -6.9431515    269.18347  0.029711199  0.029987921            3 
  756000   0.96469012   -6.9880256    268.47937  0.029594287  0.029970921            2 
  757000   0.94810338   -6.9880101    268.87583  0.029598837  0.029953823            6 
  758000   0.95709935   -6.9946355    269.07659  0.029581859  0.029936786            4 
  759000   0.97369905   -6.9816448    269.66211  0.029607171  0.029919488            4 
  760000   0.93912933   -6.9921766    270.15704  0.029622483   0.02990229            2 
  761000   0.95047482   -6.9863274    269.99649  0.029565976  0.029884863            4 
  762000   0.92976776   -6.9795881    270.52113   0.02958455   0.02986765            3 
  763000   0.95299437   -6.9607626    269.46842  0.029430802  0.029850339            6 
  764000    0.9481956   -6.9899484    269.80622  0.029429125  0.029832859            2 
  765000   0.96634156   -7.0126237    270.25032  0.029439033  0.029815014            2 
  766000   0.93816927   -6.9860025    269.85527  0.029357623  0.029797147            4 
  767000   0.93413454    -6.991715    269.57408  0.029288796  0.029779476            3 
  768000   0.94207182   -7.0020998    270.57873  0.029359672  0.029761722            2 
  769000   0.91261023   -6.9524622    271.05108  0.029372678  0.029743825            7 
  770000   0.95230188   -6.9813174    270.69777  0.029296296  0.029725962            3 
  771000    0.9446421   -6.9375801    271.00455  0.029291456  0.029708485            2 
  772000   0.93625331   -6.9869566    271.27667  0.029282887  0.029691051            6 
  773000    0.9315642   -6.9899432    271.79044  0.029300392   0.02967335            4 
  774000    0.9567578   -6.9714034    272.10481  0.029296383  0.029655753            4 
  775000   0.95321136   -6.9753635     273.1924  0.029375527  0.029638159            4 
  776000    0.9481729   -7.0011522    272.01104  0.029210808  0.029620676           12 
  777000   0.95889719   -7.0037646    272.09426  0.029182138  0.029602931            5 
  778000   0.94080641   -6.9761266    273.13129  0.029255708  0.029585474            4 
  779000   0.92983671   -7.0055404    272.47346  0.029147782  0.029567981            4 
  780000    0.9349577    -6.970026    273.21369  0.029189497   0.02955042            3 
  781000   0.94023534   -7.0145996    272.98784  0.029128024  0.029532911            5 
  782000   0.95735498   -7.0166471    272.90399   0.02908184  0.029515155            2 
  783000   0.90626328   -7.0157857    273.75731  0.029135516  0.029497677            3 
  784000   0.93171214   -7.0000411    272.96664  0.029014311   0.02948013            3 
  785000     0.925128   -6.9941555    273.31787  0.029014636  0.029462444            4 
  786000   0.94516511    -7.015189    273.93131   0.02904276  0.029444732            8 
  787000    0.9338183   -6.9700351    273.97738  0.029010735  0.029426947            2 
  788000    0.9205624   -6.9833158    274.48922  0.029028048  0.029408979            8 
  789000   0.91989625   -7.0057362    274.88066    0.0290326  0.029391342            3 
  790000   0.92895665   -6.9846863    275.42334  0.029053095  0.029373757            2 
  791000   0.96284656    -6.980529    275.36535  0.029010257  0.029355953            1 
  792000   0.91554117    -6.995035    275.45598  0.028983163  0.029338464            3 
  793000   0.94921463   -6.9676843     275.9674  0.029000358  0.029321059            3 
  794000   0.92732142   -6.9908562    276.00389  0.028967663  0.029303744            3 
  795000    0.9199174   -7.0305376    275.55318  0.028883982  0.029286574            3 
  796000   0.92851214   -6.9944463    276.54312  0.028951332  0.029269299            5 
  797000   0.93245137    -6.991157    275.63432  0.028819983  0.029251971            5 
  798000   0.91841345   -7.0232564    276.52641  0.028877027  0.029234515            6 
  799000   0.92860847    -7.005358    276.62882  0.028851566  0.029217224            7 
  800000   0.92831982   -7.0155722    276.11596  0.028762079  0.029199659            5 
  801000   0.91743043    -7.002692    276.87603  0.028805246  0.029182124            3 
  802000    0.9313259    -7.007896    277.17999  0.028800913  0.029164478            3 
  803000   0.94443843   -7.0231667    276.84524  0.028730307  0.029146998            5 
  804000   0.91690791   -6.9914157    277.68632   0.02878175    0.0291293            4 
  805000   0.92925693   -7.0152032    277.96347  0.028774686  0.029111698            5 
  806000   0.95552746   -7.0060299    278.42367  0.028786567  0.029094216            5 
  807000   0.92765182   -7.0299595    277.96847   0.02870389  0.029076841            3 
  808000   0.93639785    -7.030088    278.68015  0.028741765  0.029059541            3 
  809000    0.9201855    -7.035408    278.49729  0.028687401  0.029042109            5 
  810000   0.91793822   -7.0347639    279.18742  0.028722985  0.029024595            6 
  811000   0.93686844   -7.0067965    278.69171  0.028636633  0.029007299           12 
  812000   0.92385875   -6.9993298    278.81321  0.028613835  0.028989996            7 
  813000   0.92875678   -7.0246852    279.88225  0.028688218  0.028972473            3 
  814000   0.93277012   -7.0206995    278.69184  0.028531106  0.028954955            4 
  815000   0.95133253   -6.9961716    279.43139  0.028571716  0.028937269            4 
  816000   0.93501789   -6.9887771    280.17713   0.02861286  0.028919705            3 
  817000   0.91282268   -6.9834663    279.78232  0.028537569  0.028902252            5 
  818000   0.93048628   -7.0174146    280.48025  0.028573782  0.028884657            7 
  819000   0.91540651   -7.0266993    279.99467  0.028489486  0.028866977            3 
  820000   0.91424635   -7.0432308    280.03894  0.028459242  0.028849277            4 
  821000   0.95964445   -7.0087629    280.15565  0.028436424  0.028831512            4 
  822000   0.93096164   -7.0085102    280.14735  0.028400988  0.028813794            7 
  823000   0.94056272   -7.0393804    280.94873  0.028447624  0.028796039            3 
  824000   0.94453653   -7.0467156    280.83922  0.028402025  0.028778465            3 
  825000   0.91190656   -7.0073666    281.84992  0.028469689  0.028761094            4 
  826000   0.93070744   -7.0437005    281.45912  0.028395795  0.028743517            5 
  827000   0.91992636   -7.0565256    281.42989  0.028358514  0.028725869            6 
  828000   0.93621759   -7.0972514    281.46028  0.028327323   0.02870846            4 
  829000   0.93136869    -7.030622    281.07226  0.028254148  0.028690862            7 
  830000   0.92902416   -7.0212661    282.54467  0.028367939  0.028673224            3 
  831000   0.92315231   -7.0183195     282.2119  0.028300431  0.028655615            4 
  832000   0.92817717   -7.0450801    281.88702  0.028233876  0.028637879            2 
  833000   0.92329251   -7.0373705    282.99162  0.028310486  0.028620297            3 
  834000   0.88911121   -7.0179898    282.59056  0.028236466   0.02860268            6 
  835000   0.90568472   -7.0384603    283.00878  0.028244389  0.028585216            2 
  836000   0.92729356   -7.0160933     283.4916  0.028258732  0.028567802            2 
  837000   0.92368871   -7.0100619    283.89847  0.028265479  0.028550376            4 
  838000   0.93138723   -7.0282164    283.90529  0.028232428  0.028533093            3 
  839000   0.92841741   -7.0345913     284.7349  0.028281178  0.028515708            2 
  840000   0.91873516   -7.0087062    284.37404   0.02821171  0.028498371            4 
  841000   0.92266948   -7.0447357    284.48178   0.02818884  0.028481109            4 
  842000   0.90974366   -7.0341305    284.86895  0.028193681  0.028463779            5 
  843000   0.93521717   -7.0262796    284.41994   0.02811585  0.028446768            2 
  844000   0.92385002   -7.0397712    285.61925  0.028200953  0.028429632            7 
  845000   0.91314813   -7.0562555    284.45161  0.028052427  0.028412537            4 
  846000   0.91151304    -7.002699    285.26608  0.028099496  0.028395426            4 
  847000   0.91400942   -7.0405638    285.38435  0.028077956  0.028378181            3 
  848000   0.93064894   -7.0100222    286.18523  0.028123548  0.028360833            4 
  849000   0.90894292   -7.0444274    285.30824  0.028004343  0.028343402            8 
  850000   0.90934819   -7.0300299    285.98006  0.028037261  0.028325784            4 
  851000   0.89522135   -7.0650952    286.02948  0.028009154   0.02830831            4 
  852000    0.9109335   -7.0152571    285.65531  0.027939682  0.028290835           20 
  853000   0.90723128   -7.0409586    285.50223  0.027891973  0.028273252            8 
  854000   0.93667913   -7.0522441    286.06436  0.027914165  0.028255747            7 
  855000   0.90571399   -7.0610606    286.30624  0.027905092  0.028238231            3 
  856000   0.92069252   -7.0555674    285.81999  0.027825155  0.028220486           12 
  857000    0.9007225   -7.0557066    286.92994  0.027900616  0.028202723            5 
  858000    0.8957825   -7.0654393    286.43527  0.027820053  0.028185001            6 
  859000   0.91684598   -7.0373806    287.19637  0.027861502  0.028167297            6 
  860000   0.94115909   -7.0887402    287.17531  0.027827065  0.028149702            3 
  861000   0.90232885   -7.0612437    287.68731    0.0278443  0.028132107            2 
  862000   0.91699507   -7.0633799    287.98692  0.027840963  0.028114686            6 
  863000   0.90252225   -7.0626129    288.21734  0.027830952  0.028097182            3 
  864000   0.91360717   -7.0811158    287.90595  0.027768706  0.028079756            4 
  865000   0.90524547   -7.0473408    287.83204  0.027729484  0.028062201            4 
  866000   0.89761363   -7.0492665    287.71275  0.027685985   0.02804451            2 
  867000   0.89456135   -7.0919444    288.28982  0.027709517  0.028026934            6 
  868000    0.9084931   -7.0866992    288.05865  0.027655401  0.028009352            5 
  869000   0.90117246   -7.0552422    288.16428  0.027633705  0.027991717            4 
  870000    0.8958373   -7.0734083    288.63763  0.027647283   0.02797409            5 
  871000   0.91059959   -7.0772775    288.93027  0.027643539  0.027956518            8 
  872000   0.91765951   -7.0911411    288.73474  0.027593151  0.027938867           10 
  873000   0.92491377   -7.0630759    289.23175  0.027608987  0.027921257            6 
  874000   0.90112643   -7.0380237    290.04477  0.027654917  0.027903793            4 
  875000   0.91903275    -7.084179    289.21953  0.027544717  0.027886519            3 
  876000    0.9019719   -7.0298847     289.7559  0.027564298  0.027869242            6 
  877000   0.88716257   -7.0584029    288.89406  0.027450975  0.027851726            4 
  878000   0.89968445   -7.0300768    289.83281  0.027508809  0.027834165            9 
  879000   0.90425406   -7.0837749    290.34706  0.027526266  0.027816596            5 
  880000    0.8861952   -7.0603239    290.34961  0.027495228  0.027799068            7 
  881000   0.91936523   -7.0474498     290.9368  0.027519561  0.027781787            4 
  882000   0.89415386   -7.0675896    291.10678   0.02750442  0.027764604            2 
  883000   0.88495078   -7.0989344    290.56274  0.027421927  0.027747142            3 
  884000   0.89565333   -7.0480901     292.1869  0.027544014  0.027729991            4 
  885000   0.89968853   -7.0906932     290.8319  0.027385301  0.027712645            9 
  886000   0.88383935    -7.048818    291.81699  0.027447046  0.027695378            5 
  887000   0.90181439   -7.0548237    291.71283  0.027406316  0.027678397            3 
  888000   0.89355612   -7.0724249    292.12534  0.027414165  0.027661151            4 
  889000   0.88785462   -7.0804252    291.69404  0.027342898  0.027643846            4 
  890000   0.89265187   -7.0649251    292.34249  0.027372893  0.027626484            1 
  891000    0.8913093   -7.0540091    292.96967   0.02740083  0.027609334            4 
  892000    0.8872817   -7.0783693    292.64607  0.027339879  0.027592208            3 
  893000   0.87461084   -7.1231722    292.38763  0.027285146  0.027574769            4 
  894000   0.89786308   -7.0776461    292.55531  0.027270257  0.027557498            4 
  895000   0.90484645   -7.0735589    292.61451  0.027245298  0.027540147            5 
  896000   0.88917252   -7.0701399    292.89838  0.027241293  0.027522842            3 
  897000   0.88853742   -7.0614974    293.57828  0.027274088  0.027505593            4 
  898000   0.89693251   -7.0640168    293.02911  0.027192753   0.02748829            3 
  899000   0.88648866   -7.0856114    293.13478    0.0271723  0.027470894            2 
  900000   0.89821111   -7.0988821    293.40241   0.02716689  0.027453302            7 
  901000   0.90266454   -7.0727616    293.23518  0.027121271  0.027435679           10 
  902000   0.89778712   -7.1023649    292.69097  0.027040925  0.027418115            4 
  903000   0.88093607   -7.1068272    294.02977   0.02713453  0.027400501            4 
  904000   0.88679924    -7.067148    293.64724  0.027069251  0.027382968            4 
  905000   0.87314831   -7.0786311    293.53477  0.027028984  0.027365344            4 
  906000   0.88600388   -7.0890643    294.67013   0.02710358  0.027347783            5 
  907000   0.89099895   -7.0873197    294.04791   0.02701653  0.027330246            5 
  908000   0.89874801   -7.1066004    294.67805  0.027044608  0.027312753            2 
  909000   0.88361681   -7.0607838    294.93703  0.027038599  0.027295466            2 
  910000   0.89188229   -7.0819851    295.11741  0.027025404  0.027278185            2 
  911000   0.88566322   -7.0838063     295.1642  0.027000018  0.027260815            5 
  912000   0.90402811   -7.1012826    295.31926  0.026984582  0.027243349            5 
  913000   0.88344228    -7.109381    294.67791  0.026896487  0.027225794            3 
  914000   0.87870695   -7.1108629    295.69058  0.026959389  0.027208149           12 
  915000   0.87433863   -7.0848116    295.37741  0.026901403  0.027190746            4 
  916000   0.87398592   -7.0850555    295.16414  0.026852633  0.027173369            5 
  917000   0.89354219   -7.1152968    295.80984  0.026882029  0.027156026            3 
  918000   0.89920981   -7.0772511    296.09184  0.026878344  0.027138693            6 
  919000   0.88961868   -7.0795552    296.57623  0.026893021  0.027121328            5 
  920000   0.88072377   -7.0989282    296.01865  0.026813284  0.027104097            3 
  921000   0.91035078   -7.1161731     296.2334  0.026803601  0.027086709            4 
  922000   0.89380487   -7.0948657    296.67687  0.026814612  0.027069289            4 
  923000   0.89002628   -7.0909507    296.92156  0.026807653  0.027052088            8 
  924000   0.90106789   -7.1099014    296.75107  0.026763264  0.027034517            4 
  925000   0.87823689   -7.1364199    296.40323  0.026702994  0.027016933            6 
  926000   0.86725354   -7.1295021    296.59853  0.026691732  0.026999195            3 
  927000   0.88544728     -7.12986    296.01319  0.026610319  0.026981315            6 
  928000   0.88129619   -7.1526986    296.90926  0.026662111  0.026963576            4 
  929000   0.85539961   -7.1188308    297.02081  0.026643417  0.026945888            5 
  930000   0.87330254   -7.1206227    296.79569  0.026594596  0.026928232            5 
  931000   0.87177705   -7.1106132    297.35549  0.026616137   0.02691062            6 
  932000   0.89766273   -7.1041767    297.74611  0.026622506  0.026893139            4 
  933000   0.89575917   -7.0942035    298.52574  0.026663607  0.026875714            4 
  934000   0.88885989   -7.0854951    298.45265  0.026628537  0.026858482            5 
  935000    0.8649604   -7.1337378    297.68305  0.026531466  0.026841055            3 
  936000   0.87245845   -7.1084143    298.21826  0.026550771  0.026823502            8 
  937000   0.87776498     -7.09969    297.82394  0.026487365  0.026805956            6 
  938000   0.88384777    -7.108051    298.42637  0.026512649  0.026788416            5 
  939000   0.86996095   -7.1687323    298.12917  0.026458038  0.026770738            5 
  940000   0.89436563     -7.10895    299.17751  0.026522829  0.026753102            4 
  941000   0.86400058    -7.087507    299.71009  0.026541808  0.026735608            5 
  942000   0.89713322   -7.1277588    298.29913  0.026388812  0.026717967            6 
  943000   0.86194325   -7.1347665    298.65331  0.026392127  0.026700213            5 
  944000   0.87598173   -7.1065572        299.1  0.026403602  0.026682595            6 
  945000    0.8849436   -7.1329002    299.33125  0.026396053  0.026664923            3 
  946000   0.86128777   -7.1501743    298.97477  0.026336749   0.02664718            2 
  947000   0.86863306   -7.1276527     299.1284  0.026322457  0.026629429            3 
  948000   0.89453196    -7.103123     299.8732  0.026360162  0.026611752            4 
  949000   0.88262354   -7.1055206    299.68489  0.026315849   0.02659419           11 
  950000   0.86531851   -7.1330045    299.87786  0.026305076  0.026576692            7 
  951000   0.88096121    -7.112591    299.75321  0.026266493  0.026559111            3 
  952000   0.87205986   -7.1128599    300.32345  0.026288817  0.026541638            7 
  953000   0.87091416   -7.1135439     300.4385  0.026271292  0.026524127           15 
  954000   0.87050091   -7.1384826    300.67485    0.0262644  0.026506558            3 
  955000   0.87968728   -7.1416906    300.40529  0.026213376  0.026489149           10 
  956000   0.86964947   -7.1262132    300.83549  0.026223456   0.02647166            3 
  957000   0.87218313   -7.1278123    301.60397  0.026262972  0.026454304            3 
  958000   0.87084495   -7.1237334    301.67506  0.026241742  0.026436962            7 
  959000   0.86848693   -7.1111946    301.23496  0.026176135  0.026419605            7 
  960000   0.87311111   -7.1040748    301.50442  0.026172259   0.02640224            9 
  961000   0.87827651   -7.1041549    301.46921  0.026141971  0.026385118            4 
  962000   0.87922579   -7.1176903    302.15285  0.026174016   0.02636786            7 
  963000   0.84247959   -7.1375677    302.01404  0.026134825  0.026350484            2 
  964000   0.87004717   -7.1241747    302.57287  0.026156023  0.026333191            7 
  965000   0.87718193   -7.1304561    302.60507  0.026131699  0.026316005            5 
  966000   0.87262881   -7.1274363    302.68529  0.026111568  0.026298832            5 
  967000   0.86703604   -7.1400424    302.44521  0.026063876  0.026281441           14 
  968000   0.88227419   -7.1689905    301.98978  0.025997743  0.026263891            5 
  969000    0.8617081   -7.1649331    301.92193  0.025965078  0.026246558            4 
  970000   0.86611894   -7.1625385    302.21157  0.025963193  0.026229061            5 
  971000   0.86186047   -7.1515156    302.57636  0.025967762  0.026211718            6 
  972000   0.87295529   -7.1692058    302.67772  0.025949736  0.026194255            5 
  973000   0.87067243   -7.1545045    302.78519   0.02593227  0.026176761            5 
  974000   0.86937756   -7.1657878    302.38504   0.02587141  0.026159218            3 
  975000   0.86386762   -7.1481431    302.81015   0.02588121  0.026141543            6 
  976000   0.85854615   -7.1555787    302.68641  0.025844126  0.026123936            2 
  977000    0.8577158   -7.1513111     302.7272  0.025821154  0.026106209           13 
  978000   0.84566055    -7.139239    302.99813  0.025817837  0.026088583            2 
  979000   0.86529456   -7.1698886    302.93134   0.02578578  0.026070965            7 
  980000   0.87729854   -7.1684201    302.77285  0.025745991  0.026053266            3 
  981000   0.85149518   -7.1682756    303.71374  0.025799672  0.026035579            6 
  982000   0.86392736   -7.1488152    303.33793  0.025741508  0.026017848            7 
  983000   0.85864924   -7.1896874    302.97322  0.025684403  0.026000002            3 
  984000   0.86808221    -7.169607    303.18575    0.0256763  0.025982227            8 
  985000   0.85407127   -7.1890612     303.1336   0.02564582  0.025964382            3 
  986000   0.88222844   -7.1530673    303.84069  0.025679571  0.025946692            2 
  987000   0.82855977   -7.1415426    304.07109  0.025673007  0.025929093            2 
  988000    0.8524008   -7.1811318     303.6985  0.025615595  0.025911388            3 
  989000   0.87896745   -7.1889048    303.24983   0.02555189  0.025893653            6 
  990000   0.85249174   -7.1397613    304.38038  0.025621244    0.0258761            6 
  991000    0.8648126    -7.168787    304.20132  0.025580333  0.025858753            4 
  992000   0.86434099   -7.1705046    303.89107  0.025528484  0.025841189            4 
  993000    0.8533703   -7.1727836    304.75829  0.025575553  0.025823519            4 
  994000   0.86461008   -7.1858271    304.59767  0.025536358  0.025805816            2 
  995000   0.84028899    -7.189153    304.80086   0.02552771   0.02578824            6 
  996000   0.86745385   -7.2072984    305.30241  0.025544044  0.025770714            2 
  997000   0.85273794   -7.1450078    305.94265  0.025571936  0.025753193            8 
  998000   0.85541616   -7.1978003    305.29921  0.025492586  0.025735722            3 
  999000   0.84492807   -7.1825116    304.66979  0.025414564  0.025718131           12 
 1000000   0.86068808   -7.1705119    306.07363  0.025506136  0.025700577            5 
 1001000   0.83616271    -7.185195    305.20883   0.02540866  0.025683093            5 
 1002000   0.82781367   -7.2160928     305.7831  0.025431063  0.025665536            4 
 1003000   0.85340773   -7.1961009    306.08221  0.025430559  0.025648006            3 
 1004000   0.84547915   -7.2165945    306.12908   0.02540912  0.025630487            3 
 1005000   0.84869563   -7.1746637    305.67637    0.0253463   0.02561307            8 
 1006000   0.85412904   -7.1693459    305.81889   0.02533291  0.025595636            4 
 1007000   0.84801685   -7.1412059    306.17322  0.025337075  0.025578187            4 
 1008000   0.85310923   -7.1944996    306.50448  0.025339326  0.025560673            5 
 1009000   0.85754608    -7.183314     306.2209  0.025290791  0.025543159            6 
 1010000   0.86002827   -7.1700313    306.90698  0.025322358  0.025525601            5 
 1011000   0.85100394   -7.1842787     306.5656  0.025269172  0.025508351            3 
 1012000   0.85998283   -7.1592659    307.28492  0.025303435  0.025491077            5 
 1013000   0.86586532   -7.1737553    307.11795  0.025264721  0.025473822            5 
 1014000   0.85397556   -7.1728898    307.39677   0.02526272  0.025456609            4 
 1015000   0.84011373   -7.1836742    308.10954   0.02529635  0.025439345            3 
 1016000   0.85001178   -7.1599509    308.12298  0.025272554  0.025422177            5 
 1017000   0.83754983   -7.1843682    308.25563  0.025258573  0.025404909            2 
 1018000   0.86319404     -7.19116    307.93718  0.025207693  0.025387627            2 
 1019000   0.82579761   -7.1867243    307.66832  0.025160968  0.025370408            5 
 1020000   0.85095763   -7.1801477    307.64796  0.025134637  0.025353057            5 
 1021000   0.86378602   -7.1796184    307.47357  0.025095786  0.025335771           11 
 1022000   0.84275787   -7.1805952    308.84825  0.025183321  0.025318582            3 
 1023000   0.84198429   -7.2190037    308.26759  0.025111403  0.025301405            2 
 1024000   0.86945351   -7.1892698    308.01903  0.025066653  0.025284111            3 
 1025000   0.84590694   -7.2204869    308.80797  0.025106339  0.025266948            3 
 1026000   0.83548567   -7.2155694    308.14929   0.02502837  0.025249799            3 
 1027000    0.8417163   -7.1790477    308.46919  0.025029957  0.025232565            4 
 1028000   0.83643152   -7.1765138    308.72228  0.025026125  0.025215474            5 
 1029000   0.86227666   -7.2059029    309.03826  0.025027394  0.025198315           14 
 1030000    0.8378797   -7.2064094    308.70888  0.024976447  0.025180983            8 
 1031000   0.81401922   -7.2418056    307.86606  0.024884098  0.025163527            6 
 1032000   0.83881021   -7.2293743    308.00952   0.02487157  0.025145993            6 
 1033000   0.82725863   -7.2067051    309.77903  0.024990241   0.02512856            4 
 1034000   0.83918737   -7.2204065    309.36846  0.024932983  0.025111135            4 
 1035000    0.8508716   -7.1865937    308.98325  0.024877879   0.02509381            5 
 1036000   0.83537727   -7.1775729    309.17325  0.024869148  0.025076535            3 
 1037000   0.84745604   -7.1846679    309.37571  0.024861436   0.02505932            4 
 1038000   0.81825163   -7.1953834    309.87752  0.024877771  0.025041978            6 
 1039000   0.83199781   -7.2032541    309.39627  0.024815229  0.025024767            7 
 1040000    0.8360206   -7.2101134    309.92696  0.024833891  0.025007548            7 
 1041000   0.82852457   -7.2385764    309.86278  0.024804898  0.024990367            5 
 1042000   0.85615498    -7.216607    309.74429  0.024771616  0.024973078            8 
 1043000   0.84459383   -7.1976613    309.77232  0.024750105  0.024955765            8 
 1044000     0.852468   -7.2485763      310.071   0.02475024  0.024938355            3 
 1045000   0.82604387   -7.2360151    309.38585  0.024671918  0.024921078            6 
 1046000   0.82556706   -7.2054537    310.54656  0.024740803  0.024903897            8 
 1047000   0.83127112   -7.2557146    309.96311  0.024670735  0.024886674            3 
 1048000   0.84035415    -7.234239    310.35484  0.024678342  0.024869309            5 
 1049000    0.8383265   -7.2213072    310.10053  0.024634614  0.024851882            5 
 1050000   0.83907084   -7.2084932    310.99427  0.024682085  0.024834646            6 
 1051000   0.82215598   -7.2537108    310.12569  0.024589731  0.024817426            5 
 1052000   0.82749807   -7.2043008    311.52839  0.024677471  0.024800281            3 
 1053000   0.85462728   -7.2191897    311.09699  0.024619894   0.02478316            8 
 1054000   0.83753197   -7.2254945    310.82419  0.024574968  0.024765972            7 
 1055000   0.85378824   -7.2034373    312.13731  0.024655395  0.024748812            3 
 1056000   0.84419768   -7.2266594    311.50002  0.024581757  0.024731766            3 
 1057000   0.83219955   -7.2057802    311.65442  0.024570673  0.024714747            3 
 1058000   0.82400635   -7.2138127    311.99576  0.024574335  0.024697707            5 
 1059000   0.82667307   -7.2018791     312.0603  0.024556209   0.02468059            6 
 1060000    0.8227764   -7.2256388    312.15239  0.024540283  0.024663391            4 
 1061000   0.84019639   -7.1892411    312.03834  0.024508195  0.024646205           10 
 1062000   0.82643964   -7.2035531    312.04155  0.024485369  0.024629155            4 
 1063000   0.82097143   -7.2187018    312.16159  0.024471746  0.024612062            5 
 1064000   0.82680027   -7.2001836    312.66293  0.024488012  0.024595008            5 
 1065000   0.83149491   -7.2345047    313.26871  0.024512419  0.024578017            4 
 1066000   0.82059388   -7.2300326    312.36035  0.024418414   0.02456107            2 
 1067000    0.8286899   -7.2108529    312.79208  0.024429247  0.024544079            3 
 1068000   0.83483694   -7.2238279    312.91045  0.024415609  0.024526946            6 
 1069000   0.82400843   -7.2474672      312.373  0.024350873  0.024509867            7 
 1070000   0.80340171   -7.2445792    312.80656  0.024361882  0.024492747            9 
 1071000   0.83298511   -7.2354644    311.72837  0.024255242  0.024475583            3 
 1072000   0.83762632   -7.2327216    312.18828  0.024268368  0.024458512            5 
 1073000    0.8456251   -7.2348599     312.5998  0.024277711  0.024441346            8 
 1074000   0.80884842   -7.2395868     313.4062  0.024317676  0.024424241            4 
 1075000   0.84045281   -7.2428997    313.27395  0.024284803  0.024407016            3 
 1076000   0.83050472   -7.2334685    313.75787  0.024299711  0.024389953            4 
 1077000   0.82929422   -7.2473637     312.3869  0.024171069  0.024372807            5 
 1078000   0.82456737   -7.2770292    313.34473  0.024222691  0.024355684            6 
 1079000   0.83003036   -7.2262825    312.73936  0.024153488  0.024338452            8 
 1080000   0.83005857   -7.2390306    313.90822  0.024221313  0.024321318            7 
 1081000   0.82662269   -7.2548211    313.25908  0.024148865   0.02430415            9 
 1082000   0.80969744    -7.228373    312.79679  0.024090942   0.02428698           14 
 1083000   0.83795684   -7.2652162    313.58999  0.024129732  0.024269869            8 
 1084000   0.82924906   -7.2581521    313.42804  0.024095021  0.024252696            3 
 1085000   0.81369431   -7.2380374    312.99448  0.024039514  0.024235428            8 
 1086000   0.82228052   -7.2654504    312.69154  0.023994133  0.024218164            5 
 1087000   0.80305341   -7.2629648      313.732  0.024051824   0.02420095            8 
 1088000    0.8301373   -7.2745678    313.90718  0.024043135  0.024183812            4 
 1089000   0.82196914   -7.2417956    314.27853  0.024049475  0.024166635            8 
 1090000   0.82312042   -7.2753227    313.72959  0.023985442  0.024149327            3 
 1091000   0.81527926   -7.2307221    313.51367  0.023946966  0.024132079            4 
 1092000   0.81422433    -7.242981    313.80681  0.023947406  0.024114791            5 
 1093000   0.82880715   -7.2292368    313.44391  0.023897828  0.024097433            3 
 1094000   0.81968495   -7.2541621    313.78818  0.023902208  0.024080035            5 
 1095000   0.82059914   -7.2458968    313.07943  0.023826441  0.024062534            5 
 1096000   0.79740757   -7.2512576    313.97808  0.023873029  0.024045146           10 
 1097000   0.82491059   -7.2687248    314.03883  0.023855882   0.02402784            4 
 1098000    0.8183446   -7.2667552     314.1013  0.023838897  0.024010469            2 
 1099000   0.82527193   -7.2157887    314.31591  0.023833478  0.023993137            7 
 1100000   0.81153567   -7.2406295    313.23871  0.023730206   0.02397576            5 
 1101000    0.8256936   -7.2410751    313.96448  0.023763585  0.023958479            2 
 1102000   0.80111458   -7.2491721    313.36494  0.023696683  0.023941116            6 
 1103000   0.80239999   -7.2801659    314.33692  0.023748634  0.023923699            7 
 1104000    0.8191596   -7.2220418    315.20093  0.023792341  0.023906536            4 
 1105000   0.82070386   -7.2679861    314.93145  0.023750486  0.023889394            2 
 1106000   0.80139262   -7.2501978    314.74739  0.023715144  0.023872243            4 
 1107000   0.80655197   -7.2729806     314.8932  0.023704697  0.023854983            8 
 1108000   0.80673108   -7.2680374    314.35677  0.023642958  0.023837781            4 
 1109000   0.80963964   -7.2536142    315.09153  0.023676851  0.023820577            4 
 1110000   0.80796623   -7.2699311    314.21566  0.023589764  0.023803149            6 
 1111000   0.79378643   -7.2899173    314.50111  0.023589942  0.023785754            6 
 1112000   0.80301359   -7.3017984    314.63036  0.023578414  0.023768402            3 
 1113000   0.81991236   -7.2377504    314.91198  0.023578315  0.023751023            9 
 1114000   0.80759472   -7.2848743    314.49962  0.023526303  0.023733637            5 
 1115000   0.82653181   -7.2585043     315.2716    0.0235629  0.023716283            3 
 1116000    0.8092348   -7.2311126    315.56376  0.023563602   0.02369903            5 
 1117000   0.82191816   -7.2596708    315.11137  0.023508757  0.023681739            3 
 1118000   0.80001162     -7.25487    315.89688  0.023546279  0.023664489            6 
 1119000   0.81489467   -7.2847157    315.43203  0.023490619  0.023647189            5 
 1120000   0.80386502   -7.2844209    315.67823  0.023487964  0.023629786            5 
 1121000   0.81514874   -7.2672099    315.74579  0.023472034  0.023612364            3 
 1122000   0.81136125   -7.2911358     315.1067  0.023403647   0.02359509            9 
 1123000   0.82083207   -7.2955169    315.13092  0.023384604  0.023577749            8 
 1124000   0.79468888   -7.2861499     315.4116  0.023384608  0.023560466            3 
 1125000   0.80455617   -7.2421021    316.43419   0.02343957  0.023543174            5 
 1126000    0.8079077   -7.2600866    314.91448  0.023306282  0.023525924           10 
 1127000   0.79862018   -7.2930762    315.79421  0.023350651   0.02350868            3 
 1128000   0.80915763   -7.2782654    315.81454  0.023331452  0.023491432            4 
 1129000   0.80571975   -7.2490669    316.09111  0.023331201  0.023474173            4 
 1130000   0.79826096   -7.3115005    315.93798  0.023299261  0.023456939            5 
 1131000   0.78929168   -7.2649477    315.88847  0.023275013  0.023439683            3 
 1132000   0.81185023    -7.279956    316.02355  0.023264396  0.023422526            7 
 1133000   0.79974613   -7.3047866    316.04477  0.023245423  0.023405252            4 
 1134000   0.80148917   -7.2838161    316.05096  0.023225379  0.023387982            4 
 1135000   0.80243945   -7.2732335    316.13601  0.023211161  0.023370734            5 
 1136000    0.8264818    -7.277012    316.68488  0.023230991  0.023353541            8 
 1137000   0.79116556   -7.2805646    316.43668  0.023192369   0.02333639            6 
 1138000     0.788989   -7.2871845    317.17256  0.023225876  0.023319286           11 
 1139000   0.80158587   -7.2961866    316.47128  0.023154176  0.023302336            5 
 1140000   0.79179821   -7.2734158     317.4348  0.023204299  0.023285273            5 
 1141000   0.79008025   -7.2918362    317.30726  0.023174646  0.023268287            6 
 1142000   0.78926069   -7.3028546    316.51177  0.023096306  0.023251298            8 
 1143000    0.7935882   -7.2917062    317.41612  0.023142032  0.023234247            4 
 1144000   0.80279152   -7.3058599    317.70948  0.023143173   0.02321721            5 
 1145000   0.79339403   -7.3017828    316.80866  0.023057399   0.02320012            5 
 1146000   0.80537295   -7.2824087    317.55808  0.023091774  0.023183123            5 
 1147000   0.80574574   -7.3068236    318.00893  0.023104398   0.02316625            4 
 1148000   0.79260136   -7.2829224    318.14966  0.023094488  0.023149446            5 
 1149000   0.77847715   -7.2881224    318.52973  0.023101953  0.023132614            5 
 1150000   0.78977186   -7.2925421    317.46653  0.023004821  0.023115752            3 
 1151000   0.80917591   -7.2930828    317.48181   0.02298594  0.023098799            4 
 1152000    0.7823481   -7.3038041    317.08963  0.022937618   0.02308187            4 
 1153000   0.79145297   -7.2878525    318.67209  0.023032096  0.023064948            3 
 1154000   0.78898148   -7.3180594    317.89319  0.022955892  0.023048141            2 
 1155000   0.80786866   -7.2879142    318.14885  0.022954462  0.023031331            5 
 1156000   0.79402663   -7.3018935    317.97477  0.022922057  0.023014514            9 
 1157000   0.80870414    -7.287449    318.56866   0.02294502  0.022997692            6 
 1158000   0.77082844   -7.3039725    318.01641  0.022885464  0.022980923           18 
 1159000   0.78338204   -7.2955848    317.65851  0.022839985  0.022964181            5 
 1160000   0.78855711   -7.3035666     318.4055  0.022873958  0.022947341            5 
 1161000   0.78466885   -7.3127663      318.269  0.022844459  0.022930473            5 
 1162000   0.80769892   -7.3336201    317.71945  0.022785388  0.022913652            6 
 1163000   0.78698335   -7.2838037    318.73244  0.022838381  0.022896818            8 
 1164000   0.79851533   -7.3229158     318.4492  0.022798482  0.022879897            5 
 1165000   0.79513474    -7.333671    318.85077  0.022807637   0.02286292            7 
 1166000   0.79573999   -7.3133851    318.66724   0.02277496  0.022845993           12 
 1167000   0.79179888   -7.2965345     318.8407  0.022767831  0.022829058            4 
 1168000    0.7790337   -7.3088888    318.88126  0.022751231  0.022812136            4 
 1169000   0.78568424   -7.3164987    319.18107  0.022753141  0.022795204           10 
 1170000   0.78094135   -7.2791638    318.41054  0.022678814  0.022778322           13 
 1171000   0.77723347   -7.3188393    318.22418  0.022646184  0.022761478            9 
 1172000   0.78511303    -7.333521    318.48851  0.022645656  0.022744572           10 
 1173000   0.77695987    -7.331737    318.64176  0.022637238  0.022727647            4 
 1174000   0.78898394   -7.3540332    318.55371  0.022611705  0.022710641            4 
 1175000   0.77657612   -7.3253877    318.82247  0.022611523  0.022693742            3 
 1176000   0.76835649   -7.3399482    318.40056  0.022562398  0.022676765            6 
 1177000   0.77497102   -7.3407393    318.34406  0.022539228  0.022659818            5 
 1178000   0.79924034   -7.3175927    319.47828  0.022600331  0.022642948            6 
 1179000   0.77969739   -7.3303752    318.11205  0.022484595  0.022626057            3 
 1180000   0.78866488    -7.317558    318.68926  0.022506304  0.022609091            3 
 1181000    0.7773522   -7.3476316     319.1215  0.022517747  0.022592105           14 
 1182000   0.77513208    -7.369703    318.98428  0.022489022  0.022575157            7 
 1183000   0.77714565   -7.3175045    319.44826  0.022502695  0.022558319            2 
 1184000   0.77338345   -7.3229824    320.40251  0.022550853  0.022541552            6 
 1185000   0.80108599   -7.3118576    319.92467  0.022498219  0.022524851           10 
 1186000    0.7775571   -7.3175921    319.75023  0.022466992  0.022508221            8 
 1187000   0.78916438   -7.3193281    320.19436  0.022479245  0.022491536            5 
 1188000   0.76710049   -7.3350677    320.53381  0.022484134  0.022474898            3 
 1189000    0.7802445   -7.3207876    319.70337  0.022407021  0.022458221            7 
 1190000   0.76705671   -7.3259642    320.98205  0.022477735  0.022441572            5 
 1191000   0.78017754   -7.3492367    319.81578  0.022377258  0.022424917            5 
 1192000   0.76654049   -7.3482833    319.66657  0.022348054  0.022408278            9 
 1193000   0.77207483   -7.3320139    319.49853  0.022317584  0.022391651            4 
 1194000   0.77418143   -7.3455849    320.47901  0.022367323  0.022375096            6 
 1195000   0.77552204   -7.3273944    319.91339  0.022309162  0.022358493            5 
 1196000   0.76937587   -7.3630199    320.69604  0.022345042  0.022341867            6 
 1197000   0.78846254   -7.3066204    320.64776  0.022323013  0.022325226            5 
 1198000   0.77039145   -7.3170386    320.74083  0.022310853  0.022308564           11 
 1199000   0.78281942   -7.3716757    320.25832   0.02225871  0.022291846            7 
 1200000    0.7693333   -7.3468962    320.55683  0.022260891  0.022275157           11 
 1201000   0.76245228   -7.3481335    320.76507  0.022256805  0.022258584            8 
 1202000   0.76639448   -7.3616197    320.99983  0.022254564  0.022242141            8 
 1203000   0.77162905   -7.3579332     320.9884  0.022235273  0.022225612            7 
 1204000   0.75896122   -7.3692142    320.76105  0.022201069  0.022209085           10 
 1205000      0.77899   -7.3312219    321.60818   0.02224123   0.02219257            6 
 1206000    0.7771433   -7.3431521    321.10877  0.022188278  0.022176087            5 
 1207000   0.77001358   -7.3467511    321.14944  0.022172703  0.022159642            6 
 1208000   0.77132373    -7.336658    321.57375  0.022183619  0.022143216            3 
 1209000   0.76017105   -7.3405338    321.59942   0.02216704   0.02212684            4 
 1210000   0.76505499   -7.3517844    321.57073  0.022146745  0.022110477            6 
 1211000   0.76278915   -7.3548285    322.56273   0.02219672  0.022094167           16 
 1212000   0.75983531   -7.3616313    322.10631  0.022147023  0.022077853            6 
 1213000   0.77572474   -7.3529376    322.04525   0.02212457  0.022061542            6 
 1214000   0.77068035   -7.3571129    321.95602  0.022100221  0.022045336           10 
 1215000    0.7718753   -7.3515598    322.70051  0.022133094  0.022029124           11 
 1216000   0.77359883   -7.3539494    322.49787  0.022101006   0.02201288            6 
 1217000   0.76404955   -7.3792314     322.0695  0.022053513  0.021996659            4 
 1218000   0.76366289   -7.3665281    321.66951   0.02200804  0.021980444            5 
 1219000   0.77689126   -7.3177359    321.69524  0.021991745  0.021964309            7 
 1220000   0.78247954   -7.3760793    322.45599  0.022025682  0.021948237            5 
 1221000   0.76627452   -7.3621181    322.31177    0.0219978  0.021932224            7 
 1222000   0.77465394   -7.3651204    323.28327  0.022046049  0.021916159            5 
 1223000    0.7967015   -7.3714018    322.48854  0.021973871   0.02190008            5 
 1224000   0.77188526   -7.3526042     323.0323   0.02199294  0.021884105           12 
 1225000   0.75442771   -7.3660448    323.56581   0.02201128  0.021868086            6 
 1226000   0.76206571   -7.3828412    322.87449  0.021946336  0.021852075            7 
 1227000   0.76255672   -7.3712684    321.95647  0.021866101  0.021835995            5 
 1228000   0.75365146   -7.3604964    323.01093  0.021919851  0.021819955            3 
 1229000   0.75194983   -7.3531343    323.73751  0.021951282  0.021803888            4 
 1230000   0.77631526   -7.3557728    322.94592  0.021879805  0.021787824           12 
 1231000   0.75609353   -7.3469504    323.75932  0.021917094  0.021771801            6 
 1232000   0.77687566    -7.372705    323.94415  0.021911807  0.021755856            6 
 1233000   0.76198002   -7.3736185     323.2713  0.021848561  0.021739857            9 
 1234000   0.75403848   -7.3760032    322.57493  0.021783829  0.021723882            7 
 1235000   0.76167144    -7.364404    323.38864  0.021821095  0.021707879            7 
 1236000   0.77077326   -7.3832981    323.13518  0.021786353  0.021691803            9 
 1237000   0.75409408   -7.3691823    323.91207  0.021821077  0.021675817            6 
 1238000   0.75659812   -7.3567337    322.79106  0.021727992  0.021659866            4 
 1239000   0.74900123   -7.3706174    323.23009  0.021739984  0.021643872            5 
 1240000   0.76490596   -7.3782865    323.86132  0.021764873  0.021627878            5 
 1241000   0.75824922    -7.351485    323.50898  0.021723676  0.021611928            4 
 1242000   0.76458043   -7.3933764    323.45325  0.021702446     0.021596            6 
 1243000   0.75805684   -7.3882707    323.66271  0.021699029  0.021580043           12 
 1244000   0.74673487   -7.3510972     323.3939  0.021663578  0.021564037            4 
 1245000   0.77013301    -7.400918    323.45647  0.021650366  0.021548066            4 
 1246000   0.73148969   -7.3892473    323.14384  0.021612081  0.021531986            6 
 1247000   0.75985341    -7.393343    323.13906  0.021594431  0.021515903            7 
 1248000    0.7647316   -7.3869182    323.25318  0.021584748   0.02149994           12 
 1249000   0.75032657   -7.3858004    323.88251  0.021609455  0.021484019           11 
 1250000   0.74703424   -7.3820816    324.25798  0.021617199  0.021468171           10 
 1251000   0.75045196   -7.3821295    323.65098  0.021559485  0.021452268            6 
 1252000   0.75613441   -7.3830702    323.78949  0.021551483  0.021436345            8 
 1253000   0.75879787   -7.3719365    324.06121  0.021552355  0.021420472           12 
 1254000   0.75092944   -7.3889974    324.56636  0.021568737  0.021404598            9 
 1255000   0.76072468   -7.4089201      324.084  0.021519522  0.021388749            4 
 1256000   0.75280119   -7.3946148     324.5062  0.021530401  0.021372966            6 
 1257000    0.7372063   -7.4190542    323.93423  0.021475353  0.021357054            4 
 1258000   0.75547416   -7.4110058    324.49181  0.021495218  0.021341186            8 
 1259000   0.73224162   -7.4139462    324.26117  0.021462878   0.02132533            5 
 1260000    0.7609094   -7.3992611    324.10281  0.021435371  0.021309434            4 
 1261000   0.75062087   -7.4142115    324.53667  0.021447044  0.021293571            5 
 1262000    0.7485035   -7.4142028    324.17826  0.021406383  0.021277678            4 
 1263000   0.74858163   -7.3811569    324.63979  0.021419886  0.021261896           10 
 1264000   0.73949065   -7.4084308    324.51307  0.021394585  0.021246138            6 
 1265000   0.74641223   -7.4121486    324.40484  0.021370543  0.021230372            9 
 1266000   0.73472878   -7.3849427    325.26954  0.021410581  0.021214618            3 
 1267000   0.76090451    -7.370472    324.85787  0.021366605   0.02119902            6 
 1268000   0.75917938   -7.4091049    325.24942  0.021375487  0.021183526           12 
 1269000   0.73666213   -7.3952762    324.86592   0.02133346  0.021167952            5 
 1270000   0.73067172    -7.409639    324.69059  0.021305157  0.021152314            9 
 1271000   0.74609579   -7.4017034    325.11466  0.021316199  0.021136658           10 
 1272000   0.75062795   -7.4072488    325.74799  0.021340932  0.021121007            5 
 1273000   0.73266681   -7.4115947    324.89498  0.021268328  0.021105386            7 
 1274000   0.75790255   -7.4070113    325.08047  0.021263767  0.021089786            6 
 1275000   0.75377371   -7.4043509    325.86465  0.021298343  0.021074229           11 
 1276000   0.74526155   -7.4207241    325.43213  0.021253404  0.021058604            9 
 1277000    0.7510185   -7.4157959    325.91814  0.021268477  0.021043012            5 
 1278000   0.74436597   -7.4154016    325.20921  0.021205608  0.021027402            4 
 1279000   0.75810504     -7.38986    325.51266    0.0212088  0.021011772            3 
 1280000   0.74005411   -7.4257332    325.47616  0.021189854  0.020996165            4 
 1281000   0.74215915   -7.4295044    325.37775  0.021166911  0.020980517            4 
 1282000   0.74420162   -7.4537762    324.74792  0.021109459  0.020964946            4 
 1283000   0.73496811   -7.4239407    325.79587  0.021161073  0.020949336            6 
 1284000   0.74081839   -7.4270407    325.11344  0.021100301  0.020933817           10 
 1285000   0.73770621   -7.4096751    326.37097  0.021165433  0.020918307            4 
 1286000   0.75779668   -7.4149362    325.74933  0.021108692  0.020902828            5 
 1287000   0.73673762   -7.4087363    326.20734  0.021121946  0.020887359            4 
 1288000   0.72571707   -7.4180597    326.31812  0.021112715  0.020871877            9 
 1289000   0.75051746   -7.4154932    325.74159  0.021059063  0.020856374           15 
 1290000   0.72723505   -7.4394096    326.06683  0.021063749  0.020840809           12 
 1291000   0.75725838   -7.4091881    326.75273  0.021091707   0.02082528            4 
 1292000   0.71636726   -7.4064774    326.96296  0.021088943  0.020809767            5 
 1293000    0.7300656   -7.4123419    326.41472  0.021037298   0.02079429            4 
 1294000   0.73201986   -7.4110497    326.08504  0.020999809  0.020778906            6 
 1295000   0.72883341   -7.4405627    326.19286  0.020990531  0.020763553            4 
 1296000   0.74724402   -7.4354628    326.74644  0.021009931  0.020748243            8 
 1297000   0.74054652   -7.4073125    326.44964  0.020974662  0.020732913            6 
 1298000   0.74812278    -7.443655    326.93211  0.020989478  0.020717558            4 
 1299000   0.73780531   -7.4315463    326.93176  0.020973297  0.020702213            5 
 1300000   0.74102374   -7.4336193    326.25388  0.020913711  0.020686864            9 
 1301000   0.74259933   -7.4361323    325.26715  0.020834432  0.020671418            4 
 1302000   0.74700544   -7.4306813    325.77611  0.020851005  0.020655995           15 
 1303000   0.73812119     -7.42327    326.54438  0.020884138  0.020640597            4 
 1304000   0.72895677    -7.446176     325.9302  0.020828873  0.020625166           13 
 1305000   0.71023064   -7.4282394    327.16138  0.020891531  0.020609685           11 
 1306000   0.72561955   -7.4309887    326.76525  0.020850259  0.020594281            7 
 1307000   0.74436699   -7.4600799    326.37222  0.020809246  0.020578872            8 
 1308000   0.73819391   -7.4890518    326.52587  0.020803126    0.0205634            9 
 1309000   0.73993321   -7.4345788    326.53679  0.020787929  0.020547898            6 
 1310000   0.72734519   -7.4608421     326.5929   0.02077563  0.020532399            6 
 1311000   0.72263171   -7.4331774    325.96638  0.020719958  0.020516945            7 
 1312000   0.72595143   -7.4424151     326.1976  0.020718851  0.020501463            5 
 1313000   0.72516385   -7.4582305    326.69875  0.020734879  0.020486049            8 
 1314000   0.73426869   -7.4305902    326.75678  0.020722779  0.020470588            4 
 1315000   0.72063068   -7.4819198    325.82816  0.020648172  0.020455153            6 
 1316000   0.73139193   -7.4643591    326.41531  0.020669663  0.020439697            4 
 1317000   0.71815436   -7.4665398    326.97004  0.020689069  0.020424285            7 
 1318000   0.73213989   -7.4473991    326.37583  0.020635801  0.020408923           17 
 1319000   0.72631443   -7.4459525    326.62751  0.020636057  0.020393586            4 
 1320000   0.72795427   -7.4592443    326.26905  0.020597794   0.02037819           10 
 1321000   0.72168115   -7.4410174      326.792  0.020615191  0.020362882            5 
 1322000   0.72328789   -7.4352173    326.54087  0.020583766  0.020347565            7 
 1323000   0.73297079   -7.4359886     327.0037  0.020597361  0.020332232            7 
 1324000   0.72088066   -7.4883135    327.10224  0.020588006  0.020316903            4 
 1325000   0.73686884   -7.4299916    326.86197  0.020557357  0.020301674            5 
 1326000   0.73110249   -7.4563056     327.3371  0.020571713   0.02028644            7 
 1327000   0.72572733   -7.4421259     327.2654  0.020551708   0.02027128            5 
 1328000    0.7097922   -7.4724239    326.90581  0.020513668  0.020256099            6 
 1329000   0.71478336   -7.5109226    326.33666  0.020462544  0.020240827            6 
 1330000   0.72589739   -7.4710899    327.23404  0.020503386  0.020225588            8 
 1331000   0.71021442   -7.4444457    327.26438  0.020489881  0.020210429            5 
 1332000   0.72583378    -7.487698    327.58973  0.020494853  0.020195298            4 
 1333000   0.73070268   -7.4859812     327.4572  0.020471193  0.020180177            7 
 1334000     0.730734   -7.4547367    327.09659   0.02043332  0.020165049            7 
 1335000   0.71488134   -7.4808211     326.8435  0.020402216  0.020149874            8 
 1336000   0.70544993   -7.4879814    326.73387  0.020380107  0.020134693            9 
 1337000   0.71303441   -7.4797999    327.57976  0.020417587  0.020119618            6 
 1338000   0.71968922   -7.4660244    327.67378  0.020408182  0.020104581            4 
 1339000   0.73987438   -7.4565747    328.29598  0.020431664  0.020089555            6 
 1340000   0.71118112    -7.487785    327.97581  0.020396506  0.020074524           11 
 1341000   0.73658729   -7.4724672    328.04395   0.02038553  0.020059475           10 
 1342000     0.714679   -7.4585647    327.87932  0.020360117  0.020044433            5 
 1343000   0.70011148   -7.4609592    328.41153   0.02037798   0.02002941           12 
 1344000   0.72230666   -7.4789105    328.33855  0.020358293   0.02001442            7 
 1345000   0.72101491   -7.4683906    327.67313  0.020301929  0.019999456           17 
 1346000   0.70935807   -7.4507346    328.51131  0.020338739   0.01998447           12 
 1347000   0.72099286    -7.470196    328.52489   0.02032448  0.019969567           12 
 1348000   0.72444585   -7.4915824    328.59301  0.020313614  0.019954638            5 
 1349000   0.69859649   -7.4846879    327.49557  0.020230762  0.019939664           19 
 1350000   0.69758197   -7.4925057    328.46416  0.020275566  0.019924747            8 
 1351000   0.71243284   -7.4790768    329.01365  0.020294452  0.019909895           15 
 1352000   0.72228383   -7.4581858     328.8868  0.020271622  0.019895079            4 
 1353000   0.72550654   -7.4788641    328.24938   0.02021738  0.019880218            6 
 1354000   0.70301504   -7.4736143    328.37877  0.020210412  0.019865375            7 
 1355000   0.71587275   -7.4481917    328.73411   0.02021735  0.019850561            6 
 1356000     0.715177   -7.4632809    328.76052  0.020204063  0.019835723            6 
 1357000   0.70794179    -7.481211    328.38998   0.02016642  0.019820914            7 
 1358000   0.71604263   -7.4927402    328.30511  0.020146362  0.019806072           18 
 1359000   0.70429085   -7.4980561     328.5346   0.02014561  0.019791223           11 
 1360000   0.70608195   -7.5027743    328.55518  0.020132058  0.019776439            8 
 1361000   0.70033707    -7.500652    329.21108  0.020157426   0.01976169            8 
 1362000   0.71025418   -7.4727648    328.51124  0.020099806  0.019746975            6 
 1363000   0.72066619   -7.5080275    328.40671  0.020078669  0.019732238            8 
 1364000   0.70882105   -7.5023261    329.28667  0.020117709  0.019717539            8 
 1365000   0.71487973   -7.4938575      328.934  0.020081441  0.019702817           17 
 1366000   0.71947531   -7.4993844    329.05153   0.02007391  0.019688123            7 
 1367000   0.70726518   -7.5140416     328.7473  0.020040679  0.019673399           12 
 1368000   0.71941505   -7.5050131    328.37582    0.0200034  0.019658733            8 
 1369000   0.71051458   -7.4811638    328.97862  0.020025482  0.019644098            7 
 1370000   0.69741226   -7.4905174    329.51977  0.020043781  0.019629482            6 
 1371000   0.72225285   -7.4884919    329.44557  0.020024652  0.019614968            4 
 1372000   0.71836062     -7.49352     329.6066  0.020019837  0.019600457            8 
 1373000   0.72325967   -7.4886372    329.77252  0.020015327  0.019585996            6 
 1374000   0.70526185   -7.4759331    329.03994  0.019956328   0.01957152            7 
 1375000   0.71926904   -7.5280241     329.6057  0.019976103  0.019556941           18 
 1376000   0.71689166   -7.5015879    329.21451  0.019937894  0.019542355            8 
 1377000   0.72533614   -7.4888171    329.33773  0.019930872  0.019527741            6 
 1378000   0.71288343   -7.5028462    329.70944  0.019938887  0.019513135            5 
 1379000   0.69795467   -7.4820414    329.82182  0.019931219  0.019498545           11 
 1380000   0.70270703   -7.5224346    329.75513  0.019912749  0.019483961           11 
 1381000   0.69709536   -7.5288622    329.51456  0.019883814  0.019469404           17 
 1382000   0.68937757   -7.5180465    329.86578  0.019890604  0.019454859           17 
 1383000   0.69753968   -7.5070049    329.54203  0.019856714  0.019440345           26 
 1384000   0.69457244   -7.5227749    329.68037  0.019850696  0.019425747           20 
 1385000   0.68980437   -7.5144388    329.02838  0.019797135  0.019411196           19 
 1386000   0.68436093    -7.507753    329.43688  0.019807412  0.019396694           14 
 1387000     0.706189   -7.5197998    328.74646   0.01975165  0.019382167           15 
 1388000   0.68446542   -7.5194875    329.51492  0.019783557  0.019367656           16 
 1389000    0.6885929   -7.5202166    329.38132  0.019761298  0.019353152           16 
 1390000   0.69179317   -7.5190674    329.89788   0.01977805  0.019338668           26 
 1391000   0.70577401   -7.4904973    329.89921  0.019763911  0.019324241           15 
 1392000   0.67791048   -7.4958841     330.4178  0.019780759  0.019309869            8 
 1393000   0.72531839   -7.4920659     329.6088  0.019718162  0.019295467            7 
 1394000   0.68571606   -7.4986497    329.38329  0.019690536   0.01928105           23 
 1395000   0.67924291   -7.4802287    330.46265  0.019740899   0.01926665           19 
 1396000   0.69789117   -7.5213205     330.5795  0.019733733  0.019252213           16 
 1397000   0.68908645   -7.4958882    329.52926  0.019656959  0.019237799            4 
 1398000   0.69009217   -7.5372203    329.63605  0.019649264  0.019223417           13 
 1399000   0.70128483    -7.489078    329.88916  0.019650295  0.019209064            7 
 1400000    0.6977565   -7.5261374    329.35154  0.019604258  0.019194696            8 
 1401000   0.67633373   -7.5028259    330.58049  0.019663365  0.019180321            4 
 1402000    0.6975672   -7.4993143    330.89352  0.019667946  0.019166008            5 
 1403000    0.6860635   -7.5087754    330.75322  0.019645594   0.01915173           11 
 1404000   0.69680576   -7.5040977    330.72998  0.019630222  0.019137425            6 
 1405000   0.70078176   -7.5029154    330.47983  0.019601414  0.019123134            4 
 1406000   0.67644704   -7.5110411    330.44395  0.019585345  0.019108845            9 
 1407000   0.68207576   -7.5348124    329.97662  0.019543747  0.019094571            8 
 1408000   0.69937418   -7.5570698    329.78399  0.019518465  0.019080303            9 
 1409000   0.68789706   -7.5352333    329.65518  0.019496994  0.019065957           17 
 1410000   0.69264474   -7.5350453    329.93951  0.019499971  0.019051677            7 
 1411000   0.69022997   -7.5494126    330.32545  0.019508944  0.019037403           10 
 1412000   0.68938527   -7.5335792    330.10248  0.019481969  0.019023146            8 
 1413000    0.6990433   -7.5441911    329.69509  0.019444155  0.019008858            8 
 1414000   0.68688538   -7.5495962    329.93909  0.019444784  0.018994611            6 
 1415000   0.70035037   -7.5549348    330.52873  0.019465767   0.01898036           11 
 1416000   0.67584791   -7.5124287    330.49857  0.019450245  0.018966118            4 
 1417000   0.70033093   -7.5258424    330.53292  0.019438539  0.018951896           13 
 1418000   0.68694844   -7.5344869    330.46001  0.019420546    0.0189377           21 
 1419000   0.68760896   -7.5111267    330.12201   0.01938701  0.018923495           19 
 1420000   0.68651212   -7.5393028    330.45145  0.019392691  0.018909286           10 
 1421000   0.68344435   -7.5454206    330.52189  0.019383174  0.018895055           11 
 1422000   0.69456116   -7.5500353    330.71607  0.019380923   0.01888091           16 
 1423000   0.69590056   -7.5714883    330.54923  0.019357533  0.018866734           10 
 1424000   0.69141606   -7.5672761    329.60876  0.019288902  0.018852559            6 
 1425000   0.68087752   -7.5403075     330.3729  0.019320053  0.018838394           13 
 1426000   0.68556271   -7.5743871    330.84161  0.019333895  0.018824221           12 
 1427000   0.67536115   -7.5700357    330.02964  0.019272929  0.018810053            9 
 1428000   0.66298753   -7.5311165    330.07034  0.019261808  0.018795888            7 
 1429000   0.67614182    -7.536413    330.61711  0.019280214  0.018781722            4 
 1430000   0.69292154   -7.5367608    331.51656  0.019319147  0.018767623           10 
 1431000   0.67447304   -7.5472439    330.97916  0.019274351  0.018753536           11 
 1432000    0.6826239   -7.5468665    330.36355  0.019225067  0.018739496            6 
 1433000   0.68969965   -7.5449198    330.60652   0.01922578   0.01872544            6 
 1434000   0.67916481   -7.5438357     331.5652  0.019268085  0.018711372            8 
 1435000   0.67864589   -7.5643041     330.0734  0.019168025  0.018697305            5 
 1436000   0.66973404    -7.569604    330.77811  0.019195573  0.018683229           17 
 1437000   0.67359564   -7.5449513    330.70778  0.019178136  0.018669178           16 
 1438000   0.67552183   -7.5427144    331.01645  0.019182687  0.018655138           11 
 1439000   0.67325441   -7.5549723    331.93678  0.019222653   0.01864113            7 
 1440000   0.67312833   -7.5700537    331.27324  0.019170905  0.018627141            7 
 1441000   0.66849408   -7.5668056    330.85034  0.019133145  0.018613147           11 
 1442000   0.67438695   -7.5533329    331.43943   0.01915392  0.018599172           11 
 1443000   0.67436648   -7.5643536    331.81988  0.019162617  0.018585259            8 
 1444000   0.65832547   -7.5699759    330.60015  0.019078956  0.018571325           11 
 1445000   0.68287907   -7.5571957    330.89192  0.019082579  0.018557355            3 
 1446000   0.69136053   -7.5413536    331.27432   0.01909142  0.018543441            6 
 1447000   0.66793492   -7.5630329     331.3092  0.019080235  0.018529497            5 
 1448000    0.6681008   -7.5722409    331.12648  0.019056542  0.018515539            6 
 1449000    0.6734404   -7.5685656    330.96095  0.019033871  0.018501574           11 
 1450000   0.67652872   -7.5798592    331.04052  0.019025317   0.01848761            8 
 1451000   0.66731467   -7.5477005    331.31035  0.019027702  0.018473665            7 
 1452000    0.6818363   -7.5803915    330.57478  0.018972382   0.01845969            9 
 1453000   0.67765771   -7.5655356    331.10055  0.018989478  0.018445706            7 
 1454000   0.65573539   -7.5918614    330.68505  0.018952605  0.018431718            8 
 1455000   0.66625462   -7.5594066    331.33658  0.018976895  0.018417743           10 
 1456000   0.65483428   -7.5557224    331.10823  0.018950792  0.018403796            6 
 1457000   0.67709787   -7.5686356    331.31955  0.018949871  0.018389912            6 
 1458000   0.67121878   -7.5779718    330.83099   0.01890895  0.018375991            7 
 1459000   0.68404251   -7.5817714    331.19402  0.018916725  0.018362069            8 
 1460000   0.67556217   -7.5995791    330.56277  0.018867738  0.018348159            6 
 1461000   0.65953202   -7.5980153    330.71823  0.018863691  0.018334231            7 
 1462000   0.65715922   -7.5828946    331.01188  0.018867526  0.018320322           10 
 1463000   0.67337333   -7.5891348    331.26027  0.018868778  0.018306438           16 
 1464000   0.67205888   -7.5889285    331.22955  0.018854141  0.018292547            9 
 1465000   0.67568507   -7.5826938    330.77413  0.018815366  0.018278717            5 
 1466000   0.66774757   -7.5504102    330.95547  0.018812839  0.018264899           14 
 1467000   0.66292195   -7.5584115    331.54916   0.01883374  0.018251056           16 
 1468000    0.6664894   -7.5543906    331.17124  0.018799457  0.018237201            6 
 1469000   0.66169207   -7.5745881    330.41542  0.018743784  0.018223393            4 
 1470000   0.67471472   -7.5733159    330.49152  0.018735347  0.018209558           12 
 1471000   0.66500742   -7.5913467    331.16925  0.018761004   0.01819572           11 
 1472000   0.65086626   -7.5860392    331.44505  0.018763873  0.018181924           17 
 1473000   0.67774725   -7.5721007    331.86716  0.018775015  0.018168158           15 
 1474000   0.67614684   -7.5746039    331.28009  0.018729087  0.018154423           10 
 1475000   0.66525633   -7.5876525    331.65531  0.018737588  0.018140726            7 
 1476000   0.65146008    -7.586955     331.3733  0.018708972   0.01812702           17 
 1477000    0.6583989    -7.583443     331.5918  0.018708632  0.018113295           10 
 1478000   0.66750136   -7.5818376    331.46216  0.018688665  0.018099635           16 
 1479000    0.6587954    -7.593816    331.67831  0.018688208  0.018085952           19 
 1480000   0.65572577   -7.5712651     331.5994  0.018671137  0.018072253           12 
 1481000   0.65864943   -7.5885972    331.24926  0.018638829  0.018058548           11 
 1482000   0.65694833   -7.6132795    331.66382  0.018649563  0.018044828           13 
 1483000   0.65645999   -7.6037115    331.27099  0.018614913  0.018031127           10 
 1484000   0.67664992   -7.6035802    331.16652  0.018596502  0.018017425           10 
 1485000   0.66927632   -7.5834907    331.94623  0.018627735  0.018003759           12 
 1486000   0.66433335   -7.6148536    331.09628  0.018567535  0.017990076           10 
 1487000   0.66325104   -7.5977967    331.68366  0.018587966  0.017976464           10 
 1488000   0.66716201    -7.603594    331.12735  0.018544318  0.017962847           10 
 1489000    0.6519413   -7.6038967    331.88726  0.018574393  0.017949183           11 
 1490000   0.65080454    -7.614661     331.4117   0.01853533  0.017935528           11 
 1491000   0.66178912   -7.6075143    331.65638  0.018536574  0.017921905           14 
 1492000   0.66419968   -7.6042921    331.67109  0.018524971  0.017908254            9 
 1493000    0.6697645   -7.6426231    331.44397  0.018499886  0.017894604           11 
 1494000   0.64419689   -7.6066355    331.31304  0.018480201  0.017880971            8 
 1495000   0.66181953   -7.6034627     331.3717  0.018471109  0.017867387            8 
 1496000   0.64248528    -7.620251    331.32599  0.018456216  0.017853776           10 
 1497000   0.64981035   -7.6160202     331.4077  0.018448436  0.017840197           18 
 1498000   0.65588734   -7.6013314     332.0318  0.018470839  0.017826668           23 
 1499000   0.64636624   -7.6024382    332.21849  0.018468895  0.017813178           18 
 1500000   0.66118233   -7.6311538    332.16124  0.018453402  0.017799683            9 
 1501000   0.66411145   -7.6368367     331.3542  0.018396302  0.017786181           11 
 1502000   0.65840333   -7.6463212    331.87639  0.018413026  0.017772694           17 
 1503000   0.64066916   -7.6320917    332.07215  0.018411629  0.017759223           13 
 1504000   0.65541271   -7.6145046    332.25432  0.018409481  0.017745757           27 
 1505000   0.65964159   -7.6039201    331.41699  0.018350885  0.017732311           23 
 1506000   0.65243118   -7.6311569    331.86445   0.01836346  0.017718865           22 
 1507000    0.6443072   -7.6325107    332.27707  0.018374091  0.017705399            6 
 1508000   0.64735955   -7.6359928    331.91053  0.018341652  0.017691921           14 
 1509000   0.65458876    -7.649182    331.28196  0.018294785  0.017678412            9 
 1510000   0.64222841   -7.6291053    330.62043   0.01824616  0.017664924           16 
 1511000   0.65454074    -7.630258    331.79584   0.01829891  0.017651441            8 
 1512000   0.64788154   -7.6367977    330.94992  0.018240185  0.017637991            9 
 1513000   0.64060252   -7.6427513    331.68368  0.018268544  0.017624532            9 
 1514000   0.63767349   -7.6360639    331.12233   0.01822558  0.017611054            8 
 1515000   0.64682607   -7.6382594    331.35808  0.018226517  0.017597584           12 
 1516000    0.6438675   -7.6362399    330.70013  0.018178327  0.017584101           11 
 1517000   0.64824645   -7.6134238    331.96593  0.018235878  0.017570664            7 
 1518000   0.65451873    -7.612169    331.55648  0.018201388  0.017557246           16 
 1519000   0.64525719   -7.6335463    332.23576  0.018226671  0.017543871           12 
 1520000   0.66645017   -7.6169728    331.61005  0.018180376  0.017530488           15 
 1521000   0.66104588   -7.6373001    331.57619  0.018166568  0.017517102           15 
 1522000   0.64327083   -7.6449374    331.76434  0.018164933  0.017503727            8 
 1523000   0.64052839   -7.6543541      331.858  0.018158131  0.017490354           23 
 1524000   0.64003516   -7.6241739    331.86496  0.018146597  0.017476975           15 
 1525000   0.64655439   -7.6386663    331.33598  0.018105791  0.017463592           10 
 1526000   0.63912694   -7.6151409    330.87219  0.018068599  0.017450233           16 
 1527000   0.65167581   -7.6560818    331.78333   0.01810649  0.017436875           17 
 1528000    0.6397214   -7.6176061    332.15938   0.01811515  0.017423562            5 
 1529000   0.63390366   -7.6399616    331.99453  0.018094317  0.017410261           13 
 1530000   0.63666173   -7.6488516     332.4554  0.018107592  0.017396984            6 
 1531000   0.62803534   -7.6179008    331.49676  0.018043586  0.017383728            6 
 1532000   0.62470122   -7.6191118    331.67261  0.018041374  0.017370457            4 
 1533000   0.63142854   -7.6245611    331.94246  0.018044274  0.017357205           13 
 1534000   0.63736897   -7.6400237    331.85216  0.018027606  0.017343983           12 
 1535000    0.6475545   -7.6471214    331.75809  0.018010754  0.017330751            5 
 1536000   0.63921297   -7.6397454    332.07971  0.018016478  0.017317495            6 
 1537000   0.62845123   -7.6535118     332.4971  0.018027386  0.017304266            5 
 1538000   0.63033195   -7.6390418    332.09161  0.017993693  0.017291048            7 
 1539000   0.62821146   -7.6391118    331.68434  0.017959949  0.017277808            8 
 1540000   0.65223739   -7.6495493    331.57079  0.017942142   0.01726457            6 
 1541000   0.63743193   -7.6510295    331.59045  0.017931562   0.01725129            6 
 1542000   0.62224625   -7.6711742    331.58715  0.017919755  0.017238033           12 
 1543000   0.63790564   -7.6626854    331.85836  0.017922789  0.017224761           11 
 1544000   0.65479952   -7.6599375    331.38555  0.017885662  0.017211504            7 
 1545000   0.62692237   -7.6637408    331.06817  0.017856967  0.017198263           11 
 1546000   0.63224976   -7.6292436    331.80848  0.017885321  0.017185021            6 
 1547000   0.63365246   -7.6795529    331.14634  0.017838092  0.017171795            6 
 1548000   0.63162548   -7.6689981    331.28438     0.017834  0.017158544            5 
 1549000   0.63415295   -7.6454058    331.49716  0.017833934  0.017145273            7 
 1550000   0.64376444   -7.6692462    331.22963  0.017808045  0.017132017            7 
 1551000   0.62324441   -7.6652466    331.30586  0.017800658  0.017118792            8 
 1552000   0.62877399   -7.6638584     331.3927  0.017793852  0.017105578           16 
 1553000   0.62935726   -7.6692414    330.68161  0.017744237  0.017092396           12 
 1554000   0.63566098   -7.6430573    330.95915  0.017747702  0.017079212            9 
 1555000   0.63039032   -7.6612566    331.21399  0.017749946  0.017066051           10 
 1556000   0.63698676   -7.6607119    331.61964  0.017760263  0.017052889            9 
 1557000   0.61954003   -7.6640071    331.54912  0.017745082   0.01703972            5 
 1558000   0.63004638   -7.6506386    332.42949  0.017780781  0.017026611           13 
 1559000   0.63924323   -7.6774062    331.58283   0.01772412  0.017013503           10 
 1560000   0.63127058   -7.6691629    331.29012  0.017697122  0.017000403           10 
 1561000   0.63775251   -7.6666332    331.18092  0.017679955  0.016987304            8 
 1562000   0.63749202   -7.6879683    331.17932  0.017668551  0.016974188           13 
 1563000    0.6398765   -7.6731764    330.65794  0.017629449  0.016961067           10 
 1564000   0.62656069   -7.6558836    330.89093  0.017630591  0.016947965            9 
 1565000   0.61434743   -7.6850014    331.18619  0.017635048  0.016934838            9 
 1566000   0.62725411   -7.6996966    331.25813  0.017627614  0.016921718           10 
 1567000    0.6292467   -7.6909628    331.02396  0.017603912  0.016908589            9 
 1568000   0.61796453   -7.6922942    331.04519  0.017593813  0.016895481            8 
 1569000   0.62449313   -7.6878326    332.02842  0.017634822  0.016882376           12 
 1570000   0.64443858   -7.6588983    331.52138  0.017596676   0.01686933           13 
 1571000   0.63260416   -7.6849195    330.60524  0.017536879  0.016856274           12 
 1572000   0.62786663   -7.6779579    331.19133  0.017556792   0.01684321            8 
 1573000   0.64126836    -7.675764    331.46617  0.017560191  0.016830171           11 
 1574000   0.61676285   -7.6881903    331.39878  0.017545467  0.016817138            9 
 1575000   0.62470589   -7.7083942    331.48282  0.017538773  0.016804128           10 
 1576000   0.62091747   -7.6873293    331.71446  0.017539893  0.016791114           13 
 1577000   0.63747863   -7.6764853    331.57222  0.017521255  0.016778114            8 
 1578000   0.62637767   -7.6938267    331.25384  0.017493338  0.016765123            6 
 1579000   0.63306398   -7.7010881    331.69535   0.01750556  0.016752144           10 
 1580000   0.63140422   -7.7049449    331.83018  0.017501592  0.016739177            4 
 1581000   0.61515819   -7.7000221    331.06154  0.017450007  0.016726197            9 
 1582000   0.62774121   -7.6707374    331.51462  0.017462843  0.016713255            9 
 1583000   0.61376363   -7.6560409    332.53611  0.017505586  0.016700336           19 
 1584000   0.62763817   -7.6724471    332.20019  0.017476862   0.01668744           10 
 1585000   0.62194066   -7.7094368    331.78566  0.017444041  0.016674542           15 
 1586000   0.62602611    -7.681385    332.07259  0.017448118  0.016661648           28 
 1587000   0.62628555   -7.6888021    331.70653  0.017417902  0.016648753           35 
 1588000   0.63146618   -7.6914995    331.32836  0.017387089  0.016635852           21 
 1589000   0.62762374   -7.6911933    331.72035  0.017396704  0.016622958           14 
 1590000   0.61232459   -7.7097328    331.73922  0.017386752  0.016610081           12 
 1591000   0.61130084   -7.6932576    330.86936  0.017330262  0.016597209            9 
 1592000   0.63881864   -7.7043375    331.59623  0.017357424  0.016584353           28 
 1593000   0.60889782   -7.7025137    330.89273  0.017309726  0.016571503           12 
 1594000   0.61262592   -7.7164316     331.0461  0.017306885  0.016558633           23 
 1595000   0.61135225   -7.6941741    331.93979  0.017342727  0.016545805           19 
 1596000   0.59573075   -7.6879968    332.28474  0.017349872  0.016532994           25 
 1597000   0.61570292   -7.6982566    331.55362  0.017300857  0.016520187           19 
 1598000   0.61664484   -7.6825439    330.84415  0.017253033  0.016507357           29 
 1599000     0.612688   -7.6923628    331.60645  0.017281971  0.016494576           21 
 1600000   0.60533743   -7.7026434    331.87159  0.017284979  0.016481771           21 
 1601000   0.60999215   -7.7129718    331.01281  0.017229482  0.016468961           26 
 1602000   0.60600175   -7.7028921    331.87845  0.017263756  0.016456174           20 
 1603000   0.61836579   -7.7037289    331.09309  0.017212159    0.0164434           13 
 1604000   0.60839233   -7.7141661    331.01692  0.017197471  0.016430638            9 
 1605000   0.62437342   -7.7176851    330.83297  0.017177205  0.016417877           18 
 1606000   0.61947417   -7.7138714    330.95254  0.017172714  0.016405101           45 
 1607000   0.62537247   -7.6904027      331.097  0.017169519  0.016392344           31 
 1608000   0.61997264   -7.7094081    331.25956  0.017167266   0.01637959           34 
 1609000   0.60222444   -7.7003052    331.57046  0.017172698  0.016366853           23 
 1610000    0.6073768   -7.6980135    330.90545  0.017127611  0.016354117           24 
 1611000   0.60822903   -7.7186908    330.61847  0.017102135  0.016341379           18 
 1612000   0.60860482   -7.7332663    330.73452  0.017097525  0.016328608           26 
 1613000   0.61380205    -7.725425    330.71369  0.017085849  0.016315838           19 
 1614000   0.61277253   -7.7203081    330.74372  0.017076813  0.016303086           22 
 1615000   0.61903092   -7.7413548    330.86943  0.017072726  0.016290346           24 
 1616000   0.61994542   -7.7485911    331.45394  0.017092303  0.016277601           26 
 1617000   0.60711112   -7.7271784    331.11307  0.017064166  0.016264863           21 
 1618000   0.60542354   -7.7148642    331.01089  0.017048357  0.016252136           20 
 1619000   0.61139378   -7.7235133    331.01663  0.017038122  0.016239402           18 
 1620000   0.60835543   -7.7277218    330.52966  0.017002555  0.016226696           30 
 1621000   0.60969093   -7.7446955    330.48126  0.016989578  0.016213999           24 
 1622000   0.59851398   -7.7146366    330.33099  0.016971382  0.016201324           34 
 1623000   0.60499852   -7.7429479    330.79635   0.01698482  0.016188664           35 
 1624000   0.59862214   -7.7244238    331.19492  0.016994813     0.016176           24 
 1625000   0.61440738   -7.7115162    330.86909  0.016967646  0.016163365           10 
 1626000   0.61942629   -7.7354748    330.98796  0.016963302  0.016150733           16 
 1627000   0.58935409   -7.7361555    330.92321   0.01694956  0.016138142           25 
 1628000   0.61456543   -7.7143392    331.45632  0.016966437   0.01612555           31 
 1629000   0.60843679    -7.738422    330.94302  0.016929764  0.016112957           26 
 1630000   0.60827334   -7.7652761    331.16556  0.016930755  0.016100355           25 
 1631000   0.59369307   -7.7392922    330.71066  0.016897132  0.016087782           27 
 1632000   0.60982432   -7.7244035     331.1499  0.016909207  0.016075234           38 
 1633000   0.59067035   -7.7480274    331.26385  0.016904667  0.016062667           48 
 1634000   0.60337131   -7.7308169    331.21707  0.016891936  0.016050109           19 
 1635000   0.61135772    -7.733969    330.94188  0.016867578  0.016037554           34 
 1636000   0.59929865   -7.7442944    331.20684  0.016870764  0.016025026           36 
 1637000   0.59830447   -7.7345497    330.79636  0.016839562  0.016012502           37 
 1638000   0.60047023   -7.7313054    331.49121  0.016864632   0.01600001           60 
 1639000   0.60589782   -7.7334989     331.0738   0.01683312  0.015987504           24 
 1640000   0.58645769    -7.749056    330.69963  0.016803843   0.01597499           53 
 1641000   0.58989452    -7.715009    330.51769  0.016784364    0.0159625           39 
 1642000   0.60430625   -7.7520236    331.02809  0.016800045  0.015950022           63 
 1643000   0.60497634   -7.7366794    330.58799  0.016767498  0.015937541           31 
 1644000   0.58547075   -7.7296587    331.05162    0.0167808   0.01592508           52 
 1645000   0.59031272   -7.7581101    330.93039  0.016764458  0.015912614           57 
 1646000   0.59866275   -7.7611493     330.8667  0.016751048  0.015900161           58 
 1647000   0.58537028   -7.7488405    330.87635  0.016741366  0.015887723           28 
 1648000   0.59662214    -7.747595    331.56552  0.016766056  0.015875302           54 
 1649000   0.59710583   -7.7629004    331.26895  0.016740901  0.015862902           41 
 1650000   0.59316952   -7.7343735    331.46826  0.016740821  0.015850505           28 
 1651000   0.58253801   -7.7417458    330.50409  0.016682016  0.015838117           23 
 1652000   0.59759108   -7.7604022    331.34963   0.01671457  0.015825725           30 
 1653000   0.59502126   -7.7600074    330.62388   0.01666787  0.015813359           40 
 1654000   0.59123971   -7.7420496     330.3346  0.016643218  0.015801002           22 
 1655000   0.59769905   -7.7531221    331.04772  0.016669069  0.015788658           37 
 1656000   0.58103217   -7.7571284     331.5598  0.016684773  0.015776293           28 
 1657000   0.57377049   -7.7638114    331.19136  0.016656174  0.015763949           29 
 1658000     0.597872   -7.7440315    330.51114  0.016611939  0.015751608           41 
 1659000   0.58724786   -7.7658842    331.11783    0.0166324  0.015739289           19 
 1660000   0.59381372   -7.7598164    330.47614  0.016590168  0.015726979           46 
 1661000   0.58388518   -7.7577121     331.0116  0.016607044  0.015714674           58 
 1662000   0.58439844   -7.7602855    330.43637  0.016568209  0.015702358           15 
 1663000   0.58683209   -7.7315062    330.31183  0.016552006  0.015690069           17 
 1664000   0.59783996   -7.7522475    330.66864  0.016559928  0.015677788           27 
 1665000   0.59201207   -7.7506741    330.31412  0.016532238  0.015665529           34 
 1666000   0.59747115   -7.7786522    330.43335  0.016528279   0.01565326           47 
 1667000   0.60599859   -7.7763614    330.91209  0.016542296  0.015640971           31 
 1668000    0.5891774   -7.7541933    330.95403  0.016534474  0.015628695           34 
 1669000   0.59251751   -7.7592912     330.6045  0.016507115   0.01561644           37 
 1670000   0.58239924   -7.7378088    330.90245  0.016512098  0.015604182           15 
 1671000   0.59537963   -7.7630683    330.29221  0.016471784  0.015591925           47 
 1672000    0.6011438   -7.7458626    331.20763  0.016507557  0.015579693           16 
 1673000   0.58658442   -7.7693305    330.77137   0.01647596  0.015567472           31 
 1674000    0.5739546    -7.746731    330.81168  0.016468124  0.015555266           26 
 1675000   0.57497462   -7.7505658    330.50318  0.016442944   0.01554307           36 
 1676000   0.58166618   -7.7605027    330.60011  0.016437953  0.015530865           43 
 1677000   0.57757678   -7.7622281    331.23006  0.016459455  0.015518673           22 
 1678000   0.59268605   -7.7699257    330.82521   0.01642954  0.015506477           29 
 1679000   0.59188889   -7.7703293    330.32263   0.01639481  0.015494292           51 
 1680000   0.59206006   -7.7635576     330.2172  0.016379822   0.01548211           30 
 1681000   0.58962389   -7.7646541    331.00451  0.016409107  0.015469946           29 
 1682000   0.57647277   -7.7762875    330.21933   0.01636045  0.015457805           38 
 1683000   0.56875326   -7.7686115    330.44244  0.016361776  0.015445676           37 
 1684000    0.5749951   -7.7814765    331.05042  0.016382147  0.015433548           21 
 1685000   0.58408276      -7.7757    330.53718  0.016347041  0.015421405           23 
 1686000   0.57900461    -7.791737    330.37228  0.016329195  0.015409304           33 
 1687000   0.58946418   -7.7861707    330.39375  0.016320576  0.015397206           37 
 1688000   0.58006393   -7.7766056    330.79415  0.016330675  0.015385109           15 
 1689000   0.58604126   -7.7896246    330.48286  0.016305647  0.015373033           23 
 1690000   0.57767753   -7.7677599    330.51103  0.016297388  0.015360969           27 
 1691000   0.58136804   -7.7864713    330.45372  0.016284926  0.015348917           41 
 1692000   0.58536076   -7.7748612      330.298  0.016267632   0.01533686           34 
 1693000   0.57880495   -7.7820665    330.40656  0.016263367  0.015324817           24 
 1694000   0.58519045   -7.7738698    330.71848  0.016269111  0.015312782           28 
 1695000   0.58730446   -7.8036504    330.74336  0.016260735  0.015300757           34 
 1696000   0.57198946   -7.7780884    330.22089  0.016225476  0.015288747           17 
 1697000   0.56817267   -7.7834786     330.1058  0.016210263   0.01527672           15 
 1698000   0.57946497   -7.7990038     330.7787  0.016233741  0.015264702           23 
 1699000   0.56793849   -7.7881522    330.45865  0.016208488  0.015252687           23 
 1700000   0.55908723   -7.7862288    329.97526  0.016175258   0.01524069           20 
 1701000   0.57744251   -7.7816784    330.52932  0.016192893   0.01522871           18 
 1702000   0.57863537   -7.7842847     330.1907  0.016166799  0.015216741           23 
 1703000   0.56957955   -7.7798888     330.5788  0.016176297  0.015204784           24 
 1704000   0.57087803   -7.7960835    330.63623  0.016169612  0.015192844           33 
 1705000   0.56463109   -7.8038282    330.41063  0.016149102  0.015180894           16 
 1706000   0.58058557   -7.7960161    330.94339   0.01616566  0.015168971           33 
 1707000   0.56007269   -7.7859399    330.66457  0.016142578  0.015157049           42 
 1708000   0.58378341   -7.7869348    330.18499  0.016109728   0.01514514           35 
 1709000   0.57178695   -7.7910558    330.48881  0.016115117  0.015133229           39 
 1710000   0.56967779   -7.7984426    330.42096  0.016102386  0.015121315           35 
 1711000   0.57335941   -7.8040888    330.04258  0.016074546  0.015109408           13 
 1712000   0.57689966   -7.7835371    329.93128  0.016059739  0.015097523           32 
 1713000   0.55556672   -7.7810378    330.34632  0.016070555  0.015085648           26 
 1714000   0.58658327   -7.8120419    330.58091  0.016072584  0.015073778           21 
 1715000   0.57208663   -7.7882889    329.94137  0.016032136  0.015061918           22 
 1716000   0.56459964   -7.8055411    329.73368  0.016012708  0.015050054           36 
 1717000   0.56069149   -7.7975562    330.43177  0.016037263  0.015038209           44 
 1718000   0.56900223   -7.8112635      330.012  0.016007567  0.015026354           31 
 1719000   0.55979936   -7.7972773     330.2455  0.016009574  0.015014499           23 
 1720000   0.57041957   -7.8047679    330.32804  0.016004265  0.015002664           28 
 1721000   0.56174227   -7.8234617    330.30923  0.015994055  0.014990853           17 
 1722000   0.56442916    -7.810721    330.46273  0.015992196  0.014979051           39 
 1723000   0.56986572   -7.8005858    329.85773  0.015953653  0.014967244           32 
 1724000   0.57678776   -7.8200921    329.74505  0.015938952  0.014955441           40 
 1725000   0.55347657   -7.7989138    330.37151  0.015959977   0.01494366           26 
 1726000   0.56921929   -7.7946726    330.56472  0.015960058  0.014931873           44 
 1727000   0.57442528   -7.8224543    329.64555  0.015906464  0.014920098           34 
 1728000    0.5628769   -7.8123804    330.08521  0.015918461   0.01490833           33 
 1729000   0.56977828   -7.8050623    329.51106  0.015881582  0.014896562           41 
 1730000   0.56630115   -7.8161888    329.78018  0.015885365  0.014884795           48 
 1731000     0.558613   -7.8308622    330.37757  0.015904948  0.014873047           68 
 1732000   0.57441392   -7.8359754    329.60022  0.015858363   0.01486129           37 
 1733000   0.57815662   -7.8329004    329.87719  0.015862531   0.01484953           34 
 1734000    0.5539785   -7.8197989    330.19903   0.01586885  0.014837796           27 
 1735000    0.5587524   -7.8153761    329.87646  0.015844211  0.014826079           38 
 1736000   0.55635577   -7.8136966    329.00869  0.015793428  0.014814384           38 
 1737000    0.5540557   -7.8366269    329.40037  0.015803126  0.014802684           30 
 1738000   0.56008835   -7.8124462    329.80306  0.015813342   0.01479098           44 
 1739000   0.56728654   -7.8353073    329.85786  0.015806875  0.014779305           30 
 1740000   0.55720885   -7.8241844    329.58484  0.015784715  0.014767614           25 
 1741000   0.56849982   -7.8331457    329.98453  0.015794779  0.014755933           38 
 1742000   0.55177678   -7.8316601    330.06316  0.015789474  0.014744262           35 
 1743000   0.55540138   -7.8098553    329.58177    0.0157574  0.014732622           55 
 1744000   0.57396445   -7.8289386    329.51186  0.015745024  0.014720986           40 
 1745000   0.56553761   -7.8205856    329.81695  0.015750571  0.014709367           55 
 1746000   0.55491956   -7.8093356    329.82858  0.015742105  0.014697754           47 
 1747000   0.55827411   -7.8306821    329.25748  0.015705852  0.014686146           58 
 1748000   0.54210174   -7.8366549     329.5308  0.015709897  0.014674535           49 
 1749000   0.56318286   -7.8102945    329.94259  0.015720535  0.014662952           39 
 1750000   0.55365642   -7.8150345    329.27813  0.015679911  0.014651375           71 
 1751000   0.55318046   -7.8370087    329.45045  0.015679157  0.014639802           31 
 1752000   0.55779847   -7.8372384     329.6139  0.015677982  0.014628233           55 
 1753000   0.55269261   -7.8336453    329.51472  0.015664324   0.01461669           29 
 1754000   0.55710013   -7.8340052    329.94657  0.015675911  0.014605143           37 
 1755000   0.56004363   -7.8513925    329.19699  0.015631386  0.014593608           34 
 1756000   0.54415412   -7.8241262     329.0687  0.015616396   0.01458208           42 
 1757000   0.54567004   -7.8450621    329.02809  0.015605582  0.014570568           21 
 1758000   0.54378757   -7.8340555    329.45556  0.015616968  0.014559069           21 
 1759000   0.53962351   -7.8269098    329.36303  0.015603706  0.014547579           37 
 1760000   0.55873828   -7.8411231    329.16204  0.015585324  0.014536103           22 
 1761000   0.55063013   -7.8035427    329.77195  0.015605336  0.014524637           16 
 1762000   0.54330331   -7.8487067     328.9713  0.015558613  0.014513152           34 
 1763000   0.56049356   -7.8626624    329.56627   0.01557791  0.014501693           10 
 1764000   0.54666144   -7.8441656    329.76659  0.015578543  0.014490214           17 
 1765000   0.55512598   -7.8317045    329.58228  0.015561014  0.014478766           22 
 1766000   0.55303838   -7.8360936    328.82833  0.015516626  0.014467329           18 
 1767000   0.55013312   -7.8412108    329.71301  0.015549567  0.014455906           24 
 1768000   0.54357336   -7.8388998    329.13794  0.015513666  0.014444481           34 
 1769000   0.53914264   -7.8390369    329.18662   0.01550719  0.014433079           20 
 1770000   0.55167932   -7.8473136    329.19568  0.015498855  0.014421675            7 
 1771000   0.54861002   -7.8371983    329.49559  0.015504216  0.014410292           11 
 1772000   0.54780151   -7.8489368    329.05863  0.015474917  0.014398902           45 
 1773000   0.54200554   -7.8266012    328.99856  0.015463365  0.014387521           22 
 1774000   0.53079318    -7.850779    329.18849  0.015463571  0.014376151           13 
 1775000   0.54037639   -7.8489787     329.3963  0.015464615  0.014364796           22 
 1776000   0.53985486   -7.8642887    329.17171  0.015445369  0.014353457           14 
 1777000   0.53689213   -7.8347227    329.16933  0.015436566  0.014342099           25 
 1778000   0.54534294   -7.8219217    329.49119  0.015442969  0.014330782            8 
 1779000   0.54725762   -7.8629691    329.51353  0.015435335  0.014319456           17 
 1780000   0.54915876   -7.8530518    329.27875  0.015415672  0.014308144           11 
 1781000   0.54074313   -7.8653292    329.14518  0.015400766  0.014296833           16 
 1782000   0.55613967   -7.8631194    329.52408  0.015409843  0.014285533           13 
 1783000   0.53721757   -7.8659222    329.00923  0.015377137  0.014274242           22 
 1784000   0.53286141   -7.8549224    329.20132  0.015377491  0.014262959           26 
 1785000   0.54404376   -7.8453909    329.86386  0.015399807  0.014251693           25 
 1786000   0.54334383   -7.8583574    329.03685  0.015352596  0.014240432           19 
 1787000   0.53746129   -7.8457163    328.78007  0.015332031  0.014229189           29 
 1788000   0.53624594    -7.842209    329.41921  0.015353245  0.014217958           19 
 1789000   0.53376547   -7.8606169     328.6937  0.015310868  0.014206724           13 
 1790000   0.54113863   -7.8560883    329.17866  0.015324891  0.014195512           21 
 1791000   0.54991309   -7.8604148    329.11137  0.015313203  0.014184293           14 
 1792000   0.52912325    -7.859248    329.83742  0.015338422   0.01417309           13 
 1793000   0.54902786   -7.8626359    329.15496  0.015298149  0.014161908           22 
 1794000   0.53650897   -7.8621366    328.99115  0.015282012  0.014150729           29 
 1795000   0.54111227   -7.8627425    329.08324  0.015277773   0.01413956           14 
 1796000   0.54910119   -7.8667953    328.95395  0.015263268  0.014128392           34 
 1797000   0.54352038   -7.8884273    329.08725  0.015260956  0.014117239           10 
 1798000   0.53672592   -7.8735236    329.15401  0.015255562   0.01410609           32 
 1799000   0.53580619   -7.8577028    328.92572  0.015236507  0.014094959           17 
 1800000   0.54030719   -7.8602487    328.33432  0.015200663  0.014083833           36 
 1801000   0.53509101   -7.8775917    328.99716  0.015222893  0.014072717           30 
 1802000   0.52697364   -7.8592947    329.14534  0.015221298  0.014061611           14 
 1803000   0.52975168   -7.8529131    328.65185  0.015190047  0.014050512           21 
 1804000   0.52897611    -7.871173    328.73037  0.015185254  0.014039426           26 
 1805000   0.52032073   -7.8788518    328.98287  0.015188498  0.014028345           26 
 1806000   0.53758268   -7.8588937    328.61128  0.015162942  0.014017264           40 
 1807000   0.51929603   -7.8811575    329.37163  0.015189616  0.014006203           39 
 1808000   0.53874063   -7.8681309    328.59067  0.015145219  0.013995133           35 
 1809000   0.53071391   -7.8702401    329.03501  0.015157316  0.013984068           19 
 1810000   0.52070176   -7.8630645    329.05221  0.015149733   0.01397302           22 
 1811000   0.53322997   -7.8879384    329.36424  0.015155726  0.013961987            9 
 1812000   0.52472867   -7.8738856     328.5449  0.015109681   0.01395096           11 
 1813000   0.52710906   -7.8637479    328.97047  0.015120908  0.013939934           15 
 1814000   0.53457111   -7.8673184     328.9918  0.015113552   0.01392893           18 
 1815000   0.51738874   -7.8875503    328.85416  0.015098905  0.013917927            7 
 1816000   0.52704719   -7.8931584    328.47758   0.01507331  0.013906918           13 
 1817000   0.53743198   -7.8729757    328.67289  0.015073972  0.013895924           21 
 1818000   0.52124614   -7.8693652    328.62493  0.015063482  0.013884944           33 
 1819000   0.51942519   -7.8974262     329.1458  0.015079064  0.013873972           14 
 1820000   0.50889042   -7.8805741    328.84823  0.015057153  0.013863002           15 
 1821000   0.54038601   -7.8729831    328.22264  0.015020256  0.013852065           16 
 1822000   0.51097219   -7.8716418    328.55418  0.015027176  0.013841122           36 
 1823000   0.52471895   -7.8765962    328.04058  0.014995455  0.013830199           24 
 1824000   0.53001832   -7.8868397    328.90673  0.015026806  0.013819274           19 
 1825000   0.52062327    -7.873317    327.93767  0.014974323  0.013808365           30 
 1826000   0.52343945   -7.8670868    328.94721  0.015012195   0.01379747           16 
 1827000   0.53306172   -7.8937946     328.6111  0.014988647  0.013786589           29 
 1828000   0.52244501   -7.8690097    328.65343  0.014982377   0.01377571           27 
 1829000   0.52288163   -7.8685611    328.78211  0.014980049  0.013764837           11 
 1830000    0.5350127   -7.8694964    328.76525  0.014971095  0.013753972           15 
 1831000   0.52169154   -7.8736431    329.39838  0.014991734  0.013743114           36 
 1832000   0.51555521   -7.8815916    328.73946  0.014953578  0.013732259           22 
 1833000   0.52052169   -7.8686009    328.46636  0.014933004  0.013721432           23 
 1834000   0.51384785   -7.8871253    329.15314  0.014956068  0.013710607           36 
 1835000   0.52063047   -7.8875453    328.62141   0.01492377  0.013699788           20 
 1836000   0.52113557   -7.8792346    328.85783  0.014926372  0.013688998           17 
 1837000   0.52556103   -7.8862491    328.06639  0.014882344  0.013678203           32 
 1838000   0.51438868   -7.9054569    328.56178  0.014896707  0.013667413           17 
 1839000   0.52669707   -7.8909936     328.9449  0.014905968  0.013656655           14 
 1840000   0.51736223   -7.8857339    328.44185  0.014875084  0.013645899           25 
 1841000   0.52260195   -7.8980518    328.29121  0.014860185  0.013635141           15 
 1842000   0.51482449   -7.8817594    328.66179  0.014868883  0.013624393           12 
 1843000   0.51358992   -7.8858996    328.50975  0.014853941  0.013613659           12 
 1844000   0.52135143    -7.882333    328.88538  0.014862861  0.013602933           13 
 1845000   0.51632162   -7.8691458    328.51501  0.014838076   0.01359222           20 
 1846000   0.50978244   -7.8879895    328.57246  0.014832632  0.013581509           18 
 1847000   0.52059771   -7.8964346    328.93737  0.014841065  0.013570818            6 
 1848000   0.52810606   -7.9013671    328.20059   0.01479981   0.01356012           18 
 1849000   0.51404858   -7.8738253    329.01512  0.014828516  0.013549443           25 
 1850000   0.52087928   -7.8782251     328.3973  0.014792671  0.013538766           11 
 1851000   0.51919777   -7.8975581    328.41839  0.014785629  0.013528105           10 
 1852000   0.52232322   -7.8832153     328.0449  0.014760839  0.013517456           15 
 1853000   0.51854803   -7.8843172     328.4462  0.014770921  0.013506812           14 
 1854000   0.53128901   -7.8933679    328.43192  0.014762312  0.013496179           24 
 1855000   0.50662076   -7.9003605    328.47068  0.014756095   0.01348556            8 
 1856000   0.51119003    -7.884739    328.65171  0.014756273  0.013474942           19 
 1857000   0.51896136   -7.8965637    328.55477  0.014743976  0.013464338           13 
 1858000   0.51911025   -7.8979293    328.43515  0.014730676  0.013453751            7 
 1859000   0.51171987    -7.919056    328.20471  0.014712422  0.013443157           10 
 1860000   0.51389864   -7.9155171    328.69401  0.014726434   0.01343256            7 
 1861000   0.50653973   -7.9052604    328.27435  0.014699729  0.013421975            8 
 1862000   0.51849143   -7.9084192    328.42966  0.014698785  0.013411409           13 
 1863000   0.50298343   -7.9038086    328.30551  0.014685342  0.013400847           10 
 1864000   0.51326089   -7.9201222    328.19262  0.014672417  0.013390294           12 
 1865000   0.51341562    -7.915022    327.96411  0.014654339  0.013379756            6 
 1866000   0.51141596   -7.9171341    328.36499  0.014664388  0.013369222           11 
 1867000   0.51800368   -7.8962029    328.77551  0.014674858  0.013358716           19 
 1868000   0.51242873   -7.9093824    328.24411  0.014643295  0.013348211           13 
 1869000   0.50968108   -7.9035585    327.88903  0.014619628   0.01333771            9 
 1870000   0.51230825   -7.9015995    328.17774  0.014624677  0.013327221           14 
 1871000   0.50062139   -7.9112411    328.07178   0.01461214  0.013316723           12 
 1872000   0.51285652   -7.9387861    328.27091  0.014613199  0.013306239           17 
 1873000   0.49526918   -7.9041321    328.29293  0.014606377  0.013295761            9 
 1874000   0.50483928   -7.9266521    328.60872  0.014612625  0.013285297           24 
 1875000   0.49382926   -7.9239171    328.07509  0.014581115  0.013274838           15 
 1876000   0.50343558     -7.92428     328.0977  0.014574347  0.013264394           14 
 1877000   0.50524337   -7.9237404    327.95812  0.014560385  0.013253949           14 
 1878000   0.50316306   -7.9187513    327.91731  0.014550821  0.013243521           12 
 1879000   0.49452489   -7.9151572    327.84676  0.014539948  0.013233099           10 
 1880000   0.50612893   -7.9159939    328.17163  0.014546615   0.01322268           16 
 1881000   0.50148714   -7.9328496    327.51352  0.014509725   0.01321227            8 
 1882000   0.49731741   -7.9215009     328.1903  0.014531983  0.013201875           10 
 1883000   0.50522613   -7.9336642     328.0428  0.014517738  0.013191493           14 
 1884000   0.49372471   -7.9388804    327.61785  0.014491235  0.013181105           12 
 1885000     0.507389   -7.9173464     328.1075  0.014505195  0.013170727           14 
 1886000   0.51259761   -7.9386019     327.9235  0.014489374  0.013160366           16 
 1887000    0.4934153   -7.9237636    328.11482  0.014490144  0.013150005           11 
 1888000   0.49958443   -7.9311952    327.79707  0.014468444  0.013139655           16 
 1889000   0.49228722   -7.9505469    327.55883  0.014450275  0.013129314           15 
 1890000   0.50201657   -7.9281802    327.89545  0.014457471  0.013118982           20 
 1891000   0.49523075   -7.9443622    328.11452   0.01445948  0.013108657           16 
 1892000    0.4911986    -7.923963     327.9494  0.014444565  0.013098344           18 
 1893000   0.49826677   -7.9490508    327.69845  0.014425887  0.013088043           12 
 1894000   0.49704165   -7.9224077    327.83497  0.014424277  0.013077761           16 
 1895000    0.5011035   -7.9266499    328.01521  0.014424591  0.013067476           20 
 1896000   0.50764976   -7.9313491    328.12802  0.014421942  0.013057203           19 
 1897000    0.4950329   -7.9459282     328.0107  0.014409185   0.01304695           15 
 1898000   0.50224862   -7.9082975    327.56919  0.014382209  0.013036706           15 
 1899000   0.48139077   -7.9356493    327.89423  0.014388899  0.013026455           15 
 1900000   0.49805905   -7.9564939    328.07695   0.01438934  0.013016209           10 
 1901000   0.49701613   -7.9397224    327.82307  0.014370641  0.013005983           11 
 1902000   0.49044384   -7.9197665    327.88935   0.01436599  0.012995766           15 
 1903000   0.49807414   -7.9432013    327.88471  0.014358237  0.012985554            9 
 1904000   0.50074023   -7.9427843    327.59512  0.014338022   0.01297535           17 
 1905000   0.49951733    -7.937185    327.25589  0.014315656  0.012965153           13 
 1906000   0.49892296   -7.9411244    327.21828    0.0143065  0.012954965            7 
 1907000   0.48338278   -7.9331384    327.74818  0.014322154   0.01294478           11 
 1908000   0.49541677   -7.9445773    327.61371  0.014308775   0.01293461           11 
 1909000   0.49004943   -7.9498077     327.7559  0.014307487  0.012924448            7 
 1910000   0.49233955   -7.9593679    327.45819  0.014287007  0.012914307           10 
 1911000   0.49099954   -7.9341886    327.72974  0.014291372  0.012904167            9 
 1912000   0.49198559   -7.9291151    327.34388   0.01426708  0.012894041            8 
 1913000   0.47883786   -7.9433319    327.51439   0.01426705  0.012883918           11 
 1914000   0.47650162   -7.9414718    327.29945  0.014250237  0.012873809           19 
 1915000   0.49019048   -7.9235182    327.35875  0.014245376  0.012863703           12 
 1916000   0.49212431   -7.9466874    327.56473    0.0142469    0.0128536           16 
 1917000   0.47391713   -7.9581141    328.04259  0.014260241  0.012843506           13 
 1918000   0.49140852   -7.9565753     327.6406  0.014235341  0.012833432           16 
 1919000   0.48887836   -7.9447514    327.15836  0.014206981  0.012823362           26 
 1920000   0.49431148   -7.9568729    327.89222  0.014231433  0.012813306           12 
 1921000    0.4796737   -7.9375767    327.17108  0.014192742  0.012803263           15 
 1922000   0.47631018   -7.9664045    327.53531   0.01420115  0.012793217           17 
 1923000   0.48976827   -7.9580082    327.73792  0.014202545   0.01278319           24 
 1924000   0.48748467    -7.949291    327.24295  0.014173724  0.012773168           25 
 1925000   0.48797955   -7.9320297    327.00987  0.014156271  0.012763161           42 
 1926000   0.49069761   -7.9392852    327.39737  0.014165687  0.012753165           25 
 1927000   0.48674959   -7.9625986    327.44988  0.014160607   0.01274315           16 
 1928000   0.48361847   -7.9537942    327.33599   0.01414834  0.012733165           19 
 1929000   0.47470902   -7.9458426    327.50493  0.014148304  0.012723191           15 
 1930000    0.4838296   -7.9500495     326.7329  0.014107638  0.012713217           31 
 1931000   0.46945731   -7.9637107    327.54864  0.014135536  0.012703254           11 
 1932000   0.47307241   -7.9587451    327.57954  0.014129552  0.012693299           19 
 1933000   0.48557373   -7.9440584    327.03819  0.014098904  0.012683366           15 
 1934000   0.47618515   -7.9730432    327.73695  0.014121723  0.012673432           33 
 1935000   0.48934347   -7.9508315    327.15043  0.014089166  0.012663513           12 
 1936000   0.48791792    -7.938293    327.63739  0.014102849  0.012653603           16 
 1937000   0.47379113   -7.9468605    327.50366  0.014089815  0.012643711           13 
 1938000   0.47600446    -7.956309      327.264   0.01407224  0.012633819           16 
 1939000   0.47363578   -7.9592158    327.58949  0.014078971  0.012623934           16 
 1940000   0.48030714   -7.9521132    327.27697  0.014058289   0.01261406           13 
 1941000   0.47415818   -7.9604142      327.141  0.014045208  0.012604195           17 
 1942000   0.48359149   -7.9566916    327.63319  0.014059097  0.012594342           12 
 1943000   0.48014768   -7.9630707    327.52277  0.014047125  0.012584499           16 
 1944000   0.47855377   -7.9600101    326.91652  0.014013911  0.012574667           19 
 1945000    0.4737729   -7.9448624    327.12494  0.014015636  0.012564841           13 
 1946000   0.48606876   -7.9591356    327.09419  0.014007117  0.012555018           32 
 1947000   0.46770614   -7.9629195    326.92716  0.013992774  0.012545211           43 
 1948000   0.48297193   -7.9674002     327.0221  0.013989652  0.012535408           13 
 1949000   0.47621308   -7.9803699    327.33683  0.013995931  0.012525616           26 
 1950000   0.47630313   -7.9588458    327.15624  0.013981036  0.012515829           32 
 1951000   0.46735224    -7.956835    327.41217  0.013984801  0.012506059           19 
 1952000   0.47566843   -7.9586563     327.2715  0.013971632    0.0124963           19 
 1953000   0.47006483   -7.9698132    327.28006  0.013964843  0.012486547           18 
 1954000   0.47634352   -7.9771565    327.34337  0.013960396   0.01247681           29 
 1955000   0.47055968   -7.9719839    327.77795   0.01397178  0.012467077           28 
 1956000   0.47019611   -7.9619914    327.40125  0.013948588  0.012457352           47 
 1957000   0.46665064   -7.9624835     327.3792  0.013940521  0.012447634           49 
 1958000   0.47936949   -7.9756387    326.75265  0.013906735  0.012437919           26 
 1959000   0.47727475   -7.9811907    327.52793  0.013932616  0.012428223           22 
 1960000   0.47362102   -7.9817258    327.35561   0.01391818  0.012418533           33 
 1961000   0.46145158   -7.9814231    327.44562  0.013914908  0.012408867           54 
 1962000   0.47142733   -7.9670643     327.3479  0.013903665  0.012399204           11 
 1963000    0.4673765   -7.9587827    327.25071  0.013892457  0.012389546           36 
 1964000   0.46380012   -7.9657345    327.47869  0.013895056  0.012379902           62 
 1965000   0.47217094   -7.9626072    327.43344  0.013886066  0.012370259           21 
 1966000   0.47309815   -7.9687996    326.82206  0.013853088  0.012360623           37 
 1967000   0.47354485   -7.9998859    326.73037  0.013842161   0.01235099           21 
 1968000   0.46061324   -7.9689976    326.93163   0.01384365  0.012341367           23 
 1969000   0.47484584   -7.9794492    327.34224  0.013853997  0.012331755           40 
 1970000   0.46372476   -7.9739897    327.00835  0.013832841   0.01232215           14 
 1971000   0.46917197   -7.9867431    327.19842  0.013833858  0.012312559           37 
 1972000   0.45814854   -7.9658918    327.00187  0.013818538  0.012302973           33 
 1973000   0.47084248   -7.9686338    326.36487  0.013784629  0.012293398           49 
 1974000   0.47087454   -7.9715331    326.90391  0.013800401  0.012283842           16 
 1975000   0.46665758   -7.9791719    327.16949   0.01380462  0.012274287           16 
 1976000   0.45983949   -7.9812913    327.10714  0.013795004  0.012264745           10 
 1977000   0.47021273   -7.9815618    327.40891  0.013800746  0.012255212           17 
 1978000   0.45906129   -7.9553897    327.11667  0.013781457  0.012245681           30 
 1979000   0.46717747   -7.9824121    327.30944  0.013782611  0.012236158           13 
 1980000   0.46457888     -7.98916    326.52351  0.013742572  0.012226641           24 
 1981000   0.46857767   -7.9859648     327.3646  0.013771016  0.012217131           20 
 1982000   0.45538187   -7.9916748    326.91062  0.013744981  0.012207637           14 
 1983000   0.45723062   -7.9840097    327.10079  0.013746041  0.012198151           17 
 1984000   0.46662659    -7.986795     326.9975  0.013734774  0.012188672           22 
 1985000   0.46118581   -8.0060719    327.09002  0.013731739    0.0121792           31 
 1986000   0.46359897   -7.9848836    327.25183  0.013731614  0.012169739           34 
 1987000   0.47363764    -7.970239    326.95008  0.013712048  0.012160277           32 
 1988000   0.46588602   -7.9907618    326.88664  0.013702492  0.012150834           19 
 1989000   0.45646588   -7.9934193    326.61406  0.013684182  0.012141391           31 
 1990000   0.46011633   -7.9916843    326.74303  0.013682706  0.012131957           56 
 1991000    0.4607443   -7.9850113    326.86285  0.013680849  0.012122533           16 
 1992000   0.46106261   -7.9887593    327.08563  0.013683301  0.012113117           36 
 1993000   0.45595679   -7.9802475    326.63992  0.013657799  0.012103722           24 
 1994000   0.45989139    -7.982753    326.72973  0.013654703  0.012094316           27 
 1995000   0.46327854   -7.9943043    327.29243  0.013671363  0.012084931           14 
 1996000   0.44354138   -7.9874804    326.51924  0.013632233  0.012075552           46 
 1997000   0.46558082   -7.9870357    326.95709  0.013643678  0.012066183           43 
 1998000   0.46003883   -7.9825913    326.73152  0.013627441  0.012056822           23 
 1999000   0.44729422   -7.9969179    326.84918  0.013625529  0.012047474           23 
 2000000   0.46065272   -8.0033486     326.3935  0.013599729   0.01203813           28 
 2001000    0.4573106   -8.0027031    326.54994  0.013599448  0.012028796           44 
 2002000   0.43818292   -7.9807539    327.05713  0.013613767  0.012019475           45 
 2003000   0.45291527   -7.9925913    326.46687  0.013582413  0.012010156           27 
 2004000   0.46752093   -8.0106764    326.55718   0.01357939   0.01200084           63 
 2005000   0.44786321    -8.009145    326.54638  0.013572169  0.011991544           61 
 2006000   0.45212407   -8.0089891    326.52146  0.013564368   0.01198224           13 
 2007000   0.45477494   -7.9941129    326.62101  0.013561743  0.011972953           12 
 2008000    0.4511988   -8.0170621    326.86589  0.013565152  0.011963671           37 
 2009000   0.44389561   -7.9989093    326.85174  0.013557812  0.011954402           58 
 2010000   0.44363707   -7.9985217    327.00362  0.013557364  0.011945149           45 
 2011000   0.45095634   -8.0118855    327.00363  0.013550623   0.01193589           21 
 2012000   0.44341898   -7.9875306    327.13964  0.013549521  0.011926644           58 
Loop time of 4495.94 on 48 procs for 2000000 steps with 4000 atoms

Performance: 76869.372 tau/day, 444.846 timesteps/s
99.4% CPU use with 48 MPI tasks x no OpenMP threads

MPI task timing breakdown:
Section |  min time  |  avg time  |  max time  |%varavg| %total
---------------------------------------------------------------
Pair    | 276.38     | 294.83     | 308.6      |  39.2 |  6.56
Neigh   | 28.554     | 29.202     | 29.903     |   6.3 |  0.65
Comm    | 259.44     | 277.47     | 292.87     |  40.3 |  6.17
Output  | 4.0179     | 4.0195     | 4.0525     |   0.2 |  0.09
Modify  | 3834.5     | 3845       | 3854.6     |   9.1 | 85.52
Other   |            | 45.41      |            |       |  1.01

Nlocal:        83.3333 ave          90 max          74 min
Histogram: 1 1 2 6 3 9 12 8 3 3
Nghost:        1870.00 ave        1908 max        1849 min
Histogram: 7 6 4 15 4 5 3 3 0 1
Neighs:        11648.7 ave       13461 max        9919 min
Histogram: 4 0 3 9 6 14 3 7 0 2
FullNghs:      23297.0 ave       25408 max       20480 min
Histogram: 2 2 2 4 7 7 9 11 1 3

Total # of neighbors = 1118256
Ave neighs/atom = 279.56400
Neighbor list builds = 107607
Dangerous builds = 0

#clear
#
#next RN
#
#jump SELF
Total wall time: 1:14:59
