
units lj                  # Use reduced LJ style units
atom_style atomic         # Uncharged point particles
atom_modify map hash      # Needed for indexing of clusters etc
                          # Used to be able to find where atoms are in relation to each other.

lattice fcc 1.0 spacing 1 1 1
Lattice spacing in x,y,z = 1.5874011 1.5874011 1.5874011
region box block 0 10 0 10 0 10 units lattice
create_box 2 box
Created orthogonal box = (0.0000000 0.0000000 0.0000000) to (15.874011 15.874011 15.874011)
  3 by 4 by 4 MPI processor grid
create_atoms 1 box
Created 4000 atoms
  using lattice units in orthogonal box = (0.0000000 0.0000000 0.0000000) to (15.874011 15.874011 15.874011)
  create_atoms CPU = 0.009 seconds
set type 1 type/fraction 2 0.14 78393
Setting atom values ...
  590 settings made for type/fraction
mass 1 1.0
mass 2 1.0
pair_style lj/cut  3.5
pair_modify tail  yes
pair_coeff 1  1  1.0  1.0   # Intearaction between 1 and 1 set with epsilon = 1 and sigma = 1
pair_coeff 1  2  1.5  0.8
pair_coeff 2  2  0.5  0.88

write_data data.0
System init for write_data ...
Neighbor list info ...
  update every 1 steps, delay 10 steps, check yes
  max neighbors/atom: 2000, page size: 100000
  master list distance cutoff = 3.8
  ghost atom cutoff = 3.8
  binsize = 1.9, bins = 9 9 9
  1 neighbor lists, perpetual/occasional/extra = 1 0 0
  (1) pair lj/cut, perpetual
      attributes: half, newton on
      pair build: half/bin/atomonly/newton
      stencil: half/bin/3d
      bin: standard
WARNING: Not all mixed pair coeffs generated from mixing. Use write_data with 'pair ij' option to store all pair coeffs. (../write_data.cpp:312)


#############################
#   M E L T   S Y S T E M   #
#############################

velocity all create 2.4 9622624 mom yes dist gaussian # Assign velocities
                                                    # Temperature 2.4, random number seed, zero linear momentum
                                                                                # Gaussian distribution

timestep 0.002   # simulation timestep
thermo 1000       # output thermodynamic data every 1000 steps bf 100

# Define a fix  in this case with index 1 applied to all
# particles in the simulation. This fix is for simulations
# in the anisotropic NPT ensemble. Note that we use the MTK
# correction.
fix 1 all npt temp 2.4 2.4 0.1 iso 5.68 5.68 0.5 mtk yes tchain 5 pchain 5 # Use NPT ensemble
                                                                         # Set temperature and pressure and damping
                                                                         # Numbers of thermostats in chain and in barostat
run 10000          # run for 10000 steps
Per MPI rank memory allocation (min/avg/max) = 3.642 | 3.644 | 3.648 Mbytes
Step Temp E_pair E_mol TotEng Press Volume 
       0          2.4   -7.4253508            0   -3.8262508   -3.2887046         4000 
    1000    2.4478483   -4.7187728            0   -1.0479183    5.6719911    4681.9315 
    2000    2.4229758   -4.6658167            0   -1.0322616    5.4515112    4740.3852 
    3000    2.4284585   -4.7382593            0   -1.0964822     5.483893    4696.9698 
    4000    2.3936527   -4.7332153            0   -1.1436338     5.492533    4696.1996 
    5000    2.4130568   -4.6182752            0  -0.99959491     5.752749    4719.3532 
    6000    2.3890483   -4.7275792            0   -1.1449027    5.8810268    4646.5772 
    7000    2.3923669   -4.6916855            0   -1.1040323    5.9276125    4666.6578 
    8000    2.4390388   -4.7374435            0      -1.0798    5.6946921    4671.3149 
    9000      2.33482   -4.7084598            0   -1.2071054    5.9068558    4652.0739 
   10000    2.4037847   -4.7197452            0   -1.1149696    5.3603744    4709.0627 
Loop time of 2.24993 on 48 procs for 10000 steps with 4000 atoms

Performance: 768023.252 tau/day, 4444.579 timesteps/s
99.7% CPU use with 48 MPI tasks x no OpenMP threads

MPI task timing breakdown:
Section |  min time  |  avg time  |  max time  |%varavg| %total
---------------------------------------------------------------
Pair    | 0.93841    | 0.99026    | 1.1178     |   3.4 | 44.01
Neigh   | 0.19193    | 0.20023    | 0.22193    |   1.2 |  8.90
Comm    | 0.66682    | 0.79457    | 0.87159    |   4.8 | 35.32
Output  | 0.00024577 | 0.00024995 | 0.00031337 |   0.0 |  0.01
Modify  | 0.20913    | 0.25008    | 0.30176    |   5.6 | 11.12
Other   |            | 0.01454    |            |       |  0.65

Nlocal:        83.3333 ave          92 max          73 min
Histogram: 2 1 4 6 7 8 8 7 2 3
Nghost:        1472.83 ave        1498 max        1433 min
Histogram: 1 0 3 1 7 9 13 6 4 4
Neighs:        8098.85 ave        9011 max        6664 min
Histogram: 1 0 2 6 9 5 4 9 8 4

Total # of neighbors = 388745
Ave neighs/atom = 97.186250
Neighbor list builds = 904
Dangerous builds = 188

# Equilibrate just above the melting temperature to avoid step fn in T

fix 1 all npt temp 1.25 1.25 0.1 iso 5.68 5.68 0.5 mtk yes tchain 5 pchain 5
run 2000
Per MPI rank memory allocation (min/avg/max) = 3.642 | 3.644 | 3.648 Mbytes
Step Temp E_pair E_mol TotEng Press Volume 
   10000    2.4037847   -4.7197452            0   -1.1149696    5.3603744    4709.0627 
   11000    1.2472964   -6.3515496            0   -4.4810726    5.5346634    3850.9975 
   12000    1.2499394   -6.3564717            0   -4.4820313    5.9260012    3828.0235 
Loop time of 0.488282 on 48 procs for 2000 steps with 4000 atoms

Performance: 707787.922 tau/day, 4095.995 timesteps/s
99.7% CPU use with 48 MPI tasks x no OpenMP threads

MPI task timing breakdown:
Section |  min time  |  avg time  |  max time  |%varavg| %total
---------------------------------------------------------------
Pair    | 0.21775    | 0.23203    | 0.26005    |   2.1 | 47.52
Neigh   | 0.031582   | 0.033518   | 0.037271   |   0.6 |  6.86
Comm    | 0.14681    | 0.16928    | 0.18885    |   2.6 | 34.67
Output  | 4.8613e-05 | 4.9763e-05 | 6.361e-05  |   0.0 |  0.01
Modify  | 0.039078   | 0.04895    | 0.055075   |   1.9 | 10.02
Other   |            | 0.004447   |            |       |  0.91

Nlocal:        83.3333 ave          91 max          73 min
Histogram: 2 1 5 2 6 6 11 6 7 2
Nghost:        1685.88 ave        1716 max        1657 min
Histogram: 2 2 3 9 13 4 5 7 1 2
Neighs:        9970.94 ave       11408 max        8562 min
Histogram: 2 0 6 8 10 9 4 6 2 1

Total # of neighbors = 478605
Ave neighs/atom = 119.65125
Neighbor list builds = 142
Dangerous builds = 11

#############################
# L I N E A R  Q U E N C H  #
#############################

# Define solid atoms. This closely follows ten Wolde  Ruiz-Montero and Frenkel  Faraday Discuss  1996  104  93-110
# Compute components of the per-atom q6 vector
compute q6 all orientorder/atom degrees 1 6 components 6 nnn NULL cutoff 1.3 # compute the Q6 parameter.
                                                                             # Use all neighbours within 1.3 unit cell.

# get number of connections
compute coord_number all coord/atom orientorder q6 0.5

# An atom is solid if it has 8 or more connections (of a possible 14)
variable is_solid atom c_coord_number>=8
group solid dynamic all var is_solid    # Must be dynamic to update
dynamic group solid defined

# do clustering
compute cluster solid cluster/atom 1.3 # Create a cluster where all atoms within are solid and max 1.3 units from another member

# define chunks one chunk per cluster
compute clus_chunks solid chunk/atom c_cluster nchunk every compress yes  # Says which atoms are in which chunk

# count the size of each chunk
compute size_chunks solid property/chunk clus_chunks count


# Find the maximum entry in the vector of chunk sizes
variable max_n equal max(c_size_chunks)


# Thermo style which includes this variable
# thermo_style custom step temp pe vol v_max_n

thermo ${N}  # Print the thermo information every 100 steps
thermo 1000  

# Reset the npt fix at a lower temperature (below freezing)
fix 1  all npt temp  ${temp} ${temp}  0.1  iso  5.68  5.68  0.5  mtk yes tchain  5  pchain  5
fix 1  all npt temp  0.45 ${temp}  0.1  iso  5.68  5.68  0.5  mtk yes tchain  5  pchain  5
fix 1  all npt temp  0.45 0.45  0.1  iso  5.68  5.68  0.5  mtk yes tchain  5  pchain  5

dump dmp2 all dcd ${N} traj.dcd
dump dmp2 all dcd 1000 traj.dcd


compute msd all msd com yes
variable twopoint equal c_msd[4]/6/(step*dt+1.0e-6)
fix 9 all vector 10 c_msd[4]
variable fit equal slope(f_9)/6/(10*dt)
thermo_style custom step temp pe c_msd[4] v_twopoint v_fit v_max_n

fix 1 all npt temp 1.25 ${temp} 0.1 iso 5.68 5.68 0.5 mtk yes tchain 5 pchain 5
fix 1 all npt temp 1.25 0.45 0.1 iso 5.68 5.68 0.5 mtk yes tchain 5 pchain 5
run 500000 # 5000000  # Run for this many steps
Neighbor list info ...
  update every 1 steps, delay 10 steps, check yes
  max neighbors/atom: 2000, page size: 100000
  master list distance cutoff = 3.8
  ghost atom cutoff = 3.8
  binsize = 1.9, bins = 9 9 9
  4 neighbor lists, perpetual/occasional/extra = 1 3 0
  (1) pair lj/cut, perpetual
      attributes: half, newton on
      pair build: half/bin/atomonly/newton
      stencil: half/bin/3d
      bin: standard
  (2) compute orientorder/atom, occasional
      attributes: full, newton on
      pair build: full/bin/atomonly
      stencil: full/bin/3d
      bin: standard
  (3) compute coord/atom, occasional
      attributes: full, newton on
      pair build: full/bin/atomonly
      stencil: full/bin/3d
      bin: standard
  (4) compute cluster/atom, occasional
      attributes: full, newton on
      pair build: full/bin/atomonly
      stencil: full/bin/3d
      bin: standard
Per MPI rank memory allocation (min/avg/max) = 9.758 | 9.765 | 9.772 Mbytes
Step Temp PotEng c_msd[4] v_twopoint v_fit v_max_n 
   12000    1.2499394   -6.3564717            0            0 8.3333333e+20            2 
   13000     1.224988   -6.3455224   0.55849472 0.0035800942  0.046189664            1 
   14000    1.2372148   -6.2862538    1.0974484 0.0065324307  0.044865817            3 
   15000    1.2319656   -6.4113106    1.6614322 0.0092301788  0.045829381            3 
   16000    1.2582679   -6.3460007     2.171382  0.011309281  0.045643269            2 
   17000     1.233013   -6.3610745    2.7208398  0.013337449   0.04522077            5 
   18000    1.2342333   -6.3937723    3.2161967  0.014889799  0.044692172            2 
   19000    1.2333487    -6.350102    3.7005438  0.016230455  0.044292877            4 
   20000    1.2305227   -6.4453359    4.2009544  0.017503976  0.043768763            2 
   21000    1.2238881   -6.3337618    4.7865865  0.018994391  0.043611364            2 
   22000    1.2332183    -6.355585    5.3132255  0.020125854  0.043666317            1 
   23000    1.2221764   -6.3822833    5.8205929  0.021089104  0.043541652            2 
   24000    1.2198408   -6.4157994    6.4045268   0.02223794  0.043714294            2 
   25000    1.2323759   -6.3962396    6.8292586  0.022764195  0.043661074            2 
   26000    1.2600576   -6.3602933    7.2483326  0.023231835  0.043420749            2 
   27000    1.2321596   -6.3559998    7.8267876  0.024156751  0.043230818            2 
   28000    1.2117716   -6.3844096    8.3398116  0.024820867  0.043153588            1 
   29000    1.2134378   -6.4106212    8.8719226   0.02549403  0.043107291            3 
   30000    1.2325832   -6.3795596    9.2753364  0.025764823  0.042985321            2 
   31000    1.1702501   -6.3625013    9.7413848  0.026186518  0.042770703            2 
   32000     1.227418   -6.4061179    10.281628  0.026775071  0.042644946            2 
   33000    1.1965481   -6.4516413    10.784836  0.027234435  0.042544878            3 
   34000    1.2131273   -6.4612683     11.25208  0.027578628  0.042452152            2 
   35000    1.1904999    -6.406472    11.650944  0.027740343  0.042321984            2 
   36000    1.2308232   -6.4150068    12.126858  0.028071431   0.04213576            2 
   37000    1.2267045   -6.4151363    12.700312  0.028604306  0.042020417            3 
   38000    1.2356222   -6.4307205    13.212516  0.028974815  0.041953212            2 
   39000    1.1977727   -6.4506887    13.845071  0.029583484  0.041954506            1 
   40000     1.202476   -6.4459224    14.322268  0.029838058  0.042008361            3 
   41000    1.2032566   -6.4476308    14.719565  0.029917814  0.041983371            4 
   42000     1.198996   -6.4489216    15.286653   0.03033066  0.041985004            2 
   43000    1.1898141    -6.450712    15.741692  0.030507155   0.04195611            6 
   44000    1.1828507    -6.462128    16.212105  0.030704743  0.041909706            2 
   45000    1.1905465    -6.438724    16.713911  0.030951686  0.041885851            4 
   46000    1.2117081   -6.4309041    17.321821   0.03138011  0.041902143            2 
   47000    1.2132793   -6.4621337    17.897737  0.031733575  0.041930304            3 
   48000    1.1922554   -6.4748357    18.333381  0.031828787  0.041951251            4 
   49000    1.1909414   -6.4869973    18.733372  0.031859477  0.041931649            3 
   50000    1.1829748   -6.4544512    19.087443  0.031812405  0.041878274            2 
   51000    1.2017033   -6.3961248    19.691594  0.032175806  0.041826108            2 
   52000    1.1875044   -6.4634272    20.193381  0.032361188  0.041791966            2 
   53000    1.1834919   -6.4476925    20.717609  0.032574857  0.041778998            5 
   54000    1.2026481   -6.4538462    21.308029   0.03288276  0.041782324            1 
   55000    1.1653916   -6.4759282    21.574494  0.032688627  0.041752042            2 
   56000    1.1943184   -6.5350589    21.943525  0.032654054  0.041691499            2 
   57000    1.1969185   -6.5103556     22.38082  0.032720496  0.041609257            1 
   58000    1.1725311    -6.475024     22.89186  0.032890604  0.041539455            4 
   59000    1.1570251   -6.4954184    23.478003  0.033161021  0.041497229            3 
   60000    1.1675766   -6.5226003    23.917713  0.033219045  0.041442208            1 
   61000    1.2038578   -6.5005974    24.212866  0.033077686  0.041365585            3 
   62000    1.1629563   -6.5299173    24.720427  0.033226381  0.041283521            3 
   63000    1.1885569   -6.4741375    25.341494  0.033520494  0.041225897            2 
   64000    1.1573818   -6.5047463    25.619332  0.033358506  0.041166346            4 
   65000    1.1260932   -6.5219311     26.07375  0.033427884  0.041088143            1 
   66000    1.1713585   -6.4780774    26.551772  0.033524965  0.041025326            1 
   67000    1.1945378   -6.5202521    26.956438  0.033527907  0.040959131            1 
   68000    1.1505219   -6.5342044     27.23325  0.033374081  0.040872241            3 
   69000    1.1657665    -6.531769    27.662088  0.033408319  0.040764877            2 
   70000    1.1603972   -6.4878389    28.059354  0.033403992  0.040664304            3 
   71000     1.163473   -6.5331797    28.334738  0.033256734  0.040544582            1 
   72000    1.1553366   -6.5449833    28.704637  0.033222959  0.040409118            5 
   73000    1.1377335   -6.5003078    29.217197  0.033352964  0.040292358            1 
   74000    1.1709656   -6.5411424    29.828019  0.033590111  0.040190184            1 
   75000    1.1668361   -6.5368293    30.327087  0.033696764  0.040120243            2 
   76000     1.163309   -6.5439345    30.685423  0.033646297  0.040047968            6 
   77000    1.1549427   -6.5343543    30.978237   0.03352623  0.039960887            2 
   78000    1.1398561   -6.5767598    31.350284  0.033493893  0.039854998            5 
   79000    1.1437949   -6.5222249    31.528539  0.033257952  0.039736298            1 
   80000    1.1359663   -6.5490642    31.875354  0.033203493  0.039615902            3 
   81000    1.1392629    -6.616795    32.325383  0.033256566  0.039500278            3 
   82000    1.1410842   -6.5427843     33.02673   0.03356375  0.039396249            1 
   83000    1.1191186   -6.5387136    33.351208  0.033485148  0.039303104            4 
   84000    1.1274972   -6.5963021    33.883635  0.033614717  0.039215536            2 
   85000    1.1157978   -6.5493359    34.190041  0.033519648  0.039133762            6 
   86000    1.1078495   -6.5762107     34.71119  0.033634874  0.039049726            2 
   87000    1.1163528   -6.5647483    35.099515  0.033620225  0.038968027            3 
   88000    1.1214085   -6.6038106    35.390298   0.03351354  0.038888041            3 
   89000    1.1141289   -6.5919096    35.798268  0.033518977  0.038805497            2 
   90000    1.1409732   -6.5958875    36.036009  0.033366675  0.038717872            4 
   91000    1.1313881   -6.6299603    36.663517  0.033574649  0.038635792            6 
   92000    1.0955639     -6.62467    36.988959  0.033504491  0.038560874            2 
   93000    1.1070486   -6.5988953    37.720504  0.033799734  0.038495315            2 
   94000    1.1390186   -6.6365094    37.974959  0.033665743  0.038439301            4 
   95000    1.1168136   -6.5796256    38.440386  0.033719637   0.03837342            2 
   96000    1.1207411      -6.5743    38.809728     0.033689  0.038306135            2 
   97000    1.1147466   -6.6171279    39.062821  0.033559124  0.038234613            2 
   98000    1.1089514   -6.6304495     39.31437  0.033430587  0.038161441            2 
   99000    1.1299386   -6.6041967    39.668685  0.033391149  0.038077805            2 
  100000    1.0967088   -6.6220209    39.940512   0.03328376  0.037996399            2 
  101000    1.0982399   -6.6233025    40.439706  0.033366094  0.037913229            3 
  102000    1.0982987   -6.6442121    40.554866   0.03313306  0.037821088            3 
  103000    1.0964262   -6.6222527    41.005987  0.033176365  0.037728849            4 
  104000    1.1029128   -6.6481813    41.351682  0.033134361  0.037633601            2 
  105000    1.1091376   -6.6261311    41.706665  0.033100528  0.037543135            2 
  106000      1.10255   -6.6427326    41.844913  0.032896944   0.03744773            2 
  107000    1.1031946   -6.6448165    41.993093  0.032704901  0.037344254            2 
  108000    1.1034201   -6.6802148    42.392543  0.032710296  0.037238628            6 
  109000    1.1030154   -6.6083933    42.903709     0.032801  0.037135437            5 
  110000    1.0773788   -6.6467323    43.250092  0.032765221  0.037037297            3 
  111000    1.0910558   -6.6414706    43.570966  0.032710935  0.036942861            3 
  112000    1.0969192    -6.639482    44.059877  0.032782646  0.036848929            2 
  113000    1.0668366    -6.622974    44.248805  0.032631862  0.036758339            5 
  114000    1.1020986   -6.6687739    44.522231   0.03254549  0.036662035            6 
  115000    1.0758157   -6.6706999    44.826222   0.03248277  0.036566257            2 
  116000    1.0700565    -6.659804    45.394872  0.032611258  0.036471667            4 
  117000     1.077992   -6.6691159    45.321393  0.032280194  0.036374087            2 
  118000    1.0511721   -6.6777179    45.780432  0.032330813  0.036271276            2 
  119000      1.06539   -6.6511789    46.123449  0.032299334  0.036172561            2 
  120000    1.0702683   -6.6666805    46.210161   0.03209039  0.036069885            2 
  121000    1.0802938   -6.7035079    46.455742  0.031994313  0.035966149            4 
  122000    1.0520774   -6.7251904    46.927166  0.032054075  0.035865483            3 
  123000    1.0583029   -6.6679411    47.171539  0.031959037  0.035764915            2 
  124000    1.0788965   -6.6869018    47.399757  0.031854676  0.035663903            8 
  125000    1.0830098   -6.6559974    47.736154  0.031824102  0.035561509            2 
  126000    1.0667836   -6.7004768      47.9761  0.031730225  0.035457626            3 
  127000    1.0783132   -6.6973057    48.310749  0.031699967  0.035351253            2 
  128000    1.0521524   -6.6832728    48.639359  0.031666249  0.035246731            2 
  129000    1.0545745   -6.7082529    48.753902  0.031494768  0.035137916            3 
  130000    1.0744905   -6.6891346    49.251041   0.03157118  0.035031558            2 
  131000    1.0487421   -6.6848696    49.180447  0.031285272  0.034923298            4 
  132000    1.0467982   -6.7091524    49.653146  0.031346683  0.034813713            1 
  133000     1.062031   -6.7184559    49.920658  0.031278608  0.034704808            3 
  134000    1.0438206   -6.7180652    50.067456  0.031136477  0.034596621            3 
  135000    1.0434707    -6.700025    50.306759  0.031053555  0.034485804            2 
  136000    1.0641849   -6.7181026    50.619467   0.03101683  0.034375627            3 
  137000    1.0511806   -6.7081413    51.040973   0.03104682  0.034269856            4 
  138000    1.0508686   -6.7124837     51.30074  0.030978708   0.03416609            3 
  139000    1.0350955   -6.7383312     51.53847  0.030898363  0.034064994            4 
  140000    1.0537778   -6.7195234    52.040621   0.03097656  0.033967705            2 
  141000    1.0309163    -6.750527     52.42155  0.030982003  0.033872737            3 
  142000    1.0414908   -6.7699613    52.614811  0.030877236    0.0337799            3 
  143000    1.0461003   -6.7367575    52.927646  0.030843616  0.033684705            2 
  144000    1.0621542   -6.7329364    53.178428  0.030774553  0.033590863            3 
  145000    1.0454178   -6.7244525    53.643484  0.030829588  0.033499784            4 
  146000    1.0216267   -6.7443148    53.839218  0.030730147   0.03341295            3 
  147000    1.0191244   -6.7822327    54.410495  0.030844952  0.033328148            3 
  148000    1.0261462   -6.7063709    54.606744  0.030747041  0.033246108            3 
  149000     1.038953   -6.7053046    54.849018  0.030676184  0.033161761            3 
  150000    1.0361566   -6.7708206    54.936112  0.030520062  0.033076299            2 
  151000    1.0110636   -6.7811121    55.150486  0.030436251  0.032991424            2 
  152000    1.0007032   -6.7739612    55.507902  0.030431964  0.032906562            2 
  153000    1.0195442   -6.7468397    55.748216  0.030363952  0.032822865            4 
  154000     1.027469   -6.7972228    56.078203  0.030345348  0.032741734            4 
  155000    1.0182283   -6.7663785    56.301126  0.030269423   0.03266095            6 
  156000   0.99365532   -6.7743904    56.674754  0.030274976  0.032580831            2 
  157000    1.0317332   -6.7526404    56.939865  0.030222858   0.03249881            3 
  158000   0.99869288   -6.8184477    56.993818   0.03006003  0.032417155            3 
  159000    1.0155777   -6.7661934    57.551994  0.030163519  0.032337999            2 
  160000    1.0199143   -6.8341705    57.778769  0.030093109  0.032259689            5 
  161000    1.0342787   -6.8032429     57.88736  0.029962402  0.032179589           10 
  162000     0.997054   -6.8116298    58.079355  0.029876212  0.032097243            4 
  163000    1.0033887   -6.8077149    58.567513  0.029942491  0.032016061            2 
  164000    1.0181848   -6.8459224    58.515913  0.029733696  0.031935968            3 
  165000    1.0105386   -6.8702742    58.961483  0.029778527  0.031857904            2 
  166000     1.002727   -6.7993922    59.274026  0.029756037  0.031783173            4 
  167000   0.97618922   -6.8431516    59.239339  0.029560548   0.03170559            3 
  168000     1.006614   -6.8614753    59.620394  0.029573608  0.031623729            4 
  169000    1.0294049   -6.8127345    59.836668   0.02950526  0.031543345            4 
  170000    1.0102828   -6.8712069    60.084879  0.029453372  0.031463579            4 
  171000   0.99452522   -6.8008372    60.333966  0.029402517  0.031382631            3 
  172000   0.99070419   -6.8373401    60.650792  0.029385074  0.031305714            4 
  173000   0.98905328   -6.8799067    61.019033  0.029392598  0.031230732            3 
  174000    1.0073734   -6.8243584    61.359894  0.029386922  0.031157313            3 
  175000   0.96427841   -6.8258332     61.57681   0.02932229  0.031085632            5 
  176000   0.96851045    -6.859909    61.848154  0.029284164  0.031012237            3 
  177000   0.98451158   -6.8560686    61.912503  0.029149013  0.030938089            2 
  178000   0.98200809   -6.8609401     61.99705  0.029024836  0.030862212            2 
  179000   0.99947492   -6.8578477    62.110439  0.028915474  0.030784329            2 
  180000   0.96774892   -6.8838203    62.477801  0.028924908   0.03070734            4 
  181000   0.99158994   -6.8475014    62.942264  0.028978943  0.030632261            3 
  182000   0.96898007   -6.8782364    63.013898  0.028852517  0.030558267            4 
  183000   0.98037381   -6.8627027    63.224913  0.028790944  0.030485055            4 
  184000    0.9776338   -6.8548485    63.513389  0.028765122  0.030414103            4 
  185000    0.9732148   -6.8860383    63.712337  0.028699251   0.03034199            2 
  186000   0.96734153   -6.8974298    63.731157  0.028553386  0.030268844            3 
  187000   0.95314243   -6.8892253    64.043373  0.028539827  0.030194845            3 
  188000   0.98473101   -6.8396848    64.550227  0.028612689  0.030121839            2 
  189000   0.97640909   -6.8976692    64.578056   0.02847357  0.030048708            2 
  190000   0.94921923   -6.8957346    64.767352  0.028406733  0.029974339            3 
  191000   0.97450858   -6.9044575    64.822002  0.028281851  0.029900965            5 
  192000   0.95512817   -6.8993818    65.054701  0.028235547  0.029826996            2 
  193000    0.9654778   -6.8780492    65.344392  0.028214332  0.029752868            4 
  194000   0.96603355   -6.9355926    65.544983  0.028155061  0.029681873            3 
  195000   0.95893836   -6.9200855    65.812185  0.028124865  0.029609637            6 
  196000   0.94314044   -6.9306586     66.15194  0.028125825  0.029536307            7 
  197000   0.96225603    -6.945424    66.105284  0.027963318  0.029463462            3 
  198000   0.96037692   -6.9266493    66.239597  0.027878618  0.029390573            7 
  199000   0.93503174   -6.9415927    66.822073  0.027982442  0.029317116            4 
  200000   0.93895777   -6.9319602    66.833486  0.027847286   0.02924485            4 
  201000   0.93719357   -6.9570347    66.893743  0.027733724  0.029171609           10 
  202000   0.95775991   -6.9575867    67.174799  0.027712376  0.029098329            3 
  203000   0.95004264   -6.9720292    67.137022  0.027560354  0.029024309            3 
  204000   0.94511596   -6.9606208    67.329682  0.027503955  0.028950137            4 
  205000   0.94991628    -6.945676    67.508069  0.027442304  0.028874949            5 
  206000   0.94644852   -6.9284764      67.9198  0.027475647  0.028801304            4 
  207000   0.94940658   -6.9753487    67.950899  0.027355434  0.028727597            3 
  208000   0.93397642   -6.9391932    68.196166  0.027322182  0.028653975            5 
  209000   0.95454369   -6.9472251    68.339569  0.027248632  0.028580914            2 
  210000   0.91923206   -6.9341843    68.414409  0.027148575  0.028507773            3 
  211000   0.94064621   -6.9617007    68.784294  0.027165993  0.028435751            2 
  212000   0.91713584   -6.9867808    68.838037  0.027058977  0.028363596            7 
  213000   0.93508687   -6.9470193    68.939807  0.026971755  0.028291345            3 
  214000   0.92731883   -6.9793258    69.457644  0.027047369   0.02822052            3 
  215000   0.93406039   -6.9914868    69.459932  0.026922454  0.028151311            3 
  216000   0.92183326   -6.9953026    69.573509  0.026841631  0.028081805            2 
  217000   0.93116121   -6.9758067    70.047936  0.026900129  0.028012106            3 
  218000    0.9150608   -6.9952148    70.064694   0.02678314  0.027942099            5 
  219000   0.91469063   -7.0032515    70.256093  0.026733673  0.027871647            3 
  220000   0.91605729   -6.9949756    70.422871   0.02667533  0.027802825            2 
  221000   0.91237994   -6.9830934    70.646732  0.026639039  0.027732522            5 
  222000   0.92398528   -7.0017671    70.908419  0.026617274  0.027663388            4 
  223000   0.92785777    -6.996774    70.939467  0.026509517  0.027595146            4 
  224000   0.90976147   -7.0114805    70.857647  0.026360732  0.027525485            2 
  225000   0.91338521   -7.0299294    71.093627  0.026330973  0.027453995            4 
  226000   0.91923448   -7.0355005    71.021591  0.026187902  0.027382258           10 
  227000    0.9280703   -6.9961036    71.388809  0.026207345  0.027310791            4 
  228000    0.9197672   -7.0008531    71.654254   0.02618942  0.027240331            5 
  229000   0.88112655   -7.0085492     71.61162  0.026059541  0.027169094            2 
  230000   0.91172764   -7.0042448    71.825709  0.026023808  0.027097348            6 
  231000   0.89938333   -7.0440685    72.025083  0.025983075  0.027026012            4 
  232000   0.91174085   -7.0426547    72.025767  0.025871324  0.026954961            4 
  233000   0.89781961   -7.0310772      71.9711  0.025740737  0.026882991            5 
  234000   0.89444457   -7.0357214    72.421028  0.025790964  0.026811784            4 
  235000   0.86237083   -7.0355663    72.284506  0.025632804  0.026739344            7 
  236000   0.89529962    -7.042184    72.654243  0.025654747  0.026667782            5 
  237000   0.90735036   -7.0339791      72.7274  0.025572222  0.026597201           11 
  238000   0.88747201   -7.0375594    73.084669   0.02558987  0.026527572            5 
  239000   0.89121493   -7.0431216    73.109669  0.025491516  0.026458774            5 
  240000   0.87172358   -7.0616913    73.047012  0.025363546  0.026389411            3 
  241000   0.87042659   -7.0586661    73.552514  0.025433096  0.026320207            5 
  242000   0.87373029   -7.0879204    73.647754  0.025360797  0.026252386            4 
  243000   0.86608924    -7.061642    73.722271  0.025281986  0.026184462           11 
  244000    0.8859358   -7.0752475    74.126703  0.025316497  0.026117332            5 
  245000   0.86772314   -7.1357869     74.07707  0.025196282  0.026050475            6 
  246000   0.88932669   -7.0556238     74.59861  0.025270532  0.025984519            4 
  247000   0.86661287   -7.0517132    74.663828  0.025190225  0.025919158            7 
  248000   0.86423004   -7.1120128    74.847293    0.0251503  0.025854269            5 
  249000   0.87453177    -7.080553    75.069991  0.025123826  0.025790582            7 
  250000   0.88314865   -7.1015273    75.390864  0.025130288  0.025727711            4 
  251000   0.86600914    -7.094118    75.406194  0.025035257  0.025665077            4 
  252000   0.85483281   -7.0880645    75.449422  0.024950206  0.025601858            4 
  253000   0.86623637   -7.1249891    75.485022  0.024863314  0.025538188            6 
  254000   0.85937084   -7.1223331    75.800966  0.024869083  0.025474195            3 
  255000   0.85747486   -7.1167989    75.956859  0.024822503  0.025410821            6 
  256000   0.85073651   -7.1149894    76.021554    0.0247466  0.025348225            3 
  257000   0.84584698   -7.1133242    76.177643  0.024700922  0.025284179            6 
  258000   0.86696837   -7.1377214    76.327602  0.024653618  0.025220842            4 
  259000   0.85354563   -7.1286208    76.288606  0.024545883  0.025157695            8 
  260000   0.84596504   -7.1085282    76.360949  0.024474663  0.025094794            6 
  261000   0.85217265   -7.1013111    76.440123  0.024406169  0.025031654            6 
  262000   0.85567525   -7.1276457    76.729494  0.024405055  0.024968846            6 
  263000   0.84282916   -7.0898023    77.206236  0.024463319  0.024907137            6 
  264000    0.8422544   -7.1250184    77.101289  0.024337528  0.024845034            2 
  265000   0.84317898   -7.1363376    77.158968  0.024263826  0.024782665            4 
  266000   0.83204485   -7.1517499    77.253911  0.024202353  0.024720626            4 
  267000   0.84852097   -7.1594457    77.716623  0.024256124  0.024660001            6 
  268000   0.84322166    -7.141744    77.710298   0.02416365  0.024600089            4 
  269000   0.83414703   -7.1642153    77.820787   0.02410805  0.024540276            6 
  270000   0.82520043   -7.1892979    78.029928  0.024083311  0.024480785            5 
  271000   0.83592178   -7.1525031    78.258429  0.024064708  0.024421267            5 
  272000   0.84199328   -7.1762218    78.058712  0.023915047  0.024361261            4 
  273000   0.82919477   -7.1653702    78.352735  0.023917196  0.024301468           13 
  274000   0.82062281   -7.1601228    78.505139  0.023876259   0.02424219            5 
  275000   0.80583809   -7.1951044    78.704051  0.023849712  0.024183328            3 
  276000   0.82023326   -7.1929469    78.833498  0.023802384   0.02412535            3 
  277000   0.83945783   -7.1806919    79.062201  0.023785259   0.02406746            4 
  278000   0.80237138   -7.1739975    79.151607  0.023726501  0.024009813            6 
  279000   0.83851218   -7.1932172    79.136139   0.02363684  0.023951659            5 
  280000   0.81522138   -7.1975575    78.851724  0.023467775  0.023892032           14 
  281000   0.83887524   -7.2124213    79.085384  0.023453554  0.023832139            4 
  282000   0.82401049   -7.1922429    79.122433  0.023381334  0.023772205            6 
  283000   0.80702487   -7.2229479    79.303314  0.023351977  0.023712131            3 
  284000   0.81441671   -7.2075798    79.629694  0.023365521   0.02365278           12 
  285000   0.81993529   -7.1868472    79.845201   0.02334655  0.023594561            6 
  286000   0.81944544    -7.214807    79.505248  0.023165865  0.023536282            7 
  287000   0.83018567   -7.2132276    80.109089  0.023260479  0.023477972            8 
  288000    0.7939759   -7.2180309    80.012706  0.023151825  0.023420682           12 
  289000   0.81256549    -7.218803    80.342266  0.023166743  0.023363405            8 
  290000   0.80593375   -7.2331135    80.492195  0.023129941  0.023305883            4 
  291000   0.79712392   -7.2331862    80.254168  0.022982293  0.023248602            3 
  292000   0.80316088   -7.2323881    80.149136  0.022873612  0.023190096            5 
  293000   0.78767996   -7.2224786     80.27408  0.022831081  0.023131912            4 
  294000   0.79406959   -7.2454356    80.181328  0.022727134  0.023073042            5 
  295000   0.77036787   -7.2694099    80.472179  0.022732254  0.023013669           12 
  296000   0.81392503   -7.2913381    80.388779  0.022631976  0.022954227            4 
  297000   0.80285245   -7.2805783    80.524636  0.022593893  0.022895098            6 
  298000   0.78613151   -7.2817343    80.549264  0.022524962  0.022836217            8 
  299000   0.81362237   -7.2706426    80.813607  0.022523302  0.022777712            5 
  300000   0.78797685   -7.2790748    80.877086  0.022465857  0.022719274            4 
  301000   0.79036172    -7.260165    80.876584  0.022391081   0.02266015            4 
  302000   0.78786079   -7.2573917    80.834651  0.022305367  0.022601334            4 
  303000   0.78394221   -7.2362782    81.202612  0.022332951  0.022542606           16 
  304000   0.75907773    -7.260606    81.095348  0.022230084  0.022483995            5 
  305000   0.79267992   -7.2815824    80.712257  0.022052529  0.022425011            6 
  306000   0.78948241   -7.2889704    80.983851  0.022054426  0.022365347            6 
  307000   0.77030896   -7.2985919    81.073476  0.022006915  0.022305632            3 
  308000   0.74434547   -7.3011074    81.035924  0.021925304  0.022245894            9 
  309000   0.77715647   -7.2989019    81.423884  0.021958976  0.022186332            5 
  310000   0.76846063   -7.2851208     81.29004  0.021852161   0.02212733            6 
  311000   0.76476998   -7.3148097      81.4419  0.021822588  0.022068357            5 
  312000   0.76020571   -7.3263909    81.416115  0.021745757  0.022009194            6 
  313000   0.75984752   -7.3176072    81.491266   0.02169629  0.021950132            7 
  314000   0.77573768   -7.3103783     81.67032  0.021674713  0.021891645           10 
  315000   0.74567071   -7.3208017      81.8743  0.021659868  0.021833237            7 
  316000   0.76035735   -7.3481903    81.976867  0.021618372  0.021775017            7 
  317000    0.7640434   -7.3164547    81.896595  0.021529073  0.021717251            9 
  318000   0.75326413   -7.3379635     82.06756  0.021506174  0.021659634            5 
  319000   0.76783514   -7.3393271    82.229048  0.021480943  0.021602268            5 
  320000   0.76640162   -7.3451524    82.129055  0.021387775   0.02154457            5 
  321000   0.73925781    -7.349643    82.294002  0.021363967  0.021487209            6 
  322000   0.77047224   -7.3304687    82.302001   0.02129969  0.021430314            8 
  323000   0.75874779   -7.3222234    82.265336  0.021224287  0.021372776            6 
  324000   0.76486645    -7.348673     82.08825  0.021113233    0.0213155            6 
  325000   0.74643209   -7.3270975    82.469611  0.021146054  0.021258153            3 
  326000   0.74299052   -7.3682825    82.391263  0.021061161  0.021201187            8 
  327000   0.75522891   -7.3683173    82.656229  0.021064279  0.021144766           15 
  328000   0.74385612   -7.3798127    82.609856  0.020988276  0.021088192            7 
  329000   0.75209685   -7.3542817    82.874459  0.020991504  0.021031691            8 
  330000   0.72837593   -7.3529581    82.764013  0.020900003  0.020974978            8 
  331000   0.73820589   -7.4024465    82.572913   0.02078875   0.02091795            5 
  332000   0.73971174   -7.3801701    82.591161  0.020730713  0.020860787            9 
  333000   0.72233162   -7.3964368    82.688274  0.020692761  0.020803432            6 
  334000   0.74323366   -7.3774449    82.814577   0.02066232  0.020746112            4 
  335000   0.72864814    -7.375346    82.881327  0.020617246  0.020688829            6 
  336000   0.73224972   -7.3804554    83.039151  0.020595028  0.020632257            7 
  337000   0.73478057   -7.3900046    82.914555  0.020503105  0.020575727            5 
  338000   0.72312759   -7.4106182    83.078387  0.020482837  0.020519376            8 
  339000   0.72741065   -7.4075913    83.193809  0.020450789  0.020463259           11 
  340000   0.72644447   -7.3882629    83.180533  0.020387385  0.020407152            9 
  341000   0.72414768   -7.4308678    83.280526  0.020352035   0.02035146            7 
  342000   0.73509211   -7.4141633    83.315851  0.020301133  0.020295534            5 
  343000   0.71198467   -7.4294052    83.430345  0.020269763  0.020239584           12 
  344000   0.71999698   -7.4208493    83.413192  0.020206684  0.020183555            6 
  345000   0.71385174   -7.4400401     83.47461  0.020162949  0.020127626           10 
  346000   0.71922166   -7.4113201    83.411255  0.020089416  0.020071812            7 
  347000   0.71871625   -7.4341224    83.322113  0.020010114    0.0200163            5 
  348000   0.70575056   -7.4206485    83.481221  0.019990714  0.019961383           19 
  349000   0.71202908   -7.4349456    83.623141  0.019967321  0.019906395            4 
  350000   0.69553245   -7.4361399    83.567642  0.019897058  0.019851778           10 
  351000   0.70610661   -7.4214756    83.732886  0.019879603  0.019797028            8 
  352000   0.71030836   -7.4502122    83.604968  0.019792843  0.019741872           10 
  353000   0.70767056    -7.440141    83.539137  0.019721232  0.019686171           23 
  354000   0.69367383   -7.4744473    83.574266  0.019673791  0.019630678            7 
  355000   0.70287817   -7.4622666    83.750803  0.019659813  0.019575378            7 
  356000   0.70146186   -7.4544693    83.484826  0.019542328  0.019519908            7 
  357000   0.69470434   -7.4414764    83.545033  0.019501642  0.019464214            9 
  358000   0.69839914   -7.4785998     83.55509  0.019449509   0.01940882            6 
  359000   0.69906978    -7.455879    83.720857  0.019433811  0.019353344            6 
  360000   0.69909987   -7.4818428    83.549213  0.019340096  0.019298383            8 
  361000   0.69220861   -7.4974198    83.700409  0.019321424   0.01924309            7 
  362000   0.68042487   -7.4708178    83.596287  0.019244081  0.019187765           10 
  363000   0.67541586   -7.4464537    83.494013  0.019167588  0.019132447            4 
  364000   0.69080041    -7.468612    83.765184  0.019177011  0.019077211            8 
  365000   0.69226878   -7.5002069    83.585462  0.019083439   0.01902214            7 
  366000   0.67634811   -7.4764001    83.813062   0.01908312  0.018967394            4 
  367000   0.66466604   -7.5254953    83.976126  0.019068149  0.018912953           11 
  368000   0.69188722   -7.4955311     83.79305  0.018974876  0.018858439            5 
  369000   0.69597484   -7.5059415    84.035079  0.018978112  0.018804158            6 
  370000   0.66472558   -7.5319402    83.946846  0.018906947   0.01875022            5 
  371000    0.6677465   -7.5007835    83.931395  0.018852515   0.01869621           10 
  372000   0.67914339    -7.509704    83.847461  0.018783033  0.018642633           13 
  373000   0.68148705   -7.5382464    84.100286  0.018789161   0.01858899           21 
  374000   0.66470472     -7.51493    83.851505   0.01868349  0.018535507            8 
  375000   0.66991479   -7.5195098    84.127224  0.018694939  0.018482083            8 
  376000   0.65987587   -7.5344006    84.185925  0.018658228  0.018429039           31 
  377000   0.66571371    -7.526077    84.343649  0.018643601  0.018376405           17 
  378000   0.67229813   -7.5369299    84.251322  0.018573925  0.018323968            5 
  379000   0.66649396   -7.5369924    84.189329  0.018511286   0.01827128           19 
  380000   0.67670153   -7.5377326    84.245517  0.018474894  0.018218626           13 
  381000   0.66282606   -7.5411114    84.009971  0.018374884   0.01816607           15 
  382000   0.64805051   -7.5402395    84.139114  0.018354955  0.018113547            8 
  383000   0.66305061    -7.557397    84.198587  0.018319971  0.018061147            4 
  384000   0.64702015   -7.5469385    84.288884  0.018291858  0.018008885           13 
  385000   0.65219988     -7.58141    84.179985  0.018220776  0.017956733           11 
  386000   0.64790406   -7.5649022    84.278751  0.018194894  0.017904537           14 
  387000   0.65085215   -7.5600311    84.180424  0.018126706  0.017852634           32 
  388000   0.66032423   -7.5679296    84.276821  0.018100692  0.017800921           30 
  389000   0.65331825   -7.5868833    84.282064  0.018055284  0.017749387           17 
  390000   0.63762998   -7.5535365    84.293374  0.018011405  0.017698017           23 
  391000   0.64298395   -7.6003342    84.065769   0.01791683  0.017646766           12 
  392000   0.64672297    -7.575236    84.218557  0.017903605  0.017595252           16 
  393000   0.64611603   -7.5816447    84.250916   0.01786491  0.017543943           38 
  394000   0.65060301   -7.5778855    84.176247  0.017803775  0.017492686           16 
  395000   0.63788644   -7.6012508    84.216009  0.017767091  0.017441479           17 
  396000   0.63902069     -7.59385    84.353434  0.017751143  0.017390483           21 
  397000    0.6319307    -7.619279    84.300597  0.017695339  0.017339677           29 
  398000   0.64626762   -7.6017979     84.42842  0.017677642  0.017288822           47 
  399000   0.63763995   -7.6193891    84.291413  0.017604723  0.017238288           17 
  400000   0.61491838   -7.5983187     84.17344  0.017536133  0.017187672           16 
  401000   0.62409743   -7.6316985    84.308722  0.017520516  0.017137159           23 
  402000   0.62757955   -7.6335315    84.291136  0.017473287  0.017086585           20 
  403000   0.63033842   -7.6206359    84.126093  0.017395801  0.017036123           12 
  404000   0.62399204   -7.6158991    84.130304   0.01735361  0.016985366           14 
  405000   0.61639828   -7.6437828    84.180077  0.017321003  0.016934825           29 
  406000   0.61375756   -7.6390788    84.233006  0.017289205   0.01688437            7 
  407000   0.62609218   -7.6453283    84.161233   0.01723203  0.016833949           11 
  408000      0.61231   -7.6512622    84.230351  0.017203911  0.016783692           16 
  409000   0.62458147    -7.625323    84.264217  0.017168748   0.01673362           11 
  410000   0.61215773   -7.6468974    84.202636  0.017114357  0.016683557           12 
  411000   0.60995787   -7.6367565    84.147949  0.017061628  0.016633782           16 
  412000   0.61639834   -7.6733543    84.324507  0.017055928  0.016584119           22 
  413000   0.60751576   -7.6624756    84.300808  0.017009848  0.016534494           28 
  414000   0.61542432   -7.6616838     84.25495  0.016959531  0.016484966           11 
  415000   0.61647152    -7.649552    84.172661  0.016902141  0.016435841           17 
  416000   0.59449947   -7.6854709    83.953781  0.016817664  0.016386795           17 
  417000   0.60491184   -7.6767228    84.101275   0.01680681  0.016337853            8 
  418000   0.58814337    -7.666729     84.38532   0.01682323   0.01628905            8 
  419000   0.59229141   -7.6637607    84.179215  0.016742087  0.016240453            6 
  420000   0.59896018   -7.6640471    84.076908  0.016681926  0.016191975           12 
  421000   0.59217063   -7.6781562    84.158711  0.016658494  0.016143663           14 
  422000   0.59589605   -7.6867637    84.082661  0.016604001  0.016095249           12 
  423000    0.5861555   -7.6766831    84.144945  0.016577018  0.016046982           13 
  424000   0.59144747   -7.7140501    84.200951  0.016548929  0.015998712           20 
  425000   0.58268488   -7.6883082    84.162858  0.016502521  0.015950622           11 
  426000   0.58839714   -7.6959453    84.097238  0.016450946  0.015902574            7 
  427000   0.58433013   -7.7015009    84.272715  0.016446666  0.015854893            9 
  428000   0.58176983   -7.7112575     84.17526  0.016389264  0.015807022           12 
  429000   0.57397767   -7.7036236    84.283505  0.016372087  0.015759619           24 
  430000   0.58786659   -7.7097511    84.210709  0.016319905  0.015712182           16 
  431000   0.58287276   -7.7059904    84.109244  0.016262421   0.01566492            7 
  432000   0.57114597   -7.7140716    83.959495   0.01619589    0.0156176           11 
  433000   0.56928267   -7.7153424    84.222717  0.016209145  0.015570498           11 
  434000   0.57698639   -7.7100305    84.071532  0.016142767  0.015523584            9 
  435000   0.57901247   -7.7240417    84.099698  0.016111053  0.015476742           20 
  436000    0.5745869   -7.7352655    84.011328  0.016057211   0.01543008           27 
  437000   0.56825991   -7.7326027    84.109718  0.016039229  0.015383444           14 
  438000   0.56798481    -7.731779    84.105363  0.016001781  0.015337037           14 
  439000   0.55786398   -7.7242619    84.184511  0.015980355  0.015290902           17 
  440000   0.56788964   -7.7572813    84.085817  0.015925344   0.01524493           16 
  441000   0.56249712   -7.7435605    84.130259   0.01589763  0.015199091           13 
  442000   0.55235441   -7.7399737    84.158721  0.015867029  0.015153226           19 
  443000   0.56644971   -7.7470098    84.176141  0.015834489  0.015107624           28 
  444000   0.56118251   -7.7524593    84.090056  0.015782668  0.015062194           15 
  445000   0.55483962   -7.7553929    84.048041  0.015739333  0.015016895           24 
  446000   0.55147254   -7.7677408    84.220578  0.015736281  0.014971679           20 
  447000   0.55406493   -7.7624656    84.172253  0.015692068  0.014926554           23 
  448000    0.5477292   -7.7654722    84.100847  0.015643759  0.014881653           23 
  449000   0.55452833   -7.7810471    84.105467  0.015609775  0.014836833           32 
  450000   0.54177458   -7.7808317    84.056241   0.01556597    0.0147923           20 
  451000   0.54775522   -7.7780055    84.105566   0.01554057  0.014747924           15 
  452000   0.54357081   -7.7808797    84.044707  0.015494968  0.014703596           21 
  453000   0.55523315   -7.7648361    84.213125  0.015491745  0.014659294           18 
  454000   0.53557194    -7.782124     84.19606   0.01545449  0.014615232           23 
  455000   0.54649578   -7.7957743     84.01035  0.015386511  0.014571093           27 
  456000   0.53610265   -7.8011012    83.928264  0.015337768  0.014527019           21 
  457000   0.53932568   -7.7941557     84.00067  0.015317409  0.014483149           23 
  458000   0.52914352   -7.8124856    83.951182   0.01527496  0.014439235           26 
  459000   0.53201507   -7.8176427    83.851662  0.015223613  0.014395474           20 
  460000   0.54244996   -7.8112411    83.736041  0.015169573  0.014351682           25 
  461000   0.53188145   -7.8144434    84.018949  0.015187807  0.014308185           25 
  462000   0.53446487   -7.8221703    83.927259  0.015138394  0.014264726           21 
  463000   0.53275967   -7.8038229    83.763249  0.015076179  0.014221443           23 
  464000   0.51635782   -7.8061133    83.838306  0.015057167  0.014178194           26 
  465000   0.52708725   -7.8209139    83.871798  0.015030788  0.014135181           22 
  466000   0.51261236   -7.8370929    83.876507  0.014999375  0.014092339           30 
  467000   0.53554016   -7.8260967    83.930662   0.01497692  0.014049607           22 
  468000   0.50877036   -7.8412774    83.844622  0.014929598  0.014007024           20 
  469000   0.51920295   -7.8309196    83.805359  0.014890789  0.013964571           28 
  470000   0.50359632   -7.8331708    83.974815  0.014889152  0.013922295           22 
  471000   0.52524781   -7.8371175    83.860954  0.014837395   0.01388013           25 
  472000   0.51379623   -7.8200408     83.79908  0.014795035  0.013838095           22 
  473000   0.51132883   -7.8494318    83.717739  0.014749425  0.013796222           26 
  474000   0.51340793    -7.839689    83.757568  0.014725311  0.013754459           20 
  475000     0.517271   -7.8615337    83.744089  0.014691945  0.013712783           28 
  476000   0.50340777   -7.8421609    83.888898  0.014686432   0.01367131           17 
  477000   0.50425589   -7.8517315     83.78464  0.014637428   0.01363001           20 
  478000   0.50290948   -7.8386796    83.644963  0.014582455  0.013588762           28 
  479000   0.50549258   -7.8578443    83.693294   0.01456042  0.013547648           31 
  480000   0.50353022   -7.8566952    83.583581  0.014511038  0.013506665           24 
  481000   0.49967413   -7.8769433    83.727797  0.014505855  0.013465886           28 
  482000   0.49256546   -7.8640987    83.730492  0.014476226  0.013425221           21 
  483000   0.50318921   -7.8579692    83.665286  0.014435005   0.01338471           31 
  484000   0.50213157   -7.8667416    83.690546  0.014409529  0.013344221           30 
  485000   0.49163051   -7.8727275    83.676061   0.01437733  0.013303905           40 
  486000   0.49952396    -7.885506    83.691566  0.014350406  0.013263637           24 
  487000   0.49040355   -7.8702224     83.74126  0.014329442  0.013223578           28 
  488000    0.4833922   -7.8766517     83.63419  0.014281795  0.013183661           25 
  489000   0.48975019   -7.8795137    83.557632  0.014239542  0.013143854           22 
  490000     0.485745   -7.8790197    83.580058  0.014214296  0.013104251           23 
  491000   0.48000623   -7.8856774    83.664091  0.014199608  0.013064753           35 
  492000   0.47528082   -7.8868904    83.680284   0.01417349  0.013025407           27 
  493000   0.47887456   -7.8828783    83.713685  0.014150386   0.01298618           19 
  494000   0.47266312   -7.8899323    83.647248  0.014110534  0.012947078           26 
  495000   0.48131748   -7.8833693    83.535957  0.014063292  0.012908063           19 
  496000   0.48371354   -7.9015329    83.395647  0.014011365  0.012869198           21 
  497000   0.47403649   -7.9052304    83.474622  0.013996415  0.012830426           20 
  498000   0.47723844    -7.891065    83.508371  0.013973958   0.01279181           27 
  499000   0.46042313   -7.9017915    83.513094  0.013946743  0.012753393           25 
  500000   0.47873616   -7.9007229    83.518794  0.013919799   0.01271512           26 
  501000   0.46687481   -7.9086525    83.619974  0.013908845  0.012676796           30 
  502000   0.47051108   -7.9034661    83.512892  0.013863362   0.01263867           57 
  503000    0.4768303   -7.9077386    83.474072  0.013829369  0.012600711           44 
  504000   0.46142787   -7.9133824    83.433537  0.013795228  0.012562866           21 
  505000   0.47017192   -7.9134957    83.513705  0.013781139  0.012525124           21 
  506000   0.47048644   -7.9245746    83.443263  0.013742303  0.012487497           33 
  507000   0.45293717   -7.9193628    83.597269  0.013740511  0.012450044           22 
  508000   0.46530775   -7.9170798    83.446282  0.013688694  0.012412743           15 
  509000    0.4602715   -7.9234014    83.466274  0.013665074  0.012375552           21 
  510000   0.44895954   -7.9326654    83.388606  0.013625589  0.012338531           29 
  511000   0.44971692   -7.9285633    83.488729  0.013615253  0.012301579           23 
  512000   0.45584668   -7.9359537    83.481859  0.013587542  0.012264756           27 
Loop time of 1134.44 on 48 procs for 500000 steps with 4000 atoms

Performance: 76160.629 tau/day, 440.744 timesteps/s
99.4% CPU use with 48 MPI tasks x no OpenMP threads

MPI task timing breakdown:
Section |  min time  |  avg time  |  max time  |%varavg| %total
---------------------------------------------------------------
Pair    | 65.665     | 71.913     | 78.92      |  38.3 |  6.34
Neigh   | 6.8373     | 7.13       | 7.435      |   5.6 |  0.63
Comm    | 62.216     | 70.737     | 77.726     |  45.3 |  6.24
Output  | 0.79594    | 0.79643    | 0.80451    |   0.1 |  0.07
Modify  | 960.92     | 970.45     | 979.4      |  11.5 | 85.54
Other   |            | 13.42      |            |       |  1.18

Nlocal:        83.3333 ave          93 max          75 min
Histogram: 3 3 8 6 5 10 5 2 4 2
Nghost:        1856.58 ave        1876 max        1826 min
Histogram: 1 1 5 1 2 11 9 6 9 3
Neighs:        11564.9 ave       13820 max       10102 min
Histogram: 4 4 6 12 10 3 3 4 1 1
FullNghs:      23130.1 ave       26326 max       20560 min
Histogram: 3 4 7 8 8 9 1 3 3 2

Total # of neighbors = 1110245
Ave neighs/atom = 277.56125
Neighbor list builds = 26898
Dangerous builds = 0

#clear
#
#next RN
#
#jump SELF
Total wall time: 0:18:57
