
units lj                  # Use reduced LJ style units
atom_style atomic         # Uncharged point particles
atom_modify map hash      # Needed for indexing of clusters etc
                          # Used to be able to find where atoms are in relation to each other.

lattice fcc 1.0 spacing 1 1 1
Lattice spacing in x,y,z = 1.5874011 1.5874011 1.5874011
region box block 0 10 0 10 0 10 units lattice
create_box 2 box
Created orthogonal box = (0.0000000 0.0000000 0.0000000) to (15.874011 15.874011 15.874011)
  3 by 4 by 4 MPI processor grid
create_atoms 1 box
Created 4000 atoms
  using lattice units in orthogonal box = (0.0000000 0.0000000 0.0000000) to (15.874011 15.874011 15.874011)
  create_atoms CPU = 0.002 seconds
set type 1 type/fraction 2 0.87 78393
Setting atom values ...
  3472 settings made for type/fraction
mass 1 1.0
mass 2 1.0
pair_style lj/cut  3.5
pair_modify tail  yes
pair_coeff 1  1  1.0  1.0   # Intearaction between 1 and 1 set with epsilon = 1 and sigma = 1
pair_coeff 1  2  1.5  0.8
pair_coeff 2  2  0.5  0.88

write_data data.0
System init for write_data ...
Neighbor list info ...
  update every 1 steps, delay 10 steps, check yes
  max neighbors/atom: 2000, page size: 100000
  master list distance cutoff = 3.8
  ghost atom cutoff = 3.8
  binsize = 1.9, bins = 9 9 9
  1 neighbor lists, perpetual/occasional/extra = 1 0 0
  (1) pair lj/cut, perpetual
      attributes: half, newton on
      pair build: half/bin/atomonly/newton
      stencil: half/bin/3d
      bin: standard
WARNING: Not all mixed pair coeffs generated from mixing. Use write_data with 'pair ij' option to store all pair coeffs. (../write_data.cpp:312)


#############################
#   M E L T   S Y S T E M   #
#############################

velocity all create 2.4 9580093 mom yes dist gaussian # Assign velocities
                                                    # Temperature 2.4, random number seed, zero linear momentum
                                                                                # Gaussian distribution

timestep 0.002   # simulation timestep
thermo 1000       # output thermodynamic data every 1000 steps bf 100

# Define a fix  in this case with index 1 applied to all
# particles in the simulation. This fix is for simulations
# in the anisotropic NPT ensemble. Note that we use the MTK
# correction.
fix 1 all npt temp 2.4 2.4 0.1 iso 5.68 5.68 0.5 mtk yes tchain 5 pchain 5 # Use NPT ensemble
                                                                         # Set temperature and pressure and damping
                                                                         # Numbers of thermostats in chain and in barostat
run 10000          # run for 10000 steps
Per MPI rank memory allocation (min/avg/max) = 3.642 | 3.644 | 3.648 Mbytes
Step Temp E_pair E_mol TotEng Press Volume 
       0          2.4   -3.3406884            0   0.25841159    -2.808294         4000 
    1000    2.4129603   -2.4830079            0    1.1355276    5.5452311    3951.2138 
    2000    2.3394952   -2.4972449            0    1.0111205    5.5452955     3930.462 
    3000    2.4099715   -2.5087644            0    1.1052891    5.4220583    3952.2537 
    4000    2.4094915   -2.4948236            0    1.1185102    5.7526227     3917.181 
    5000    2.4000086   -2.4340397            0    1.1650733    5.8146937     3950.814 
    6000    2.3921779    -2.475389            0    1.1119807    5.8487053    3908.5601 
    7000    2.3160678   -2.4864848            0   0.98674829    5.6827882    3924.0487 
    8000    2.3550273   -2.4386104            0    1.0930474    5.8717859    3936.0101 
    9000    2.3973382   -2.4761333            0    1.1189751    5.4536807    3968.5309 
   10000    2.3535932     -2.48939            0    1.0401172    5.2291647    3982.6164 
Loop time of 2.5437 on 48 procs for 10000 steps with 4000 atoms

Performance: 679325.685 tau/day, 3931.283 timesteps/s
99.6% CPU use with 48 MPI tasks x no OpenMP threads

MPI task timing breakdown:
Section |  min time  |  avg time  |  max time  |%varavg| %total
---------------------------------------------------------------
Pair    | 1.1075     | 1.1811     | 1.3145     |   3.5 | 46.43
Neigh   | 0.20613    | 0.2162     | 0.23466    |   1.1 |  8.50
Comm    | 0.76887    | 0.87615    | 0.98993    |   4.9 | 34.44
Output  | 0.0002541  | 0.0002579  | 0.00032685 |   0.0 |  0.01
Modify  | 0.20918    | 0.25434    | 0.29123    |   5.3 | 10.00
Other   |            | 0.01564    |            |       |  0.61

Nlocal:        83.3333 ave          93 max          73 min
Histogram: 2 4 3 6 8 4 5 8 4 4
Nghost:        1648.60 ave        1680 max        1621 min
Histogram: 2 1 8 11 7 6 4 3 5 1
Neighs:        9579.58 ave       10833 max        8133 min
Histogram: 3 3 1 10 5 6 6 6 4 4

Total # of neighbors = 459820
Ave neighs/atom = 114.95500
Neighbor list builds = 901
Dangerous builds = 176

# Equilibrate just above the melting temperature to avoid step fn in T

fix 1 all npt temp 1.25 1.25 0.1 iso 5.68 5.68 0.5 mtk yes tchain 5 pchain 5
run 2000
Per MPI rank memory allocation (min/avg/max) = 3.643 | 3.645 | 3.649 Mbytes
Step Temp E_pair E_mol TotEng Press Volume 
   10000    2.3535932     -2.48939            0    1.0401172    5.2291647    3982.6164 
   11000    1.2627784   -3.6934996            0   -1.7998056    5.7275541    3037.0086 
   12000    1.2281528   -3.6838131            0   -1.8420444    5.6934503    3038.1598 
Loop time of 0.626031 on 48 procs for 2000 steps with 4000 atoms

Performance: 552049.771 tau/day, 3194.732 timesteps/s
99.6% CPU use with 48 MPI tasks x no OpenMP threads

MPI task timing breakdown:
Section |  min time  |  avg time  |  max time  |%varavg| %total
---------------------------------------------------------------
Pair    | 0.28155    | 0.30129    | 0.33784    |   2.2 | 48.13
Neigh   | 0.039685   | 0.04233    | 0.046561   |   0.6 |  6.76
Comm    | 0.19313    | 0.2323     | 0.25886    |   2.7 | 37.11
Output  | 5.2641e-05 | 5.431e-05  | 6.9865e-05 |   0.0 |  0.01
Modify  | 0.040304   | 0.045166   | 0.050019   |   1.3 |  7.21
Other   |            | 0.004887   |            |       |  0.78

Nlocal:        83.3333 ave          93 max          76 min
Histogram: 3 5 4 6 14 7 3 4 0 2
Nghost:        1978.62 ave        2004 max        1955 min
Histogram: 2 7 5 4 7 5 8 5 2 3
Neighs:        12582.1 ave       14299 max       10980 min
Histogram: 3 4 7 6 4 8 4 6 3 3

Total # of neighbors = 603942
Ave neighs/atom = 150.98550
Neighbor list builds = 143
Dangerous builds = 17

#############################
# L I N E A R  Q U E N C H  #
#############################

# Define solid atoms. This closely follows ten Wolde  Ruiz-Montero and Frenkel  Faraday Discuss  1996  104  93-110
# Compute components of the per-atom q6 vector
compute q6 all orientorder/atom degrees 1 6 components 6 nnn NULL cutoff 1.3 # compute the Q6 parameter.
                                                                             # Use all neighbours within 1.3 unit cell.

# get number of connections
compute coord_number all coord/atom orientorder q6 0.5

# An atom is solid if it has 8 or more connections (of a possible 14)
variable is_solid atom c_coord_number>=8
group solid dynamic all var is_solid    # Must be dynamic to update
dynamic group solid defined

# do clustering
compute cluster solid cluster/atom 1.3 # Create a cluster where all atoms within are solid and max 1.3 units from another member

# define chunks one chunk per cluster
compute clus_chunks solid chunk/atom c_cluster nchunk every compress yes  # Says which atoms are in which chunk

# count the size of each chunk
compute size_chunks solid property/chunk clus_chunks count


# Find the maximum entry in the vector of chunk sizes
variable max_n equal max(c_size_chunks)


# Thermo style which includes this variable
# thermo_style custom step temp pe vol v_max_n

thermo ${N}  # Print the thermo information every 100 steps
thermo 1000  

# Reset the npt fix at a lower temperature (below freezing)
fix 1  all npt temp  ${temp} ${temp}  0.1  iso  5.68  5.68  0.5  mtk yes tchain  5  pchain  5
fix 1  all npt temp  0.45 ${temp}  0.1  iso  5.68  5.68  0.5  mtk yes tchain  5  pchain  5
fix 1  all npt temp  0.45 0.45  0.1  iso  5.68  5.68  0.5  mtk yes tchain  5  pchain  5

dump dmp2 all dcd ${N} traj.dcd
dump dmp2 all dcd 1000 traj.dcd


compute msd all msd com yes
variable twopoint equal c_msd[4]/6/(step*dt+1.0e-6)
fix 9 all vector 10 c_msd[4]
variable fit equal slope(f_9)/6/(10*dt)
thermo_style custom step temp pe c_msd[4] v_twopoint v_fit v_max_n

fix 1 all npt temp 1.25 ${temp} 0.1 iso 5.68 5.68 0.5 mtk yes tchain 5 pchain 5
fix 1 all npt temp 1.25 0.45 0.1 iso 5.68 5.68 0.5 mtk yes tchain 5 pchain 5
run 2000000 # 5000000  # Run for this many steps
Neighbor list info ...
  update every 1 steps, delay 10 steps, check yes
  max neighbors/atom: 2000, page size: 100000
  master list distance cutoff = 3.8
  ghost atom cutoff = 3.8
  binsize = 1.9, bins = 8 8 8
  4 neighbor lists, perpetual/occasional/extra = 1 3 0
  (1) pair lj/cut, perpetual
      attributes: half, newton on
      pair build: half/bin/atomonly/newton
      stencil: half/bin/3d
      bin: standard
  (2) compute orientorder/atom, occasional
      attributes: full, newton on
      pair build: full/bin/atomonly
      stencil: full/bin/3d
      bin: standard
  (3) compute coord/atom, occasional
      attributes: full, newton on
      pair build: full/bin/atomonly
      stencil: full/bin/3d
      bin: standard
  (4) compute cluster/atom, occasional
      attributes: full, newton on
      pair build: full/bin/atomonly
      stencil: full/bin/3d
      bin: standard
Per MPI rank memory allocation (min/avg/max) = 9.828 | 9.833 | 9.838 Mbytes
Step Temp PotEng c_msd[4] v_twopoint v_fit v_max_n 
   12000    1.2281528   -3.6838131 4.0515896e-30 2.8136038e-32 8.3333333e+20            1 
   13000    1.2631898   -3.6806235   0.93948353 0.0060223301  0.079429919            1 
   14000    1.2573989   -3.6976546    1.8629011  0.011088697  0.077835796            1 
   15000    1.2703679   -3.7159064     2.872427  0.015957927  0.080129721            4 
   16000    1.2221798   -3.6328425    3.9370975  0.020505715  0.082037587            1 
   17000    1.2567486   -3.7043337    4.9708441  0.024366882  0.083319146            2 
   18000    1.2396961   -3.6854189    5.9021117  0.027324591  0.083509158            1 
   19000    1.2562426   -3.7017787    6.8791862  0.030171869  0.083350544            1 
   20000    1.2479409   -3.6853633    7.8962804  0.032901167  0.083286436            2 
   21000    1.2585864   -3.6850775    8.8757647  0.035221288  0.083149606            3 
   22000    1.2382801   -3.7110173    9.8609723  0.037352167   0.08300634            2 
   23000    1.2622652   -3.6419312    11.056791  0.040060835  0.083157363            6 
   24000    1.2203725   -3.7037874     12.11019  0.042049269  0.083798588            1 
   25000    1.2294107   -3.6858195    13.127068  0.043756893  0.084010966            3 
   26000    1.2631217   -3.6911235     14.17246  0.045424551  0.084388049            1 
   27000    1.2507166    -3.717921    15.073195  0.046522205  0.084718213            1 
   28000    1.2586927    -3.678603    16.116354  0.047965339   0.08473763            1 
   29000     1.249006   -3.7149566    17.075089  0.049066346  0.084610477            2 
   30000    1.2605792   -3.7037499    18.027966  0.050077682  0.084662385            3 
   31000    1.2545845   -3.6693924    19.196518  0.051603542  0.084635697            1 
   32000    1.2157845   -3.6883909    20.050404  0.052214593     0.084625            2 
   33000    1.2426175   -3.7154021    20.990807  0.053007087  0.084520082            1 
   34000    1.2230906   -3.7147801    22.044433  0.054030471   0.08440078            1 
   35000    1.2529002   -3.7009304    22.974419  0.054700996  0.084291183            2 
   36000    1.2277848    -3.715512    24.047314  0.055665078  0.084150199            1 
   37000    1.2030947   -3.7148277     24.99749  0.056300653  0.084105264            2 
   38000    1.2228454   -3.6822116    25.966026  0.056943038  0.084017071            1 
   39000    1.2192347   -3.7108165    27.026506  0.057748943   0.08392881            1 
   40000    1.2302319   -3.7158573    27.993613  0.058320026  0.083864819            1 
   41000    1.2391739   -3.7336949    28.970308   0.05888274  0.083835979            3 
   42000    1.2345765   -3.6780636     30.26083  0.060041329  0.083845328            2 
   43000    1.2295556   -3.7027179    30.991145  0.060060359  0.083852153            4 
   44000    1.2374031   -3.6966707     31.86146  0.060343674  0.083738133            2 
   45000    1.2510642   -3.7197492    32.760445   0.06066749  0.083634378            1 
   46000    1.2418499   -3.7140977    33.758234   0.06115622  0.083488877            2 
   47000    1.2349256   -3.6916199    34.681448  0.061491929  0.083365033            2 
   48000    1.2322788   -3.6989066    35.678758  0.061942288  0.083224709            1 
   49000      1.23399   -3.7024741    36.530252  0.062126279  0.083097762            2 
   50000    1.2423747   -3.7000712    37.447762  0.062412935  0.082947757            3 
   51000    1.2303845   -3.7256829    38.742989  0.063305536  0.082848682            1 
   52000    1.2179798   -3.7203904    39.557935  0.063394127  0.082772886            3 
   53000    1.2129875   -3.7119775    40.452151  0.063604011    0.0827013            1 
   54000     1.198637   -3.6960613    41.310695  0.063751072  0.082634495            2 
   55000    1.2216856   -3.7145653    42.259301  0.064029243  0.082526594            1 
   56000    1.2328579   -3.7710886    43.230379   0.06433092  0.082412259            4 
   57000    1.2363828   -3.6870615    44.415204  0.064934509  0.082356487            3 
   58000    1.2469546   -3.7175704    45.429883  0.065272819  0.082319143            2 
   59000    1.2158918   -3.6858552    46.675363  0.065925653  0.082324049            1 
   60000    1.2090772   -3.7191851    47.493036  0.065962549  0.082299825            1 
   61000    1.2070144    -3.704261    48.576613  0.066361493  0.082278469            2 
   62000    1.2318247   -3.6698601    49.837676  0.066986123  0.082296446            3 
   63000    1.2317808   -3.7104889    50.613347  0.066948871  0.082324474            1 
   64000    1.1964691   -3.6938858    51.915061  0.067597735  0.082373846            2 
   65000     1.239023   -3.7231915    52.505863  0.067315209  0.082404962            2 
   66000    1.2448784   -3.7161276     53.66024  0.067752828  0.082428592            1 
   67000    1.2408783    -3.718731    54.770084  0.068121994  0.082465315            2 
   68000    1.2162626   -3.7539611    55.663433  0.068214991  0.082473033            2 
   69000    1.2440055   -3.7080525    56.540199  0.068285264  0.082477142            1 
   70000    1.2242722   -3.7081348    57.258868  0.068165318  0.082470407            2 
   71000    1.2394784   -3.7025027    57.984771  0.068057243  0.082413229            4 
   72000    1.2434513   -3.7065912    59.369399  0.068714582  0.082381022            3 
   73000    1.2042786   -3.6957589    60.558428  0.069130625  0.082381902            3 
   74000    1.2373713   -3.7412747    61.348239  0.069085854  0.082384331            2 
   75000    1.2257507   -3.7160309    62.461908  0.069402119   0.08237915            2 
   76000    1.2065216   -3.7339216    63.204219  0.069302871  0.082381417            2 
   77000    1.2479664   -3.7028655    64.198439  0.069478829  0.082369009            4 
   78000      1.20442    -3.720761    65.403972  0.069876038  0.082374572            1 
   79000    1.2176277   -3.7313162    66.177089  0.069807055   0.08236625            1 
   80000    1.2334212   -3.7250011     67.20998  0.070010395  0.082353232            2 
   81000    1.1979167   -3.7086457    68.305676  0.070273329  0.082350078            1 
   82000    1.1996578   -3.7015027     68.90115  0.070021493  0.082316019            3 
   83000    1.2167235   -3.7555116    69.768365  0.070048559  0.082276408            1 
   84000    1.2228195   -3.7224174    70.703479   0.07014234  0.082229701            2 
   85000    1.2112224   -3.7381808    71.654552   0.07024956  0.082179939            3 
   86000     1.222414   -3.7286751     72.30842  0.070066298  0.082118832            1 
   87000    1.2162944   -3.7507754    73.281497  0.070193004  0.082066304            2 
   88000    1.2484416   -3.7259591    74.687788  0.070727071  0.082021451            3 
   89000    1.2246516   -3.7545394    75.571873   0.07076018   0.08196805            1 
   90000    1.2309498   -3.7589402    76.204297  0.070559534  0.081920543            2 
   91000    1.2100601   -3.7075491    77.477634  0.070950213  0.081867693            2 
   92000    1.2069778   -3.7252475    78.409067  0.071022705  0.081829775            1 
   93000    1.1994322   -3.7539543    79.197852  0.070965816  0.081782837            2 
   94000    1.2009504     -3.72098    80.059355  0.070974605  0.081728604            1 
   95000      1.20814   -3.7570628    81.161021  0.071193878  0.081667288            2 
   96000    1.2054813   -3.7254713    81.784993  0.070993917  0.081617978            2 
   97000    1.2063232   -3.7395591    82.839766  0.071168183  0.081556821            1 
   98000    1.2015833   -3.7393054    83.712272  0.071183904  0.081502779            2 
   99000    1.2277549    -3.704428    84.828044  0.071404077  0.081438532            2 
  100000    1.2176898   -3.7451217    85.701232  0.071417693  0.081397745            2 
  101000     1.205939   -3.7466923    87.101453  0.071865885  0.081352424            2 
  102000    1.2158843   -3.7336766    87.557388  0.071533813  0.081313209            2 
  103000    1.1866834   -3.7600038    88.672215  0.071741274  0.081272814            3 
  104000    1.2454463    -3.741728    89.332078   0.07158019  0.081238524            2 
  105000    1.2185804   -3.7225407    90.111625  0.071517163  0.081185815            1 
  106000    1.2400016   -3.7548042    90.925519  0.071482326   0.08112827            3 
  107000    1.2060784   -3.7465454    91.493198  0.071256384  0.081066092            2 
  108000    1.1895073   -3.7514985    92.764507  0.071577552  0.081004999            3 
  109000    1.2057811   -3.7489495    93.419486  0.071421625  0.080941102            3 
  110000    1.1945689   -3.7006779    94.599358   0.07166618  0.080870677            2 
  111000     1.209299   -3.7361579    95.371711  0.071600384  0.080802755            1 
  112000    1.2334936   -3.7443112    96.326896  0.071671798  0.080742432            4 
  113000    1.2148028   -3.7317225    97.992178  0.072265618  0.080693754            1 
  114000    1.2152759   -3.7667715    98.349441  0.071892866  0.080652178            2 
  115000    1.2192041   -3.7582219    99.175605   0.07186638  0.080613383            2 
  116000    1.2145018   -3.7414368    100.71765   0.07235463  0.080569198            2 
  117000    1.2133714   -3.7566773    101.54756  0.072327324  0.080530698            2 
  118000    1.1972179   -3.7262108    102.37227  0.072296804   0.08048722            1 
  119000    1.1878827   -3.7761089    103.27417  0.072320844  0.080454344            2 
  120000    1.2158066   -3.7393122    104.77752  0.072762169  0.080424292            1 
  121000    1.2165352   -3.7410412     105.3692  0.072568316  0.080393341            2 
  122000    1.2278989   -3.7712641    105.78788  0.072259477  0.080355533            2 
  123000    1.1887633   -3.7422968    107.03938  0.072519907  0.080317009            1 
  124000    1.2270104    -3.751269    107.76553   0.07242307  0.080285937            5 
  125000     1.201401   -3.7398434     109.0121  0.072674731  0.080256347            4 
  126000    1.1947913   -3.7079864    109.73895  0.072578673  0.080226559            2 
  127000    1.2229526   -3.7602305    110.76806  0.072682452  0.080193322            3 
  128000    1.1707681    -3.736982    111.29839  0.072459888  0.080165457            2 
  129000    1.2179536   -3.7610786    112.73126  0.072823808  0.080136638            2 
  130000    1.2222676   -3.7282177    113.77377  0.072931906  0.080117496            2 
  131000    1.1823734   -3.7648981     115.0922  0.073213869  0.080100471            2 
  132000    1.1912074   -3.7315315    115.41377  0.072862231  0.080074669            5 
  133000    1.1828901   -3.7402761    115.53647  0.072391271  0.080037027            2 
  134000      1.22252   -3.7429748    116.86505  0.072677273   0.07998692            1 
  135000    1.1860442   -3.7564378    117.44925  0.072499534  0.079931704            1 
  136000    1.2137351   -3.7620247    117.76464  0.072159708  0.079875119            2 
  137000    1.2100839   -3.7600345    119.16738   0.07248624   0.07982103            2 
  138000    1.2170624   -3.7405214    120.03542  0.072485156  0.079774368            2 
  139000    1.2039064   -3.7322747    121.00048  0.072542257  0.079717223            2 
  140000    1.1714938   -3.7516788     121.5996  0.072380715  0.079664403            1 
  141000    1.1780285   -3.7534623    123.65358  0.073081312  0.079619321            1 
  142000    1.2213587   -3.7860367    123.48276  0.072466411  0.079571045            2 
  143000    1.1992515   -3.7201113    124.74542  0.072695468  0.079515743            3 
  144000    1.1714875   -3.7758571    125.00883  0.072343073  0.079464155            4 
  145000    1.2060335   -3.7679039    126.03715  0.072435146  0.079410406            1 
  146000    1.1798498   -3.7926176    126.13199  0.071993142  0.079349441            2 
  147000    1.1937616   -3.7735797    127.34964  0.072193671  0.079287762            3 
  148000    1.1854424   -3.7731449    128.35281  0.072270726  0.079227187            1 
  149000    1.2138952   -3.7682345    128.75137  0.072008593  0.079158858            1 
  150000    1.1706568   -3.7746964    130.43764  0.072465353  0.079102247            2 
  151000    1.1709245   -3.7632532    131.75339  0.072711581  0.079049997            2 
  152000    1.1783093   -3.8000402    132.31813  0.072542833  0.079004896            2 
  153000    1.1803705   -3.7745053    133.67988  0.072810394  0.078965025            2 
  154000    1.1905571   -3.7677051    134.44366  0.072750898  0.078926656            2 
  155000    1.1691827   -3.7713406    135.48472  0.072841247  0.078884388            5 
  156000    1.2060696   -3.7524543    136.32072  0.072820895  0.078844155            3 
  157000    1.2233088   -3.7945562    137.67772  0.073077344  0.078814097            3 
  158000    1.1888483   -3.7656115    138.49458  0.073045662  0.078780076            3 
  159000    1.2165414   -3.7536947    139.92249  0.073334636  0.078749969            2 
  160000    1.1855313   -3.7820108    139.77013  0.072796944  0.078715367            2 
  161000     1.194014   -3.7639857    140.97168  0.072966707  0.078682549            1 
  162000    1.1829659   -3.7271674    141.80478  0.072944847  0.078649989            3 
  163000    1.1893637   -3.7570544    143.21577  0.073218697  0.078617586            2 
  164000    1.1818762   -3.7774038    143.68687  0.073011622  0.078588033            2 
  165000    1.1847882   -3.7835519    144.94897  0.073206551  0.078558788            2 
  166000    1.2006156   -3.7534083    145.99093  0.073288618  0.078528683            2 
  167000    1.1670027   -3.8039851    146.26859  0.072988317  0.078502938            4 
  168000    1.1883175   -3.7571122    148.12365  0.073474033  0.078473515            1 
  169000    1.1706154   -3.7925159    148.62704  0.073287497  0.078454102            3 
  170000    1.2087221   -3.7670471    149.64859  0.073357151  0.078431402            2 
  171000    1.1944155   -3.7922006    150.58226  0.073383166   0.07841272            2 
  172000    1.1818025   -3.7888863    150.97669  0.073147622  0.078392281            5 
  173000    1.1948588   -3.8156486    150.87829  0.072677405  0.078369415            1 
  174000    1.1695999   -3.7999171    153.38333  0.073459447  0.078345753            1 
  175000     1.188512   -3.7650221     154.2441   0.07344957  0.078324173            6 
  176000    1.1885863   -3.7582206    155.30104  0.073532691  0.078306331            1 
  177000    1.1727629   -3.7497861    157.66374  0.074229635  0.078287051            2 
  178000    1.1592219   -3.7903772    156.20394  0.073129185  0.078265287            2 
  179000    1.1565406   -3.7982682    156.47563  0.072847128  0.078235872            2 
  180000    1.2114458   -3.7921933    158.28603  0.073280571  0.078202333            1 
  181000    1.1837229   -3.8073017    158.81097  0.073117387   0.07817277            3 
  182000    1.1632372   -3.7792461    159.30592  0.072942269  0.078141807            1 
  183000    1.1870723   -3.7927737    160.14034  0.072923653  0.078108195            2 
  184000    1.1601966   -3.7316933    161.55507  0.073168055  0.078072805            2 
  185000    1.1867805   -3.8105132    162.01484  0.072979658  0.078038858            1 
  186000    1.1789693   -3.7535098    162.69185  0.072890615  0.078006584            2 
  187000    1.1578883    -3.816285    163.58147  0.072897268  0.077966359            3 
  188000    1.1880943   -3.7750663    164.86628  0.073079026  0.077934307            3 
  189000    1.1674017   -3.7908623    166.21933  0.073288944  0.077906452            1 
  190000    1.1912351   -3.7917628    166.89648  0.073200211  0.077876561            2 
  191000    1.1983195   -3.8016458    166.56136  0.072670751  0.077840575            2 
  192000    1.1846582   -3.8261111    166.82113  0.072405006  0.077797982            3 
  193000    1.1804564   -3.7547908    168.63803  0.072814349  0.077753158            1 
  194000    1.1990948    -3.776678    169.88937  0.072976534  0.077710132            3 
  195000    1.2009803   -3.7518409    170.94582  0.073053769  0.077667695            3 
  196000    1.1715469   -3.7875232    171.78058  0.073035959  0.077631836            3 
  197000    1.1559893   -3.8003372     172.1868  0.072837054  0.077591879            3 
  198000    1.1681878    -3.789853    172.15986  0.072457854  0.077551862            6 
  199000    1.1600027   -3.7705714    174.29579  0.072988188  0.077517188            2 
  200000    1.1842935   -3.8270458    174.44185  0.072684105  0.077483516            3 
  201000    1.1887286   -3.8114387     175.8299   0.07289797  0.077453083            2 
  202000    1.1726349   -3.8056053     176.9344  0.072992739  0.077423438            2 
  203000    1.2004511   -3.7843936    177.49124  0.072861755  0.077390527            2 
  204000    1.1859885    -3.803325    179.31621  0.073250086  0.077359736            3 
  205000    1.1795421   -3.8402227    179.50767  0.072970598  0.077335001            2 
  206000    1.1976802   -3.7841102    181.49267  0.073419365    0.0773117            2 
  207000    1.1776363   -3.8283448    181.30123  0.072987614  0.077288815            1 
  208000    1.1775018   -3.7705866    183.28242  0.073430457  0.077265502            2 
  209000    1.1624918   -3.7680878    184.58311  0.073597731  0.077245593            2 
  210000    1.1617266   -3.7892638     184.2255  0.073105356  0.077219552            4 
  211000    1.2011961   -3.7572414    185.31128  0.073187708  0.077198432            2 
  212000    1.1713924    -3.813106    186.29997  0.073231121  0.077171475            2 
  213000    1.1526509   -3.8103634    185.98913  0.072765701  0.077140158            2 
  214000    1.1804926   -3.8078947    186.23048  0.072519657  0.077109024            3 
  215000    1.1749364   -3.7980641    187.13976   0.07253479  0.077074204            6 
  216000    1.1831381   -3.7936478    188.60677  0.072764959  0.077042635            2 
  217000     1.151792   -3.7907001    190.15989  0.073026071  0.077007555            2 
  218000    1.1706898   -3.7677326    189.64519  0.072494338  0.076968478            2 
  219000     1.156952   -3.7798774    190.40852  0.072453774   0.07692693            1 
  220000     1.174495   -3.7835096    192.50877  0.072919989  0.076890033            1 
  221000    1.1878838   -3.8022352    193.67933  0.073031422  0.076861081            2 
  222000    1.1548472   -3.8062142    193.64143  0.072688223  0.076835213            6 
  223000     1.159425   -3.7900744    194.28318  0.072602087  0.076800705            1 
  224000    1.1650725    -3.842745    193.95198  0.072154755  0.076760068            2 
  225000    1.1552701   -3.8397446    195.67021  0.072470449  0.076721494            2 
  226000    1.1679622    -3.784186    195.00084  0.071902964  0.076677425            2 
  227000    1.1341962    -3.794779    196.74834  0.072227731  0.076635886            4 
  228000    1.1790322    -3.813469    197.99939  0.072368196  0.076589717            1 
  229000    1.1563788   -3.7963722    198.26802  0.072149933  0.076545342            1 
  230000    1.1583176   -3.8371169    198.70078  0.071993035  0.076498997            2 
  231000    1.1576251   -3.7922994    200.06674  0.072174147   0.07645235            2 
  232000    1.1522125   -3.8454114    200.41942  0.071989734  0.076401376            2 
  233000    1.1236263   -3.7889651    200.70527  0.071783002  0.076349752            2 
  234000    1.1575594   -3.8260157    201.47414   0.07175005  0.076297828            3 
  235000    1.1620069   -3.8145899    202.77995  0.071907782  0.076251098            5 
  236000    1.1539136   -3.8208689    203.83979  0.071977327  0.076202961            1 
  237000    1.1935605   -3.7895012    204.89809  0.072045743  0.076153821            2 
  238000    1.1624344   -3.7938706    204.86661  0.071732007  0.076104512            3 
  239000    1.1675028   -3.8160273    205.26667  0.071571362  0.076054941            3 
  240000    1.1529301    -3.794675    207.20355  0.071945677  0.076003863            1 
  241000     1.157146   -3.8036694     207.9209  0.071895193  0.075952586            2 
  242000    1.1701144   -3.8057128     207.6217  0.071495077  0.075901575            2 
  243000    1.1353877   -3.8133736    208.82826  0.071614629  0.075847917            2 
  244000    1.1623577   -3.8080863    208.92999  0.071355869  0.075796436            3 
  245000    1.1712464   -3.8301032    208.90713  0.071056846  0.075744077            2 
  246000    1.1827274   -3.8302931    210.80626  0.071411334  0.075689119            3 
  247000    1.1713063   -3.7952978    211.98079  0.071518487  0.075636185            4 
  248000    1.1420533   -3.8300555    211.60833  0.071104949  0.075582388            2 
  249000    1.1414857   -3.8128493    213.02208  0.071292531  0.075529198            1 
  250000    1.1348543   -3.8078949     213.5656  0.071188532  0.075477115            1 
  251000    1.1369342   -3.8219225    214.46298  0.071202849  0.075424678            3 
  252000    1.1603554   -3.7940822    215.48642  0.071258736   0.07537305            1 
  253000    1.1618148   -3.8437567    216.40106  0.071278347  0.075324423            1 
  254000    1.1838918   -3.7752676    218.09786  0.071554414  0.075280443            4 
  255000       1.1614   -3.8086285    219.14758  0.071616857  0.075233361            1 
  256000    1.1602154   -3.8530679    219.69996  0.071516913  0.075187982            2 
  257000    1.1432274    -3.834693     220.8839  0.071622537  0.075143444            2 
  258000    1.1665513   -3.8127401    221.12211  0.071421871   0.07509758            5 
  259000    1.1352422   -3.8559588    220.53969  0.070958717   0.07505255            1 
  260000    1.1481469   -3.7983745     223.5982   0.07166609  0.075012904            1 
  261000     1.124223   -3.8408574    223.71527  0.071428886  0.074971481            3 
  262000    1.1193415   -3.8527408    224.51308  0.071410013   0.07492811            1 
  263000    1.1573782   -3.8259028    225.92691  0.071586473  0.074886146            1 
  264000     1.155891   -3.8459872    225.26661  0.071106884  0.074839888            2 
  265000    1.1291573   -3.8332941    225.52314  0.070919225   0.07479412            4 
  266000    1.1450996   -3.8277429    226.45425  0.070944314   0.07474731            3 
  267000    1.1740011   -3.8443378    227.94208  0.071142971  0.074703954            3 
  268000    1.1421625     -3.87302    228.22512  0.070965522  0.074661291            1 
  269000    1.1815701   -3.8612126     228.9599  0.070929338  0.074616684            1 
  270000    1.1748276   -3.8287596    230.81588  0.071239468  0.074575484            5 
  271000    1.1611505   -3.8228415    232.04794  0.071355454  0.074534002            3 
  272000    1.1530289   -3.8597574    231.50869  0.070927908   0.07449393            3 
  273000    1.1614977   -3.8510681    232.94318  0.071105977   0.07445311            3 
  274000    1.1506604   -3.8338598    233.88407  0.071132626  0.074412762            2 
  275000    1.1763259   -3.8154674    235.60479  0.071395391  0.074377215            2 
  276000    1.1350669   -3.8198886    236.77123  0.071488897  0.074343115            1 
  277000    1.1371592   -3.8107757    237.37583  0.071412705  0.074308655            2 
  278000    1.1471503   -3.8544509    237.71266  0.071256793  0.074275436            2 
  279000    1.1369564   -3.8303279    239.93486  0.071665131  0.074248565            3 
  280000     1.142564   -3.8599101    239.37716  0.071243202  0.074219526            2 
  281000    1.1497354   -3.8155172    240.77264   0.07140351  0.074188429            2 
  282000    1.1320273   -3.8505424    241.03179  0.071226889  0.074156018            2 
  283000    1.1514192   -3.8374984    241.55189  0.071128353  0.074118373            3 
  284000    1.1217348   -3.8317919    242.47418  0.071148527  0.074081786            2 
  285000    1.1369247   -3.8589971    242.36908  0.070868153  0.074044847            1 
  286000    1.1381383   -3.8406008    244.29732  0.071182203  0.074009869            3 
  287000     1.132376   -3.8251554    244.54233  0.071005322  0.073975006            1 
  288000    1.1643166   -3.8363362    245.00965  0.070893997  0.073941242            2 
  289000    1.1101762   -3.8484638    245.24282  0.070715924  0.073901326            3 
  290000    1.1590606   -3.8775796    245.61954  0.070580327  0.073863528            4 
  291000    1.1373504   -3.8662894    246.58767  0.070615027  0.073823097            2 
  292000    1.1071571   -3.8353667      248.492  0.070916667  0.073783637            4 
  293000    1.1172606   -3.8384677    248.06113  0.070552086  0.073742114            2 
  294000    1.1455089   -3.8273391     248.3926  0.070406066  0.073703901            2 
  295000    1.1240361    -3.846304    249.86649  0.070583753  0.073660907            2 
  296000    1.1436963   -3.7992847    251.72221  0.070867738  0.073621133            2 
  297000     1.157836     -3.82961    251.09192   0.07045228  0.073581041            1 
  298000    1.1430781   -3.8574251    251.09464  0.070216623  0.073537314            2 
  299000    1.1482591   -3.8405459    253.12684  0.070548173   0.07349315            2 
  300000    1.1183525   -3.8610146    252.97024  0.070269511  0.073448519            2 
  301000    1.1560206   -3.8283707    253.11343  0.070075699  0.073403844            2 
  302000    1.1117874   -3.8823694    252.98913  0.069809361  0.073358215            1 
  303000    1.1561983    -3.853736    255.12146  0.070165418  0.073315312            1 
  304000    1.1178524   -3.8554934    255.41414  0.070014841  0.073273965            4 
  305000    1.1352548   -3.8618896    257.64313  0.070394297  0.073231493            3 
  306000    1.1500111   -3.8335207    258.54378  0.070409526  0.073190163            1 
  307000    1.1233523   -3.8440252    259.23197  0.070366985  0.073148958            1 
  308000    1.1436033   -3.8512742    259.96508  0.070336873  0.073109502            2 
  309000    1.1169205   -3.8541238    261.66429  0.070567499  0.073074441            2 
  310000    1.1294645   -3.8596948    262.74326  0.070629908  0.073040815            3 
  311000    1.1351088   -3.8531485    263.10039  0.070498496  0.073011464            2 
  312000    1.1335133   -3.8512461    264.17068  0.070558407  0.072982895            2 
  313000    1.1089063    -3.863562    264.98491  0.070549764  0.072952033            3 
  314000    1.1363161   -3.8876057    265.02192  0.070334903  0.072922463            3 
  315000    1.1231629    -3.875843    265.80726  0.070319381  0.072890377            3 
  316000    1.1217447   -3.8721163      266.097  0.070173259  0.072859351            4 
  317000    1.1327578   -3.8252289    268.55114   0.07059704  0.072826085            3 
  318000    1.1366982   -3.8499909    267.99453  0.070229175  0.072792028            5 
  319000    1.1364777   -3.9079104    267.43811  0.069863666  0.072752171            2 
  320000    1.1497186   -3.8599828    269.81737   0.07026494  0.072713179            2 
  321000    1.1193031   -3.8681607    268.67177  0.069748642  0.072672722            4 
  322000    1.1247133   -3.8887227    270.07984   0.06989644  0.072631672            3 
  323000    1.1198008   -3.8911174    269.25779  0.069467953  0.072593225            1 
  324000    1.1294226    -3.839587    271.83738  0.069917022  0.072551838            3 
  325000    1.1192662    -3.885652    270.91804  0.069466165  0.072510641            2 
  326000      1.13426   -3.8829699    272.53573  0.069666597  0.072469323            3 
  327000    1.1212831   -3.8404799    273.49577  0.069698209  0.072430884            4 
  328000    1.1109584   -3.8610668    275.31388  0.069947633  0.072392058            1 
  329000    1.1403121   -3.8669667     275.5918  0.069805421  0.072355353            2 
  330000    1.1037408   -3.8515266    276.62142  0.069853895  0.072320455            1 
  331000    1.1214038   -3.8426927    277.21289  0.069791764  0.072284781            1 
  332000    1.1190074   -3.8587011    278.38915  0.069876795   0.07224924            2 
  333000    1.1497808   -3.8868568    277.81977  0.069524467  0.072210752            3 
  334000    1.1468165   -3.8927541    277.90083  0.069336535  0.072172271            3 
  335000    1.0951864   -3.8746296     278.8996   0.06937801  0.072133447            3 
  336000    1.1257575   -3.8967098    279.46372  0.069311438  0.072093034            2 
  337000    1.1267848   -3.8865517    280.38315  0.069333123  0.072054513            2 
  338000    1.1268119   -3.8654385     281.9386  0.069511489  0.072013174            2 
  339000    1.1074352   -3.8650657    282.45048  0.069432271  0.071973119            2 
  340000    1.1172323   -3.8961392    282.48486  0.069236486  0.071931402            2 
  341000    1.1097366   -3.8620215    284.64257  0.069560745  0.071891588            1 
  342000    1.1132653   -3.8715447    285.73075  0.069622501  0.071853213            3 
  343000    1.0925793   -3.8851918    284.47086  0.069113425  0.071816368            3 
  344000    1.1100902   -3.8491694    287.00833   0.06952721  0.071778912            4 
  345000    1.1283726   -3.8718118    286.97619  0.069317921  0.071744775            2 
  346000    1.0930219   -3.8812513    287.69706    0.0692912  0.071711373            2 
  347000    1.1465376   -3.8693332    289.62994  0.069555702  0.071678697            2 
  348000    1.0751748   -3.8890696    289.60104  0.069348907  0.071644214            1 
  349000    1.1284099   -3.8656158    290.82821   0.06944322   0.07160881            2 
  350000    1.1014193   -3.8837531    291.08225  0.069305298  0.071573585            1 
  351000    1.1244684   -3.9000787    291.94419  0.069312486  0.071535418            5 
  352000    1.1237279   -3.8586157    292.44675  0.069234554  0.071497726            5 
  353000    1.1152592    -3.850118    293.81015   0.06936028  0.071462677            3 
  354000    1.1061559   -3.8527621    294.02404  0.069214699  0.071427036            3 
  355000    1.0957864   -3.9108113    294.39709  0.069107298   0.07139181            2 
  356000    1.0953563   -3.8636731    295.84549  0.069252222  0.071356168            2 
  357000    1.1036351   -3.8579069    296.13196  0.069125108  0.071319318            3 
  358000    1.1326193   -3.8874468    295.86749  0.068870459  0.071282069            3 
  359000    1.0993187   -3.9030067    296.54086  0.068834925   0.07124205            1 
  360000    1.1021396   -3.8807051    297.70841  0.068913984  0.071203153            1 
  361000    1.1103217   -3.9017833    298.15193  0.068825467  0.071166234            1 
  362000    1.0884072   -3.8837525    299.39914  0.068922453  0.071129039            2 
  363000    1.1291894   -3.8741574    300.00823  0.068872414  0.071094361            1 
  364000    1.0890464   -3.9166506    300.05322  0.068693504   0.07105852            2 
  365000     1.108623   -3.9225317    301.09875  0.068744006  0.071021353            1 
  366000    1.0870895   -3.9065634    301.22611   0.06858518  0.070986964            2 
  367000    1.1301721   -3.8888156    303.59228  0.068935576  0.070953464            3 
  368000    1.0828727   -3.8511286    304.84524  0.069031984  0.070921519            4 
  369000    1.1203974   -3.8998922    304.58666  0.068786509  0.070886072            3 
  370000     1.108668   -3.9165442    305.58133  0.068824625  0.070851694            3 
  371000    1.1000144   -3.9060795    306.25131  0.068789602  0.070818494            2 
  372000    1.0959642   -3.8821486    307.84096  0.068960787  0.070787195            2 
  373000    1.1378749   -3.8907506    308.24921  0.068867116  0.070753284            4 
  374000    1.0773769    -3.886509    309.95826  0.069063784  0.070721781            4 
  375000    1.0902802    -3.900966    309.58404  0.068796454  0.070690591            5 
  376000    1.1155909   -3.8973781    309.56976  0.068610319   0.07065615            3 
  377000    1.0843087   -3.8765769    309.61671  0.068438707  0.070621445            4 
  378000    1.1034824    -3.903799    310.45199  0.068441796  0.070586066            3 
  379000    1.1150195   -3.8840917    310.63931  0.068302399  0.070553295            4 
  380000     1.132617   -3.9030651    313.90499  0.068838814  0.070521127            2 
  381000    1.1039147   -3.8834833    313.93042  0.068663697  0.070488714            1 
  382000    1.1052746   -3.9082132    313.47702   0.06838504  0.070455046            4 
  383000    1.0917107   -3.8604771    315.20953  0.068583448  0.070420697            1 
  384000    1.0643704   -3.8750111     314.7797  0.068311568  0.070385788            1 
  385000    1.1128896   -3.9483769    314.57766  0.068090403  0.070352148            3 
  386000    1.1175527   -3.9194339    316.09188  0.068240906  0.070315345            2 
  387000    1.0861229   -3.8670137    318.55959  0.068595949  0.070280616            2 
  388000    1.0652454   -3.8779046    317.71906   0.06823863  0.070245855            2 
  389000    1.1097558   -3.8736956    319.00296  0.068338252  0.070212374            3 
  390000    1.0865539   -3.9387884    318.48704  0.068052785  0.070178682            2 
  391000    1.1055429   -3.9333337    320.08145  0.068218553  0.070143639            3 
  392000    1.0917704   -3.9147949    320.79809  0.068196872   0.07010898            3 
  393000    1.1179359   -3.8713329    321.80118  0.068236043  0.070074616            2 
  394000    1.0955815   -3.8896977    323.07491  0.068332256  0.070040852            2 
  395000    1.0936646   -3.8969214    323.10015  0.068164588    0.0700084            4 
  396000    1.0803494   -3.9005271    325.05148   0.06840309  0.069976633            4 
  397000    1.0912118   -3.9373344    324.18933  0.068049817  0.069945294            1 
  398000    1.1031116   -3.8980965    326.19798  0.068299409  0.069915112            2 
  399000    1.0917685   -3.9058662    328.18629  0.068543503   0.06988566            1 
  400000    1.1050745   -3.9259241    328.14292  0.068363108  0.069857466            1 
  401000    1.0973006   -3.9018478    329.26087  0.068424952  0.069827947            1 
  402000    1.0933351   -3.9007385    327.99851  0.067993057  0.069799311            4 
  403000    1.1072687   -3.9100726    329.35174  0.068104164   0.06977007            3 
  404000    1.0716399   -3.8987187    331.40878  0.068359897  0.069741835            3 
  405000    1.1019846    -3.907228    331.38918  0.068187074   0.06971188            1 
  406000    1.0943611   -3.9206273    331.65831  0.068074366  0.069680115            5 
  407000    1.0881619   -3.9272438    331.89453  0.067955472  0.069646358            2 
  408000    1.1135083   -3.9048449    333.12742  0.068040732  0.069615633            7 
  409000    1.0850698   -3.9100634    333.02817   0.06785415  0.069583385            6 
  410000    1.0967368   -3.9328404    333.88427  0.067862657  0.069551226            1 
  411000    1.0722999   -3.9112956    335.84395   0.06809488  0.069517106            2 
  412000    1.0819901   -3.9180943    335.45617  0.067851166  0.069484073            1 
  413000    1.0892883    -3.915495    336.43638  0.067884661  0.069452658            3 
  414000    1.0935275   -3.8932919    337.19791  0.067873975  0.069422695            2 
  415000    1.0980929   -3.9487528    337.29247  0.067729412  0.069394129            1 
  416000    1.0743086   -3.9416076    337.70954  0.067650148  0.069363169            5 
  417000    1.0857035   -3.9259685     339.4269  0.067831115  0.069331085            2 
  418000    1.1000709   -3.9378644    338.38735  0.067461593  0.069299765            2 
  419000     1.107942   -3.9497236    338.44136  0.067311328  0.069266703            5 
  420000    1.0941782   -3.9526161    339.07662  0.067277107  0.069233801            3 
  421000    1.1072924   -3.9318791    341.17835  0.067533324  0.069200499            1 
  422000    1.0769095    -3.914168    342.17121  0.067569354  0.069166591            2 
  423000    1.0962142   -3.9302502    341.36526   0.06725084  0.069132936            4 
  424000    1.0861348   -3.9429292    341.39667  0.067098401   0.06909827            3 
  425000     1.106199   -3.9334862    343.45093   0.06734332  0.069065393            1 
  426000    1.1001677   -3.9132098     344.0008  0.067292801  0.069031568            2 
  427000     1.118611   -3.9543439    344.73868  0.067279212  0.068996959            2 
  428000    1.0809967   -3.9057529    347.37814  0.067635931  0.068962924            2 
  429000    1.0933989    -3.925625    346.70356  0.067347233  0.068927887            1 
  430000    1.0816156   -3.9330052    346.11226  0.067076019  0.068893974            4 
  431000    1.0663192   -3.9157308    346.63417    0.0670213  0.068858361            2 
  432000    1.0592191   -3.9429234    347.51875  0.067036795  0.068824097            3 
  433000    1.0839117   -3.9225984    347.52584  0.066883341  0.068790353            2 
  434000    1.0853596   -3.9326283    349.49222    0.0671068  0.068755397            6 
  435000    1.0687473   -3.9167847    350.53408  0.067152123  0.068722099            2 
  436000    1.0891851   -3.9314463    352.58982  0.067391021   0.06868945            5 
  437000    1.0941561   -3.9371912    351.19135  0.066970127  0.068656493            3 
  438000    1.0842717   -3.9405274    352.44571  0.067055881  0.068623476            2 
  439000    1.0892806   -3.9359757     352.6621   0.06694421   0.06859138            1 
  440000    1.0736264   -3.9002471    354.77489  0.067192215  0.068560057            2 
  441000    1.0729027    -3.944356    354.24995  0.066940656  0.068529051            3 
  442000    1.0998258   -3.9514934    355.27943  0.066983301  0.068498325            1 
  443000    1.0778019   -3.9800032    354.93481  0.066767271  0.068465897            4 
  444000    1.0857804   -3.9514818     355.9534   0.06680807  0.068432465            2 
  445000    1.0675132   -3.9449436    357.04857  0.066863028  0.068400811            2 
  446000    1.0742865   -3.9523661    357.36911  0.066773002  0.068368662            6 
  447000    1.1057594   -3.9282913    357.25639  0.066602608  0.068337336            1 
  448000    1.0713454   -3.9510217    359.22127  0.066819432  0.068305635            1 
  449000    1.0665113   -3.9237544    359.16813  0.066660752  0.068273608            3 
  450000      1.06976   -3.9744192     359.6024  0.066593036  0.068241711            2 
  451000    1.0593244   -3.9475562    361.21517   0.06674338  0.068208047            6 
  452000    1.0909458   -3.9292027    362.05133  0.066749877  0.068175489            3 
  453000    1.0580969   -3.9242873    361.27916  0.066460479   0.06814079            3 
  454000    1.0647632   -3.9358512    361.21604  0.066302503  0.068106331            3 
  455000    1.0826951   -3.9514383    362.00509  0.066301298  0.068070138            2 
  456000    1.0388847   -3.9823619    362.30867  0.066211379  0.068033479            5 
  457000     1.077089   -3.9321578    363.44939  0.066274505  0.067995506            2 
  458000    1.0394835   -3.9331361    364.52339  0.066325217  0.067959742            2 
  459000    1.0759479   -3.9502992    365.00294  0.066267782  0.067922708            2 
  460000     1.072892   -3.9807175    363.61784  0.065872796  0.067885511            3 
  461000    1.0640004   -3.9141669    367.12146  0.066363242  0.067848617            2 
  462000    1.0725797   -3.9136511     367.7263  0.066328698  0.067812043            4 
  463000    1.0640956   -3.9514478    365.45538  0.065776706  0.067774876            2 
  464000    1.0640876   -3.9708858    366.77992   0.06587283  0.067737097            6 
  465000    1.0578316   -3.9467574    368.96593  0.066122927  0.067699589            6 
  466000    1.0685882   -3.9722848    367.28698  0.065680791  0.067659602            3 
  467000    1.0734962   -3.9515011    368.46227  0.065749869   0.06762185            3 
  468000    1.0680099   -3.9577737    368.72594  0.065656329  0.067584861            2 
  469000    1.0688762    -3.958216     369.0075  0.065566365  0.067547862            6 
  470000    1.0636395   -3.9542586    370.31994  0.065659564  0.067509543            3 
  471000    1.0389861    -3.960768    370.56935  0.065564287  0.067471515            2 
  472000    1.0828158   -3.9722414    370.95571  0.065493593  0.067432539            1 
  473000    1.0547893   -3.9557711    371.86215  0.065514825  0.067393846            3 
  474000    1.0647162   -3.9634386    371.34545  0.065285769   0.06735548            2 
  475000    1.0687032   -3.9396226    373.98261  0.065610985  0.067316279            4 
  476000    1.0432643    -3.954626    373.24948  0.065344797  0.067277416            3 
  477000      1.06149   -3.9727256    373.66764   0.06528086  0.067237699            2 
  478000    1.0492851   -3.9721777    375.45569  0.065456012  0.067197407            2 
  479000    1.0539714   -3.9503587    374.74202  0.065195202  0.067157456            2 
  480000    1.0836353   -3.9578616    375.58567  0.065205846  0.067117954            2 
  481000    1.0648948   -3.9709464    376.96483  0.065309222  0.067076743            3 
  482000    1.0369892   -3.9675579    376.75155  0.065136852   0.06703545            2 
  483000    1.0797637     -3.97091    375.12679  0.064721669  0.066993483            3 
  484000    1.0459113   -3.9517782    376.23594  0.064778915   0.06695097            5 
  485000    1.0358368   -3.9645822    376.96334  0.064770333  0.066907824            3 
  486000    1.0590599   -3.9401444    378.69838  0.064934564  0.066865868            3 
  487000    1.0853243   -3.9935032    377.62493  0.064617544  0.066825485            3 
  488000    1.0523402   -3.9613846    379.70617  0.064840534  0.066783365            3 
  489000    1.0616637   -3.9666139    381.06242  0.064939063  0.066742728            3 
  490000    1.0419286   -3.9730222    379.88379  0.064606086  0.066700876            4 
  491000    1.0498474   -4.0083224    380.03599  0.064500338  0.066660158            3 
  492000    1.0436173   -3.9374108    383.06045  0.064881512   0.06661931            3 
  493000    1.0799957   -3.9507919    383.04681  0.064747601  0.066581188            3 
  494000    1.0382992   -3.9760252    381.46432  0.064349581  0.066540904            2 
  495000    1.0393756   -3.9762848     382.6562  0.064420235  0.066500185            2 
  496000    1.0762698   -3.9842924    384.66953  0.064628617  0.066460169            2 
  497000    1.0301394   -3.9809575    385.25692  0.064597069  0.066420211            4 
  498000    1.0583638   -3.9538685    386.26407  0.064635888  0.066380499            3 
  499000    1.0521927   -3.9817135    385.74654  0.064419929  0.066341205            4 
  500000    1.0634728   -3.9692846    385.67463  0.064279104  0.066301693            3 
  501000    1.0533234   -3.9551178    386.85911  0.064347822  0.066262761            4 
  502000     1.073519   -3.9618127    387.97182  0.064404352  0.066223282            3 
  503000    1.0627003   -3.9580357    389.65048   0.06455442  0.066184182            4 
  504000    1.0739128   -3.9895446    388.70943  0.064270739  0.066145264            2 
  505000    1.0517523   -3.9846116    391.15086  0.064546346  0.066105726            4 
  506000     1.060242   -3.9713555    391.03718  0.064400062  0.066066311            1 
  507000    1.0752656   -3.9888167    391.35553  0.064325367  0.066028344            2 
  508000    1.0327656   -3.9884848    392.96139   0.06446217  0.065990677            2 
  509000    1.0390073    -3.985451    391.92691  0.064166161  0.065953515            3 
  510000     1.037518   -3.9626891    393.78825  0.064344486  0.065916083            4 
  511000    1.0540846   -3.9697576     393.3134  0.064141128  0.065877505            5 
  512000    1.0685664   -3.9608466    395.49731  0.064371308  0.065839855            3 
  513000     1.048395   -3.9926456    395.89057  0.064309709  0.065802547            3 
  514000    1.0424398   -3.9979256    397.05854  0.064373952  0.065764156            2 
  515000     1.052664   -3.9784314    398.19765  0.064433276   0.06572694            2 
  516000    1.0546457   -3.9984685    396.83349  0.064088096   0.06569021            3 
  517000    1.0475375   -3.9888268    396.92935  0.063979586  0.065653882            2 
  518000     1.037685   -4.0067184    397.24828  0.063907381  0.065617069            5 
  519000    1.0494269   -3.9803439    399.62125  0.064165261  0.065581304            6 
  520000    1.0474645   -4.0288657    398.35022  0.063838177  0.065544448            3 
  521000    1.0229356   -4.0037375     399.3142  0.063869834  0.065508024            2 
  522000    1.0530077   -3.9820032    401.29775  0.064064136  0.065471778            2 
  523000    1.0391418   -3.9910066    402.41909  0.064120314    0.0654344            3 
  524000    1.0508385   -4.0043966    401.70516  0.063884409  0.065397634            9 
  525000    1.0240153   -3.9911881    402.70485  0.063921404  0.065362328            3 
  526000    1.0492485   -3.9857975    402.86724  0.063825608  0.065326702            2 
  527000    1.0523823   -3.9882192    403.94045  0.063874201    0.0652904            3 
  528000      1.05265   -4.0094021    405.63742  0.064021057  0.065253627            1 
  529000    1.0552746   -3.9920977    404.16835  0.063668612  0.065217677            3 
  530000    1.0302509   -3.9851193     405.0647  0.063689418  0.065181622            3 
  531000    1.0534788   -3.9816228    407.58406  0.063964855  0.065145959            3 
  532000     1.043308   -4.0013031    406.98508  0.063750795  0.065111482            1 
  533000    1.0449956   -3.9901453    407.15104  0.063657136  0.065075552            3 
  534000    1.0694279   -3.9796228    408.48093  0.063745464  0.065039098            2 
  535000    1.0594125   -3.9719077    408.21883  0.063585487  0.065002281            4 
  536000    1.0426439   -4.0002589    407.10204  0.063293228  0.064964499            3 
  537000    1.0398027   -4.0019864    408.66378  0.063417719  0.064925515            6 
  538000    1.0540717   -3.9961393    408.48281   0.06327181  0.064887766            3 
  539000    1.0462791   -4.0086704    410.42478  0.063454667  0.064849801            5 
  540000    1.0380188   -3.9927224    409.95368  0.063264456   0.06481234            2 
  541000    1.0393141   -3.9822712    411.86096  0.063441306  0.064776182            5 
  542000    1.0509016   -4.0372424    410.37036  0.063095074  0.064739556            7 
  543000    1.0323021   -3.9819764    413.02319  0.063386002  0.064701508            3 
  544000     1.024774   -3.9932069    411.83644  0.063087689  0.064664528            3 
  545000     1.035546   -3.9918662    414.65356  0.063402685  0.064628259            3 
  546000    1.0440737   -4.0083737    414.13584  0.063207545  0.064591845            2 
  547000    1.0470602   -3.9837188    415.57598  0.063311392  0.064556158            5 
  548000    1.0514493   -3.9973676    414.16371  0.062981099  0.064519432            2 
  549000    1.0326894   -4.0193105    416.52823  0.063225293  0.064482793            1 
  550000    1.0108825   -4.0463779    416.89296  0.063165599  0.064446839            2 
  551000    1.0211987   -4.0088408    416.29046   0.06295984  0.064411272            3 
  552000    1.0262294   -4.0195976    418.11843  0.063121743  0.064376437            2 
  553000      1.02503   -3.9984673    417.23699  0.062874772  0.064340126            2 
  554000    1.0250335   -4.0000498    418.71588  0.062983736  0.064305355            2 
  555000    1.0346223    -3.989892    421.24636  0.063250205  0.064269391            4 
  556000    1.0279126    -4.022047    419.24826   0.06283697  0.064232516            2 
  557000    1.0302327   -4.0265833    420.28468  0.062879216  0.064196027            3 
  558000    1.0423144   -4.0043333    421.47532  0.062944342  0.064161514            4 
  559000    1.0660428   -4.0188626    423.68321  0.063160884  0.064127871            3 
  560000    1.0274478   -4.0587319    422.39359  0.062856189  0.064092848            2 
  561000    1.0386784   -4.0251381    421.71088  0.062642733  0.064056351            1 
  562000    1.0274743   -4.0239096    423.95469  0.062863981  0.064020197            2 
  563000    1.0203589   -4.0083784    424.83386  0.062882454   0.06398488            4 
  564000    1.0121051    -3.998393    425.52526  0.062873118  0.063948992            2 
  565000    1.0370166   -4.0101981    426.11124  0.062848265  0.063912755            2 
  566000    1.0281853   -4.0141684    428.10871  0.063031318   0.06387712            3 
  567000    1.0122633   -3.9932613    426.85205  0.062735456    0.0638423            2 
  568000    1.0306182   -3.9900224    427.78582  0.062762003  0.063807177            6 
  569000    1.0056941   -4.0520278     427.6483  0.062631561  0.063772735            2 
  570000    1.0171393   -4.0018936    430.36334  0.062918617  0.063740034            4 
  571000    1.0316097   -4.0290107    430.07588  0.062766475   0.06370737            1 
  572000    1.0169304   -4.0255076    430.51192  0.062720267  0.063674663            5 
  573000    1.0403858   -4.0162646    431.38143  0.062737265   0.06364244            3 
  574000     1.046631   -4.0456202    431.22691  0.062605533  0.063609988            5 
  575000    1.0244508   -4.0030281    431.29324  0.062506266  0.063577885            3 
  576000    1.0272602   -4.0023004    433.79234  0.062759308  0.063546164            3 
  577000    1.0120126   -4.0432558    432.82712  0.062511138   0.06351395            2 
  578000    1.0276391   -4.0431523    434.63793  0.062664062  0.063482496            3 
  579000    1.0366772   -4.0373482    434.12489  0.062481994  0.063451442            3 
  580000     1.019815   -4.0127015    436.08179   0.06265543  0.063421002            2 
  581000    1.0051132    -4.040746    435.13663  0.062412024  0.063390272            2 
  582000    1.0427767   -4.0208743    436.64325  0.062520511  0.063358774            2 
  583000    1.0167437   -4.0269531    436.22756  0.062353854  0.063326765            2 
  584000    1.0355072   -4.0270774    437.49718  0.062428251  0.063295417            3 
  585000    1.0208382   -4.0177343    438.74122   0.06249875  0.063264665            1 
  586000    1.0164932   -4.0496653    438.27768  0.062326178  0.063235217            2 
  587000    1.0226859   -4.0518626    439.08101  0.062334044  0.063204572            2 
  588000    1.0234115   -4.0335847    440.71872  0.062460136  0.063174921            4 
  589000    1.0469231   -4.0257673    442.72748  0.062638297  0.063145731            3 
  590000    1.0079314   -4.0289543    442.21056  0.062459119  0.063115158            2 
  591000    1.0209144    -4.041384    442.92293  0.062453882  0.063084205            6 
  592000   0.99468678   -4.0288332    441.46863  0.062143669  0.063053448            3 
  593000    1.0189564   -4.0028511    443.02362  0.062257395  0.063022482            4 
  594000    1.0325411   -4.0255477    443.19369  0.062176443  0.062992204            4 
  595000    1.0360729   -4.0292238    443.52856  0.062118846  0.062961179            4 
  596000    1.0209489   -3.9891801    445.75843  0.062326402  0.062930854            3 
  597000    1.0169448   -4.0298134    446.01876  0.062258342  0.062900238            4 
  598000    1.0008062    -4.031615    446.47544  0.062217871   0.06286988            3 
  599000    1.0339434   -4.0413776    446.20283  0.062076076   0.06283946            7 
  600000    1.0385572   -4.0341554    447.08871  0.062095654  0.062809794            7 
  601000    1.0277807   -4.0214273    447.85229   0.06209821  0.062779631            3 
  602000    1.0067484   -4.0528447    447.46623  0.061941615  0.062749465            6 
  603000    1.0113522   -4.0549245    445.70364  0.061595306  0.062718639            4 
  604000   0.99299992   -4.0577712    447.79823  0.061782317  0.062686339            2 
  605000    1.0329977   -4.0579941    450.05611    0.0619912  0.062654641            4 
  606000    1.0158298   -4.0182216    448.77199  0.061712319  0.062623147            8 
  607000    1.0076752   -4.0450096    449.93435  0.061770229  0.062591118            6 
  608000    0.9930349    -4.050158    450.40974  0.061733791  0.062559425            4 
  609000    1.0160083    -4.020442    452.17732  0.061874292  0.062528215            3 
  610000    1.0252443   -4.0517061    451.24535   0.06164554  0.062497168            4 
  611000     1.008652   -4.0109444    454.58578  0.062000243   0.06246683            5 
  612000   0.97959245   -4.0506141    453.44137  0.061743106  0.062436765            3 
  613000    0.9936705   -4.0272693    453.04916  0.061589064   0.06240619            4 
  614000    1.0124027   -4.0287997    455.33897  0.061799534  0.062375567            2 
  615000     1.018542    -4.041038    457.17306  0.061947569  0.062346147            4 
  616000    1.0150218   -4.0498462    457.87762  0.061942318  0.062317027            4 
  617000    1.0163078   -4.0329163    457.66163  0.061812754  0.062287041            2 
  618000   0.99169252   -4.0776395    458.06723  0.061767426  0.062258209            6 
  619000   0.99080971   -4.0859275     456.0809  0.061400228  0.062228808            2 
  620000   0.99835126   -4.0508374    459.14232  0.061712677    0.0622001            5 
  621000    1.0023413   -4.0418085    460.26526   0.06176399   0.06217162            1 
  622000    1.0065934   -4.0418125    460.58065  0.061706947   0.06214373            2 
  623000    1.0215367   -4.0914404    461.03975  0.061669309  0.062115081            3 
  624000    0.9930208   -4.0508042    462.60986  0.061780163  0.062087728            2 
  625000    1.0207499   -4.0262146    462.83456  0.061711275  0.062059844            2 
  626000    1.0300849   -4.0806421    461.25498   0.06140242  0.062031919            3 
  627000   0.98870975   -4.0466421    464.11255  0.061684283  0.062004753            3 
  628000   0.99184151   -4.0623912    463.63886  0.061523203  0.061977439            2 
  629000    1.0140805   -4.0601556    465.96598  0.061733702   0.06195096            2 
  630000   0.99862385   -4.0672587    465.88333   0.06162478  0.061924916            3 
  631000    1.0275114   -4.0710868    468.19324  0.061832176  0.061898651            3 
  632000    1.0020143   -4.0468864    467.49078  0.061641717   0.06187227            2 
  633000    1.0016346    -4.064788    466.05194  0.061354916  0.061845412            2 
  634000   0.99966793   -4.0652305    468.16524  0.061535915  0.061819222            3 
  635000   0.99662483   -4.0259771    470.04507  0.061685704  0.061793654            2 
  636000    1.0185022   -4.0599432    468.45354   0.06138018  0.061768017            3 
  637000   0.98997179   -4.0519384    469.69688  0.061446478  0.061740992            2 
  638000   0.98711382    -4.024413    472.11788   0.06166639  0.061714457            2 
  639000   0.97647346   -4.0694175    473.01625  0.061687043  0.061688084            2 
  640000    1.0233053   -4.0185189    473.44542  0.061646539  0.061663148            2 
  641000    1.0025305   -4.0753605    473.04148  0.061497852  0.061637976            2 
  642000   0.98099237   -4.0671031    473.59208  0.061473531  0.061612135            6 
  643000    1.0107067   -4.0347505    475.30165  0.061599488  0.061586729            4 
  644000    1.0179921   -4.0313604    477.26981  0.061758516  0.061562597            3 
  645000   0.99030365   -4.0555846    476.60738  0.061577181  0.061538449            3 
  646000    1.0035355   -4.0665863    476.39363  0.061454286  0.061514127            4 
  647000   0.99979013   -4.0510501     479.0205  0.061697644   0.06149015            3 
  648000    1.0057817   -4.0760732    477.71867  0.061435014  0.061466813            4 
  649000    1.0012477   -4.0606546    478.69501  0.061465718  0.061442843            3 
  650000    1.0026704   -4.0848538    479.31041  0.061450052  0.061419287            8 
  651000    1.0099763   -4.0857663    480.54967  0.061514295  0.061395759            2 
  652000   0.99060028   -4.0397039    481.72568  0.061570256  0.061372641            3 
  653000   0.99164147    -4.067566    483.04303  0.061644082  0.061349022            4 
  654000   0.98326124   -4.0829397    481.24075  0.061320176  0.061324765            2 
  655000   0.98742698   -4.1003627    483.01875  0.061452767   0.06130069            2 
  656000   0.99414344   -4.0684028    480.60617  0.061052613  0.061277043            3 
  657000    1.0056356   -4.0510325    483.06436  0.061271481  0.061252184            3 
  658000   0.98431174    -4.105864    481.93223  0.061034983  0.061228252            3 
  659000    1.0046934   -4.0696976    483.97118  0.061200199  0.061203216            3 
  660000    1.0121597   -4.0699708    483.93428  0.061102813  0.061178111            4 
  661000    1.0004144   -4.0790685    485.51174  0.061209247  0.061153164            3 
  662000   0.99586462   -4.0924941     485.2071  0.061078437  0.061127667            2 
  663000   0.98920723   -4.0807796    484.84992  0.060941418  0.061102437            2 
  664000    1.0020699   -4.0998506    485.63972   0.06094876  0.061077708            3 
  665000   0.99141518   -4.0566032    487.12079  0.061042705  0.061053682            2 
  666000   0.97907111   -4.0989892    487.41037  0.060987283  0.061030175            3 
  667000   0.98593517   -4.0813243    487.54849  0.060913105  0.061006236            3 
  668000   0.97882642   -4.1205723    487.64523  0.060833986  0.060981833            4 
  669000    1.0113571   -4.1054093    487.49587  0.060724448  0.060956885            9 
  670000   0.98437116   -4.0958141    489.31984  0.060860677  0.060931883            3 
  671000    0.9747449   -4.1128067    487.63609  0.060560865  0.060907105            3 
  672000   0.99247766   -4.0753071    491.50241    0.0609502  0.060882976            3 
  673000   0.98658699   -4.1017805    490.20949  0.060699541  0.060858269            4 
  674000   0.98993263   -4.0706614    491.48529  0.060767222  0.060833674            3 
  675000    0.9735925   -4.1212057    490.59635  0.060567451  0.060808411            2 
  676000   0.99094657   -4.0769813    493.49389  0.060835045  0.060783399            5 
  677000   0.98145432   -4.0777397    493.09555  0.060696154  0.060758142            2 
  678000   0.99188492    -4.088483     493.1291  0.060610755  0.060733366            2 
  679000   0.98985366   -4.0935648    495.83544  0.060853638  0.060708933            3 
  680000   0.98135392   -4.1066547    494.04805  0.060545104  0.060684382            4 
  681000   0.96843502    -4.078415    495.48791  0.060632393  0.060660079            4 
  682000   0.98704593   -4.0949889    495.31631  0.060522521  0.060636104            4 
  683000   0.96163926   -4.1045188    498.07782  0.060770842  0.060613503            3 
  684000   0.98420636    -4.090349    497.29375   0.06058647  0.060590592            3 
  685000   0.98113434   -4.0902368    497.94405  0.060577135  0.060568414            2 
  686000   0.97880209   -4.0860987    500.64027   0.06081636  0.060545094            4 
  687000   0.99546771   -4.0996458    501.42734  0.060823307  0.060522234            2 
  688000   0.97561114   -4.0862319     500.0805  0.060571766  0.060499276            2 
  689000   0.97555701   -4.1059427     500.0235  0.060476959  0.060475884            5 
  690000   0.99212904   -4.0886793    500.15019  0.060404612  0.060452779            2 
  691000   0.97751453   -4.0791391     500.7277  0.060386843  0.060429281            2 
  692000   0.97149184   -4.0960559    503.65243  0.060651786  0.060406174            3 
  693000   0.97425778   -4.1027749    503.52664  0.060549139  0.060383311            2 
  694000   0.99401353   -4.0627955    504.09298  0.060529896  0.060360091            4 
  695000   0.97047016   -4.1139002    503.37093  0.060356226  0.060336319            2 
  696000   0.97406484   -4.0773087    505.38986  0.060511238  0.060312844            6 
  697000   0.97906335   -4.1155751    504.03441  0.060262364  0.060289432            2 
  698000   0.96073986   -4.1066012    504.71065  0.060256763  0.060266032            2 
  699000   0.97778012    -4.075802    505.58227  0.060274472  0.060242237            3 
  700000   0.99022881   -4.1241083    504.95435  0.060113613  0.060218106            3 
  701000   0.97884813   -4.1015601    506.91315  0.060260717   0.06019394            4 
  702000   0.95474854   -4.0814224    506.79682  0.060161066  0.060169783            4 
  703000   0.98307719   -4.1103716    508.20107  0.060241947  0.060146111            4 
  704000   0.96157456   -4.1197496    510.12739  0.060384397  0.060122582            5 
  705000    0.9780525   -4.0761103    510.53654  0.060347108  0.060099109            1 
  706000   0.95990808   -4.1127007     510.1578  0.060216926   0.06007608            3 
  707000   0.99655724   -4.0845087    511.52999  0.060293492  0.060053657            3 
  708000   0.98521043   -4.1044966    511.78754  0.060238646  0.060031372            6 
  709000    0.9911859    -4.088371    513.07283  0.060304752  0.060008158            3 
  710000   0.97546848   -4.1267245    511.10845  0.059989255   0.05998477            5 
  711000   0.98168679    -4.094993    513.00728  0.060127435  0.059961057            4 
  712000   0.95250769     -4.11094    511.44035  0.059859591  0.059937126            2 
  713000    0.9911979   -4.1304043    513.84639  0.060056847   0.05991466            6 
  714000    0.9608388   -4.1059906     513.9128  0.059980486  0.059892703            3 
  715000   0.97566715    -4.122518    514.99125   0.06002229   0.05986955           11 
  716000   0.96674443   -4.1151368    515.47302  0.059994532   0.05984711            2 
  717000   0.94828305   -4.1100004    517.22262  0.060114205  0.059824534            4 
  718000   0.95089635    -4.122244    517.57281  0.060071124  0.059802109            4 
  719000   0.97325366    -4.139403    517.49689  0.059978777  0.059779882            7 
  720000   0.97149883   -4.1220148    517.55609  0.059902326  0.059757963            2 
  721000   0.96666287   -4.1170743    519.45916    0.0600392  0.059736584            3 
  722000   0.98709026   -4.0893444    521.24515  0.060162182  0.059715261            3 
  723000   0.96412382   -4.1170883    519.88564  0.059922272  0.059693234            1 
  724000   0.96044225   -4.1225428    519.99434  0.059852019  0.059671633            2 
  725000    0.9620326   -4.1290437    519.45012  0.059706911  0.059649924            3 
  726000   0.95472411   -4.0895798    524.25446  0.060176131  0.059628866            2 
  727000     0.978563   -4.1191739     523.2579  0.059979126  0.059608114            2 
  728000   0.97366018   -4.1345109    524.01131  0.059982979  0.059586236            3 
  729000   0.96447251   -4.1272226    522.43492  0.059720498  0.059564396            3 
  730000   0.95185202   -4.1547087    521.50483  0.059532514  0.059542335            3 
  731000   0.94936449    -4.126043    526.09425  0.059974265   0.05952145            2 
  732000   0.97245959   -4.1377335    524.28597  0.059686472  0.059500157            3 
  733000    0.9596209   -4.1366364    525.40858  0.059732671   0.05947897            3 
  734000   0.96607832    -4.138793    525.76475  0.059691729  0.059457857            6 
  735000   0.95789298   -4.1102955    527.40721  0.059796736  0.059437071            3 
  736000   0.95151751   -4.1209721    526.77688  0.059644121  0.059416003            6 
  737000    0.9729868   -4.1269196    528.90429  0.059803741  0.059395608            2 
  738000   0.96049377   -4.1174913    528.82491  0.059713744  0.059374386            5 
  739000   0.96719093   -4.1255836    530.02122  0.059767842  0.059353435            3 
  740000   0.95172542   -4.1321939    528.79326  0.059548791  0.059331501            2 
  741000   0.97748451   -4.1486388    530.22919  0.059629914  0.059309484            9 
  742000   0.97207011   -4.1494915    530.17547  0.059543517  0.059287461            4 
  743000    0.9412278   -4.1292032    530.64028   0.05951551  0.059265439            5 
  744000    0.9338312   -4.1449045    531.36954  0.059517197  0.059243659            3 
  745000   0.95589223   -4.1355014    532.60409  0.059575401  0.059222122            2 
  746000   0.96421767   -4.1192038     534.6384  0.059722788  0.059201697            2 
  747000   0.95823963   -4.1443441    534.45898  0.059622822  0.059180699            3 
  748000   0.94247499   -4.1282924    533.18177  0.059400821  0.059160074            6 
  749000   0.96567341    -4.135268     536.6176  0.059703782  0.059139161            5 
  750000   0.97475829   -4.1184837    535.16983  0.059463315  0.059118077            1 
  751000   0.93782958   -4.1492686    538.03594  0.059702169  0.059097132            2 
  752000   0.93758083   -4.1435701     537.3334  0.059544925  0.059076112            3 
  753000   0.95162536   -4.1410039    537.54605  0.059489381  0.059055301            2 
  754000   0.94553367    -4.140085    534.91388  0.059119571  0.059034659            3 
  755000   0.95502707   -4.1280665    538.65198  0.059453861  0.059013145            5 
  756000   0.94844472   -4.1229092    539.59666  0.059479349  0.058991982            8 
  757000   0.94432854    -4.153612    538.02805  0.059228099  0.058970765            2 
  758000   0.96055756   -4.1241621    538.78791  0.059233499  0.058949564            2 
  759000   0.95765678   -4.1648989    539.24564  0.059205713  0.058927426            6 
  760000   0.95341267   -4.1692553    540.71177  0.059288572   0.05890531            3 
  761000   0.96615078   -4.1524739    540.99938  0.059242157  0.058882922            3 
  762000     0.951148   -4.1234602    540.98355   0.05916268  0.058861105            3 
  763000   0.94394482   -4.1423786    540.74051  0.059058597  0.058839059            3 
  764000   0.94427008   -4.1383134    539.68023  0.058865645  0.058816513            4 
  765000   0.93890291   -4.1125139    540.61437  0.058890454  0.058793782            3 
  766000   0.96578412   -4.1461574    541.58284  0.058918933  0.058771037            5 
  767000   0.96733953   -4.1570606    542.81588  0.058976084  0.058748416            6 
  768000   0.96379965   -4.1626118    541.52797  0.058759546  0.058726417            4 
  769000   0.95046758    -4.113367     542.4597  0.058784103  0.058703905            4 
  770000   0.95746729   -4.1575809       542.59  0.058721861  0.058681023            6 
  771000   0.93066064   -4.1377062    542.71587  0.058659302  0.058657602            4 
  772000   0.93438008   -4.1611476    543.17594  0.058632982  0.058633553            2 
  773000   0.95249895   -4.1481772    544.80259  0.058732491  0.058610036            4 
  774000   0.95963364   -4.1400246    545.34063  0.058714538  0.058586463            3 
  775000   0.94238222   -4.1769473    542.61219  0.058345397  0.058562567            4 
  776000   0.94377239   -4.1233235     545.7479  0.058606948  0.058539022            2 
  777000   0.94175378   -4.1522849    545.23665  0.058476689  0.058514609            4 
  778000   0.94572373   -4.1545761     547.4782  0.058641623  0.058490762            5 
  779000    0.9436578   -4.1407402     548.4421  0.058669459  0.058466983            3 
  780000    0.9506083   -4.1473547     547.6457  0.058509155  0.058443226            3 
  781000   0.91997194   -4.1498923    548.06872  0.058479376  0.058419379            2 
  782000   0.92399998   -4.1617977    548.66164  0.058467779  0.058395836            3 
  783000   0.93310378   -4.1558499    548.96782  0.058425694  0.058372607            4 
  784000   0.92871852   -4.1752682    550.85932  0.058552223  0.058349392            5 
  785000   0.94014252   -4.1684364    550.79494    0.0584708   0.05832692            4 
  786000   0.92849262   -4.1759023    550.35772  0.058350055   0.05830481            7 
  787000   0.94265603   -4.1851208    551.90988  0.058440267  0.058281588            6 
  788000   0.93439758   -4.1486227    553.21766  0.058504406  0.058258915            3 
  789000   0.94401562   -4.1793591    552.79498  0.058385613  0.058235695            5 
  790000   0.92083535   -4.1682847    552.13643  0.058242239  0.058212128            5 
  791000   0.96285448   -4.1531208    552.89319  0.058248334  0.058188583            3 
  792000   0.93583704   -4.1771867    550.67284  0.057941166  0.058165142            2 
  793000   0.95885364   -4.1623645    555.43113  0.058368131  0.058141636            5 
  794000   0.93882168   -4.1775219       552.89  0.058027918    0.0581181            4 
  795000   0.93810328   -4.1724779    553.69298  0.058039096  0.058094556            3 
  796000   0.92756602   -4.1639708    556.48094  0.058258055  0.058070813            3 
  797000   0.94038159   -4.1965382    554.88091  0.058017661  0.058047375            4 
  798000   0.97243886   -4.1675299    556.16545  0.058079099  0.058024228            2 
  799000   0.92405146    -4.175793    554.93697  0.057878282  0.058000238            3 
  800000   0.92553388   -4.1747539    556.83198  0.058003331    0.0579767            9 
  801000   0.94208559   -4.1746229    557.11425  0.057960284  0.057953342            1 
  802000   0.91715338   -4.2092518      555.018  0.057670199  0.057929324            6 
  803000   0.95125477   -4.1751355    557.33756  0.057839099   0.05790521            4 
  804000   0.93247754   -4.1702609    560.77197  0.058123131   0.05788125            3 
  805000   0.94449779   -4.1713525    556.83458  0.057643331  0.057857528            5 
  806000   0.93717812   -4.1703005    558.71176  0.057765897  0.057833795            3 
  807000    0.9445183   -4.1721582     560.2459  0.057852736  0.057809343            2 
  808000   0.92843681   -4.1950891    561.34943  0.057894949  0.057784944            5 
  809000   0.93949416    -4.197002    559.45888  0.057628644  0.057761082            2 
  810000    0.9065977   -4.2082659    557.99797  0.057407199  0.057736914            6 
  811000   0.91451842   -4.1727462    561.82531  0.057729687  0.057712184            4 
  812000   0.92138792   -4.1749172    561.83922  0.057660019  0.057688156            3 
  813000   0.94935514   -4.1752528    563.02286   0.05771042   0.05766406            4 
  814000   0.95248786   -4.1867755    563.10001  0.057647421  0.057639918            3 
  815000   0.93967529    -4.190682    559.68768  0.057227779  0.057615121            3 
  816000   0.91841958   -4.1709164    560.86558  0.057277939  0.057589938            4 
  817000    0.9553601   -4.1774659    561.65755  0.057288611  0.057564765            2 
  818000   0.92285235   -4.1752694    561.79678   0.05723276  0.057539101            2 
  819000   0.93120521   -4.1823962    563.74804  0.057361421  0.057513748            5 
  820000   0.93666564   -4.1776512    565.46422  0.057465876  0.057488863            2 
  821000   0.92533528   -4.1705771    565.14975  0.057363962  0.057463223            3 
  822000   0.94181348   -4.1705645    564.61063   0.05723952  0.057437865            2 
  823000   0.93933942   -4.1893634    563.65236  0.057072941  0.057412452            3 
  824000   0.92533655   -4.1907882    563.93069  0.057031826  0.057387183            3 
  825000    0.9211221   -4.1863306    566.03437  0.057175188  0.057362167            3 
  826000   0.93563224   -4.2008788    564.63575  0.056964865  0.057336905            2 
  827000   0.95576023   -4.1833816    565.67927  0.057001136  0.057311076            4 
  828000   0.92789575   -4.1859259    565.72311  0.056936706   0.05728489            3 
  829000   0.93120914   -4.1921651    566.75747  0.056972002  0.057258801            3 
  830000   0.92783801    -4.184031    568.92411  0.057120894  0.057232425            4 
  831000   0.90540954   -4.1997205     569.2928   0.05708913  0.057205664            5 
  832000    0.9315101   -4.1962904    567.53754  0.056844705  0.057178997            5 
  833000   0.93499641   -4.1915236    568.08498   0.05683123  0.057152321            5 
  834000   0.92427346   -4.1868882    568.82402  0.056836933  0.057126119            4 
  835000   0.92487035   -4.1856824      570.325  0.056918662  0.057099868            3 
  836000   0.92868827   -4.1823211    571.04211   0.05692206  0.057074168            4 
  837000   0.92925802   -4.1811162     572.1303  0.056962396  0.057048551            2 
  838000   0.91793608   -4.1655734    571.66557  0.056848207   0.05702247            4 
  839000   0.93485413   -4.1724018    571.44167  0.056758211  0.056997078            7 
  840000   0.91696825   -4.1806144    573.65853  0.056910568  0.056971344            2 
  841000   0.91326059   -4.2012638    571.22648   0.05660191  0.056945403            3 
  842000   0.91641763   -4.2078156    572.13369  0.056624475   0.05691953            1 
  843000   0.92389046    -4.191456    576.11106   0.05695048   0.05689343            2 
  844000   0.90221949   -4.1783783    573.84272  0.056659037  0.056867003            7 
  845000   0.94014884   -4.1975141    572.78701   0.05648787  0.056840633            3 
  846000   0.92151431   -4.2010976    573.37772  0.056479287  0.056814237            4 
  847000   0.90857268   -4.2215213    571.33961  0.056212083   0.05678729            9 
  848000   0.92730636   -4.1704252    575.59102  0.056563583  0.056760156            3 
  849000   0.91969454   -4.2037708    573.99603  0.056340403  0.056733367            2 
  850000   0.91620376   -4.1793399    574.96806  0.056369418   0.05670676            4 
  851000   0.90928284   -4.2476174    572.74275  0.056085267  0.056679593            8 
  852000   0.90911829   -4.2214476    574.84062   0.05622463  0.056652013            3 
  853000   0.89675718   -4.2041367    573.87778  0.056064652  0.056624385            2 
  854000   0.90022204   -4.2196766    575.39722  0.056147269  0.056596698            5 
  855000    0.9419329   -4.2219928    575.28674  0.056070832  0.056568817            3 
  856000   0.91179412   -4.2023126    577.76374   0.05624647  0.056541081            4 
  857000    0.9175434   -4.2046642    578.76904  0.056278592  0.056513674            7 
  858000   0.90103952   -4.1750642    578.70758   0.05620703  0.056485828            3 
  859000    0.9001748   -4.1836716    576.54761  0.055932053  0.056458213            5 
  860000   0.92353915   -4.2236647    577.36206  0.055945936  0.056430374            3 
  861000   0.89245499   -4.2013358    580.16385  0.056152134  0.056402587            5 
  862000   0.91771377   -4.2150573    577.33112   0.05581314  0.056374869            2 
  863000   0.89842974   -4.1969119    579.70164   0.05597737  0.056347459            2 
  864000   0.91799615   -4.1906654    581.91669  0.056126224    0.0563202            2 
  865000   0.90831082   -4.2199105    578.97212   0.05577766  0.056292604            4 
  866000    0.9126617   -4.2349402     579.9632  0.055808622  0.056264699            3 
  867000   0.90774006   -4.2347518    579.17987  0.055668961  0.056236877            2 
  868000   0.88837184   -4.2083435     580.5473  0.055736108  0.056209666            4 
  869000   0.90370203   -4.2417418    581.23356  0.055737779  0.056182011            6 
  870000   0.91897121    -4.227213    582.31327  0.055777133  0.056153943            7 
  871000   0.89406196   -4.2417015    579.44375  0.055438553  0.056125606            5 
  872000   0.89174318   -4.2077336    583.37914  0.055751065  0.056097626            7 
  873000   0.90883132    -4.193808    583.96746  0.055743362  0.056070333            4 
  874000   0.90656801   -4.2074414    583.52078  0.055636992  0.056043051            6 
  875000   0.89720486   -4.2234478      582.822  0.055506857  0.056015047            6 
  876000   0.91240926   -4.2090642    582.65887  0.055427974  0.055987018            3 
  877000   0.89766736   -4.2186738    583.60687  0.055454853  0.055959299            3 
  878000   0.89768862   -4.2360129    585.56017  0.055577085  0.055931776            2 
  879000   0.90330278   -4.2244925    585.23078   0.05548263  0.055904005            7 
  880000   0.89657002   -4.2358015    584.77869  0.055376769  0.055876057            6 
  881000    0.8845699    -4.207329    586.58788  0.055485043  0.055848046            5 
  882000   0.89288958   -4.1966139    588.22748  0.055577048  0.055820083            3 
  883000   0.87478924   -4.2315533    585.31279  0.055239033  0.055792475            8 
  884000   0.89714244   -4.2396285    585.24323  0.055169988  0.055764363            5 
  885000   0.90232519   -4.2078182    588.19446  0.055385542  0.055736304            5 
  886000   0.92550711   -4.2595667     584.8305  0.055006631  0.055708241            8 
  887000   0.90720348   -4.2362279    586.94559  0.055143329  0.055680133            4 
  888000   0.90803638   -4.2116359    588.62485  0.055238819  0.055652406            4 
  889000   0.87810545   -4.2179759    586.42601  0.054970567  0.055624721            5 
  890000   0.88725801   -4.2392153    587.74143  0.055031969  0.055596509            2 
  891000   0.88902321   -4.2283824    589.36382  0.055121943  0.055568089            2 
  892000   0.88099614   -4.2383191     587.1622  0.054854466  0.055539154            3 
  893000    0.8963976   -4.2276274    590.70492   0.05512364  0.055511006            1 
  894000   0.89403659   -4.2297859    590.20504  0.055015384   0.05548273            3 
  895000   0.88528147   -4.1908692    591.15117  0.055042009  0.055454267            2 
  896000   0.90927405   -4.2566259    590.60524  0.054929803  0.055425696            6 
  897000   0.88735207   -4.2467688    590.78134  0.054884926  0.055396757            4 
  898000   0.90350832   -4.2496748    591.35994    0.0548775  0.055367682            3 
  899000   0.90038142   -4.2404159    592.47841  0.054920134  0.055339288            6 
  900000   0.90093426   -4.2607054    592.24177  0.054837201  0.055310762            3 
  901000   0.90022313   -4.2358689    592.81103  0.054828989  0.055282356            6 
  902000   0.91253369   -4.2183649    592.80543  0.054767686  0.055254477            2 
  903000   0.89177996   -4.2343944    592.58901  0.054687063  0.055226465            5 
  904000   0.90130532   -4.1993388    595.40227  0.054885902  0.055198667            3 
  905000   0.88947339   -4.2663689     591.5551  0.054471003  0.055170606            5 
  906000   0.89913992   -4.2569403    594.22335  0.054656305  0.055142264            7 
  907000   0.89464283   -4.2344648    594.74769   0.05464422  0.055113801           12 
  908000   0.89630781    -4.224322     595.5399  0.054656746  0.055085411            4 
  909000   0.90727735   -4.2577034     595.1468  0.054560579   0.05505728            4 
  910000   0.89560388   -4.2665289    597.42883    0.0547096  0.055029901            7 
  911000   0.89673689   -4.2379254    599.13606  0.054805714  0.055002318            5 
  912000   0.88464182   -4.2641711    598.92822  0.054726628  0.054974815            5 
  913000   0.91296149   -4.2211282    598.65781  0.054642005  0.054947264            3 
  914000   0.89900652   -4.2362371    599.82603  0.054688734  0.054919904            2 
  915000   0.89049939   -4.2536866    600.95619  0.054731893  0.054892614            4 
  916000   0.89587437   -4.2672222    598.95069  0.054489692  0.054865232            4 
  917000   0.88563089   -4.2601245    598.38781  0.054379118  0.054837736            4 
  918000   0.90155892   -4.2607086    599.98636  0.054464993  0.054810377            5 
  919000   0.87322666   -4.2454355    601.79949  0.054570139   0.05478393            4 
  920000   0.89164687   -4.2659554    601.99982  0.054528969  0.054757153            4 
  921000   0.87522369   -4.2652259    601.41706  0.054417034  0.054730332            4 
  922000   0.88295491   -4.2398871    602.58312  0.054463405   0.05470362            6 
  923000   0.87346028   -4.2422733    603.76737  0.054511319  0.054676454            4 
  924000   0.89482099   -4.2556006    603.40682  0.054419807  0.054649804            3 
  925000   0.88237943   -4.2559378    603.74182  0.054391155   0.05462268            5 
  926000   0.87158922   -4.2658401    603.17343  0.054281266  0.054595808            7 
  927000   0.86718687   -4.2510172    603.98263  0.054295454  0.054568836            5 
  928000    0.8833777   -4.2348018    604.75281  0.054306107  0.054541999            2 
  929000   0.87403091   -4.2611081    603.89968  0.054171123  0.054515304            3 
  930000   0.88266435   -4.2966551    602.46911  0.053984687  0.054488311            5 
  931000    0.8772314   -4.2678715    602.95107  0.053969842  0.054460973            5 
  932000    0.8825053   -4.2524936     605.1582  0.054109281  0.054433641            4 
  933000   0.89610918   -4.2633636    604.79181  0.054018561  0.054406197            6 
  934000   0.85627353    -4.266136     606.3117  0.054096333  0.054379254            5 
  935000   0.86419823   -4.2920633    606.43971  0.054049885  0.054351799            3 
  936000   0.86781821   -4.2551393    608.38744  0.054165549  0.054324814            3 
  937000     0.877058   -4.2727474    605.08634  0.053814153  0.054297288            6 
  938000   0.87221914   -4.3090899    606.32838  0.053867126   0.05427002            4 
  939000   0.88308032   -4.2712273    608.11853  0.053968631  0.054243002            7 
  940000   0.88604344   -4.2591195    608.60821  0.053954628  0.054216071            3 
  941000   0.87783313   -4.2639543    608.98301  0.053930483  0.054189132            4 
  942000   0.89122272   -4.2645181     610.3695  0.053995886  0.054162185            3 
  943000   0.88659544   -4.2815943    609.66482  0.053876353  0.054135509            3 
  944000   0.88619487   -4.2599333    611.00119  0.053937252  0.054108596            4 
  945000   0.87386197   -4.2761516    609.77318  0.053771886  0.054082171            4 
  946000   0.87882672   -4.2884719    610.75489  0.053801523  0.054055724            3 
  947000   0.86572173   -4.2715928    610.72067  0.053741699  0.054029327            5 
  948000   0.86962688   -4.2772845    610.03752  0.053624958  0.054002574            8 
  949000   0.89282206   -4.2924457    610.13983  0.053577435  0.053975615            3 
  950000   0.87489613   -4.2826708     613.4576   0.05381207  0.053949444            5 
  951000    0.8720173   -4.2606551     614.3399  0.053832799   0.05392296            3 
  952000    0.8832722    -4.274907    614.84058  0.053820078  0.053896692            2 
  953000   0.86417539   -4.2673403    612.74593  0.053580442  0.053870156            6 
  954000   0.86745991   -4.2780764    613.08661  0.053554036  0.053843869            4 
  955000   0.87114495   -4.2763937    613.33792  0.053519888  0.053816918            4 
  956000   0.85924039   -4.2886378    614.35798  0.053552823  0.053789866            4 
  957000   0.88644997   -4.2922203    613.89429  0.053456486  0.053763507           14 
  958000   0.85963141   -4.2699019    613.26735  0.053346151   0.05373627            3 
  959000   0.85984096    -4.285092     613.7742  0.053334567  0.053709174            6 
  960000   0.85510886   -4.3222789    613.12493   0.05322265  0.053681301            5 
  961000     0.866828    -4.321948    614.95479  0.053325944  0.053653861            4 
  962000   0.85158204   -4.2569237    616.75608  0.053426549  0.053627045            4 
  963000   0.86184291   -4.3039635    615.67043  0.053277122  0.053600008            7 
  964000   0.88086977   -4.3030182     617.3951  0.053370945  0.053572324            4 
  965000   0.86454924   -4.2695825     616.2166  0.053213869  0.053545547            3 
  966000   0.87737837   -4.2970241    618.77954  0.053379877  0.053518945            2 
  967000   0.88728054   -4.2887687    620.82946  0.053501333  0.053491944            3 
  968000    0.8583373   -4.2914192    616.90521  0.053108231  0.053465154            2 
  969000   0.87872447   -4.2865394    616.19607  0.052992438  0.053438171            5 
  970000   0.87633033   -4.2872916    619.04714  0.053182744  0.053410867            3 
  971000   0.86648735   -4.2862521    619.64989  0.053179702  0.053383734            3 
  972000   0.88172465   -4.2770826    617.65072  0.052953594  0.053356559            2 
  973000   0.85426593   -4.3030585    620.61609  0.053153143  0.053329288            6 
  974000   0.85593207    -4.279096    621.20718  0.053149143  0.053302418            7 
  975000   0.87177552   -4.2886292    620.95945  0.053073457  0.053275497            4 
  976000   0.85253568   -4.2916242     619.9285  0.052931053  0.053248432            3 
  977000   0.86875073   -4.3262381    622.56867   0.05310207  0.053221133           10 
  978000   0.86024235   -4.2965516    620.38708  0.052861885  0.053194071            5 
  979000   0.85849675   -4.3131888    619.93484  0.052769394  0.053166759            5 
  980000   0.85687509    -4.322565    622.94002   0.05297109  0.053139848            4 
  981000   0.83548319   -4.2997653    623.43508  0.052959147  0.053113052            3 
  982000   0.86011271   -4.2983183    621.81669  0.052767879  0.053086455            8 
  983000   0.86588798   -4.3099634    622.21133  0.052747654  0.053059548            5 
  984000   0.86594702   -4.3142151    623.82084  0.052830356  0.053032456            5 
  985000   0.87293549   -4.2929076    624.81863  0.052861136   0.05300576            8 
  986000   0.86348316   -4.2795615     627.4399  0.053029065  0.052979121            3 
  987000   0.84789168   -4.2814565    625.71865  0.052830011  0.052952652            6 
  988000   0.87678162   -4.3209734    625.07068  0.052721886  0.052926037            5 
  989000   0.87040354   -4.3027706     625.2186  0.052681041  0.052899866            3 
  990000     0.846755   -4.3127444    625.33021  0.052637223    0.0528735           11 
  991000   0.86269641   -4.2870951    624.65558  0.052527378  0.052847196            3 
  992000   0.88658089   -4.2790506    627.08316  0.052678357  0.052820865            3 
  993000   0.87266947   -4.2901122    625.46586  0.052489582  0.052794854            4 
  994000   0.85880315   -4.2982298    627.21448  0.052583373  0.052768384            4 
  995000   0.86045661   -4.3124798     628.2124  0.052614104  0.052742396            5 
  996000   0.85687077   -4.2999719    629.07169  0.052633174  0.052716036            5 
  997000   0.86051376   -4.3034537    630.34858   0.05268711  0.052690132            3 
  998000   0.85415731   -4.3077481    628.92701  0.052515615  0.052664176            4 
  999000   0.86546429   -4.3111115    631.10405  0.052644649  0.052638253            3 
 1000000   0.86516122    -4.297326    630.01894  0.052501578  0.052612746            5 
 1001000   0.84340158   -4.3153143    629.98886  0.052446625  0.052586768            3 
 1002000   0.87970484   -4.3043778    633.56818  0.052691964  0.052560992            7 
 1003000   0.85266942   -4.3380758    628.79045  0.052242477  0.052534864            9 
 1004000   0.84626314   -4.3161215    630.19622  0.052307123  0.052508708            2 
 1005000    0.8605089   -4.3140896    632.77688  0.052469062  0.052482844            4 
 1006000   0.85298751   -4.3242395     632.0924  0.052360206  0.052456578            3 
 1007000   0.85411754   -4.3106668    630.80087   0.05220133  0.052430367            6 
 1008000   0.82746712   -4.3255205     631.2484  0.052186541  0.052404421            7 
 1009000   0.83403225   -4.3087468    632.44846  0.052233933  0.052378243            9 
 1010000   0.86071393    -4.309181    633.99836  0.052310096  0.052351723            4 
 1011000   0.84368012   -4.2997172    634.73645  0.052319193  0.052325741            3 
 1012000   0.85302787   -4.3308144    633.18378  0.052139639  0.052299855            4 
 1013000   0.84682664   -4.3275674    633.81408   0.05214002  0.052273514            2 
 1014000   0.85447919   -4.3209712    634.19673  0.052120047  0.052247191            3 
 1015000   0.86291907   -4.3059432    635.92502  0.052210592  0.052221431            6 
 1016000   0.85522499   -4.3333777    636.72872  0.052225124  0.052195565            5 
 1017000    0.8527445    -4.300157    634.25422  0.051971011  0.052169576            3 
 1018000   0.82578168   -4.3325776    636.30836  0.052088111  0.052143565            4 
 1019000   0.84831199   -4.3117812    638.58302  0.052223014  0.052117691            3 
 1020000   0.84958964    -4.297325    636.53894  0.052004815  0.052091705           10 
 1021000   0.84250077      -4.3037    637.45477   0.05202863  0.052066341            7 
 1022000   0.84077704   -4.3405701    635.58386  0.051825168  0.052039918            4 
 1023000   0.87679123   -4.3529188     636.2473  0.051828552  0.052013544            5 
 1024000   0.83730959   -4.2791264    639.41118  0.052035415  0.051987765            7 
 1025000   0.82901123   -4.3499835    635.63259  0.051677446  0.051962066            5 
 1026000   0.84731097   -4.3320779     637.5459  0.051782481  0.051936112            5 
 1027000   0.83408681   -4.3150138    639.58174  0.051897252  0.051909822            5 
 1028000   0.86750504   -4.3347265    639.32169  0.051825688  0.051883722            6 
 1029000   0.82174187   -4.3235779      642.056  0.051996761   0.05185783           10 
 1030000   0.84914024   -4.3263749    640.49179  0.051819724  0.051832293            5 
 1031000    0.8453162   -4.3181925    640.65101  0.051782332  0.051806619            5 
 1032000    0.8566091   -4.3360157    638.94662  0.051594527  0.051780701            5 
 1033000   0.84467303   -4.3577208    638.34845  0.051496325  0.051754323            5 
 1034000   0.82860171   -4.3323579    641.24425  0.051679904  0.051728115            4 
 1035000   0.83322915   -4.3454891    642.62754  0.051741348  0.051701851            3 
 1036000    0.8377581   -4.3406314    640.53682  0.051523232  0.051675272            2 
 1037000   0.83388619   -4.3236761    641.90605  0.051583579  0.051649208            5 
 1038000   0.83621554   -4.3536267    640.62511  0.051431046   0.05162303            2 
 1039000   0.81729527   -4.3241017    641.73306  0.051470409  0.051597183            8 
 1040000   0.82665846   -4.3586244    642.78995  0.051505605   0.05157134            3 
 1041000   0.83500338   -4.3423519    642.67363  0.051446816  0.051545675            3 
 1042000   0.83059999   -4.3507511    642.26019  0.051364379   0.05151942            6 
 1043000   0.81601678   -4.3454424    642.29228  0.051317696  0.051493041            6 
 1044000   0.83878085   -4.3285339     642.7468  0.051304821  0.051466777            3 
 1045000   0.83909025   -4.3351713    644.59016  0.051402724   0.05144041            3 
 1046000   0.84575551   -4.3292456    645.32864  0.051412415  0.051414478            3 
 1047000   0.83699252    -4.343881    642.09613  0.051106027  0.051388185            2 
 1048000   0.84577318   -4.3587792    647.12802   0.05145738  0.051362248            7 
 1049000   0.84108408   -4.3705782    644.30716  0.051184236  0.051335831            4 
 1050000   0.84708246   -4.3794363    643.17841  0.051045905  0.051309485            7 
 1051000   0.83529223   -4.3652486    645.66672  0.051194634  0.051283224            6 
 1052000   0.83478769   -4.3609674    645.96777  0.051169817  0.051256723            4 
 1053000   0.82677417   -4.3622572    647.45793  0.051239152  0.051230867            4 
 1054000    0.8323244    -4.346784    645.78726  0.051058449  0.051204732            3 
 1055000   0.84040159   -4.3367619     647.2586  0.051126271   0.05117838            4 
 1056000   0.80344692   -4.3423698    647.65105  0.051108827  0.051152541            7 
 1057000   0.83339901   -4.3400212    647.33358  0.051035444  0.051126522            3 
 1058000   0.80967466   -4.3562452    647.10788   0.05096943  0.051100942            7 
 1059000   0.84328959   -4.3495131    648.00079  0.050991564  0.051074913            4 
 1060000   0.82329562   -4.3254347    649.99595   0.05110031  0.051049314           10 
 1061000   0.82132306   -4.3699417    647.27999  0.050838831  0.051023794            4 
 1062000   0.83050195   -4.3632453    649.03623  0.050928769  0.050997997            3 
 1063000   0.83271685   -4.3635495    650.19628    0.0509718  0.050972088            3 
 1064000   0.84287741   -4.3552835    650.55704  0.050952149  0.050946535            7 
 1065000   0.81738919   -4.3629771    650.49821  0.050899703  0.050920888            5 
 1066000   0.84171157   -4.3592814    650.68066  0.050866218  0.050895416            4 
 1067000   0.83867554   -4.3759372    652.40768  0.050953427  0.050869929            4 
 1068000   0.84434833   -4.3530093    651.92402  0.050867979  0.050844819            6 
 1069000   0.82408665   -4.3749007    653.05887  0.050908861  0.050819549            5 
 1070000   0.84201046   -4.3444978    655.69373   0.05106649  0.050794347            5 
 1071000   0.84435618   -4.3583168    653.67323  0.050861596  0.050769568            4 
 1072000   0.82204364   -4.3583642    655.25365  0.050937006  0.050744775            5 
 1073000   0.80820198   -4.3774883    655.64786  0.050920151   0.05071987            7 
 1074000   0.83994243   -4.3918433    654.41399  0.050777001  0.050694403            3 
 1075000   0.80589879   -4.3926271    652.11444  0.050551507  0.050669031            9 
 1076000   0.80439822   -4.3659977    655.14697  0.050739387  0.050643388            1 
 1077000   0.83192015   -4.3499353    656.96622   0.05083304  0.050617991            4 
 1078000   0.81952766   -4.3475101    656.74274   0.05076861   0.05059274            3 
 1079000   0.82337391   -4.3614685    653.46755  0.050468609  0.050567318            4 
 1080000   0.81682694   -4.3824258    654.97589  0.050538263  0.050542118            3 
 1081000   0.82906064    -4.358899    656.95517  0.050644093  0.050516825           10 
 1082000   0.82276926   -4.3980418    655.25362  0.050466237  0.050491627            5 
 1083000   0.81528681   -4.3571637    655.34049  0.050426323  0.050466011            6 
 1084000   0.81672234   -4.3555646    657.42456  0.050540019  0.050440487            7 
 1085000   0.81469683   -4.3477776    658.89137  0.050606096  0.050415385            5 
 1086000   0.83669385   -4.3719037    658.05621  0.050495412  0.050390254            3 
 1087000   0.82125248   -4.3817019    655.56137  0.050257695  0.050364885            6 
 1088000    0.8185828   -4.3711455     658.1368  0.050408762  0.050339617            6 
 1089000   0.79712917   -4.3579953    659.20089    0.0504439  0.050314498            4 
 1090000   0.82420368   -4.3861222    658.53533  0.050346738  0.050289422            6 
 1091000   0.83755938    -4.377837     657.4195   0.05021536  0.050264276            9 
 1092000    0.8239518   -4.3692515    659.48951  0.050327344   0.05023907            9 
 1093000   0.81755078   -4.3996304    658.97354  0.050241959  0.050213751            6 
 1094000   0.81592178   -4.3806762    661.10605  0.050358474  0.050188635            3 
 1095000   0.84463376   -4.3642086    660.37327  0.050256718  0.050163629            3 
 1096000   0.80787191   -4.3812506    661.52504  0.050298437  0.050138909            2 
 1097000   0.82390409   -4.3709987    659.69835  0.050113822   0.05011388            2 
 1098000    0.8191376   -4.3795627    659.98977  0.050090299  0.050088216            8 
 1099000   0.83080909   -4.3706191     661.3154  0.050145238  0.050062976            5 
 1100000   0.82573901   -4.3956199    661.98811  0.050150615  0.050038151            3 
 1101000   0.80859922   -4.3796182    660.61257  0.050000951  0.050012853            4 
 1102000   0.80690241   -4.3778554    662.46303   0.05009551  0.049987904            4 
 1103000   0.81708403   -4.3908857    658.95162    0.0497848    0.0499627            5 
 1104000   0.81394668   -4.3838183    663.60819  0.050091198  0.049937798            4 
 1105000   0.80528543   -4.3928963     664.3141  0.050099103  0.049912917            5 
 1106000   0.83442595    -4.399098    664.33239  0.050055183  0.049888249            3 
 1107000   0.82540947   -4.3883143    664.54136  0.050025697  0.049863392            4 
 1108000   0.79249876   -4.3897608    665.68832  0.050066811  0.049838412           12 
 1109000   0.81769916   -4.4072979    663.13142  0.049829532  0.049813383            2 
 1110000   0.81492313   -4.3909488     666.0331  0.050002485  0.049788755            5 
 1111000   0.80695727   -4.3855369     665.3166  0.049903735  0.049763991            7 
 1112000   0.81271718    -4.385248    668.18695  0.050073962  0.049738957            3 
 1113000   0.79629113    -4.383621    665.63004  0.049837529  0.049714081            4 
 1114000   0.81061692   -4.3936413    664.63855  0.049718623  0.049689011            7 
 1115000   0.81516957   -4.3989578    665.70324  0.049753606  0.049664159            4 
 1116000   0.81070782   -4.3633756     667.5761  0.049848872  0.049639392            9 
 1117000   0.79412481    -4.405497    665.59243  0.049656254   0.04961469            9 
 1118000   0.81444251   -4.3814662    668.52923  0.049830742  0.049589843            5 
 1119000   0.79477087   -4.3918251    666.86596  0.049662345  0.049564844            3 
 1120000   0.77939592   -4.4149745    666.76307  0.049610347  0.049539897            2 
 1121000   0.83224947   -4.3987945    668.95134  0.049728765  0.049515121            4 
 1122000   0.81293758   -4.3860233     668.1543  0.049625245  0.049490442            5 
 1123000   0.79635734    -4.418101    665.92707  0.049415781  0.049465575            5 
 1124000   0.79236317   -4.3972695    668.57361  0.049568032  0.049440627            7 
 1125000   0.80087189   -4.3722355    670.75783  0.049685765  0.049415822            6 
 1126000   0.80702321   -4.4294581    667.75978  0.049419759  0.049390972            5 
 1127000   0.79792581   -4.3933511    669.51748  0.049505877  0.049365707           11 
 1128000   0.79434889   -4.3883352    670.03324  0.049500092  0.049340337            7 
 1129000   0.79093199   -4.4068354    669.07842  0.049385771  0.049315144            7 
 1130000   0.80103764   -4.4009624    669.05349  0.049340228  0.049290033            9 
 1131000   0.80583846   -4.3900059    670.55103  0.049406943  0.049265174            7 
 1132000   0.79623684   -4.4287014     667.7551  0.049157472  0.049239922           15 
 1133000   0.80160579   -4.3567948    671.32148  0.049376396   0.04921475            8 
 1134000   0.80651618   -4.4251295    668.28706  0.049109866   0.04918966            4 
 1135000   0.80112132   -4.3828566    671.70853  0.049317807  0.049164732            6 
 1136000   0.81619979   -4.4166626    671.05235  0.049226258  0.049139685            6 
 1137000    0.7989043   -4.4124028    671.21318  0.049194751  0.049114528           15 
 1138000   0.78222441   -4.4084811    671.54491  0.049175813  0.049089669            8 
 1139000   0.80975862   -4.3859525    673.85625  0.049301745  0.049064868           10 
 1140000   0.77840346   -4.4356825    673.18186    0.0492092  0.049039943            6 
 1141000   0.80169864    -4.395052     671.6627   0.04905512  0.049014778            3 
 1142000   0.79122939   -4.4210436     672.4162  0.049067148  0.048989541            6 
 1143000   0.81210204   -4.4207378    673.40816  0.049096541  0.048964476            5 
 1144000   0.79394755   -4.4245283     672.0454  0.048954356   0.04893928            4 
 1145000   0.79149563   -4.4531743      673.649  0.049028311  0.048914041            4 
 1146000   0.78295003   -4.4222828    674.90537  0.049076888   0.04888841            3 
 1147000   0.78677236   -4.4356964    672.10358  0.048830542   0.04886288            3 
 1148000    0.7858391   -4.3985531    675.65265  0.049045634  0.048837497           10 
 1149000   0.78103929   -4.4030477    672.77004  0.048793882  0.048812168            4 
 1150000   0.79099631   -4.4540557    671.66753   0.04867156  0.048786746            3 
 1151000   0.77927564   -4.4446075    674.60927  0.048842258  0.048761183            3 
 1152000   0.79272598   -4.4234267    674.56953  0.048796986  0.048735983            6 
 1153000   0.79584619   -4.4364399    673.93902  0.048709094  0.048710734            5 
 1154000   0.81560674   -4.4257335    675.41111  0.048773188  0.048685424            5 
 1155000   0.79584748   -4.4071619     676.2452   0.04879114  0.048660436            8 
 1156000   0.79183046   -4.4088114     675.4108  0.048688783  0.048635067            7 
 1157000    0.7932195   -4.4240316    673.45424   0.04850578  0.048609651            6 
 1158000   0.79118342   -4.4117906    675.12517  0.048584137  0.048584287            5 
 1159000   0.79744697   -4.4294137    676.30641   0.04862715  0.048558862            5 
 1160000     0.797386   -4.4369561    675.95787  0.048560192  0.048533309            7 
 1161000   0.79893192   -4.4206976    677.38965  0.048621135  0.048508021            5 
 1162000   0.80117681   -4.4546288    674.17129  0.048348486  0.048482473            5 
 1163000   0.78769566   -4.4297546    676.82281  0.048496905  0.048457021            6 
 1164000   0.79438247   -4.4180127    677.27303  0.048487473  0.048431401            4 
 1165000   0.78513514   -4.4332581     676.0458  0.048358069  0.048405828            4 
 1166000   0.78518137   -4.4492999    679.09793  0.048534729  0.048380123            7 
 1167000    0.7781762   -4.4005784    679.77645  0.048541592  0.048354667            6 
 1168000   0.76906648   -4.4435271    679.26545  0.048463574  0.048329392            3 
 1169000   0.78530753    -4.427403    678.87177  0.048394053  0.048304115            4 
 1170000   0.78007714   -4.4150916    681.08051  0.048510008   0.04827899            3 
 1171000    0.7901962    -4.433512    679.70104  0.048370413  0.048253929            2 
 1172000   0.78438187   -4.4092019     680.6699  0.048398031  0.048228969            4 
 1173000     0.790812    -4.438237    681.32072  0.048403006  0.048204065            3 
 1174000   0.79042313   -4.4397388    679.92809  0.048262925  0.048179025            6 
 1175000   0.79172395   -4.4520479    679.56922  0.048196399  0.048153592            8 
 1176000   0.79323333   -4.4727246    678.43251  0.048074866  0.048128235            3 
 1177000   0.76818625   -4.4069007    682.83956  0.048346046  0.048102873            8 
 1178000   0.77875432    -4.475441    681.31351  0.048197051  0.048077894            7 
 1179000   0.78185025   -4.4348939    681.64913  0.048179893  0.048052552            5 
 1180000    0.7929926   -4.4551423    680.86747  0.048083861  0.048027179            4 
 1181000   0.76670027   -4.4441373    678.69339  0.047889739  0.048001499            5 
 1182000   0.76293749   -4.4388125     680.3098  0.047963184  0.047975886            4 
 1183000   0.79544016   -4.4480765    679.23099  0.047846646  0.047950081            5 
 1184000   0.78026287   -4.4445735    681.99122  0.048000508  0.047924358            3 
 1185000   0.79119169   -4.4797421    680.93477  0.047885708  0.047898849            7 
 1186000   0.76555978   -4.4624081     679.6598  0.047755748  0.047873479            3 
 1187000   0.76989356   -4.4647523    683.26503  0.047968621  0.047847717            2 
 1188000   0.78238444   -4.4170889    683.84983  0.047969264    0.0478224            5 
 1189000    0.7818159   -4.4405276    683.87857  0.047930934  0.047797408            6 
 1190000   0.76568936   -4.4361183    686.41573  0.048068329  0.047772493            4 
 1191000   0.78832306   -4.4671673     684.9596  0.047926085  0.047747905            4 
 1192000   0.77471137    -4.458708    686.49671  0.047993338  0.047723283            4 
 1193000   0.76284294   -4.4516911    685.59535  0.047890148  0.047698623            7 
 1194000   0.77126967   -4.4668333    688.00746  0.048018388  0.047674061            6 
 1195000   0.76328377   -4.4881598    684.65967  0.047744747  0.047649247            9 
 1196000   0.77429948   -4.4650908    684.98915  0.047727784   0.04762423            5 
 1197000   0.77940559   -4.4331356    685.69124  0.047736789  0.047599519            9 
 1198000   0.77790823   -4.4722923    686.02423  0.047720105  0.047574818            5 
 1199000   0.78990396   -4.4559672    689.00292  0.047887331  0.047550274            7 
 1200000   0.76326952   -4.4763588    689.02444  0.047848919  0.047525787            7 
 1201000   0.76944481   -4.4515124    686.14923  0.047609578  0.047501429            6 
 1202000   0.78852567   -4.4253859    689.57262  0.047807309  0.047477102            3 
 1203000    0.7626058   -4.4750975    688.54399  0.047696314  0.047452798            8 
 1204000    0.7517389   -4.4900135    688.30849    0.0476404  0.047428236            6 
 1205000   0.77018046   -4.4746829    689.30519  0.047669792  0.047403475            4 
 1206000   0.77359557   -4.4578465    689.17425  0.047621216  0.047379197            6 
 1207000   0.76796729    -4.457463    689.16974  0.047581451  0.047354787            7 
 1208000   0.76421432   -4.4760371     690.4306  0.047629042  0.047330404            5 
 1209000   0.78723424   -4.4643409    689.77938   0.04754476  0.047306096            3 
 1210000    0.7776057   -4.4664771    690.52658  0.047556927  0.047281805            7 
 1211000   0.75995584    -4.460854     690.2291  0.047497185   0.04725715            8 
 1212000   0.77625263   -4.4841789    689.24028  0.047390008  0.047232693            8 
 1213000   0.76997792   -4.4657369    688.16165  0.047276838  0.047208111            6 
 1214000   0.77052669   -4.4716042     688.0035  0.047227038  0.047183268            6 
 1215000   0.76363536    -4.428674    692.94074    0.0475268   0.04715832            6 
 1216000   0.78379742   -4.4767179    690.21849  0.047301157  0.047133472           17 
 1217000   0.75525548   -4.4835973    688.84531  0.047168263  0.047108347            5 
 1218000   0.77028947   -4.4866511    691.01028   0.04727766  0.047083717            3 
 1219000   0.76252975   -4.4828366    690.74623  0.047220825  0.047058679            4 
 1220000   0.75478403   -4.4781938    690.93469  0.047194992  0.047033828            8 
 1221000   0.75737651   -4.4930537    691.36962  0.047186024  0.047008707            7 
 1222000   0.76444652    -4.494675     690.6597  0.047098997  0.046983446            5 
 1223000   0.76812757    -4.459411    690.69939  0.047063191   0.04695806            8 
 1224000   0.77525813   -4.4809352    692.36595  0.047138205  0.046932851            8 
 1225000    0.7606095   -4.4914001    689.76796   0.04692299  0.046907677            5 
 1226000   0.76794538   -4.4686058    690.76654  0.046952592  0.046882516            3 
 1227000    0.7597933   -4.4730079    691.90779  0.046991836  0.046857342           15 
 1228000   0.76913534   -4.4856765    691.44882  0.046922423  0.046831757            7 
 1229000   0.76210231   -4.4857663    691.61134  0.046895263  0.046806289           11 
 1230000   0.77214406    -4.475755    692.27248   0.04690193  0.046781266            5 
 1231000   0.76837994   -4.4836699    691.61052  0.046819017  0.046756026            8 
 1232000    0.7609591   -4.4839057    690.72671  0.046721233  0.046730398            3 
 1233000   0.75630572   -4.4857016    691.54749  0.046738814  0.046704994            8 
 1234000   0.74867405   -4.4662704    691.69243  0.046710726  0.046679735            8 
 1235000   0.75024634   -4.5114823    692.66545   0.04673856  0.046654342            6 
 1236000   0.76772078    -4.474525    690.64643  0.046564619  0.046628874            3 
 1237000   0.75881016   -4.4991776    691.80335  0.046604915  0.046603666            5 
 1238000   0.77728174   -4.4700566    693.59691  0.046687999  0.046578817            7 
 1239000   0.77190982   -4.4756941    695.36883  0.046769494  0.046553843            3 
 1240000   0.75269893   -4.4750806    695.54646  0.046743714  0.046528925            3 
 1241000   0.75104689   -4.4813408    694.55945   0.04663977  0.046504109            7 
 1242000   0.74785339   -4.4603212    697.55807  0.046803413  0.046479555            7 
 1243000   0.75154768   -4.5193312    695.91364  0.046655514  0.046454982            7 
 1244000    0.7737559   -4.4996833    697.66457  0.046735301  0.046430209            3 
 1245000   0.73867889   -4.4470584      697.891  0.046712918  0.046405662           12 
 1246000   0.75543643   -4.5008531    696.82594  0.046604196  0.046380865            5 
 1247000   0.75986697    -4.482969    699.00246  0.046712273  0.046356224           11 
 1248000   0.74734784   -4.4996291    697.72742  0.046589705  0.046331662            6 
 1249000   0.75350182   -4.4917431    695.73734  0.046419625  0.046307165            6 
 1250000   0.77527891   -4.4988232    695.97466   0.04639831   0.04628268            9 
 1251000    0.7526139   -4.5029919    696.46905  0.046394155  0.046257871            4 
 1252000   0.75627787   -4.4632185    698.93776  0.046521417  0.046233314            3 
 1253000   0.74457923   -4.5116315    697.89541  0.046414964  0.046208806            4 
 1254000   0.75661994   -4.5099081    695.94184  0.046248128  0.046184185           10 
 1255000   0.73701715   -4.5015831    700.07291  0.046485585  0.046159637            6 
 1256000   0.75513829    -4.481301    699.53459  0.046412858  0.046135168            8 
 1257000   0.75804597    -4.483574    700.21732  0.046421196  0.046110673            9 
 1258000   0.74195088   -4.5123594    698.85111  0.046293793  0.046085877            9 
 1259000   0.74550539   -4.5005924    700.46291  0.046363709  0.046061208            7 
 1260000   0.74751114   -4.4963744    699.56158    0.0462673  0.046036591            4 
 1261000   0.76792149   -4.4749679    700.67792  0.046304382  0.046012231            7 
 1262000   0.73548616    -4.509984    702.34362  0.046377682  0.045987496            4 
 1263000   0.76218546   -4.5094679    699.34657  0.046143215  0.045962741            5 
 1264000    0.7534265   -4.5000424     698.5038  0.046051147  0.045938013           14 
 1265000   0.76425172   -4.5067638    699.09716  0.046053831  0.045912927           10 
 1266000   0.75212756   -4.5250513    698.66754  0.045989174  0.045888073            5 
 1267000   0.75066803   -4.4873681    702.75809  0.046221921   0.04586342            4 
 1268000   0.75740059   -4.5045799    700.65656  0.046047356  0.045838731            5 
 1269000   0.74519563   -4.5063188    699.67221  0.045946428  0.045814149            4 
 1270000   0.75670211    -4.529179    699.49201  0.045898426  0.045789142            5 
 1271000   0.75572254   -4.5138591    699.67865  0.045874551  0.045764446            7 
 1272000   0.75553135   -4.4816944    702.43919  0.046019339  0.045740047            5 
 1273000   0.75938692   -4.5197543    701.16797  0.045899972    0.0457157           15 
 1274000   0.73434196   -4.4942944    702.26097  0.045935437  0.045691357            8 
 1275000    0.7525221   -4.5038269    705.30368   0.04609828  0.045667092            6 
 1276000   0.74813109   -4.5210052    703.16589  0.045922537  0.045643072            3 
 1277000   0.73716663   -4.5229637     704.4799  0.045972324  0.045618763            4 
 1278000    0.7518753   -4.5171613    703.80125    0.0458921  0.045594669           14 
 1279000   0.72819912   -4.4801327     708.3995  0.046155818  0.045570583            5 
 1280000   0.73394709   -4.5029821    704.74983   0.04588215  0.045546692            4 
 1281000    0.7394679   -4.4922824    704.85648  0.045853271  0.045522579            4 
 1282000   0.71673577   -4.5341466    702.71558   0.04567834  0.045498496           18 
 1283000   0.75003585   -4.5026535    706.36354  0.045879679   0.04547435            7 
 1284000   0.74529995   -4.5203647    705.74733  0.045803954  0.045450368            9 
 1285000   0.73860771   -4.5011388    704.85313   0.04571032  0.045426522            9 
 1286000   0.73820922   -4.5034529    705.37903  0.045708854  0.045402199            8 
 1287000   0.74003297   -4.5253302    704.43007  0.045611892  0.045377899            9 
 1288000   0.75491309   -4.5309529    705.72951  0.045660553  0.045353867            9 
 1289000   0.72941649   -4.5369297     704.4978    0.0455455  0.045329658            6 
 1290000   0.73682736   -4.5487029    705.19342  0.045555131  0.045305308            6 
 1291000   0.72658156   -4.5039923    706.03247  0.045574004  0.045280958            8 
 1292000   0.73175786   -4.5220965    707.69122  0.045645719  0.045257025            5 
 1293000   0.72809267   -4.5291605    706.88377  0.045558376  0.045232997           10 
 1294000   0.73162336   -4.5321904     707.2325  0.045545627  0.045208903            4 
 1295000    0.7441246   -4.5246565    706.96158  0.045493023  0.045184857           11 
 1296000   0.72917023   -4.5094789    710.19802  0.045666025  0.045161305            4 
 1297000   0.74107564   -4.5352381    708.22967  0.045504348  0.045137505            3 
 1298000   0.75278621    -4.547533    707.43747  0.045418431  0.045113711            3 
 1299000   0.74617332   -4.5210135    708.11995  0.045427249  0.045089963            5 
 1300000   0.72388379   -4.5164477    709.43115  0.045476355  0.045066063            7 
 1301000   0.73102526   -4.5199866    709.22942  0.045428479  0.045042037            6 
 1302000   0.74297826   -4.5172276    708.00334  0.045315114  0.045018155           15 
 1303000   0.75341983   -4.5254057    710.42578  0.045435263  0.044994351            4 
 1304000   0.72515401   -4.5625854    709.08617  0.045314812  0.044970674            6 
 1305000    0.7310369   -4.5294631    709.11571  0.045281974  0.044946586            5 
 1306000   0.72018402   -4.5402194    710.71783   0.04534953  0.044922686            4 
 1307000   0.73864116   -4.5472922    709.71059  0.045250612  0.044898688            6 
 1308000    0.7244042   -4.5413283    710.88422  0.045290788  0.044874645            4 
 1309000   0.73618003   -4.5673939    710.45972  0.045229164  0.044850762           10 
 1310000   0.76049163   -4.5369106    709.71966  0.045147561  0.044826899            8 
 1311000   0.71088221   -4.5370046    709.66066  0.045109373  0.044803024            3 
 1312000   0.71985941   -4.5310935    712.29248  0.045242155  0.044779161            5 
 1313000   0.72729069   -4.5364587    713.84238  0.045306066  0.044755625            6 
 1314000   0.72956088   -4.5481233    711.40615  0.045117082  0.044732204           16 
 1315000   0.73099371   -4.5721373    713.29175  0.045202266  0.044708419            4 
 1316000   0.71552603   -4.5592441    713.67452  0.045192156  0.044684664           18 
 1317000   0.74387993   -4.5442571     711.8065  0.045039642  0.044660802            6 
 1318000   0.74031105   -4.5668548     710.9039  0.044948401  0.044637147            8 
 1319000    0.7222528   -4.5641456    710.60433  0.044895396  0.044613254            7 
 1320000   0.71127506   -4.5478694    711.27162  0.044903511  0.044589601            9 
 1321000   0.73354846   -4.5571876    712.25081   0.04493129  0.044565878            3 
 1322000   0.73008961   -4.5740935    711.76041   0.04486639  0.044542234            4 
 1323000   0.72841024   -4.5696477    714.91785  0.045031359  0.044518287           11 
 1324000   0.71967323   -4.5311731    711.86009   0.04480489  0.044494381            6 
 1325000   0.69885653   -4.5505867     710.9595  0.044714434  0.044470298            3 
 1326000   0.70855608   -4.5459459     713.1515   0.04481847  0.044446353            2 
 1327000   0.70821818   -4.5506373    712.07498  0.044717093  0.044422452            5 
 1328000   0.72936523    -4.564839    712.67544  0.044721099  0.044398346            7 
 1329000   0.73302206   -4.5329034     712.6233   0.04468418  0.044374259           12 
 1330000   0.71714916   -4.5390987    716.33728  0.044883288  0.044350225            7 
 1331000   0.72093435   -4.5530611    715.08783  0.044771339  0.044326504           10 
 1332000   0.72494462    -4.574906    716.22929   0.04480914  0.044302681            9 
 1333000   0.72547992   -4.5421489     716.3043  0.044780214  0.044279051            3 
 1334000   0.72492295   -4.5425206      714.103  0.044609133  0.044255392            5 
 1335000   0.72504929   -4.5533044    714.88357  0.044624443  0.044231597            5 
 1336000   0.71603963   -4.5675238    713.29893  0.044492199  0.044207832           16 
 1337000   0.71234015   -4.5486123    713.87508  0.044494832  0.044183838            9 
 1338000   0.70820981   -4.5626801    713.89286  0.044462685  0.044159889            8 
 1339000   0.71634899   -4.5557207    714.89985  0.044492149  0.044136108            6 
 1340000   0.71646045   -4.5518329    714.95875  0.044462609  0.044112163            6 
 1341000   0.71090142   -4.5587759    716.88441  0.044549118  0.044088417            3 
 1342000   0.72062625   -4.5769408    713.12243  0.044282317  0.044064548           11 
 1343000   0.72799539   -4.5606169    716.06069  0.044431664  0.044040926            8 
 1344000   0.70537406   -4.5637715    718.26025  0.044534986  0.044017267           10 
 1345000   0.71251132   -4.5921211    718.23098  0.044500061  0.043993633           14 
 1346000     0.730653   -4.5644401    716.79249   0.04437794  0.043970083            5 
 1347000    0.7178118   -4.5927145    717.16069  0.044367774   0.04394674           11 
 1348000   0.72627271   -4.5843202    720.10917  0.044517135  0.043923432            6 
 1349000   0.70710605   -4.5355663    718.19379  0.044365814  0.043900211           23 
 1350000   0.71691322   -4.5773219    716.77312  0.044245254   0.04387681           12 
 1351000   0.71499527   -4.5567766    719.18794  0.044361457  0.043853385            5 
 1352000   0.72760655   -4.5709191    719.61525  0.044354983  0.043829917            8 
 1353000   0.70559329    -4.567484    720.05495  0.044349282  0.043806808            8 
 1354000    0.7253821   -4.5953965    719.63011  0.044290381   0.04378372            8 
 1355000   0.69582957   -4.5715486    719.59355  0.044255446  0.043760624            6 
 1356000    0.7097142   -4.5860221    718.37401  0.044147862  0.043737458            5 
 1357000   0.70469326   -4.5690626    720.63889  0.044254414  0.043714297            6 
 1358000   0.71388948   -4.5991188    720.44397  0.044209866  0.043691086            7 
 1359000    0.7047793   -4.5680779    721.31019  0.044230451  0.043667879           10 
 1360000   0.70836936   -4.5853765    719.18468  0.044067689  0.043644414            3 
 1361000   0.70893507   -4.5795396    719.34902  0.044045372   0.04362103            6 
 1362000   0.70073946   -4.5965338    720.59414  0.044089215   0.04359792           18 
 1363000   0.69555486   -4.5895428    723.44851  0.044231384  0.043574535            9 
 1364000   0.72613596   -4.5788134    723.32692  0.044191527  0.043551494            4 
 1365000   0.70800584   -4.5711615    722.23783  0.044092664  0.043528594            8 
 1366000   0.70302605   -4.5722578    721.94605  0.044042585  0.043505789            8 
 1367000   0.72569935   -4.5960731    721.25482  0.043968229  0.043482732            5 
 1368000   0.70475877   -4.5905627    721.79368  0.043968913  0.043459571            6 
 1369000    0.7000446   -4.5998492    720.31844  0.043846995   0.04343634            8 
 1370000   0.70569209   -4.5700693    722.90408  0.043972268   0.04341304            7 
 1371000   0.71453057    -4.581254    722.64869  0.043924671  0.043389895           11 
 1372000   0.68844699   -4.5817818    721.75667  0.043838476  0.043366433            7 
 1373000   0.70984201   -4.5780276    722.81104  0.043870541  0.043343111           12 
 1374000   0.70094181   -4.5979937    719.81164  0.043656698  0.043319663            7 
 1375000   0.70930152   -4.5759665    723.76313  0.043864432  0.043296331            6 
 1376000   0.70482784   -4.6003083    722.46612  0.043754004  0.043273208            5 
 1377000   0.70468836    -4.571918    726.20561  0.043948536  0.043249968           10 
 1378000    0.6985373   -4.5993367    720.39561  0.043565288  0.043226742            4 
 1379000   0.72458975   -4.5948484    723.87302  0.043743837  0.043203469            4 
 1380000   0.70720598   -4.5969445    723.72126  0.043702975  0.043180308            4 
 1381000   0.68962606   -4.5979068    723.88319    0.0436811  0.043156975            6 
 1382000    0.7062278   -4.6299613    721.72901  0.043519598   0.04313359           12 
 1383000   0.69606211   -4.6145268     722.7062  0.043547011  0.043110555            8 
 1384000   0.69078047   -4.5671205    726.88316   0.04376705  0.043087516            9 
 1385000    0.7041989   -4.6144811    724.77086  0.043608355  0.043064453            8 
 1386000   0.71253997    -4.570286    724.91577  0.043585604  0.043041542            6 
 1387000   0.69227016   -4.5883819    724.67368  0.043539634  0.043018289            4 
 1388000   0.70155942   -4.5966422    722.41219   0.04337249  0.042994919            5 
 1389000   0.70537429   -4.5658901    725.92223  0.043551849  0.042971823            8 
 1390000   0.72184779   -4.6270652    724.37201  0.043427579   0.04294865            7 
 1391000   0.68739849   -4.5765031    725.21957  0.043447134  0.042925323           13 
 1392000   0.71347399   -4.5975943    725.88793  0.043455935  0.042902139           12 
 1393000   0.67808179    -4.601847    725.98571  0.043430588  0.042878839            7 
 1394000   0.71245138   -4.5941488     725.7419  0.043384858  0.042855563            2 
 1395000   0.69049264   -4.5954674    724.27371  0.043266052   0.04283246            5 
 1396000   0.70648759   -4.6085818    726.72578  0.043381434  0.042809202            5 
 1397000   0.69672486   -4.6066432    726.64646  0.043345649  0.042785859           10 
 1398000   0.70005244    -4.628998    725.98662  0.043275311  0.042762619            8 
 1399000   0.70119009      -4.6235    727.36366  0.043326403  0.042739351            8 
 1400000   0.68559946   -4.5908988    726.99773  0.043273675  0.042716246            6 
 1401000   0.69398415   -4.6119222    727.05998  0.043246489  0.042693166           10 
 1402000   0.70673569   -4.5982327    726.82619  0.043201747  0.042670048            4 
 1403000   0.67067853   -4.5955798     726.5314  0.043153445  0.042646946            8 
 1404000   0.69948524   -4.6301278    725.25834  0.043047147  0.042623756            6 
 1405000   0.69719276   -4.6217074    725.97938  0.043059275  0.042600414            8 
 1406000   0.70432713   -4.5778987    726.82196  0.043078589  0.042577458           11 
 1407000   0.70741188   -4.5943079    728.46399  0.043145226  0.042554427           16 
 1408000   0.67029661   -4.6362847    726.01793  0.042969811  0.042531185            8 
 1409000   0.69819522    -4.624448     727.3079  0.043015608  0.042507844           12 
 1410000   0.70237162   -4.5966916     727.2361  0.042980857  0.042484514           10 
 1411000   0.70051446   -4.6077518    727.19909   0.04294821  0.042461274            5 
 1412000    0.7039034   -4.6198561    726.08684  0.042852151   0.04243796            8 
 1413000    0.6813333   -4.5983297    728.57094  0.042968326  0.042414637            4 
 1414000   0.68769291   -4.6118154    728.62886  0.042941352   0.04239133            6 
 1415000   0.69006203   -4.6324374    726.97573  0.042813647  0.042368027            6 
 1416000   0.69931323   -4.6184557    727.39249  0.042807938  0.042344706           10 
 1417000    0.6797831   -4.6176539    729.92742  0.042926806  0.042321491           10 
 1418000   0.68488483   -4.6147472    727.89467  0.042777072  0.042298137            8 
 1419000   0.68262795   -4.6168138    726.38507  0.042658273    0.0422748            9 
 1420000   0.67887228    -4.616591     728.9016  0.042775915   0.04225159            6 
 1421000   0.69549374    -4.637273    730.25385  0.042825114  0.042228515            5 
 1422000   0.67905401   -4.6531502    727.47884  0.042632374  0.042205431           12 
 1423000   0.68094944   -4.6204957     732.1814  0.042877805   0.04218233            4 
 1424000   0.68115354   -4.6410822    729.03367  0.042663487   0.04215907            9 
 1425000   0.68117736   -4.6430967    729.60803  0.042667136  0.042136058            9 
 1426000   0.67779621   -4.6433739    729.62137  0.042637995  0.042112929           10 
 1427000   0.69231957   -4.6392569     729.4991  0.042600975   0.04208988           10 
 1428000   0.68002944   -4.6478097    729.21963  0.042554834  0.042066823            5 
 1429000   0.68663621   -4.6333539    730.32859  0.042589724  0.042043892            5 
 1430000   0.65976657    -4.634807    731.40877  0.042622889   0.04202099            8 
 1431000   0.67899041   -4.6205981    731.31599    0.0425877  0.041997978            9 
 1432000   0.68370337   -4.6464607     731.3962  0.042562628  0.041975082           11 
 1433000    0.6752807   -4.6487416     730.4794  0.042479611  0.041952325            9 
 1434000   0.67861902   -4.6380326    729.92042  0.042417505  0.041929386            8 
 1435000   0.67005923   -4.6466284     730.0978  0.042398246   0.04190644           11 
 1436000   0.68244788    -4.627981    733.33991  0.042556866  0.041883549           11 
 1437000   0.67600517      -4.6284     733.0098  0.042508107  0.041860818            6 
 1438000   0.68199075   -4.6238768    732.85226  0.042469417  0.041838058            5 
 1439000   0.67214363   -4.6427306    733.02629  0.042449982  0.041815352           11 
 1440000   0.68140673   -4.6366703    732.66919  0.042399838  0.041792774            7 
 1441000   0.68107982   -4.6318023    732.98201  0.042388504  0.041770396            4 
 1442000   0.68226163    -4.652616    734.14107  0.042426091  0.041747848            9 
 1443000   0.68116934   -4.6373429    731.96766  0.042271175  0.041725196            6 
 1444000   0.67666551   -4.6669529     732.5606  0.042276119  0.041702569           21 
 1445000   0.66757108   -4.6538415    733.48827  0.042300362  0.041679945            4 
 1446000   0.68992572   -4.6420816    734.91604  0.042353391   0.04165731           13 
 1447000    0.6681699   -4.6549395    732.28467  0.042172579  0.041634597            9 
 1448000   0.66492208   -4.6367382    736.51887  0.042387135  0.041611904           25 
 1449000   0.67662319   -4.6728316    734.03954  0.042215294  0.041589174            4 
 1450000   0.65455323   -4.6355049    734.26663  0.042199232  0.041566433            8 
 1451000   0.66646055   -4.6402711    735.56003  0.042244431  0.041543809            6 
 1452000   0.67337025    -4.660001     734.1489  0.042134349   0.04152091           20 
 1453000   0.67157506   -4.6596125    734.62984  0.042132934  0.041498079           16 
 1454000    0.6700306   -4.6408123    734.12896   0.04207525  0.041475328            8 
 1455000   0.66516597   -4.6431045    735.64428   0.04213312  0.041452685            7 
 1456000   0.67428007   -4.6650964    734.97889    0.0420661  0.041429912            6 
 1457000   0.66272231   -4.6332135    734.39575  0.042003875  0.041407184            7 
 1458000   0.67990985    -4.659903     736.6836   0.04210583  0.041384597            4 
 1459000   0.66362922   -4.6601679    735.88476  0.042031343  0.041362036           17 
 1460000   0.67294018   -4.6513828    735.05425  0.041955151  0.041339364            6 
 1461000   0.65287333   -4.6693476    733.75783  0.041852489  0.041316472           13 
 1462000   0.67010386   -4.6616759     735.4866  0.041922401  0.041293746           15 
 1463000   0.67603076   -4.6743692    736.62976  0.041958861   0.04127106           12 
 1464000   0.65028689   -4.6393512    736.92756  0.041947151  0.041248503            5 
 1465000   0.67021744   -4.6806762    734.60716  0.041786528  0.041225894           10 
 1466000    0.6611064   -4.6760655    732.87714  0.041659683  0.041203055            9 
 1467000   0.67446772   -4.6782887    736.19263  0.041819622  0.041180488           28 
 1468000   0.67141333   -4.6547406    738.32892  0.041912405  0.041158126           10 
 1469000   0.65567943   -4.6633302    736.82525  0.041798573  0.041135726            7 
 1470000   0.66465291   -4.6603459    738.86061  0.041885522  0.041113476            9 
 1471000   0.66376435   -4.6807926    737.84369  0.041799438  0.041091049           14 
 1472000   0.65503098   -4.6829397    736.29544  0.041683392  0.041068543           14 
 1473000   0.66474296   -4.6885035     737.4757  0.041721866  0.041045935           14 
 1474000   0.65898896   -4.6547283    738.54927  0.041754255  0.041023431           25 
 1475000   0.65651355   -4.6764815    737.75745  0.041681212  0.041001029            9 
 1476000    0.6698269   -4.6755373    737.14529  0.041618411  0.040978475            5 
 1477000    0.6592846   -4.6676625    738.69967  0.041677932  0.040956151            6 
 1478000   0.66282838   -4.6804005    739.52676  0.041696367  0.040933867            6 
 1479000   0.66411308   -4.6840296    739.21428  0.041650568  0.040911496            7 
 1480000   0.66301298   -4.6692425     738.9096   0.04160527  0.040889275           12 
 1481000   0.65679505   -4.6907094     739.3897  0.041604192  0.040867018           16 
 1482000   0.65701751   -4.6645141    740.00316  0.041610614  0.040844757            6 
 1483000   0.65856247   -4.7100867    739.73823  0.041567669  0.040822523            6 
 1484000   0.66046426    -4.688999    739.57593  0.041530544  0.040800311            9 
 1485000   0.65707329   -4.6685961    740.63581  0.041562054  0.040777996            8 
 1486000    0.6471047   -4.6805176    740.39281  0.041520458   0.04075591            8 
 1487000   0.66846133   -4.6440414    741.62945  0.041561839   0.04073374            7 
 1488000   0.64886292   -4.6844133     738.5409  0.041360938  0.040711637           15 
 1489000   0.66509275   -4.6646789      739.833  0.041405474  0.040689477            5 
 1490000   0.66340517   -4.6710514     740.7504  0.041428993  0.040667354           15 
 1491000   0.65952668   -4.6746097    740.49395  0.041386874  0.040645188           11 
 1492000   0.65419258   -4.6758037    738.98899  0.041275078   0.04062316            9 
 1493000   0.64404833   -4.6993304    739.73291  0.041288955   0.04060108           11 
 1494000   0.66070535   -4.6933652    741.80215  0.041376737  0.040578972           12 
 1495000   0.65560139   -4.7039827    740.50164  0.041276568  0.040556882            8 
 1496000   0.65281344   -4.6945043    742.84553  0.041379541  0.040534782           14 
 1497000   0.64869041   -4.7014456    740.69924  0.041232423  0.040512712            4 
 1498000    0.6393221   -4.7033153    739.55022  0.041140978  0.040490523            5 
 1499000   0.66746957   -4.7047635    740.37031  0.041159123  0.040468445           11 
 1500000   0.64711548   -4.7120912      740.926  0.041162556  0.040446114            7 
 1501000   0.64246598   -4.6978256    740.17472  0.041093422  0.040423836            6 
 1502000   0.63789104    -4.718865    740.70339  0.041095394  0.040401681            6 
 1503000   0.65010507    -4.707902    740.27485  0.041044292  0.040379324           11 
 1504000   0.64947694   -4.6882392    740.35015  0.041021174  0.040357216           14 
 1505000   0.63952464   -4.6906956     743.3203  0.041158378  0.040335144           22 
 1506000   0.65386046   -4.6764461    743.03074  0.041115025  0.040313115            9 
 1507000   0.64784306   -4.7001924    741.87046  0.041023582  0.040291172            7 
 1508000   0.64418646   -4.7108507    742.50763  0.041031588  0.040269026            7 
 1509000   0.65220003   -4.7024618    742.00009  0.040976369  0.040246989            5 
 1510000   0.65300434   -4.7218529    743.20347  0.041015644  0.040224855            7 
 1511000   0.66296954   -4.7123648    742.59217  0.040954785  0.040202845            7 
 1512000   0.65210605   -4.6979321    740.12519  0.040791732  0.040180662           11 
 1513000   0.65994169   -4.7116222    742.43216  0.040891835    0.0401584           11 
 1514000   0.65092467   -4.6940911    742.12628   0.04084799  0.040136309            9 
 1515000   0.64689127     -4.73893    743.40378  0.040891297  0.040114056           15 
 1516000   0.66292202   -4.7026717    741.43931  0.040756339  0.040091952           12 
 1517000   0.63872692   -4.7174225    745.21082  0.040936652  0.040069929           18 
 1518000   0.64308061   -4.7283381    742.70663  0.040772213  0.040047675           13 
 1519000   0.64530385   -4.7022137    743.01779  0.040762442  0.040025485           25 
 1520000   0.63703643   -4.7168644    743.55725    0.0407652  0.040003297           15 
 1521000   0.64757689   -4.7045159    742.66534  0.040689532  0.039981174           18 
 1522000   0.63949734   -4.7114938    744.53957  0.040765417  0.039959129           12 
 1523000   0.65210964   -4.7021778    744.58997  0.040741408  0.039937059            5 
 1524000   0.65879177   -4.6999101     745.9644  0.040789829  0.039915161           20 
 1525000    0.6504609   -4.7285718    742.72983  0.040586329  0.039893334            7 
 1526000   0.64808273   -4.7371471    743.78352  0.040617274   0.03987146            5 
 1527000   0.64424068    -4.717363    747.85275  0.040812745  0.039849763            9 
 1528000   0.64343849   -4.7025261    744.21028  0.040587385  0.039827952           17 
 1529000   0.64918858   -4.7077429    745.34428  0.040622644  0.039806141           11 
 1530000   0.65210959   -4.6907474    746.66051  0.040667784  0.039784482            9 
 1531000   0.62445731   -4.6892028    746.69583  0.040643143  0.039762821            8 
 1532000   0.64212037    -4.735869    745.98787  0.040578104  0.039741096            9 
 1533000   0.63709492   -4.7478376    742.65484  0.040370452  0.039719236            5 
 1534000   0.63542679   -4.7056033    744.99234  0.040471118  0.039697365            6 
 1535000   0.64120355   -4.7271827    746.94357  0.040550683  0.039675641           15 
 1536000    0.6354161   -4.7491569    747.61768  0.040560855  0.039653877           11 
 1537000   0.64868696   -4.7309628    745.86634  0.040439511  0.039632189            9 
 1538000   0.63796353   -4.7209695    746.19122   0.04043082  0.039610539            5 
 1539000   0.63783991   -4.7067337      746.916  0.040443795  0.039588842            7 
 1540000   0.63155228    -4.717973      748.344  0.040494805  0.039567239           10 
 1541000   0.63458628    -4.714784    746.39405  0.040363079  0.039545696            8 
 1542000   0.63965033   -4.7289941    746.79842  0.040358756  0.039524015            7 
 1543000    0.6278881   -4.6994522    748.75689  0.040438372    0.0395022            6 
 1544000     0.647286   -4.7316546     745.5756  0.040240479  0.039480454            3 
 1545000   0.63466251   -4.7242847    746.34014  0.040255671  0.039458712           10 
 1546000   0.64166309   -4.7097992    746.86525  0.040257937  0.039436956           10 
 1547000   0.62923934   -4.7289893    747.39867  0.040260648  0.039415332           12 
 1548000   0.63769265   -4.7281176    748.32861  0.040284701  0.039393689            8 
 1549000   0.63067812   -4.7235603    746.27363   0.04014814  0.039371936           15 
 1550000   0.62184576   -4.7251179    746.01213  0.040108179  0.039350147            3 
 1551000   0.62839355   -4.7247037    747.03683  0.040137375  0.039328374           22 
 1552000   0.63443924   -4.7340918    747.78012  0.040151424  0.039306657            6 
 1553000   0.62974972   -4.7658455    745.90383  0.040024889  0.039284782           10 
 1554000   0.63853463   -4.7350543     746.4585  0.040028877  0.039263003            9 
 1555000   0.63050636   -4.7339667    746.98988  0.040031612   0.03924128           15 
 1556000    0.6378763   -4.7417792    747.75097  0.040046646  0.039219518            7 
 1557000   0.62693773   -4.7128519    748.24345  0.040047284  0.039198024           17 
 1558000   0.62273487   -4.7592675    746.20417  0.039912504  0.039176372           20 
 1559000   0.64419784   -4.7497949    746.26305   0.03989005  0.039154659           14 
 1560000    0.6216963   -4.7408333    748.20487  0.039968209  0.039132901            6 
 1561000   0.62733791   -4.7142895    749.60389  0.040017291  0.039111362            7 
 1562000   0.62853116   -4.7342645    748.83293   0.03995054   0.03908971            9 
 1563000   0.62939355   -4.7454535    747.44877  0.039851182  0.039067989           16 
 1564000   0.63588105   -4.7498686    748.15999  0.039863597   0.03904642            7 
 1565000   0.62005471   -4.7225559    747.80048  0.039818982  0.039024855           10 
 1566000   0.63666066   -4.7619166    747.35884  0.039770053   0.03900302            5 
 1567000   0.62241927    -4.727261    746.41753  0.039694614  0.038981099            8 
 1568000   0.63546343   -4.7585374    748.06877  0.039757056  0.038959282            9 
 1569000   0.63052915   -4.7130601    748.53648  0.039756558  0.038937565            8 
 1570000   0.62920653   -4.7358249    747.81352  0.039692862   0.03891599            4 
 1571000   0.63404106   -4.7371616    751.15989  0.039845103   0.03889437           24 
 1572000   0.62087215   -4.7333568    747.81774  0.039642586  0.038872679           12 
 1573000   0.64925326   -4.7701501    748.16227  0.039635636  0.038850822            9 
 1574000   0.63226805   -4.7649235    748.34572  0.039620167  0.038828913           10 
 1575000   0.63344068   -4.7787153    746.33349  0.039488544  0.038807033           17 
 1576000   0.61152861   -4.7519148    749.73077  0.039643124   0.03878515            9 
 1577000   0.63228775   -4.7850234    747.07251  0.039477516  0.038763308           18 
 1578000   0.62141354   -4.7553939    748.06164  0.039504734  0.038741297            5 
 1579000   0.63304702   -4.7424363    748.46816  0.039501169  0.038719481           10 
 1580000    0.6067355   -4.7737111    748.18803  0.039461394  0.038697536            9 
 1581000   0.62544983   -4.7541486    750.65423  0.039566426   0.03867568            9 
 1582000   0.61531671   -4.7397753    748.66034  0.039436385  0.038653829           14 
 1583000   0.61670208    -4.772307    747.32455  0.039341153  0.038631917           22 
 1584000   0.60692195   -4.7833771    749.65327  0.039438829   0.03860989           11 
 1585000   0.60639431    -4.769048    748.16714  0.039335812  0.038587974           14 
 1586000    0.6315704   -4.7617397    749.95103  0.039404741  0.038566012            9 
 1587000   0.62940794   -4.7318488    749.73798  0.039368724  0.038544266            7 
 1588000   0.61869055   -4.7612903    751.34772  0.039428407  0.038522494            4 
 1589000   0.62601266   -4.7675911    749.49149  0.039306246  0.038500688            9 
 1590000   0.62205958   -4.7734723    749.06095   0.03925896  0.038478683            6 
 1591000   0.62062886   -4.7501583    748.41681  0.039200545  0.038456844           12 
 1592000   0.63620299   -4.7734596    749.72672  0.039244489  0.038434994           14 
 1593000   0.61954204   -4.7727544    748.48806  0.039155057  0.038413059           21 
 1594000   0.62429478   -4.7778364    750.35841  0.039228273  0.038391103           11 
 1595000   0.60542253   -4.7650382    746.78108  0.039016775  0.038369041           19 
 1596000   0.60612689    -4.765294    748.16907  0.039064801  0.038346936            9 
 1597000   0.61256144   -4.7653881    748.17217  0.039040501  0.038324937            8 
 1598000    0.6112652   -4.7666356    748.83792  0.039050789  0.038302946            6 
 1599000   0.62462838   -4.7735293     751.4417  0.039162065   0.03828107            8 
 1600000   0.61665628   -4.7793251    747.17541  0.038915386  0.038259262           21 
 1601000   0.62010621   -4.7678989    749.56475  0.039015446  0.038237263           36 
 1602000   0.62685779   -4.7681021    747.43252  0.038880177  0.038215345           13 
 1603000   0.60924703   -4.7932112    749.26143     0.038951  0.038193518           21 
 1604000   0.61404644   -4.7784876    748.46716  0.038885451  0.038171627            8 
 1605000   0.61299954   -4.7686926    749.14974  0.038896663  0.038149785            6 
 1606000   0.60993118   -4.7758628     750.7511  0.038955536  0.038127913           19 
 1607000   0.61274945   -4.7713271    748.99397  0.038840177   0.03810598            6 
 1608000   0.61022533    -4.760022    750.20958   0.03887902    0.0380841            8 
 1609000   0.61152282   -4.7652037    750.11471  0.038849943  0.038062245            5 
 1610000   0.61264214   -4.7666601    749.42059  0.038789885  0.038040304           15 
 1611000   0.60064839   -4.7930891    748.24542  0.038705018  0.038018344           10 
 1612000   0.61215198   -4.7886098    749.82391  0.038762609  0.037996384           13 
 1613000   0.60381983   -4.7686626    749.30665  0.038711854  0.037974501           14 
 1614000   0.60027684    -4.776783    750.72364  0.038761031  0.037952727            6 
 1615000   0.61372761   -4.7722211    752.26747  0.038816691   0.03793089            6 
 1616000   0.61173913   -4.7452019    751.77394   0.03876722  0.037909157           17 
 1617000   0.60653876   -4.7769878    751.94681  0.038752155  0.037887577           14 
 1618000   0.59286508   -4.7995977    750.76101  0.038667131  0.037865828           22 
 1619000   0.59216634   -4.7874704    752.54168  0.038734902  0.037844097           10 
 1620000   0.60073037   -4.7848179    750.92534  0.038627847  0.037822268           17 
 1621000   0.59124153    -4.792463    749.79948  0.038546138   0.03780024           27 
 1622000   0.60398334   -4.7931035    749.55048  0.038509581  0.037778267           15 
 1623000    0.6150291    -4.775026    749.89091  0.038503333  0.037756394           25 
 1624000   0.60953201    -4.792612    752.48979  0.038612982  0.037734621           22 
 1625000   0.60632457    -4.784571    748.69563  0.038394648  0.037712941            6 
 1626000   0.61409251   -4.7786828    752.31959  0.038556764  0.037691261            6 
 1627000   0.59590404   -4.7921696    752.29425  0.038531769  0.037669533           15 
 1628000    0.6091758   -4.7834277    752.51749  0.038519527  0.037647931            6 
 1629000     0.616116   -4.7777368    751.56279  0.038447043   0.03762625           19 
 1630000   0.61158988    -4.804562    750.29208  0.038358491  0.037604641           11 
 1631000   0.60476628   -4.7803193     752.0623  0.038425419  0.037582983            6 
 1632000   0.60900538   -4.8036376    752.67182  0.038432998  0.037561336            8 
 1633000   0.60611967   -4.8022628    752.11571  0.038381083  0.037539832           13 
 1634000   0.59904114   -4.7905853    751.82424   0.03834273  0.037518259           12 
 1635000    0.5873177   -4.7971169    754.13008  0.038436803  0.037496734           13 
 1636000     0.592661   -4.7975688    752.27749  0.038318943  0.037475084           19 
 1637000   0.61491343   -4.8123373    748.89566  0.038123379  0.037453376           23 
 1638000   0.60879051   -4.8118501     750.6073  0.038187185  0.037431639           21 
 1639000   0.59537169   -4.8057686    752.34685  0.038252331  0.037409876           12 
 1640000   0.60842823   -4.8130973    751.06267  0.038163754  0.037388284            7 
 1641000   0.61030788    -4.815863    750.75342  0.038124793  0.037366652           11 
 1642000    0.5861488   -4.8149721    751.50211  0.038139571  0.037345023           20 
 1643000   0.58752441   -4.8107593     753.0268   0.03819369  0.037323387           13 
 1644000   0.58928217   -4.8440822    751.45028  0.038090545  0.037301748           20 
 1645000   0.59324986   -4.8140739    753.66018   0.03817934  0.037280079           18 
 1646000   0.60160869   -4.8065024    751.72199  0.038058019  0.037258451           20 
 1647000   0.60296372   -4.8025729    752.19459  0.038058823  0.037236888            6 
 1648000   0.59880989   -4.8063125    754.01722  0.038127894  0.037215326           23 
 1649000   0.59673977      -4.7948    752.06611  0.038006171  0.037193701            8 
 1650000    0.6045283   -4.8216295    753.03655  0.038032149  0.037171984            9 
 1651000   0.59965139   -4.8248215    751.39324  0.037926168  0.037150168           14 
 1652000   0.59374639   -4.8189719    752.47175  0.037957615   0.03712846           11 
 1653000   0.59249725   -4.8303318    750.59811  0.037840195  0.037106805            5 
 1654000   0.60235263    -4.800001     753.0674  0.037941727   0.03708515           27 
 1655000   0.59714357   -4.8240495    753.36102  0.037933586  0.037063549           13 
 1656000   0.58974042   -4.8282164    751.98097  0.037841232  0.037041936           12 
 1657000   0.58086365   -4.8202298    753.94233  0.037917035  0.037020317            6 
 1658000   0.59465365   -4.8201221    752.41717   0.03781751  0.036998589           22 
 1659000   0.59449168   -4.8557987    750.33527  0.037690138  0.036976806           16 
 1660000   0.59007926   -4.8281255    749.66501  0.037633786  0.036954946           12 
 1661000   0.58758073   -4.8269049     749.4038  0.037598023  0.036933171           13 
 1662000   0.59561658    -4.823311    751.62713   0.03768688  0.036911411            8 
 1663000    0.5821584   -4.8257495    753.94286   0.03778026  0.036889757            8 
 1664000   0.58364673   -4.8100691    753.51009  0.037735882  0.036868005            8 
 1665000   0.60130715   -4.8156048    753.09444  0.037692414  0.036846375           20 
 1666000   0.57796611   -4.8319391    751.41269  0.037585669  0.036824725           11 
 1667000   0.59277997   -4.8236109    751.96469  0.037590716  0.036803061           12 
 1668000   0.59086267   -4.8336376    749.98017  0.037469033  0.036781342           15 
 1669000   0.58916621   -4.8398333    752.55693  0.037575241  0.036759664           14 
 1670000   0.58486898   -4.8371585    750.41887  0.037446051  0.036737894            9 
 1671000   0.57706141   -4.8146783     753.4159  0.037573105  0.036716186           12 
 1672000   0.57147953   -4.8449113    750.70827  0.037415684  0.036694556           27 
 1673000   0.59409185   -4.8352347    751.89128  0.037452246  0.036672891           13 
 1674000   0.58994613   -4.8318099    752.77238  0.037473734  0.036651211           18 
 1675000   0.58765266   -4.8383233    749.96938  0.037311909   0.03662933           11 
 1676000   0.58174554   -4.8506159    752.58023  0.037419462  0.036607631           23 
 1677000   0.58502321   -4.8312276    751.75156  0.037355971  0.036585745           11 
 1678000   0.57983852   -4.8475126    752.60929  0.037376306   0.03656393           26 
 1679000   0.57811769   -4.8235167    751.99664  0.037323637  0.036542059           34 
 1680000   0.58261778   -4.8334608    752.88955  0.037345712   0.03652022           11 
 1681000   0.58643225    -4.829565      750.521  0.037206078  0.036498448           17 
 1682000   0.57562817   -4.8507863    751.59036  0.037236938  0.036476664           16 
 1683000   0.59096934   -4.8509205    751.61591  0.037216078  0.036454832           11 
 1684000   0.58793401   -4.8239615    751.15299   0.03717107  0.036433047           16 
 1685000   0.57483394    -4.859902    751.20109  0.037151389  0.036411263            8 
 1686000   0.59085957   -4.8561808    752.27302  0.037182336  0.036389429           10 
 1687000   0.57640145   -4.8746352    750.30174   0.03706292  0.036367527           19 
 1688000   0.58247738   -4.8485531    751.23808  0.037087188  0.036345599           10 
 1689000   0.58046543   -4.8393335    751.66949  0.037086515  0.036323788            7 
 1690000   0.58179203    -4.853415    749.19872  0.036942738  0.036302056            6 
 1691000   0.58035704   -4.8462079    752.96949  0.037106716  0.036280277            7 
 1692000   0.57619845   -4.8259379     751.4146  0.037008205  0.036258519           23 
 1693000   0.56557914   -4.8617286    753.00749  0.037064751  0.036236775           15 
 1694000   0.57836236   -4.8617714    752.29455  0.037007799  0.036214989           12 
 1695000   0.58148885   -4.8583057    751.86799  0.036964994  0.036193162           22 
 1696000    0.5748368   -4.8314023    752.87121  0.036992493  0.036171329            8 
 1697000   0.57782921   -4.8725422    751.07806  0.036882639  0.036149438            7 
 1698000   0.57742176   -4.8657857    750.71404  0.036843053  0.036127599           23 
 1699000    0.5713474    -4.858032    750.99001  0.036834903  0.036105743           18 
 1700000   0.57804502   -4.8498114    749.97102  0.036763285   0.03608391           10 
 1701000   0.56563157   -4.8932377    751.19787  0.036801777  0.036062062           11 
 1702000   0.56068803   -4.8642995    751.50136  0.036795013  0.036040121           20 
 1703000   0.55562291   -4.8471266    750.62872  0.036730707  0.036018244           23 
 1704000   0.56260354   -4.8599154     753.5644  0.036852719   0.03599655            7 
 1705000   0.56945273   -4.8575011    750.95404  0.036703521  0.035974816           21 
 1706000   0.56918686    -4.861036    751.11852  0.036690041  0.035953144            6 
 1707000   0.57043369   -4.8688001     751.1955  0.036672305  0.035931418           41 
 1708000   0.56273325   -4.8637798    751.68396  0.036674666  0.035909588           30 
 1709000   0.58274622   -4.8657054    750.97996  0.036618878  0.035887773           27 
 1710000   0.56700299   -4.8891298    750.46738  0.036572485  0.035865931           26 
 1711000   0.55858811   -4.8838674    751.74904  0.036613532  0.035844059           17 
 1712000   0.58994569   -4.8794633     753.5147  0.036678091  0.035822229           19 
 1713000   0.56709545   -4.8682383    751.79088   0.03657282  0.035800439           29 
 1714000   0.58121434   -4.8845947    749.95829  0.036462383   0.03577855            7 
 1715000   0.57036996   -4.8471283    753.50737  0.036613575  0.035756827           27 
 1716000    0.5516302   -4.8482835     752.3624  0.036536636  0.035735206           26 
 1717000   0.55965498   -4.8660129    750.83739  0.036441341  0.035713526           18 
 1718000   0.56967709   -4.8564525    751.07244  0.036431531  0.035691818           17 
 1719000   0.56359856   -4.8557456    752.25311  0.036467574  0.035670115           12 
 1720000   0.56107393   -4.8669985    750.79662  0.036375805  0.035648365           23 
 1721000   0.56451201   -4.8471841    752.05971   0.03641583  0.035626656           21 
 1722000   0.57349128   -4.8915261    751.12862  0.036349623  0.035604895           31 
 1723000   0.56032548   -4.8918797     750.3107  0.036288968  0.035583056           13 
 1724000   0.56041873   -4.9036393    751.44629   0.03632281  0.035561213           25 
 1725000   0.57925708   -4.8715047    751.76026  0.036316921  0.035539443           12 
 1726000   0.55735989   -4.9012385    752.26709   0.03632035  0.035517689           21 
 1727000   0.55960089   -4.8919561    751.76589  0.036275135  0.035495975           30 
 1728000    0.5670764   -4.8645035    751.89369  0.036260305  0.035474246           44 
 1729000   0.56761397   -4.8908173    750.93385  0.036193072  0.035452502           35 
 1730000   0.57105348   -4.8948819    751.38802  0.036194028  0.035430799           15 
 1731000   0.57299547   -4.8866867    750.45147  0.036128031  0.035409177           10 
 1732000   0.56972865   -4.8763073    752.77261  0.036218852  0.035387582           13 
 1733000   0.57225211   -4.8793513    753.78771  0.036246764  0.035366072           37 
 1734000   0.55867551   -4.8838376    751.54903  0.036118273  0.035344495            6 
 1735000    0.5552164   -4.8716651    752.55591  0.036145817  0.035322999            9 
 1736000   0.56179879   -4.8660675    755.49913  0.036266279  0.035301576           16 
 1737000   0.57809791   -4.8485232    754.06802  0.036176742  0.035280272           14 
 1738000   0.55677448   -4.8934432     754.9544  0.036198428  0.035258968           13 
 1739000   0.56115964   -4.8942873    752.85737  0.036077121  0.035237596            8 
 1740000   0.56493239   -4.8876807     753.4915  0.036086758  0.035216176            8 
 1741000   0.54469454   -4.8789912    754.03154  0.036091879  0.035194802            7 
 1742000   0.55922267   -4.8773631    752.88872   0.03601649   0.03517348           24 
 1743000   0.57001819   -4.8763199    755.37205  0.036114556  0.035152136           17 
 1744000   0.55460382   -4.8908299    753.10725  0.035985629  0.035130899           14 
 1745000   0.55571496   -4.8952049    755.47945  0.036078293  0.035109623            8 
 1746000   0.55250656   -4.8803142    756.19632  0.036091844  0.035088459            9 
 1747000   0.55784843   -4.8948551    754.52444  0.035991435  0.035067208           23 
 1748000   0.54306005   -4.9167858    752.70746  0.035884223  0.035045889           11 
 1749000   0.54747907   -4.8990137    753.75633  0.035913681  0.035024511           17 
 1750000   0.55649408   -4.9116029    752.84411   0.03584972  0.035003125           24 
 1751000   0.56343028    -4.915045    752.26477  0.035801674  0.034981762           16 
 1752000   0.56886551   -4.9098929    753.81879  0.035855156  0.034960338           15 
 1753000   0.55763906   -4.8932192    755.40109  0.035909921  0.034939085            5 
 1754000    0.5474401   -4.8912715    754.08917  0.035827118  0.034917873           18 
 1755000   0.54962349   -4.9088098    752.20909   0.03571743  0.034896526           12 
 1756000   0.54994761    -4.910748    752.11358  0.035692558  0.034875224            9 
 1757000   0.53824827    -4.900082    753.76883  0.035750751  0.034853937           26 
 1758000   0.55531891   -4.9054082    751.72297  0.035633436   0.03483263           21 
 1759000   0.56301264   -4.8955953    754.75635  0.035756886    0.0348113           14 
 1760000   0.53615715   -4.9084729    753.21036  0.035663369  0.034790085           16 
 1761000   0.55031897    -4.904844    757.09247  0.035826825   0.03476884           18 
 1762000   0.53906175   -4.9228457    753.14301  0.035619703  0.034747519           17 
 1763000   0.54755956   -4.9227011    753.35789  0.035609657  0.034726141           22 
 1764000   0.54774019   -4.9198257    753.70534  0.035605884  0.034704784           18 
 1765000   0.55141129   -4.9315579    752.52826  0.035530135   0.03468345           35 
 1766000   0.55255458   -4.9308364    753.78635  0.035569382  0.034662288            6 
 1767000    0.5438013   -4.9257035    755.36518  0.035623711  0.034641125           37 
 1768000   0.55722023   -4.9251413    753.63995  0.035522245  0.034620034           18 
 1769000   0.54336153   -4.8946523    755.11629  0.035571712  0.034598973           15 
 1770000    0.5463714   -4.9192153    753.86014  0.035492473  0.034578016           12 
 1771000    0.5492964   -4.9370008    754.15081   0.03548611  0.034556876           20 
 1772000   0.55315568   -4.9140582    755.06252   0.03550896  0.034535743            8 
 1773000   0.52724928   -4.9331402     754.0342    0.0354406  0.034514646           20 
 1774000   0.54882772   -4.9304186    755.24341  0.035477425  0.034493554           12 
 1775000   0.54267394   -4.9367395    753.82162  0.035390686  0.034472485            9 
 1776000    0.5495786   -4.9326854    754.52468  0.035403748  0.034451398            9 
 1777000   0.54637546   -4.9251487    756.07781   0.03545666  0.034430413            8 
 1778000   0.55019767   -4.9266804    752.71162  0.035278947  0.034409391           17 
 1779000    0.5405572   -4.9332999    753.66626  0.035303834  0.034388265           32 
 1780000   0.54151147   -4.9209219    753.19433  0.035261907  0.034367108           17 
 1781000   0.53612961   -4.9275971    754.20361  0.035289332  0.034346014           24 
 1782000   0.54314191   -4.9293847    755.53825  0.035331942  0.034324996           13 
 1783000   0.53671012    -4.920504    754.35945  0.035257032  0.034303976           12 
 1784000   0.54240166   -4.9282902    753.63903  0.035203617  0.034282968           31 
 1785000   0.54257961    -4.956611    754.68989  0.035232955  0.034261928           28 
 1786000   0.53644656   -4.9297168    755.88541  0.035269009  0.034240936           18 
 1787000   0.54445282   -4.9168312    753.98321  0.035160568  0.034220004           17 
 1788000   0.53933678   -4.9345214    754.86588  0.035182041  0.034198944           15 
 1789000   0.54470038   -4.9362793    755.61815  0.035197417  0.034177922           17 
 1790000   0.55405879   -4.9223001    753.24139  0.035067104  0.034156968           12 
 1791000   0.52611074   -4.9162898     754.5769  0.035109664  0.034136028           15 
 1792000   0.53209021   -4.9282772    753.97929  0.035062281   0.03411515           29 
 1793000   0.53913419    -4.945124    754.66362  0.035074532  0.034094234           11 
 1794000   0.53034854   -4.9337689    754.97862  0.035069612  0.034073366           16 
 1795000   0.53971078   -4.9344628    755.06703   0.03505418  0.034052508           23 
 1796000   0.53917688   -4.9144916    754.77534  0.035021127  0.034031667           10 
 1797000   0.52579723   -4.9461459    754.84425  0.035004834   0.03401086            8 
 1798000   0.53098102   -4.9491018    755.40024  0.035011134  0.033989994            9 
 1799000   0.53320065   -4.9400706    753.68103  0.034912036  0.033969116            9 
 1800000    0.5271362   -4.9267519    753.29466  0.034874753  0.033948305           18 
 1801000   0.52532231   -4.9435274    753.99069  0.034887595  0.033927491           17 
 1802000   0.53439374    -4.932062    755.83374  0.034953465  0.033906637           11 
 1803000   0.52357274   -4.9432386    754.44008  0.034869665  0.033885909           11 
 1804000   0.53300114   -4.9557573    755.81993  0.034914076  0.033865085           22 
 1805000   0.52052652   -4.9282912    753.11657  0.034769925  0.033844234            5 
 1806000   0.52354205    -4.957754    754.99319  0.034837264  0.033823387            7 
 1807000   0.52255493   -4.9632996    754.42222  0.034791654  0.033802529           31 
 1808000   0.54200793   -4.9260127    754.50283  0.034776126  0.033781659           40 
 1809000   0.53041492   -4.9596564     754.3254  0.034748728  0.033760835           21 
 1810000   0.52875129   -4.9436387    753.53487  0.034693134  0.033740007           13 
 1811000   0.52653632   -4.9500012    753.56213  0.034675231  0.033719105           18 
 1812000   0.52554901    -4.955986    754.21353  0.034686053  0.033698129           25 
 1813000   0.51811423   -4.9608926    755.50194  0.034726142  0.033677192            9 
 1814000   0.53503535   -4.9293454    755.02708  0.034685184  0.033656379            8 
 1815000   0.51864436   -4.9701354    753.37495  0.034590218  0.033635569           24 
 1816000   0.52346561   -4.9532265    752.16112   0.03451547  0.033614746           23 
 1817000   0.52617865   -4.9527134    754.86147  0.034620321  0.033593871           13 
 1818000   0.52766545   -4.9680957    755.48629  0.034629918  0.033572952           33 
 1819000   0.52416036    -4.947933    754.62689  0.034571508  0.033552104           16 
 1820000   0.53161153   -4.9143416    753.33458  0.034493342  0.033531339           14 
 1821000   0.52251936   -4.9568157    753.98391  0.034504115  0.033510561           18 
 1822000   0.52818939   -4.9538154    755.52338  0.034555588  0.033489737           10 
 1823000   0.51697192   -4.9537234    753.72433  0.034454394  0.033468933           17 
 1824000   0.52452756   -4.9756204    753.06624  0.034405439  0.033448094           10 
 1825000   0.51567926   -4.9554527    752.35886  0.034354286  0.033427187           25 
 1826000   0.52466344   -4.9618382    754.43498   0.03443022  0.033406347           10 
 1827000    0.5170091   -4.9451814    753.89013  0.034386523  0.033385541           11 
 1828000   0.52205627   -4.9807404    752.11942   0.03428699   0.03336473            8 
 1829000    0.5206591   -4.9526433    750.93712  0.034214376   0.03334389           13 
 1830000   0.52890486   -4.9757031    753.80009  0.034326052  0.033323017           14 
 1831000   0.51227301   -4.9653847    751.71089  0.034212219  0.033302136           31 
 1832000   0.52356641   -4.9685032    752.04323  0.034208662  0.033281149           15 
 1833000   0.53501519   -4.9683198    751.25758  0.034154282  0.033260191           13 
 1834000   0.52784201   -4.9628876     753.4879     0.034237  0.033239279           16 
 1835000   0.51353359   -4.9799987    753.68582   0.03422733  0.033218381           16 
 1836000   0.52471633   -4.9869385    753.07502  0.034180965  0.033197492           11 
 1837000   0.52373974   -4.9752459     753.9291  0.034201102  0.033176652           30 
 1838000   0.52337103   -4.9782057    752.04463  0.034097054  0.033155762           22 
 1839000   0.52272411   -4.9802981    749.90026  0.033981342   0.03313485           21 
 1840000   0.51316409   -4.9887615    752.38426  0.034075374  0.033113958           32 
 1841000   0.51354884   -4.9608711    753.55439  0.034109831  0.033093115           26 
 1842000    0.5200088   -4.9786638    753.05448  0.034068697  0.033072312           25 
 1843000   0.51571184   -4.9701004    750.77027  0.033946928   0.03305139           20 
 1844000   0.52764139   -4.9922009     752.5516   0.03400902  0.033030498            9 
 1845000   0.50919258   -4.9665592    752.42311  0.033984783  0.033009636           14 
 1846000   0.51197858   -4.9764192     752.6565  0.033976909  0.032988742           10 
 1847000   0.51550483   -4.9781302    751.87318  0.033923172  0.032967917           15 
 1848000   0.51075721   -4.9917247    751.06165   0.03386822  0.032947057           30 
 1849000   0.51501648   -4.9783352    753.23522  0.033947865  0.032926182           13 
 1850000   0.50725301   -4.9911942    751.53826  0.033853075  0.032905321           28 
 1851000   0.50891374   -5.0072254    751.03276  0.033812028  0.032884481           13 
 1852000   0.50337601   -5.0087618    752.28472  0.033850104  0.032863592           27 
 1853000   0.51736549   -5.0085654    750.69374  0.033760287  0.032842676           15 
 1854000   0.51084569   -5.0083272    751.58133  0.033781973  0.032821761           23 
 1855000   0.50963613   -4.9838191    751.03394  0.033739171  0.032800889           33 
 1856000   0.51021072   -4.9960045    753.35928  0.033825399  0.032780096           26 
 1857000   0.51597208   -4.9788508    751.78133  0.033736373  0.032759302           33 
 1858000   0.50919321   -4.9817517    752.10172  0.033732585  0.032738458           16 
 1859000   0.51690188   -4.9904682    750.90999  0.033661018  0.032717596           28 
 1860000   0.51116939   -4.9588787    751.54641  0.033671434  0.032696772           18 
 1861000   0.51793507   -5.0111607    751.82885  0.033665988  0.032676016           42 
 1862000   0.51445043   -4.9813497    752.99481   0.03370009  0.032655252           28 
 1863000   0.51118911   -5.0043318    752.11945  0.033642845  0.032634499           48 
 1864000   0.49406954   -5.0141289    751.83427  0.033612047   0.03261371           37 
 1865000   0.51949565   -5.0328228    751.23899  0.033567426  0.032592891           81 
 1866000   0.50229928   -4.9880492    751.85489  0.033576942  0.032572072           47 
 1867000   0.49085383   -5.0055788    749.74003  0.033464561  0.032551308           68 
 1868000   0.50648557   -5.0019856     750.7036  0.033489632  0.032530522           68 
 1869000   0.49189121   -5.0132723    751.61519  0.033512359  0.032509712           21 
 1870000   0.51116259   -4.9900449    751.90101  0.033507175  0.032488961           21 
 1871000   0.51441477   -5.0034061    749.54675  0.033384409   0.03246827           20 
 1872000   0.51070119   -5.0080809    753.02907  0.033521593  0.032447597           39 
 1873000   0.49542232    -4.997914    751.97063  0.033456604  0.032426947           26 
 1874000   0.50201867   -5.0127266    751.77776  0.033430174  0.032406325           10 
 1875000   0.50234218   -5.0111763    751.05447  0.033380199  0.032385657           13 
 1876000    0.5100389   -5.0203407    750.36896  0.033331955  0.032365033           29 
 1877000   0.50616898   -5.0032846     751.9466  0.033384239  0.032344387           10 
 1878000   0.51505286   -4.9960484    751.86034  0.033362635  0.032323741            8 
 1879000   0.49582275    -4.989598    752.94805  0.033393119  0.032303103           12 
 1880000   0.50619533   -5.0115234    750.58511  0.033270617   0.03228242           54 
 1881000   0.51393814   -5.0157379    751.90551  0.033311426  0.032261761           24 
 1882000   0.50375941   -5.0081736     752.6718  0.033327657  0.032241102           65 
 1883000   0.48873923   -5.0011433    751.43842  0.033255373    0.0322205           24 
 1884000   0.51297878   -5.0010183    752.71522  0.033294198  0.032199924           43 
 1885000   0.50118988   -5.0108353    750.37763  0.033173193  0.032179434           22 
 1886000   0.50626327   -5.0226505    751.94964  0.033225064  0.032158897           22 
 1887000   0.49704187   -5.0286925    752.38446  0.033226659  0.032138373           23 
 1888000   0.49492333   -5.0138738    751.60385  0.033174605  0.032117844           18 
 1889000   0.49956663   -5.0176127    751.56479   0.03315532  0.032097368           24 
 1890000   0.48695816   -5.0196668    752.48713  0.033178445  0.032076837           27 
 1891000   0.51045113   -5.0219988    752.50781  0.033161811  0.032056336           18 
 1892000   0.49381792   -5.0156714    752.60168  0.033148418  0.032035981           17 
 1893000   0.49618862   -5.0070246    753.64534  0.033176851  0.032015673            8 
 1894000   0.49373516   -5.0290617    752.59218  0.033112996  0.031995386           19 
 1895000   0.49130966   -5.0295373    751.48009  0.033046618  0.031975083           11 
 1896000   0.49945775   -5.0144294    750.63722  0.032992142  0.031954801           37 
 1897000   0.49765105     -5.01416    754.13095  0.033128227   0.03193453           20 
 1898000   0.49096595   -5.0233404     753.9989  0.033104975  0.031914268           18 
 1899000   0.49167308   -5.0217988    753.69797  0.033074336   0.03189406           20 
 1900000   0.49276918   -5.0075247    753.90424  0.033065975   0.03187395           14 
 1901000   0.50066817   -5.0104435    752.19929  0.032973842  0.031853797           10 
 1902000   0.48810181   -5.0322407    754.58361  0.033060971  0.031833673           30 
 1903000   0.49478687   -5.0035407    752.57888   0.03295581  0.031813519           24 
 1904000   0.49700485   -5.0284848    754.17332  0.033008286  0.031793417           12 
 1905000   0.49001558    -5.037517    753.75418  0.032972624  0.031773267           36 
 1906000   0.48888416   -5.0328221    752.19224  0.032887034  0.031753124           31 
 1907000   0.49493732   -5.0441117    753.04246  0.032906942  0.031733001           11 
 1908000   0.49573084   -5.0378011    752.41407   0.03286225  0.031712803           18 
 1909000   0.49845348   -5.0448936     752.4704  0.032847494  0.031692617           47 
 1910000   0.49392677    -5.035343    751.93186    0.0328068  0.031672314           30 
 1911000   0.47491345   -5.0750418    750.97629  0.032747963  0.031652015           34 
 1912000   0.48508559   -5.0546937     750.5869  0.032713864  0.031631741           47 
 1913000   0.49825584   -5.0414598    752.78195  0.032792383  0.031611511           31 
 1914000    0.4886555   -5.0455984    751.65035  0.032725982  0.031591251           40 
 1915000   0.48899374   -5.0381586     752.6889  0.032754086  0.031571066           24 
 1916000   0.48938092   -5.0437995    752.89494  0.032745953   0.03155091           17 
 1917000   0.48281256   -5.0382475    751.58442  0.032671901  0.031530802           19 
 1918000   0.49836266   -5.0552068    751.65521  0.032657943  0.031510662           37 
 1919000   0.49372447   -5.0375939    753.43237  0.032718099  0.031490545           18 
 1920000   0.48576064   -5.0416635    752.39264   0.03265593  0.031470422           34 
 1921000   0.48935183   -5.0608249    751.54953  0.032602357   0.03145029           27 
 1922000   0.48226285   -5.0477431    752.29671   0.03261779  0.031430155           22 
 1923000   0.49357584   -5.0588413    751.77885  0.032578387  0.031410055           29 
 1924000    0.4843067   -5.0463852    751.90678  0.032566995  0.031389985           23 
 1925000    0.4934383   -5.0615182    751.97566  0.032553059  0.031369873           15 
 1926000   0.49397107   -5.0673068    753.03319  0.032581914  0.031349808           30 
 1927000   0.48793345   -5.0581735    750.67859  0.032463181  0.031329837           37 
 1928000   0.47766915   -5.0590687    751.67134  0.032489252  0.031309767           36 
 1929000   0.48949377   -5.0595469    750.70773  0.032430781  0.031289706           40 
 1930000   0.48330575   -5.0705443    751.45137  0.032446087  0.031269626           51 
 1931000   0.47068229   -5.0529002    751.96156  0.032451301  0.031249572           76 
 1932000    0.4794407   -5.0751718    750.65715  0.032378242  0.031229502           39 
 1933000    0.4786851   -5.0577818    751.55627  0.032400253  0.031209434           90 
 1934000   0.48173133   -5.0628452    751.94214  0.032400127  0.031189367           45 
 1935000   0.47252488   -5.0822059    751.91474  0.032382202  0.031169347           30 
 1936000   0.48226765   -5.0579415    750.51824  0.032305365  0.031149356           23 
 1937000   0.46589789   -5.0788846    751.24815  0.032320089  0.031129396           26 
 1938000   0.48208602   -5.0713177    751.40387  0.032310108  0.031109425           43 
 1939000    0.4718054   -5.0741056    751.88614  0.032314171  0.031089427           23 
 1940000   0.48133376   -5.0651751    751.30132  0.032272393  0.031069489           44 
 1941000   0.48981786   -5.0569586    752.93071  0.032325722  0.031049561           44 
 1942000   0.48270617   -5.0674319    752.95611  0.032310166  0.031029666           66 
 1943000   0.47412488   -5.0653317     752.5276  0.032275159  0.031009817           43 
 1944000   0.48035792   -5.0706433    751.31019  0.032206369  0.030989987           29 
 1945000   0.47209645   -5.0650193    752.46135  0.032239132  0.030970134           20 
 1946000   0.48506689    -5.060373    752.22773  0.032212561  0.030950277           61 
 1947000   0.47572586   -5.0543626    751.19157  0.032151668  0.030930387           56 
 1948000   0.46411009    -5.062471    752.23107  0.032179632  0.030910513           19 
 1949000   0.46410221   -5.0864545    750.14599  0.032073969   0.03089059           52 
 1950000   0.47333387   -5.0704046    750.68009  0.032080346  0.030870656           25 
 1951000   0.47284171    -5.085308    752.34512  0.032135021  0.030850739           27 
 1952000   0.47321116   -5.0739088    750.44216  0.032037319  0.030830811           74 
 1953000   0.47353266   -5.0836782    749.82287   0.03199449  0.030810903           93 
 1954000   0.46457274   -5.0809215    750.58883  0.032010783  0.030790995           60 
 1955000   0.48203907   -5.0797784    751.77178  0.032044833  0.030771075           31 
 1956000   0.47380149   -5.1002368    750.87803  0.031990373  0.030751176           84 
 1957000   0.46612844   -5.0736739    751.62557  0.032005858  0.030731321          114 
 1958000   0.47688755   -5.0735663    750.44216  0.031939145  0.030711454          117 
 1959000   0.46665263   -5.0928198    749.29135  0.031873887  0.030691541          103 
 1960000   0.46674226    -5.074949    749.54446  0.031868387  0.030671594          156 
 1961000   0.47429318   -5.0841555    749.66724  0.031857353  0.030651683          107 
 1962000   0.46957509   -5.0819934    750.29442  0.031867755  0.030631771           76 
 1963000   0.46706148   -5.0840974    750.36738  0.031854618  0.030611885          235 
 1964000   0.46152393   -5.0880871    751.65362  0.031892974  0.030592029           71 
 1965000   0.47459834    -5.092157     750.2649   0.03181785  0.030572148          148 
 1966000     0.468206    -5.083043    749.20305  0.031756657  0.030552256           66 
 1967000     0.477512   -5.0860625    749.32585  0.031745715  0.030532439          101 
 1968000    0.4679542   -5.1044661    751.44571  0.031819348  0.030512563          154 
 1969000   0.45708911   -5.1044444    748.80806  0.031691555  0.030492667           80 
 1970000    0.4656005   -5.1049969    749.86471  0.031720166   0.03047279           32 
 1971000   0.47124761    -5.082777    750.84975  0.031745719  0.030452992           52 
 1972000   0.46757233   -5.0952872    750.32595  0.031707486  0.030433235          114 
 1973000   0.46516407   -5.0881135    749.69532  0.031664779  0.030413485           53 
 1974000   0.47175223   -5.1010197    750.39337  0.031678207  0.030393773           57 
 1975000    0.4660864   -5.1009602    750.92695  0.031684681  0.030374039           69 
 1976000   0.46542089   -5.0895986    749.99234  0.031629232   0.03035432           71 
 1977000   0.45612861   -5.1031501    749.46779  0.031591122  0.030334629           83 
 1978000   0.46385983   -5.0887554    748.00365  0.031513467   0.03031488           96 
 1979000   0.46911365   -5.0906799     751.2426  0.031633931  0.030295235           57 
 1980000    0.4732868   -5.0998727    750.51951  0.031587521  0.030275569           43 
 1981000   0.44236534   -5.0958815    749.01878  0.031508446  0.030255879           84 
 1982000   0.46395387   -5.1030363    749.36582   0.03150714   0.03023622           76 
 1983000   0.46205008   -5.1047874    749.35889   0.03149096   0.03021651          132 
 1984000   0.45737915   -5.1105967    748.54171  0.031440764  0.030196809          170 
 1985000   0.46073266   -5.1093567    750.12367  0.031491338  0.030177126          153 
 1986000   0.46518172    -5.123427    749.82773  0.031463064  0.030157434          153 
 1987000   0.46173966   -5.1198507    751.07543  0.031499557  0.030137828          118 
 1988000   0.45178641   -5.1072317    748.45094  0.031373698  0.030118196          180 
 1989000   0.45883581    -5.111504    750.04452  0.031424691  0.030098588          172 
 1990000   0.46589342   -5.1385845    749.33066  0.031379006   0.03007895          183 
 1991000   0.45915907   -5.1218449    749.16958  0.031356503   0.03005931          235 
 1992000   0.47316338   -5.1075554    748.90921   0.03132987  0.030039697          233 
 1993000   0.45655843   -5.1316207    748.10703  0.031280609  0.030020056          223 
 1994000   0.45272666    -5.124053    749.01681  0.031302942  0.030000439          196 
 1995000   0.46104116   -5.1150049    747.50748  0.031224206  0.029980877          221 
 1996000   0.45664297   -5.1228279    749.74254  0.031301876  0.029961316          332 
 1997000   0.45790237    -5.127906    748.86177  0.031249448  0.029941791          189 
 1998000   0.45946616   -5.1157707    751.22494  0.031332371  0.029922282           97 
 1999000   0.45462171   -5.1106235    749.48611   0.03124421  0.029902811          343 
 2000000   0.45391281   -5.1109135     748.5725  0.031190521   0.02988335          116 
 2001000   0.44910993    -5.126721    749.47488  0.031212514  0.029863905          205 
 2002000   0.44941858    -5.119995    750.20929  0.031227493  0.029844466          434 
 2003000   0.45605492   -5.1305982    749.24146  0.031171637  0.029825027          268 
 2004000   0.44592356    -5.105614    750.37997  0.031203425  0.029805596          299 
 2005000   0.44858124   -5.1367494    748.83039  0.031123458   0.02978618          264 
 2006000   0.45469267   -5.1140715    748.77323  0.031105568  0.029766788          248 
 2007000   0.44391384   -5.1396081    748.86256  0.031093779  0.029747366          451 
 2008000   0.45783186   -5.1189124     746.9823  0.031000261  0.029727963          188 
 2009000   0.44859071   -5.1034202    749.45227  0.031087285  0.029708555          239 
 2010000   0.45051038   -5.1357046    748.86735  0.031047568  0.029689196          192 
 2011000    0.4563485   -5.1327518    749.10951  0.031042164  0.029669789          390 
 2012000   0.45033641   -5.1417879    748.26063  0.030991577  0.029650373          562 
Loop time of 5139.66 on 48 procs for 2000000 steps with 4000 atoms

Performance: 67241.807 tau/day, 389.131 timesteps/s
99.4% CPU use with 48 MPI tasks x no OpenMP threads

MPI task timing breakdown:
Section |  min time  |  avg time  |  max time  |%varavg| %total
---------------------------------------------------------------
Pair    | 348.28     | 371.63     | 396.98     |  67.0 |  7.23
Neigh   | 33.65      | 35.568     | 37.323     |  19.5 |  0.69
Comm    | 308.38     | 341.31     | 368.22     |  76.4 |  6.64
Output  | 4.3868     | 4.389      | 4.4196     |   0.2 |  0.09
Modify  | 4323.4     | 4339.7     | 4358.9     |  14.4 | 84.43
Other   |            | 47.11      |            |       |  0.92

Nlocal:        83.3333 ave          90 max          77 min
Histogram: 2 2 5 10 9 4 8 4 2 2
Nghost:        2298.54 ave        2312 max        2268 min
Histogram: 1 0 3 0 6 5 6 9 8 10
Neighs:        15530.9 ave       17167 max       13952 min
Histogram: 2 4 6 4 12 3 6 5 5 1
FullNghs:      31060.7 ave       33449 max       28679 min
Histogram: 2 3 6 7 9 4 4 8 3 2

Total # of neighbors = 1490913
Ave neighs/atom = 372.72825
Neighbor list builds = 107920
Dangerous builds = 0

#clear
#
#next RN
#
#jump SELF
Total wall time: 1:25:43
