
units lj                  # Use reduced LJ style units
atom_style atomic         # Uncharged point particles
atom_modify map hash      # Needed for indexing of clusters etc
                          # Used to be able to find where atoms are in relation to each other.

lattice fcc 1.0 spacing 1 1 1
Lattice spacing in x,y,z = 1.5874011 1.5874011 1.5874011
region box block 0 10 0 10 0 10 units lattice
create_box 2 box
Created orthogonal box = (0.0000000 0.0000000 0.0000000) to (15.874011 15.874011 15.874011)
  3 by 4 by 4 MPI processor grid
create_atoms 1 box
Created 4000 atoms
  using lattice units in orthogonal box = (0.0000000 0.0000000 0.0000000) to (15.874011 15.874011 15.874011)
  create_atoms CPU = 0.016 seconds
set type 1 type/fraction 2 0.22 78393
Setting atom values ...
  910 settings made for type/fraction
mass 1 1.0
mass 2 1.0
pair_style lj/cut  3.5
pair_modify tail  yes
pair_coeff 1  1  1.0  1.0   # Intearaction between 1 and 1 set with epsilon = 1 and sigma = 1
pair_coeff 1  2  1.5  0.8
pair_coeff 2  2  0.5  0.88

write_data data.0
System init for write_data ...
Neighbor list info ...
  update every 1 steps, delay 10 steps, check yes
  max neighbors/atom: 2000, page size: 100000
  master list distance cutoff = 3.8
  ghost atom cutoff = 3.8
  binsize = 1.9, bins = 9 9 9
  1 neighbor lists, perpetual/occasional/extra = 1 0 0
  (1) pair lj/cut, perpetual
      attributes: half, newton on
      pair build: half/bin/atomonly/newton
      stencil: half/bin/3d
      bin: standard
WARNING: Not all mixed pair coeffs generated from mixing. Use write_data with 'pair ij' option to store all pair coeffs. (../write_data.cpp:312)


#############################
#   M E L T   S Y S T E M   #
#############################

velocity all create 2.4 3143649 mom yes dist gaussian # Assign velocities
                                                    # Temperature 2.4, random number seed, zero linear momentum
                                                                                # Gaussian distribution

timestep 0.002   # simulation timestep
thermo 1000       # output thermodynamic data every 1000 steps bf 100

# Define a fix  in this case with index 1 applied to all
# particles in the simulation. This fix is for simulations
# in the anisotropic NPT ensemble. Note that we use the MTK
# correction.
fix 1 all npt temp 2.4 2.4 0.1 iso 5.68 5.68 0.5 mtk yes tchain 5 pchain 5 # Use NPT ensemble
                                                                         # Set temperature and pressure and damping
                                                                         # Numbers of thermostats in chain and in barostat
run 10000          # run for 10000 steps
Per MPI rank memory allocation (min/avg/max) = 3.642 | 3.644 | 3.648 Mbytes
Step Temp E_pair E_mol TotEng Press Volume 
       0          2.4   -6.9213593            0   -3.3222593   -3.6990896         4000 
    1000    2.4054225   -4.8550253            0   -1.2477935     5.731959    4405.9882 
    2000     2.349713   -4.8344721            0   -1.3107837    5.7328562    4417.5846 
    3000    2.4137851   -4.8410081            0   -1.2212356    5.6601352    4426.6973 
    4000    2.4697136   -4.8629336            0   -1.1592893    5.8201534    4393.3554 
    5000    2.3997341   -4.8657236            0   -1.2670223    5.8705598    4393.2838 
    6000    2.3949768   -4.9086934            0   -1.3171263    5.5620543    4394.7979 
    7000    2.4020246   -4.8454831            0   -1.2433469    5.6782942    4416.4446 
    8000    2.3839226   -4.8594429            0    -1.284453    5.6095247    4421.2798 
    9000    2.3773694   -4.9096076            0   -1.3444451    5.5254829     4402.429 
   10000    2.4223744   -4.8646762            0    -1.232023    6.3426171    4344.6221 
Loop time of 2.31189 on 48 procs for 10000 steps with 4000 atoms

Performance: 747439.148 tau/day, 4325.458 timesteps/s
99.6% CPU use with 48 MPI tasks x no OpenMP threads

MPI task timing breakdown:
Section |  min time  |  avg time  |  max time  |%varavg| %total
---------------------------------------------------------------
Pair    | 0.99386    | 1.0556     | 1.1648     |   3.2 | 45.66
Neigh   | 0.19718    | 0.20697    | 0.2243     |   1.2 |  8.95
Comm    | 0.67427    | 0.79959    | 0.88334    |   4.5 | 34.59
Output  | 0.00025451 | 0.0002603  | 0.00032777 |   0.0 |  0.01
Modify  | 0.20649    | 0.23463    | 0.26265    |   2.8 | 10.15
Other   |            | 0.01482    |            |       |  0.64

Nlocal:        83.3333 ave          94 max          73 min
Histogram: 2 2 1 11 9 10 6 3 2 2
Nghost:        1551.23 ave        1586 max        1525 min
Histogram: 3 6 8 5 7 9 6 1 1 2
Neighs:        8788.17 ave       10041 max        7522 min
Histogram: 3 1 2 6 13 10 5 2 4 2

Total # of neighbors = 421832
Ave neighs/atom = 105.45800
Neighbor list builds = 907
Dangerous builds = 210

# Equilibrate just above the melting temperature to avoid step fn in T

fix 1 all npt temp 1.25 1.25 0.1 iso 5.68 5.68 0.5 mtk yes tchain 5 pchain 5
run 2000
Per MPI rank memory allocation (min/avg/max) = 3.643 | 3.645 | 3.649 Mbytes
Step Temp E_pair E_mol TotEng Press Volume 
   10000    2.4223744   -4.8646762            0    -1.232023    6.3426171    4344.6221 
   11000    1.2532157   -6.6351013            0   -4.7557477    5.6139132    3582.7229 
   12000    1.2536075   -6.6123739            0   -4.7324328    5.7014383    3587.6438 
Loop time of 0.521756 on 48 procs for 2000 steps with 4000 atoms

Performance: 662378.942 tau/day, 3833.211 timesteps/s
99.6% CPU use with 48 MPI tasks x no OpenMP threads

MPI task timing breakdown:
Section |  min time  |  avg time  |  max time  |%varavg| %total
---------------------------------------------------------------
Pair    | 0.22591    | 0.2537     | 0.28466    |   2.1 | 48.62
Neigh   | 0.032241   | 0.035214   | 0.038892   |   0.6 |  6.75
Comm    | 0.14348    | 0.17767    | 0.21506    |   3.1 | 34.05
Output  | 5.1762e-05 | 5.3362e-05 | 6.9391e-05 |   0.0 |  0.01
Modify  | 0.043673   | 0.050387   | 0.058918   |   1.8 |  9.66
Other   |            | 0.004728   |            |       |  0.91

Nlocal:        83.3333 ave          91 max          75 min
Histogram: 2 5 0 9 3 7 11 4 5 2
Nghost:        1766.65 ave        1801 max        1739 min
Histogram: 3 4 5 8 7 9 6 4 1 1
Neighs:        10641.6 ave       11743 max        9308 min
Histogram: 2 0 6 5 9 6 7 5 6 2

Total # of neighbors = 510796
Ave neighs/atom = 127.69900
Neighbor list builds = 142
Dangerous builds = 8

#############################
# L I N E A R  Q U E N C H  #
#############################

# Define solid atoms. This closely follows ten Wolde  Ruiz-Montero and Frenkel  Faraday Discuss  1996  104  93-110
# Compute components of the per-atom q6 vector
compute q6 all orientorder/atom degrees 1 6 components 6 nnn NULL cutoff 1.3 # compute the Q6 parameter.
                                                                             # Use all neighbours within 1.3 unit cell.

# get number of connections
compute coord_number all coord/atom orientorder q6 0.5

# An atom is solid if it has 8 or more connections (of a possible 14)
variable is_solid atom c_coord_number>=8
group solid dynamic all var is_solid    # Must be dynamic to update
dynamic group solid defined

# do clustering
compute cluster solid cluster/atom 1.3 # Create a cluster where all atoms within are solid and max 1.3 units from another member

# define chunks one chunk per cluster
compute clus_chunks solid chunk/atom c_cluster nchunk every compress yes  # Says which atoms are in which chunk

# count the size of each chunk
compute size_chunks solid property/chunk clus_chunks count


# Find the maximum entry in the vector of chunk sizes
variable max_n equal max(c_size_chunks)


# Thermo style which includes this variable
# thermo_style custom step temp pe vol v_max_n

thermo ${N}  # Print the thermo information every 100 steps
thermo 1000  

# Reset the npt fix at a lower temperature (below freezing)
fix 1  all npt temp  ${temp} ${temp}  0.1  iso  5.68  5.68  0.5  mtk yes tchain  5  pchain  5
fix 1  all npt temp  0.45 ${temp}  0.1  iso  5.68  5.68  0.5  mtk yes tchain  5  pchain  5
fix 1  all npt temp  0.45 0.45  0.1  iso  5.68  5.68  0.5  mtk yes tchain  5  pchain  5

dump dmp2 all dcd ${N} traj.dcd
dump dmp2 all dcd 1000 traj.dcd


compute msd all msd com yes
variable twopoint equal c_msd[4]/6/(step*dt+1.0e-6)
fix 9 all vector 10 c_msd[4]
variable fit equal slope(f_9)/6/(10*dt)
thermo_style custom step temp pe c_msd[4] v_twopoint v_fit v_max_n

fix 1 all npt temp 1.25 ${temp} 0.1 iso 5.68 5.68 0.5 mtk yes tchain 5 pchain 5
fix 1 all npt temp 1.25 0.45 0.1 iso 5.68 5.68 0.5 mtk yes tchain 5 pchain 5
run 2000000 # 5000000  # Run for this many steps
Neighbor list info ...
  update every 1 steps, delay 10 steps, check yes
  max neighbors/atom: 2000, page size: 100000
  master list distance cutoff = 3.8
  ghost atom cutoff = 3.8
  binsize = 1.9, bins = 9 9 9
  4 neighbor lists, perpetual/occasional/extra = 1 3 0
  (1) pair lj/cut, perpetual
      attributes: half, newton on
      pair build: half/bin/atomonly/newton
      stencil: half/bin/3d
      bin: standard
  (2) compute orientorder/atom, occasional
      attributes: full, newton on
      pair build: full/bin/atomonly
      stencil: full/bin/3d
      bin: standard
  (3) compute coord/atom, occasional
      attributes: full, newton on
      pair build: full/bin/atomonly
      stencil: full/bin/3d
      bin: standard
  (4) compute cluster/atom, occasional
      attributes: full, newton on
      pair build: full/bin/atomonly
      stencil: full/bin/3d
      bin: standard
Per MPI rank memory allocation (min/avg/max) = 9.778 | 9.784 | 9.792 Mbytes
Step Temp PotEng c_msd[4] v_twopoint v_fit v_max_n 
   12000    1.2536075   -6.6123739 7.0770684e-30 4.9146306e-32 8.3333333e+20            1 
   13000    1.2604333   -6.6463399    0.5325007 0.0034134659    0.0434166            1 
   14000    1.2312425    -6.609243    1.0283176 0.0061209379  0.042989385            3 
   15000    1.2397282   -6.6188286    1.4969386 0.0083163254  0.041549983            5 
   16000    1.2401127   -6.6350544     1.976438  0.010293948  0.040830339            1 
   17000    1.2322803    -6.609575    2.4452359   0.01198645  0.040352586            1 
   18000    1.2625822   -6.6415405    2.9616855  0.013711506  0.040183898            1 
   19000    1.2116114   -6.6522438    3.5110404  0.015399299  0.040683853            1 
   20000    1.2272821   -6.6496366    3.9792083  0.016580034  0.040948306            1 
   21000    1.2576377   -6.6111475    4.5156701  0.017919325  0.041103335            1 
   22000    1.2395835   -6.6588366     5.042755  0.019101344  0.041394618            1 
   23000    1.2263849   -6.6624713    5.6193443  0.020359943   0.04184116            1 
   24000    1.2380505   -6.6434289    6.0845529  0.021126919  0.042106956            4 
   25000    1.2425239   -6.6703714    6.6089213  0.022029737  0.042288675            1 
   26000    1.2581865   -6.6377483    7.1405977  0.022886531  0.042351192            1 
   27000    1.2635336   -6.6403584    7.6305577  0.023551104  0.042509092            1 
   28000    1.2316625   -6.6274445    8.0637703  0.023999316  0.042444505            1 
   29000    1.2058768   -6.6254618    8.5734992  0.024636492  0.042361985            3 
   30000    1.2418845   -6.6692224    9.0917982  0.025254995  0.042315553       -1e+20 
   31000    1.2701082   -6.6575478    9.6592293   0.02596567  0.042344675            2 
   32000     1.217756   -6.6614908    10.106134  0.026318057  0.042357131            3 
   33000    1.2527477   -6.6633024    10.550091  0.026641644  0.042297961            1 
   34000    1.2644986   -6.6331581     11.15735  0.027346445  0.042273393            2 
   35000    1.2397468   -6.6830442    11.472272  0.027314934  0.042209203            3 
   36000    1.2531355   -6.6057407    11.926211  0.027606969  0.042064381            1 
   37000    1.2572875   -6.6623592    12.478411  0.028104528  0.041928075            3 
   38000    1.2234319   -6.6259027     13.08426  0.028693552  0.041857557            2 
   39000    1.2477937   -6.5946626    13.733482  0.029345046   0.04190421            1 
   40000    1.2739245   -6.6643908    14.229341  0.029644461  0.041990903            2 
   41000    1.2607124   -6.6356601    14.628893  0.029733522  0.042042623            2 
   42000    1.2341952   -6.6298263    15.062904  0.029886713  0.042022234            2 
   43000    1.2615162   -6.6680276    15.506865  0.030052063  0.041979474            1 
   44000    1.2414071   -6.6336509    15.966637  0.030239843  0.041901189            2 
   45000    1.2269611   -6.6301999    16.458631  0.030478946  0.041817822            2 
   46000    1.2069706   -6.6332292    16.889941   0.03059772  0.041756146            2 
   47000    1.2187665   -6.6131231     17.51331  0.031051968  0.041725579            1 
   48000    1.2269417   -6.6415351    17.954048  0.031170221  0.041686075            2 
   49000    1.2356204   -6.6200615    18.404204  0.031299667  0.041632699            2 
   50000     1.210242   -6.6136821    18.918619  0.031531032  0.041596651            2 
   51000     1.226352   -6.6661918     19.28985  0.031519362  0.041529357            1 
   52000    1.2334007   -6.6602032    19.694534  0.031561753  0.041464529            2 
   53000    1.2198829    -6.658082    20.155337  0.031690781  0.041396842            1 
   54000     1.268781   -6.6493765    20.617977  0.031817866  0.041320962            2 
   55000    1.2627504   -6.7114068    21.172477   0.03207951  0.041253242            1 
   56000     1.220925   -6.6360993    21.818191  0.032467546  0.041218496            2 
   57000     1.214702   -6.6970546    22.280028   0.03257314  0.041203193            2 
   58000    1.2455846   -6.6785264    22.857138  0.032840716  0.041191841            2 
   59000    1.2195728    -6.648472    23.262797  0.032857058  0.041188407            1 
   60000    1.2248702    -6.663623     23.83262   0.03310086   0.04117387            3 
   61000    1.2205372   -6.6327199    24.187352  0.033042831  0.041144955            3 
   62000    1.2091859   -6.6848153    24.526064   0.03296514  0.041101884            1 
   63000    1.2431776    -6.662944    25.036499  0.033117061  0.041055052            1 
   64000    1.2151492   -6.6549532    25.492383  0.033193206  0.041016176            1 
   65000    1.2357606   -6.6952285    26.021362   0.03336072  0.040970241            3 
   66000    1.2413372   -6.6298452    26.563005  0.033539148  0.040934254            2 
   67000    1.2291618   -6.6369085    27.033496  0.033623751  0.040895463            1 
   68000    1.2356653   -6.6640989    27.314331  0.033473444  0.040855912            5 
   69000    1.2614368   -6.7054095    27.776089  0.033546001   0.04081439            2 
   70000    1.2348171   -6.6712863    28.256635  0.033638851  0.040760562            3 
   71000    1.2298922   -6.6195285     28.75673   0.03375203  0.040715505            2 
   72000    1.2336878   -6.6777159    29.203405  0.033800238   0.04066799            2 
   73000    1.2178815   -6.6879669    29.527722  0.033707445  0.040622651            1 
   74000    1.1912487   -6.6810654    30.030072  0.033817649  0.040572475            1 
   75000    1.2126136   -6.7312794    30.675752  0.034084168  0.040530023            1 
   76000    1.2101032   -6.6680579    31.268447  0.034285577  0.040505635            2 
   77000    1.2391337    -6.654222     31.76232  0.034374805  0.040489437            2 
   78000    1.2259966   -6.6800054    32.272813  0.034479501  0.040482649            3 
   79000     1.210994   -6.6877062    32.695851  0.034489295  0.040474511            1 
   80000    1.2428318   -6.7077728    33.122937  0.034503059  0.040458761            2 
   81000    1.2416727   -6.6513343    33.855308  0.034830564  0.040459928            2 
   82000    1.2206323    -6.706012    34.222054   0.03477851  0.040460506            1 
   83000    1.2284107   -6.6862922    34.488528  0.034627036  0.040448438            1 
   84000    1.2213823    -6.683594    34.958473  0.034681025  0.040418303            1 
   85000    1.2180823   -6.7076279    35.280274  0.034588503  0.040390856            2 
   86000    1.2050452   -6.6868033     35.79889  0.034688847  0.040362808            1 
   87000    1.2372415   -6.6990257    36.116853  0.034594687  0.040326072            1 
   88000    1.2031846   -6.6850288    36.786075  0.034835298  0.040286401            2 
   89000    1.2114642   -6.6781777    37.302643  0.034927569  0.040258129            2 
   90000    1.2186911   -6.6934409    37.799053  0.034999123  0.040240691            1 
   91000    1.2267153   -6.6528097    38.170501  0.034954671  0.040222933            2 
   92000    1.2036855   -6.6741592    38.562344   0.03492966  0.040198563            3 
   93000    1.2019608   -6.7050026    38.790287  0.034758322  0.040154881            2 
   94000    1.2144083   -6.7112916    39.194825  0.034747185  0.040109258            1 
   95000    1.2211283   -6.6548077    39.835605  0.034943513  0.040066739            3 
   96000    1.2390308   -6.7012016    40.022842   0.03474205  0.040014676            2 
   97000    1.2045932   -6.6800309    40.426255  0.034730459  0.039963642            2 
   98000    1.2286598   -6.6820317    41.301781  0.035120562   0.03992712            2 
   99000    1.2124472   -6.7060037    41.977232   0.03533437  0.039908998            1 
  100000     1.220519   -6.7094076    42.555238  0.035462698  0.039906538            2 
  101000    1.2141636   -6.6630899    43.333566  0.035753767  0.039915531            1 
  102000     1.223101   -6.7014718    43.716014  0.035715698  0.039923906            1 
  103000    1.1836869   -6.7047972    44.301739  0.035842831   0.03993272            1 
  104000    1.1971348   -6.7381627    44.771411  0.035874528  0.039946162            2 
  105000    1.2205533   -6.7200005    45.538433  0.036141614  0.039964524            2 
  106000    1.2319743   -6.7280454    45.785105  0.035994579  0.039984749            2 
  107000    1.2399733   -6.6611792    46.259592  0.036027719  0.039997849            1 
  108000    1.2247424   -6.7075365     46.66673   0.03600828  0.040007047            4 
  109000     1.216854    -6.719973    47.113376  0.036019401  0.040015164            2 
  110000    1.2157938   -6.7285703    47.405633  0.035913358   0.04001252            2 
  111000    1.1872977   -6.7201839    47.741184  0.035841729  0.040006463            4 
  112000    1.2309727   -6.7159486    48.166155  0.035837913   0.03999956            1 
  113000    1.1714327    -6.688503    48.849842  0.036024957  0.039992247            2 
  114000    1.2316064   -6.7106743    49.068972  0.035869131  0.039987751            2 
  115000    1.2270664   -6.6928232     49.92956  0.036180841  0.039983283            1 
  116000    1.2064254   -6.6823533    50.273464  0.036115994  0.039984959            2 
  117000    1.2145709   -6.6846142    50.656609  0.036080206  0.039977684            1 
  118000    1.2256946   -6.6887465    51.135334  0.036112524  0.039968354            3 
  119000    1.1834778   -6.7116778    51.516672  0.036076101  0.039967699            1 
  120000    1.2357988   -6.7172879     52.16709  0.036227146  0.039958508            1 
  121000    1.1961076    -6.755553    52.351953  0.036055064   0.03995051            3 
  122000    1.1771047   -6.7186963    52.799143  0.036064988  0.039937054            2 
  123000    1.1984701   -6.7194247    53.209505    0.0360498  0.039921518            2 
  124000     1.191547   -6.7004926    53.948105  0.036255447  0.039910104            2 
  125000    1.1719617    -6.713014    54.063385  0.036042257  0.039894866            2 
  126000     1.212521   -6.7165317    54.606077   0.03611513  0.039876594            4 
  127000    1.1824247   -6.7049147    54.852858  0.035992689  0.039855289            1 
  128000    1.1933974   -6.7373198    55.339148  0.036028091  0.039831471            2 
  129000    1.2131638   -6.7173849    55.709887  0.035988299  0.039803547            3 
  130000    1.1984114   -6.7095839    56.048098  0.035928268  0.039773011            1 
  131000     1.200888   -6.7538591    56.342618   0.03584136  0.039740007            2 
  132000    1.2045712   -6.7289183    56.825615  0.035874757  0.039704998            2 
  133000     1.189605   -6.6820991    57.161638  0.035815562   0.03966816            4 
  134000    1.2104096   -6.7377947    57.432912  0.035716985  0.039631319            1 
  135000    1.1978121   -6.7325158    57.925038  0.035756196    0.0395959            1 
  136000    1.2085813   -6.7097801    58.761292  0.036005694  0.039564824            3 
  137000    1.1677778   -6.7197162    59.143608  0.035975431  0.039542054            1 
  138000    1.1967236   -6.7243436    59.613409  0.035998435   0.03951675            1 
  139000    1.1859544   -6.7424445    60.202959  0.036092901  0.039494867            2 
  140000    1.2308358   -6.6943589    60.957578  0.036284272  0.039479517            2 
  141000      1.19823   -6.7512492    61.381856  0.036277693  0.039471546            2 
  142000    1.2010988   -6.7334095    61.743237  0.036234294  0.039461294            4 
  143000    1.1921719   -6.7033035    62.033631  0.036150135  0.039444048            4 
  144000    1.1887552    -6.711061    62.478895  0.036156768  0.039427347            2 
  145000    1.2112211   -6.7385227    63.364624   0.03641645  0.039414426            4 
  146000    1.1888837   -6.7320508    63.650787  0.036330358  0.039404806            1 
  147000    1.1912747   -6.6727887    64.462019  0.036543095  0.039398298            2 
  148000    1.1663656   -6.7410132     64.80433  0.036488925  0.039391199            2 
  149000    1.1812152   -6.7482118     65.14627  0.036435274  0.039382501            2 
  150000    1.2071218   -6.7063561    65.544331  0.036413517   0.03937339            1 
  151000    1.1695348   -6.7081463    66.099126  0.036478546  0.039363416            3 
  152000    1.1966581   -6.7397163    66.327191  0.036363591  0.039355043            3 
  153000    1.1626369   -6.7329411    66.864917    0.0364188  0.039344438            1 
  154000    1.1879531   -6.7488317    66.942176  0.036224121  0.039328451            1 
  155000    1.1758756    -6.740473    67.321045   0.03619411  0.039310392            2 
  156000    1.1861685   -6.7501632    67.814233  0.036225552  0.039292402            5 
  157000    1.1715285   -6.7471138    68.305048  0.036255333  0.039274523            3 
  158000    1.1774317   -6.7463799    69.002407  0.036393675  0.039258833            2 
  159000    1.1904931    -6.761068    68.967115  0.036146287  0.039241217            1 
  160000    1.1876264   -6.7682501    69.866338  0.036388718  0.039222692            1 
  161000    1.2118347   -6.7248369    70.292371  0.036383215  0.039208183            2 
  162000    1.1899281   -6.7406584    70.700641  0.036368643   0.03919093            1 
  163000    1.2231598   -6.7421789    70.889561  0.036242107  0.039172703            4 
  164000    1.1666931   -6.7813141    71.455551  0.036308715  0.039155881            2 
  165000    1.1950399   -6.7344142    71.832834  0.036279209  0.039135897            1 
  166000    1.1833275   -6.6982122    72.329268  0.036309873  0.039115351            2 
  167000    1.1878924   -6.7318585    72.830696  0.036342663  0.039097428            1 
  168000    1.1794085   -6.7399112     73.39815  0.036407812  0.039079447            1 
  169000    1.1981882    -6.741654    73.957345  0.036468119  0.039066343            2 
  170000    1.1956367   -6.6720005    74.684854  0.036610223  0.039058579            2 
  171000    1.1604465   -6.7392094    75.017037   0.03655801  0.039049421            1 
  172000    1.1813487   -6.7233413    75.484962  0.036572171  0.039039594            2 
  173000    1.1940993   -6.7530952    75.641448   0.03643615  0.039029182            1 
  174000    1.1779713   -6.7101574    76.415415  0.036597421  0.039019744            2 
  175000    1.2192246   -6.7689164    76.530668  0.036443175   0.03900946            1 
  176000    1.1846437   -6.7476637    77.260786  0.036581811  0.039000171            2 
  177000    1.1827603    -6.756924    77.450307  0.036464363  0.038989132            1 
  178000    1.1946855   -6.7032427    77.928681  0.036483465  0.038975214            2 
  179000    1.1883558    -6.791292    78.047685  0.036335049  0.038958461            2 
  180000    1.1925428   -6.7764483    78.578531  0.036378949  0.038939566            2 
  181000    1.1914188   -6.7967966    78.755487  0.036259432   0.03892052            1 
  182000    1.1716748   -6.7613973    79.099506  0.036217722  0.038901785            3 
  183000    1.1879657   -6.8294347    79.708078  0.036296939  0.038883715            1 
  184000    1.1795558   -6.7775429    80.595951  0.036501789  0.038870147            1 
  185000    1.2014432   -6.7505555     81.15815  0.036557725  0.038859776            2 
  186000    1.1810679   -6.7453665    82.030829  0.036752164  0.038853061            1 
  187000    1.1775653   -6.7450469     82.48482  0.036757941  0.038847915            2 
  188000    1.1937602   -6.7133812    82.761426  0.036685029  0.038842808            3 
  189000    1.1862111   -6.7496594    83.415832  0.036779467  0.038837951            1 
  190000    1.1916137   -6.7862935    83.311242  0.036540018  0.038830878            3 
  191000    1.1903325   -6.7812851    83.520565  0.036440037  0.038818382            1 
  192000    1.1962897   -6.8092164    83.736491  0.036343963  0.038804315            2 
  193000    1.2009016   -6.7566279    84.645045  0.036547947  0.038788143            2 
  194000    1.2039817   -6.7428534    85.160238  0.036580858  0.038772825            2 
  195000    1.1798076   -6.7894612    85.188457  0.036405324  0.038759192            1 
  196000    1.1622054   -6.7911578    85.871397  0.036509948  0.038745486            1 
  197000    1.1646491   -6.8006844    86.366078  0.036533874  0.038734543            1 
  198000    1.1794584   -6.7865851    87.187969  0.036695273  0.038724229            1 
  199000    1.1784517   -6.7573573    87.477782  0.036632237  0.038716329            2 
  200000    1.1936516   -6.7789468    87.478656   0.03644944  0.038708912            1 
  201000    1.1605337   -6.8398448    87.956476  0.036466201    0.0386979            1 
  202000    1.1798314   -6.8149212    88.524556  0.036520031  0.038686855            2 
  203000    1.2038212   -6.7716131    89.059604  0.036559771   0.03867627            1 
  204000    1.1858077   -6.8292692    88.807747  0.036277674  0.038665169            4 
  205000     1.181184    -6.802553     89.88734  0.036539569  0.038653128            1 
  206000    1.1730357   -6.7977449    90.320128  0.036537269  0.038641651            2 
  207000     1.170588   -6.7985803    90.779519    0.0365457  0.038630606            1 
  208000    1.1709218   -6.7764536    91.359706  0.036602446  0.038621505            1 
  209000    1.2044726   -6.7630144    91.727137  0.036573818  0.038613323            2 
  210000    1.1769801   -6.8021122    91.902848  0.036469384  0.038602546            2 
  211000     1.173528   -6.7633048    92.884718  0.036684328  0.038592356            2 
  212000     1.183265    -6.750803    93.273865  0.036664255  0.038584088            1 
  213000     1.170256   -6.8018831    93.922283  0.036745807  0.038575738            1 
  214000    1.1510187   -6.7938682    94.222513   0.03669101  0.038570041            2 
  215000    1.1844737   -6.7830804    94.997023  0.036820551  0.038566714            2 
  216000    1.1772032   -6.7490791    94.904359  0.036614336  0.038562356            2 
  217000    1.1835564   -6.8086496    95.234511  0.036572393  0.038554364            3 
  218000    1.1794911   -6.7861441    95.801435  0.036621344  0.038545514            5 
  219000    1.1608207   -6.7788033    95.986565  0.036524568  0.038535963            2 
  220000    1.1818228     -6.77732    96.905197  0.036706514  0.038527438            2 
  221000    1.1953955   -6.7800109    97.575825  0.036793297  0.038519028            3 
  222000     1.168094   -6.7917632    97.792224  0.036708793  0.038512799            4 
  223000    1.1725213   -6.7861586    98.116735  0.036665447  0.038505451            2 
  224000    1.1746457   -6.7490072    98.743653   0.03673499  0.038499431            2 
  225000    1.1532804   -6.8136295    99.623908  0.036897743  0.038496055            7 
  226000    1.1470088   -6.8126983    99.284942  0.036609492  0.038488905            2 
  227000    1.1766195   -6.7727739    99.865722  0.036661425   0.03848082            2 
  228000    1.1644479   -6.7717799    100.34683  0.036676474  0.038473255            1 
  229000    1.1619058   -6.7900914    100.61349  0.036613351  0.038462498            4 
  230000    1.2043776    -6.826695    101.05547  0.036614302  0.038452181            2 
  231000    1.1511275   -6.7794566    101.60339  0.036653459  0.038442879            1 
  232000    1.1532545   -6.7881773    101.80671  0.036568501  0.038431196            1 
  233000    1.1702553   -6.7868483    102.01736  0.036486896  0.038418993            2 
  234000    1.1633877   -6.7634455    102.81109  0.036613635  0.038407609            1 
  235000    1.1619477    -6.784853    103.58826  0.036733426  0.038400416            4 
  236000    1.1789562   -6.7995463    103.95696  0.036707966  0.038394599            2 
  237000    1.1472912   -6.7929072     104.2597  0.036659528  0.038387108            2 
  238000    1.1431381   -6.8283569     104.8203  0.036701785  0.038380581            4 
  239000    1.1854322   -6.8523993    104.86996  0.036565538  0.038374291            3 
  240000    1.1812015   -6.8331762    105.45709  0.036617043  0.038366318            2 
  241000    1.1287252   -6.8538605    105.86336  0.036605589  0.038358437            2 
  242000    1.1717108   -6.8206318    106.46622  0.036661921  0.038350288            1 
  243000     1.143861   -6.8251888    106.69281  0.036588754  0.038341233            3 
  244000    1.1637005   -6.7990526     107.1108  0.036581558  0.038330864            4 
  245000    1.1484659   -6.8043204    107.39335  0.036528351  0.038320536            2 
  246000    1.1524052   -6.8122177    108.13092  0.036629715  0.038310536            3 
  247000    1.1728796   -6.8084939    108.32042  0.036545352  0.038300423            4 
  248000    1.1676141   -6.7822127    108.82923  0.036568961  0.038290995            2 
  249000    1.1362654   -6.8207054    109.13421  0.036524165  0.038279279            3 
  250000    1.1506338   -6.8044915    109.78304  0.036594348    0.0382685            1 
  251000    1.1762314   -6.8009095    110.09711  0.036552826  0.038258387            6 
  252000    1.1612603   -6.8520269    110.11295  0.036413013  0.038247508            1 
  253000    1.1587819   -6.8291984    110.71491  0.036467361  0.038235045            4 
  254000    1.1524351   -6.8541404    110.72003  0.036325469  0.038222802            2 
  255000    1.1639755   -6.8333576    111.10065  0.036307401  0.038208493            1 
  256000    1.1400554   -6.7899039     111.3373   0.03624261  0.038192526            3 
  257000    1.1829918   -6.8066964     111.6728  0.036210376  0.038176136            1 
  258000    1.1513457   -6.8103821    112.29404  0.036270684  0.038158651            1 
  259000    1.1506507   -6.8179843    112.32773  0.036141483  0.038139174            2 
  260000    1.1340151   -6.8275612     112.5519  0.036074326   0.03811876            3 
  261000    1.1610418     -6.82351    113.14323  0.036124914  0.038099801            2 
  262000    1.1586814   -6.8426362    113.32682  0.036045425  0.038081378            3 
  263000    1.1515144   -6.8112647    113.85402  0.036075418  0.038061178            2 
  264000    1.1681924    -6.826628    114.28953   0.03607624  0.038042396            1 
  265000    1.1351234   -6.8235653     114.3565  0.035961164  0.038023712            1 
  266000    1.1196431   -6.8214171    115.14233   0.03607216   0.03800432            5 
  267000    1.1542132   -6.8062362    115.62171  0.036086675  0.037986269            1 
  268000    1.1567966   -6.8264558     116.1808  0.036125872   0.03796921            1 
  269000    1.1438477    -6.822946    116.39745  0.036058691   0.03795098            3 
  270000    1.1566208   -6.8537973    116.52125  0.035963347  0.037931991            2 
  271000    1.1219973   -6.8158992    116.99825  0.035977321  0.037911598            2 
  272000    1.1237114   -6.8195118    118.02273  0.036158924  0.037892212            1 
  273000    1.1765105   -6.8781916    117.75719  0.035945418  0.037874817            2 
  274000    1.1678855   -6.8322122    117.64751  0.035780873  0.037854626            1 
  275000    1.1537922   -6.8364269    118.17732   0.03581131  0.037833353            2 
  276000    1.1541144   -6.8041497    118.65411  0.035825515  0.037811292            1 
  277000    1.1565136   -6.8499167    118.92196  0.035776764  0.037789487            1 
  278000    1.1540286   -6.8421956    119.77997  0.035905267  0.037767955            3 
  279000    1.1474696   -6.8343495    119.51479  0.035697367  0.037746181            1 
  280000    1.1756713    -6.850221    120.33518  0.035814042  0.037724661            1 
  281000    1.1077646   -6.8112867    121.03021  0.035892708  0.037704426            1 
  282000    1.1223648   -6.8633252    120.85494  0.035713636  0.037683442            1 
  283000    1.1341957   -6.7869259    121.52248  0.035784006  0.037663325            1 
  284000    1.1817118   -6.8398233    122.06291  0.035816581  0.037643289            6 
  285000    1.1578518   -6.8577614    121.64159  0.035567716  0.037620731            2 
  286000    1.1789455   -6.7986695    122.61209  0.035726134  0.037597762            2 
  287000    1.1123113   -6.7970442    122.65687  0.035614653  0.037574797            2 
  288000    1.1434849   -6.8292812    122.94884  0.035575474  0.037550336            3 
  289000    1.1278972   -6.8393644    123.18537  0.035520579  0.037526114            1 
  290000     1.141327   -6.8620262    123.70788  0.035548242  0.037500713            2 
  291000    1.1260649   -6.8417928    123.92291  0.035487661  0.037477226            3 
  292000     1.129789   -6.8442742    124.53934  0.035542049  0.037453189            2 
  293000     1.136848   -6.7937709    125.25056  0.035623026  0.037429054            3 
  294000    1.1331942   -6.8740443    125.41324  0.035547971  0.037406415            2 
  295000    1.1302378   -6.8659423    125.64091  0.035491783  0.037384443            2 
  296000    1.1240362   -6.8180187    126.66827  0.035661111  0.037363196            2 
  297000    1.1485628   -6.8299284    126.71431   0.03555396  0.037341856            2 
  298000    1.1387595   -6.8807068    127.07376  0.035535168  0.037319933            2 
  299000    1.1209926   -6.8750335    127.41977  0.035512757   0.03729799            2 
  300000    1.1319069   -6.8437879    127.85177   0.03551438  0.037276493            3 
  301000    1.1598924   -6.8336618     128.5404  0.035587042  0.037255358            2 
  302000    1.1599717   -6.8557183     129.1757  0.035644508  0.037234716            3 
  303000    1.1459744   -6.8858533    128.86414  0.035441184  0.037212634            2 
  304000    1.1409174   -6.8145715    129.24418  0.035428778  0.037190146            1 
  305000    1.1508979   -6.8533062     129.8438  0.035476448  0.037167245            1 
  306000    1.1350109   -6.8053636    130.44074  0.035523078  0.037144782            3 
  307000    1.1384714   -6.8335698    130.21813  0.035346941  0.037122196            4 
  308000    1.1660716   -6.8482487    130.28959  0.035251511  0.037100101            2 
  309000    1.1395509   -6.8819362    130.89278  0.035300102  0.037077729            1 
  310000    1.1490202   -6.8836014    130.90688  0.035190021  0.037054959            2 
  311000    1.1481372   -6.8231677    131.42055  0.035214509   0.03703104            2 
  312000    1.1328569   -6.8206339    132.36092  0.035352811  0.037008479            2 
  313000    1.1395001   -6.8531491    131.96874  0.035135446  0.036985344            5 
  314000     1.127382   -6.8315069    132.91785  0.035275439  0.036962191            3 
  315000    1.1294217   -6.8354864    133.48632  0.035313842  0.036940204            2 
  316000    1.1571018   -6.8108195    133.74404  0.035270053  0.036918478            1 
  317000    1.1065183   -6.9053363    133.97733   0.03522012  0.036897381            2 
  318000    1.1300421   -6.8974526    135.11111  0.035406475  0.036876607            4 
  319000     1.104271   -6.8178772    135.57426  0.035416473  0.036856504            1 
  320000    1.1232568    -6.869683    135.21373  0.035211909  0.036837465            2 
  321000    1.1389211   -6.8468699    136.06681  0.035323678  0.036817531            1 
  322000    1.1137436   -6.8603886    136.20632  0.035250083  0.036797573            2 
  323000    1.1136268   -6.8313231    136.92022  0.035325134  0.036777413            1 
  324000    1.1150944   -6.8577489    136.62788  0.035140916   0.03675685            3 
  325000    1.1229539   -6.8450129    137.40316  0.035231581  0.036736257            3 
  326000    1.1163091    -6.865603    137.87121  0.035243151  0.036716298            2 
  327000    1.1158931   -6.8696125    138.23685  0.035228556  0.036697255            1 
  328000    1.1618293   -6.9054193     138.4326  0.035170885  0.036678987            1 
  329000    1.1240159   -6.8652096    138.93169  0.035190397   0.03665916            1 
  330000    1.1464776   -6.8836189    139.18961  0.035148892   0.03663931            2 
  331000    1.1145576   -6.8830024    139.50548  0.035122225  0.036619325            1 
  332000    1.1167329   -6.9319679    140.15476  0.035179407  0.036599141            2 
  333000    1.1068891   -6.9241844    140.04365  0.035045958  0.036580479            4 
  334000    1.1440463   -6.8775103    140.91341  0.035158037  0.036561428            1 
  335000    1.0939507   -6.8649375    141.31334  0.035152573  0.036542106            2 
  336000    1.1162755   -6.8928985    141.58038  0.035114183  0.036523783            1 
  337000    1.1020597   -6.8819062    141.86212  0.035079654  0.036504568            2 
  338000    1.1166172   -6.8791369    141.64028  0.034921172  0.036484577            3 
  339000     1.123442   -6.9136818    142.67459  0.035072417  0.036464488            2 
  340000    1.1182281   -6.8971748    142.73574   0.03498425  0.036444694            1 
  341000    1.1088151   -6.8603196    143.39214  0.035042068  0.036424755            4 
  342000    1.1468552   -6.8908203    143.57944  0.034985243  0.036405659            2 
  343000    1.1304117   -6.8577706    144.21084  0.035036647  0.036386684            2 
  344000    1.1132582   -6.9332516    143.85065  0.034847542  0.036367521            1 
  345000    1.1182631   -6.8839521    144.47899  0.034898307  0.036347826            3 
  346000    1.1275179   -6.8302222    145.68245  0.035087296  0.036329164            1 
  347000    1.1310947   -6.8888446    145.16918  0.034862915  0.036310301            1 
  348000    1.1211645   -6.8784198    146.03215  0.034969386  0.036291192            1 
  349000    1.1164971    -6.891562    145.77135  0.034806913  0.036270598            1 
  350000    1.1195602   -6.9085058    145.76365   0.03470563  0.036249481            1 
  351000    1.1421595   -6.8855595    146.46278  0.034772739  0.036227879            1 
  352000    1.1170964   -6.8767817    146.96753   0.03479345  0.036206995            2 
  353000    1.1213732   -6.9006258    147.40409  0.034797943   0.03618705            2 
  354000    1.1131389   -6.9082018    147.93089  0.034823656  0.036168679            4 
  355000    1.1288583   -6.8784705    148.28427  0.034808513  0.036149641            3 
  356000    1.1139423   -6.9353917    148.73819  0.034816992  0.036129698            2 
  357000     1.090777   -6.9462186    149.16184  0.034818357  0.036110341            2 
  358000    1.1216297   -6.9049211    149.43241   0.03478408  0.036091074            3 
  359000    1.0983613   -6.8949881    150.43305  0.034919465  0.036072622            2 
  360000    1.1147924   -6.8591709    150.83226  0.034914875  0.036054846            1 
  361000     1.123668   -6.8806854     151.2971  0.034925463  0.036037144            2 
  362000    1.1083515   -6.8870986    151.39709     0.034852   0.03602036            1 
  363000     1.106173   -6.8555982     152.1339  0.034925137  0.036004086            1 
  364000    1.1035482   -6.8902465    152.52327  0.034918331  0.035987485            1 
  365000    1.1160567   -6.9225537     152.4565   0.03480742  0.035970781            1 
  366000    1.1040603   -6.8803321    152.76203  0.034781882  0.035955007            2 
  367000    1.1122033   -6.9216876    152.94432  0.034728502  0.035937447            2 
  368000    1.0929264    -6.881641    153.83231  0.034835215  0.035919709            2 
  369000    1.1181292   -6.9082402    153.16581  0.034590291  0.035902809            1 
  370000    1.1078069   -6.8825654    154.25928  0.034743082  0.035884945            3 
  371000    1.0799148   -6.8851347     154.7375  0.034756852  0.035866844            3 
  372000    1.0948333   -6.9047093    154.07807  0.034515697  0.035849364            2 
  373000    1.1011705   -6.9036071     155.5926  0.034761529  0.035830945            4 
  374000    1.0947505   -6.9258704    155.24829  0.034591865   0.03581257            5 
  375000    1.0961459   -6.9248143    155.89679  0.034643731  0.035794974            1 
  376000    1.0850902   -6.9207606     155.7602  0.034521321  0.035776368            3 
  377000    1.0749487   -6.9574926    156.15105  0.034516146  0.035757346            2 
  378000    1.1045137   -6.9305318    156.35187  0.034469106  0.035738987            2 
  379000    1.1036736   -6.9441277    157.27268  0.034580624  0.035720363            2 
  380000     1.104255   -6.9295409    157.03225  0.034436896  0.035701721            1 
  381000    1.1332741   -6.9508538    157.58145  0.034466634  0.035683111            1 
  382000    1.0756445   -6.9435017    157.54198  0.034367797  0.035663271            2 
  383000    1.1063542   -6.9366797    157.48093  0.034264779  0.035643145            3 
  384000    1.0998427   -6.9242373    157.95871  0.034279233  0.035622585            4 
  385000    1.0729185   -6.9648868    157.89337  0.034176053  0.035600292            4 
  386000     1.080157   -6.9593442    158.26422  0.034167577  0.035577264            1 
  387000    1.0969978     -6.89448    159.09816  0.034258862  0.035556731            1 
  388000    1.1011405   -6.8679229    159.28319  0.034210307  0.035536289            2 
  389000    1.0714507   -6.9135208    159.65091  0.034201138  0.035515008            2 
  390000    1.0832795   -6.9599726    159.71627  0.034127408  0.035494125            2 
  391000    1.0858899   -6.9342321     160.2837   0.03416106  0.035473059            1 
  392000    1.1040442   -6.9344755    160.44352  0.034107891  0.035452126            2 
  393000    1.0778132   -6.9519892    160.96753  0.034132216  0.035430786            1 
  394000    1.0896121   -6.9425482    161.28923  0.034113627  0.035409092            3 
  395000    1.1163917   -6.8963171    161.92121  0.034160593  0.035387218            5 
  396000    1.1109144   -6.9228371    161.70695   0.03402924  0.035366084            4 
  397000    1.0882913    -6.879976    162.55196  0.034120899  0.035346004            3 
  398000    1.0893564   -6.9308357    162.71698  0.034069719  0.035325654            2 
  399000    1.0737011   -6.9379221    162.97518  0.034038257  0.035305284            2 
  400000    1.1065363    -6.917253    163.48359   0.03405908  0.035284736            2 
  401000     1.090257   -6.9051496    163.20076   0.03391537  0.035264392            5 
  402000    1.0607518   -6.9619164    163.19223  0.033829235  0.035243503            2 
  403000    1.0908488   -6.9295117    164.15966   0.03394534   0.03522292            6 
  404000    1.1117291    -6.890411     164.4427  0.033919699  0.035201279            3 
  405000    1.0908315   -6.9415723    164.46528  0.033840593   0.03517952            3 
  406000    1.0794608   -6.9303404    164.83864  0.033833875  0.035157074            1 
  407000    1.1086893   -6.9642166    164.73791  0.033730121  0.035134981            2 
  408000    1.0950361   -6.9149365    165.65474  0.033834711  0.035112639            1 
  409000    1.1049141   -6.9453465    165.74646  0.033770672  0.035091187            2 
  410000    1.0830121   -6.9650942     166.1075  0.033761686  0.035069308            5 
  411000    1.0832304   -6.9433912    166.38816  0.033736447  0.035046777            1 
  412000    1.0920906   -6.9213535    166.53855  0.033684982  0.035024625            2 
  413000    1.0687728   -6.9175623     166.7244  0.033640921  0.035002293            3 
  414000    1.0916858   -6.9461507    167.67038  0.033750077  0.034979377            1 
  415000    1.0748861   -6.9594598    167.37256  0.033608948  0.034956127            3 
  416000     1.067341   -6.9742598    167.26262  0.033506135  0.034932848            6 
  417000    1.0995203   -6.9338785    167.96533  0.033566214  0.034908496            2 
  418000     1.072357   -6.9749658    167.92379  0.033477629  0.034884863            3 
  419000    1.0951694   -6.9605429    167.80437  0.033373979  0.034860307            3 
  420000     1.096531   -6.9075511    168.98886  0.033529536  0.034835824            4 
  421000    1.0921343   -6.9393443     169.1442  0.033480642  0.034811681            2 
  422000    1.0860731   -6.9171891    169.41016  0.033453823  0.034787977            1 
  423000    1.0836788   -6.9208519    169.49578  0.033391604  0.034764521            5 
  424000    1.0796107   -6.9786189    169.47789  0.033309334  0.034740967            3 
  425000    1.0839963   -6.9485292    170.17103  0.033366869  0.034717617            3 
  426000    1.0720078   -6.9514131    170.85741  0.033422811    0.0346949            1 
  427000     1.069091   -6.9735394    170.82457  0.033338128  0.034671431            2 
  428000    1.1101802    -6.925869     171.4064   0.03337352  0.034649036            2 
  429000    1.0973425   -6.9538225    171.54028  0.033321733    0.0346262            2 
  430000    1.0901383    -6.957299    172.20863  0.033373766   0.03460406            3 
  431000     1.108136   -6.9144743    172.15509  0.033285981  0.034581637            2 
  432000    1.0781956   -6.9778327    172.05275  0.033189187  0.034558598            2 
  433000    1.0914719   -7.0007288    172.28867  0.033157943  0.034536118            2 
  434000    1.0711493   -6.9969143    172.28218  0.033080296  0.034512479            2 
  435000    1.0767925   -6.9630877    173.59996  0.033256697  0.034489433            1 
  436000    1.0752427   -6.9435004    173.36511  0.033135533  0.034466061            2 
  437000    1.0924731   -6.9504779     174.3139  0.033240637  0.034442943            3 
  438000    1.0749948   -6.9575086    173.49434  0.033008816  0.034419551            2 
  439000    1.0691135   -6.9728531    174.56491  0.033136848  0.034396987            2 
  440000    1.0772346    -6.915609    175.24339  0.033190036  0.034375032            2 
  441000    1.0612715    -6.968093    175.10253  0.033088157  0.034351916            3 
  442000    1.0893052    -6.955105    175.38021  0.033065651   0.03432847            3 
  443000    1.0649773   -6.9645203    175.35658  0.032986565    0.0343047            2 
  444000    1.0725402   -6.9916441     175.5623  0.032950882  0.034281054            4 
  445000    1.1012286   -6.9913483    175.96941  0.032953072   0.03425729            3 
  446000    1.0771526   -6.9783251    177.62695  0.033188893  0.034234313            2 
  447000    1.0726574   -6.9612696     177.3595  0.033064783  0.034212952            2 
  448000    1.0754889   -6.9839249    178.02597  0.033114949  0.034191913            1 
  449000    1.0703897    -6.948432    177.81734  0.033002475  0.034170588            2 
  450000    1.0908439   -6.9801749    178.54135  0.033063213  0.034149383            1 
  451000    1.0925494     -6.99786    178.26376   0.03293861   0.03412763            1 
  452000    1.0867412   -6.9500337    179.18584  0.033035737  0.034105411            1 
  453000    1.0675641   -6.9855763    179.42628  0.033007041  0.034083868            2 
  454000    1.0780204   -6.9904085    180.32193  0.033098738  0.034062939            2 
  455000    1.0729941   -6.9537656    180.48867  0.033056533  0.034043147            2 
  456000    1.0772331   -6.9427321    180.87592  0.033054811  0.034023248            2 
  457000    1.0547765   -6.9223228    181.28561  0.033057187  0.034003177            4 
  458000    1.0773533   -6.9739611    180.80165  0.032896952  0.033982581            3 
  459000     1.075986   -6.9986436    181.96827  0.033037087  0.033962229            4 
  460000    1.0754462    -6.984451    182.03909  0.032978096  0.033942242            2 
  461000    1.0788396   -6.9617411    182.43108  0.032977419  0.033922378            3 
  462000    1.0854753   -6.9622352    182.43651  0.032907018  0.033902558            2 
  463000    1.0864365   -6.9955681    182.35531  0.032821331  0.033882057            2 
  464000    1.0565681   -6.9995989    182.10256  0.032705201  0.033860672            4 
  465000    1.0704956   -6.9957399     182.9575  0.032788083  0.033839148            2 
  466000    1.0652572   -6.9927442    183.67246  0.032845576  0.033818675            1 
  467000     1.051665   -6.9960013    184.00672  0.032834889  0.033797984            3 
  468000    1.0791298    -7.001393    184.05055  0.032772534  0.033777727            1 
  469000    1.0668326   -6.9874513    184.34932  0.032755743  0.033758213            2 
  470000     1.046494   -6.9936295    184.63351  0.032736438  0.033738295            3 
  471000    1.0531986   -7.0229203    184.86679  0.032708208  0.033717777            3 
  472000    1.0618237   -7.0105719     184.9424  0.032652259  0.033697141            1 
  473000    1.0649073    -6.989372    185.80533  0.032735259  0.033677067            2 
  474000    1.0554461   -6.9832805    185.81316  0.032667574  0.033657131            1 
  475000    1.0549644   -7.0320916    186.00129  0.032631805  0.033636845            3 
  476000    1.0578485   -6.9987301    186.33081   0.03262094  0.033616305            2 
  477000    1.0342039   -6.9877022    187.46256  0.032750272  0.033597132            2 
  478000    1.0414732   -6.9686213    187.40332  0.032671429  0.033577643            5 
  479000    1.0469105   -6.9835465    187.80641  0.032673348  0.033558621            2 
  480000    1.0721479   -7.0208437    187.91057  0.032623363  0.033538954            2 
  481000    1.0410558   -7.0127941    187.74725  0.032527243  0.033518482            2 
  482000    1.0583496     -7.01339    188.09026  0.032519063  0.033498295            1 
  483000    1.0661274   -7.0232728    188.47943   0.03251888  0.033478459            4 
  484000    1.0855679   -7.0084227    189.16763  0.032570185  0.033459137            2 
  485000    1.0529944   -6.9723602    188.91876  0.032460269  0.033439904            3 
  486000    1.0623129   -7.0237409    190.47831   0.03266089  0.033420477            2 
  487000    1.0617077   -7.0125793    189.91564  0.032497543  0.033401083            2 
  488000    1.0385125   -7.0463886    190.63858  0.032554402  0.033381275            3 
  489000    1.0716573   -7.0256196    190.55142  0.032472976  0.033361927            1 
  490000    1.0464082   -7.0082475    190.99626  0.032482358   0.03334323            3 
  491000    1.0793776   -7.0583991    191.23885  0.032457374  0.033324361            2 
  492000    1.0538684   -7.0090133    191.52642  0.032440112  0.033304629            1 
  493000    1.0729545   -6.9992986    192.02855  0.032459187  0.033285843            3 
  494000    1.0610784   -7.0178714    192.98089  0.032554131  0.033267018            2 
  495000    1.0641464   -6.9838793    192.82183  0.032461588  0.033248119            2 
  496000    1.0749963   -6.9849621    192.56505  0.032352999  0.033229377            3 
  497000    1.0530311   -7.0112592    193.11951   0.03238087  0.033210651            2 
  498000    1.0741599   -7.0087169    194.10649  0.032481005  0.033192115            3 
  499000    1.0322225   -7.0071906    194.50345  0.032482207  0.033173966            4 
  500000     1.032511   -7.0236053    193.94458  0.032324097  0.033155452            2 
  501000     1.051671   -7.0488756    194.32927  0.032323564  0.033136379            4 
  502000    1.0712778   -7.0268931    194.53338  0.032293058  0.033117699            5 
  503000     1.036666   -6.9982228    195.33779  0.032362125  0.033099001            2 
  504000      1.06914   -7.0443483    194.97239  0.032237499  0.033079975            3 
  505000    1.0629787   -7.0082291    195.15243   0.03220337  0.033060769            2 
  506000    1.0498923   -6.9893862    196.28624  0.032326455  0.033042136            3 
  507000     1.046719   -6.9892036    196.43976  0.032287928  0.033023267            2 
  508000     1.062691   -6.9760911    196.19968  0.032184987  0.033004295            3 
  509000    1.0572444   -7.0497457    196.39887  0.032154367  0.032984791            3 
  510000    1.0592851   -7.0088467    196.24649  0.032066419  0.032965176            4 
  511000    1.0612335   -7.0312866    197.17561  0.032155187  0.032944912            2 
  512000    1.0397989   -7.0543439    196.42554  0.031970303  0.032925218            3 
  513000    1.0655372   -7.0026143    197.58003  0.032095521  0.032905278            3 
  514000    1.0535787    -7.047079    197.16546  0.031965866  0.032884934            4 
  515000    1.0544179    -7.035502    197.58262  0.031971298  0.032864847            2 
  516000    1.0652086   -7.0164016       197.94  0.031967055   0.03284426            2 
  517000    1.0416683   -7.0255586    198.43823   0.03198553  0.032824196            1 
  518000    1.0320641   -7.0277087    198.51717  0.031936481  0.032803464            4 
  519000    1.0414776   -7.0499197    198.63436  0.031893764  0.032782853            1 
  520000    1.0454179   -7.0514095     198.2872  0.031776795  0.032762034            2 
  521000     1.011303   -7.0587853    199.30567  0.031878706  0.032740949            4 
  522000    1.0262654   -7.0183315    198.96019  0.031762483  0.032719464            3 
  523000    1.0447721   -7.0335484    199.24325  0.031746853  0.032697583            2 
  524000    1.0331334   -7.0496632    199.38056  0.031708104  0.032676076            1 
  525000    1.0383961   -7.0191522    199.49213  0.031665418  0.032654233            5 
  526000    1.0578295   -7.0517582    199.18802  0.031557037  0.032632025            1 
  527000    1.0397306   -7.0132268    199.91856  0.031612676   0.03260962            2 
  528000    1.0271725   -7.0620697    199.58601  0.031500318  0.032587149            1 
  529000      1.04895   -7.0548511    199.79535  0.031473747  0.032564423            7 
  530000    1.0555886   -7.0208037    201.05854  0.031612977  0.032542358            2 
  531000    1.0467271   -7.0237933    201.10837  0.031561263  0.032520075            3 
  532000    1.0305701   -7.0433316    201.59855  0.031578721  0.032497673            2 
  533000    1.0467707   -7.0519849    201.45159  0.031496497  0.032475419            2 
  534000    1.0408255   -7.0287608    202.01455  0.031525367   0.03245356            3 
  535000    1.0480391   -7.0330036    202.47751  0.031538553  0.032431887            2 
  536000    1.0801481   -7.0157934    202.82214  0.031533293  0.032410571            2 
  537000    1.0297948     -7.05381    202.55939  0.031433797  0.032388538            6 
  538000    1.0357048    -7.051078    202.51532  0.031368544  0.032366713            2 
  539000     1.069642   -7.0561021    202.53242  0.031312989  0.032344587            2 
  540000    1.0364941   -7.0632766    202.74292  0.031287487  0.032322676            5 
  541000    1.0539823    -7.037508    204.31105  0.031471203  0.032300638            2 
  542000    1.0232832   -7.0785144    203.70288  0.031319631  0.032278754            2 
  543000    1.0188936   -7.0749494    203.28484  0.031197796  0.032256753            1 
  544000    1.0322509   -7.0105839    204.21103  0.031282326  0.032234971            1 
  545000     1.050426   -7.0646136    204.14252  0.031214453  0.032212884            4 
  546000    1.0172037   -7.0510856    203.88215  0.031117544  0.032190042            2 
  547000    1.0383397   -7.0716548     204.0612  0.031087934  0.032167128            1 
  548000    1.0276124   -7.0662977    205.15732  0.031197889  0.032144189            3 
  549000    1.0313396   -7.0859117     205.0564  0.031125744  0.032121234            1 
  550000     1.037933   -7.0677322    205.00881  0.031061941  0.032098366            2 
  551000    1.0184006   -7.0633749    206.18141  0.031182911  0.032075866            5 
  552000    1.0505463   -7.0199783    206.60995  0.031191115  0.032053685            3 
  553000    1.0491648   -7.0448568    206.09037  0.031056414   0.03203153            4 
  554000    1.0300288   -7.0949623    206.21249  0.031018726  0.032008905            2 
  555000    1.0166468   -7.0482217    205.94112  0.030922089  0.031986017            4 
  556000    1.0245827   -7.0405374    206.83307   0.03100016  0.031963343            1 
  557000    1.0381848      -7.0485    207.34158  0.031020584  0.031940892            2 
  558000    1.0446049    -7.078657     207.0039  0.030914561  0.031918731            3 
  559000     1.032331   -7.0739153    207.85933  0.030986781  0.031896915            2 
  560000    1.0272173   -7.0873296    208.63088  0.031046262  0.031874834            2 
  561000    1.0371291   -7.0459993    208.54499  0.030978162  0.031853356            2 
  562000    1.0397441   -7.0849102    208.32331   0.03089017  0.031831895            1 
  563000    1.0278016   -7.0691664    209.40594  0.030995551  0.031810582            3 
  564000    1.0365545   -7.0761355    209.59161  0.030968027  0.031789714            2 
  565000    1.0231457   -7.0767095    210.22541  0.031006697  0.031768502            2 
  566000    1.0277136   -7.0856706    209.80505  0.030890025  0.031747181            3 
  567000    1.0327468   -7.0457525    210.38009   0.03092006  0.031725888            3 
  568000    1.0321861   -7.0514383    210.50044  0.030883281  0.031704693            1 
  569000    1.0350532   -7.0597604    210.61838  0.030846278  0.031683586            3 
  570000    1.0408205   -7.1056306    211.33063  0.030896291  0.031662299            2 
  571000    1.0206521   -7.0536192    211.11808  0.030811162  0.031641045            2 
  572000    1.0253932   -7.0761195    211.26538  0.030778756  0.031619851            2 
  573000    1.0177994   -7.0358766    211.27359  0.030726234  0.031598268            1 
  574000    1.0218804   -7.0922332    211.51018  0.030707052  0.031576633            2 
  575000    1.0268004   -7.0638584    211.28698  0.030621301  0.031554647            1 
  576000    1.0348369    -7.078541    212.03866   0.03067689   0.03153312            1 
  577000    1.0096677   -7.0892205    211.97584  0.030614651  0.031511092            3 
  578000    1.0226571   -7.1139038    212.08959  0.030578084  0.031488812            2 
  579000    1.0123473   -7.0616161    212.73417  0.030618044  0.031466707            1 
  580000    1.0208971   -7.0715366    212.56747  0.030541303  0.031444873            3 
  581000    1.0158106   -7.0718698    212.91824  0.030539047  0.031423067            4 
  582000    1.0041529   -7.1155278    212.36469  0.030407315  0.031400898            3 
  583000     1.045351   -7.0844025    213.38192  0.030500561  0.031378973            2 
  584000    1.0407477   -7.1139803    213.25376  0.030430046  0.031357122            5 
  585000    1.0094966   -7.0889832    213.83494  0.030460817  0.031335495            3 
  586000    1.0222627   -7.0913137     214.7887  0.030544468  0.031313643            2 
  587000    1.0257404   -7.0883878    214.93155  0.030512713  0.031292317            3 
  588000    1.0334798   -7.0623521    215.04328  0.030476655  0.031271169            3 
  589000    1.0108106   -7.0856674    215.35837  0.030469492  0.031249774            3 
  590000    1.0083309   -7.0674278    216.60365  0.030593735  0.031228737            3 
  591000    1.0105186   -7.0673374    215.95113  0.030449962  0.031207915            2 
  592000    1.0058794   -7.0770836    215.97547  0.030401953  0.031186771            3 
  593000    1.0208037   -7.0950475    216.61341  0.030440334  0.031165702            2 
  594000    1.0024329   -7.0453002    217.18494  0.030469268  0.031144985            3 
  595000     1.007801    -7.092549    216.76105   0.03035869  0.031124093            2 
  596000    1.0079814   -7.0491936    217.00412   0.03034174  0.031103162            2 
  597000   0.98499114   -7.1199877    216.86807  0.030271925  0.031082002            4 
  598000   0.99970083   -7.0948521    217.92997  0.030369282  0.031060454            2 
  599000    1.0066837   -7.1185381    218.87926  0.030450648  0.031039456            2 
  600000    1.0138834   -7.0600368    218.33063  0.030323698  0.031018584            4 
  601000   0.99527198   -7.0763277    218.61462   0.03031262  0.030998434            6 
  602000    1.0112833   -7.0703706    219.64369  0.030404718  0.030978004            2 
  603000    1.0331824   -7.1129853    219.16887  0.030288677  0.030957973            3 
  604000    1.0398871   -7.1183966    219.51101  0.030285735   0.03093778            3 
  605000    1.0091963   -7.0854422    219.89257  0.030288233  0.030917449            4 
  606000    1.0228367   -7.0892133    219.87593  0.030235964  0.030896931            1 
  607000   0.98265533    -7.100804    219.64449  0.030154378   0.03087656            5 
  608000    1.0053509   -7.1012217    220.36456  0.030203476  0.030856207            3 
  609000    1.0142532   -7.0806057    220.61401  0.030188015  0.030835775            4 
  610000    1.0001127   -7.1496837    220.11531  0.030070397  0.030815356            4 
  611000    1.0119771   -7.1175554    221.48256   0.03020766  0.030794774            3 
  612000    1.0137496   -7.1147313    222.04452  0.030234821   0.03077452            3 
  613000   0.99783844   -7.1278382    220.82508  0.030019722   0.03075466            4 
  614000   0.99311322   -7.1419937    221.24704    0.0300281  0.030734234            1 
  615000    1.0099621   -7.1245978    221.24487   0.02997898  0.030713751            2 
  616000     1.018328   -7.1259691    221.99212  0.030031401  0.030693205            2 
  617000   0.99254491   -7.1292158    222.18913  0.030009337  0.030673132            4 
  618000    1.0357113   -7.0932934    223.01569  0.030072235  0.030653035            1 
  619000    1.0071878   -7.1292847    222.59312  0.029966763  0.030633176            2 
  620000    1.0039672   -7.1524313    222.60805  0.029920437  0.030613073            5 
  621000    1.0280545    -7.125819    223.33758  0.029970154  0.030592698            1 
  622000    1.0059003   -7.1100802    223.00577  0.029877515  0.030572328            4 
  623000    1.0143978   -7.1236353    223.27892  0.029866095  0.030552046            5 
  624000    1.0183096   -7.1029662    224.14318  0.029933651  0.030531969            1 
  625000   0.98954181   -7.1012048      224.396  0.029919466  0.030512145            3 
  626000    1.0166739   -7.1570928    224.99978  0.029952048   0.03049225            3 
  627000     1.013897   -7.1425123    224.43459  0.029829159  0.030472344            5 
  628000     1.002777   -7.1117267     224.4929  0.029789398  0.030452115            3 
  629000    1.0141199   -7.1517618    224.79492  0.029782051  0.030431571            1 
  630000    1.0190763   -7.1321478    225.09763  0.029774819  0.030410865            1 
  631000    1.0032277   -7.1122384    224.95551  0.029708863  0.030390302            1 
  632000    1.0154958   -7.1298946    225.22065  0.029696816  0.030369813            1 
  633000    1.0266979   -7.1224135    225.48252  0.029684376  0.030349205            2 
  634000   0.98975525   -7.1124325    225.19069  0.029599196  0.030328459            3 
  635000    1.0017531   -7.1247952    225.81801  0.029634909  0.030307892            1 
  636000   0.99140074   -7.1497114    226.45273  0.029671479  0.030287313            2 
  637000    0.9945648   -7.1466299    226.42803  0.029621668  0.030266895            3 
  638000    1.0253314   -7.1564333    226.44452  0.029577392  0.030246364            2 
  639000    1.0060838   -7.1318481    227.79372  0.029707057  0.030226229            2 
  640000   0.99479729   -7.1550712    227.38844   0.02960787  0.030206394            1 
  641000    1.0009147   -7.1199544    227.81351  0.029616942  0.030186846            1 
  642000   0.97622009   -7.1537364    228.50592  0.029660685  0.030167501            3 
  643000   0.99479325   -7.1150151    228.42998  0.029604714  0.030147754            2 
  644000   0.99044602    -7.144355    228.38173  0.029552501  0.030128267            5 
  645000    1.0114692    -7.135249    229.20488  0.029613034  0.030108937            2 
  646000   0.99624758   -7.1464315    229.19934  0.029566478  0.030089771            2 
  647000    1.0096362   -7.1225277    229.55546  0.029566649  0.030070646            2 
  648000   0.97376344   -7.1366037     229.8585  0.029559993  0.030051348            3 
  649000    1.0216955   -7.1227695    230.00962  0.029533849  0.030032389            2 
  650000   0.98875845    -7.144254    229.53295  0.029427301  0.030013146            2 
  651000    0.9883183   -7.1580891    230.17144   0.02946383  0.029993442            3 
  652000   0.99199009   -7.1344671    230.53294  0.029464844  0.029973476            3 
  653000   0.99339552   -7.1070061    230.56451  0.029423751   0.02995411            2 
  654000   0.99449874   -7.1622895    230.52197  0.029373339  0.029934457            3 
  655000   0.98642591   -7.1596117    229.68904  0.029222524  0.029914372            2 
  656000   0.99258202   -7.1202669    231.17957  0.029367323  0.029894378            3 
  657000   0.98645647   -7.1805977    231.12436  0.029315622  0.029874623            2 
  658000   0.99321144   -7.1761865     230.9916  0.029254255  0.029854571            2 
  659000    1.0130932   -7.1526407     231.2965   0.02924842  0.029834593            2 
  660000   0.96078405    -7.174078    231.31106  0.029205942   0.02981445            4 
  661000   0.98225789   -7.1372086    231.55837  0.029192936  0.029794222            2 
  662000    1.0146645   -7.1006811    232.25412  0.029236421  0.029774192            5 
  663000   0.99050044    -7.174853    231.36225  0.029080223  0.029753961            2 
  664000    0.9815145   -7.1769384    232.18613  0.029139826    0.0297334            2 
  665000    1.0016287   -7.1467249    232.72604  0.029163664  0.029713336            6 
  666000   0.98087924   -7.1876152    232.88465  0.029139722  0.029693451            1 
  667000   0.99803952   -7.1491542     233.2719  0.029144415   0.02967339            5 
  668000   0.98013805    -7.174394    233.91674   0.02918123  0.029653597            3 
  669000   0.98042833   -7.1290175    233.59148  0.029097095  0.029633564            2 
  670000   0.99468779   -7.1425338     233.2902  0.029016194  0.029613343            4 
  671000   0.99317618   -7.1561369    233.31952  0.028976592  0.029593041            1 
  672000   0.99455114   -7.1334964    233.90767  0.029006407  0.029572628            3 
  673000   0.98621355   -7.1644944    233.58292  0.028923096  0.029552026            3 
  674000    1.0256959   -7.1564344    233.81361  0.028908705  0.029531332            3 
  675000   0.99775266   -7.1447093    233.94183  0.028881708  0.029511113            3 
  676000   0.98858117   -7.1569425    234.68815  0.028930984   0.02949071            2 
  677000   0.99038026   -7.1627986    234.49609  0.028864609  0.029470075            1 
  678000   0.99308447   -7.1770169    234.82551  0.028862525  0.029449467            3 
  679000   0.98883376   -7.1551597     234.8179  0.028819084  0.029429151            4 
  680000   0.98047425   -7.1521201    234.60312  0.028750382  0.029408521            2 
  681000   0.98288164   -7.1714981    235.66194  0.028837731  0.029387982            2 
  682000   0.99808896   -7.1787179    235.27678  0.028748385  0.029367471            4 
  683000      0.99753    -7.192597    235.33244  0.028713084  0.029347058            3 
  684000   0.98952383   -7.1819926    236.35552  0.028795751  0.029326392            3 
  685000   0.97484372   -7.1753293    236.24982  0.028740854  0.029305658            1 
  686000   0.97876538   -7.1757583    236.34039   0.02870996  0.029285067            1 
  687000   0.96760669   -7.1765605    236.05574  0.028633641   0.02926457            2 
  688000   0.98489078   -7.1778479    236.54055  0.028650745  0.029244188            3 
  689000   0.99585389   -7.1309361    237.10946  0.028677971  0.029223877            2 
  690000   0.95184744   -7.1355753    238.70824  0.028829497  0.029204027            3 
  691000   0.98967656   -7.1520824    237.51117  0.028643412  0.029184267            6 
  692000   0.96398695   -7.1879975    237.97299  0.028657634  0.029164177            3 
  693000   0.98162085   -7.1690716    237.87268  0.028604219   0.02914423            3 
  694000   0.96252547   -7.1763977    237.76043  0.028549523  0.029123747            4 
  695000   0.97631581   -7.1942243    237.21936  0.028443568   0.02910325            3 
  696000   0.97616434    -7.200253    238.47683   0.02855326  0.029082888            2 
  697000   0.95842119   -7.1921547    238.06057  0.028462526  0.029062664            3 
  698000    0.9788055   -7.1745771     238.5904  0.028485005  0.029042137            3 
  699000   0.95997816   -7.2160469    238.52611  0.028436589  0.029021726            2 
  700000   0.98086858   -7.1690779    239.38901  0.028498692  0.029001488            3 
  701000   0.98053279    -7.185381     238.5157   0.02835422   0.02898107            3 
  702000    0.9634813   -7.1827925    239.24128  0.028399962  0.028960454            2 
  703000   0.98835112   -7.1588263    238.84097  0.028312112  0.028940033            3 
  704000   0.94612566    -7.179005    240.00404  0.028409569  0.028919469            3 
  705000    0.9870354   -7.1916144     239.2351  0.028278381  0.028898599            3 
  706000   0.97248358   -7.2202085    239.28736  0.028244495  0.028877302            5 
  707000   0.98350646   -7.2216573    238.63299  0.028127416  0.028856226            3 
  708000   0.96256983   -7.2053704    239.48027  0.028187414  0.028835083            1 
  709000   0.97629732   -7.1785055    239.79215  0.028184315  0.028814194            4 
  710000   0.95937383   -7.1877807     240.7554  0.028257676  0.028793367            2 
  711000   0.97180701   -7.1906131    239.96403   0.02812518  0.028772664            2 
  712000   0.98441752   -7.2131599    240.55489  0.028154833  0.028751688            2 
  713000    0.9750673   -7.2003225    240.11975  0.028064487  0.028730628            6 
  714000    0.9660901   -7.2387348    239.97162  0.028007892  0.028709523            6 
  715000   0.96568828   -7.2267722    240.37977   0.02801629  0.028688457            2 
  716000    0.9897162   -7.2043268    241.70547  0.028131456  0.028667609            4 
  717000   0.99822131   -7.1940443    241.62833  0.028083255  0.028647036            4 
  718000   0.96497367    -7.204505    241.14457  0.027987996   0.02862619            2 
  719000   0.97382708   -7.1774304    242.05447  0.028054528  0.028605477            2 
  720000   0.95621772   -7.2025553    241.41584  0.027941648  0.028584584            2 
  721000    0.9654812    -7.209815    242.28646  0.028003521   0.02856377            2 
  722000   0.96837854   -7.1942396    242.35726  0.027972906  0.028543054            4 
  723000   0.96300055   -7.2223525    241.57622  0.027844193  0.028522573            5 
  724000   0.98200174   -7.1852431    242.50807  0.027912992   0.02850172            2 
  725000   0.97552173   -7.1869568    242.75775   0.02790319   0.02848086            3 
  726000   0.96780278   -7.2506564    242.38804  0.027822319  0.028460245            2 
  727000   0.96819005   -7.2258811    242.99524  0.027853649  0.028439371            2 
  728000   0.94943288   -7.2368786    242.89597  0.027804026  0.028418586            2 
  729000   0.97167797   -7.1982607    243.36342  0.027819321  0.028398302            5 
  730000   0.97397214    -7.190398    244.43521  0.027903563  0.028378027            2 
  731000   0.96446731   -7.2430459    244.11994   0.02782945  0.028357987            1 
  732000   0.94222191   -7.2092268    243.57728  0.027729654  0.028337958            2 
  733000   0.96610998   -7.2263696    245.28241  0.027885676  0.028318094            5 
  734000    0.9840931   -7.2128486    244.67808  0.027779073  0.028297801            4 
  735000   0.94816028   -7.2147494    244.97554  0.027775005  0.028277558            2 
  736000   0.94080292   -7.1982158    245.46117  0.027792252  0.028257427            4 
  737000   0.95878346   -7.1993773    245.89235  0.027803296  0.028237142            5 
  738000   0.96906439   -7.2100448    245.33375  0.027702547   0.02821716            3 
  739000    0.9459515   -7.1965666    246.38025  0.027783069  0.028197134            2 
  740000   0.95861896   -7.2321609      246.186  0.027723649  0.028177386            4 
  741000   0.95594453   -7.1771487    246.36163  0.027705987  0.028157512            5 
  742000   0.95594716   -7.2279705    246.61571  0.027697182  0.028137613            3 
  743000   0.94839261   -7.2014232     246.6679  0.027665758  0.028117709            2 
  744000   0.94080726   -7.2381407     247.1895  0.027686996  0.028097768            2 
  745000     0.941317   -7.2445337    246.73403  0.027598885  0.028077768            2 
  746000   0.93448036   -7.2270089    247.15932  0.027609397  0.028057937            1 
  747000   0.94333109   -7.2078448    247.53644  0.027614507  0.028038302            3 
  748000   0.96241683   -7.2030708    247.99164  0.027628302   0.02801878            3 
  749000   0.94728342   -7.2096107    247.30385  0.027514892  0.027999158            3 
  750000   0.97485181   -7.2556307    247.39933  0.027488814  0.027979447            6 
  751000   0.95329713   -7.2642293    246.71665   0.02737646  0.027959574            3 
  752000   0.96520418   -7.2022128    247.87131  0.027468009  0.027939403            3 
  753000   0.96401878   -7.2424876    248.08871   0.02745559  0.027919373            2 
  754000   0.94132265   -7.2153603    247.96338  0.027405325  0.027899196            1 
  755000   0.95914585   -7.2345825    248.75557  0.027456465  0.027879167            2 
  756000   0.98563583   -7.2567612    248.58758  0.027401629  0.027859422            1 
  757000   0.96450722   -7.2022625    249.49974  0.027465846   0.02783975            2 
  758000   0.94068605    -7.259479    249.25898  0.027403142  0.027819805            2 
  759000   0.93425103   -7.2519468    248.97196  0.027335525  0.027800021            2 
  760000   0.93880466   -7.2364035    248.34692  0.027231022  0.027780287            5 
  761000   0.95970937   -7.2218202    250.26106  0.027404846  0.027760475            7 
  762000   0.94204845   -7.2475391    248.92569  0.027222845  0.027740891            1 
  763000   0.94107801   -7.2539491    250.28197  0.027335296  0.027720993            2 
  764000   0.96068882   -7.2297491    249.24761  0.027186694  0.027701193            3 
  765000   0.94232291   -7.2447863    249.96795  0.027229624   0.02768129            1 
  766000   0.94494447   -7.2362914    250.72479  0.027276413  0.027661549            5 
  767000   0.96602502   -7.2465784    251.21567  0.027294184  0.027641814            2 
  768000   0.94297548   -7.2144097    251.40789  0.027279502  0.027622384            3 
  769000   0.94862868   -7.2700479    251.02365   0.02720239  0.027602651            2 
  770000   0.94201729   -7.2303799    251.10225  0.027175569  0.027582841            3 
  771000   0.97378852   -7.2546196    251.12514  0.027142796  0.027563044            2 
  772000   0.92588778   -7.2488718    251.04539  0.027099028   0.02754328            4 
  773000   0.95700364   -7.2399008     251.6324  0.027127253  0.027523695            2 
  774000   0.95790818   -7.2671852    251.53483    0.0270817  0.027504039            3 
  775000   0.96352023   -7.2444349    251.28659  0.027020064  0.027484548            4 
  776000   0.94685445   -7.2405193    253.13714  0.027183972  0.027465149            1 
  777000   0.95492182   -7.2452037    252.67064  0.027098954  0.027446013            2 
  778000   0.94756075   -7.2655587    252.81464  0.027079546  0.027426424            4 
  779000    0.9349035   -7.2570967    252.57656  0.027019316  0.027406636            6 
  780000   0.93828183    -7.244955    252.50396  0.026976919  0.027387132            3 
  781000   0.95069672   -7.2437155    252.52754  0.026944893  0.027367431            2 
  782000   0.92470116   -7.2507501    253.09431  0.026970834  0.027347859            3 
  783000   0.92147077   -7.2707527    252.98889   0.02692517  0.027328314            3 
  784000   0.92989823   -7.3022025    253.23833  0.026917339  0.027308822            2 
  785000   0.92295665   -7.2688989    253.08402  0.026866669  0.027289476            4 
  786000   0.94718094   -7.2494523    254.02062  0.026931787  0.027270002            4 
  787000   0.94004698    -7.250995    253.80884  0.026875142  0.027250522            2 
  788000   0.94558501   -7.2629395    254.59424  0.026924094  0.027231106            2 
  789000   0.93297656   -7.2506589    254.62291  0.026892999  0.027211906            2 
  790000   0.94876194   -7.2487575    254.94467  0.026892898   0.02719284            1 
  791000   0.92609521   -7.2746098     255.0266  0.026867531   0.02717385            6 
  792000   0.91770273   -7.2712696    255.35745  0.026868419  0.027154901            3 
  793000   0.94066811   -7.2837054     255.5545  0.026855244  0.027135887            1 
  794000   0.93744962   -7.2405684     256.7811  0.026950157  0.027117117            4 
  795000   0.92456095   -7.2659115    256.10159   0.02684503  0.027098583            6 
  796000   0.93649701   -7.2496757    256.36111  0.026838474  0.027080111            1 
  797000   0.93094408   -7.2660227    256.14055  0.026781739  0.027061546            2 
  798000   0.91167039   -7.2733468    256.49678  0.026785378  0.027042874            3 
  799000   0.93313597   -7.3076149    256.34008  0.026735511  0.027024312            6 
  800000    0.9337811   -7.2718753    256.30058  0.026697977  0.027005707            3 
  801000   0.93487514   -7.2877749    256.95855  0.026733099  0.026987242            3 
  802000    0.9354684   -7.2503733    257.79341  0.026786514   0.02696877            6 
  803000    0.9373079   -7.2053198    258.86337  0.026864193  0.026950816            3 
  804000   0.94349007    -7.251581    258.39642  0.026782382  0.026933044            3 
  805000   0.93875454   -7.2641443    258.71795  0.026782397   0.02691517            3 
  806000   0.93826152    -7.266912    258.11593  0.026686924  0.026897005            3 
  807000   0.91121733    -7.242562    258.01585   0.02664352  0.026878757            6 
  808000   0.93142303   -7.2690356    258.52949   0.02666352  0.026860355            3 
  809000   0.92371027   -7.2901728    258.48281  0.026625753  0.026842055            2 
  810000   0.93413011   -7.2470972    258.61734  0.026606723  0.026823653            5 
  811000   0.91355468   -7.3015087    257.87897  0.026498044   0.02680506            3 
  812000   0.92041286   -7.2338532    259.19865  0.026600846  0.026786577            3 
  813000   0.92998852   -7.2709466    258.77092  0.026524284  0.026768103            2 
  814000   0.93677822   -7.2923117    259.44105  0.026560304  0.026749472            2 
  815000   0.91379997   -7.2693441    259.67303  0.026551435  0.026730886            3 
  816000    0.9525217   -7.2886921    259.94349  0.026546516  0.026712451            2 
  817000    0.9150727   -7.2763471    259.63864   0.02648293  0.026693987            1 
  818000   0.93679423   -7.2870374    260.42241  0.026530401  0.026675807            2 
  819000   0.91034329   -7.2652298    260.69299  0.026525538  0.026657636            2 
  820000   0.94303221    -7.299466    260.93767  0.026518056  0.026639507            3 
  821000    0.9288701   -7.2747477     261.4326  0.026535993  0.026621504            2 
  822000   0.89799794   -7.2877969    260.86204  0.026445868  0.026603366            4 
  823000   0.95445172   -7.3082835    260.14133  0.026340758   0.02658505            3 
  824000    0.9227915   -7.2965737    260.97139  0.026392737  0.026566836            2 
  825000   0.93899798   -7.3008659    260.94414  0.026357994  0.026548362            2 
  826000   0.93821956   -7.2969077    260.53632   0.02628494   0.02652989            6 
  827000   0.92135589   -7.3247179    260.80617  0.026280347  0.026511479            2 
  828000   0.92917851   -7.3314889    261.63632  0.026332158  0.026493362            2 
  829000    0.9227096   -7.3028812    262.03008  0.026339976  0.026475236            2 
  830000   0.90956377   -7.3091129    261.51119  0.026256143  0.026456896            3 
  831000    0.9114545   -7.3362148    261.55273  0.026228714  0.026438616            3 
  832000   0.92657484   -7.2932467    262.02777  0.026244768  0.026420239            2 
  833000   0.91756985   -7.3349605    262.13463  0.026223953   0.02640193            5 
  834000   0.90421327   -7.3109239    262.50319  0.026229336  0.026383723            2 
  835000   0.92753672   -7.3292505    262.15155   0.02616283    0.0263658            2 
  836000   0.91324958   -7.2960645     262.7672  0.026192903  0.026347737            5 
  837000   0.91347493   -7.2765047    263.23842  0.026208525  0.026330002            2 
  838000   0.92153749   -7.3045702    263.82121  0.026235204  0.026312279            4 
  839000   0.91238401   -7.3003987    263.88239   0.02621001  0.026294523            2 
  840000   0.91358297   -7.3081614    264.39503  0.026229666  0.026277102            1 
  841000   0.93053405   -7.3259681    264.62758   0.02622152  0.026259566            2 
  842000   0.90856786   -7.2950164    265.04625  0.026231814  0.026242074            3 
  843000   0.90919776   -7.3444434    264.48057  0.026144778  0.026224711            5 
  844000   0.90256815   -7.3320483    265.15457  0.026180349  0.026207313            3 
  845000   0.93537801   -7.2830731    265.62471   0.02619573  0.026190245            2 
  846000   0.90507095   -7.3178703    264.70091  0.026073769  0.026172922            3 
  847000   0.90458566   -7.3181167    265.28304   0.02610026  0.026155597            2 
  848000   0.92099401   -7.3008917    265.44268  0.026085169  0.026138327            2 
  849000   0.91136788     -7.29606    266.28001  0.026136632  0.026121152            2 
  850000   0.92688696   -7.3140718    265.95357  0.026073879  0.026104133            3 
  851000    0.9149671   -7.3142664    266.47089  0.026093898  0.026086814            2 
  852000    0.9108709   -7.3022409     266.0325  0.026020393  0.026069655            4 
  853000   0.91439428    -7.327511    266.43784  0.026029488  0.026052445            4 
  854000    0.9098665   -7.3217873    266.72521   0.02602705  0.026035362            3 
  855000   0.90663548    -7.333789    267.06853  0.026030071   0.02601828            3 
  856000   0.92288891   -7.3307319    265.97714  0.025893413  0.026001192            3 
  857000   0.91568067    -7.291903    267.45491  0.026006895  0.025984079            6 
  858000   0.90330441    -7.302999    267.09448  0.025941577  0.025967072            2 
  859000   0.91164253   -7.3133025    267.43237  0.025944157  0.025949962            3 
  860000   0.91714911   -7.3273121    266.77914  0.025850692  0.025932719            4 
  861000   0.92897121   -7.3285002    267.42622  0.025883296  0.025915361            2 
  862000   0.90525348    -7.322955    267.04854  0.025816758  0.025898012            4 
  863000   0.90763672   -7.3554819    267.17387  0.025798945   0.02588061            2 
  864000   0.93297512   -7.3484892    267.65522  0.025815511  0.025863213            2 
  865000   0.90320261   -7.3113232     268.1245  0.025830876  0.025845954            1 
  866000    0.9159237   -7.3422894    268.06456  0.025795281  0.025828677            1 
  867000   0.91815369   -7.2898637    268.05575  0.025764682  0.025811577            3 
  868000   0.90379506    -7.331033    267.53198  0.025684714  0.025794225            5 
  869000   0.92114046   -7.3538594    268.52867  0.025750735  0.025776832            4 
  870000   0.90848063   -7.3534377    267.93712  0.025664475  0.025759388            3 
  871000   0.89939488   -7.3166695    268.65124  0.025703334  0.025742028            3 
  872000   0.89567689   -7.3058385    268.60859  0.025669781  0.025724748            5 
  873000    0.9107686    -7.306982    268.97941  0.025675774  0.025707676            1 
  874000   0.88773184   -7.3589345     268.9286  0.025641552  0.025690135            4 
  875000   0.90729125   -7.3435912    269.16569  0.025634827  0.025672592            2 
  876000   0.89275896   -7.3712589    268.23514  0.025517041  0.025655026            4 
  877000    0.9060609   -7.3289808    268.93661    0.0255546  0.025637263            2 
  878000   0.92196288   -7.3613541     268.7318  0.025506055  0.025619641            5 
  879000   0.89953078   -7.3563511     269.3486  0.025535514  0.025602194            3 
  880000   0.91172125   -7.3485846    269.60596  0.025530867  0.025584869            3 
  881000    0.9006524   -7.3380794    270.09641   0.02554828   0.02556767            3 
  882000   0.89230819   -7.3629724     270.4774   0.02555531  0.025550506            9 
  883000   0.89319251   -7.3820051    270.24218  0.025504169  0.025533168            3 
  884000    0.9050095    -7.339435    270.32023  0.025482676  0.025515976            2 
  885000   0.89483695   -7.3453972    270.78415  0.025497566   0.02549892            3 
  886000   0.88286639   -7.3559725      270.854  0.025475357  0.025481916            2 
  887000   0.90849717   -7.3546448    271.26863  0.025485591  0.025464751            2 
  888000   0.88886364   -7.4052497    270.70615  0.025404106  0.025447453            3 
  889000   0.90806328   -7.3549303    270.24534  0.025332334  0.025430168            2 
  890000   0.89999662   -7.3640096    271.54782  0.025425826  0.025412908            4 
  891000   0.90207932   -7.3591481    271.24429  0.025368901  0.025395774            3 
  892000   0.91927617   -7.3562041    271.03834  0.025321221  0.025378517            5 
  893000   0.89336331   -7.3522052    271.07322  0.025296119  0.025361179            3 
  894000   0.88201213   -7.3251639    271.46632  0.025304467  0.025343785            2 
  895000   0.88425833   -7.3830605    271.50212  0.025279527  0.025326552            3 
  896000   0.91344875   -7.3737143    271.45328  0.025246771  0.025309203            3 
  897000   0.90311101   -7.3453475    271.93388  0.025263274  0.025291983            3 
  898000   0.90440392   -7.3336392    272.48326  0.025286123  0.025274669            4 
  899000   0.91710976   -7.3702924    272.44782  0.025254711  0.025257299            5 
  900000   0.88929021   -7.3619712    272.03172  0.025188122   0.02524002            2 
  901000   0.88206111   -7.3615966    272.11366  0.025167745  0.025222799            3 
  902000   0.89138507   -7.3326613    272.91036  0.025213447  0.025205428            5 
  903000   0.90025978   -7.3562836    272.43476  0.025141635  0.025188381            2 
  904000   0.88760803   -7.3521666    272.98394  0.025164449  0.025171238            2 
  905000   0.88516635   -7.3591078    273.10588  0.025147871  0.025154077            5 
  906000   0.89214803   -7.4190941    272.74335  0.025086768  0.025136723            4 
  907000   0.88467233   -7.3930174    272.69219  0.025054409  0.025119385            2 
  908000   0.90548393   -7.3668975    273.28771  0.025081471  0.025102109            3 
  909000   0.87858955    -7.340368    274.03346  0.025122246  0.025085055            2 
  910000   0.86679252   -7.3835612    273.15935  0.025014593  0.025067958            2 
  911000   0.89196893   -7.3916323    273.76648  0.025042671  0.025050777            3 
  912000   0.87953273   -7.3809962    274.08832   0.02504462  0.025033643            4 
  913000   0.86969698   -7.3591682    274.29159  0.025035742  0.025016701            7 
  914000   0.86997546   -7.3619275    274.56312  0.025033108  0.024999595            2 
  915000   0.87858585   -7.3592881    274.59486  0.025008639  0.024982639            3 
  916000   0.88288236   -7.3777147    274.34709  0.024958796  0.024965713            4 
  917000   0.86685253    -7.383811    274.65061  0.024959161  0.024948591            5 
  918000   0.87000182   -7.4020128    274.24903  0.024895518  0.024931502            2 
  919000   0.87575808   -7.3648102    274.67956  0.024907468  0.024914383            3 
  920000   0.86837846   -7.3451538    275.46934  0.024951933   0.02489758            3 
  921000   0.87700057   -7.3751835    274.64641  0.024850381  0.024880486            4 
  922000   0.87479321   -7.3916234    275.37082  0.024888903  0.024863482            2 
  923000   0.86610843   -7.3705428    275.32547  0.024857843  0.024846488            2 
  924000    0.8877802   -7.3620921     275.5133  0.024847881  0.024829452            3 
  925000   0.88619694   -7.3686965    275.64341   0.02483274  0.024812203            1 
  926000     0.885641   -7.3595626    276.13232  0.024849921     0.024795            3 
  927000   0.87141617   -7.3855957    275.87836  0.024800284  0.024777817            3 
  928000   0.90510862   -7.4006826     274.8504   0.02468125  0.024760448            3 
  929000   0.89932583   -7.4011265    275.48353  0.024711476  0.024743173            2 
  930000   0.89249623   -7.3620257     275.3709  0.024674812  0.024725973            3 
  931000   0.88249695   -7.4271242    275.70846  0.024678523  0.024709023            2 
  932000   0.88427486   -7.3665019    276.99074  0.024766697   0.02469196            1 
  933000   0.88968019      -7.3859     276.0646  0.024657432  0.024675048            4 
  934000   0.88942468   -7.3939681    276.69195  0.024687004  0.024658032            1 
  935000   0.88434347   -7.4370997    276.35587  0.024630648  0.024640928            2 
  936000   0.87586327   -7.3917615    276.61818  0.024627687  0.024623893            5 
  937000   0.86941354   -7.3795354    276.37993  0.024580214  0.024606545            2 
  938000   0.88095216   -7.3950761    276.20113  0.024538125  0.024589246            4 
  939000   0.86059554    -7.398313    276.88291  0.024572499  0.024571748            4 
  940000   0.87539273    -7.385646    276.50744  0.024513071  0.024554323            3 
  941000   0.86226635   -7.4027483    276.69611  0.024503729  0.024536842            1 
  942000   0.87629493   -7.4104018    276.27768    0.0244407  0.024519252            3 
  943000   0.90332994   -7.3956337    276.39782    0.0244254  0.024501907            2 
  944000   0.89573266   -7.4092171    277.20522    0.0244708  0.024484397            3 
  945000   0.88354236   -7.3972224    277.19679  0.024444161  0.024467111            4 
  946000    0.8866565    -7.397068    276.77115  0.024380827  0.024449738            3 
  947000   0.86894398   -7.4048766    277.01002  0.024376102  0.024432316            3 
  948000   0.87767971    -7.444688    276.73929   0.02432659  0.024414845            2 
  949000   0.88819358   -7.4313363    277.29745  0.024349969  0.024397301            1 
  950000   0.87412445    -7.421139    277.49426  0.024341602  0.024379906            2 
  951000   0.86746984   -7.3904914    277.38026  0.024306016  0.024362467            3 
  952000   0.87772605   -7.3934129    277.49164  0.024290234  0.024345139            5 
  953000   0.89330784   -7.4233594    277.09262  0.024229855  0.024327714            4 
  954000   0.86277869    -7.398439    278.89114   0.02436156  0.024310395            5 
  955000   0.88779605   -7.4290532    278.37677  0.024291167  0.024293065            2 
  956000   0.87048236   -7.4175405    277.75443  0.024211509  0.024275623            3 
  957000   0.88656035   -7.4322605     277.6319   0.02417554  0.024258164            2 
  958000   0.87391766   -7.4570112    277.81932  0.024166607  0.024240733            5 
  959000     0.884637   -7.4370182    278.26334  0.024179991  0.024223359            7 
  960000   0.86320299   -7.4202817    278.08379  0.024139218  0.024205754            2 
  961000   0.86365665   -7.4125214    279.48562  0.024235659  0.024188257            2 
  962000   0.86389161   -7.4318722    278.66529  0.024139405  0.024170792            2 
  963000   0.88521709   -7.3948187    279.43109  0.024180607  0.024153529            2 
  964000   0.85473413   -7.4055915    278.84645  0.024104984  0.024136201            2 
  965000   0.89022689   -7.4172987    278.39242  0.024040796  0.024118784            3 
  966000   0.86949281   -7.4673094    278.57754  0.024031879   0.02410131            3 
  967000   0.86713428   -7.4248048    278.31562  0.023984456  0.024083847            2 
  968000     0.866893   -7.4354301    277.94818  0.023928046  0.024066321            2 
  969000   0.86773282   -7.4229492    278.83597  0.023979702  0.024048843            4 
  970000   0.86419816   -7.4025631    279.61776  0.024022145  0.024031504            5 
  971000   0.85285234   -7.4036588    279.52851  0.023989745  0.024014176            3 
  972000   0.86060739   -7.4306187    279.47839  0.023960767  0.023996939            6 
  973000   0.86653946   -7.4076387    280.14236  0.023993008  0.023979725            2 
  974000   0.88597432   -7.4610206    279.46181  0.023910148  0.023962381            6 
  975000    0.8674245   -7.4271063    279.46825  0.023886175  0.023945075            5 
  976000   0.85672652   -7.4430454    279.54089  0.023867904  0.023927644            5 
  977000   0.86746196   -7.4491536    279.20922  0.023815184  0.023910282            4 
  978000   0.83436776   -7.4176617    279.95526  0.023854402  0.023892914            2 
  979000    0.8558411   -7.3935898    280.40022  0.023867911  0.023875595            3 
  980000     0.859406   -7.4539324    279.70515  0.023784452  0.023858327            4 
  981000   0.86735819   -7.4469881    279.36745   0.02373152  0.023841004            3 
  982000   0.86165066   -7.4399387    279.86198  0.023749319  0.023823539            1 
  983000   0.85549006   -7.4374717    280.58662   0.02378659  0.023806149            3 
  984000   0.85901082   -7.4508595     280.0552  0.023717412  0.023788685            3 
  985000   0.84857437   -7.4485869    279.72319  0.023665244  0.023771161            4 
  986000   0.85631956     -7.42336    280.93731  0.023743856  0.023753794            2 
  987000   0.86645597   -7.4278229     281.0525  0.023729525  0.023736576            3 
  988000    0.8480816   -7.4495162    280.45283  0.023654928   0.02371908            2 
  989000   0.84530965   -7.4257986    281.12678  0.023687797  0.023701771            3 
  990000   0.85912518   -7.4349374    280.77697  0.023634425  0.023684287            5 
  991000   0.85331536   -7.4341882    280.37131  0.023576464  0.023666794            3 
  992000   0.85688756   -7.4346781    281.18172  0.023620776  0.023649253            2 
  993000   0.85328462   -7.4540693    280.66881  0.023553945  0.023631721            3 
  994000   0.87944953   -7.4363085    281.14478  0.023570152  0.023614232            5 
  995000   0.84950545   -7.4403171    281.35257  0.023563867   0.02359659            6 
  996000   0.87242377   -7.4617364    280.55765  0.023473699  0.023578848            3 
  997000    0.8576012   -7.4488256    280.71471  0.023463283  0.023560961            2 
  998000   0.84200903   -7.4523057    280.84335  0.023450514  0.023543081            3 
  999000   0.84393805   -7.4511845    281.04727   0.02344405  0.023525311            1 
 1000000    0.8650479   -7.4551177    281.37116  0.023447597  0.023507714            2 
 1001000   0.85569867   -7.4653306    280.43235  0.023346017  0.023490118            4 
 1002000   0.86159934   -7.4878125    281.46791  0.023408842  0.023472408            5 
 1003000   0.84331119   -7.4658297    281.33664  0.023374596  0.023454756            3 
 1004000   0.85470757   -7.4777799     281.7141  0.023382645  0.023437054            2 
 1005000   0.84960435   -7.4371213    281.75404   0.02336269  0.023419314            1 
 1006000   0.84526908   -7.4701172    281.25758  0.023298342  0.023401681            4 
 1007000   0.84851618    -7.458374    281.26799  0.023276067  0.023383906            3 
 1008000   0.86692613      -7.4642    281.72276  0.023290572  0.023366265            3 
 1009000    0.8379444   -7.4432932     282.3668  0.023320681  0.023348642            4 
 1010000   0.86088908   -7.4458828    281.22627  0.023203488  0.023331013            3 
 1011000   0.84357274   -7.4407139    282.91227  0.023319508  0.023313437            3 
 1012000   0.84888219   -7.4651185    283.43744   0.02333971  0.023295923            2 
 1013000   0.85278419   -7.4957227     282.7786  0.023262471  0.023278511            1 
 1014000   0.85374628    -7.491928    283.06685  0.023263219  0.023261141            3 
 1015000   0.84529431   -7.4302093    283.11548  0.023244292  0.023243901            3 
 1016000   0.84769041   -7.4510009     282.7069  0.023187902   0.02322661            5 
 1017000   0.81683532   -7.4481103    283.57015  0.023235836  0.023209335            5 
 1018000   0.84244253   -7.4300101    283.43902  0.023202278  0.023192102            8 
 1019000   0.85573822   -7.4570811    283.83806  0.023212141  0.023174961            3 
 1020000    0.8545734   -7.4830523     283.1026  0.023129298  0.023157744            2 
 1021000    0.8300614   -7.4735796    283.35429  0.023127187  0.023140466            2 
 1022000   0.85360482   -7.5006891    284.08046  0.023163768  0.023123403            3 
 1023000   0.83800643   -7.4480051    284.59638  0.023183152  0.023106311            4 
 1024000   0.84038768   -7.4683355    284.23324   0.02313096  0.023089259            6 
 1025000   0.84177863   -7.4819623     284.2875  0.023112805  0.023072197            3 
 1026000   0.87207851   -7.5102773    283.99739  0.023066714  0.023054999            3 
 1027000   0.84855134   -7.4723872    284.29427  0.023068344  0.023037909            3 
 1028000   0.82839452   -7.4957353    284.70144   0.02307891   0.02302091            2 
 1029000   0.83314507   -7.4979593    284.88944  0.023071707  0.023003939            5 
 1030000   0.83785848   -7.4829769    285.25413  0.023078813  0.022987025            5 
 1031000   0.84919712   -7.4593554     284.9993  0.023035831  0.022970257            6 
 1032000   0.82897271   -7.4942538    285.18277  0.023028324  0.022953483            2 
 1033000   0.83717059   -7.5116039    285.15173  0.023003528  0.022936829            5 
 1034000   0.84670183   -7.4962147    286.00602   0.02305013  0.022920201            3 
 1035000   0.85105786      -7.5003    285.87306  0.023017155  0.022903496            5 
 1036000   0.83510702   -7.4776038    286.21828  0.023022706  0.022886928            3 
 1037000   0.83926151   -7.4852179    286.03849  0.022986056  0.022870392            2 
 1038000   0.83133391   -7.4649714    285.65252  0.022932925   0.02285366            3 
 1039000   0.84592735   -7.5017068    285.65638  0.022911163  0.022836941            3 
 1040000   0.84903875   -7.5098647    285.47746  0.022874796  0.022820204            2 
 1041000   0.82648141   -7.4714291    286.20602  0.022911145  0.022803501            3 
 1042000   0.85487466   -7.5063402    286.17263  0.022886487  0.022786879            3 
 1043000   0.86290705   -7.4889984    286.63431  0.022901431   0.02277012            4 
 1044000   0.85298725   -7.5042052    286.34257  0.022856208  0.022753421            5 
 1045000   0.84275791   -7.4954815    286.32381  0.022832839  0.022736774            3 
 1046000    0.8281887   -7.4736526    286.93149  0.022859424  0.022720383            5 
 1047000   0.84651207    -7.495806    286.87056  0.022832741  0.022703982            3 
 1048000     0.860914   -7.4822644    287.39612  0.022852745    0.0226877            2 
 1049000   0.83915197   -7.4827113    287.35346  0.022827571  0.022671332            2 
 1050000   0.84725623   -7.4712298    288.32761  0.022883144  0.022655083            6 
 1051000   0.83428147   -7.4783759    287.87933  0.022825827  0.022638869            2 
 1052000   0.83247749   -7.4698225    287.11848  0.022743859  0.022622665            4 
 1053000   0.82531846   -7.4907884    288.06665  0.022797297  0.022606455            3 
 1054000   0.83724136   -7.4950954    288.15895  0.022782965  0.022590207            3 
 1055000    0.8423882   -7.5304948    287.90148  0.022741033  0.022573946            5 
 1056000     0.840306   -7.4872658    288.29856  0.022750833  0.022557615            4 
 1057000    0.8377983   -7.5061972     287.8382  0.022693015  0.022541352            2 
 1058000   0.82317171   -7.4620216    288.53923  0.022726782  0.022525062            2 
 1059000   0.83368305   -7.4978496    287.92344  0.022656865  0.022508746            2 
 1060000   0.83669215     -7.53718    287.59764  0.022609877  0.022492391            4 
 1061000   0.81127949   -7.5517453    288.17397  0.022633834  0.022475949            3 
 1062000   0.83297263   -7.5567046     288.2678  0.022619884   0.02245961            4 
 1063000   0.83432698    -7.511869    289.06427  0.022661044  0.022443169            4 
 1064000   0.83420065    -7.522291    288.25589  0.022576432   0.02242691            2 
 1065000   0.84176552   -7.5373196    287.62297  0.022505709  0.022410613            3 
 1066000   0.82574622   -7.5488546    288.64161  0.022564228  0.022394224            2 
 1067000   0.81561839   -7.5087706    288.81053  0.022556274  0.022377942            7 
 1068000   0.82109625    -7.520738    289.14713  0.022561418   0.02236175            3 
 1069000   0.82059838   -7.4981303    289.90026  0.022599022  0.022345688            8 
 1070000   0.82900889   -7.5124169     289.5946  0.022554096  0.022329757            5 
 1071000   0.80477994   -7.4936713    289.91214  0.022557745  0.022313798            6 
 1072000   0.81897748   -7.5185824    289.12138  0.022475231  0.022297807            4 
 1073000   0.84031238   -7.4783023    290.52556   0.02256334  0.022281872            2 
 1074000   0.82327215   -7.5057386    289.41007  0.022455778  0.022265845            2 
 1075000   0.81495483   -7.5161287    289.11282  0.022411846  0.022249866            8 
 1076000   0.82537171   -7.5324561    289.16683  0.022395201  0.022233814            3 
 1077000   0.81724357   -7.5353045    289.65208  0.022411953  0.022217747            4 
 1078000   0.80297322   -7.5305177    288.81339  0.022326329  0.022201539            5 
 1079000   0.81866781   -7.5712973    289.04726    0.0223237  0.022185192            7 
 1080000   0.81151978   -7.5186226     289.1168  0.022308395  0.022168921            9 
 1081000   0.83904548   -7.5282125    289.72961  0.022334999  0.022152668            4 
 1082000   0.81034631   -7.5179345    289.88558   0.02232637  0.022136531            2 
 1083000   0.82543058   -7.5384984    290.42975  0.022347626  0.022120466            4 
 1084000    0.8136332   -7.5499167    290.63116  0.022342494  0.022104427            4 
 1085000   0.81236223   -7.5301991    290.20599  0.022289246  0.022088466            6 
 1086000   0.83078902   -7.5195789     289.7781  0.022235888  0.022072399            6 
 1087000   0.83786069   -7.5539164    290.07353  0.022238081  0.022056219            2 
 1088000   0.82403941   -7.5634167    290.37247  0.022240538  0.022040114            1 
 1089000   0.82518394   -7.5485149    290.46042  0.022226846  0.022023999            4 
 1090000   0.82184305   -7.5775445    289.75285  0.022152359  0.022007846            3 
 1091000   0.82677485   -7.5205613    290.32698  0.022175908  0.021991622            6 
 1092000   0.82139598   -7.5350134    290.52715  0.022170876  0.021975444            2 
 1093000   0.81763645    -7.514032    290.96113  0.022183679  0.021959306            2 
 1094000   0.83147515   -7.5289291    289.57916  0.022058132  0.021943102            4 
 1095000   0.81156817   -7.5772347    290.02554  0.022071959  0.021926784            2 
 1096000   0.80984204   -7.5562559    289.90503  0.022042657  0.021910458            4 
 1097000   0.79720859   -7.5723599    290.59943  0.022075314  0.021894105            4 
 1098000   0.81449858   -7.5558425    290.08018    0.0220158  0.021877724            3 
 1099000   0.82110857   -7.5681995    289.06827  0.021919038  0.021861187            4 
 1100000   0.81257422   -7.5249764    290.64221  0.022018349  0.021844773            6 
 1101000   0.79624832   -7.5673908    290.27446  0.021970516  0.021828483            2 
 1102000   0.81722757   -7.5531844    290.68331  0.021981496  0.021812096            2 
 1103000   0.80986551   -7.5339553    291.10715   0.02199359  0.021795732            7 
 1104000   0.82326292   -7.5219508    290.21552  0.021906365  0.021779519            2 
 1105000    0.7992365   -7.5622265    290.37456  0.021898534  0.021763248            3 
 1106000   0.80093943   -7.5707849    290.30125   0.02187321   0.02174685            4 
 1107000    0.8057334   -7.5663429    290.95155  0.021902405   0.02173052            3 
 1108000   0.79380908   -7.5367825    291.57274  0.021929358  0.021714361            5 
 1109000   0.80976514   -7.5319661    291.30392  0.021889384  0.021698325            7 
 1110000   0.81739799   -7.5598859    291.25186  0.021865755  0.021682233            5 
 1111000   0.80236211    -7.557582     291.5211  0.021866269  0.021666029            8 
 1112000   0.80925585   -7.5574304    291.34049   0.02183307  0.021649882            3 
 1113000   0.80678342   -7.5532157     290.8696  0.021778197  0.021633665            4 
 1114000   0.81721592   -7.5771011    290.23046  0.021710836  0.021617564            3 
 1115000   0.83102532   -7.5967352    292.04649  0.021827092   0.02160137            4 
 1116000   0.81834062   -7.5564382    291.88867  0.021795749  0.021585261            3 
 1117000    0.8003059   -7.5433035    291.26978  0.021730064  0.021569158            3 
 1118000   0.81835173    -7.549704    292.32958  0.021789623  0.021553066            3 
 1119000   0.81325219   -7.5724757     291.9694  0.021743328   0.02153693            2 
 1120000   0.80906571   -7.5800367    291.33272  0.021676541  0.021520802            2 
 1121000   0.79711749   -7.5571669     291.3925  0.021661649  0.021504569            2 
 1122000   0.79689038   -7.5759721    291.54448   0.02165363  0.021488259            5 
 1123000   0.82144187   -7.5612608     292.1866  0.021681998  0.021472034            3 
 1124000   0.81155985   -7.5584264    292.07193  0.021654206  0.021455932            3 
 1125000   0.79741585   -7.5532456    291.62321  0.021601719  0.021439712            5 
 1126000   0.78941546   -7.5613578    291.72296  0.021589917  0.021423564            2 
 1127000   0.77450459    -7.558301    292.16829  0.021603689  0.021407324            5 
 1128000   0.79356597   -7.5556276    291.74596  0.021553336  0.021391154            4 
 1129000   0.79201608   -7.5727241    291.89591  0.021545313  0.021374964            1 
 1130000   0.80061177   -7.5801563    291.65366  0.021508382  0.021358907            5 
 1131000   0.81989209   -7.5973317    292.64814  0.021562639  0.021342706            5 
 1132000   0.79429085   -7.5718205    292.19761  0.021510425  0.021326551            4 
 1133000   0.80101064   -7.5683684    292.42296  0.021508014  0.021310415            6 
 1134000   0.81463734   -7.5757869    293.08945  0.021538025  0.021294402            3 
 1135000   0.81565341   -7.5433853     292.7675  0.021495411  0.021278398            4 
 1136000   0.80427914   -7.5706937    293.05727  0.021497746  0.021262421            6 
 1137000   0.81138247   -7.5794165    292.57233  0.021443296  0.021246445            3 
 1138000   0.80255855   -7.5539155    293.39839  0.021484943  0.021230529            4 
 1139000   0.80437347   -7.5750199    292.95843  0.021433891  0.021214609            3 
 1140000   0.80083079   -7.5881366     293.5478  0.021458173  0.021198665            2 
 1141000   0.80862467   -7.5692131    292.87405  0.021390159  0.021182779            3 
 1142000   0.80769109    -7.581097    293.77725  0.021437336  0.021167046            4 
 1143000   0.79367047   -7.5694425    294.08432  0.021440968  0.021151308            2 
 1144000   0.79645755   -7.5741961    294.19783  0.021430495  0.021135586            2 
 1145000   0.82808669   -7.5854898    293.59213  0.021367695  0.021119766            2 
 1146000   0.79940629   -7.5716519    293.26881  0.021325538  0.021104044            2 
 1147000   0.80825317   -7.5722428    293.32969   0.02131137  0.021088188            5 
 1148000   0.80133279   -7.5899759    293.64219   0.02131549  0.021072297            3 
 1149000   0.78338115   -7.5732532    293.69419   0.02130071  0.021056438            3 
 1150000   0.80385625   -7.5756729    294.18324  0.021317626  0.021040614            3 
 1151000   0.78915953   -7.6063201    293.85538  0.021275368  0.021024827            3 
 1152000   0.80657598   -7.6176184    293.78193  0.021251586  0.021009041            2 
 1153000   0.79561105   -7.5967541     293.9008  0.021241746   0.02099325            4 
 1154000   0.77827146   -7.6003823    293.72307  0.021210504  0.020977514            6 
 1155000   0.78427848   -7.5886868    294.24406   0.02122973  0.020961791            3 
 1156000   0.78047225   -7.6127026    293.66017  0.021169274  0.020946131            4 
 1157000   0.80409648   -7.5804457    294.09211  0.021182088   0.02093044            4 
 1158000   0.79495084   -7.6335078    293.90942  0.021150649  0.020914692            6 
 1159000   0.79478028   -7.6102019    294.37248  0.021165694  0.020898927            5 
 1160000   0.78160444   -7.5950359    294.96446  0.021189975  0.020883326            2 
 1161000   0.79399413   -7.5813997    294.80535  0.021160304  0.020867673            2 
 1162000   0.78487125   -7.6100322    294.26283  0.021103187  0.020852054            6 
 1163000   0.77830578   -7.6245244    294.19792   0.02108039  0.020836444            3 
 1164000   0.80672657   -7.6130667    294.71185  0.021099073  0.020820739            3 
 1165000   0.81046932   -7.5928159    294.96548  0.021099105  0.020805139            4 
 1166000   0.77259991     -7.59293    295.21056  0.021098525  0.020789562            3 
 1167000   0.78586261   -7.6236434    294.99957  0.021065379  0.020773929            4 
 1168000   0.78347534   -7.6078149    294.76967  0.021030941  0.020758214            3 
 1169000   0.79100052   -7.6321362    295.21168  0.021044459  0.020742611            3 
 1170000   0.78877879   -7.6338774    295.17023  0.021023521  0.020727037            7 
 1171000   0.76631852   -7.6050848    294.82655   0.02098111  0.020711524            3 
 1172000    0.8007018   -7.5894197    296.22095  0.021062354  0.020696047            5 
 1173000   0.80656533   -7.5945677    295.81191  0.021015339  0.020680557           10 
 1174000   0.79372549   -7.6151726    295.85083  0.021000201  0.020665076            5 
 1175000   0.79225841   -7.5887636    295.53791  0.020960135   0.02064965            2 
 1176000   0.78170671   -7.6126663    296.29154  0.020995716  0.020634263            5 
 1177000   0.79538986   -7.6042982    296.15517  0.020968222   0.02061883            2 
 1178000   0.77774598   -7.5992569    296.05146  0.020943085  0.020603477            3 
 1179000   0.78381939   -7.5759373    296.86712  0.020982974  0.020588188            4 
 1180000    0.7984436   -7.5713306     296.2805  0.020923764  0.020572899            3 
 1181000   0.80152118   -7.5672353    295.94742  0.020882545  0.020557712            5 
 1182000   0.78287922   -7.5733075    296.47902  0.020902356  0.020542399            2 
 1183000    0.7775336    -7.593971    296.28489  0.020871012  0.020527015            7 
 1184000   0.79673391   -7.6090931      295.877  0.020824676  0.020511606            5 
 1185000   0.77540257   -7.6581183    296.25319  0.020833557  0.020496229            3 
 1186000   0.78955714   -7.6203867    295.82813  0.020786125  0.020480847            2 
 1187000   0.76602069    -7.599737    296.49435  0.020815386  0.020465445            3 
 1188000    0.7780059   -7.6260133    296.45753  0.020795281  0.020450033            4 
 1189000    0.7725161   -7.6265775    296.16143  0.020757039  0.020434629            2 
 1190000   0.79070977   -7.6191499     296.2977  0.020749139  0.020419196            4 
 1191000   0.75966527   -7.6517643    296.35204  0.020735519  0.020403803            5 
 1192000   0.77961566   -7.6434715    295.66354   0.02066999  0.020388402            5 
 1193000   0.76782934   -7.6380621    296.45452  0.020707916  0.020372992            3 
 1194000   0.77515937   -7.6577551    296.66396   0.02070519  0.020357603            4 
 1195000   0.77119665   -7.6342088    296.33575  0.020664976  0.020342275            4 
 1196000   0.77122325   -7.6493432    296.80915  0.020680682  0.020326977            4 
 1197000   0.78329189     -7.62929    297.06962  0.020681539  0.020311736            6 
 1198000   0.78019871   -7.6368309    297.02159  0.020660934  0.020296458            6 
 1199000   0.77216336   -7.6215169    296.53116  0.020609616  0.020281238            9 
 1200000   0.76865463   -7.6696126    296.72725  0.020606059  0.020265943            2 
 1201000   0.77247513   -7.6651514    296.22232  0.020553866  0.020250633            2 
 1202000   0.76991706   -7.6457313    296.46426   0.02055354  0.020235344            7 
 1203000   0.78002452   -7.6599853    297.09632  0.020580238  0.020220076            6 
 1204000    0.7767184   -7.6403079     296.9918  0.020555911  0.020204819            2 
 1205000   0.79518472   -7.6372016    297.16037   0.02055051  0.020189629            5 
 1206000   0.76894425   -7.6244742    298.07853  0.020596913  0.020174478            7 
 1207000   0.78390787   -7.6168203    298.27202  0.020593208  0.020159341            6 
 1208000   0.77891283   -7.6601935    297.74743  0.020539972  0.020144166            4 
 1209000   0.76069768   -7.6300716     298.5253  0.020576599  0.020129128            3 
 1210000   0.76906796   -7.6537596    298.41867   0.02055225  0.020114086            3 
 1211000   0.78000894    -7.651391    298.06553  0.020510978  0.020099117            3 
 1212000   0.77067188   -7.6509977    297.69977  0.020468906  0.020084169            2 
 1213000   0.77400212   -7.6428358    298.18109  0.020485099  0.020069205            3 
 1214000   0.76681552   -7.6243091    298.51013  0.020490811   0.02005424            7 
 1215000   0.78037767    -7.612406    298.35326  0.020463186  0.020039299            3 
 1216000   0.75257165    -7.641724     298.9981   0.02049055  0.020024439            8 
 1217000   0.77378568   -7.6370996    298.70246  0.020453469  0.020009618            5 
 1218000   0.75958346   -7.6474423    298.79708   0.02044315  0.019994774            3 
 1219000   0.76964362   -7.6489596    298.51517  0.020407108  0.019979872            5 
 1220000   0.76587886   -7.6567723    298.22277  0.020370408  0.019964965            3 
 1221000   0.75720214   -7.6887273    297.94466  0.020334744  0.019950042            4 
 1222000   0.78841431   -7.6646478    298.12397  0.020330331   0.01993509            2 
 1223000   0.75383073   -7.6780851    298.17739  0.020317347  0.019920102            3 
 1224000   0.76253155   -7.6875422    298.79496  0.020342794  0.019905127            4 
 1225000   0.77340884   -7.6816797    298.84183  0.020329376  0.019890242            5 
 1226000   0.75380326   -7.6669176    298.47284  0.020287713  0.019875293            3 
 1227000   0.75677796   -7.7138085    298.34306  0.020262365   0.01986031            3 
 1228000   0.76990195   -7.6764598    297.91169  0.020216591  0.019845276            5 
 1229000   0.76281008   -7.6861559    297.77382  0.020190794  0.019830267            4 
 1230000   0.75079761   -7.6782997    298.38318  0.020215663  0.019815275            8 
 1231000   0.77224047   -7.6844696    298.93543  0.020236625  0.019800278            6 
 1232000   0.75651048   -7.6619651    298.59418  0.020197117  0.019785346            3 
 1233000    0.7666664   -7.6964385    298.58354  0.020180018   0.01977047            5 
 1234000   0.76289987   -7.6682739    298.59082  0.020164156  0.019755544            4 
 1235000   0.75228969   -7.6616793    298.57684  0.020146885  0.019740654            9 
 1236000   0.76424088   -7.6720879    298.86772  0.020150197  0.019725741            6 
 1237000   0.75185153   -7.6787182    299.02621  0.020144584  0.019710896            4 
 1238000   0.76204817   -7.6846316     298.7312  0.020108455  0.019695977            7 
 1239000   0.76567883   -7.6915827    298.67612   0.02008852  0.019681041            2 
 1240000   0.75457554    -7.681284    299.63621  0.020136842  0.019666145            6 
 1241000   0.75513026   -7.6937709    299.50331  0.020111691  0.019651267            3 
 1242000   0.76955506   -7.6997954    298.81098  0.020049046  0.019636396            3 
 1243000   0.75708209   -7.7018715    298.65184  0.020022247  0.019621565            3 
 1244000   0.75034317   -7.7128165    298.95818  0.020026673  0.019606709            3 
 1245000   0.75638316   -7.6882861    299.67491  0.020058561  0.019591927            4 
 1246000   0.75403528   -7.6970514    299.07847  0.020002573  0.019577061            7 
 1247000   0.77037069   -7.7011126    299.01598  0.019982357  0.019562176            6 
 1248000   0.76068019   -7.7012254    298.82748  0.019953758  0.019547266            4 
 1249000   0.75326851   -7.7000003    298.82635  0.019937707  0.019532367            3 
 1250000    0.7598497   -7.6635389    299.40317  0.019960211  0.019517528            5 
 1251000   0.75768826   -7.7165614    299.73736  0.019966518   0.01950265            5 
 1252000   0.74351015   -7.6985057    299.41337  0.019929005  0.019487796            2 
 1253000    0.7449244   -7.7189261    299.79874   0.01993873  0.019473053            4 
 1254000   0.75117957   -7.7156674    298.83623  0.019858867  0.019458243            3 
 1255000   0.75839904   -7.6629164     299.4194  0.019881766  0.019443444            3 
 1256000    0.7505546   -7.6644085    299.01145   0.01983887  0.019428533            2 
 1257000    0.7409719   -7.6962834    298.89225  0.019815185  0.019413651            4 
 1258000   0.74154123   -7.6821432    299.13053  0.019815218  0.019398757            4 
 1259000   0.75376487   -7.6872195    299.26186  0.019808172  0.019383889            4 
 1260000   0.73430416   -7.6669079    299.13533  0.019784083  0.019369032            7 
 1261000   0.74330434   -7.6549544    299.37069  0.019783947  0.019354289            4 
 1262000   0.72708397   -7.6890221    299.93628  0.019805618   0.01933953            6 
 1263000   0.74431808   -7.6748145    299.39914  0.019754496  0.019324724            6 
 1264000   0.74121973   -7.6757352    299.87698   0.01977037  0.019309975            2 
 1265000   0.75146883   -7.7018681    300.46153   0.01979325  0.019295245            5 
 1266000   0.73964352   -7.6923636     299.1903  0.019693938  0.019280561            3 
 1267000   0.75666478   -7.6762602    300.08703  0.019737374   0.01926582            6 
 1268000   0.74817639   -7.7122717    299.44166  0.019679394  0.019251105            4 
 1269000    0.7335604   -7.6833693     299.3491  0.019657808  0.019236386            3 
 1270000   0.75929598   -7.7082529    299.65312  0.019662278  0.019221697            2 
 1271000   0.73531106   -7.7342915    299.74058  0.019652543  0.019206999            6 
 1272000   0.73210227   -7.7124164    299.58866   0.01962714  0.019192241            8 
 1273000   0.75269793   -7.7025327     300.1489  0.019648396  0.019177556            4 
 1274000   0.73848512   -7.6931336    299.51131  0.019591268  0.019162892            3 
 1275000   0.72651397   -7.6758493    300.04066    0.0196105  0.019148251            3 
 1276000       0.7428   -7.6965466    300.38263  0.019617465  0.019133685            1 
 1277000   0.73450453   -7.6618547    300.26942  0.019594716  0.019119055            4 
 1278000   0.75834466   -7.7138051    299.93416  0.019557522  0.019104417            5 
 1279000   0.73687401    -7.713164    300.65846  0.019589423  0.019089764            4 
 1280000   0.74387593   -7.6911175    300.71574  0.019577847   0.01907517            2 
 1281000   0.73161143   -7.7004248    300.42349  0.019543553  0.019060562            3 
 1282000   0.74534092   -7.7313583    300.16011  0.019511188  0.019045848            7 
 1283000   0.74442203   -7.7388904    300.48346  0.019516983  0.019031145            5 
 1284000   0.75877914   -7.7013506    299.60061  0.019444484  0.019016443            2 
 1285000   0.76123682   -7.6959062    300.20257   0.01946839  0.019001847            6 
 1286000   0.73828869   -7.7173642     299.5867  0.019413342  0.018987218           12 
 1287000   0.73609843   -7.7170881    300.27561  0.019442865  0.018972508            7 
 1288000   0.73241582   -7.7250853    300.28947  0.019428667  0.018957805            2 
 1289000   0.73693979   -7.7262356    300.18216  0.019406656  0.018943133            2 
 1290000   0.73249873   -7.7457224     300.3047  0.019399528  0.018928428            2 
 1291000   0.73638123   -7.7357322    299.74201   0.01934818  0.018913688            3 
 1292000   0.74878385   -7.7523659    299.68334  0.019329421  0.018898923            3 
 1293000   0.71608413   -7.7445217    300.10835  0.019341863  0.018884101            6 
 1294000   0.74497265   -7.7434577    299.57034  0.019292268  0.018869289            3 
 1295000   0.75201469   -7.7307095    299.79083  0.019291559  0.018854432            3 
 1296000   0.74281752   -7.7379826    299.76509  0.019275019  0.018839613            5 
 1297000   0.73695003   -7.7621322    299.77684  0.019260913  0.018824852            5 
 1298000   0.73191763    -7.752029    300.12803   0.01926862  0.018810081            4 
 1299000    0.7267862   -7.7111602    300.10313   0.01925219  0.018795314            3 
 1300000   0.73206042    -7.762094     299.1976  0.019179333  0.018780566            3 
 1301000   0.73058741   -7.7474657    300.30646  0.019235617  0.018765913            5 
 1302000   0.73277213   -7.7328048    300.12347  0.019209131  0.018751252            4 
 1303000   0.73400823   -7.7713613    300.17243  0.019197521  0.018736609           12 
 1304000   0.73343975   -7.7472567    300.49489  0.019203405  0.018721984            4 
 1305000    0.7524357   -7.7147901    300.29519  0.019175938  0.018707419            3 
 1306000   0.74476305   -7.7309229    300.80861  0.019194016  0.018692915            9 
 1307000   0.74549302   -7.7086241    300.94874  0.019188265  0.018678454            3 
 1308000    0.7174288   -7.7042891    300.36018  0.019136097  0.018664001            4 
 1309000   0.71854745    -7.753924    300.58026  0.019135489  0.018649495            2 
 1310000   0.71557222   -7.7504859     301.0351  0.019149816  0.018635031            3 
 1311000   0.71632742   -7.7136164    300.84978  0.019123429  0.018620577            5 
 1312000   0.73072834   -7.7523454     300.1839  0.019066559  0.018606133            3 
 1313000   0.72582034   -7.7464492    301.28106  0.019121672  0.018591711            3 
 1314000   0.75043844   -7.7502107    300.57889  0.019062588  0.018577274            5 
 1315000   0.74351324   -7.7512966    300.60058  0.019049466   0.01856282            8 
 1316000   0.73216253   -7.7284914    300.93126  0.019055931  0.018548396            4 
 1317000   0.71228801   -7.7237659    301.74701  0.019093078     0.018534            6 
 1318000   0.73456156   -7.7241777    301.12597  0.019039325  0.018519602            7 
 1319000   0.73913695    -7.747295    301.05769  0.019020577  0.018505171            8 
 1320000   0.73804101   -7.7634971    301.05246  0.019005837    0.0184908            2 
 1321000   0.72512711    -7.751321    300.37048  0.018948428  0.018476444            5 
 1322000   0.72473111   -7.7431134     301.2202  0.018987658   0.01846207           15 
 1323000   0.72686246   -7.7664236    300.67478  0.018938951  0.018447745            8 
 1324000   0.72426044   -7.7541373    301.01849  0.018946279  0.018433382            6 
 1325000   0.71529098   -7.7516132    301.73235  0.018976877   0.01841902            4 
 1326000   0.72456661   -7.7560587     300.9808  0.018915334  0.018404627            3 
 1327000   0.74012477   -7.7503998    301.02241  0.018903693  0.018390317            5 
 1328000   0.72677102   -7.7466144    301.37918  0.018911846  0.018376016            4 
 1329000     0.716348   -7.7569719    301.46644  0.018903088  0.018361715            3 
 1330000   0.72935126   -7.7605095    301.28373  0.018877427  0.018347432            7 
 1331000   0.72626773   -7.7551461    300.64663  0.018823355  0.018333131            3 
 1332000   0.71817665   -7.7394391    301.74009  0.018877633  0.018318826            4 
 1333000   0.71858938     -7.73753    302.34997  0.018901599  0.018304591            5 
 1334000   0.71169641   -7.7622822    300.94291  0.018799532  0.018290306            3 
 1335000   0.72408094    -7.767416    301.44639  0.018816878  0.018276084            3 
 1336000    0.7210175   -7.7475469    300.66138  0.018753829  0.018261786            3 
 1337000   0.71646022   -7.7632437    300.92952  0.018756515  0.018247472            5 
 1338000   0.70387326   -7.7626549    300.96529  0.018744724   0.01823314            4 
 1339000     0.720193   -7.7605567     301.4285  0.018759553  0.018218847            2 
 1340000   0.72381168   -7.7635923    301.27469  0.018735988  0.018204577            3 
 1341000   0.71714807   -7.7556678     301.5378  0.018738367  0.018190354            3 
 1342000   0.71094912   -7.7772921    301.08893  0.018696531  0.018176149            3 
 1343000    0.7224473   -7.7641527    300.81689  0.018665729  0.018161889            4 
 1344000   0.70967819   -7.7724565    301.11203  0.018670141  0.018147597            6 
 1345000   0.71892286   -7.7938059    300.90871  0.018643662  0.018133261            8 
 1346000    0.7171057   -7.7700561    300.80103  0.018623145  0.018118928            3 
 1347000   0.71342031   -7.7928118    300.96171   0.01861926  0.018104566            5 
 1348000   0.70340697   -7.7585993    301.08538  0.018613092  0.018090223            5 
 1349000   0.71425656   -7.7778359    301.24521  0.018609168  0.018075934            5 
 1350000   0.71596575    -7.807068    301.04343  0.018582928  0.018061662            4 
 1351000   0.71317351   -7.8005729    300.80023  0.018554171  0.018047345            4 
 1352000   0.72083676   -7.8051177    301.20963  0.018565682  0.018032996            4 
 1353000   0.70013849   -7.8049434    300.98954  0.018538405  0.018018619            3 
 1354000   0.71115298   -7.7928004    301.17622  0.018536203  0.018004296            9 
 1355000    0.7132377   -7.8128734    301.04733  0.018514596  0.017989973            4 
 1356000   0.71304015   -7.7933357    301.81877  0.018548351  0.017975738            4 
 1357000   0.69891021   -7.7647551    301.55325  0.018518377  0.017961573            3 
 1358000    0.7066598   -7.7888308     301.2623  0.018486886  0.017947405            3 
 1359000   0.71096631   -7.7802945     301.6496  0.018497032  0.017933244            3 
 1360000   0.72367512   -7.8059193    301.21718  0.018456935  0.017919085            3 
 1361000   0.70755304    -7.798833    301.16337  0.018440079  0.017904923            2 
 1362000   0.70312626   -7.7786926    301.48434  0.018446178  0.017890746            8 
 1363000    0.7062811   -7.8101221    301.58132  0.018438574  0.017876604            5 
 1364000   0.70974072   -7.7640711     301.8675   0.01844254  0.017862545            3 
 1365000   0.70060288   -7.7935266     302.2685  0.018453511  0.017848534            3 
 1366000   0.68943756   -7.7983264    302.12906  0.018431494  0.017834539            2 
 1367000   0.70179969   -7.8073335    302.49183  0.018440126  0.017820527            7 
 1368000    0.7041271   -7.7920102    302.24645  0.018411699  0.017806574            6 
 1369000   0.68809416   -7.7972794    302.11799   0.01839043  0.017792624            4 
 1370000   0.70148222   -7.7864617    302.41032  0.018394788  0.017778694            6 
 1371000   0.71073309   -7.7858267    302.26453   0.01837251  0.017764772            5 
 1372000   0.69896654   -7.8137283     302.1228   0.01835051    0.0177508            3 
 1373000   0.70395819   -7.7796241    302.15426  0.018339055  0.017736874            3 
 1374000   0.70094976   -7.7776311    302.50804  0.018347164  0.017722955            3 
 1375000   0.71470121   -7.8111833    302.22781  0.018316837  0.017709069            3 
 1376000   0.71013601   -7.7655363    301.93336  0.018285693   0.01769523            7 
 1377000   0.70136041   -7.7906783    302.59065  0.018312191  0.017681368            3 
 1378000   0.70182336   -7.7922491    301.73458  0.018247132  0.017667467            3 
 1379000   0.69933903   -7.8067046    301.75606  0.018235198  0.017653587            6 
 1380000   0.69297368   -7.7783299    302.71434  0.018279852  0.017639737            6 
 1381000   0.71188886   -7.8108229    302.73456  0.018267835  0.017625876            5 
 1382000   0.71062451   -7.7915967    302.28432  0.018227468  0.017612014            5 
 1383000   0.67931337   -7.8091813    302.14066  0.018205632  0.017598188            3 
 1384000   0.70128513   -7.7901738    302.49873  0.018214037  0.017584377            4 
 1385000   0.71244726   -7.8189123    302.08219  0.018175824  0.017570633            6 
 1386000   0.71142687   -7.8024309    302.10535  0.018164102  0.017556822            5 
 1387000   0.70213217   -7.8088538    302.64246  0.018183277  0.017543055            3 
 1388000   0.70278684   -7.8166832    302.79758   0.01817949  0.017529314            2 
 1389000   0.69954799   -7.7899459     302.3052  0.018136861  0.017515595            4 
 1390000   0.70062654   -7.8159697    302.15271  0.018114671  0.017501841            6 
 1391000   0.69583079   -7.8259163    302.00837  0.018093001  0.017488087            2 
 1392000    0.6954296   -7.8292601    302.43164  0.018105343  0.017474328            2 
 1393000   0.68651765   -7.8095265    302.66558   0.01810634   0.01746054            4 
 1394000   0.68468519   -7.8282127    301.51333   0.01802447  0.017446726            5 
 1395000   0.70730849   -7.8375292    302.65327  0.018079646  0.017432929            4 
 1396000    0.6855144   -7.8205049    302.41572  0.018052514  0.017419188            9 
 1397000   0.68877698    -7.819302     302.6563  0.018053943  0.017405426           10 
 1398000   0.69101366   -7.8315676    302.58139  0.018036563  0.017391684            5 
 1399000   0.70471201   -7.8284693    301.83835  0.017979411  0.017377954            4 
 1400000   0.69551783   -7.8121128    302.07388  0.017980588  0.017364233            7 
 1401000   0.69308055   -7.8207135    302.55446  0.017996339  0.017350524            5 
 1402000   0.68861489   -7.8285222    302.46143  0.017977973  0.017336876            4 
 1403000   0.68593822   -7.8143937    302.52779  0.017969101  0.017323205            3 
 1404000   0.69488461   -7.8146057    302.65782  0.017964021  0.017309486            7 
 1405000   0.68482287    -7.843283    302.14833  0.017921016  0.017295788            6 
 1406000   0.68679411   -7.8265069    302.49623   0.01792889  0.017282103            3 
 1407000    0.6911217   -7.8484692    303.13868  0.017954198  0.017268381            3 
 1408000   0.71091039   -7.7950776    302.25785  0.017889314  0.017254712            4 
 1409000   0.69553042    -7.843373    302.59555   0.01789659  0.017241037            5 
 1410000   0.68577205   -7.8416777    302.38534  0.017871474  0.017227359            4 
 1411000    0.6897822   -7.8210202    302.12653  0.017843523  0.017213674            4 
 1412000   0.69473776    -7.839556    302.82204  0.017871934  0.017200049            4 
 1413000   0.70280333   -7.8444594    302.36118  0.017832105  0.017186496            2 
 1414000   0.69600673    -7.817502    302.33458  0.017817926  0.017172934            3 
 1415000   0.69612777   -7.8327842    302.45814  0.017812612  0.017159419            7 
 1416000   0.70010302   -7.8243883    302.44096  0.017799021  0.017145839            5 
 1417000   0.69324575   -7.8316024    302.53086  0.017791746  0.017132278            5 
 1418000   0.67685134   -7.8508014    302.71228  0.017789861  0.017118744            4 
 1419000   0.68672263   -7.8603403    302.94817  0.017791177  0.017105243            2 
 1420000   0.69647291   -7.8372402    303.15762   0.01779094  0.017091786            8 
 1421000   0.68462461   -7.8586281    302.64193  0.017748178  0.017078274           10 
 1422000   0.68719811   -7.8639812    302.30955  0.017716218  0.017064761            3 
 1423000   0.69118244   -7.8317793    303.35371  0.017764916  0.017051298            3 
 1424000   0.68788507    -7.848924    303.26772  0.017747409  0.017037817            2 
 1425000   0.67419495   -7.8537952    302.57945  0.017694705  0.017024385            1 
 1426000   0.69834127    -7.856745    303.07246  0.017711107  0.017010907            3 
 1427000   0.68330982   -7.8565315    302.24862  0.017650585  0.016997417            8 
 1428000   0.68125546    -7.832605    301.82635  0.017613582  0.016983932            5 
 1429000   0.68020597   -7.8581631     302.5744   0.01764488  0.016970377            2 
 1430000   0.69805617   -7.8564992     301.9042  0.017593485  0.016956839            4 
 1431000   0.67774169    -7.858336    302.51047  0.017616496  0.016943303           10 
 1432000   0.68152418   -7.8459107    302.85855   0.01762445  0.016929799            4 
 1433000   0.68865516   -7.8584033    302.60226  0.017597247  0.016916302            3 
 1434000   0.67508679    -7.870967    302.33252    0.0175693  0.016902761            7 
 1435000   0.68881467   -7.8690817    302.06304  0.017541407  0.016889195            3 
 1436000   0.67175686   -7.8782521    301.73867  0.017510369  0.016875687            6 
 1437000   0.65650964   -7.8777729    302.18011  0.017523783  0.016862146            4 
 1438000   0.67102092   -7.8732619    302.33834  0.017520766  0.016848662            3 
 1439000   0.68400219    -7.879501    302.13622  0.017496886  0.016835166            6 
 1440000   0.66782152   -7.8519431    302.52515  0.017507243  0.016821701            6 
 1441000   0.67189011   -7.8537324    302.10539  0.017470818   0.01680822            5 
 1442000   0.67693105   -7.8890348    302.32371  0.017471319  0.016794749            3 
 1443000   0.68719442   -7.8627752    302.46098  0.017467139   0.01678127            4 
 1444000   0.68072304   -7.8809123     302.8409  0.017476968  0.016767838            3 
 1445000   0.66933445   -7.8625257     302.2868  0.017432918  0.016754409            4 
 1446000   0.67098907   -7.8643225    302.74594  0.017447322  0.016740972            4 
 1447000   0.66197179   -7.8906276    302.02606  0.017393807  0.016727559            5 
 1448000   0.68056483   -7.8667413    302.80344  0.017426533  0.016714165            3 
 1449000   0.66034346   -7.8662925    302.62096  0.017404012  0.016700797            3 
 1450000   0.69091783    -7.867766    302.06901  0.017360288  0.016687415            3 
 1451000   0.67658133   -7.8560717    302.87335  0.017394518  0.016674048            4 
 1452000   0.67424513   -7.8815893    302.77806  0.017377069   0.01666072            2 
 1453000   0.66070292   -7.8881112    302.62903  0.017356563  0.016647387            5 
 1454000   0.68055735   -7.8885007    302.76688  0.017352527  0.016634043            4 
 1455000   0.67025592   -7.8712131    302.61549   0.01733193  0.016620702            3 
 1456000   0.66908534   -7.9044129    302.43061  0.017309444  0.016607395            2 
 1457000   0.66880967   -7.8994885     302.8274  0.017320258  0.016594086            2 
 1458000   0.68675907   -7.8949724    302.31983  0.017279369  0.016580789            3 
 1459000   0.68090695   -7.8842748    302.58254   0.01728253  0.016567497            5 
 1460000    0.6719108   -7.8904514    302.49271  0.017265566  0.016554267            8 
 1461000   0.66594508    -7.897276    303.32591  0.017301273  0.016541014            3 
 1462000   0.68213252   -7.9044272    302.79856   0.01725938  0.016527749            3 
 1463000   0.66234674   -7.8912859     302.5642  0.017234234  0.016514506            5 
 1464000   0.65520828   -7.8680964    302.17172  0.017200121  0.016501264            2 
 1465000   0.64461283   -7.9033904    302.53073  0.017208802  0.016488047            6 
 1466000   0.67096789   -7.9049991    303.16852  0.017233318  0.016474811            3 
 1467000   0.67609819   -7.8738536    302.53499  0.017185582  0.016461585            2 
 1468000   0.66381606   -7.9047395    302.86878  0.017192824  0.016448375            3 
 1469000   0.67664949   -7.8942497    302.64071  0.017168182  0.016435192            2 
 1470000   0.65233887   -7.8921206    303.03968   0.01717912  0.016422027            3 
 1471000    0.6807867    -7.860242    303.26799  0.017180375   0.01640891            6 
 1472000   0.63236047   -7.8694984     303.7079  0.017193608  0.016395858            4 
 1473000   0.68208406   -7.8601901    303.12583  0.017149006  0.016382809            3 
 1474000   0.65519035   -7.8926798     302.8258  0.017120409  0.016369775            4 
 1475000   0.64960609   -7.9043021    302.78618  0.017106564  0.016356718            3 
 1476000   0.65837694   -7.8811692    303.30604  0.017124325  0.016343691            4 
 1477000   0.66560477   -7.8823761    303.51776  0.017124676  0.016330687            3 
 1478000   0.65723105   -7.8843051     302.5986  0.017061265  0.016317701            6 
 1479000    0.6715375   -7.8625182    303.02162  0.017073565  0.016304728            4 
 1480000   0.65681221   -7.8877255    303.36384  0.017081297  0.016291743            4 
 1481000   0.65785166    -7.891652    303.03802   0.01705143  0.016278785            4 
 1482000   0.66937466   -7.8854074    303.57633  0.017070194  0.016265896            5 
 1483000    0.6619028    -7.897946     303.6558  0.017063149  0.016253033            3 
 1484000   0.66155306    -7.900827    303.28766  0.017030978  0.016240115            2 
 1485000   0.65019496   -7.8690296    303.22469  0.017015976   0.01622723            4 
 1486000   0.65566205    -7.907981    303.45917  0.017017675  0.016214315            4 
 1487000   0.67150324    -7.883273    303.53563  0.017010515  0.016201404            4 
 1488000   0.65535461   -7.8998078    303.59094   0.01700218  0.016188461            4 
 1489000   0.65320284   -7.8971441    302.95061  0.016954926  0.016175558            2 
 1490000   0.67199006   -7.8902777    303.21184  0.016958156  0.016162668            7 
 1491000    0.6603803   -7.9048155    303.09744  0.016940389  0.016149782            5 
 1492000   0.66137671   -7.9080749    303.19809  0.016934657  0.016136924            4 
 1493000   0.65379394   -7.8950124    303.73444  0.016953251  0.016124039            3 
 1494000   0.66704726   -7.9220623    303.03573   0.01690293  0.016111162            3 
 1495000   0.65235839   -7.9232404    302.81952  0.016879572  0.016098246            5 
 1496000   0.64584356   -7.9116783    303.17251  0.016887952  0.016085255            3 
 1497000   0.65489459   -7.9102533    302.37793  0.016832439  0.016072315            3 
 1498000    0.6482194   -7.9306844    302.97265  0.016854286  0.016059375            6 
 1499000   0.64557984   -7.9415321    302.38265  0.016810243  0.016046457           10 
 1500000   0.66412723   -7.9126517    303.48346  0.016860192  0.016033536            3 
 1501000   0.64924559   -7.9219205    303.37896  0.016843158  0.016020662            3 
 1502000   0.64170747   -7.9387505    303.28048   0.01682648  0.016007796            3 
 1503000   0.65937817   -7.8984433    302.57138  0.016775969  0.015994915           11 
 1504000   0.64502076   -7.9326039    302.55176  0.016763728  0.015982037            7 
 1505000   0.66165729   -7.9285077     302.4114  0.016744817  0.015969159            3 
 1506000    0.6548646   -7.8933485    302.58976  0.016743568  0.015956371            6 
 1507000   0.65130979   -7.9322291    303.11848  0.016761694   0.01594355            5 
 1508000    0.6580076    -7.916953    303.48341  0.016770745  0.015930692            6 
 1509000   0.67392521   -7.9181898    302.84708  0.016724491   0.01591785            2 
 1510000   0.64468601   -7.9309786    302.72919  0.016706909  0.015905027            5 
 1511000   0.65936108   -7.9395579    302.84875  0.016702446  0.015892172            4 
 1512000   0.64918219   -7.9441177    302.78865  0.016688087  0.015879352            4 
 1513000   0.64735277   -7.9490716     302.8294  0.016679302  0.015866538            4 
 1514000   0.66088333   -7.9550928    303.07807  0.016681972  0.015853762           10 
 1515000   0.66032609   -7.9445254    303.56269  0.016697618  0.015841004            4 
 1516000    0.6428184   -7.9376863    302.49134  0.016627712  0.015828263            3 
 1517000   0.64694996   -7.9311668    302.81104  0.016634313  0.015815519            3 
 1518000   0.65051671   -7.9173623    303.00483  0.016633994  0.015802765           10 
 1519000   0.64910287   -7.9343567    302.67412    0.0166049      0.01579            5 
 1520000    0.6465806   -7.9408086    302.03966  0.016559192  0.015777237            5 
 1521000    0.6481775   -7.9629534     303.3459  0.016619872    0.0157645           16 
 1522000   0.64308529   -7.9374007     303.0387  0.016592132   0.01575177            8 
 1523000   0.64283721   -7.9821893     302.2541  0.016538307  0.015739047            4 
 1524000   0.64412203   -7.9601591    302.87906  0.016561628  0.015726332            5 
 1525000    0.6228537   -7.9466095    302.58639  0.016534775  0.015713638            5 
 1526000    0.6565211   -7.9350677    302.53742  0.016521266  0.015700933            3 
 1527000   0.64653032   -7.9335124    303.43489  0.016559424   0.01568825            5 
 1528000    0.6379565   -7.9330576    302.99979  0.016524857  0.015675575            4 
 1529000   0.66094195   -7.9391828    303.13994  0.016521689  0.015662912            7 
 1530000   0.63781193   -7.9121583    303.21144  0.016514784  0.015650283            4 
 1531000    0.6534393   -7.9438678    302.07451  0.016442114  0.015637608            5 
 1532000   0.64333091   -7.9466361    302.62598  0.016461379  0.015624956           11 
 1533000   0.65252726   -7.9594637    302.40632  0.016438699  0.015612272            4 
 1534000   0.63933177   -7.9399536    302.47418   0.01643167  0.015599618            5 
 1535000   0.63636094   -7.9745321    302.71808  0.016434206  0.015587014            3 
 1536000    0.6351978   -7.9370657    303.10593  0.016444549  0.015574446            4 
 1537000   0.64750971   -7.9593939    302.96417  0.016426164  0.015561845            5 
 1538000   0.64104907   -7.9446212    302.48786  0.016389676  0.015549244            7 
 1539000   0.64981301   -7.9662076     302.6988  0.016390448  0.015536644           13 
 1540000   0.64051347   -7.9568581    302.08542  0.016346614  0.015524034            2 
 1541000   0.65075537   -7.9458506    303.29105  0.016401203  0.015511463            6 
 1542000   0.63427215   -7.9653299    303.00326  0.016375014  0.015498875            3 
 1543000   0.62970617   -7.9840163    302.59424  0.016342311  0.015486284            3 
 1544000   0.63764841   -7.9618577    303.35563  0.016372821  0.015473723            4 
 1545000   0.63889296   -7.9796408    302.56623  0.016319646  0.015461151            3 
 1546000   0.62084072   -7.9828666    302.26633  0.016292924  0.015448571            5 
 1547000    0.6315059   -7.9752475    302.00836  0.016268496  0.015436022            5 
 1548000   0.62466073   -7.9570738     302.6806  0.016294175  0.015423483            3 
 1549000   0.62564764   -7.9713593    303.04244  0.016303122  0.015410935            6 
 1550000   0.64429356   -7.9708292     302.4195  0.016259113   0.01539841            4 
 1551000    0.6297349   -7.9416412    302.58818  0.016257693  0.015385887            3 
 1552000   0.63914251   -7.9628936    302.34549  0.016234187  0.015373371            5 
 1553000   0.63823228    -7.993104    302.23079  0.016217578  0.015360864            4 
 1554000   0.62867905   -7.9659543    302.14057  0.016202304   0.01534834            3 
 1555000   0.62968655   -7.9630238    302.46411  0.016209223  0.015335827            3 
 1556000   0.64582272   -7.9817937    302.91546  0.016222979  0.015323354            8 
 1557000    0.6420399   -7.9706944    302.47271  0.016188863  0.015310882            4 
 1558000   0.62312767    -7.974077     302.4851  0.016179135  0.015298405            5 
 1559000    0.6351684   -7.9913461    302.30781   0.01615928  0.015285965            5 
 1560000   0.63245342   -7.9989776    302.54371  0.016161523  0.015273521            4 
 1561000   0.62448711   -8.0003987    303.06916   0.01617922  0.015261087            5 
 1562000   0.62960295    -7.980848     302.7747  0.016153153  0.015248669            4 
 1563000   0.61815947   -7.9857767    301.96589  0.016099695  0.015236259           10 
 1564000   0.62516623   -7.9798484    302.21893  0.016102884  0.015223856            6 
 1565000   0.62660663   -7.9786863    301.84743  0.016072813  0.015211469            3 
 1566000   0.64269499   -8.0015343    303.10702  0.016129578  0.015199078            7 
 1567000   0.60933241   -7.9970171    302.58835  0.016091701  0.015186723            3 
 1568000   0.62136584   -7.9924161    302.42972  0.016073008  0.015174369            2 
 1569000   0.62571826   -7.9729846    302.52093  0.016067609  0.015162037            3 
 1570000   0.62854624    -7.976602    302.62007  0.016062637  0.015149719            5 
 1571000   0.63297824   -7.9849454    302.74348  0.016058958  0.015137415            6 
 1572000   0.62720374   -7.9576411    302.61896  0.016042142  0.015125125            7 
 1573000   0.63832895   -8.0053646    303.05232  0.016054901  0.015112847            6 
 1574000   0.63080093    -7.976957     303.2228  0.016053727  0.015100585            3 
 1575000   0.62664334   -7.9842341    302.75002   0.01601852  0.015088336            5 
 1576000   0.62230644   -7.9910545    302.77599  0.016009729  0.015076096            3 
 1577000   0.63039635   -8.0036859    302.30413  0.015974642  0.015063864            3 
 1578000   0.62180371   -7.9979378     302.1477  0.015956258  0.015051618            3 
 1579000   0.63243849   -8.0001049    302.54463  0.015967101  0.015039391            4 
 1580000   0.62708436   -7.9687381    302.75112  0.015967886  0.015027132            7 
 1581000    0.6209414   -8.0134982    302.41582  0.015940113  0.015014896            3 
 1582000    0.6280667   -8.0019788    302.46303  0.015932524  0.015002648            2 
 1583000   0.62642886   -7.9889777      302.037  0.015900031  0.014990455            5 
 1584000    0.6245131   -7.9943248    302.75209  0.015927614  0.014978279            2 
 1585000   0.61024279   -8.0110952    302.69441  0.015914533  0.014966106            2 
 1586000   0.60977378   -7.9756275    303.31672  0.015937196  0.014953947            2 
 1587000   0.61541304   -7.9910884    302.45568  0.015881941  0.014941807            6 
 1588000   0.62457685   -8.0031244    302.22128  0.015859639  0.014929656            2 
 1589000   0.62147204   -8.0041226    302.11153  0.015843902  0.014917532            3 
 1590000   0.61237275   -7.9913133    302.01553  0.015828906  0.014905394            8 
 1591000   0.62187308   -7.9767088    302.41342  0.015839798  0.014893254            4 
 1592000   0.61974093    -8.012727    302.40584  0.015829451  0.014881128           10 
 1593000   0.62803953   -8.0037332    303.08182  0.015854877  0.014869021            5 
 1594000   0.61926627   -8.0038748    302.70214   0.01582508  0.014856917           10 
 1595000   0.61892934   -8.0028134    302.31655  0.015795013    0.0148448            4 
 1596000   0.61545422    -8.029689    302.42296  0.015790672  0.014832692            1 
 1597000   0.62392175   -8.0157039    302.52977  0.015786358  0.014820605            5 
 1598000   0.59359384   -8.0287249    302.01843  0.015749814  0.014808529            5 
 1599000    0.6222857   -8.0048719    302.70508  0.015775749  0.014796449            4 
 1600000   0.62324081   -8.0187181    302.33072  0.015746391  0.014784357            7 
 1601000   0.59907034   -8.0024774      302.345    0.0157373  0.014772281            4 
 1602000   0.60776445   -8.0183954    302.51112  0.015736117   0.01476022            9 
 1603000   0.62074542   -8.0128043    302.25588  0.015713032  0.014748163            5 
 1604000   0.60662319   -7.9981261    301.94228  0.015686943  0.014736111            9 
 1605000   0.62333711   -8.0262523    302.83776  0.015723664  0.014724052            7 
 1606000   0.61426051   -8.0298712    302.01175  0.015671012  0.014712026           11 
 1607000    0.6242844   -8.0138596    302.49438  0.015686288  0.014699996            6 
 1608000   0.60659466   -8.0361108    302.06278  0.015654166  0.014687978           10 
 1609000   0.61186085   -8.0015804    301.82144  0.015631937  0.014675976            8 
 1610000   0.61047388   -8.0091169     302.3408   0.01564911  0.014664006            4 
 1611000    0.6115498   -8.0207182    301.94465  0.015618904  0.014652036            7 
 1612000   0.61374531   -8.0289526    301.90098  0.015606957  0.014640027           11 
 1613000   0.61092227   -8.0229763    301.95449  0.015600046  0.014628041           12 
 1614000   0.61377083   -8.0480999     302.2053   0.01560333  0.014616068            4 
 1615000   0.60866815   -8.0089151    302.00173  0.015583165  0.014604094            7 
 1616000   0.60533516    -8.022778    301.61625  0.015553643   0.01459213            8 
 1617000   0.62115003   -8.0356993    301.41432  0.015533618  0.014580159           10 
 1618000   0.60942418   -8.0308384    301.97839  0.015553069  0.014568198           13 
 1619000   0.60563778   -8.0564582    302.08742  0.015549075  0.014556247            8 
 1620000   0.59288794   -8.0314443    301.67986  0.015518512  0.014544307            4 
 1621000   0.60942459   -8.0320043    301.75649  0.015512878  0.014532382            6 
 1622000   0.59427402    -8.033191    301.80961  0.015506042   0.01452046           10 
 1623000    0.5935599   -8.0201096    302.08283  0.015510517  0.014508561           10 
 1624000   0.59460091   -8.0398636    301.84599  0.015488813  0.014496681            4 
 1625000   0.61267185   -8.0365415    301.36741  0.015454739  0.014484822            3 
 1626000   0.59231509   -7.9975266    301.93121  0.015474129  0.014472976            5 
 1627000   0.60806041   -8.0604966    302.02844  0.015469598  0.014461091            3 
 1628000   0.59151559   -8.0414319    302.02705  0.015460025  0.014449244            4 
 1629000   0.61325758   -8.0415647    301.33258  0.015415008  0.014437409            6 
 1630000   0.60108913    -8.043591    301.45428  0.015411773  0.014425563            6 
 1631000   0.60164398   -8.0408548    301.80054  0.015420015   0.01441372            6 
 1632000   0.60725482   -8.0509218    301.37223  0.015388696  0.014401901            5 
 1633000    0.5958142    -8.055246    301.13522  0.015367178  0.014390077            5 
 1634000   0.60013788   -8.0611195    301.51628  0.015377207  0.014378274            5 
 1635000   0.59015809   -8.0482704    301.86328  0.015385488  0.014366476            8 
 1636000   0.59348777    -8.030644    301.68807  0.015367159  0.014354686            3 
 1637000   0.60620269   -8.0517805     301.7839   0.01536265  0.014342898            5 
 1638000   0.59801736    -8.052533    302.08461   0.01536857  0.014331111            7 
 1639000    0.5978021    -8.055879    301.44529  0.015326688  0.014319356            5 
 1640000   0.60288405   -8.0726661    301.42141  0.015316129    0.0143076            3 
 1641000   0.60309095   -8.0492632    301.47971  0.015309756  0.014295854            4 
 1642000   0.58757881   -8.0681444    301.38625  0.015295689  0.014284104            4 
 1643000   0.59416143   -8.0554513    301.93697  0.015314312  0.014272344            6 
 1644000    0.6018975   -8.0603944    301.60371  0.015288104  0.014260569            3 
 1645000   0.60156812   -8.0518616    300.92131   0.01524424   0.01424883            7 
 1646000   0.60834514   -8.0629664    301.37902  0.015258152  0.014237093            6 
 1647000   0.57833058   -8.0884416    301.39888  0.015249893  0.014225355           10 
 1648000   0.58744557   -8.0408861    301.40303  0.015240849   0.01421364            6 
 1649000   0.60157664   -8.0508052    301.50269  0.015236643  0.014201935            5 
 1650000   0.59710937   -8.0757767    301.49909  0.015227227   0.01419026            7 
 1651000   0.59492616   -8.0505177    301.73162   0.01522974  0.014178569            7 
 1652000   0.58388373    -8.074581    301.70318  0.015219087  0.014166893            7 
 1653000    0.5849119   -8.0566555    301.64189   0.01520679  0.014155227           10 
 1654000   0.59775548   -8.0652517    301.71106  0.015201081  0.014143595            4 
 1655000   0.58617629   -8.0464085    301.87713  0.015200258  0.014131975            4 
 1656000   0.58604349   -8.0577993    301.56356    0.0151753  0.014120354           10 
 1657000   0.58551676   -8.0774444    300.72865  0.015124152  0.014108727            7 
 1658000   0.59447561   -8.0683674    301.53723  0.015155671  0.014097107            9 
 1659000   0.57916585   -8.0681543    301.37495  0.015138384  0.014085505            4 
 1660000   0.58925307   -8.0716872    301.84788  0.015153006  0.014073927           10 
 1661000    0.5900384   -8.0456722    301.51888  0.015127377  0.014062347            8 
 1662000   0.59348684   -8.0521329    301.10049  0.015097297  0.014050778           10 
 1663000   0.58883062   -8.0775271    301.69388  0.015117954   0.01403921            7 
 1664000   0.59057724   -8.0593041     301.2723  0.015087755  0.014027643            5 
 1665000   0.60063009   -8.0709738    301.38525  0.015084347  0.014016112            7 
 1666000   0.57888398    -8.078915    301.13119  0.015062585  0.014004576            9 
 1667000   0.59386967   -8.0550956    301.25851  0.015059913  0.013993037           15 
 1668000   0.58169822   -8.0973903     301.5047  0.015063185  0.013981529           16 
 1669000   0.58561493   -8.0845263    301.53069  0.015055457  0.013970001            9 
 1670000   0.57462658    -8.081136    300.90898  0.015015418  0.013958491           20 
 1671000   0.59223268   -8.0662056    301.33011  0.015027434  0.013946991           24 
 1672000   0.57276134   -8.0646997    301.46934  0.015025386  0.013935521           27 
 1673000   0.59155939   -8.0679863    300.83885     0.014985  0.013924062           18 
 1674000   0.59904721   -8.0671303    300.49095  0.014958729  0.013912584            8 
 1675000   0.58670102    -8.067323    300.85202  0.014967762  0.013901127           11 
 1676000   0.58432535   -8.0702511    300.83367  0.014957919  0.013889666           11 
 1677000   0.57158763   -8.0857505    301.11442  0.014962951  0.013878214            9 
 1678000   0.57897224   -8.0843512    300.76408  0.014936635  0.013866769           18 
 1679000   0.58613094   -8.0806314    300.88124  0.014933554   0.01385532           16 
 1680000   0.58930134   -8.0797691    300.72762  0.014917045  0.013843867           14 
 1681000    0.5939968   -8.0844415    300.89874  0.014916654  0.013832424           29 
 1682000   0.59454014   -8.0962732    301.00055  0.014912829  0.013820988           11 
 1683000   0.59068719   -8.0884343    301.17021  0.014912369  0.013809582            6 
 1684000   0.58285609    -8.081863    300.63306  0.014876933  0.013798189           11 
 1685000   0.58181223   -8.0967212    300.99791  0.014886148  0.013786808            7 
 1686000   0.57394838   -8.0957628    301.60138  0.014907146  0.013775448            6 
 1687000   0.57036154   -8.0959022    301.11695   0.01487438  0.013764083           10 
 1688000   0.58590966   -8.0893125    300.57585  0.014838855  0.013752738           15 
 1689000   0.58126564   -8.0902913    300.77991  0.014840138  0.013741382           12 
 1690000   0.58764723    -8.073811    300.70021  0.014827427  0.013730054           10 
 1691000   0.57344206   -8.1091162    300.92495  0.014829734  0.013718733           12 
 1692000   0.57440654   -8.1149825    300.90722  0.014820096  0.013707418            7 
 1693000   0.57773198   -8.1066807    301.00441  0.014816126  0.013696106           14 
 1694000   0.57542343   -8.1022928    300.19488  0.014767556  0.013684799           11 
 1695000   0.58442308   -8.0915469    300.84438  0.014790776  0.013673505            6 
 1696000   0.58015202   -8.0974814    300.79413  0.014779586  0.013662228            7 
 1697000   0.56940094   -8.1099445    300.27776   0.01474552  0.013650969            7 
 1698000   0.56461178   -8.1287268     301.3578  0.014789841  0.013639705            8 
 1699000   0.57537352   -8.1082294    301.01237  0.014764193  0.013628446           10 
 1700000   0.56994278   -8.0937759    300.62843  0.014736688  0.013617212            7 
 1701000   0.57419268   -8.1045922    300.71187  0.014732112  0.013605968            9 
 1702000   0.56616029    -8.099793    301.44545  0.014759374  0.013594737            4 
 1703000   0.57233151    -8.091488    300.88683  0.014723372  0.013583524            6 
 1704000   0.59246972   -8.1097309    301.10463  0.014725383  0.013572326            4 
 1705000   0.56204954   -8.0894517    300.60926  0.014692535  0.013561139            3 
 1706000   0.58190837   -8.1054525    300.41643  0.014674503  0.013549947            5 
 1707000   0.58037328   -8.1040913    300.91026  0.014690015  0.013538786            5 
 1708000   0.56734371   -8.1006526    300.67562  0.014669966  0.013527629           21 
 1709000   0.57369051   -8.1119594    300.49266   0.01465246  0.013516481            3 
 1710000   0.57310471   -8.1201947    300.45074  0.014641849  0.013505352            5 
 1711000   0.56611719   -8.1149831    300.10961  0.014616677  0.013494232           12 
 1712000   0.57341557   -8.1117121     300.8636   0.01464484  0.013483113            5 
 1713000   0.56169248   -8.1255331    300.42843  0.014615121  0.013471996            6 
 1714000   0.57062991   -8.0970135    300.65859  0.014617785  0.013460896            5 
 1715000    0.5718147   -8.1262104    300.92454  0.014622184  0.013449798            4 
 1716000   0.58190759   -8.1171857    300.47946  0.014592049  0.013438707            3 
 1717000    0.5680786   -8.1397923    300.77642  0.014597963  0.013427616            8 
 1718000   0.56891504    -8.131419    299.95188   0.01454947  0.013416525            6 
 1719000   0.56100979   -8.1335605    300.27855  0.014556842  0.013405439            5 
 1720000   0.56433713   -8.1098608    300.51591   0.01455988  0.013394373            4 
 1721000   0.56849372   -8.1220948    300.64861  0.014557845  0.013383353            7 
 1722000    0.5642175   -8.1124795    300.40171  0.014537443  0.013372326            5 
 1723000   0.56616799    -8.102385    300.42319  0.014530044  0.013361305            5 
 1724000   0.56402388   -8.1076063    300.77221  0.014538486  0.013350317            2 
 1725000   0.55460945   -8.1442731    301.14731  0.014548179  0.013339332           10 
 1726000   0.57057802   -8.1364095    300.97399  0.014531382  0.013328354            6 
 1727000   0.55276214    -8.126995    300.42995  0.014496717  0.013317361            3 
 1728000   0.56434855   -8.1302817    300.67385  0.014500089  0.013306387            9 
 1729000   0.56719735   -8.1195174    300.57592  0.014486983  0.013295429           18 
 1730000   0.57479556   -8.1132327    301.20934  0.014509121  0.013284474            8 
 1731000     0.563919   -8.1406417    300.33157  0.014458481   0.01327354           13 
 1732000   0.57235379   -8.1282702    300.74039  0.014469803  0.013262601           11 
 1733000   0.55600761    -8.134081    300.54172    0.0144519  0.013251673            9 
 1734000   0.57411711   -8.1311275     300.3101  0.014432435  0.013240757           10 
 1735000   0.56881867   -8.1387256    300.66878  0.014441344  0.013229853           10 
 1736000   0.55655902    -8.130135    300.34302  0.014417388  0.013218966           11 
 1737000   0.56399846   -8.1371091    299.41287  0.014364463  0.013208095            9 
 1738000   0.55538359   -8.1338834    299.86495  0.014377874  0.013197228            8 
 1739000   0.56278191   -8.1416943    300.32955   0.01439187  0.013186357           14 
 1740000    0.5678824   -8.1332222    299.96843  0.014366304  0.013175501           12 
 1741000   0.56639995   -8.1448647    300.73596   0.01439479  0.013164638           15 
 1742000    0.5576222   -8.1350884    299.95371  0.014349106  0.013153782           15 
 1743000   0.56015475   -8.1484243    300.11003  0.014348347  0.013142951            7 
 1744000   0.56356307     -8.14721    300.08988  0.014339157  0.013132123           10 
 1745000   0.54493441   -8.1306594    300.91223  0.014370212  0.013121312            7 
 1746000   0.55823992   -8.1367851    301.02768  0.014367492  0.013110527            9 
 1747000    0.5621063    -8.130264    300.17166  0.014318434  0.013099736            8 
 1748000   0.54501699   -8.1411356     299.7943  0.014292253  0.013088939           10 
 1749000   0.54960356   -8.1436093    300.36111  0.014311088  0.013078172            8 
 1750000   0.56398014   -8.1419429    300.48285  0.014308707  0.013067402           13 
 1751000    0.5486535   -8.1470784     300.2465  0.014289287  0.013056644           13 
 1752000   0.55740206   -8.1560891    300.60509  0.014298187  0.013045901           13 
 1753000   0.56287228   -8.1805815    299.71873  0.014247896  0.013035142           16 
 1754000   0.54179285   -8.1462931    300.44786  0.014274414  0.013024407            5 
 1755000   0.55721385   -8.1608697    299.60218  0.014226124  0.013013675            5 
 1756000   0.55274715    -8.156121    300.16482  0.014244724  0.013002964            7 
 1757000   0.55157859   -8.1473654    300.42842  0.014249119   0.01299227           10 
 1758000   0.54835845   -8.1568248    300.04915  0.014223035  0.012981587            4 
 1759000   0.55741933   -8.1555799    299.80229  0.014203254    0.0129709           12 
 1760000   0.55409239   -8.1469196    300.19432  0.014213746  0.012960237            5 
 1761000   0.55024891   -8.1440586    300.15971  0.014204037  0.012949584            5 
 1762000   0.56071458   -8.1540263    300.47895  0.014211074  0.012938956            5 
 1763000    0.5447774   -8.1457392    300.51529  0.014204731  0.012928331            6 
 1764000   0.54876114   -8.1461087     300.5381  0.014197756  0.012917716            6 
 1765000   0.54803593   -8.1395509    300.41068  0.014183696  0.012907112            7 
 1766000   0.53924158   -8.1809359    299.72285  0.014143208  0.012896501           13 
 1767000   0.54198763   -8.1642189    300.16008  0.014155823  0.012885911            7 
 1768000   0.55357987   -8.1646367    300.07861  0.014143977  0.012875329           10 
 1769000   0.55910373   -8.1582283     300.0891  0.014136476  0.012864751            4 
 1770000   0.55331925   -8.1546008     300.5706  0.014151158  0.012854199            5 
 1771000   0.53399787   -8.1550047    299.84385  0.014108971  0.012843638            6 
 1772000   0.54154716   -8.1445699    300.51967  0.014132791  0.012833086            7 
 1773000   0.54067473   -8.1584251    300.93757  0.014144462  0.012822566            5 
 1774000   0.55011955   -8.1736127    300.20001  0.014101842  0.012812056            5 
 1775000   0.53852811   -8.1728476    300.12863  0.014090546  0.012801543           11 
 1776000   0.54758318   -8.1491255    300.52884  0.014101391  0.012791038            4 
 1777000   0.55234309   -8.1492756    300.50824  0.014092489  0.012780548            7 
 1778000   0.54727127   -8.1735644    299.79554   0.01405116  0.012770051            6 
 1779000   0.53719152   -8.1586263    299.35749  0.014022742  0.012759566            7 
 1780000   0.52931739   -8.1609934    300.06605  0.014048036  0.012749086            5 
 1781000   0.53667642   -8.1571977    299.89765  0.014032269  0.012738614            5 
 1782000   0.54289898   -8.1751241    299.88368  0.014023741  0.012728158            5 
 1783000   0.54371004   -8.1593238     300.4489  0.014042293  0.012717716            7 
 1784000    0.5512939   -8.1631709    300.05214  0.014015888  0.012707291            8 
 1785000   0.54721867   -8.1611185    300.19374  0.014014647  0.012696866            6 
 1786000   0.55141826   -8.1765762    299.84884  0.013990708  0.012686454            7 
 1787000   0.53902841    -8.174969    300.04649  0.013992095  0.012676059            4 
 1788000   0.54611061   -8.1729536    300.30695  0.013996409  0.012665664            6 
 1789000   0.55219304     -8.18268    299.84722  0.013967171  0.012655284            8 
 1790000    0.5452485   -8.1842828    299.99128  0.013966074  0.012644905            6 
 1791000   0.53736645   -8.1751349    299.75652  0.013947354  0.012634553           10 
 1792000   0.53440958   -8.1687506    300.01904  0.013951778  0.012624205           12 
 1793000   0.53069004   -8.1832179     300.0041  0.013943303  0.012613865            6 
 1794000   0.53521354   -8.1885101    299.75667  0.013924037  0.012603525            8 
 1795000   0.54483847   -8.1765431    300.08724  0.013931627  0.012593196            3 
 1796000   0.53381103    -8.181747    300.20163  0.013929177  0.012582878            6 
 1797000   0.52896038    -8.176328    299.90639  0.013907735   0.01257257            6 
 1798000   0.51336235     -8.16503    300.14107  0.013910877  0.012562262            6 
 1799000   0.52962692   -8.1981442    300.05405  0.013899113  0.012551964            8 
 1800000   0.52683504    -8.194397    299.73413   0.01387658   0.01254167            7 
 1801000   0.53208881   -8.1814402    299.94101  0.013878447  0.012531405            5 
 1802000   0.54173913   -8.1836489    299.95005  0.013871164  0.012521153            6 
 1803000   0.54415865   -8.1822287     299.7126  0.013852496  0.012510904            5 
 1804000   0.54374975   -8.2016943    300.05859  0.013860799  0.012500663            6 
 1805000   0.53075777   -8.1736261    299.94776  0.013848004  0.012490422            5 
 1806000   0.52893839   -8.1904135    300.00767    0.0138431  0.012480203            4 
 1807000   0.53389385   -8.1960369    299.65983  0.013819398  0.012469983            5 
 1808000   0.52536692   -8.1799517    299.99646   0.01382727  0.012459768           10 
 1809000   0.54249808   -8.1885972    299.95409  0.013817675  0.012449577            4 
 1810000   0.52560328   -8.1881402    300.14347   0.01381876  0.012439381            9 
 1811000   0.53643611   -8.1884926    299.50315  0.013781665  0.012429203            4 
 1812000    0.5277153   -8.1965874    299.82531  0.013788876  0.012419026            5 
 1813000   0.52513135   -8.1806027    299.46709  0.013764805  0.012408869           12 
 1814000   0.53904071   -8.1716955    299.35642  0.013752133  0.012398711            8 
 1815000   0.53216349   -8.1846705     299.7957  0.013764724   0.01238857            5 
 1816000   0.52019088   -8.2063607    299.35254  0.013736809  0.012378425           14 
 1817000   0.51973964   -8.1632526    299.78548  0.013749105  0.012368275            6 
 1818000   0.52182172   -8.1866482    299.62669  0.013734264  0.012358155            8 
 1819000   0.53469482   -8.1845916    299.61592   0.01372622  0.012348047            5 
 1820000   0.51585644   -8.1995816    299.61499  0.013718635  0.012337952            7 
 1821000   0.52995082   -8.1884987    299.73291  0.013716498  0.012327862            4 
 1822000   0.52695718   -8.2023407    300.05852  0.013723862  0.012317788            6 
 1823000   0.53299899    -8.177522    299.35895  0.013684355  0.012307722            5 
 1824000   0.52378271    -8.209248    299.53712  0.013684993  0.012297672            7 
 1825000   0.53008987   -8.1898149     299.8565  0.013692078  0.012287628           12 
 1826000   0.53413275   -8.1995385    299.55595  0.013670863  0.012277587           12 
 1827000   0.53555485   -8.1969538    299.55608  0.013663386  0.012267571           18 
 1828000   0.52333762   -8.1957923    299.44078  0.013650656  0.012257544            6 
 1829000   0.51529112    -8.206537    299.86136  0.013662355  0.012247529           11 
 1830000   0.53189765   -8.1872378     299.5734  0.013641776  0.012237523           13 
 1831000   0.51905791   -8.1992554    299.34982   0.01362415   0.01222752            7 
 1832000   0.53243131   -8.2052799    299.34574  0.013616527  0.012217539           15 
 1833000   0.51862853   -8.2055474    299.44253  0.013613499   0.01220756            7 
 1834000   0.50595251   -8.1939666     299.3368  0.013601272  0.012197592            9 
 1835000   0.51590564   -8.2147234    299.83801  0.013616622  0.012187629            8 
 1836000    0.5218468   -8.2162443    299.46591  0.013592316  0.012177678            7 
 1837000   0.50906707   -8.2034505       299.12  0.013569225  0.012167734            4 
 1838000   0.51786448   -8.1960006    299.07861  0.013559966  0.012157798            7 
 1839000   0.52660896    -8.219595    299.72385  0.013581831  0.012147869            9 
 1840000   0.51452222   -8.1990405    299.33211  0.013556708  0.012137946           12 
 1841000   0.52355285   -8.2063864     299.2645  0.013546284   0.01212804           10 
 1842000    0.5192144   -8.2032928     299.5566  0.013552144  0.012118148            9 
 1843000   0.53104876   -8.2063207    299.19861  0.013528604  0.012108261            8 
 1844000   0.51549032   -8.1949381    299.67583  0.013542834  0.012098386            6 
 1845000   0.51796174   -8.2218097    299.48984  0.013527093   0.01208852            8 
 1846000   0.51318832   -8.2056874    299.31115  0.013511699  0.012078663            5 
 1847000   0.51335687   -8.2232747     299.7209   0.01352287  0.012068825            5 
 1848000   0.52788886   -8.2238696    299.49979  0.013505582  0.012058996            8 
 1849000   0.50413632   -8.2224362    299.56155  0.013501061  0.012049167            3 
 1850000   0.52943505   -8.2041063    299.07396    0.0134718  0.012039352            6 
 1851000   0.52252638   -8.2363504    299.37816  0.013478217  0.012029543            9 
 1852000   0.50839283   -8.2137549    299.87144  0.013493135  0.012019751            6 
 1853000   0.50567997   -8.2085004    299.43962  0.013466433  0.012009942            6 
 1854000   0.51549847   -8.2267894    299.09432   0.01344365  0.012000165            5 
 1855000   0.50691352   -8.2276374    299.27096  0.013444338  0.011990387            6 
 1856000   0.51949551    -8.223546    299.01446  0.013425578  0.011980623            7 
 1857000   0.51166531   -8.2169774    299.46587  0.013438605  0.011970867            9 
 1858000   0.52264112   -8.2414678    299.67227  0.013440629  0.011961125            8 
 1859000   0.50133738   -8.2098551    299.15311  0.013410127  0.011951395            5 
 1860000    0.5006049   -8.2096387    299.11561  0.013401237  0.011941665            9 
 1861000   0.50312609   -8.2176598    299.07529   0.01339223  0.011931955            7 
 1862000   0.51150317   -8.2299177    299.21324  0.013391212  0.011922257           10 
 1863000   0.50897942   -8.2375546    299.15359  0.013381356  0.011912568            6 
 1864000   0.51233026    -8.232764    299.06755   0.01337033  0.011902887           13 
 1865000   0.49737249   -8.2236773    299.04744  0.013362263  0.011893209            7 
 1866000   0.50695445    -8.225466    299.01709  0.013353746  0.011883537            9 
 1867000   0.50486671   -8.2340635     299.3841  0.013362976  0.011873882            6 
 1868000    0.5101241   -8.2299097    299.08581  0.013342515  0.011864237           17 
 1869000   0.50420687   -8.2281499    299.17289  0.013339259  0.011854597            7 
 1870000   0.50130495   -8.2156825    298.88313  0.013319213  0.011844981           15 
 1871000   0.50635781   -8.2365764    299.22052  0.013327121  0.011835365            9 
 1872000   0.50724822   -8.2419855    299.25702  0.013321626  0.011825756            8 
 1873000   0.50933011   -8.2331621    299.12416  0.013308603  0.011816157           14 
 1874000   0.50743141   -8.2322635    298.94074  0.013293345   0.01180657            5 
 1875000   0.51102189   -8.2250201    299.41636  0.013307394   0.01179698            6 
 1876000   0.50762328   -8.2310566    299.09309   0.01328594  0.011787399           11 
 1877000   0.51269469   -8.2379074    298.99179  0.013274364  0.011777841            6 
 1878000   0.50487759   -8.2401988    298.61421  0.013250542  0.011768286            7 
 1879000   0.49851049   -8.2354737    299.53846   0.01328448  0.011758727            3 
 1880000   0.50546551    -8.237559    299.37557  0.013270194  0.011749187            6 
 1881000   0.50143604   -8.2338401     299.3046  0.013259995  0.011739662            5 
 1882000   0.49905492   -8.2313504     299.0637  0.013242282  0.011730144            6 
 1883000   0.50488277   -8.2412815     298.9718  0.013231182   0.01172063            7 
 1884000   0.49939615   -8.2428123     299.0897  0.013229375  0.011711137           11 
 1885000   0.50472982   -8.2422864    299.10237  0.013222917  0.011701651            6 
 1886000   0.50413917   -8.2444712    298.88973   0.01320651  0.011692167           11 
 1887000   0.50726413   -8.2629157     299.3628  0.013220403  0.011682692           16 
 1888000   0.50217198   -8.2450922     298.8308  0.013189919  0.011673224           10 
 1889000   0.49026561   -8.2234165    298.52093  0.013169266  0.011663752            8 
 1890000   0.49919569    -8.247685    298.85671  0.013177104  0.011654294            6 
 1891000   0.49459398   -8.2486649     298.6699  0.013161903  0.011644846           10 
 1892000   0.50533132   -8.2448304    298.93797  0.013166754  0.011635408            5 
 1893000   0.49402777   -8.2592743    298.95711  0.013160641  0.011625984            9 
 1894000   0.49460643    -8.250903    299.04375  0.013157504  0.011616573            8 
 1895000   0.50617989   -8.2484431    298.89804  0.013144153  0.011607162           12 
 1896000    0.4969936   -8.2391008    299.05149  0.013143965  0.011597771            4 
 1897000   0.49798394   -8.2405793    299.32058  0.013148857  0.011588385            5 
 1898000   0.48994225   -8.2469254    299.42261  0.013146409  0.011579005           10 
 1899000   0.49087583   -8.2491921    298.91215  0.013117086  0.011569638            5 
 1900000   0.50558825   -8.2457927    298.86761  0.013108229  0.011560275            9 
 1901000    0.4890411   -8.2393642    299.07027  0.013110217  0.011550925            9 
 1902000   0.50201718    -8.258345    298.66572  0.013085599  0.011541579           18 
 1903000   0.49135035   -8.2418261    298.97178  0.013092125  0.011532249            7 
 1904000    0.4972457   -8.2580158    299.12293  0.013091865  0.011522941            8 
 1905000   0.48923777   -8.2581451    298.69523  0.013066283  0.011513633           10 
 1906000    0.4970268   -8.2527256    298.49154  0.013050522  0.011504327            5 
 1907000   0.48033151    -8.247494    299.14906  0.013072411  0.011495021           11 
 1908000   0.49207822   -8.2474814    299.02619  0.013060194  0.011485728            7 
 1909000   0.48709919   -8.2559202    298.86248  0.013046206  0.011476454            6 
 1910000   0.50747691   -8.2500776    299.15147  0.013051984  0.011467175            8 
 1911000   0.49400516   -8.2561332    298.94449  0.013036128  0.011457919            7 
 1912000   0.48363612    -8.266796    299.03792  0.013033382  0.011448665           12 
 1913000   0.48395036   -8.2503956     298.3079  0.012994768  0.011439412            7 
 1914000   0.49661298   -8.2713984    298.68018  0.013004188  0.011430175            6 
 1915000   0.48079248   -8.2599111    298.93022  0.013008278   0.01142094           11 
 1916000    0.4902973   -8.2629361    298.44509  0.012980388  0.011411724            6 
 1917000   0.48576783    -8.264891    298.79601  0.012988872  0.011402509           14 
 1918000   0.48524673   -8.2444006    298.76394  0.012980706  0.011393304           14 
 1919000   0.48416745   -8.2463869    299.02658  0.012985348  0.011384116           11 
 1920000   0.49605089    -8.265418     299.2619  0.012988798  0.011374933            7 
 1921000   0.48608107   -8.2482358    298.43603   0.01294621  0.011365766           13 
 1922000   0.49159599   -8.2623634    298.90298   0.01295972  0.011356606            8 
 1923000   0.48610009   -8.2539207    298.69004  0.012943753  0.011347443           10 
 1924000   0.48147966   -8.2744961    298.65539  0.012935525  0.011338295            9 
 1925000   0.48616808     -8.25434    298.45998  0.012920346  0.011329156            7 
 1926000   0.47840765   -8.2713673    298.59919   0.01291966  0.011320038           17 
 1927000   0.47401326    -8.278897    298.96599  0.012928818  0.011310925            4 
 1928000    0.4879938   -8.2642292    298.64906  0.012908414  0.011301821           17 
 1929000   0.48292292   -8.2700668     299.1642  0.012923976  0.011292719           11 
 1930000   0.47994213   -8.2632782     298.8836  0.012905164  0.011283625            6 
 1931000   0.47968473   -8.2669838    298.25097  0.012871179  0.011274545            9 
 1932000   0.49259332   -8.2629801    298.58714  0.012879017   0.01126548            8 
 1933000   0.49185859   -8.2777186    298.76257  0.012879918  0.011256411            5 
 1934000   0.47915883   -8.2704299    298.46678  0.012860513  0.011247347            8 
 1935000   0.48764036   -8.2909193    298.48058  0.012854461  0.011238302           11 
 1936000   0.47901841   -8.2759535    298.99565  0.012869992  0.011229259            9 
 1937000   0.48197879   -8.2524636    298.66318  0.012849044  0.011220238            4 
 1938000   0.48399924   -8.2808588    298.35472   0.01282915  0.011211218            7 
 1939000   0.48098466   -8.2803784    299.08539  0.012853936  0.011202209            6 
 1940000   0.47505481   -8.2818687    299.14656  0.012849938  0.011193215            9 
 1941000   0.49065199   -8.2745715    298.61393   0.01282045  0.011184222            6 
 1942000   0.47999692    -8.293195    298.63759  0.012814864  0.011175244            5 
 1943000   0.47979763   -8.2765914    298.32637  0.012794921  0.011166272            8 
 1944000   0.47321033   -8.2560724    298.54936  0.012797898  0.011157306           13 
 1945000    0.4722395   -8.2744073    298.53799  0.012790831   0.01114835            7 
 1946000   0.48036061   -8.2809372    298.60479  0.012787118  0.011139402           12 
 1947000   0.48882949   -8.2783372    298.99578  0.012797285  0.011130456            5 
 1948000   0.49274853   -8.2938224    298.71208   0.01277858  0.011121531           16 
 1949000   0.46960865   -8.2741482    298.63358  0.012768667  0.011112608           16 
 1950000   0.47291362   -8.2718227    298.73823  0.012766591  0.011103694            6 
 1951000   0.48068791   -8.2871067     298.0947   0.01273256  0.011094795            9 
 1952000   0.47506425   -8.2909187    298.09837  0.012726194  0.011085894           15 
 1953000   0.47734561   -8.2803254    298.63021  0.012742371  0.011076997            8 
 1954000   0.47806743   -8.2991727    298.29185   0.01272142  0.011068117            7 
 1955000   0.48165313   -8.2901668    298.13159  0.012708081  0.011059239           11 
 1956000   0.46304956   -8.2976527    298.33364  0.012710192  0.011050372           15 
 1957000   0.47702313   -8.2991178    298.08357  0.012693049  0.011041509            7 
 1958000   0.46378337   -8.2704296     298.9145  0.012721931  0.011032663           10 
 1959000   0.46239268   -8.2949768    298.04447  0.012678427   0.01102382            6 
 1960000   0.47662293   -8.2945063    298.60146   0.01269564   0.01101499            8 
 1961000   0.47571412   -8.2885344    298.45474  0.012682931  0.011006159           12 
 1962000   0.47115138    -8.285974    298.65537  0.012684989  0.010997349            9 
 1963000   0.46517434   -8.2897397    298.83797  0.012686278  0.010988547           10 
 1964000   0.45467738   -8.2792237    298.24956  0.012654852  0.010979748           13 
 1965000   0.46873509   -8.3112209    298.24697  0.012648302  0.010970971            8 
 1966000   0.47207954   -8.2896481    298.20633  0.012640146  0.010962186           10 
 1967000   0.47493459   -8.2909825    298.55345  0.012648426  0.010953416            6 
 1968000   0.46678238   -8.3078474    298.38604   0.01263491  0.010944658           17 
 1969000   0.46419205   -8.2965157    297.86932  0.012606625  0.010935902            8 
 1970000   0.48002267   -8.2783199    298.61087  0.012631594  0.010927158           10 
 1971000   0.46821381   -8.3038232    298.37768  0.012615326   0.01091842            9 
 1972000    0.4673812   -8.3037234    298.09906  0.012597154  0.010909694           10 
 1973000   0.46383666   -8.3094116    298.12976  0.012592066  0.010900966           10 
 1974000    0.4640435   -8.3009154     298.1074  0.012584743  0.010892247           12 
 1975000   0.46801461   -8.3067921    297.95443  0.012571917   0.01088354           10 
 1976000   0.45700879   -8.3007788     298.5552   0.01259089  0.010874838           13 
 1977000   0.46709847   -8.2997136    297.78325  0.012551983  0.010866146            6 
 1978000   0.46925275   -8.2968491    297.91392  0.012551143  0.010857458           10 
 1979000    0.4683307   -8.2952008    298.27321   0.01255993  0.010848778           10 
 1980000   0.45999504   -8.3053954    298.22686  0.012551636  0.010840115            7 
 1981000   0.46256144    -8.303563    298.30124  0.012548428  0.010831454           11 
 1982000   0.46846265   -8.3008637    298.13095  0.012534937  0.010822804            6 
 1983000   0.46434641   -8.2998487    297.91322  0.012519466  0.010814161            8 
 1984000   0.46757776   -8.3122397    298.30329   0.01252954  0.010805526           18 
 1985000   0.46254978   -8.2981832     297.9533  0.012508535  0.010796888           14 
 1986000   0.47030792    -8.308429    297.80727  0.012496109  0.010788269            9 
 1987000   0.45299648   -8.3109676    297.88743  0.012493182  0.010779659            6 
 1988000   0.47224512   -8.3155929    298.35334  0.012506428  0.010771056            7 
 1989000   0.45418962   -8.2999916    297.96733  0.012483967  0.010762474            8 
 1990000   0.46427116   -8.3046868    297.94829  0.012476896  0.010753893           17 
 1991000   0.46645344   -8.3142118    298.27537   0.01248432  0.010745318           12 
 1992000   0.45766221   -8.3189415    298.32071   0.01247995  0.010736756           10 
 1993000   0.45192752   -8.3148069    297.94259  0.012457877  0.010728193           10 
 1994000   0.45181389   -8.3199344    298.31048  0.012467004  0.010719647            9 
 1995000   0.45884178   -8.3041349    297.58381  0.012430402  0.010711105            6 
 1996000   0.45348595   -8.3267699    298.53387  0.012463839  0.010702579           12 
 1997000   0.46049653   -8.3171136    297.92458  0.012432172  0.010694052            7 
 1998000   0.46525057   -8.3058803    298.29242  0.012441292  0.010685537           11 
 1999000   0.45561087   -8.3075482    297.74324  0.012412175  0.010677031            8 
 2000000   0.46293235   -8.3161755    297.80333  0.012408472   0.01066853           15 
 2001000    0.4449584    -8.311467    298.17154  0.012417606   0.01066004           10 
 2002000    0.4415909   -8.3091611    297.81001  0.012396354  0.010651556            9 
 2003000   0.44636411   -8.3069496    298.04654  0.012400006  0.010643085           11 
 2004000   0.45277857   -8.3094144    297.79133  0.012383206  0.010634622            7 
 2005000   0.45317414   -8.3256554    298.04167  0.012387434  0.010626171            9 
 2006000   0.45015261   -8.3148365    297.76477  0.012369756  0.010617719            6 
 2007000   0.45197094   -8.3108647    297.99677  0.012373226  0.010609276            8 
 2008000   0.44230043   -8.3271788     298.0992  0.012371315  0.010600835            9 
 2009000   0.45702379   -8.3038699    297.87058  0.012355674  0.010592411            6 
 2010000   0.45698361   -8.3101042    297.80474  0.012346797  0.010583991           11 
 2011000    0.4466504   -8.3195757    297.87568  0.012343597  0.010575583            7 
 2012000   0.45180232   -8.3231351    297.54453  0.012323746  0.010567181            5 
Loop time of 4633.21 on 48 procs for 2000000 steps with 4000 atoms

Performance: 74591.847 tau/day, 431.666 timesteps/s
99.4% CPU use with 48 MPI tasks x no OpenMP threads

MPI task timing breakdown:
Section |  min time  |  avg time  |  max time  |%varavg| %total
---------------------------------------------------------------
Pair    | 300.78     | 311.75     | 335.41     |  36.3 |  6.73
Neigh   | 30.257     | 31.194     | 32.226     |  10.1 |  0.67
Comm    | 271.84     | 298.44     | 309.86     |  42.7 |  6.44
Output  | 4.1057     | 4.1072     | 4.1386     |   0.2 |  0.09
Modify  | 3938.4     | 3947       | 3954.3     |   5.3 | 85.19
Other   |            | 40.73      |            |       |  0.88

Nlocal:        83.3333 ave          92 max          75 min
Histogram: 1 4 4 5 12 12 2 3 2 3
Nghost:        1956.69 ave        1986 max        1929 min
Histogram: 2 4 7 4 6 7 10 4 2 2
Neighs:        12439.6 ave       13835 max       10940 min
Histogram: 1 2 5 6 10 9 1 7 4 3
FullNghs:      24880.1 ave       27720 max       22132 min
Histogram: 1 4 3 7 8 11 8 1 2 3

Total # of neighbors = 1194245
Ave neighs/atom = 298.56125
Neighbor list builds = 107383
Dangerous builds = 0

#clear
#
#next RN
#
#jump SELF
Total wall time: 1:17:16
