
units lj                  # Use reduced LJ style units
atom_style atomic         # Uncharged point particles
atom_modify map hash      # Needed for indexing of clusters etc
                          # Used to be able to find where atoms are in relation to each other.

lattice fcc 1.0 spacing 1 1 1
Lattice spacing in x,y,z = 1.5874011 1.5874011 1.5874011
region box block 0 10 0 10 0 10 units lattice
create_box 2 box
Created orthogonal box = (0.0000000 0.0000000 0.0000000) to (15.874011 15.874011 15.874011)
  3 by 4 by 4 MPI processor grid
create_atoms 1 box
Created 4000 atoms
  using lattice units in orthogonal box = (0.0000000 0.0000000 0.0000000) to (15.874011 15.874011 15.874011)
  create_atoms CPU = 0.002 seconds
set type 1 type/fraction 2 0.97 78393
Setting atom values ...
  3879 settings made for type/fraction
mass 1 1.0
mass 2 1.0
pair_style lj/cut  3.5
pair_modify tail  yes
pair_coeff 1  1  1.0  1.0   # Intearaction between 1 and 1 set with epsilon = 1 and sigma = 1
pair_coeff 1  2  1.5  0.8
pair_coeff 2  2  0.5  0.88

write_data data.0
System init for write_data ...
Neighbor list info ...
  update every 1 steps, delay 10 steps, check yes
  max neighbors/atom: 2000, page size: 100000
  master list distance cutoff = 3.8
  ghost atom cutoff = 3.8
  binsize = 1.9, bins = 9 9 9
  1 neighbor lists, perpetual/occasional/extra = 1 0 0
  (1) pair lj/cut, perpetual
      attributes: half, newton on
      pair build: half/bin/atomonly/newton
      stencil: half/bin/3d
      bin: standard
WARNING: Not all mixed pair coeffs generated from mixing. Use write_data with 'pair ij' option to store all pair coeffs. (../write_data.cpp:312)


#############################
#   M E L T   S Y S T E M   #
#############################

velocity all create 2.4 5833274 mom yes dist gaussian # Assign velocities
                                                    # Temperature 2.4, random number seed, zero linear momentum
                                                                                # Gaussian distribution

timestep 0.002   # simulation timestep
thermo 1000       # output thermodynamic data every 1000 steps bf 100

# Define a fix  in this case with index 1 applied to all
# particles in the simulation. This fix is for simulations
# in the anisotropic NPT ensemble. Note that we use the MTK
# correction.
fix 1 all npt temp 2.4 2.4 0.1 iso 5.68 5.68 0.5 mtk yes tchain 5 pchain 5 # Use NPT ensemble
                                                                         # Set temperature and pressure and damping
                                                                         # Numbers of thermostats in chain and in barostat
run 10000          # run for 10000 steps
Per MPI rank memory allocation (min/avg/max) = 3.642 | 3.644 | 3.648 Mbytes
Step Temp E_pair E_mol TotEng Press Volume 
       0          2.4   -2.8451072            0   0.75399283    -1.976462         4000 
    1000    2.4421806   -1.6929037            0    1.9694514    5.7846041    4150.5605 
    2000    2.3920554   -1.6410313            0    1.9461548    5.8141894    4170.0841 
    3000    2.3983195    -1.693388            0    1.9031919    5.6724173    4147.1761 
    4000    2.3989749   -1.6375751            0    1.9599877    5.8382283    4172.4555 
    5000     2.410069   -1.6613846            0    1.9528152    5.5253688    4220.1154 
    6000    2.4156255     -1.66432            0    1.9582124     5.576006    4199.9474 
    7000    2.4258742   -1.6639751            0    1.9739265    5.5960833    4217.5106 
    8000    2.4110715   -1.6698677            0    1.9458354    5.4994885    4222.7487 
    9000    2.3771847   -1.6469862            0    1.9178993    5.6501919    4211.2274 
   10000    2.4081984   -1.6849564            0     1.926438    5.7568916    4142.5995 
Loop time of 2.38255 on 48 procs for 10000 steps with 4000 atoms

Performance: 725274.794 tau/day, 4197.192 timesteps/s
99.6% CPU use with 48 MPI tasks x no OpenMP threads

MPI task timing breakdown:
Section |  min time  |  avg time  |  max time  |%varavg| %total
---------------------------------------------------------------
Pair    | 1.0554     | 1.1115     | 1.1604     |   2.3 | 46.65
Neigh   | 0.20646    | 0.21248    | 0.22444    |   0.7 |  8.92
Comm    | 0.74835    | 0.80885    | 0.86664    |   2.9 | 33.95
Output  | 0.00024513 | 0.00024914 | 0.00031051 |   0.0 |  0.01
Modify  | 0.21586    | 0.23466    | 0.25263    |   2.2 |  9.85
Other   |            | 0.01476    |            |       |  0.62

Nlocal:        83.3333 ave          94 max          73 min
Histogram: 1 4 2 9 10 10 5 4 1 2
Nghost:        1601.54 ave        1637 max        1577 min
Histogram: 2 5 10 10 4 4 10 1 0 2
Neighs:        9204.62 ave       10637 max        7862 min
Histogram: 2 2 4 3 14 10 8 3 1 1

Total # of neighbors = 441822
Ave neighs/atom = 110.45550
Neighbor list builds = 913
Dangerous builds = 236

# Equilibrate just above the melting temperature to avoid step fn in T

fix 1 all npt temp 1.25 1.25 0.1 iso 5.68 5.68 0.5 mtk yes tchain 5 pchain 5
run 2000
Per MPI rank memory allocation (min/avg/max) = 3.643 | 3.645 | 3.649 Mbytes
Step Temp E_pair E_mol TotEng Press Volume 
   10000    2.4081984   -1.6849564            0     1.926438    5.7568916    4142.5995 
   11000    1.2497033   -2.5564692            0  -0.68238296      5.73611    3248.3425 
   12000    1.2266704   -2.5113675            0  -0.67182192    5.8582088    3269.5714 
Loop time of 0.580696 on 48 procs for 2000 steps with 4000 atoms

Performance: 595147.389 tau/day, 3444.140 timesteps/s
99.6% CPU use with 48 MPI tasks x no OpenMP threads

MPI task timing breakdown:
Section |  min time  |  avg time  |  max time  |%varavg| %total
---------------------------------------------------------------
Pair    | 0.25914    | 0.28084    | 0.30325    |   1.8 | 48.36
Neigh   | 0.038405   | 0.040067   | 0.043124   |   0.4 |  6.90
Comm    | 0.18792    | 0.21007    | 0.23423    |   2.3 | 36.18
Output  | 5.3309e-05 | 5.484e-05  | 7.1297e-05 |   0.0 |  0.01
Modify  | 0.040408   | 0.044847   | 0.049071   |   1.1 |  7.72
Other   |            | 0.00482    |            |       |  0.83

Nlocal:        83.3333 ave          92 max          76 min
Histogram: 1 6 3 9 8 12 3 1 3 2
Nghost:        1877.29 ave        1909 max        1850 min
Histogram: 3 6 5 5 8 6 5 6 2 2
Neighs:        11670.4 ave       13316 max       10590 min
Histogram: 6 4 6 8 11 5 5 1 0 2

Total # of neighbors = 560177
Ave neighs/atom = 140.04425
Neighbor list builds = 141
Dangerous builds = 14

#############################
# L I N E A R  Q U E N C H  #
#############################

# Define solid atoms. This closely follows ten Wolde  Ruiz-Montero and Frenkel  Faraday Discuss  1996  104  93-110
# Compute components of the per-atom q6 vector
compute q6 all orientorder/atom degrees 1 6 components 6 nnn NULL cutoff 1.3 # compute the Q6 parameter.
                                                                             # Use all neighbours within 1.3 unit cell.

# get number of connections
compute coord_number all coord/atom orientorder q6 0.5

# An atom is solid if it has 8 or more connections (of a possible 14)
variable is_solid atom c_coord_number>=8
group solid dynamic all var is_solid    # Must be dynamic to update
dynamic group solid defined

# do clustering
compute cluster solid cluster/atom 1.3 # Create a cluster where all atoms within are solid and max 1.3 units from another member

# define chunks one chunk per cluster
compute clus_chunks solid chunk/atom c_cluster nchunk every compress yes  # Says which atoms are in which chunk

# count the size of each chunk
compute size_chunks solid property/chunk clus_chunks count


# Find the maximum entry in the vector of chunk sizes
variable max_n equal max(c_size_chunks)


# Thermo style which includes this variable
# thermo_style custom step temp pe vol v_max_n

thermo ${N}  # Print the thermo information every 100 steps
thermo 1000  

# Reset the npt fix at a lower temperature (below freezing)
fix 1  all npt temp  ${temp} ${temp}  0.1  iso  5.68  5.68  0.5  mtk yes tchain  5  pchain  5
fix 1  all npt temp  0.45 ${temp}  0.1  iso  5.68  5.68  0.5  mtk yes tchain  5  pchain  5
fix 1  all npt temp  0.45 0.45  0.1  iso  5.68  5.68  0.5  mtk yes tchain  5  pchain  5

dump dmp2 all dcd ${N} traj.dcd
dump dmp2 all dcd 1000 traj.dcd


compute msd all msd com yes
variable twopoint equal c_msd[4]/6/(step*dt+1.0e-6)
fix 9 all vector 10 c_msd[4]
variable fit equal slope(f_9)/6/(10*dt)
thermo_style custom step temp pe c_msd[4] v_twopoint v_fit v_max_n

fix 1 all npt temp 1.25 ${temp} 0.1 iso 5.68 5.68 0.5 mtk yes tchain 5 pchain 5
fix 1 all npt temp 1.25 0.45 0.1 iso 5.68 5.68 0.5 mtk yes tchain 5 pchain 5
run 5000000 # 5000000  # Run for this many steps
Neighbor list info ...
  update every 1 steps, delay 10 steps, check yes
  max neighbors/atom: 2000, page size: 100000
  master list distance cutoff = 3.8
  ghost atom cutoff = 3.8
  binsize = 1.9, bins = 8 8 8
  4 neighbor lists, perpetual/occasional/extra = 1 3 0
  (1) pair lj/cut, perpetual
      attributes: half, newton on
      pair build: half/bin/atomonly/newton
      stencil: half/bin/3d
      bin: standard
  (2) compute orientorder/atom, occasional
      attributes: full, newton on
      pair build: full/bin/atomonly
      stencil: full/bin/3d
      bin: standard
  (3) compute coord/atom, occasional
      attributes: full, newton on
      pair build: full/bin/atomonly
      stencil: full/bin/3d
      bin: standard
  (4) compute cluster/atom, occasional
      attributes: full, newton on
      pair build: full/bin/atomonly
      stencil: full/bin/3d
      bin: standard
Per MPI rank memory allocation (min/avg/max) = 9.814 | 9.819 | 9.824 Mbytes
Step Temp PotEng c_msd[4] v_twopoint v_fit v_max_n 
   12000    1.2266704   -2.5113675 1.1848691e-30 8.2282572e-33 8.3333333e+20            1 
   13000    1.2432922   -2.5426604    1.1511703 0.0073792965  0.098081759            2 
   14000    1.2509858   -2.5373159    2.4455655  0.014556937     0.104247            1 
   15000    1.2634336   -2.5321834    3.6978029  0.020543349   0.10467083            2 
   16000    1.2433464   -2.5619208    4.9334496  0.025695049   0.10429471            2 
   17000    1.2646564   -2.5390607    6.1905936  0.030346046   0.10432231            2 
   18000    1.2506448   -2.5279653    7.4958516  0.034703016   0.10487922            1 
   19000    1.2301947   -2.5460428    8.8964833  0.039019663   0.10564875            3 
   20000    1.2298185   -2.5473599    10.343813   0.04309922   0.10707391            2 
   21000    1.2413599   -2.5384457    11.793278  0.046798722   0.10879773            1 
   22000    1.2628685   -2.5569495    13.127515  0.049725433   0.10988749            1 
   23000    1.2678383   -2.5670611    14.532067  0.052652416   0.11075328            2 
   24000    1.2780691   -2.5565393    15.587295  0.054122552   0.11094106            2 
   25000    1.2593091   -2.5525944    17.034999  0.056783329   0.11100552            1 
   26000    1.2376414   -2.5376073     18.51429  0.059340673   0.11109364            1 
   27000    1.2768098   -2.5557852     19.94782  0.061567346   0.11142523       -1e+20 
   28000    1.2495795   -2.5522776    21.350651  0.063543603   0.11192474            2 
   29000     1.250143   -2.5542416    22.794161  0.065500461   0.11242909            2 
   30000    1.2369516   -2.5383567     24.09193  0.066922028   0.11269748            1 
   31000    1.2113737   -2.5484077    25.133998  0.067564508   0.11284851            1 
   32000    1.2383454   -2.5622987    26.282594  0.068444253   0.11262015            1 
   33000    1.2600161   -2.5578696    27.663072  0.069856242   0.11231876            2 
   34000    1.2351343   -2.5298254     29.07248  0.071256078   0.11222607            1 
   35000    1.2513797   -2.5394561    30.397247  0.072374398   0.11195901            1 
   36000    1.2387499   -2.5491628    31.157845   0.07212464    0.1115814            1 
   37000    1.2730265   -2.5710613    32.589658  0.073400131   0.11110533            1 
   38000    1.2325796    -2.566458    33.410877  0.073269466   0.11059178            1 
   39000    1.2520124   -2.5656895    34.830132  0.074423358   0.11007706            1 
   40000    1.2335606   -2.5373825    36.230768  0.075480765   0.10968657            2 
   41000    1.2780058   -2.5397352    37.330032  0.075874048   0.10925048            3 
   42000    1.2734085   -2.5635378    38.381343  0.076153458   0.10875501            1 
   43000    1.2502735   -2.5185412     39.54528   0.07663814   0.10826935            1 
   44000    1.2299869   -2.5584955    40.867933  0.077401388   0.10795286            3 
   45000    1.2527209   -2.5407977    41.998749   0.07777546   0.10762975            2 
   46000    1.2283681   -2.5722914    43.196075  0.078253758   0.10728961            2 
   47000    1.2294118   -2.5438987    44.135432  0.078254312   0.10691665            2 
   48000    1.2621381   -2.5392841    45.605097  0.079175515   0.10657924            1 
   49000    1.2403834   -2.5471464    46.595232   0.07924359   0.10625312            1 
   50000    1.2352394   -2.5226519    47.895478  0.079825796   0.10595023            1 
   51000    1.2444627   -2.5322149    48.843868  0.079810241   0.10561306            1 
   52000    1.2801131   -2.5362325    50.061342  0.080226508   0.10525147            2 
   53000    1.2343171    -2.551881    51.090779  0.080331412   0.10493655            2 
   54000    1.2151383   -2.5273073     52.59798  0.081169722    0.1046351            1 
   55000    1.2321359   -2.5661043    53.876229  0.081630649   0.10442761            1 
   56000    1.2412503   -2.5395274    55.328961  0.082334762    0.1043027            2 
   57000    1.2379114   -2.5803791    56.620911   0.08277911   0.10424707            2 
   58000    1.2543451   -2.5815812    58.118362  0.083503393   0.10423739            1 
   59000     1.234083   -2.5613722    59.694368  0.084314079   0.10422473            1 
   60000    1.2591149   -2.5568392     60.82975  0.084485763   0.10425105            1 
   61000    1.2609754   -2.5665519    62.140838  0.084891855   0.10428354            1 
   62000    1.2575843   -2.5187795    63.394811  0.085208078   0.10433369            1 
   63000    1.2497384    -2.551687    64.344032  0.085111153   0.10437246            1 
   64000    1.2224944   -2.5536787    65.753148  0.085616077   0.10438381            1 
   65000    1.2553584   -2.5655738     67.15263  0.086093114   0.10437454            2 
   66000    1.2413401   -2.5483179     68.14017  0.086035568   0.10437245            2 
   67000     1.248731   -2.5602869    69.415997  0.086338304   0.10434129            1 
   68000    1.2351951    -2.517172    71.127469  0.087166015   0.10432983            2 
   69000    1.2539502   -2.5708108     71.66783   0.08655535   0.10432545            1 
   70000    1.2393601    -2.539577    73.796009  0.087852391   0.10437493            1 
   71000    1.2321023   -2.5429807    75.292955  0.088372013     0.104448            8 
   72000    1.2502546   -2.5623535    76.012678  0.087977636   0.10450934            8 
   73000    1.2389216   -2.5426119    77.588885  0.088571786   0.10454526            1 
   74000    1.2447603   -2.5250776    78.612281  0.088527343   0.10456855            4 
   75000    1.2298678   -2.5684397     79.98449  0.088871655   0.10462062            2 
   76000    1.2502651   -2.5127183     81.54226  0.089410373   0.10468563            1 
   77000    1.2269349    -2.557188    82.920486  0.089740785   0.10477098            2 
   78000    1.2438048   -2.5506944    84.366463   0.09013511   0.10487486            2 
   79000    1.2363341   -2.5894581    85.836124  0.090544434   0.10496583            1 
   80000    1.2432289   -2.5226334    86.509867  0.090114444   0.10504093            1 
   81000     1.245458    -2.549393    87.985023   0.09051957   0.10511705            1 
   82000    1.2552241   -2.5639742    89.703457  0.091162049   0.10519922            1 
   83000    1.2420487   -2.5674578    90.665409  0.091029527   0.10528631            2 
   84000    1.2179839   -2.5221467    92.568482  0.091833811   0.10538358            1 
   85000    1.2383254   -2.5808309      93.2644  0.091435686   0.10546841            1 
   86000    1.2438931   -2.5759223    94.117796  0.091199414   0.10550513            2 
   87000    1.2568808   -2.5536687     95.49264  0.091468045   0.10551931            2 
   88000     1.258298    -2.541751    96.255852  0.091151375   0.10552634            1 
   89000    1.2113808   -2.5253402    97.888404  0.091655808   0.10551201            1 
   90000    1.2316159   -2.5694035    98.729172    0.0914159   0.10550164            1 
   91000    1.2687099   -2.5546889    100.20065  0.091758834   0.10550097            1 
   92000    1.2355328   -2.5494717     101.0774  0.091555616   0.10548138            2 
   93000    1.2453818   -2.5998058    102.62606  0.091958833   0.10545954            1 
   94000    1.2217481   -2.5447196    104.20088  0.092376667   0.10543995            2 
   95000    1.2581454   -2.5535209    105.10694  0.092199073   0.10542773            1 
   96000    1.2296111    -2.540061    106.60511  0.092539154   0.10542042            1 
   97000    1.2298113   -2.5555907    107.86283  0.092665658    0.1054203            5 
   98000    1.2411511   -2.5846699    109.61491  0.093209954   0.10541362            3 
   99000    1.2487198   -2.5644592     110.0959  0.092673319   0.10540797            2 
  100000    1.2726512   -2.5552096    112.33196  0.093609964   0.10543504            2 
  101000    1.2497513   -2.5262992    113.39603  0.093561081   0.10546177            1 
  102000    1.2279367   -2.5385115    114.32923   0.09340623   0.10547259            2 
  103000    1.2297129   -2.5814438    116.71897  0.094432823   0.10551709            1 
  104000    1.2281189   -2.5339113    117.88029  0.094455358    0.1055688            1 
  105000    1.2595961   -2.5551627    118.52449  0.094067055   0.10560822            2 
  106000    1.2265211   -2.5851103    119.94297  0.094294789   0.10564908            2 
  107000    1.2387184   -2.5647778    120.74326  0.094036806   0.10567645            1 
  108000    1.2548803   -2.5616676    123.39187  0.095209774   0.10571126            2 
  109000    1.2048341   -2.5660886    124.06637  0.094851962   0.10574939            1 
  110000    1.2130853   -2.5847084    124.72352  0.094487513   0.10577588            2 
  111000    1.2555967    -2.570382    126.18909  0.094736555   0.10580172            4 
  112000    1.2244601   -2.5889383    128.78562  0.095822637   0.10585536            2 
  113000    1.2431678   -2.5517794     130.0009   0.09587087    0.1059203            1 
  114000    1.2792982   -2.5965773    131.72471  0.096289993   0.10599214            1 
  115000    1.2456143   -2.5663123    132.73435  0.096184312   0.10604862            2 
  116000    1.2223119   -2.5462497    133.88049   0.09617851   0.10611531            2 
  117000    1.2542466   -2.5631245    134.76651  0.095987544   0.10616346            3 
  118000    1.2080484   -2.5346729    136.57746  0.096453007   0.10621875            1 
  119000    1.2116563   -2.5748003    137.64649  0.096391102   0.10627921            4 
  120000    1.2405107   -2.5927624    138.92179  0.096473468   0.10632126            1 
  121000    1.2418683   -2.5548833     140.3261  0.096643322    0.1063633            1 
  122000    1.2322867   -2.5296891    141.16684  0.096425434   0.10640621            2 
  123000    1.2036863    -2.578637    143.29427  0.097082835   0.10644441            3 
  124000    1.2420456    -2.564078    144.88107  0.097366307    0.1064811            1 
  125000    1.2227557   -2.5472577    145.29524  0.096863492    0.1065142            2 
  126000    1.2425571   -2.6052216    145.25007  0.096064858   0.10653604            2 
  127000    1.2120407   -2.5723662    147.74275  0.096944062    0.1065516            2 
  128000    1.2404188   -2.5361634     148.7135  0.096818684   0.10657065            1 
  129000    1.2388732   -2.5534897    149.75825  0.096743054   0.10657988            1 
  130000    1.2480083   -2.5805833    150.88865  0.096723491   0.10657476            1 
  131000    1.2558197   -2.5519757     152.0053  0.096695486   0.10657057            2 
  132000    1.1999744   -2.5569239    153.04148  0.096617094   0.10655992            2 
  133000    1.2516819   -2.5442489    154.52932  0.096822879   0.10655826            3 
  134000    1.2406802   -2.5736631    154.96997  0.096374359   0.10654405            1 
  135000    1.2421653   -2.5670859    156.60094  0.096667248   0.10652218            2 
  136000    1.2296404   -2.5627044    157.98376  0.096803776   0.10651137            3 
  137000    1.2135005   -2.5394342    159.52505  0.097034704   0.10648804            1 
  138000    1.2241677   -2.5698534    160.15188  0.096710074   0.10647496            1 
  139000    1.2268892   -2.5697849    162.02267  0.097135891    0.1064646            4 
  140000    1.2498336   -2.5948638    162.36014  0.096642938   0.10645316            1 
  141000    1.2056264   -2.5564142    164.34557  0.097130953   0.10644106            1 
  142000    1.2062595   -2.5849018    165.48646  0.097116464   0.10642473            3 
  143000    1.2387371   -2.5726866     167.1137  0.097385605   0.10641378            2 
  144000    1.2501989   -2.5716723    167.70466   0.09705131   0.10639127            1 
  145000    1.2140246   -2.5631131    169.51971  0.097425118   0.10636696            4 
  146000    1.2553096   -2.5691186    170.56273  0.097353154    0.1063407            2 
  147000    1.2293893   -2.5486451    171.12264  0.097008298     0.106324            1 
  148000    1.2612349   -2.5664718    172.96714  0.097391408   0.10629894            2 
  149000    1.2352492    -2.595244    174.04395  0.097340017   0.10627321            2 
  150000    1.2349727   -2.5655423    174.97057  0.097205871   0.10625084            1 
  151000    1.2346002   -2.5567398    177.25686  0.097823872    0.1062247            1 
  152000    1.2256604   -2.5961227     177.6055  0.097371434   0.10621345            2 
  153000      1.23624   -2.5736404    179.84698  0.097955869   0.10619541            1 
  154000    1.2421231   -2.5783436    179.91835  0.097358415   0.10617946            1 
  155000    1.1974881   -2.5461258    181.88115  0.097785562   0.10616495            1 
  156000     1.235023   -2.5981133    183.53179  0.098040488   0.10615778            1 
  157000    1.2179586   -2.5866485    183.65113  0.097479371   0.10614212            2 
  158000    1.2373109   -2.5575262    185.30509  0.097734749   0.10612644            2 
  159000    1.2401983   -2.5686768    186.44655  0.097718319   0.10610981            1 
  160000     1.211907   -2.5676757    188.04575  0.097940494   0.10609901            4 
  161000     1.212915   -2.5432175    189.10873  0.097882365   0.10608067            3 
  162000    1.2334044   -2.6156543    189.76559  0.097616045   0.10604831            2 
  163000    1.2410345   -2.5876391    190.03582  0.097155327   0.10601767            2 
  164000    1.2336773   -2.5491545    192.58888  0.097860205   0.10598612            3 
  165000    1.2175898   -2.5626912    192.81897  0.097383316   0.10595198            1 
  166000    1.1928223   -2.5766515    194.50859  0.097644875   0.10592745            3 
  167000    1.2564176    -2.571708    196.36397  0.097986013   0.10590366            2 
  168000    1.2322516   -2.5686023    196.91815  0.097677654   0.10588076            1 
  169000    1.2331939    -2.579526    198.15164  0.097707911   0.10585808            1 
  170000    1.2292655    -2.572633    199.15296  0.097624001   0.10583044            1 
  171000    1.2228612   -2.5889333    200.13223  0.097530328   0.10580036            2 
  172000    1.2427614   -2.5836776    202.17705  0.097953996   0.10577131            1 
  173000    1.2179703   -2.5982603    203.17225  0.097867174   0.10573896            2 
  174000    1.2082595   -2.6042863    203.89015  0.097648538   0.10570493            1 
  175000     1.221148    -2.578468    204.31887  0.097294698    0.1056582            3 
  176000    1.2099121   -2.5392455    206.22518  0.097644498   0.10561834            2 
  177000    1.1964843   -2.5585926    206.72513  0.097328215   0.10557378            1 
  178000    1.2273919   -2.5884202     208.9282  0.097812829   0.10554011            1 
  179000    1.2144213   -2.5811847    209.37283  0.097473383   0.10550299            1 
  180000     1.229365   -2.5546378    211.16233  0.097760338   0.10546857            1 
  181000    1.1939492   -2.5940651    212.92748  0.098032912   0.10543156            3 
  182000    1.1918987   -2.5273894    215.03201  0.098457878   0.10539348            1 
  183000    1.2218417   -2.5807849    214.73111  0.097782835   0.10535974            1 
  184000     1.224154   -2.5475235    217.85668  0.098666974   0.10532592            1 
  185000     1.214196   -2.6052619    217.43062  0.097941718   0.10529374            2 
  186000    1.1952279   -2.5490831    218.47054  0.097881067   0.10525937            3 
  187000    1.2563145    -2.564751     221.2645  0.098602718   0.10522727            2 
  188000    1.2151894   -2.5642058    221.00467  0.097963062   0.10519512       -1e+20 
  189000    1.2123872   -2.5543464    221.47984  0.097654249   0.10515622            2 
  190000    1.1983418   -2.5708127    222.93318  0.097777711   0.10511175            2 
  191000    1.2285754   -2.5645082    222.95794  0.097276587   0.10507124            1 
  192000    1.2242079   -2.5619402    225.76252  0.097987206   0.10503135            2 
  193000    1.2210409    -2.591659    226.77348  0.097916011   0.10499555            2 
  194000     1.215972   -2.5784026       227.38   0.09767182   0.10496004            2 
  195000     1.229201   -2.5678029    229.34474  0.098010571   0.10492802            2 
  196000    1.2110319   -2.5898932    230.09401  0.097829085   0.10490324            4 
  197000    1.2211554   -2.5906423     232.3099  0.098269839   0.10488892            1 
  198000    1.2116623   -2.5937433    234.42717  0.098664632   0.10487377            1 
  199000    1.2378504   -2.5622802     235.6803  0.098693592   0.10485997            4 
  200000     1.228945    -2.544371    238.17024  0.099237601   0.10485335            2 
  201000    1.2020492   -2.5602062    237.57432  0.098496818    0.1048427            2 
  202000    1.2280858   -2.5994705    239.24466  0.098698293   0.10483103            1 
  203000    1.2099865    -2.592988    240.80142  0.098851158   0.10481837            1 
  204000    1.2601406   -2.5769369    240.98982  0.098443555   0.10479985            1 
  205000    1.2224241   -2.5947399    242.44044  0.098553025   0.10477881            2 
  206000    1.2442547   -2.5925303    243.16623  0.098368214   0.10475813            2 
  207000    1.2386413   -2.5205878    245.58505  0.098866767   0.10473514            1 
  208000     1.192386   -2.6098864    246.15457   0.09861962   0.10470692            1 
  209000    1.2455102   -2.5888668    246.62275  0.098334431   0.10468169            1 
  210000    1.2018621   -2.5758949    247.38769  0.098169717   0.10465614            2 
  211000    1.2165893   -2.5795335    248.02742  0.097957115   0.10462407            2 
  212000    1.2014407   -2.5873649    249.64347  0.098130294   0.10459345            4 
  213000    1.2154788   -2.5812527    250.72138  0.098091307   0.10456388            1 
  214000    1.2146019   -2.5699835    251.88949  0.098087806   0.10453136            2 
  215000    1.1972155   -2.5880998    254.02742  0.098460241   0.10449937            1 
  216000    1.2120631   -2.6038992    255.40044  0.098534121    0.1044702            2 
  217000    1.2054339   -2.5818807    255.54613  0.098135996   0.10444426            2 
  218000    1.2171855   -2.5711562    259.25904  0.099105138   0.10442346            1 
  219000    1.1978734   -2.5433112    258.94604  0.098533502    0.1044047            2 
  220000    1.1942675   -2.5943286    260.31798  0.098605294   0.10438719            2 
  221000    1.2039212   -2.5748819     260.9506  0.098397663   0.10436485            3 
  222000    1.2049197   -2.5884426    261.81839  0.098280176   0.10434161            1 
  223000    1.2263493   -2.5728609    261.72237  0.097803577   0.10431218            2 
  224000    1.1933845   -2.5564986    263.65182  0.098084755   0.10428012            1 
  225000    1.1790904   -2.5998785    265.14369  0.098201365   0.10424408            2 
  226000    1.2180678   -2.5937705    265.67175  0.097961561   0.10421313            1 
  227000    1.1958867   -2.5719767    266.33563  0.097773726   0.10418537            1 
  228000    1.2167332   -2.5889803    268.43409  0.098111876   0.10415292            2 
  229000    1.2173081    -2.576205     268.8949  0.097851128   0.10412525            2 
  230000    1.1805457   -2.5970285    271.40845  0.098336394   0.10409287            1 
  231000    1.1984217   -2.5579199     272.1539  0.098179618   0.10406223            2 
  232000    1.1915437   -2.5977847    272.96612  0.098048173   0.10403102            2 
  233000    1.2193149   -2.5770537    275.02344  0.098363178   0.10399909            5 
  234000    1.2219146   -2.5905515    276.73965  0.098554005   0.10396684            2 
  235000    1.2136601   -2.5621067    276.64042   0.09809944   0.10393601            1 
  236000    1.2106999   -2.5558875    278.54408  0.098355959   0.10390043            3 
  237000    1.2108732   -2.5894635    277.99202  0.097746841   0.10386358            1 
  238000     1.218563   -2.5956446    279.06392  0.097711458   0.10382487            2 
  239000    1.2019461    -2.611386    280.87197  0.097933043   0.10378958            1 
  240000    1.2095487   -2.5924667    283.03913  0.098277474   0.10375293            1 
  241000    1.2219061   -2.5640297    284.01984  0.098208795   0.10372355            5 
  242000    1.2039937   -2.5722872    285.95633  0.098469811   0.10369508            1 
  243000    1.2047658   -2.5769708    286.04731  0.098095785     0.103667            2 
  244000    1.2364478   -2.5973616    288.27438  0.098454365   0.10363901            2 
  245000    1.2309487    -2.592351    289.81205  0.098575527   0.10361636            1 
  246000    1.2320869   -2.5976747    288.46039  0.097716936   0.10358498            2 
  247000    1.2299677   -2.5980138     293.2674  0.098943119   0.10355687            1 
  248000    1.2294686   -2.5498711    292.16516  0.098173776    0.1035328            3 
  249000    1.2227439   -2.6201727    294.12899  0.098436743   0.10350986            1 
  250000    1.2015627   -2.5431212     295.8624  0.098620798   0.10348697            2 
  251000    1.2300574   -2.5858541    296.30659  0.098375363   0.10345669            2 
  252000    1.2365752   -2.5787699    297.87136  0.098502432    0.1034327            1 
  253000     1.203344   -2.6271495    296.98624  0.097821555   0.10340801            2 
  254000    1.2312695   -2.5604676    299.73987  0.098339853   0.10337896            2 
  255000    1.1947187   -2.5816103    299.68486  0.097936228   0.10335271            2 
  256000    1.1895363   -2.6272712     301.6367   0.09818903   0.10332135            1 
  257000     1.208532   -2.6115111    302.02202  0.097931913   0.10328713            1 
  258000     1.207613   -2.5932639    304.02412  0.098199004   0.10325993            1 
  259000    1.2365164   -2.5816173    304.99249  0.098131432   0.10323174            2 
  260000    1.1949173    -2.592492    304.94369  0.097738361   0.10320153            1 
  261000    1.2081859   -2.5522322    308.70417   0.09856455   0.10317512            2 
  262000    1.1944237   -2.5761507    308.25496  0.098045471   0.10314861            1 
  263000     1.202093   -2.5965709    309.76319  0.098150567   0.10312204            2 
  264000    1.1989725   -2.5841656    310.83164  0.098116048   0.10309821            2 
  265000    1.2107286   -2.5547681    313.62525  0.098624292   0.10307473            1 
  266000    1.2086358   -2.5895336    313.55045  0.098230092   0.10305614            3 
  267000    1.2171921   -2.6020939    315.41401  0.098443823   0.10303396            2 
  268000    1.2048904   -2.5730906    316.91822  0.098544222   0.10300729            1 
  269000    1.1876552   -2.5790194    317.45428  0.098343952   0.10298529            1 
  270000    1.1797595   -2.5748877    317.57231  0.098016146   0.10295712            1 
  271000    1.2154784   -2.6213548    319.44083  0.098229038   0.10293383            1 
  272000    1.2125803   -2.5742677    319.97453  0.098031412    0.1029084            2 
  273000    1.1892733   -2.5982005    322.07659  0.098313979   0.10288665            2 
  274000    1.2387326   -2.5725416    322.11951  0.097968222   0.10285989            1 
  275000    1.2216327   -2.5693512    324.64413  0.098377009   0.10283768            1 
  276000    1.1820061   -2.6030322    325.01856  0.098133624    0.1028096            1 
  277000    1.1907935   -2.6053408    328.52065  0.098832928   0.10279136            2 
  278000    1.1795915   -2.6006007    329.16002  0.098669071   0.10277785            1 
  279000    1.1818942   -2.5681707    330.70837  0.098777888    0.1027664            4 
  280000    1.1927053   -2.5975714    332.73073  0.099027001   0.10275536            1 
  281000    1.2034897   -2.5690019    333.28857  0.098840026   0.10275091            1 
  282000    1.2018665   -2.5945816    335.11186  0.099028328   0.10274493            1 
  283000    1.1950319   -2.5861126    335.72012  0.098857514   0.10273681            2 
  284000    1.2033807   -2.6160743    336.36589  0.098698911   0.10273217            1 
  285000    1.2130342   -2.5955819    338.20691  0.098890909    0.1027253            3 
  286000    1.2023681   -2.5739411    339.51118  0.098925169   0.10272079            2 
  287000    1.2216689   -2.6042884    341.13435  0.099051785   0.10271414            2 
  288000    1.2069861   -2.6118408    340.83445  0.098621078   0.10270985            1 
  289000    1.2204429   -2.5968203    342.98439  0.098899768   0.10270315            1 
  290000    1.1943383   -2.5611407    344.79104  0.099077884   0.10269509            5 
  291000    1.1924215   -2.6029022    343.50494  0.098369113   0.10268506            2 
  292000    1.2037008     -2.60937     346.4145  0.098862586   0.10267521            3 
  293000    1.1835935   -2.5887566    346.10005  0.098435737   0.10266492            5 
  294000    1.2215705   -2.5801372    348.52241  0.098787532    0.1026517            1 
  295000    1.1948985   -2.6306711    348.13274  0.098342581   0.10264108            2 
  296000     1.214419   -2.6198207     349.3896  0.098364189   0.10262902            3 
  297000    1.1914786   -2.5910449    351.69294  0.098679276   0.10261412            1 
  298000    1.1973048   -2.5932728      353.151  0.098755873   0.10259831            1 
  299000    1.2088424   -2.6115722    353.70599  0.098580264    0.1025835            2 
  300000      1.21114   -2.5907591    354.05287  0.098348019   0.10257305            1 
  301000    1.2294409   -2.6041107     359.1658  0.099436821   0.10256597            1 
  302000    1.1983274   -2.5723797    360.20362  0.099393936   0.10256418            1 
  303000    1.2213283   -2.5697861    363.62703   0.10000743   0.10256644            2 
  304000    1.1980097    -2.562514    362.18785  0.099283951   0.10256533            2 
  305000    1.2085728   -2.6084307    363.50956  0.099319552   0.10256275            1 
  306000    1.2139772   -2.5878723    364.26694  0.099201237   0.10256164            1 
  307000    1.1782339   -2.6096355    366.18406  0.099398497   0.10256175            1 
  308000    1.2109139   -2.5864019     364.5728  0.098639826   0.10256305            1 
  309000    1.2020443   -2.5588566    369.62243  0.099682425   0.10256313            2 
  310000    1.2168776   -2.6015772    369.55779  0.099343493   0.10256402            1 
  311000    1.1752129   -2.6194279    372.01791  0.099683255   0.10256251            1 
  312000    1.2352045   -2.5762132    372.10016  0.099385725   0.10256189            2 
  313000    1.2079886   -2.6001248    372.90372   0.09928214    0.1025597            1 
  314000    1.1805011   -2.5947996    373.78227  0.099199116   0.10255617            1 
  315000    1.1974514   -2.6136097    374.27667  0.099014993   0.10255168            2 
  316000    1.1933388   -2.5866449    375.89639  0.099128795    0.1025454            4 
  317000    1.1932162   -2.5865303    375.98714  0.098839943   0.10254107            1 
  318000    1.2025085   -2.6041485    376.89598  0.098767289   0.10253394            2 
  319000    1.1941996    -2.600921    378.68205  0.098924256   0.10251872            4 
  320000    1.2083856   -2.5958427    380.39709  0.099061743   0.10250558            3 
  321000     1.201161   -2.6167116     380.1922  0.098699947   0.10249298            2 
  322000    1.1978388   -2.5971684    382.62139  0.099022098   0.10247638            1 
  323000    1.2186403   -2.6028133    381.92592    0.0985361    0.1024601            1 
  324000    1.2080124   -2.6036002    383.63728   0.09867214   0.10244658            1 
  325000    1.2097645   -2.5971092    385.57541  0.098865489   0.10243313            1 
  326000    1.2062035    -2.581548    386.48643  0.098795101   0.10242249            1 
  327000     1.217446   -2.6011187    387.53282  0.098759638    0.1024094            1 
  328000    1.2186993    -2.595458    390.68339   0.09925899   0.10239839            2 
  329000    1.1969987   -2.5785637    390.40742  0.098887391   0.10238863            1 
  330000    1.1844126   -2.6197128    389.22705  0.098289658    0.1023784            1 
  331000    1.2030421   -2.5920286    395.41097  0.099549589   0.10236575            2 
  332000    1.1988666   -2.5992048    396.38974  0.099495418   0.10235656            2 
  333000    1.1917897   -2.5363148     397.0586  0.099364013   0.10234822            2 
  334000    1.1925062   -2.6178047    396.39256  0.098900338   0.10233963            5 
  335000    1.2318636   -2.6152209    398.58029  0.099149327   0.10233419            1 
  336000    1.1865051   -2.5931552     400.8148  0.099408431   0.10232903            5 
  337000    1.2368724   -2.5961951    402.14479  0.099442331   0.10232388            2 
  338000    1.2094684   -2.5981243    405.30562  0.099927421   0.10232076            2 
  339000    1.1938724   -2.5954934    403.80665  0.099264172   0.10231664            1 
  340000    1.1921492   -2.5981817    404.07127  0.099037075   0.10231023            1 
  341000    1.1766248    -2.552339    409.62139   0.10010298   0.10230803            2 
  342000    1.2104483   -2.5729344     408.5907  0.099559137   0.10230453            1 
  343000     1.177514   -2.6114622    409.21403  0.099420319   0.10230304            1 
  344000     1.194574   -2.6073566    409.09135  0.099101587   0.10229869            1 
  345000    1.1903781   -2.6093306    411.30651  0.099349398   0.10229525       -1e+20 
  346000    1.1929056   -2.5516973    412.70913  0.099400079   0.10229209            2 
  347000    1.2138665   -2.6375149    413.79773  0.099375056   0.10228993            3 
  348000    1.1910572   -2.5886178    416.54605  0.099747618   0.10228785            3 
  349000    1.1846045   -2.5890235    418.25011  0.099868698   0.10228773            3 
  350000    1.2073337   -2.6005829    418.78962  0.099711814   0.10228801            1 
  351000    1.1717581   -2.6047791    420.40385   0.09981098   0.10229019            3 
  352000    1.1670217    -2.598502    420.59342  0.099572306   0.10228884            2 
  353000    1.1922509   -2.6169624    421.20855  0.099435445   0.10228924            1 
  354000    1.2154515    -2.572597    424.01353  0.099814862   0.10229137            2 
  355000    1.1924437   -2.6061093    425.47866  0.099877618   0.10229268            1 
  356000    1.1934915   -2.5838206    426.29543  0.099788256   0.10229413            3 
  357000    1.2075711   -2.6073915    426.42336  0.099538599   0.10229719            2 
  358000    1.1749318   -2.6026742    429.47824  0.099971657   0.10229711            3 
  359000    1.1625403   -2.5941994     431.1554    0.1000825   0.10230123            1 
  360000    1.2094092   -2.6147272    429.65313  0.099456744   0.10230211            2 
  361000    1.1931639   -2.6129238    432.65641  0.099874519   0.10230257            2 
  362000    1.2058152   -2.6000886    434.74729   0.10007995   0.10230421            1 
  363000     1.190278   -2.6209805    433.66614  0.099556046   0.10230621            2 
  364000    1.2016515   -2.6067654    434.13145  0.099389067   0.10230735            1 
  365000    1.2040322   -2.5903991    437.12872  0.099801078   0.10230837            4 
  366000    1.2056863   -2.6398718     438.9932  0.099952913   0.10230839            2 
  367000    1.1845995   -2.6131254    438.63389  0.099598977   0.10230965            2 
  368000    1.2064555    -2.598933     439.4771   0.09951927   0.10230889            1 
  369000    1.2004086   -2.6403519    440.55857  0.099493805     0.102309            3 
  370000    1.2088324   -2.6120878    445.51761    0.1003418   0.10231317            1 
  371000    1.1669375   -2.6256219    442.91333  0.099486373   0.10231393            1 
  372000    1.1918279   -2.6006209    446.16512  0.099947383   0.10231303            1 
  373000    1.2113263    -2.602217    447.53505   0.09998549   0.10231295            1 
  374000    1.1796481   -2.5810503    447.16028  0.099634644   0.10230962            4 
  375000    1.2512029   -2.6243578    450.33703    0.1000749   0.10230931            1 
  376000    1.2144089   -2.6144371    449.55812  0.099636108   0.10230759            6 
  377000     1.171619   -2.6062953    451.39015   0.09977678   0.10230316            1 
  378000    1.1839474   -2.5980148    451.61788  0.099563025   0.10230181            1 
  379000    1.2236462   -2.6069658    450.95572  0.099154732   0.10229983            2 
  380000    1.2067894   -2.5698354    453.60448  0.099474667   0.10229847            1 
  381000    1.1796575   -2.6131278    456.33241  0.099810237   0.10229769            2 
  382000    1.2010549   -2.5946281    457.81366   0.09987209   0.10229797            1 
  383000     1.205425    -2.594561    457.79461  0.099607182   0.10229959            3 
  384000     1.175256   -2.6082126     460.0746  0.099842577    0.1022984            1 
  385000    1.1971917   -2.6200371     461.5722  0.099907402   0.10229878            4 
  386000    1.1944512   -2.6154783    462.31368  0.099808653   0.10230025            1 
  387000    1.1855855   -2.5753084    465.09123   0.10014884   0.10230398            2 
  388000     1.192556    -2.596172      464.828  0.099834193   0.10230708            2 
  389000    1.2020001   -2.6185124    469.23452   0.10052153   0.10230801            3 
  390000    1.2039575   -2.5991062    468.60749   0.10012981   0.10231139            2 
  391000    1.1802225    -2.615788    468.33325  0.099815271   0.10231335            2 
  392000    1.1764701   -2.5816431    470.83081   0.10009158   0.10231418            1 
  393000    1.1834255   -2.5927025    472.40231   0.10017012   0.10231634            1 
  394000    1.1835764   -2.5876819    472.47771  0.099931834   0.10231816            3 
  395000    1.1937549   -2.6213762    471.44198  0.099460333   0.10231579            2 
  396000    1.1782567    -2.584274    473.50352  0.099642997   0.10230972            2 
  397000    1.1932353   -2.6059461    472.93583  0.099272843    0.1023035            2 
  398000    1.1842052   -2.6269756    476.53429  0.099776862   0.10229708            1 
  399000    1.1832509   -2.6041224    476.41215  0.099501285   0.10229011            2 
  400000    1.1884009   -2.6147217    477.52845  0.099485094   0.10228062            4 
  401000    1.1696178   -2.6226037    478.75365  0.099491615   0.10227134            1 
  402000    1.2007948   -2.5931967    479.83664  0.099468623   0.10226018            1 
  403000    1.1998433   -2.5995567    479.83511  0.099221486   0.10225118            3 
  404000    1.2269256    -2.607983    481.87803  0.099397283   0.10223919            1 
  405000    1.1906598   -2.6202948    482.64461   0.09930959   0.10222945            2 
  406000    1.1917649   -2.6053385    484.79483  0.099506329   0.10221915            1 
  407000    1.1843228   -2.6191549    482.84624  0.098862867   0.10220978            2 
  408000    1.2199638   -2.6314944    485.96167  0.099256876   0.10219737            2 
  409000    1.2026633   -2.6105532    483.76491  0.098566608   0.10217959            2 
  410000    1.2045237   -2.6267931    483.48956  0.098270236   0.10215788            1 
  411000    1.1768576    -2.624182    486.14249  0.098569037   0.10213703            1 
  412000     1.181477   -2.6413834    485.78332  0.098257144   0.10211433            2 
  413000    1.1910401   -2.5949906    488.48904  0.098565182   0.10209103            1 
  414000    1.1724676   -2.6286407    488.05025  0.098238778   0.10206678            2 
  415000    1.1764919    -2.636813    488.71182  0.098134904    0.1020424            2 
  416000     1.161878   -2.6018159    491.66877   0.09849134   0.10201742            2 
  417000    1.1963783   -2.6293616    491.62498  0.098246399   0.10199229            1 
  418000    1.2059207   -2.6221124    494.19703  0.098524129   0.10196692            1 
  419000    1.2083527   -2.6481128    492.60523    0.0979724   0.10194464            2 
  420000    1.2077684    -2.614364    495.56748  0.098326881   0.10191925            1 
  421000    1.1990859   -2.6589445    496.77206  0.098331761    0.1018961            3 
  422000     1.207291   -2.6270729    495.65951  0.097879051   0.10187132            2 
  423000    1.1746132   -2.6222371    497.70031  0.098049706    0.1018469            1 
  424000    1.1994353   -2.6082085    501.53234  0.098571608   0.10182225            1 
  425000    1.1903655   -2.6085633    500.70937  0.098178307   0.10179901            2 
  426000    1.2156472   -2.6349312      501.824  0.098165884   0.10177486            1 
  427000    1.1947112   -2.6031859    504.59667  0.098477101   0.10175255            1 
  428000    1.1447237    -2.624672    502.10103  0.097761103   0.10172946            1 
  429000    1.1713322   -2.6162609    507.73455  0.098627535    0.1017042            1 
  430000    1.1881624   -2.6013549    505.96163  0.098054579    0.1016822            1 
  431000    1.1948874   -2.5950205     508.1922  0.098258352   0.10165915            1 
  432000    1.1767786   -2.6115854    507.03429   0.09780754   0.10163345            2 
  433000    1.1685661   -2.6167583    509.79494   0.09811296   0.10160766            1 
  434000    1.1853453   -2.6388827    508.44303  0.097627309   0.10157909            4 
  435000    1.1768007   -2.5897799    511.05382   0.09790303    0.1015494            2 
  436000    1.1819325   -2.5760607    510.04573  0.097485805   0.10152297            2 
  437000    1.1847916   -2.5981681    512.52989  0.097736439   0.10149644            5 
  438000     1.169786   -2.6258952    513.30252  0.097660297   0.10146745            2 
  439000    1.1834436   -2.5995979    512.39259  0.097265107   0.10143821            3 
  440000    1.1782195   -2.5894324    513.72228  0.097295887   0.10140734            1 
  441000    1.1622954   -2.6268678    514.92095  0.097301767   0.10137496            1 
  442000    1.1807074    -2.623187    516.22323  0.097327154   0.10134583            1 
  443000    1.1926157   -2.6345652    518.37765  0.097512725   0.10131613            2 
  444000    1.1765916   -2.6355319    516.56126  0.096952189     0.101287            4 
  445000    1.1801538   -2.6085118    520.34102  0.097442139   0.10125602            2 
  446000    1.1896775    -2.596731    522.03103   0.09753943   0.10122657            1 
  447000     1.185856   -2.6059494     519.3299  0.096817655   0.10119576            1 
  448000    1.2055668   -2.5878706    523.53807  0.097384313   0.10116574            1 
  449000    1.1995083   -2.6002434    525.87922  0.097601935   0.10113729            2 
  450000     1.197158   -2.6071184    528.25622  0.097825225   0.10111154            1 
  451000    1.1808664   -2.6012922    526.60567  0.097303339   0.10108503            2 
  452000    1.1643295    -2.650136      530.227  0.097755715   0.10105996            1 
  453000    1.1819419   -2.6087096    531.91128  0.097849757   0.10103539            2 
  454000    1.1777972   -2.6173264    532.33019  0.097711121   0.10100962            2 
  455000    1.1864818   -2.6261096    532.76856  0.097576659   0.10098455            2 
  456000    1.1581983   -2.6258708    533.22698   0.09744645   0.10096126            2 
  457000    1.1834022   -2.6076484    535.09057  0.097573044   0.10093575            1 
  458000    1.1834406   -2.6167004    535.21555  0.097382743   0.10091052            1 
  459000    1.1877427   -2.5683759    541.77212   0.09836095   0.10088674            1 
  460000    1.1740972   -2.5990124    540.39625  0.097897871   0.10086545            1 
  461000     1.188594   -2.6042975    540.01537  0.097616661   0.10084118            3 
  462000    1.1652545   -2.6356737    540.91604  0.097567828   0.10081692            2 
  463000    1.1709386   -2.5895708    544.41066   0.09798608   0.10079516            1 
  464000    1.1999294   -2.6267298    543.25782  0.097567855   0.10077332            1 
  465000    1.1675421   -2.5919872    544.06763  0.097503159   0.10075101            1 
  466000    1.1864692   -2.6249208     546.7658  0.097776431   0.10073012            4 
  467000    1.1845302   -2.6189545    547.82477  0.097756026   0.10071039            1 
  468000    1.1819848   -2.6311171    548.83786  0.097727539   0.10069016            1 
  469000    1.1697424   -2.6276244    549.34454  0.097609193   0.10066743            1 
  470000    1.1940632   -2.6217067    552.17131  0.097902714   0.10064676            2 
  471000    1.1859971   -2.6289708    550.98874  0.097485622   0.10062561            1 
  472000    1.1538525   -2.6391522    552.09068  0.097473637   0.10060404            1 
  473000    1.1848827   -2.6071648    555.31455  0.097835545   0.10058378            1 
  474000    1.1763461   -2.6004675    555.04103  0.097581053    0.1005636            2 
  475000    1.1600723   -2.6293005    556.31598  0.097599294   0.10054445            1 
  476000    1.1636681   -2.6283092     557.5919   0.09761763   0.10052634            1 
  477000    1.1707765   -2.6217412    559.21431   0.09769642   0.10050468            3 
  478000    1.1993677   -2.5995047    558.51317  0.097369799    0.1004834            1 
  479000    1.1789517   -2.6386972    559.98336  0.097422296    0.1004591            4 
  480000     1.178639   -2.6222293    560.55912  0.097319291   0.10043532            2 
  481000    1.1779953   -2.6470062    562.68065  0.097484521   0.10041285            1 
  482000    1.1711062    -2.609122    563.77985  0.097472311   0.10039107            1 
  483000    1.1691472   -2.6168757    567.35309  0.097887006   0.10036906            2 
  484000    1.1974829   -2.6409025    564.89032   0.09726073   0.10034635            1 
  485000    1.1927398   -2.6256121    567.11542  0.097442511   0.10032269            1 
  486000    1.2001078   -2.6172079    565.38653  0.096945564   0.10029829            2 
  487000     1.168319   -2.6187245    568.37456  0.097257796   0.10027283            2 
  488000    1.1751427   -2.6331445    570.18378  0.097367449   0.10024683            1 
  489000    1.1919851   -2.6076911    568.62616   0.09690289   0.10022063            2 
  490000    1.1456916   -2.6026853    570.48175  0.097020705   0.10019374            2 
  491000    1.1599282   -2.6104277    572.88027  0.097230188   0.10016741            2 
  492000    1.1891406   -2.6226169    569.24185  0.096416302   0.10014295            2 
  493000    1.1854223   -2.6390028    571.06537  0.096528966   0.10011821            1 
  494000    1.1668271   -2.6319988    572.55627  0.096585065   0.10009215            1 
  495000    1.1734966   -2.6292879     576.6076  0.097071986   0.10006621            1 
  496000    1.1857707   -2.6293542    576.89983  0.096925374   0.10004019            3 
  497000    1.1586661   -2.6398905    576.01581  0.096582128   0.10001538            4 
  498000    1.1775548   -2.6287285    579.68059  0.097001437  0.099989046            1 
  499000    1.1851377   -2.6310086    580.40942   0.09692876  0.099964991            2 
  500000    1.1901519   -2.6097042    579.13413  0.096522355  0.099941817            2 
  501000    1.1563844   -2.6284325     582.9166  0.096958849  0.099920249            2 
  502000    1.1384458   -2.6294308    585.29487  0.097160503  0.099898731            2 
  503000    1.1963203   -2.6465391    586.86991  0.097228282  0.099875551            1 
  504000    1.1864668    -2.622673    586.36461  0.096951821   0.09985274            1 
  505000    1.1822519   -2.6046067    587.40315  0.096931213  0.099830137            3 
  506000    1.1558472   -2.6211081    587.75237  0.096797162  0.099807761            2 
  507000    1.1699076   -2.6387069    589.31202  0.096862593  0.099784043            3 
  508000    1.1627619   -2.6322338     591.4667  0.097025378  0.099759874            2 
  509000    1.1812513   -2.6414151    589.99776  0.096594262  0.099735272            1 
  510000    1.1551534    -2.628688    591.40617  0.096634994  0.099711124            2 
  511000    1.1538078   -2.6213128    593.98168  0.096865897  0.099687797            1 
  512000    1.1893164   -2.6613451    596.45572  0.097079382  0.099663837            1 
  513000    1.1686068   -2.6235861    594.03098  0.096496261  0.099640139            2 
  514000    1.1550012   -2.6429987    597.35807  0.096847936  0.099617214            2 
  515000    1.1910098   -2.6100377      598.307  0.096813431    0.0995944            3 
  516000    1.1573118   -2.6676012    597.66612  0.096522307  0.099572576            2 
  517000    1.1766203   -2.6441445    599.84726   0.09668718  0.099550357            1 
  518000    1.1556278   -2.6060162     600.1937  0.096556258  0.099526397            2 
  519000     1.151755   -2.6334003     600.1375  0.096361191  0.099501904            3 
  520000    1.1635573   -2.6251562    600.77855  0.096278614  0.099476329            1 
  521000    1.1481075   -2.6140168    604.73255  0.096726256  0.099450987            2 
  522000    1.1714257   -2.6162968    605.20963  0.096617119  0.099427528            1 
  523000    1.1754805   -2.6654273    606.09839  0.096573994  0.099405026            2 
  524000    1.1579945   -2.6138667    608.61016  0.096789147  0.099383485            2 
  525000    1.1691744   -2.6102368    605.61318  0.096129076  0.099361867            2 
  526000    1.1821887   -2.6407518    609.81262  0.096611631  0.099338291            2 
  527000     1.155619   -2.6269839    608.76885  0.096263259  0.099316069            4 
  528000    1.1796516   -2.6162815    612.80539  0.096718022  0.099294107            2 
  529000    1.1581198   -2.6255178     615.1441  0.096903608  0.099272103            3 
  530000    1.1827651   -2.6029039    614.64655  0.096642539  0.099251328            2 
  531000    1.1716292   -2.6370787    614.76704  0.096479448  0.099231128            3 
  532000    1.1664655   -2.6544385    615.95272  0.096483822  0.099211256            2 
  533000    1.1775697    -2.637521    618.22737  0.096658438  0.099190751            1 
  534000    1.1588173   -2.6126419    620.31393  0.096803047  0.099170131            1 
  535000    1.1718576   -2.6426149    620.26916  0.096615134  0.099148762            2 
  536000    1.1656403   -2.6322704    621.71813  0.096660158  0.099127179            2 
  537000    1.1289527   -2.6134749    619.95996  0.096207318  0.099105108            1 
  538000    1.1762719   -2.6318074    624.27358  0.096696651  0.099083037            1 
  539000    1.1636793   -2.6279936    626.37857  0.096842697  0.099062586            2 
  540000    1.1632975   -2.6394076     623.3871  0.096201713  0.099041836            1 
  541000    1.1639809   -2.6292231    628.81743  0.096860355  0.099024298            2 
  542000    1.1641079   -2.6338967    628.40956  0.096618935  0.099005807            1 
  543000    1.1583291   -2.6423375    627.25231  0.096263399  0.098988509            6 
  544000    1.1654897   -2.6216056     631.6417  0.096758838  0.098969408            3 
  545000    1.1329373   -2.6177251    635.79195  0.097215894   0.09895303            1 
  546000    1.1607069   -2.6303735    636.16447  0.097094699  0.098935688            3 
  547000    1.1691016   -2.6599486    633.74657  0.096548837  0.098917996            1 
  548000    1.1712491   -2.6425927    636.38673  0.096774138  0.098899955            1 
  549000    1.1374797   -2.6289886    636.78924  0.096658962  0.098883092            1 
  550000    1.1642393   -2.6294066    636.82518  0.096488663  0.098865672            3 
  551000    1.1610814   -2.6611793    637.55256  0.096423557  0.098847903            2 
  552000    1.1693181   -2.6663199     641.2743  0.096810734  0.098829953            2 
  553000    1.1506496     -2.62642    638.32565  0.096191328   0.09881116            1 
  554000    1.1628688   -2.6176285     642.7901  0.096689245  0.098793047            3 
  555000    1.1659548   -2.6526455    643.58933  0.096635034   0.09877476            1 
  556000    1.1563152   -2.6427821    644.46198  0.096592023   0.09875638            1 
  557000    1.1845782   -2.6370692    647.56567  0.096882955  0.098738567            1 
  558000    1.1920275   -2.6428372    646.73185  0.096584804  0.098720496            2 
  559000     1.149209   -2.6337503    645.53583  0.096233725  0.098702296            3 
  560000    1.1587117    -2.644836    647.00767  0.096280904  0.098682834            2 
  561000    1.1189817   -2.6286156    646.28049  0.096001261  0.098661939            1 
  562000    1.1661219   -2.6510297    649.37836  0.096289792  0.098641837            2 
  563000    1.1611797   -2.6303678    650.68068  0.096311528  0.098622837            1 
  564000    1.1396979   -2.6394594    651.49422  0.096260966   0.09860539            1 
  565000    1.1446338   -2.6380351    654.02059  0.096463214  0.098585323            3 
  566000    1.1462343   -2.6350169    654.42334  0.096352081  0.098567534            1 
  567000    1.1469946   -2.6320711    654.56074  0.096202343  0.098550121            2 
  568000    1.1693709   -2.6312395    656.12478  0.096262439   0.09853444            2 
  569000    1.1683649   -2.6387507    657.56339  0.096303953  0.098517923            1 
  570000     1.162455   -2.6157917    659.20421  0.096374884  0.098501726            1 
  571000    1.1342395   -2.6485978     660.0515  0.096329758  0.098484536            1 
  572000    1.1459723   -2.6685417    662.31466  0.096491063  0.098467623            1 
  573000     1.156296   -2.6450885    660.49431  0.096057927  0.098450107            1 
  574000    1.1786117   -2.6563433    667.17637  0.096860681  0.098433238            4 
  575000    1.1512549   -2.6402349    664.74109  0.096339288  0.098417275            3 
  576000    1.1789059   -2.6435923    663.96877  0.096060297  0.098399667            2 
  577000    1.1564288   -2.6483837    667.86014  0.096455826  0.098384441            6 
  578000    1.1476672   -2.6687725    669.27033  0.096492261  0.098366916            5 
  579000    1.1613505   -2.6251644     668.4238  0.096203771  0.098349306            2 
  580000    1.1755928   -2.6412841    670.58449  0.096348346  0.098333241            1 
  581000    1.1760107   -2.6440447    669.75156  0.096063046  0.098314821            2 
  582000    1.1557699   -2.6527659    675.19333  0.096677167   0.09829937            2 
  583000    1.1564602   -2.6621814    673.89322  0.096325503  0.098283636            2 
  584000    1.1707388   -2.6442482    674.22179  0.096207447  0.098268527            1 
  585000    1.1641927   -2.6476219     674.2523  0.096047337  0.098252765            2 
  586000    1.1493338   -2.6498912    674.71404  0.095949096  0.098235824            1 
  587000    1.1204485   -2.6523582    679.26833  0.096432187  0.098220216            2 
  588000    1.1428193   -2.6758358     679.0652  0.096239399  0.098205385            2 
  589000    1.1879991   -2.6350207    684.75844    0.0968815  0.098191388            1 
  590000    1.1492294   -2.6171458    686.23149  0.096925352  0.098177793            2 
  591000    1.1425277   -2.6449512    685.26189  0.096624633    0.0981638            1 
  592000     1.164834   -2.6571315    682.63075   0.09609104  0.098149173            5 
  593000    1.1461472   -2.6424642    686.39978  0.096458653  0.098135204            1 
  594000    1.1628424   -2.6380321    686.37803  0.096293215  0.098121625            2 
  595000    1.1732804   -2.6301459    689.09757  0.096512265  0.098106778            3 
  596000     1.143853   -2.6514596    687.24335  0.096091073  0.098092707            3 
  597000    1.1458254   -2.6485394    691.35814  0.096504486  0.098078667            1 
  598000    1.1518939    -2.676371    688.59707  0.095958344  0.098064009            2 
  599000    1.1727787   -2.6631002    691.25999  0.096168613  0.098049316            3 
  600000    1.1463727    -2.671864    690.01231  0.095835043  0.098033566            2 
  601000    1.1497524   -2.6481446    695.34467  0.096414957  0.098018186            2 
  602000    1.1634213   -2.6331161    695.68389  0.096301756  0.098001498            1 
  603000    1.1677032   -2.6291961    695.68077  0.096141621  0.097984407            3 
  604000    1.1800125   -2.6316362    695.36687  0.095939138  0.097967861            1 
  605000    1.1630924   -2.6289915     696.2809  0.095906459   0.09794928            2 
  606000    1.1537681   -2.6736623    699.28016  0.096160637  0.097931409            1 
  607000    1.1503248   -2.6366644    698.19522   0.09585327   0.09791339            2 
  608000    1.1541724   -2.6207782    700.77227  0.096048831   0.09789447            3 
  609000    1.1598925   -2.6591801    703.91164  0.096320695  0.097877577            2 
  610000    1.1626089   -2.6474606    699.74837  0.095594039  0.097857675            1 
  611000    1.1392287    -2.647978    700.08771  0.095483866  0.097839028            2 
  612000    1.1655951   -2.6429895    705.37588  0.096047914  0.097821123            2 
  613000    1.1409368   -2.6461672    705.06678  0.095849209  0.097804312            3 
  614000    1.1390889   -2.6499288    706.23549  0.095851722  0.097787697            1 
  615000    1.1390272   -2.6247934    705.49478  0.095595499  0.097772388            2 
  616000    1.1671599   -2.6372279    710.29616  0.096089849  0.097756826            2 
  617000    1.1590354   -2.6795875    709.37695  0.095809961  0.097739381            1 
  618000    1.1672571   -2.6380859    712.73913  0.096108296  0.097723597            1 
  619000    1.1516207   -2.6689055    711.81303  0.095828356  0.097706439            1 
  620000    1.1435258   -2.6690518    713.31277  0.095875372  0.097690872            2 
  621000    1.1593316    -2.605477    716.70604  0.096176334  0.097676093            1 
  622000    1.1494279   -2.6232364    721.00503  0.096597673  0.097660036            1 
  623000    1.1415677   -2.6822222    717.06698  0.095915862  0.097644768            3 
  624000    1.1511461   -2.6428958    718.48094   0.09595098  0.097628961            3 
  625000    1.1437526   -2.6842836    716.91844  0.095589126  0.097610975            2 
  626000    1.1366307    -2.672136    718.77236  0.095683222  0.097593866            1 
  627000    1.1494868   -2.6400956      718.837  0.095539208  0.097575121            1 
  628000    1.1524385   -2.6636418    719.35103  0.095455285  0.097555653            1 
  629000    1.1334208   -2.6517772    722.27871  0.095691403  0.097538306            3 
  630000    1.1649735   -2.6485164    722.42513  0.095558879  0.097519758            3 
  631000    1.1493721   -2.6694609    720.99463  0.095218519  0.097502671            2 
  632000     1.170893    -2.665408    723.53961  0.095403429  0.097484917            3 
  633000    1.1122792    -2.638901    727.76496  0.095808973  0.097466611            3 
  634000    1.1501818   -2.6663765    725.49344  0.095359284  0.097448767            4 
  635000    1.1477181    -2.657415    727.63791  0.095490539  0.097429941            2 
  636000    1.1604808   -2.6410809    729.53127  0.095588479  0.097411135            1 
  637000    1.1648386   -2.6296882    727.35971  0.095154331  0.097392512            2 
  638000    1.1514554   -2.6491528    727.05551  0.094965453  0.097372074            5 
  639000    1.1712705   -2.6358065    731.02113  0.095334002  0.097352802            1 
  640000    1.1469331   -2.6499479    732.60893  0.095391788  0.097334859            5 
  641000    1.1493001   -2.6692793    731.79071  0.095136598  0.097314915            2 
  642000    1.1372654   -2.6301737    731.25548  0.094918935  0.097296643            1 
  643000    1.1518928   -2.6592998    729.91476  0.094597558  0.097277488            2 
  644000    1.1315919   -2.6424003    736.87218  0.095350955  0.097257466            1 
  645000    1.1422949   -2.6491997    736.61498  0.095169895  0.097236435            1 
  646000    1.1528633   -2.6920499    736.04946  0.094949621  0.097214463            2 
  647000    1.1868352   -2.6653862     737.3613  0.094971832  0.097193214            1 
  648000    1.1616398   -2.6337059     743.1276  0.095566821  0.097173151            1 
  649000    1.1266231    -2.660749    738.94309  0.094882266  0.097153011            1 
  650000    1.1501758   -2.6612061    739.52424    0.0948108  0.097131706            2 
  651000    1.1674507   -2.6703905    742.05098  0.094988605   0.09711186            2 
  652000    1.1508188   -2.6571785    744.24781  0.095123697  0.097094099            1 
  653000    1.1585802   -2.6457388    747.75423  0.095425502    0.0970755            1 
  654000    1.1650947   -2.6716015     747.8005  0.095285487   0.09705682            3 
  655000    1.1416813   -2.6733428    748.70813  0.095255487  0.097039079            3 
  656000    1.1312937   -2.6547848    748.03947   0.09502534  0.097021502            2 
  657000    1.1469284   -2.6457848    747.89372  0.094862217  0.097004073            2 
  658000    1.1470694   -2.6541208    751.23273  0.095140924   0.09698569            2 
  659000    1.1508953   -2.6480477    752.08103  0.095103822  0.096966682            1 
  660000    1.1414666   -2.6420995    751.37416  0.094870475  0.096947578            1 
  661000    1.1407699   -2.6665647    752.22209  0.094833849  0.096928318            6 
  662000    1.1304962   -2.6657644    754.65062  0.094996301  0.096908875            2 
  663000    1.1344929   -2.6628331    751.15407  0.094413533  0.096888923            3 
  664000    1.1233371   -2.6070797    759.00392  0.095256516  0.096868262            2 
  665000    1.1347345   -2.6453986     757.7636  0.094957845  0.096847886            2 
  666000    1.1426212   -2.6537363    754.94111    0.0944621  0.096828151            1 
  667000    1.1486257   -2.6780156    755.70807  0.094416301  0.096808525            2 
  668000    1.1799635   -2.6283894    759.68121  0.094770611  0.096790431            3 
  669000    1.1250508   -2.6650085    763.67828  0.095126841  0.096772083            3 
  670000    1.1357354   -2.6554984    764.74411  0.095117426  0.096755146            1 
  671000    1.1476154   -2.6918076    767.08054   0.09526584  0.096738979            3 
  672000    1.1387012   -2.6718872    764.06861  0.094750571  0.096720517            2 
  673000    1.1404543   -2.6719473    766.44773  0.094904375   0.09670377            1 
  674000    1.1203709   -2.6630807    766.58626  0.094780695  0.096685459            2 
  675000    1.1307244   -2.6972491    766.10142  0.094580423  0.096667723            2 
  676000    1.1500252    -2.653411    770.74152  0.095012515  0.096650862            2 
  677000    1.1366413   -2.6325166    768.70831  0.094621899  0.096633123            1 
  678000    1.1406166   -2.6593874    769.13426  0.094534692  0.096615848            2 
  679000    1.1434991   -2.6788564    771.41989   0.09467598  0.096598143            2 
  680000     1.135819   -2.6486283    773.41223   0.09478091   0.09658104            2 
  681000    1.1259037   -2.6566029    775.20427  0.094861021  0.096563189            1 
  682000    1.1318565   -2.6679278    777.03402  0.094945506  0.096545818            2 
  683000    1.1446565   -2.6629929    774.25578  0.094467518  0.096528506            2 
  684000    1.1550157   -2.6912131    777.37808  0.094709805  0.096510684            1 
  685000    1.1257553   -2.6509829    779.87829  0.094875705  0.096491067            1 
  686000    1.1500373   -2.6549118    779.41253  0.094680823  0.096471363            2 
  687000    1.1388558     -2.62244    781.23463  0.094764026  0.096452835            2 
  688000     1.130739   -2.6838077    780.18336  0.094498953  0.096433443            2 
  689000     1.174754   -2.6309031    780.16844  0.094359995  0.096413852            2 
  690000    1.1107841   -2.6645127    783.52751  0.094628927  0.096396074            2 
  691000     1.120549   -2.6977942    783.39871  0.094476449  0.096378192            2 
  692000    1.1672031   -2.6423649    788.52494  0.094957242  0.096360961            1 
  693000     1.161511   -2.6701863    787.95168  0.094751284  0.096344092            1 
  694000    1.1308631   -2.6842555    787.78899   0.09459522  0.096327208            3 
  695000    1.1668003   -2.6591906    789.31638  0.094642252  0.096311249            1 
  696000    1.1414184   -2.6644432    792.09708   0.09483921  0.096295097            2 
  697000    1.1455466   -2.6996197    791.83533  0.094671847  0.096279126            4 
  698000    1.1547006   -2.6707767    795.27851  0.094947291  0.096262507            2 
  699000    1.1679889   -2.6772371    794.68064  0.094740181  0.096245426            1 
  700000    1.1298122   -2.6533027    794.09799  0.094535475  0.096227534            1 
  701000    1.1484132   -2.6302526    796.36273  0.094669844  0.096209178            2 
  702000    1.1319877    -2.682109    792.70765  0.094101098  0.096190287            3 
  703000    1.1609362   -2.6653845    796.85219  0.094458533  0.096171917            5 
  704000     1.125095   -2.6662772    797.56513  0.094408751  0.096154511            1 
  705000    1.1255535   -2.6550191    801.18013  0.094702143  0.096137379            2 
  706000    1.1613213   -2.6689529    799.42515  0.094360854  0.096119274            2 
  707000     1.139646   -2.6738153    799.21143  0.094202196  0.096100656            2 
  708000    1.1498881   -2.6444853    801.62031  0.094352673  0.096081476            2 
  709000    1.1160538   -2.6865265    801.31758  0.094184013    0.0960631            1 
  710000    1.1353801   -2.6330694    803.34201  0.094288968  0.096044453            1 
  711000    1.1353001   -2.6582464    803.74457  0.094203536  0.096024762            3 
  712000    1.1452843   -2.6720432    806.20206  0.094358856   0.09600554            2 
  713000    1.1316176   -2.6606556    805.72604  0.094170879  0.095987105            2 
  714000    1.1200068   -2.6412046    807.15258  0.094205483  0.095968345            1 
  715000    1.1035174   -2.7016609     805.2048  0.093846714  0.095947814            2 
  716000    1.1273991   -2.6667523    807.76821  0.094013991  0.095928121            3 
  717000    1.1317045   -2.6614814     807.1814  0.093814668  0.095907751            1 
  718000    1.1396888   -2.6553005    807.76494  0.093751734  0.095887342            1 
  719000    1.1230373   -2.6385022    814.86923  0.094444742  0.095866695            1 
  720000    1.1383424   -2.6696667    813.51213  0.094156497  0.095847538            2 
  721000    1.1336515   -2.6592763    812.56923  0.093916925    0.0958279            1 
  722000    1.1688679   -2.6575092     809.4104  0.093422253  0.095808791            1 
  723000     1.121187   -2.6379557    812.52726  0.093652289  0.095789213            2 
  724000    1.1379768   -2.6682283    814.45398  0.093744702  0.095768974            3 
  725000    1.1340174    -2.668291    810.76719  0.093191631  0.095748289            2 
  726000    1.1346201    -2.699185    816.23491  0.093690876  0.095728244            1 
  727000    1.1261809   -2.6839741    820.00747  0.093994438  0.095708626            1 
  728000    1.1416555   -2.6872248    817.63017  0.093593197  0.095688727            3 
  729000    1.1344541   -2.6842259    819.80307    0.0937132  0.095669104            4 
  730000    1.1443244   -2.6415945    822.29966  0.093869824   0.09564817            2 
  731000    1.1425392    -2.679446    820.44514  0.093529998  0.095628255            4 
  732000    1.1383222   -2.6748234    822.92975  0.093685081  0.095607997            2 
  733000    1.1373317   -2.6641507    827.52851  0.094080094  0.095587177            1 
  734000    1.1536647   -2.6579835    825.61754  0.093734961  0.095567785            2 
  735000    1.1512823   -2.6732329    828.06165  0.093884541  0.095547346            4 
  736000    1.1441146   -2.6691382    825.74654  0.093494853  0.095526523            1 
  737000    1.1422704   -2.6838869    822.97408  0.093054509  0.095506333            2 
  738000    1.1286594   -2.6697087    829.98494  0.093720069  0.095486816            1 
  739000     1.142911   -2.6695963    829.99564  0.093594457  0.095466932            2 
  740000    1.1313666   -2.6620262    833.47516  0.093859815    0.0954473            2 
  741000    1.1393895   -2.6846409    834.19098   0.09381365  0.095427816            3 
  742000    1.1467871   -2.6408105    834.95673  0.093773217  0.095408884            1 
  743000    1.1484224   -2.6805101    833.91565  0.093530243  0.095389041            3 
  744000    1.1394111   -2.6957435    832.39086  0.093233743  0.095368707            2 
  745000    1.1184783   -2.6547446    835.21767  0.093424795  0.095348104            4 
  746000    1.1311472   -2.6736193    834.57768   0.09322807    0.0953278            2 
  747000    1.1562535   -2.6668151    834.79594  0.093127615  0.095307374            1 
  748000    1.1385705   -2.6854337    841.55962  0.093756642  0.095287618            2 
  749000    1.1446329   -2.6479091    840.97299  0.093566198  0.095267121            1 
  750000    1.1368649   -2.6644742    841.69354  0.093521505   0.09524632            2 
  751000    1.1306008   -2.7040506    840.27394  0.093239452   0.09522564            1 
  752000    1.1449952   -2.6677429    843.64826  0.093489391  0.095204328            1 
  753000    1.1494053   -2.6838569     842.2625  0.093211874  0.095182369            1 
  754000    1.1327156   -2.6414675    842.54612  0.093119598  0.095159639            3 
  755000    1.1212549   -2.6716721    843.77454  0.093131847  0.095137943            2 
  756000     1.115601   -2.6828022    845.65951  0.093216436  0.095114942            1 
  757000     1.146855   -2.6793857    848.59542  0.093416492  0.095093524            1 
  758000    1.1479429   -2.6896926    844.30371  0.092821428  0.095072601            5 
  759000    1.1308089   -2.6629492    849.90709  0.093314349  0.095052157            1 
  760000    1.1165679   -2.6706587    851.55809  0.093372597   0.09503278            1 
  761000    1.1366343   -2.6565263    855.74045  0.093707889  0.095012785            1 
  762000    1.1171115   -2.6684384    852.28635  0.093207168  0.094993259            1 
  763000    1.1271667   -2.6799795    856.13537  0.093505392  0.094973561            4 
  764000    1.1296387   -2.6746926    853.97144  0.093146972   0.09495509            4 
  765000    1.1338013   -2.6694492      857.468    0.0934061  0.094936426            1 
  766000    1.1330644   -2.7012106    858.59404  0.093406663  0.094917481            1 
  767000    1.1156573   -2.6572681    861.14025  0.093561522  0.094898037            2 
  768000    1.1383447   -2.6839508    859.79219  0.093293424  0.094878106            1 
  769000    1.1290732   -2.6801747    862.60069  0.093476451  0.094859374            4 
  770000     1.138844   -2.6382624    863.07035  0.093405882  0.094841854            1 
  771000    1.1195422   -2.6714558    864.77956  0.093469473  0.094823579            1 
  772000    1.1660906   -2.6800205    862.52333   0.09310485  0.094805851            2 
  773000    1.1118691   -2.6908016    868.70984  0.093651341  0.094789131            2 
  774000    1.1642897   -2.6705088    866.99808  0.093346046  0.094772009            3 
  775000    1.1206174    -2.666775    871.87056  0.093749523  0.094755114            3 
  776000    1.0864978   -2.6693401    869.01219  0.093321756  0.094737108            3 
  777000    1.1156958   -2.6546372    871.80688  0.093501382  0.094719019            1 
  778000    1.1229215   -2.6848545    871.75586  0.093375735  0.094702841            3 
  779000    1.1457412   -2.6700816     873.4019  0.093431953   0.09468464            1 
  780000    1.1321876    -2.705581    870.80648   0.09303488  0.094667601            1 
  781000    1.1324879   -2.6849596    872.09629  0.093053381  0.094649346            1 
  782000    1.1584883   -2.6771576    874.52694  0.093193408  0.094631273            2 
  783000    1.1418423   -2.7003167    876.63479  0.093298722  0.094614396            2 
  784000    1.1484894   -2.6638125    878.23077  0.093349359  0.094597392            3 
  785000    1.1199159   -2.6661799     875.5593  0.092946847  0.094578489            1 
  786000    1.1229787   -2.6852132    880.52665  0.093355243  0.094560587            1 
  787000    1.1419065   -2.6975629    876.32856  0.092792096  0.094543579            1 
  788000    1.1029188   -2.6854766    880.12481  0.093075805  0.094526333            6 
  789000    1.1377708   -2.6830432    878.44651  0.092780578  0.094509296            2 
  790000      1.11117   -2.6769806    881.39369  0.092974018  0.094491172            1 
  791000     1.141398   -2.7072892    877.64809  0.092461872  0.094473272            1 
  792000    1.1149914   -2.6922454    882.05382  0.092808694   0.09445573            1 
  793000    1.1193165   -2.6853546    885.60121   0.09306444  0.094438184            3 
  794000     1.119762   -2.6672779    886.79342  0.093072358   0.09442083            1 
  795000    1.1318518   -2.6494324    888.53478  0.093137818  0.094403104            2 
  796000    1.1537521   -2.6659279    888.74059  0.093042357  0.094385732            1 
  797000    1.1109796   -2.6802269    891.11459  0.093173838   0.09436882            2 
  798000    1.1506457   -2.6763552    887.73303   0.09270395  0.094351241            2 
  799000    1.1303681   -2.6760657    892.12305  0.093045792  0.094333506            1 
  800000    1.1244194   -2.6632604     894.3487  0.093161323  0.094316648            2 
  801000    1.1355843   -2.6710554    895.98055  0.093214789  0.094299891            2 
  802000    1.1174006   -2.6745539    893.91358  0.092883789  0.094282516            1 
  803000    1.1292656   -2.6866564    895.52056  0.092934886  0.094264624            1 
  804000    1.1324023   -2.7142805    892.29502  0.092484973  0.094248027            4 
  805000    1.1271761   -2.6895966    899.12039  0.093076645   0.09423008            3 
  806000    1.1388819   -2.6822915    898.28052   0.09287433  0.094213543            3 
  807000    1.1081486   -2.6723531    895.53917  0.092476164  0.094196884            1 
  808000    1.1108967   -2.6705697     902.5778  0.093087644  0.094180035            1 
  809000    1.1510059   -2.6560874       900.56   0.09276473   0.09416481            2 
  810000    1.1228222   -2.6896855    907.24695  0.093338163  0.094148746            1 
  811000    1.1039213   -2.6899497    902.72877  0.092758813  0.094132372            1 
  812000    1.1024429   -2.6802236    906.01658  0.092981997  0.094115813            2 
  813000     1.115079   -2.6675521    909.67011  0.093242118  0.094098663            1 
  814000    1.1233226   -2.7167361    909.65555   0.09312608   0.09408283            3 
  815000    1.1260347   -2.6579321    908.71612  0.092915758  0.094067994            2 
  816000    1.1045431   -2.6905334    909.61099  0.092893279  0.094051795            2 
  817000    1.1449699    -2.661351    912.73053  0.093097769  0.094036397            2 
  818000    1.1316098   -2.6882719    913.07978  0.093019537  0.094020799            2 
  819000    1.1221055   -2.6801885    913.50478  0.092949204  0.094004703            1 
  820000    1.1166758   -2.7237447    912.56924  0.092740777  0.093990112            5 
  821000    1.1168922   -2.7119751    916.22858  0.092999247  0.093974719            1 
  822000    1.1336186   -2.7002223    913.80959  0.092640875  0.093959486            2 
  823000    1.1207586   -2.6770024    919.59019  0.093113628  0.093942916            3 
  824000    1.1379204   -2.7126384    915.27473  0.092564192  0.093927614            1 
  825000    1.1445941   -2.6741657    917.56189   0.09268302  0.093910614            1 
  826000    1.0964467   -2.7028156    917.86537   0.09260143  0.093894999            2 
  827000    1.1212093   -2.7111926    920.82381  0.092787567  0.093879198            2 
  828000    1.1187909   -2.6984722    923.05108  0.092899666  0.093863287            4 
  829000    1.1228458   -2.6576599    925.18011  0.093001619   0.09384767            1 
  830000    1.1394185   -2.6830362    925.00365  0.092871852  0.093832685            4 
  831000     1.137555    -2.713078    922.87078  0.092546207  0.093816543            3 
  832000    1.1086615   -2.6632055    929.35823  0.093084758   0.09380132            1 
  833000    1.1395385   -2.6748374    926.06512  0.092643569  0.093786198            1 
  834000    1.1130027   -2.6937174    927.14916  0.092640803  0.093770025            4 
  835000    1.1144681   -2.7066465    927.23122  0.092538046  0.093754237            4 
  836000    1.1264456    -2.692739    930.19058  0.092722346  0.093737983            1 
  837000    1.1232501   -2.7091114    927.53656  0.092347328  0.093722214            2 
  838000    1.1215734       -2.687    928.03629  0.092286823  0.093705764            1 
  839000    1.1040316    -2.698537    933.63158  0.092732576  0.093689812            2 
  840000    1.0942956   -2.6614501    936.25204  0.092882146  0.093674415            1 
  841000    1.1132206   -2.6577108    931.23131  0.092274209  0.093658831            2 
  842000    1.1196259    -2.702849    934.42076  0.092480281  0.093644286            4 
  843000     1.106639   -2.6871667    938.65578  0.092789223  0.093627809            1 
  844000    1.1320823   -2.6643092    939.34668  0.092747499  0.093612658            1 
  845000    1.1188077     -2.70327    940.25022  0.092726846  0.093597029            1 
  846000     1.092731   -2.6707003    939.36707  0.092530248  0.093581296            1 
  847000    1.1254413   -2.6982235    942.95829   0.09277433  0.093564731            1 
  848000    1.1267194   -2.6844086    941.41399  0.092513167  0.093548221            1 
  849000    1.1290376   -2.6976834    943.68929  0.092627532  0.093532284            1 
  850000    1.1158327    -2.692311    941.08286  0.092263025  0.093514822            4 
  851000    1.1360097   -2.7105943    941.88752  0.092233404  0.093497758            2 
  852000    1.1204029   -2.6867785    943.43895  0.092276892  0.093480676            2 
  853000    1.1175778   -2.6876664    938.93032  0.091728245  0.093463894            2 
  854000    1.1274397   -2.7358689    942.09007  0.091929164   0.09344582            4 
  855000    1.1026319   -2.6989425    943.87671  0.091995781  0.093427321            1 
  856000    1.0996304   -2.6940913    942.29199  0.091734033  0.093409094            2 
  857000    1.1300049   -2.6903516    948.13284  0.092194947  0.093389902            3 
  858000    1.1034327   -2.6967491     948.5225   0.09212534  0.093371586            2 
  859000    1.1209438   -2.6913257    946.79405  0.091850412  0.093352671            5 
  860000    1.1161991   -2.6700798    948.52764  0.091911593  0.093334487            4 
  861000    1.1057603   -2.7009415    944.26349   0.09139213  0.093315746            2 
  862000    1.1123028   -2.6952059    950.33697  0.091873257  0.093296982       -1e+20 
  863000    1.1308369   -2.7167888    943.00854  0.091059149  0.093276756            2 
  864000    1.1117846   -2.7099693    948.26169  0.091460425  0.093256842            2 
  865000    1.1114536   -2.6877415     952.0603  0.091720645  0.093236343            2 
  866000    1.1120206   -2.6808968    957.30013   0.09211895   0.09321625            3 
  867000    1.0876192   -2.6837366    954.38642  0.091732643   0.09319634            1 
  868000    1.1208023   -2.6781432    950.77494  0.091280236  0.093176579            1 
  869000    1.1129365   -2.6845032    956.79149  0.091752157  0.093155612            1 
  870000    1.1085388   -2.6738398    961.01082  0.092050844  0.093134406            1 
  871000    1.1226553   -2.7155709    949.17343  0.090812613  0.093113619            1 
  872000    1.0932005   -2.6938132    958.69103  0.091618026  0.093091754            1 
  873000    1.1159324   -2.6878987     952.7255  0.090943633  0.093070902            1 
  874000    1.1089942   -2.6801603    959.30932  0.091467326  0.093049538            1 
  875000    1.1300211   -2.6719252    959.71702   0.09140162  0.093029166            1 
  876000    1.1138216   -2.6821824    956.71864  0.091012047  0.093007671            3 
  877000    1.0845483    -2.706697    959.34204  0.091157549  0.092985652            1 
  878000    1.1083949   -2.6885853    958.31769  0.090956501  0.092964934            1 
  879000    1.1260278   -2.6824634     958.6154  0.090881248  0.092943691            3 
  880000     1.122914   -2.6796398     964.3976  0.091325531  0.092922258            1 
  881000    1.1255637    -2.712291    962.12663  0.091007059  0.092900873            2 
  882000    1.1188714   -2.7082219      963.341  0.091018613   0.09287951            1 
  883000    1.1155795    -2.711823    966.21184   0.09118647   0.09285825            2 
  884000    1.1119703   -2.6814331    969.37113   0.09138114  0.092837025            2 
  885000    1.1127942   -2.7208295    969.25682   0.09126712   0.09281632            3 
  886000    1.1148153   -2.7017829    969.00962   0.09114086  0.092796888            2 
  887000    1.1222969   -2.7028157    966.91023  0.090840871  0.092777057            2 
  888000    1.1054379   -2.6771514    976.37389  0.091626679  0.092758863            1 
  889000    1.0971941   -2.7039007    973.82277  0.091284474  0.092740283            2 
  890000    1.1018372   -2.7031324    978.71142  0.091639646   0.09272219            2 
  891000    1.1256164   -2.6776879    977.03088  0.091379618  0.092705169            2 
  892000    1.1185839   -2.6818657    976.09837  0.091190057  0.092687408            1 
  893000    1.1122429   -2.6990449    979.01313  0.091359941  0.092669749            3 
  894000    1.1433351   -2.7274592     975.5043  0.090930677  0.092652159            5 
  895000    1.0790406   -2.7277637    976.94257  0.090962995  0.092633453            3 
  896000    1.1088093   -2.6718683     978.7505  0.091029623  0.092615006            3 
  897000    1.1314226   -2.6846759    981.15451  0.091151478  0.092596945            4 
  898000    1.1060186   -2.7071351    982.50586  0.091175377  0.092577945            1 
  899000    1.1248139    -2.720804    988.13207  0.091595483  0.092559822            2 
  900000    1.0905712   -2.7222743    984.97778  0.091201646  0.092541115            2 
  901000    1.1116204   -2.7000404    988.21767  0.091400081  0.092521627            1 
  902000    1.1205795    -2.709377    990.08831  0.091471573  0.092501987            2 
  903000    1.1186612   -2.7076289    987.71942  0.091151663  0.092483641            1 
  904000    1.0881182   -2.6971993    990.48269  0.091305557  0.092464932            1 
  905000    1.0836919   -2.6830336    989.45419  0.091109962  0.092446575            1 
  906000    1.0787739   -2.7219232    995.18065  0.091536116  0.092428543            1 
  907000    1.1130461   -2.7321929    992.22074  0.091163243  0.092410541            3 
  908000    1.1148611   -2.7132762    992.40955  0.091080172  0.092393454            1 
  909000    1.1260028   -2.7142175    991.13556  0.090863179  0.092376315            3 
  910000    1.1527081   -2.6998734    992.88555  0.090923585  0.092358972            3 
  911000    1.1111524   -2.6961836    995.43819   0.09105728  0.092342435            1 
  912000    1.1049528   -2.6995758    995.43979  0.090957584  0.092325022            3 
  913000    1.1216213   -2.7267692    998.22726  0.091112382  0.092307424            6 
  914000    1.1176429   -2.7192144    997.58889  0.090954494  0.092289316            2 
  915000    1.1034268   -2.7126668    995.89095   0.09070045  0.092270836            2 
  916000    1.1130237     -2.69954    998.91192  0.090876266  0.092252207            4 
  917000    1.1076483   -2.6978169    1000.3231  0.090905403  0.092234529            2 
  918000    1.1206536   -2.6991702    1007.2489  0.091435084  0.092216791            2 
  919000    1.0848436    -2.709577    997.32012  0.090435266  0.092198184            2 
  920000    1.1012369   -2.6793723    1008.0531  0.091309162  0.092179926            2 
  921000    1.0760109   -2.6959002    1009.2232  0.091315887  0.092162251            2 
  922000    1.1110908   -2.6733402    1005.7862  0.090906203  0.092144696            4 
  923000    1.1090544   -2.7072155    1005.2119  0.090755863   0.09212637            2 
  924000    1.1285241   -2.6888646    1008.4616  0.090950723  0.092107847            3 
  925000    1.0924418   -2.6965709    1007.6354  0.090777968  0.092089025            1 
  926000    1.1044012   -2.7218979    1006.5204  0.090579588   0.09207046            2 
  927000    1.0968377   -2.7211809    1008.2625  0.090638487  0.092050915            6 
  928000    1.1072582   -2.7121455     1006.775   0.09040724  0.092032014            4 
  929000    1.0838177   -2.7275797    1005.2911  0.090176813    0.0920116            3 
  930000    1.0802554   -2.7061121    1013.9099  0.090852141   0.09199218            1 
  931000    1.1060539   -2.7270723    1008.1948  0.090242996  0.091972447            2 
  932000    1.1178285   -2.7032505    1009.2361  0.090239283  0.091952991            3 
  933000    1.1082993    -2.700204    1012.4451  0.090429176  0.091933398            1 
  934000    1.1103689   -2.7124224     1011.373  0.090236709  0.091913649            1 
  935000    1.1206936   -2.7013461    1013.3902   0.09031998  0.091893921            1 
  936000    1.1119242   -2.7211978    1015.3284  0.090396045  0.091875321            2 
  937000    1.0779606   -2.6924893    1020.0614  0.090720511  0.091856299            2 
  938000    1.0785563   -2.7488761    1021.5624  0.090757144  0.091837597            1 
  939000    1.1182686   -2.7093425    1021.4998  0.090654932  0.091819612            1 
  940000     1.126913   -2.7020078    1028.5344  0.091182129  0.091802036            1 
  941000    1.1133112   -2.7240957    1023.6843  0.090655716  0.091784074            1 
  942000    1.1086461   -2.7206116    1018.6019  0.090109863  0.091765472            1 
  943000    1.0953481   -2.7093114    1025.1165  0.090590001  0.091748105            5 
  944000    1.1160467    -2.715581    1022.0524  0.090223552  0.091730189            2 
  945000    1.1015203   -2.7023086    1026.6932  0.090537319  0.091712392            3 
  946000    1.0954826   -2.7057175    1026.9342  0.090462841  0.091695272            3 
  947000    1.0816358   -2.7152574    1031.0607  0.090730438  0.091677364            2 
  948000    1.0930076   -2.7062058    1029.9751  0.090539302   0.09166036            1 
  949000    1.0878314   -2.6905069     1036.071  0.090979189  0.091644059            3 
  950000    1.1227192   -2.7232379    1030.9741  0.090436322  0.091627244            2 
  951000    1.0911228   -2.6925802    1038.3409  0.090986755    0.0916107            6 
  952000    1.1205572   -2.7290326    1031.9277  0.090329808  0.091593236            2 
  953000    1.0940598   -2.7349743    1034.8083  0.090486912  0.091576173            3 
  954000    1.1181054   -2.7277062    1037.4695  0.090624524  0.091559671            2 
  955000    1.1179644   -2.7356054    1036.5554  0.090449862  0.091542432            1 
  956000    1.0781663   -2.7118834    1033.0306  0.090047996  0.091525476            1 
  957000    1.1031816    -2.715665    1041.0627  0.090653318  0.091508864            2 
  958000    1.0980606   -2.7329552    1038.7336  0.090356086   0.09149166            2 
  959000     1.093742    -2.713952    1037.0233  0.090113253  0.091474594            2 
  960000    1.0850857   -2.7302734    1037.2851  0.090042111   0.09145643            3 
  961000    1.0810582   -2.7433459    1037.9799  0.090008662  0.091438646            3 
  962000    1.1029163   -2.7102572     1043.575  0.090399779  0.091419871            2 
  963000     1.064061   -2.7043301    1040.2773  0.090020538  0.091400852            1 
  964000    1.1020631   -2.7256754    1044.6712  0.090306987  0.091381334            1 
  965000    1.0782659   -2.7092737    1042.7956  0.090051436  0.091362978            1 
  966000     1.105648   -2.7125324    1044.4843  0.090103889  0.091344219            1 
  967000    1.1282731   -2.7119742    1041.5621  0.089758884  0.091325121            2 
  968000     1.059454   -2.7219228    1043.9233  0.089869429  0.091305705            2 
  969000    1.1003785   -2.7076258    1044.3382  0.089812368  0.091285688            3 
  970000    1.1002362     -2.71938    1046.7061  0.089923202  0.091266632            3 
  971000    1.1273434   -2.7136732    1047.7778  0.089922572  0.091247341            2 
  972000    1.0816892   -2.6978682    1047.6442  0.089818608  0.091228574            2 
  973000    1.1058614   -2.7354935    1044.7584  0.089479136  0.091208539            1 
  974000     1.126592   -2.7117063     1051.529  0.089966551  0.091188734            2 
  975000    1.0946682    -2.717196    1050.0397  0.089746982  0.091169704            2 
  976000    1.0909774   -2.7372492    1049.2188  0.089584936  0.091150628            2 
  977000    1.0902438   -2.7399112    1050.1859  0.089575735  0.091131644            1 
  978000    1.0780012   -2.7405617    1053.2642  0.089746438  0.091112109            2 
  979000    1.1233982   -2.7494857    1055.1019  0.089811193  0.091093582            2 
  980000    1.1107825   -2.7176498     1059.919  0.090129169  0.091074982            2 
  981000    1.0828998   -2.7045954    1059.8807  0.090034035     0.091056            1 
  982000    1.0648522    -2.684152    1063.1724  0.090221688  0.091037675            1 
  983000     1.122651   -2.7379551      1058.83  0.089761784  0.091018184            1 
  984000    1.1033282   -2.7298585    1053.9603  0.089258159  0.090999058            2 
  985000    1.1079531   -2.7035717    1058.3123  0.089535731  0.090979949            2 
  986000    1.0897553   -2.7102883      1056.39  0.089282456  0.090960397            4 
  987000    1.1006504   -2.6994128    1054.8934  0.089065637  0.090940568            1 
  988000    1.0950974   -2.7097064    1060.1433  0.089418294  0.090920751            3 
  989000    1.0882761   -2.7136511    1063.8835   0.08964303  0.090901609            3 
  990000    1.0950827   -2.7162923         1062  0.089393941  0.090882634            1 
  991000    1.0838232   -2.7038315    1063.4692  0.089427277  0.090863287            2 
  992000    1.0789336    -2.696053    1064.8571  0.089453725  0.090844254            3 
  993000    1.0685794   -2.7083244    1069.3057  0.089736965  0.090825346            1 
  994000    1.1016169   -2.7343476    1072.1596  0.089885945   0.09080716            2 
  995000    1.1058205   -2.7276315     1069.809  0.089598745  0.090788929            1 
  996000    1.0893315   -2.7480436    1064.9817  0.089104898  0.090771086            1 
  997000    1.0902653   -2.7582584    1070.8595   0.08950681  0.090753024            1 
  998000    1.1005504   -2.7441185    1073.3821  0.089627765  0.090735472            2 
  999000    1.0725576   -2.7517537    1071.1467  0.089351575  0.090717908            3 
 1000000    1.0941804   -2.6984838    1075.4818  0.089623487  0.090700542            2 
 1001000    1.1102487    -2.718698    1078.8695  0.089815977  0.090683217            5 
 1002000    1.0947985   -2.7134118    1075.9118  0.089480354  0.090666504            2 
 1003000    1.0843264   -2.7183588    1084.3468  0.090091961  0.090648873            2 
 1004000    1.1179331   -2.7379176    1080.4049  0.089675039  0.090631396            2 
 1005000    1.1062687   -2.7234605    1080.6917   0.08960959  0.090614087            1 
 1006000    1.0700476   -2.7041651    1080.7578  0.089525997  0.090597251            3 
 1007000    1.0852826   -2.7253959    1084.1793   0.08972023  0.090580943            3 
 1008000    1.0874428   -2.7063479    1087.3066  0.089889768  0.090565392            3 
 1009000    1.0681633   -2.7115942    1087.6822  0.089831696  0.090549695            2 
 1010000    1.1166844   -2.7332358    1082.6839  0.089330351  0.090533186            2 
 1011000    1.0639523   -2.7432625    1085.5961   0.08948204  0.090515367            1 
 1012000    1.0810938   -2.7404357    1090.0869  0.089763412  0.090498598            3 
 1013000    1.0750744   -2.6957738    1088.7632   0.08956591  0.090482677            2 
 1014000    1.0850927   -2.7263715     1089.493  0.089537559   0.09046654            4 
 1015000    1.0915179   -2.7403272    1091.0257  0.089575181  0.090450193            1 
 1016000    1.0852683    -2.726977     1086.795  0.089140012  0.090433258            1 
 1017000    1.0775329   -2.7356078    1093.4165  0.089594928   0.09041688            2 
 1018000    1.0966587   -2.7082916    1092.8762  0.089462686  0.090400009            3 
 1019000    1.0955021   -2.7378289     1094.819  0.089533772  0.090383063            2 
 1020000    1.0706603   -2.7353054    1094.4711  0.089417573  0.090366663            3 
 1021000    1.0818181   -2.7386321    1096.3521   0.08948352  0.090350412            3 
 1022000    1.0963555   -2.7178149     1100.239    0.0897129  0.090334278            4 
 1023000    1.0906234   -2.7295474    1099.2791  0.089547013  0.090317867            2 
 1024000    1.1029007   -2.7198953    1098.5299  0.089398595  0.090300867            2 
 1025000    1.0939382   -2.7330164    1101.7041   0.08956944   0.09028506            1 
 1026000    1.0801983   -2.7247172    1102.3367  0.089533519  0.090267798            1 
 1027000    1.0926375   -2.7268029    1100.7874   0.08932063  0.090250759            2 
 1028000    1.0814152    -2.702786    1106.4572  0.089693353  0.090234538            2 
 1029000    1.0956916   -2.7191996    1106.3643  0.089598661   0.09021833            3 
 1030000    1.0983692   -2.7232924    1102.3654  0.089188137  0.090201895            2 
 1031000    1.1020934   -2.6985119    1108.1964  0.089572935     0.090186            2 
 1032000    1.0929896   -2.7018726    1106.9609  0.089386378  0.090169679            4 
 1033000    1.0610133   -2.7210338    1107.2475  0.089322969  0.090153106            1 
 1034000    1.0858125   -2.7175437    1105.0431  0.089058925  0.090135793            2 
 1035000    1.0899225   -2.7462821    1107.5801  0.089177139   0.09011878            4 
 1036000    1.0810271   -2.7411033    1111.6983  0.089422323  0.090101872            3 
 1037000    1.0946014   -2.7234468    1108.4272  0.089073222  0.090084256            3 
 1038000    1.0710952   -2.7244459    1109.8507  0.089101698   0.09006735            3 
 1039000    1.0645757   -2.7391966    1110.7906  0.089091321  0.090049103            1 
 1040000    1.0829729    -2.760448    1109.1585  0.088874882  0.090030888            5 
 1041000    1.0883869   -2.7310235    1110.0956  0.088864518  0.090013613            2 
 1042000    1.0747143     -2.72154    1115.1248  0.089181444  0.089996473            2 
 1043000    1.0784405   -2.7033607    1114.6532  0.089058258  0.089978919            1 
 1044000    1.0643312   -2.7238146    1115.6526  0.089052728  0.089961886            2 
 1045000    1.1027282   -2.7219455    1113.8634  0.088824836  0.089943999            3 
 1046000    1.0763186   -2.7398873    1114.0513  0.088754886  0.089925741            3 
 1047000    1.0769757   -2.7284929    1115.7991  0.088809228  0.089907704            2 
 1048000    1.0675803   -2.7381613    1124.3169  0.089401793  0.089889532            2 
 1049000    1.1164278   -2.7236774    1118.3307  0.088841013  0.089872226            4 
 1050000    1.1109439   -2.7635818    1117.7011  0.088706438   0.08985415            3 
 1051000    1.1006287   -2.7402794    1121.2913  0.088906704   0.08983621            2 
 1052000    1.0736797   -2.7228829    1119.0146  0.088641841  0.089817658            2 
 1053000    1.0736481   -2.7351824    1124.2394  0.088971145  0.089799333            4 
 1054000    1.1076859   -2.7343612    1122.6856  0.088763883  0.089780834            2 
 1055000    1.0736758   -2.7410536    1123.0706   0.08871016  0.089762114            2 
 1056000    1.0917465   -2.7206937    1125.5352  0.088820641  0.089743627            2 
 1057000    1.0759278   -2.7108162    1126.1196  0.088782684    0.0897257            1 
 1058000    1.0945165   -2.7221803    1123.5455   0.08849602  0.089708328            4 
 1059000    1.0641443   -2.7285013    1127.4054  0.088716191  0.089690266            2 
 1060000    1.0901216   -2.7465534    1121.5805  0.088174566  0.089672003            3 
 1061000    1.0540109   -2.7466767    1130.0835   0.08875931  0.089653818            1 
 1062000    1.0877862   -2.6975631     1132.121   0.08883561   0.08963633            2 
 1063000    1.0816789   -2.7241412    1130.5335  0.088627584  0.089618778            2 
 1064000    1.0800443   -2.7231899    1130.5967  0.088549242  0.089601458            4 
 1065000    1.0845667   -2.7262745    1131.1472  0.088509171  0.089584041            2 
 1066000    1.1024317   -2.7424028    1129.7243  0.088314909   0.08956584            2 
 1067000    1.0800567   -2.7382788    1132.1824  0.088424115  0.089548308            3 
 1068000    1.0754925   -2.7317108    1137.7226  0.088773611  0.089530011            2 
 1069000    1.0847799   -2.7231794    1132.8961  0.088314321  0.089512939            2 
 1070000    1.1028584   -2.7427475    1139.4073  0.088738883  0.089495397            3 
 1071000    1.0758618   -2.7134683    1136.4806  0.088428308  0.089479204            3 
 1072000     1.095846    -2.726187    1140.2981  0.088642575  0.089461865            1 
 1073000    1.0832717   -2.7405081    1142.2527  0.088711767  0.089444651            3 
 1074000    1.0797169   -2.7319957    1141.9446  0.088605259  0.089427024            2 
 1075000    1.0630086   -2.7535168    1142.5199  0.088567434  0.089409955            1 
 1076000    1.0594535   -2.7399362    1140.1292  0.088299971  0.089392979            2 
 1077000    1.0601879   -2.7293483    1144.5111  0.088557034  0.089375966            3 
 1078000    1.0782588   -2.7307409     1138.919  0.088042591  0.089358338            3 
 1079000    1.0812057   -2.7183587    1145.5336  0.088471854  0.089340209            3 
 1080000     1.097169   -2.7425445    1142.3855  0.088147031  0.089322665            1 
 1081000     1.068516   -2.7262416     1147.789  0.088482035  0.089304608            3 
 1082000    1.0752188   -2.7457418    1147.2932  0.088362078  0.089287489            1 
 1083000    1.0810037   -2.7058944    1146.5183  0.088220857  0.089270175            2 
 1084000    1.0763895   -2.7203428    1151.5823  0.088528772  0.089252732            3 
 1085000    1.0790346   -2.7393594    1152.7572  0.088537418  0.089235762            2 
 1086000    1.0627423   -2.7173288    1152.5158  0.088437369  0.089218693            2 
 1087000    1.0993734   -2.7279294    1146.6924  0.087909566    0.0892021            2 
 1088000     1.065228   -2.7275258    1154.5356  0.088429507  0.089186045            3 
 1089000    1.0797929   -2.7775743    1150.6432  0.088050441    0.0891691            2 
 1090000     1.079735   -2.7308701    1154.8813  0.088293679  0.089152116            2 
 1091000     1.074732   -2.7073973    1163.0138  0.088833929  0.089135716            2 
 1092000    1.0797103   -2.7378097    1157.5966  0.088339181  0.089119454            2 
 1093000    1.0840431   -2.7377384    1155.5038  0.088098793  0.089102409            2 
 1094000    1.0693726   -2.7340725    1159.3013  0.088307536  0.089085399            1 
 1095000    1.0555083   -2.7495381    1157.2471  0.088070553  0.089067723            1 
 1096000    1.1079993   -2.7174652    1162.9891  0.088426784  0.089050358            1 
 1097000    1.0585509   -2.7226244    1165.6367  0.088547302  0.089034165            1 
 1098000    1.0873981   -2.7666943    1161.6823  0.088166535  0.089017603            3 
 1099000    1.0863395   -2.7504076     1161.259  0.088054216  0.088999942            1 
 1100000     1.093409   -2.7553801    1162.9053  0.088098884  0.088982188            3 
 1101000    1.0725464   -2.7454982    1160.2001  0.087814115   0.08896461            2 
 1102000    1.0753009     -2.75374    1162.8742  0.087936645  0.088946871            3 
 1103000    1.0877422    -2.758669    1163.9415  0.087937557   0.08892866            2 
 1104000    1.0849807   -2.7294894    1163.8838  0.087853546  0.088910575            1 
 1105000    1.0682204   -2.7372749    1162.7456  0.087688206  0.088892015            1 
 1106000    1.0456222   -2.7486728    1167.5436  0.087970432  0.088873244            2 
 1107000    1.0784136    -2.687301    1166.1283  0.087784423  0.088855571            1 
 1108000    1.0727341   -2.7142455    1162.9475  0.087465965  0.088837494            2 
 1109000    1.0968799   -2.7499857    1166.2777  0.087637337  0.088818891            2 
 1110000    1.0771463   -2.7217347    1172.6082  0.088033646  0.088801106            2 
 1111000    1.0461629   -2.7436818    1173.0129   0.08798477  0.088783197            2 
 1112000    1.0865301   -2.7420846     1170.961  0.087751874  0.088765265            2 
 1113000    1.0990725   -2.7205794    1170.2763  0.087621768   0.08874713            3 
 1114000    1.0591356   -2.7506593    1169.3757  0.087475741  0.088729701            1 
 1115000    1.0851215   -2.7716048    1172.6697  0.087643472  0.088711318            2 
 1116000    1.0909782   -2.7113222    1177.7553  0.087944691  0.088694094            4 
 1117000    1.0621027   -2.7209863    1175.2079  0.087675913   0.08867605            5 
 1118000    1.0682882   -2.7330944    1178.2147  0.087821606  0.088658623            3 
 1119000    1.0540797   -2.7441609    1181.6831   0.08800142  0.088641471            1 
 1120000    1.0777355   -2.7434419    1178.5453   0.08768938  0.088624523            2 
 1121000    1.0812149   -2.7657374    1180.8816  0.087784838  0.088607411            4 
 1122000    1.0752813   -2.7375458    1188.7287  0.088289419  0.088590182            2 
 1123000     1.079352   -2.7666396    1183.7258  0.087839553  0.088573513            1 
 1124000    1.0671141   -2.7779319    1184.0711  0.087787006  0.088556963            2 
 1125000     1.036998   -2.7367523    1186.8205  0.087912627  0.088540347            4 
 1126000    1.0761729   -2.7300212    1183.7018  0.087603741  0.088523835            3 
 1127000    1.0691678   -2.7574206    1190.0467  0.087995172  0.088507855            3 
 1128000    1.0774247   -2.7380048    1191.6594    0.0880363   0.08849079            1 
 1129000    1.0707464   -2.7496239    1192.0822  0.087989532  0.088474837            1 
 1130000    1.0577871   -2.7292507    1189.6813   0.08773461  0.088458097            2 
 1131000    1.0790484   -2.7448178    1193.3862   0.08793002  0.088442007            2 
 1132000    1.0764833   -2.7509146    1193.1529  0.087835163  0.088425377            2 
 1133000    1.0489303   -2.7852194    1190.3727  0.087553153  0.088408858            1 
 1134000    1.0737575   -2.7683877    1190.3597  0.087474995  0.088392355            4 
 1135000    1.0685007   -2.7269909    1193.2788  0.087612245  0.088375539            1 
 1136000    1.0742268   -2.7445319    1202.2784  0.088195304  0.088359481            3 
 1137000    1.0587617   -2.7397949    1193.6892  0.087488218  0.088343585            3 
 1138000    1.0874397   -2.7230963      1200.49  0.087909343  0.088327687            3 
 1139000      1.07679   -2.7476657    1201.1772   0.08788244  0.088312231            2 
 1140000    1.0825044   -2.7342861    1201.9003  0.087858213  0.088296702            2 
 1141000    1.0711516   -2.7464546    1207.2345  0.088170795  0.088281097            2 
 1142000    1.0568448   -2.7301589    1204.0281  0.087859609  0.088266058            2 
 1143000    1.0953227   -2.7543711    1211.3611  0.088317377  0.088251157            1 
 1144000     1.069756   -2.7473141    1203.5088  0.087668185  0.088236179            2 
 1145000    1.0391855   -2.7588324    1208.6029  0.087962366  0.088221438            1 
 1146000     1.078201   -2.7447866    1209.9221  0.087981538  0.088206831            3 
 1147000    1.0604117   -2.7584183    1207.2495  0.087710661  0.088192359            3 
 1148000    1.0773537   -2.7451189    1209.5884  0.087804034  0.088177332            2 
 1149000     1.066996   -2.7507633    1208.7175  0.087664453  0.088163198            3 
 1150000    1.0384936   -2.7185851    1212.3149  0.087848907  0.088148819            1 
 1151000    1.0513964   -2.7571814    1215.5762  0.088008705  0.088135075            2 
 1152000    1.0354314   -2.7247401    1219.4898  0.088215411  0.088120596            2 
 1153000    1.0655375   -2.7465519    1217.1862  0.087972404  0.088106936            2 
 1154000    1.0669897   -2.7609338    1216.3315  0.087834453  0.088092664            1 
 1155000    1.0500474   -2.7562967     1217.937   0.08787424  0.088078123            3 
 1156000    1.0705454   -2.7600237    1218.5911  0.087845378  0.088063397            3 
 1157000     1.081457   -2.7791012    1213.7102  0.087417902  0.088048435            2 
 1158000    1.0946281   -2.7765475     1217.206  0.087593987  0.088033795            3 
 1159000    1.0883546   -2.7412806    1221.4799  0.087825706  0.088018232            4 
 1160000    1.0732465   -2.7440687    1221.1732  0.087727962  0.088003538            4 
 1161000    1.0694316   -2.7417348    1224.4208  0.087885498  0.087989197            3 
 1162000    1.0769842   -2.7509564    1226.3649  0.087949289  0.087974266            2 
 1163000    1.0460446   -2.7262762    1222.0888  0.087567269  0.087959624            3 
 1164000    1.0679234   -2.7405551    1220.8107  0.087400539   0.08794446            2 
 1165000    1.0554171   -2.7660826    1223.6541  0.087528907  0.087929472            1 
 1166000    1.0578458    -2.761735    1225.5748  0.087591111   0.08791464            3 
 1167000    1.0548501   -2.7360184    1227.2595  0.087636353  0.087899664            2 
 1168000    1.0679982   -2.7436143    1229.9585  0.087753888  0.087884586            2 
 1169000    1.0730534   -2.7332896    1229.9225  0.087676255  0.087869318            4 
 1170000     1.066998   -2.7329448    1225.5204  0.087287775   0.08785402            2 
 1171000    1.0640661   -2.7455991    1223.6542  0.087080428  0.087838809            1 
 1172000    1.0640922   -2.7479172    1226.6204  0.087217035  0.087823615            5 
 1173000    1.0777952   -2.7663787    1233.4749  0.087629649  0.087808288            3 
 1174000    1.0507183   -2.7438165    1234.9324  0.087658459  0.087793585            2 
 1175000     1.050308   -2.7360872    1231.1207  0.087313524  0.087778844            2 
 1176000    1.0398847    -2.747644     1227.368  0.086973353  0.087763441            2 
 1177000    1.0598286   -2.7408476    1232.6164  0.087271058  0.087748502            3 
 1178000    1.0604461   -2.7514746    1232.5686  0.087193593  0.087733616            3 
 1179000    1.0678338   -2.7747062    1234.3822  0.087247825  0.087718976            1 
 1180000    1.0494064   -2.7458307    1237.2838  0.087378799  0.087703808            1 
 1181000    1.0781308   -2.7725477    1237.2663   0.08730358  0.087689346            4 
 1182000    1.0706275   -2.7583367    1231.7391  0.086840037  0.087674919            3 
 1183000    1.0603245    -2.749469    1239.5693  0.087318211  0.087660584            3 
 1184000    1.0881543   -2.7525874    1241.2034  0.087359472  0.087646663            1 
 1185000      1.06231   -2.7228571    1245.7671   0.08760669  0.087632557            1 
 1186000    1.0675653   -2.7308823    1245.2228  0.087494573  0.087618613            2 
 1187000    1.0599024     -2.75399    1247.9666  0.087613495  0.087604932            5 
 1188000    1.0735453   -2.7526254    1244.7985  0.087317513  0.087591571            1 
 1189000    1.0535614   -2.7735015    1248.3208  0.087490942  0.087577516            3 
 1190000    1.0500178   -2.7452751    1246.4658  0.087287522  0.087563689            2 
 1191000    1.0574027   -2.7634017    1251.5611  0.087570744  0.087550336            2 
 1192000     1.045476   -2.7317239    1246.9172   0.08717262  0.087537412            1 
 1193000    1.0409669   -2.7508067    1251.7776  0.087439064  0.087524095            2 
 1194000    1.0463012   -2.7723576    1251.8028  0.087367589  0.087510769            1 
 1195000    1.0795755    -2.741588    1250.6592  0.087214725  0.087497684            4 
 1196000     1.065949     -2.72933    1253.7254  0.087355448  0.087484173            2 
 1197000    1.0580178   -2.7691174    1249.4366  0.086983888  0.087471124            2 
 1198000    1.0812826   -2.7591747    1252.7965  0.087144995  0.087457981            1 
 1199000    1.0697889   -2.7397149    1254.4379  0.087186401   0.08744491            1 
 1200000    1.0491087   -2.7561488    1258.4532  0.087392581  0.087431393            2 
 1201000    1.0659109    -2.814045    1256.2884  0.087169607  0.087417744            1 
 1202000    1.0604859   -2.7528317    1258.6546  0.087261134  0.087403934            2 
 1203000    1.0582986   -2.7639111    1263.4683  0.087522046  0.087390865            6 
 1204000    1.0780069   -2.7578152    1261.5138  0.087314075  0.087377696            3 
 1205000    1.0637612   -2.7261732    1270.7985  0.087883713  0.087364849            1 
 1206000    1.0841388    -2.741254    1271.3677  0.087850172  0.087352727            2 
 1207000    1.0764746    -2.750412    1266.2766  0.087425888  0.087339777            5 
 1208000    1.0877175   -2.7524089    1262.8714   0.08711861  0.087327022            4 
 1209000    1.0690848   -2.7283116    1270.7687  0.087590894    0.0873141            2 
 1210000    1.0563014    -2.762677    1270.1755  0.087477653  0.087301255            2 
 1211000    1.0823674   -2.7928236    1266.5325   0.08715473  0.087288128            3 
 1212000    1.0485753   -2.7385748    1272.6317  0.087502177  0.087275332            4 
 1213000    1.0566701    -2.761232     1268.911  0.087174432  0.087262646            2 
 1214000    1.0316603   -2.7586318    1270.7973  0.087232106  0.087249507            1 
 1215000    1.0575037   -2.7391509     1272.271  0.087261388  0.087236548            4 
 1216000    1.0261204   -2.7581047    1274.7685  0.087360779  0.087223415            2 
 1217000     1.044195   -2.7556912    1274.9337  0.087300305   0.08721057            1 
 1218000    1.0490759   -2.7646681    1274.5229  0.087200526  0.087197649            2 
 1219000    1.0485303   -2.7621561    1276.8285  0.087286609  0.087185771            2 
 1220000    1.0543104   -2.7633482    1275.3536  0.087114318  0.087173597            7 
 1221000    1.0464112   -2.7659223    1281.1496  0.087438549  0.087160654            1 
 1222000    1.0488793   -2.7676932    1276.0639  0.087020181  0.087147433            2 
 1223000    1.0546935   -2.7717102    1273.3695  0.086765436  0.087134596            4 
 1224000      1.03743   -2.7754861    1276.0075  0.086874151  0.087121283            3 
 1225000    1.0432091   -2.7733669    1278.5716  0.086977661  0.087107839            1 
 1226000    1.0422499   -2.7374551    1283.2386   0.08722394  0.087094098            3 
 1227000    1.0360935   -2.7568597    1282.9201  0.087131218  0.087081406            2 
 1228000    1.0545387   -2.7560174    1279.0103  0.086794946  0.087067673            1 
 1229000    1.0723676   -2.7549063    1276.8317  0.086576598  0.087053705            4 
 1230000     1.070407   -2.7655436    1276.9677  0.086515428  0.087039741            4 
 1231000    1.0496901    -2.746377    1280.3597  0.086674768  0.087025717            3 
 1232000    1.0528699   -2.7582843    1283.8197  0.086838454  0.087011746            2 
 1233000    1.0095839   -2.7760664    1281.4645  0.086608848  0.086997749            2 
 1234000    1.0675787   -2.7613728    1282.8279  0.086630735  0.086984136            1 
 1235000    1.0611553   -2.8010896    1286.4665  0.086806108  0.086969829            2 
 1236000    1.0474317    -2.766124    1285.4419  0.086666795  0.086955844            4 
 1237000    1.0849862   -2.7620631    1288.4913  0.086802161  0.086941736            3 
 1238000     1.059057   -2.7604345    1288.5074  0.086733128  0.086927354            2 
 1239000    1.0082091   -2.7495273    1289.6867  0.086742449  0.086913536            2 
 1240000     1.062377   -2.7665364    1285.5337  0.086393395  0.086899343            2 
 1241000    1.0604624   -2.7617365    1290.8862  0.086683197  0.086885032            2 
 1242000    1.0475269   -2.7675719    1291.7766  0.086673145  0.086871012            1 
 1243000    1.0380813   -2.7811136    1289.9846  0.086483282  0.086856839            2 
 1244000    1.0624686   -2.7679505     1289.102  0.086354638  0.086843341            2 
 1245000    1.0741774   -2.7578222    1298.3646   0.08690526   0.08682905            2 
 1246000    1.0481196   -2.7542359    1294.4428   0.08657322   0.08681542            1 
 1247000    1.0442389   -2.7389403    1299.3737  0.086833311  0.086801522            2 
 1248000    1.0476706   -2.7491035    1300.4811  0.086837681  0.086787743            1 
 1249000    1.0390244   -2.7462157    1298.3424  0.086625457  0.086774383            3 
 1250000    1.0447482   -2.7825633    1300.6517  0.086710116  0.086760314            2 
 1251000    1.0677038    -2.747298    1299.5136  0.086564991  0.086746351            1 
 1252000    1.0559109   -2.7626813    1303.9994  0.086794424  0.086732633            1 
 1253000    1.0781319   -2.7745994    1302.3152  0.086613141  0.086718858            2 
 1254000     1.038551   -2.7682318    1305.1809  0.086734512  0.086704756            2 
 1255000    1.0543936   -2.7881517    1303.2072   0.08653434  0.086691178            3 
 1256000    1.0397183      -2.7605    1303.0421  0.086454492  0.086677827            2 
 1257000    1.0355276    -2.786769    1305.7681  0.086566434  0.086664301            1 
 1258000    1.0477316   -2.7572606    1311.4213  0.086872106  0.086651054            2 
 1259000      1.05728   -2.7510827    1308.3998  0.086603112  0.086638549            2 
 1260000    1.0876795   -2.7707536    1320.1025  0.087308368  0.086626184            2 
 1261000    1.0484686   -2.7721365    1311.8907  0.086696451  0.086613919            2 
 1262000    1.0641686   -2.7800599    1309.2224  0.086451557  0.086601329            2 
 1263000    1.0547194    -2.770468    1312.6747  0.086610894  0.086589197            3 
 1264000     1.034492   -2.7671956    1322.4083  0.087184091  0.086577318            1 
 1265000     1.040721   -2.7673256    1318.9801  0.086889332  0.086565367            2 
 1266000    1.0295881   -2.7561979    1319.8655  0.086878982  0.086553813            2 
 1267000    1.0275719   -2.7631023    1321.4951  0.086917592  0.086542749            4 
 1268000    1.0660824   -2.7933383    1318.0468  0.086622425  0.086531362            2 
 1269000    1.0486764   -2.7680176    1324.5491  0.086981162  0.086519381            2 
 1270000    1.0416506   -2.7906196    1324.7589  0.086926438  0.086507914            4 
 1271000    1.0630318   -2.7819961    1319.8095  0.086533537  0.086496015            1 
 1272000    1.0751872   -2.7895063    1320.9879  0.086542708  0.086484658            3 
 1273000    1.0511587   -2.7710217    1325.5056  0.086770464  0.086473308            2 
 1274000    1.0342991   -2.7776871    1326.3517  0.086757702  0.086461858            1 
 1275000    1.0656138   -2.7745029    1331.1993  0.087006488  0.086450605            1 
 1276000    1.0398284   -2.7586484    1332.6443  0.087032673  0.086439773            1 
 1277000    1.0426472   -2.7656292    1327.0488  0.086599373  0.086428658            2 
 1278000    1.0557555   -2.8075267    1334.8119  0.087037814  0.086417754            1 
 1279000    1.0513914    -2.785734    1330.6017  0.086695445  0.086406219            5 
 1280000    1.0585086   -2.7386175      1332.31  0.086738935  0.086395243            3 
 1281000    1.0383442   -2.7747797    1332.4678  0.086681484  0.086383597            3 
 1282000    1.0693485   -2.7500675    1335.2764  0.086796439    0.0863727            2 
 1283000    1.0288476   -2.7794557    1340.7611  0.087085026  0.086362355            2 
 1284000    1.0460694   -2.7560147    1339.0354  0.086905207  0.086351727            2 
 1285000    1.0679863   -2.7614207    1342.4982  0.087062137  0.086341238            3 
 1286000    1.0221601   -2.7775143    1339.4793  0.086798816   0.08633085            3 
 1287000    1.0411228   -2.7801198    1335.7709  0.086491253  0.086320774            2 
 1288000     1.042109   -2.7442104    1345.4491  0.087050279   0.08631059            3 
 1289000    1.0397642   -2.7615808    1337.4625  0.086466416  0.086300397            3 
 1290000    1.0250908   -2.7557834     1345.236   0.08690155  0.086290247            3 
 1291000    1.0654422     -2.77442    1344.4771  0.086785252  0.086280088            3 
 1292000    1.0487169    -2.754747    1343.4477  0.086651685  0.086269723            2 
 1293000    1.0354973   -2.7563831    1351.8091  0.087123558  0.086259167            2 
 1294000    1.0639906   -2.7714549    1350.0688  0.086944153   0.08624914            2 
 1295000    1.0434336   -2.7561846    1347.6535  0.086721589  0.086238756            4 
 1296000    1.0423779   -2.7739281    1345.0872  0.086489658   0.08622794            2 
 1297000    1.0428101     -2.76619    1352.3996  0.086892802  0.086217478            2 
 1298000    1.0475044   -2.7852967    1352.2323  0.086815122  0.086207141            1 
 1299000    1.0389143   -2.7625261    1354.0459   0.08686463  0.086196778            1 
 1300000    1.0287535   -2.7821662    1353.1299  0.086739094  0.086186427            5 
 1301000    1.0451721   -2.7587666    1352.7704  0.086649396  0.086176179            2 
 1302000    1.0540548   -2.7757411    1357.0074  0.086854029  0.086165785            1 
 1303000     1.026379   -2.8240076    1352.5348  0.086501329   0.08615484            1 
 1304000    1.0557558   -2.7858874    1356.0976   0.08666268  0.086144351            1 
 1305000    1.0362888   -2.7884404    1355.3245    0.0865469  0.086133666            3 
 1306000    1.0422711   -2.7635857    1351.6321  0.086245031  0.086122623            5 
 1307000    0.9990418   -2.7848573    1352.6767  0.086245642  0.086111051            3 
 1308000    0.9872131   -2.7910508    1350.2015  0.086022014  0.086099446            3 
 1309000    1.0417049   -2.7886851    1362.6687  0.086749979  0.086087959            3 
 1310000    1.0424903   -2.7486455    1356.9548  0.086320279  0.086076201            3 
 1311000    1.0319786   -2.7625643    1360.5344  0.086481973  0.086065187            1 
 1312000    1.0473294   -2.7936207    1356.7943  0.086178497  0.086053513            1 
 1313000    1.0412216   -2.7739934    1360.0467   0.08631929  0.086041983            2 
 1314000     1.031159   -2.7929889     1361.653  0.086355465  0.086030853            2 
 1315000    1.0265376   -2.7623712     1359.587  0.086158872  0.086019694            2 
 1316000    1.0327978   -2.7776047    1363.3466   0.08633147  0.086008294            2 
 1317000    1.0206952   -2.7914263     1359.694  0.086034804  0.085997107            4 
 1318000    1.0504225   -2.7950128    1369.5655  0.086593672  0.085985945            4 
 1319000    1.0650667   -2.7577952    1369.9792  0.086554156  0.085975243            4 
 1320000    1.0339467   -2.7799665     1369.628  0.086466412  0.085964562            2 
 1321000    1.0298923   -2.7681786    1371.1508  0.086497024  0.085953794            2 
 1322000    1.0484583   -2.8056095    1372.0389  0.086487577  0.085942392            4 
 1323000    1.0479859   -2.7842541    1367.5684  0.086140612   0.08593154            2 
 1324000    1.0256787   -2.7779137    1370.0703  0.086233028  0.085920646            3 
 1325000    1.0506271   -2.7749986    1372.2943  0.086307819  0.085909912            2 
 1326000    1.0463472   -2.7992023    1371.7268  0.086207066  0.085899014            4 
 1327000    1.0276501   -2.7525555    1377.3208  0.086493392  0.085888035            2 
 1328000    1.0310619     -2.77809    1374.4707  0.086249416  0.085877385            4 
 1329000    1.0291741   -2.7397443    1374.9004  0.086211459  0.085866126            2 
 1330000    1.0300769   -2.7639835    1373.7549  0.086074871  0.085855333            5 
 1331000    1.0168056   -2.7706303    1376.9887  0.086212665  0.085844895            2 
 1332000    1.0650607   -2.7679199    1387.0324  0.086776301  0.085834495            2 
 1333000    1.0572156   -2.7568263    1381.1882  0.086345846  0.085824192            5 
 1334000      1.02692   -2.7726168    1380.7161   0.08625163  0.085814041            2 
 1335000    1.0392341   -2.7453592    1391.4224  0.086855328  0.085804095            1 
 1336000    1.0407334   -2.7817379    1386.5817  0.086488377  0.085794447            3 
 1337000    1.0373113   -2.7883892    1388.6358  0.086551722  0.085784639            2 
 1338000    1.0385194   -2.7701928    1388.8906  0.086502902  0.085774564            2 
 1339000    1.0238787   -2.7856718    1387.0861  0.086325993  0.085764555            5 
 1340000    1.0256213   -2.7668508    1389.0775  0.086385414  0.085754514            1 
 1341000    1.0383323   -2.7481037    1388.6348  0.086293486  0.085744781            3 
 1342000    1.0286121   -2.7833394    1387.8621  0.086181205  0.085734917            2 
 1343000    1.0467659   -2.7897887    1392.0015  0.086373884  0.085724866            2 
 1344000    1.0569722   -2.8029149    1390.3306  0.086206014  0.085714199            2 
 1345000    1.0467826   -2.7714608    1392.7764  0.086293455  0.085703954            1 
 1346000    1.0365738    -2.808065    1386.4453  0.085837379  0.085693281            2 
 1347000     1.030948   -2.7877426    1393.8446  0.086231413  0.085682877            2 
 1348000     1.032336   -2.7880444    1394.6675  0.086218316  0.085672596            3 
 1349000    1.0335544   -2.7762912     1394.724  0.086157895  0.085662501            2 
 1350000    1.0373846   -2.7927404    1401.3907  0.086505602  0.085652145            2 
 1351000    1.0255594   -2.7643333    1398.8034  0.086281977  0.085641947            2 
 1352000    1.0274912   -2.7656664    1402.7197  0.086459545  0.085632107            3 
 1353000    1.0492481   -2.7754878    1402.6099   0.08638888  0.085622398            3 
 1354000    1.0401707   -2.7846037    1404.0602  0.086414341  0.085612881            2 
 1355000    1.0232183   -2.7810417    1410.5909  0.086752208  0.085602891            2 
 1356000     1.047366    -2.780747    1404.1076  0.086289797  0.085593144            3 
 1357000      1.05264    -2.792945    1399.0649  0.085916536  0.085582856            3 
 1358000    1.0425419   -2.7673209    1407.2268  0.086354123  0.085573314            1 
 1359000    1.0199979    -2.805814    1403.5679  0.086066217  0.085563638            2 
 1360000      1.03728   -2.7809027    1409.5574  0.086369938  0.085553579            3 
 1361000    1.0272366   -2.7813768    1413.1259  0.086524975  0.085544201            1 
 1362000    1.0492684   -2.7799233    1408.6266  0.086186162  0.085534548            3 
 1363000    1.0292943   -2.7869445    1410.1364  0.086215233  0.085525081            2 
 1364000    1.0277716   -2.7912965    1408.9716  0.086080867   0.08551517            2 
 1365000    1.0298206   -2.7851363    1405.1712  0.085785786  0.085505219            3 
 1366000    1.0349553   -2.7759734    1409.9383  0.086013805  0.085494745            2 
 1367000    1.0358449    -2.790315    1402.6051  0.085503846  0.085484561            2 
 1368000    1.0578715   -2.8079321    1408.6241  0.085807996   0.08547338            2 
 1369000    1.0170469   -2.7893676     1417.931  0.086311848  0.085462978            5 
 1370000    1.0339602   -2.7888036    1414.1209  0.086017089  0.085451935            1 
 1371000    1.0190672    -2.764513    1406.0985  0.085466723  0.085441262            3 
 1372000    1.0299945   -2.7821481    1416.2814  0.086022923  0.085430843            2 
 1373000    1.0325403   -2.8047721    1418.2469  0.086079562  0.085420524            2 
 1374000    1.0312175   -2.7693684    1411.9541  0.085635255  0.085409489            4 
 1375000    1.0479683   -2.7687504    1419.5356  0.086032463  0.085398721            1 
 1376000    1.0413991   -2.7920377    1417.6247  0.085854209  0.085387643            2 
 1377000    1.0196609   -2.7789793     1420.577  0.085970527  0.085376052            2 
 1378000    1.0330286   -2.7987005    1416.0023  0.085631487  0.085364664            2 
 1379000     1.058533   -2.8011609    1410.5328  0.085238871  0.085353248            2 
 1380000    1.0141717   -2.7817384    1421.3868  0.085832536  0.085341619            2 
 1381000    1.0039874   -2.7611405    1414.0299  0.085326447  0.085330571            2 
 1382000    1.0199884   -2.7903148     1425.386   0.08594947  0.085319043            3 
 1383000    1.0385085   -2.7516169    1419.9094  0.085557329  0.085307377            2 
 1384000    1.0193977    -2.805288    1416.5589  0.085293767  0.085295628            2 
 1385000     1.045467   -2.8232979    1413.3171  0.085037133  0.085283549            2 
 1386000    1.0149815   -2.7650174    1423.1876   0.08556924   0.08527192            4 
 1387000    1.0151264   -2.7664355    1423.2807  0.085513137   0.08526035            2 
 1388000    1.0149024   -2.7962814      1421.78  0.085361429   0.08524844            1 
 1389000    1.0120309   -2.8051967     1419.113  0.085139969  0.085236492            2 
 1390000    1.0357421    -2.748417    1422.9729  0.085310127  0.085224174            3 
 1391000    1.0161057   -2.7867668     1423.765   0.08529625  0.085211948            2 
 1392000    1.0136748   -2.7725887    1428.3519  0.085509575  0.085200251            2 
 1393000    1.0409976    -2.793141    1430.1823  0.085557687  0.085188715            1 
 1394000    1.0625626   -2.7796356    1435.5409  0.085816646  0.085176908            2 
 1395000    1.0402802   -2.7599452    1436.2158  0.085795447  0.085165997            1 
 1396000    1.0289137   -2.7961868    1427.0443  0.085186503  0.085155262            3 
 1397000    1.0416821   -2.8061683    1427.5993  0.085158631  0.085143545            2 
 1398000    1.0370366   -2.7817284    1432.8939  0.085413325   0.08513184            1 
 1399000    1.0181124   -2.7819753    1439.8635  0.085767424  0.085120883            2 
 1400000    1.0248766   -2.7761299    1444.8817  0.086004863   0.08510989            1 
 1401000    1.0336976   -2.8106537    1426.8227  0.084869301  0.085098587            4 
 1402000    1.0508856   -2.7783971    1432.2186  0.085129494  0.085086593            3 
 1403000     1.033751   -2.7952966    1431.5817   0.08503099  0.085074463            2 
 1404000    1.0269482   -2.8038247    1437.0007  0.085292065  0.085062156            4 
 1405000    1.0277121    -2.790228    1436.7073  0.085213959  0.085050645            2 
 1406000    1.0192322   -2.7876833    1438.5495  0.085262533   0.08503916            2 
 1407000    1.0227413   -2.7450309    1443.7357  0.085509105  0.085027664            9 
 1408000    1.0019244   -2.8262494    1438.7185  0.085151428  0.085016266            2 
 1409000    1.0279928   -2.8014303    1443.2257  0.085357562  0.085005045            1 
 1410000    1.0362626   -2.8122723    1442.4845  0.085253224  0.084993256            4 
 1411000     1.053641   -2.8055435     1437.648  0.084907155  0.084981434            2 
 1412000    1.0347944   -2.7895208    1446.6574  0.085378742    0.0849695            2 
 1413000    1.0373427   -2.7889967    1439.0439  0.084869302  0.084957712            2 
 1414000    1.0239383   -2.7710331    1448.0206  0.085338321  0.084946033            2 
 1415000    1.0373543    -2.804282    1442.3757  0.084945563    0.0849339            3 
 1416000    1.0283065   -2.7853439    1446.9176  0.085152873  0.084922046            3 
 1417000    1.0254291   -2.7991332    1445.0427  0.084982516  0.084909817            3 
 1418000    1.0134098   -2.8016043    1447.0148  0.085038481  0.084898241            3 
 1419000    1.0224675   -2.8162869    1444.2418  0.084815702  0.084886712            3 
 1420000     1.015742   -2.7819413    1449.5287  0.085066239  0.084874736            4 
 1421000    1.0278987    -2.805616    1447.4157  0.084882459   0.08486332            3 
 1422000    1.0416935   -2.7745006    1452.6533  0.085129707  0.084851569            2 
 1423000    1.0163011   -2.7677041    1455.0985  0.085213077  0.084840263            6 
 1424000    1.0046195   -2.7914149     1452.721  0.085014106  0.084828869            2 
 1425000    1.0355189   -2.7792519    1456.0053   0.08514651  0.084817474            3 
 1426000     1.025834   -2.8253001     1459.698  0.085302592  0.084805943            2 
 1427000    1.0154178   -2.7854425    1453.3987  0.084874951  0.084794579            2 
 1428000    1.0298942   -2.7883539    1459.2464  0.085156769  0.084783431            1 
 1429000    1.0143059   -2.7655434    1459.3059  0.085100648    0.0847725            7 
 1430000    1.0240543   -2.8114378    1459.1527  0.085032209  0.084761294            2 
 1431000    1.0287786   -2.8099631    1458.2527  0.084920375  0.084749947            1 
 1432000   0.99445531   -2.7918974    1463.4631  0.085164289  0.084738699            3 
 1433000    1.0110952   -2.7908855    1466.3385  0.085272068  0.084727671            1 
 1434000     1.004528   -2.8150589    1461.4677  0.084929552  0.084716065            2 
 1435000    1.0364353   -2.7926382    1459.1963  0.084738461  0.084704435            2 
 1436000    1.0473611   -2.7964114    1463.8655  0.084950415  0.084692899            2 
 1437000    1.0337703   -2.7922539    1464.6496  0.084936767  0.084680964            2 
 1438000    1.0144903   -2.8002241    1466.7239  0.084997911  0.084669379            5 
 1439000    1.0197847   -2.8279505    1463.2027  0.084734925  0.084658506            2 
 1440000    1.0327417   -2.7978675      1467.15  0.084904513  0.084647142            1 
 1441000    1.0227632   -2.8154478    1463.4177  0.084629756  0.084635735            3 
 1442000    1.0138389   -2.8040646    1469.5983  0.084928244   0.08462361            2 
 1443000    1.0090427   -2.7928459    1476.1724  0.085249043  0.084612472            2 
 1444000    1.0008912   -2.8089299    1473.7156  0.085048222  0.084600792            2 
 1445000    1.0401976   -2.7989907    1469.7755  0.084762137  0.084589019            4 
 1446000    1.0504402   -2.7875348    1474.4483  0.084972814  0.084576915            3 
 1447000     1.031876   -2.8269561    1469.1527  0.084609116  0.084564785            2 
 1448000    1.0215356   -2.8149956    1463.9733  0.084252606  0.084552167            4 
 1449000    1.0259319   -2.7878441    1467.6201  0.084404194  0.084539698            2 
 1450000   0.99308295   -2.8144269    1471.4069  0.084563613  0.084526884            2 
 1451000    1.0176244   -2.8167433    1471.3467  0.084501878  0.084514095            3 
 1452000    1.0191663   -2.7934667    1465.0901  0.084084599  0.084501483            1 
 1453000    1.0199506   -2.7954573    1468.0788  0.084198141  0.084488352            5 
 1454000    1.0333516   -2.8108832    1464.5321  0.083936961  0.084474944            2 
 1455000    1.0131637   -2.7703816    1474.4772  0.084448868  0.084461571            2 
 1456000    1.0141816   -2.7978692    1474.6451  0.084400477  0.084448974            2 
 1457000    1.0214221   -2.8137288    1472.3448  0.084210979  0.084435912            5 
 1458000    1.0212682   -2.8121234    1474.0164  0.084248766  0.084423184            3 
 1459000    1.0438044   -2.8244316      1472.81  0.084122115  0.084410232            1 
 1460000    1.0119514   -2.8189843    1478.8671  0.084410221  0.084397345            2 
 1461000    1.0153473   -2.7783694    1483.7701  0.084632109  0.084384407            1 
 1462000    1.0061143   -2.8139145    1479.2533  0.084316766  0.084371806            4 
 1463000    1.0335234   -2.8124233    1485.0222   0.08458773  0.084359328            3 
 1464000    1.0196325   -2.8012393    1477.5826  0.084106477  0.084346701            5 
 1465000    1.0259596   -2.7890422    1483.1995  0.084368574  0.084334167            2 
 1466000    1.0107888   -2.7779695     1490.229  0.084710606  0.084321827            2 
 1467000    1.0142597   -2.7779826    1491.4885   0.08472441  0.084309845            1 
 1468000    1.0184765    -2.785165    1486.1755  0.084365096  0.084297644            1 
 1469000    1.0044279   -2.7978764    1482.4654    0.0840972  0.084285051            2 
 1470000    1.0277114   -2.8066717    1486.3876  0.084262338  0.084272204            3 
 1471000     1.031852   -2.7926857    1487.7947  0.084284765   0.08425973            1 
 1472000    1.0065484   -2.7892604    1483.9931  0.084012292  0.084246769            1 
 1473000    1.0012303   -2.8105782    1488.7703   0.08422552  0.084233608            3 
 1474000    1.0268146   -2.7973979    1487.7423  0.084110259  0.084220638            2 
 1475000    1.0133521   -2.8248403    1485.1019  0.083904065  0.084207564            2 
 1476000    1.0155512   -2.8399009      1491.22   0.08419264  0.084194408            2 
 1477000    1.0153375   -2.8269526    1485.7802  0.083828716  0.084181679            3 
 1478000    1.0285263   -2.8223474     1489.062  0.083957035  0.084168849           10 
 1479000    1.0117406   -2.7988997    1496.4353  0.084315716  0.084156185            1 
 1480000     1.002872   -2.8198666    1490.2003  0.083907675  0.084143364            7 
 1481000    1.0218085   -2.8228414      1495.57  0.084153164  0.084130361            1 
 1482000    1.0234048   -2.7964325     1491.457  0.083865106  0.084117011            2 
 1483000     1.017224   -2.7947667    1494.1017  0.083957163  0.084103863            6 
 1484000    1.0188447   -2.8063814    1496.2547  0.084021491  0.084090552            3 
 1485000    1.0300148   -2.8254419    1496.4929  0.083978278  0.084077339            2 
 1486000    1.0203339   -2.8159345    1497.2087  0.083961908    0.0840641            2 
 1487000      1.01349   -2.8357508    1498.2877  0.083965912  0.084051177            4 
 1488000    1.0348251   -2.7912901       1499.3  0.083966175  0.084038289            2 
 1489000   0.99177229   -2.8139372    1502.0136  0.084061652  0.084025496            1 
 1490000     1.027976   -2.8347942    1498.4167  0.083804064  0.084012805            3 
 1491000   0.99542897   -2.8212011    1507.5176  0.084256516  0.084000813            2 
 1492000   0.99070335   -2.8111856    1508.0497  0.084229763  0.083988421            4 
 1493000    1.0082032   -2.8344195    1503.5079  0.083919841  0.083975267            2 
 1494000   0.99715451   -2.8071478    1515.2916  0.084520953  0.083963056            2 
 1495000    1.0239916   -2.7978829    1509.4617  0.084139451  0.083951037            3 
 1496000    1.0177212   -2.8328912    1505.2399  0.083848036  0.083938729            6 
 1497000    1.0274978   -2.8076995    1513.3316  0.084242465  0.083926567            1 
 1498000   0.99939873   -2.8275365    1510.3555  0.084020666  0.083914389            1 
 1499000     1.017713   -2.7552077    1515.0044  0.084223058  0.083902108            2 
 1500000   0.99520236   -2.8029349    1509.9891  0.083888282  0.083889928            2 
 1501000    1.0119149   -2.7959144    1509.8251   0.08382329  0.083877575            2 
 1502000    1.0305695   -2.8078286    1510.8137  0.083822331  0.083865035            2 
 1503000   0.99426717   -2.8268038    1509.6562  0.083702384  0.083852158            2 
 1504000    1.0222976   -2.8110189    1517.1479  0.084061827  0.083839459            2 
 1505000    1.0223556   -2.8310762      1513.96  0.083829456  0.083826439            2 
 1506000    1.0130094   -2.8105218    1513.1121  0.083726877  0.083814146            1 
 1507000    1.0258695   -2.8336583    1516.1637  0.083840063  0.083801992            3 
 1508000    1.0189743    -2.812091    1521.0726  0.084055736  0.083789462            2 
 1509000    1.0012964   -2.8468756    1513.5996  0.083587344  0.083776821            3 
 1510000    1.0156021   -2.7885851    1527.1122  0.084277713  0.083764602            4 
 1511000    1.0123329   -2.8063769    1526.8585  0.084207949   0.08375251            3 
 1512000   0.99906148    -2.794889     1523.652  0.083975531  0.083740772            2 
 1513000   0.99760043   -2.8254957    1519.6668  0.083700526  0.083728701            2 
 1514000    1.0219318   -2.8404236    1524.9154  0.083934138  0.083716805            3 
 1515000   0.99814812   -2.8176414    1523.5629  0.083804339  0.083704573            2 
 1516000    1.0326438   -2.8052589    1532.3422   0.08423165  0.083692768            2 
 1517000    1.0081897   -2.8028298    1525.0425   0.08377513  0.083680802            1 
 1518000    1.0079673   -2.8357626    1524.3726   0.08368317  0.083668666            2 
 1519000    1.0153892   -2.8184205    1522.2337  0.083510738  0.083656624            4 
 1520000    1.0268069   -2.8318377    1527.1831  0.083727142  0.083644816            2 
 1521000    1.0078825   -2.8111432     1530.163  0.083835363  0.083633051            2 
 1522000   0.99860976    -2.823611    1533.4254  0.083958903  0.083621163            2 
 1523000    1.0142176   -2.7976519     1535.739  0.084030367  0.083609217            1 
 1524000    1.0043428   -2.8284376    1531.8456  0.083762337  0.083597492            1 
 1525000   0.99601859   -2.8449192    1537.9565  0.084041339  0.083586011            3 
 1526000    1.0367052   -2.8402117    1532.8907  0.083709628   0.08357399            3 
 1527000    1.0214261   -2.8377178    1533.9677  0.083713583    0.0835623            2 
 1528000    1.0083514   -2.7793676    1541.0119  0.084042967  0.083550743            3 
 1529000    1.0074848    -2.828634    1537.9307  0.083820074  0.083539049            2 
 1530000    1.0044697   -2.8144089    1534.5458  0.083580926  0.083526556            5 
 1531000     1.009246   -2.8187096    1536.6502  0.083640876  0.083514086            2 
 1532000    1.0087761   -2.8166878     1538.248  0.083673193  0.083501701            2 
 1533000    1.0065568   -2.8255959    1537.6395  0.083585536  0.083489772            3 
 1534000    1.0159687   -2.8457735    1538.1139  0.083556816  0.083477482            2 
 1535000   0.98801576   -2.8296732    1539.3348  0.083568666  0.083465188            1 
 1536000     1.032208   -2.8451194    1533.3078  0.083187274  0.083452724            1 
 1537000    1.0144232   -2.8087051    1535.4151  0.083247405  0.083440597            1 
 1538000   0.99645996   -2.8366933    1542.7266  0.083589432  0.083427999            3 
 1539000   0.97712555   -2.8152428    1540.6702   0.08342377  0.083415417            6 
 1540000   0.99607184   -2.8128178     1550.277  0.083889448  0.083402691            2 
 1541000   0.99941006   -2.8300437    1545.1283  0.083556584  0.083389982            3 
 1542000    1.0009884    -2.816238    1548.9058  0.083706538  0.083377667            3 
 1543000    1.0190296   -2.7901567     1548.122  0.083609957  0.083365291            3 
 1544000   0.99224814   -2.8357409    1538.5844  0.083041038   0.08335312            2 
 1545000    1.0087032   -2.8149963    1546.1596  0.083395879  0.083340551            2 
 1546000   0.99173417   -2.8346973    1547.9027  0.083435892  0.083328132            3 
 1547000    1.0082094   -2.8540215    1543.3663  0.083137594  0.083316112            2 
 1548000    1.0125545   -2.8283689    1557.3247   0.08383531  0.083303708            3 
 1549000    1.0121429   -2.8086537    1549.1039   0.08333892   0.08329138            2 
 1550000   0.99886193   -2.8468354    1556.6715  0.083692014  0.083279721            2 
 1551000   0.99685348   -2.7967005    1556.5293  0.083630415   0.08326748            4 
 1552000    1.0024126   -2.8002518    1559.7591  0.083749954  0.083255437            2 
 1553000     1.001519   -2.8166134    1553.1262  0.083340108  0.083243592            2 
 1554000    1.0175954   -2.8267113    1556.7195  0.083479167  0.083231626            3 
 1555000   0.99870758   -2.8169265     1554.446  0.083303647  0.083219411            3 
 1556000    1.0106657   -2.8068513    1561.4335  0.083624331  0.083207568            3 
 1557000   0.99067285   -2.8499163    1561.6159  0.083580385  0.083196059            1 
 1558000    1.0232064   -2.8201326    1559.1424  0.083394436  0.083184758            2 
 1559000     1.011918   -2.8234545    1564.0838  0.083605081  0.083173288            2 
 1560000     1.013967   -2.8058541    1565.1758  0.083609819  0.083161928            3 
 1561000   0.99203577   -2.8198201    1563.2441  0.083453132   0.08315012            2 
 1562000     0.975187   -2.7953569    1566.3092  0.083563233  0.083138843            1 
 1563000    0.9958929   -2.8173327    1561.3158  0.083243537  0.083127185            2 
 1564000    1.0014193   -2.8436117    1565.3663  0.083406133  0.083115643            4 
 1565000    1.0110956   -2.8367444    1564.2257  0.083292104  0.083103733            2 
 1566000      1.02131   -2.8137636    1566.1781  0.083342809  0.083091963            1 
 1567000   0.98302631   -2.8543273    1565.7073  0.083264585   0.08308041            1 
 1568000    1.0100247   -2.8059953    1568.3531  0.083352101  0.083068838            2 
 1569000    1.0021708   -2.8269985    1568.2809  0.083295138  0.083057062            3 
 1570000    0.9909764   -2.8295921    1568.4284  0.083249917  0.083045282            2 
 1571000    0.9932005   -2.8178088    1570.3129  0.083296888  0.083033293            2 
 1572000    1.0061321   -2.8400183    1571.0427  0.083282584  0.083021371            2 
 1573000    1.0129544   -2.8158342    1570.1564  0.083182689  0.083009619            3 
 1574000    1.0153125   -2.8215593    1574.3193  0.083350238   0.08299763            1 
 1575000    1.0033459   -2.8220581     1566.872  0.082903283   0.08298545            2 
 1576000     1.015713   -2.8230363    1572.1158  0.083127953  0.082973409            2 
 1577000   0.98299106   -2.8123005    1573.4157   0.08314393  0.082961232            3 
 1578000   0.97867873   -2.8452044    1575.8576  0.083220194  0.082948842            4 
 1579000   0.98015131   -2.8107572    1579.9629  0.083384153  0.082936657            2 
 1580000    1.0094313   -2.8160725    1577.3359  0.083192822  0.082924672            1 
 1581000   0.98817501    -2.806387    1576.8098  0.083112469  0.082912315            1 
 1582000    1.0180965   -2.8109876    1577.1605  0.083078407  0.082899772            2 
 1583000    1.0057775   -2.8276849    1577.5881  0.083048437  0.082887202            1 
 1584000   0.99906467    -2.834051    1572.8036  0.082744296  0.082874576            2 
 1585000   0.99756051   -2.8324368    1578.6358  0.082998727  0.082862225            3 
 1586000   0.99274385   -2.8248395    1575.1723  0.082764412  0.082850076            3 
 1587000   0.98717836   -2.8428266    1579.8684  0.082958855  0.082837961            4 
 1588000   0.99602318   -2.8371784     1577.421  0.082778179  0.082825795            2 
 1589000    0.9902656   -2.8408567    1583.6981   0.08305528   0.08281375            3 
 1590000   0.99205345   -2.8376441    1576.5175  0.082626705  0.082801615            2 
 1591000    1.0126947   -2.8380045    1581.8702  0.082855132  0.082789406            3 
 1592000    1.0013616   -2.8108731    1583.2922  0.082877523  0.082776893            3 
 1593000    1.0138607   -2.8275362    1584.5127  0.082889346  0.082764504            2 
 1594000   0.98974901   -2.8249453     1583.209  0.082769188  0.082752102            3 
 1595000   0.97933262   -2.8311337    1578.6231  0.082477697  0.082739836            2 
 1596000   0.97642661   -2.8204693     1589.045  0.082970187  0.082727783            4 
 1597000    1.0037424   -2.8050266    1583.7265  0.082640708  0.082715195            2 
 1598000   0.99739524   -2.8159105    1587.5668  0.082789255  0.082702873            2 
 1599000    1.0112353   -2.8347448    1583.7674  0.082539475  0.082689975            1 
 1600000      1.00828   -2.8317349    1588.9962  0.082760221  0.082677635            2 
 1601000   0.98816465   -2.8375765    1588.4217  0.082678622  0.082664908            5 
 1602000   0.99100337   -2.8358035    1583.1931  0.082355028  0.082652109            3 
 1603000   0.99614222   -2.8190278    1590.9269  0.082705703  0.082639585            4 
 1604000    1.0052216   -2.8457567    1585.6567  0.082380335  0.082626807            1 
 1605000    1.0041587   -2.8472794    1590.2008  0.082564944  0.082613761            1 
 1606000   0.99940253   -2.8225674    1593.7447  0.082697423    0.0826007            1 
 1607000   0.98463015   -2.8372739    1591.6944  0.082539641  0.082587508            2 
 1608000   0.99993829   -2.8327101    1590.1555  0.082408556  0.082574586            1 
 1609000   0.99091182   -2.8290838    1593.7744  0.082544767    0.0825618            2 
 1610000   0.99173309   -2.8411664    1594.2579  0.082518526  0.082548997            2 
 1611000    0.9839369   -2.8379388    1593.0632  0.082405505  0.082535966            3 
 1612000    1.0019371   -2.8608888    1589.7887  0.082185107  0.082523309            6 
 1613000     1.002352   -2.8387411    1593.9088  0.082347016  0.082510344            2 
 1614000   0.99246871   -2.8235753    1599.3922  0.082579109   0.08249736            3 
 1615000   0.99155486   -2.8324969    1599.9591  0.082557228   0.08248444            2 
 1616000   0.98423856   -2.8705585    1597.6176  0.082385395  0.082471382            2 
 1617000   0.98023773   -2.8328215     1607.252  0.082830963  0.082458254            5 
 1618000    1.0108513   -2.8277819    1605.4605  0.082687501  0.082445435            2 
 1619000   0.98751661   -2.8487986    1592.0654  0.081946955  0.082432792            2 
 1620000   0.99388234   -2.8542633     1598.799  0.082242747  0.082419891            3 
 1621000   0.99132741   -2.8416591    1599.7656  0.082241701  0.082406571            3 
 1622000   0.97198717   -2.8430763    1605.9115  0.082506757  0.082393348            2 
 1623000   0.99535466    -2.838676    1602.8984  0.082301211  0.082380259            2 
 1624000   0.99410407   -2.8390922    1602.1238  0.082210787  0.082366929            2 
 1625000    0.9791549   -2.8690438    1600.9152  0.082098214  0.082353548            1 
 1626000   0.99744997   -2.8342984    1606.6451  0.082341386  0.082340409            2 
 1627000   0.99330978   -2.8138684    1606.2694  0.082271533  0.082327195            5 
 1628000   0.99723678    -2.838147    1603.4926  0.082078861  0.082314059            1 
 1629000   0.99514018    -2.836901    1607.4484  0.082230836  0.082301454            1 
 1630000   0.99662157   -2.8499111    1606.1396  0.082113474  0.082288595            2 
 1631000    0.9877501   -2.8327933    1612.8321  0.082405074  0.082276007            3 
 1632000   0.99267332   -2.8629203    1606.2374  0.082017843  0.082263205            2 
 1633000   0.98832294    -2.845878    1611.6339  0.082243003  0.082251036            5 
 1634000   0.99177943   -2.8661325    1610.4395  0.082131756   0.08223886            3 
 1635000   0.98540539   -2.8548029    1614.7953  0.082303532   0.08222621            1 
 1636000    0.9920336   -2.8416114    1616.4531   0.08233767   0.08221388            2 
 1637000    1.0113085   -2.8211748    1616.3957  0.082284449  0.082201577            3 
 1638000    1.0141383   -2.8607834    1611.8738  0.082004163  0.082189113            2 
 1639000   0.99561319    -2.863127    1614.8845  0.082107206  0.082176603            2 
 1640000   0.98215751   -2.8457847    1610.7566  0.081847387  0.082163704            1 
 1641000   0.98646976   -2.8598507    1622.0174  0.082369357   0.08215136            1 
 1642000   0.97309764    -2.845789    1617.8347  0.082106915  0.082138641            7 
 1643000   0.97239095   -2.8483645    1614.0888   0.08186695  0.082126282            1 
 1644000   0.99401827   -2.8408545    1619.2291   0.08207771  0.082113843            1 
 1645000   0.98646226   -2.8406302    1630.2137  0.082584283  0.082101081            5 
 1646000    1.0098126   -2.8262491    1629.8923  0.082517839  0.082089085            2 
 1647000   0.99148651   -2.8561804    1626.5688  0.082299574  0.082077052            2 
 1648000   0.97601547    -2.831294    1627.5461  0.082299053  0.082064391            2 
 1649000   0.98742303   -2.8426939    1624.7979  0.082110261  0.082051853            3 
 1650000   0.97748406   -2.8642903    1627.5536  0.082199677  0.082039268            1 
 1651000   0.98216576   -2.8494559    1625.4036  0.082041368   0.08202627            3 
 1652000   0.97554208   -2.8540653    1621.2342  0.081781386  0.082013235            2 
 1653000   0.95366625   -2.8498268    1628.0321  0.082074615   0.08200027            2 
 1654000   0.99512264    -2.828479    1622.1258  0.081727417  0.081987218            3 
 1655000   0.97782301   -2.8327905    1632.0062  0.082175539  0.081974225            1 
 1656000   0.99403523   -2.8345742    1618.2054  0.081431429  0.081960921            3 
 1657000   0.99547768   -2.8307599    1634.8796  0.082220863    0.0819482            2 
 1658000    1.0023641   -2.8514982    1630.4272  0.081947487  0.081935444            3 
 1659000   0.98362667   -2.8539342    1630.8257  0.081918107  0.081922568            2 
 1660000   0.97413782   -2.8621491    1627.9689  0.081725346  0.081910262           10 
 1661000   0.99090082   -2.8432851    1633.6908  0.081963215  0.081897375            1 
 1662000   0.98045009   -2.8662882    1623.9386  0.081424922  0.081884727            2 
 1663000   0.97190933    -2.846549     1631.633  0.081761528  0.081872435            2 
 1664000   0.99687341   -2.8384532    1635.5577  0.081908939  0.081859968            2 
 1665000   0.98031891   -2.8294317     1638.566  0.082010309  0.081847925            3 
 1666000   0.96595769   -2.8359006    1635.9233  0.081828897  0.081835449            2 
 1667000   0.98139103   -2.8237181    1635.3382  0.081750559   0.08182288            1 
 1668000   0.98874832   -2.8186697    1641.6081  0.082014795  0.081809923            4 
 1669000   0.99359176   -2.8513571    1642.4206   0.08200622  0.081797212            3 
 1670000    0.9843825   -2.8210508    1648.3591  0.082253447  0.081784781            3 
 1671000   0.96717971   -2.8496289    1642.0931  0.081891736  0.081772161            2 
 1672000   0.99355314   -2.8452381    1641.9784  0.081837042  0.081759599            2 
 1673000    0.9669545   -2.8627317    1641.5152  0.081765053  0.081747085            1 
 1674000   0.98575052   -2.8319079    1644.9717  0.081888279  0.081734864            3 
 1675000   0.98923343   -2.8396021     1647.939  0.081987016  0.081722688            3 
 1676000   0.98904606   -2.8473228    1637.7803  0.081432992  0.081710355            2 
 1677000   0.97822866   -2.8334776    1656.5702  0.082318138  0.081698417            2 
 1678000    0.9639089   -2.8539282    1647.5802  0.081822615  0.081686542            2 
 1679000   0.98798156    -2.842024    1642.7744   0.08153536  0.081674715            3 
 1680000   0.97568285   -2.8368321    1644.1634  0.081555724  0.081662645            4 
 1681000   0.99602982   -2.8478803    1649.3064  0.081762167  0.081650695            2 
 1682000   0.98883823   -2.8436525    1655.2986  0.082010435  0.081638638            1 
 1683000   0.98505005   -2.8653403    1653.6849  0.081881804  0.081626792            1 
 1684000   0.99397043    -2.834365    1656.6038  0.081977625  0.081614806            3 
 1685000   0.96310375   -2.8425925    1653.0036  0.081750921  0.081602868            1 
 1686000   0.98483184   -2.8544214    1653.0744  0.081705932  0.081591047            2 
 1687000    1.0146956   -2.8377082    1658.5131  0.081926154  0.081579029            2 
 1688000   0.97689653   -2.8224483    1659.9367  0.081947903  0.081567265            2 
 1689000   0.96447311   -2.8541112    1657.4902  0.081778674  0.081555092            5 
 1690000   0.99999163   -2.8460156    1651.0337  0.081411918  0.081543179            3 
 1691000   0.97375221   -2.8314366    1662.8336  0.081945278   0.08153104            1 
 1692000   0.97501812   -2.8277135     1659.647  0.081739901  0.081518809            3 
 1693000    0.9909617   -2.8365498    1652.9757  0.081363245  0.081506274            2 
 1694000   0.97947475   -2.8660705    1661.8572  0.081752126  0.081494059            3 
 1695000     0.975977   -2.8338982    1654.2434  0.081329567  0.081482067            2 
 1696000   0.97842394   -2.8635384    1657.0098  0.081417541  0.081470038            2 
 1697000   0.99285633   -2.8341386    1659.0483  0.081469666  0.081457747            2 
 1698000   0.99072248   -2.8770506    1659.9544  0.081466158  0.081445764            2 
 1699000   0.98322257   -2.8558097    1664.1619  0.081624577  0.081433792            1 
 1700000   0.98275434   -2.8395358     1670.149  0.081870049  0.081421871            2 
 1701000   0.97344593   -2.8780822    1656.1187  0.081134565  0.081409901            3 
 1702000   0.95706776   -2.8611734    1663.6626  0.081456259  0.081397678            2 
 1703000    0.9771556   -2.8386953    1668.2271  0.081631783  0.081385598            2 
 1704000    1.0037889   -2.8645771    1667.7155  0.081558858  0.081373641            4 
 1705000   0.97086127   -2.8728993    1668.0602  0.081527869  0.081361619            2 
 1706000   0.98270239   -2.8377174    1671.8967  0.081667484  0.081349697            6 
 1707000    0.9922669   -2.8617034    1666.5725   0.08135972  0.081337599            1 
 1708000   0.98794236   -2.8490808    1670.6473  0.081510894  0.081325607            2 
 1709000   0.99732433   -2.8584123    1675.9204  0.081720322  0.081313623            4 
 1710000   0.95604846    -2.848469    1669.1843  0.081344266  0.081302052            4 
 1711000   0.96952661   -2.8519247    1672.6544  0.081465732  0.081290315            1 
 1712000   0.99838521    -2.861887    1670.2079   0.08129906  0.081278482            2 
 1713000   0.97343911   -2.8560963    1674.0734  0.081439649  0.081266594            1 
 1714000   0.98572254   -2.8647152    1671.8359  0.081283346  0.081254745            3 
 1715000   0.96433378   -2.8531578     1677.171  0.081495187  0.081242895            3 
 1716000   0.99733811   -2.8666128    1681.9598  0.081680255  0.081231095            5 
 1717000   0.96510856   -2.8286587     1685.083  0.081784266   0.08121908            2 
 1718000   0.96321204   -2.8355982     1677.913  0.081388875  0.081207245            2 
 1719000   0.96371339   -2.8402843     1674.867  0.081193864  0.081195396            2 
 1720000   0.96945161   -2.8689209    1679.6147   0.08137668    0.0811836            2 
 1721000   0.97012402   -2.8459815    1687.2634  0.081699757  0.081171805            2 
 1722000   0.95994441   -2.8602719    1680.3385  0.081317196  0.081160047            2 
 1723000   0.98947192    -2.856908    1682.8034  0.081389213  0.081148174            3 
 1724000   0.99166064   -2.8416257    1684.0778  0.081403605   0.08113631            2 
 1725000   0.99908011   -2.8747977    1682.1965  0.081265531  0.081124288            2 
 1726000   0.97958131   -2.8614158    1691.2422  0.081655186  0.081112346            2 
 1727000   0.98387962   -2.8562261    1686.4942  0.081378798  0.081101197            2 
 1728000   0.97033851   -2.8534605    1687.0546  0.081358727  0.081089465            1 
 1729000    0.9720195   -2.8516541    1688.8283  0.081397161  0.081077675            2 
 1730000   0.98037345   -2.8664985    1695.4902  0.081671013  0.081066351            4 
 1731000   0.96084855   -2.8612111    1693.3561   0.08152109  0.081055136            3 
 1732000   0.98760806   -2.8363555     1689.522  0.081289551  0.081043675            1 
 1733000   0.97576774   -2.8674243    1691.4313  0.081334454  0.081032209            2 
 1734000   0.98107197   -2.8349219    1695.8448  0.081499656  0.081020868            3 
 1735000   0.94698264   -2.8289947    1694.5611  0.081391023  0.081009458            1 
 1736000   0.97139395    -2.865405    1699.0228  0.081558313  0.080998416            2 
 1737000    0.9712588   -2.8305914     1697.269   0.08142722  0.080987078            2 
 1738000   0.99898783   -2.8661823    1695.5579  0.081298327  0.080975718            2 
 1739000   0.97870498   -2.8439611     1695.121  0.081230643  0.080964483            3 
 1740000   0.96992266   -2.8696707    1698.3648   0.08133931  0.080953231            3 
 1741000   0.98765824   -2.8639341    1699.8805  0.081365139  0.080941866            2 
 1742000   0.97945884   -2.8734498    1698.5395  0.081254279   0.08093076            2 
 1743000   0.95077435   -2.8313662    1704.2489  0.081480634   0.08091973            2 
 1744000   0.97845004   -2.8623116    1700.4151   0.08125072   0.08090881            2 
 1745000    0.9825659   -2.8817702     1701.334  0.081248041  0.080897394            4 
 1746000   0.97534967   -2.8710874    1703.2814  0.081294453  0.080885801            2 
 1747000   0.96279757   -2.8621011    1704.2447  0.081293873  0.080874467            3 
 1748000   0.94689826   -2.8706708    1702.0663  0.081143511  0.080863227            3 
 1749000   0.98480248   -2.8544854    1707.7774   0.08136923  0.080851929            2 
 1750000   0.95737313   -2.8777737    1707.4352  0.081306438  0.080840675            4 
 1751000    0.9806504   -2.8288862     1707.063  0.081242289  0.080829857            3 
 1752000   0.96132054   -2.8532634    1710.7439  0.081370998  0.080818989            2 
 1753000   0.97514872   -2.8743889    1708.8613  0.081235089  0.080807756            2 
 1754000   0.97177935   -2.8424576    1703.1975  0.080919685    0.0807962            3 
 1755000   0.99024948   -2.8546045    1709.0323   0.08115063  0.080784843            4 
 1756000   0.96499641   -2.8620576    1709.0967  0.081107472  0.080773499            2 
 1757000    0.9524162   -2.8667403    1713.3188  0.081261562  0.080761952            2 
 1758000   0.96809717   -2.8488708    1704.4086  0.080792974  0.080750396            1 
 1759000   0.96137156   -2.8885342     1706.287  0.080836033  0.080738788            1 
 1760000    1.0067343    -2.856166    1713.9525  0.081153055  0.080727252            3 
 1761000    1.0091862    -2.869552    1712.9552  0.081059775  0.080715574            2 
 1762000   0.96073174   -2.8718078    1714.8258  0.081102242  0.080704166            5 
 1763000   0.97037786   -2.8723234    1713.6017  0.080998379  0.080692961            2 
 1764000   0.96134504   -2.8726072    1717.4927  0.081136274   0.08068137            4 
 1765000   0.98156107   -2.8881927    1717.8162  0.081105579  0.080669921            4 
 1766000   0.96658228   -2.8597856    1718.3436   0.08108454  0.080658738            1 
 1767000   0.97936982   -2.8429461    1719.2296  0.081080438  0.080647489            3 
 1768000    0.9680405   -2.8629799    1720.3565  0.081087693  0.080636419            7 
 1769000     1.003781   -2.9084497    1711.8045  0.080638991  0.080624946            6 
 1770000    0.9617269   -2.8615439    1720.6294  0.081008918  0.080613396            4 
 1771000    0.9730468   -2.8995567    1713.5644  0.080630735  0.080601654            2 
 1772000   0.96437062   -2.8517881    1722.7616  0.081017759   0.08059067            4 
 1773000   0.95980901   -2.8858562    1720.9921  0.080888893  0.080579262            2 
 1774000   0.97226719    -2.861464    1724.2359  0.080995673  0.080567998            3 
 1775000   0.95503338   -2.8695706    1724.0703  0.080942265  0.080556503            2 
 1776000   0.97934068   -2.8747882    1722.6122  0.080828274   0.08054479            2 
 1777000    0.9735118   -2.8512624    1727.0798  0.080992298  0.080532908            2 
 1778000    0.9748037   -2.8669615    1718.6189  0.080550193  0.080521099            1 
 1779000   0.95819212   -2.8487488     1727.783  0.080934185  0.080509044            4 
 1780000   0.97719542   -2.8696106    1718.9229   0.08047392   0.08049718            3 
 1781000   0.96788119   -2.8734656    1721.7992  0.080563319  0.080485329            1 
 1782000   0.94843857   -2.8815922    1720.5472  0.080459558  0.080473522            1 
 1783000   0.97129294    -2.895971    1715.6474  0.080185429  0.080461238            2 
 1784000   0.95780219   -2.8733078    1726.5179  0.080648257  0.080449411            1 
 1785000   0.95758414   -2.8664512    1721.5743  0.080372283  0.080437721            2 
 1786000   0.97101762   -2.8603902    1732.8165  0.080851836  0.080425474            2 
 1787000   0.94862564   -2.8708982    1726.1369    0.0804951  0.080413328            5 
 1788000   0.96718772    -2.899539    1718.6264  0.080100037  0.080400881            2 
 1789000   0.95496875    -2.885984    1721.5432  0.080191132  0.080388956            2 
 1790000   0.97258575   -2.8865487    1729.1863  0.080502154    0.0803768            1 
 1791000   0.95387979    -2.861825    1730.3306  0.080510451  0.080364311            3 
 1792000   0.94807277   -2.8728862     1724.986  0.080216985  0.080352101            2 
 1793000   0.96050706   -2.8540153     1725.655  0.080203337  0.080339331            1 
 1794000    0.9909231   -2.8853738    1734.9815  0.080591858  0.080327034            3 
 1795000   0.96699411   -2.8752754    1722.2691  0.079956783  0.080314782            2 
 1796000   0.97258636   -2.8591527    1737.4767  0.080617888  0.080302476            4 
 1797000   0.95379321   -2.8811144    1726.6275  0.080069908  0.080290271            2 
 1798000    0.9800891   -2.8563459    1737.4346   0.08052626  0.080277908            2 
 1799000   0.99084922   -2.8803532    1731.6847  0.080215152  0.080265022            3 
 1800000   0.95705496   -2.8576734    1730.0171  0.080093382  0.080252264            2 
 1801000   0.98069791    -2.879186    1726.6359  0.079892462  0.080239544            2 
 1802000   0.95591261   -2.8677045    1739.1989  0.080429101   0.08022722            4 
 1803000   0.97369662   -2.8702716    1731.7508  0.080040249  0.080214572            2 
 1804000   0.95647351   -2.8900505    1734.9225   0.08014239  0.080201967            3 
 1805000   0.96730987   -2.8708761    1743.7825   0.08050704  0.080189684            3 
 1806000   0.98232431   -2.8660918     1736.893  0.080144566  0.080177352            8 
 1807000   0.96899022   -2.8735119    1742.5647  0.080361772  0.080164878            4 
 1808000   0.96216739   -2.8463286    1742.5107  0.080314836  0.080152684            3 
 1809000   0.96124107   -2.8584612    1737.9389  0.080059833  0.080140222            1 
 1810000   0.96601125   -2.8604419    1750.1866  0.080579494  0.080127641            3 
 1811000   0.96651419   -2.8645583    1739.8692  0.080060245  0.080115099            3 
 1812000   0.96564062   -2.8588657    1737.6018  0.079911784   0.08010242            6 
 1813000   0.94391958     -2.84548    1749.4753  0.080413464  0.080090351            2 
 1814000   0.95755752   -2.8740248     1746.574   0.08023585  0.080078069            2 
 1815000   0.97111814   -2.8905135    1747.1775  0.080219351  0.080065886            1 
 1816000    0.9663483   -2.8675346    1747.4895  0.080189494  0.080053648            3 
 1817000   0.96315288   -2.8656753    1753.1709  0.080405932  0.080041825            3 
 1818000   0.96122586   -2.8619643    1749.5535  0.080195887  0.080029865            3 
 1819000   0.95152948   -2.8787895    1748.9425   0.08012381  0.080017518            4 
 1820000   0.95737706   -2.8672612    1746.8096  0.079982126  0.080005323            4 
 1821000   0.94471258   -2.8810023    1751.2246  0.080140244   0.07999326            3 
 1822000   0.94983505   -2.8763894    1748.3006  0.079962524  0.079980877            2 
 1823000   0.95373868   -2.8847997    1748.9653  0.079949044  0.079968505            4 
 1824000   0.94841183   -2.8775323    1756.1957  0.080235549  0.079956162            2 
 1825000   0.95410343   -2.8852392    1749.0358  0.079864649   0.07994416            1 
 1826000   0.96848816   -2.8973541    1755.0984  0.080097589  0.079931861            2 
 1827000   0.97550995   -2.8498734    1758.2193    0.0801961  0.079920194            5 
 1828000   0.96112987   -2.8896815     1757.957  0.080140274  0.079908337            3 
 1829000   0.97330252   -2.8630431    1757.4027  0.080071198   0.07989627            3 
 1830000    0.9764443   -2.8947682    1746.6617  0.079538329  0.079884069            3 
 1831000   0.98088089   -2.8657422    1753.7252  0.079816367  0.079872169            3 
 1832000   0.94787036   -2.8995619    1754.5853   0.07981192  0.079859699            5 
 1833000   0.98597158   -2.8728906    1755.0458  0.079789315  0.079847338            2 
 1834000   0.95671183   -2.8856981    1761.3459  0.080032074  0.079835212            6 
 1835000   0.95063758   -2.8598106    1759.4313   0.07990151  0.079823066            2 
 1836000   0.96555203   -2.8821064    1764.2553  0.080076945  0.079811067            3 
 1837000   0.94394287   -2.8510297    1768.1849   0.08021162  0.079798831            2 
 1838000   0.95688804   -2.9111962    1762.9034  0.079928518  0.079786821            5 
 1839000   0.96550665   -2.8559042    1765.1227  0.079985621  0.079774838            1 
 1840000     0.970202   -2.9009231    1770.2298  0.080173452  0.079762865            2 
 1841000   0.95974973    -2.859794    1771.7019  0.080196537  0.079750794            2 
 1842000   0.93414925   -2.8872046    1760.8643    0.0796627  0.079738856            2 
 1843000   0.96082585   -2.8649559     1765.358  0.079822664  0.079726522            3 
 1844000   0.94720001   -2.8733031    1762.3557  0.079643696  0.079714502            1 
 1845000   0.95903186   -2.8946614    1766.3943  0.079782941  0.079702157            2 
 1846000   0.95112178   -2.8630468    1770.9085  0.079943505  0.079689857            1 
 1847000    0.9427133   -2.8809549     1764.525  0.079612208  0.079677601            3 
 1848000   0.97878329   -2.8998183    1768.6182  0.079753707   0.07966562            3 
 1849000   0.94557165   -2.8735298     1774.043  0.079955065  0.079653536            1 
 1850000   0.95171844   -2.8889302    1777.9703  0.080088751  0.079641593            1 
 1851000   0.94919671   -2.9105508    1767.2792  0.079564164  0.079629695            3 
 1852000   0.95995886   -2.8620021    1776.6868  0.079944509  0.079617856            4 
 1853000   0.95069197   -2.8810967    1773.4456  0.079755602  0.079605909            5 
 1854000    0.9447324   -2.8690602    1772.8076   0.07968391   0.07959421            5 
 1855000   0.93081216   -2.8702465    1777.9755  0.079873112  0.079582177            1 
 1856000   0.97690272   -2.8677124    1772.1434  0.079568221  0.079570146            3 
 1857000   0.96068157   -2.8735142    1778.7374  0.079821281  0.079557788            2 
 1858000   0.96808726   -2.8735246    1774.7914  0.079601336  0.079545617            2 
 1859000   0.95204719   -2.9061942     1779.134  0.079753183  0.079533408            2 
 1860000   0.93656674    -2.882788    1773.2874  0.079448362  0.079521209            6 
 1861000   0.95492713   -2.8676108    1781.0806  0.079754639  0.079508681            2 
 1862000   0.95925005   -2.9112044    1774.3827  0.079412041  0.079496483            6 
 1863000    0.9398969   -2.8743883    1780.1188  0.079625999  0.079483974            5 
 1864000   0.95518332   -2.8571053    1773.2875  0.079277877  0.079471841            3 
 1865000   0.95445105   -2.8682459    1788.9571  0.079935527  0.079459826            3 
 1866000   0.95108047   -2.8950703    1774.0807  0.079228325  0.079447636            1 
 1867000   0.93159914   -2.9045769    1785.2652  0.079685108   0.07943556            4 
 1868000   0.97313606   -2.9145887     1783.309  0.079555184  0.079423358            1 
 1869000    0.9392308   -2.9004156    1788.6824  0.079752204  0.079411189            1 
 1870000    0.9308043   -2.8925479    1778.6059  0.079260511  0.079398808            2 
 1871000   0.95618658   -2.8616339    1783.9874  0.079457838  0.079386492            2 
 1872000   0.97925353    -2.905125      1783.08     0.079375  0.079374078            2 
 1873000   0.94800758   -2.8838279    1777.4984  0.079084287  0.079361494            2 
 1874000   0.94707896   -2.8915277    1782.4451  0.079262055  0.079348867            4 
 1875000   0.95629069   -2.8634164    1780.7313  0.079143615  0.079336217            4 
 1876000   0.95436028   -2.8944718    1787.7744  0.079414288  0.079323304            2 
 1877000   0.97130524   -2.8834591    1785.9786  0.079292247  0.079310588            3 
 1878000   0.96265487   -2.8649787    1783.2185  0.079127552   0.07929811            3 
 1879000   0.96093474   -2.8938505    1780.3613  0.078958724  0.079285529            3 
 1880000   0.95057324   -2.8932665    1788.1121  0.079260289  0.079273018            4 
 1881000   0.95480923   -2.8755131    1791.3562  0.079361873  0.079260388            5 
 1882000   0.97770922   -2.8451865    1794.2504  0.079447857  0.079247891            2 
 1883000   0.96251526   -2.8925488    1789.1029  0.079177859  0.079235518            2 
 1884000   0.96257553   -2.8814659    1794.7049  0.079383621  0.079222942            3 
 1885000   0.96324233   -2.9113922    1792.0785  0.079225399  0.079210385            6 
 1886000   0.97400399   -2.8589252    1798.5155   0.07946781  0.079197814            5 
 1887000   0.98029956   -2.8911667    1792.2006  0.079146821  0.079185383            4 
 1888000   0.94458487   -2.8850818    1791.0917  0.079055954  0.079172397            2 
 1889000   0.96762442   -2.8766934    1784.1834  0.078709343  0.079159497            4 
 1890000    0.9370431   -2.8760958    1796.0044  0.079188905  0.079146833            1 
 1891000    0.9543796   -2.8883516    1798.9294  0.079275928   0.07913435            4 
 1892000    0.9370344   -2.9013401    1798.4512  0.079212965  0.079121832            4 
 1893000   0.94433033   -2.8884052    1792.6938  0.078917672  0.079109007            3 
 1894000   0.93664593   -2.8644297     1792.346  0.078860699  0.079096352            4 
 1895000   0.95652022   -2.8800559    1803.1453  0.079293988  0.079083794            3 
 1896000   0.95039955   -2.8769783    1793.1663  0.078813566  0.079071151            4 
 1897000   0.91993281   -2.9248912    1788.8724  0.078583393  0.079058216            2 
 1898000   0.95003367   -2.9095849    1802.9074  0.079158211  0.079045325            3 
 1899000   0.93858984   -2.8757448    1796.8278  0.078849736  0.079032473            4 
 1900000   0.96881619   -2.9021681    1798.0865  0.078863442  0.079019515            4 
 1901000   0.96571371   -2.8828326    1799.9994  0.078905813  0.079006784            3 
 1902000   0.96295571   -2.8917089    1806.0529  0.079129551  0.078994283            3 
 1903000   0.95764525   -2.9005787     1796.431  0.078666622   0.07898129            5 
 1904000    0.9528305   -2.8615257    1804.8829  0.078995223  0.078967999            2 
 1905000   0.95771316   -2.9153367     1793.565  0.078458661  0.078954899            2 
 1906000   0.94711747   -2.8879528    1800.5742  0.078723952    0.0789418            4 
 1907000   0.93911917   -2.9270403    1797.9369  0.078567424  0.078928766            2 
 1908000   0.94959456   -2.9042105    1795.7805  0.078432064  0.078915508            3 
 1909000   0.94953325   -2.8960241    1804.1251  0.078755243  0.078902575            2 
 1910000   0.94041733   -2.9174118    1805.6042  0.078778541  0.078889451            2 
 1911000   0.96365051    -2.881952    1799.9855  0.078492302  0.078876284            2 
 1912000   0.95204912    -2.920744    1801.9076  0.078535024  0.078862974            4 
 1913000   0.94546533   -2.9065737    1804.2966   0.07859804  0.078849715            3 
 1914000   0.94164824   -2.8837022    1812.8435  0.078929099  0.078836533            2 
 1915000    0.9398996   -2.8810549    1805.6583   0.07857521  0.078823222            3 
 1916000   0.95481666   -2.8775383    1806.2744  0.078560993  0.078810339            3 
 1917000   0.93466139   -2.9038588    1805.5959  0.078490521  0.078797269            2 
 1918000   0.94832322   -2.8846892    1809.3709  0.078613614  0.078784416            1 
 1919000   0.94480813   -2.8890918    1812.8143  0.078722178  0.078771879            3 
 1920000   0.95416892   -2.8987801    1817.1187  0.078867997  0.078759027            3 
 1921000   0.93825125   -2.9277811    1812.0366  0.078606483  0.078746594            3 
 1922000   0.94886622   -2.8822076    1806.7439  0.078336103  0.078733878            1 
 1923000   0.91175775   -2.9295019    1813.5665  0.078591023  0.078721134            5 
 1924000    0.9431729   -2.8751623    1820.0577  0.078831326  0.078708573            3 
 1925000   0.94406832   -2.9048101    1812.0682  0.078444511  0.078695871            3 
 1926000   0.95527103   -2.9223008     1823.209  0.078885817  0.078683081            4 
 1927000   0.95033093   -2.8975831     1817.336  0.078590903   0.07867031            2 
 1928000   0.93123498   -2.9046469    1814.7143  0.078436819  0.078657628            4 
 1929000   0.95114846   -2.8993923    1814.9161  0.078404878  0.078644713            3 
 1930000   0.95322849   -2.8977259    1821.4518   0.07864645  0.078631884            2 
 1931000   0.94226858   -2.8794118    1822.5325   0.07865236    0.0786193            2 
 1932000   0.93408558   -2.9125825     1822.074  0.078591874  0.078606875            7 
 1933000   0.93236935   -2.8738463    1813.9335  0.078200274  0.078594335            2 
 1934000   0.97591404   -2.9049334    1827.5453  0.078746349  0.078582063            1 
 1935000   0.95316257   -2.9039367    1820.9071  0.078419772  0.078569564            2 
 1936000   0.92810393   -2.8876952    1828.2645   0.07869596  0.078557256            4 
 1937000   0.93516955   -2.9058949    1826.9296  0.078597901  0.078544891            2 
 1938000   0.93250371   -2.8940294    1829.7244  0.078677519  0.078532306            3 
 1939000    0.9644593   -2.8878799    1825.6608  0.078462299  0.078519759            3 
 1940000   0.94490443   -2.8731072    1836.1929  0.078874264  0.078507002            3 
 1941000   0.94774741   -2.9293095    1826.2302    0.0784059   0.07849417            5 
 1942000   0.95235145   -2.9189226    1823.3847  0.078243423  0.078481359            3 
 1943000   0.95181916   -2.8991596    1825.0932  0.078276427  0.078468472            2 
 1944000   0.92955822   -2.9069321    1826.0423  0.078276846  0.078455544            2 
 1945000   0.95224027   -2.9022633    1824.8929  0.078187356  0.078442787            2 
 1946000   0.94525159   -2.8624975    1828.8157  0.078315164  0.078430183            2 
 1947000   0.92294752   -2.9186789    1836.0779  0.078585767   0.07841758            3 
 1948000     0.942555   -2.9106767     1832.186  0.078378936  0.078404568            3 
 1949000    0.9346769   -2.9112008    1827.0614  0.078119607  0.078391907            3 
 1950000   0.93872935   -2.9228799    1832.1269  0.078296021  0.078378966            1 
 1951000   0.96087185   -2.8743188    1835.3133   0.07839199  0.078366344            1 
 1952000   0.95130579   -2.8903414    1838.6796  0.078495541  0.078353647            3 
 1953000   0.95616726   -2.9239773     1830.149  0.078091353  0.078341127            3 
 1954000   0.93538078   -2.8983668    1832.3958   0.07814721  0.078328202            3 
 1955000   0.93943507   -2.8797296       1832.2  0.078098892  0.078315572            1 
 1956000     0.945216   -2.9136541    1826.0269  0.077795967  0.078302682            3 
 1957000   0.92782684   -2.8985295    1838.0975  0.078270205  0.078289669            2 
 1958000   0.94413293    -2.916956    1833.0615  0.078015897   0.07827665            2 
 1959000   0.92762331   -2.9012725    1837.1083  0.078148218  0.078263346            2 
 1960000   0.93314273   -2.9143016    1838.9586  0.078187015  0.078250609            5 
 1961000   0.92440372   -2.8970165     1839.227  0.078158549  0.078237928            2 
 1962000   0.92857267   -2.9237298    1840.4066  0.078168815  0.078225001            6 
 1963000    0.9651268   -2.9020275    1845.0728  0.078327086  0.078211813            3 
 1964000   0.93566199   -2.9147429    1837.9246  0.077983901  0.078198901            2 
 1965000   0.94475878   -2.9136189    1830.5151  0.077629987  0.078185949            2 
 1966000   0.94785247   -2.8870875    1847.9224   0.07832835  0.078173124            2 
 1967000     0.934712   -2.9069808    1841.4665  0.078015019  0.078160228            2 
 1968000   0.95097276   -2.9127917    1840.5815  0.077937903  0.078147499            2 
 1969000   0.96198251   -2.9234683    1840.5646  0.077897606  0.078134452            3 
 1970000   0.93198851   -2.9075605    1839.4458  0.077810735  0.078121651            3 
 1971000    0.9303793   -2.8974563    1839.7498  0.077784112    0.0781091            5 
 1972000    0.9083987   -2.9228613    1846.5505  0.078032052  0.078096245            5 
 1973000   0.94001017   -2.9083934    1847.2014  0.078019994  0.078083386            2 
 1974000   0.93090261   -2.9015797    1857.0329  0.078395515  0.078070934            1 
 1975000    0.9488075   -2.9159526    1847.6724  0.077960861  0.078058232            3 
 1976000   0.95315902   -2.8908136    1848.0284   0.07793642   0.07804551            6 
 1977000   0.91801781   -2.9144873    1843.5124  0.077706644  0.078032748            2 
 1978000   0.93621804   -2.8744662    1854.2369  0.078119184  0.078020214            3 
 1979000   0.92681483   -2.9118439    1846.0528  0.077735086  0.078007309            4 
 1980000   0.93031573   -2.9115359    1855.0237  0.078073387  0.077994808            2 
 1981000   0.95506769   -2.9251657    1847.3514  0.077711233  0.077982064            3 
 1982000    0.9376754   -2.9257323    1857.2079   0.07808644  0.077969418            2 
 1983000    0.9297411    -2.894469    1857.7706  0.078070711  0.077956709            2 
 1984000   0.93579172   -2.8797363    1861.5918  0.078191861  0.077944643            3 
 1985000   0.93042721   -2.9024977    1857.3412  0.077974022  0.077932717            1 
 1986000   0.93048733   -2.9260953     1858.019  0.077963202  0.077920425            3 
 1987000   0.92113267   -2.9019997    1861.8011  0.078082581   0.07790814            2 
 1988000   0.92106291   -2.9117558    1862.1648  0.078058553  0.077895845            3 
 1989000   0.94203864   -2.8997091    1858.1995  0.077853173  0.077883573            4 
 1990000    0.9471941   -2.9006188    1863.9717  0.078055767  0.077871695            2 
 1991000   0.91920035   -2.9065067    1856.9046  0.077720769  0.077859463            2 
 1992000     0.945086   -2.9344212    1861.3525  0.077867826  0.077847292            1 
 1993000   0.93624517   -2.9300682    1864.3039  0.077952163  0.077834771            3 
 1994000   0.93677616   -2.9152636    1871.9866  0.078234142  0.077822755            6 
 1995000   0.94727022   -2.9188129    1867.7047  0.078016067   0.07781072            2 
 1996000    0.9376456   -2.8967988    1864.7743   0.07785464  0.077798305            2 
 1997000   0.93918286   -2.9279109    1860.2301  0.077626025  0.077786031            3 
 1998000   0.91567294   -2.9169654    1867.0441  0.077871374  0.077773914            3 
 1999000   0.91918865   -2.9001751    1869.9085   0.07795183  0.077762015            2 
 2000000   0.92891708   -2.8886077    1870.5808  0.077940865  0.077749734            3 
 2001000   0.92369909   -2.9306979    1871.5114   0.07794067  0.077738035            4 
 2002000   0.92196931   -2.9136859      1875.04  0.078048619  0.077725848            3 
 2003000   0.94134996    -2.916168    1873.9534  0.077964446  0.077713757            4 
 2004000   0.93046707   -2.9085615    1865.6394  0.077579816   0.07770177            3 
 2005000   0.92933508   -2.9106827    1870.0718  0.077725346   0.07768972            1 
 2006000   0.92651859   -2.8669001    1882.2569  0.078192791  0.077677868            2 
 2007000   0.92404999   -2.8952789      1873.38  0.077785252  0.077666093            1 
 2008000    0.9409198   -2.9158089    1882.2279  0.078113709  0.077654227            7 
 2009000   0.92018689   -2.9017003    1878.2557  0.077910058  0.077642238            6 
 2010000   0.90513447   -2.9059422    1884.0196  0.078110263  0.077630361            2 
 2011000   0.93760836   -2.9256248    1880.7722  0.077936856  0.077618167            1 
 2012000   0.91095397   -2.9088002    1874.9707  0.077657833  0.077606173            3 
 2013000    0.9372837   -2.9044055     1880.767  0.077859209  0.077594024            8 
 2014000   0.91874482   -2.9315672    1880.1669  0.077795717  0.077582076            2 
 2015000   0.93724599   -2.9208287    1880.0425  0.077751963  0.077570205            2 
 2016000    0.9155931   -2.9166278    1880.9804  0.077752165  0.077558166            6 
 2017000   0.92024054    -2.902595    1876.5261  0.077529587  0.077546307            3 
 2018000   0.91594958   -2.9019156     1885.727  0.077871117  0.077534263            4 
 2019000   0.92282856   -2.8971248    1886.3251  0.077857235  0.077522068            1 
 2020000   0.92472535   -2.9284441    1882.7981  0.077673188  0.077509923            4 
 2021000   0.91902308     -2.90046    1882.3598  0.077616682  0.077497813            2 
 2022000   0.92091005   -2.9250536    1882.8917  0.077600216   0.07748595            2 
 2023000   0.90682681   -2.9581825    1883.0872  0.077569914  0.077473961            2 
 2024000   0.91703009   -2.9319669     1883.941   0.07756674  0.077461632            2 
 2025000   0.92039186   -2.9426494    1883.6505   0.07751648  0.077449464            2 
 2026000   0.93006722   -2.9183876    1881.7834  0.077401423  0.077437077            2 
 2027000   0.92937376   -2.9138273    1887.5356   0.07759972  0.077425165            4 
 2028000   0.93901806   -2.9135535    1883.6866  0.077403296  0.077413108            2 
 2029000   0.91584263   -2.9019621    1894.2329  0.077798296  0.077401279            1 
 2030000   0.92255867   -2.9256396    1897.8122  0.077906905  0.077389532            3 
 2031000   0.92529547   -2.9225668     1892.362  0.077644921  0.077377825            4 
 2032000   0.94127685    -2.920054    1895.3895  0.077730868  0.077365986            1 
 2033000   0.93552292   -2.9159108    1898.7335  0.077829704  0.077354184            1 
 2034000   0.91797579   -2.9037465    1890.2779  0.077445014  0.077342492            4 
 2035000   0.92714692   -2.9090602    1901.0019  0.077846106  0.077330795            5 
 2036000   0.93024079   -2.9048505    1897.7607  0.077675211  0.077318915            5 
 2037000   0.93373218   -2.9245228    1894.8224   0.07751687  0.077306954            3 
 2038000   0.91930217   -2.9390486    1894.2499  0.077455424  0.077294963            5 
 2039000   0.93592102   -2.9183574    1891.2709  0.077295689  0.077282625            3 
 2040000   0.92091246   -2.9295836    1898.0882  0.077536282  0.077270298            6 
 2041000   0.92257825   -2.9340383    1889.7391  0.077157403  0.077258105            2 
 2042000   0.92372393   -2.9131818    1889.5855  0.077113349  0.077245924            2 
 2043000   0.93022554   -2.9221473    1900.6964  0.077528812  0.077233449            5 
 2044000   0.91005368   -2.9307034    1900.1346  0.077467979  0.077221179            3 
 2045000    0.9212778   -2.9247402     1901.994  0.077505869  0.077208912            1 
 2046000   0.92197072   -2.9085292    1896.0119  0.077224334  0.077196782            3 
 2047000   0.92096227    -2.961249    1894.4772  0.077124131  0.077184415            3 
 2048000   0.95029413   -2.9411746    1898.4325  0.077247414  0.077172191            3 
 2049000   0.92808491   -2.9203825    1910.4402  0.077698073  0.077159836            3 
 2050000   0.91595868    -2.916162    1901.6663  0.077303507  0.077147672            2 
 2051000   0.91626158   -2.9376675    1897.8304  0.077109961  0.077135598            7 
 2052000   0.91655928   -2.9290844    1895.5355  0.076979187  0.077123422            4 
 2053000   0.92410682   -2.9227368    1902.2329  0.077213547  0.077111492            2 
 2054000    0.9362701   -2.9377689    1901.1429  0.077131732  0.077099352            5 
 2055000   0.92284348   -2.9049524    1903.7017   0.07719796  0.077086943            3 
 2056000   0.91339051   -2.9193041    1905.0215  0.077213907  0.077074831            1 
 2057000   0.92475883   -2.9217099    1909.4951  0.077357605  0.077062704            2 
 2058000   0.91602473   -2.9168835    1905.9637  0.077177022  0.077050497            2 
 2059000   0.91368953   -2.9229789    1902.2038  0.076987365  0.077038113            2 
 2060000   0.91565826   -2.9176845    1902.7371  0.076971565  0.077025794            3 
 2061000   0.90842263   -2.9241028    1909.6113  0.077212165  0.077013654            2 
 2062000   0.89509685   -2.9179359    1906.7274  0.077058171  0.077001471            4 
 2063000   0.91305203    -2.923258    1909.3181   0.07712547  0.076989014            2 
 2064000   0.91825426   -2.9485375    1901.5418  0.076774134  0.076976883            5 
 2065000    0.9031866    -2.952592    1909.1193  0.077042747  0.076964715            7 
 2066000   0.92219683   -2.9021161    1915.8111  0.077275376  0.076952587            2 
 2067000   0.92350894   -2.9257567    1916.5798  0.077268979  0.076940536            4 
 2068000   0.91869702   -2.9158445    1913.4204  0.077104303  0.076928247            4 
 2069000    0.9466061   -2.9242254    1913.8304  0.077083549  0.076916426            3 
 2070000   0.89458788   -2.9346358    1914.0017  0.077053207  0.076904272            3 
 2071000   0.91309787    -2.944687    1916.9818  0.077135917  0.076892043            3 
 2072000   0.94049144   -2.9156933    1922.2106  0.077308987  0.076880146            3 
 2073000   0.91353081    -2.937669    1915.8423  0.077015688  0.076868091            2 
 2074000    0.9371213   -2.9379413    1912.3475  0.076838136  0.076856028            3 
 2075000   0.94221333   -2.9536661     1917.387  0.077003492  0.076844077            3 
 2076000   0.92799872   -2.9209463    1924.2193  0.077240658  0.076832034            4 
 2077000    0.9364688   -2.9107748    1914.8796  0.076828744  0.076819901            3 
 2078000   0.90851426   -2.9303596    1920.9202  0.077034015  0.076807863            2 
 2079000   0.90069805   -2.9358151    1914.9628  0.076758168  0.076795641            2 
 2080000   0.91472807   -2.9350322    1917.8209  0.076835773  0.076783357            4 
 2081000   0.90931848   -2.9497135    1918.5464  0.076827901  0.076770863            3 
 2082000   0.92827904   -2.9394905    1916.2974  0.076700983  0.076758513            2 
 2083000   0.92976628   -2.9547367    1920.6701    0.0768391  0.076746118            2 
 2084000   0.91101818   -2.9325717    1926.9396  0.077052929  0.076733903            2 
 2085000   0.90955965   -2.9207972    1926.1572    0.0769847  0.076721716            2 
 2086000   0.90510045   -2.9201255    1927.5693  0.077004206  0.076709567            2 
 2087000    0.9167091   -2.9115869    1926.6622  0.076931091   0.07669757            3 
 2088000   0.91652746   -2.9614478    1928.1571  0.076953909  0.076685548            2 
 2089000   0.91495492   -2.9297457    1924.8959  0.076786974   0.07667336            4 
 2090000   0.92887457   -2.9430154    1928.7792  0.076905071  0.076661104            6 
 2091000   0.92276624   -2.9252427    1928.2951     0.076849  0.076648785            3 
 2092000   0.92383048     -2.88381    1930.9751   0.07691902  0.076637038            2 
 2093000   0.92232718   -2.9423341    1926.7782  0.076715171  0.076624738            3 
 2094000   0.92242671   -2.9258539    1933.9441   0.07696371  0.076613005            3 
 2095000   0.93870891   -2.9120184    1931.4711  0.076828604  0.076600816            2 
 2096000   0.91190881   -2.9136993    1941.8176  0.077203307  0.076588864            5 
 2097000   0.90547425    -2.945737    1927.2768  0.076588651  0.076576644            3 
 2098000   0.91318972   -2.9562345     1930.395  0.076675999  0.076564386            4 
 2099000   0.90240398   -2.9398448    1923.5931  0.076369426  0.076552059            3 
 2100000   0.92311676   -2.9543217    1931.4732  0.076645764   0.07653979            3 
 2101000    0.8960297   -2.9322372       1935.4  0.076765032  0.076527217            6 
 2102000   0.92230964   -2.9541935    1934.2498  0.076682912  0.076514995            3 
 2103000   0.92218404   -2.9382356    1936.8707  0.076750307  0.076502507            2 
 2104000   0.93055574   -2.9501578    1933.4995  0.076580304  0.076490312            2 
 2105000   0.92384021   -2.9101815    1936.8444  0.076676342   0.07647785            2 
 2106000   0.91992101   -2.9450692    1943.6642  0.076909789  0.076465708            6 
 2107000    0.9174539   -2.9334215     1934.555  0.076513013  0.076453545            6 
 2108000   0.91887527   -2.9609867    1926.1154  0.076143083  0.076441093            3 
 2109000   0.91801424   -2.9732902    1934.2896  0.076429965  0.076428691            3 
 2110000   0.91408143   -2.9273611    1938.8068  0.076572147  0.076416271            2 
 2111000   0.92999769   -2.9085988    1941.3753  0.076637268  0.076404038            3 
 2112000   0.91827038   -2.9400463    1938.0162  0.076468443  0.076391702            4 
 2113000   0.91221431   -2.9233347    1943.2254  0.076637694  0.076379511            2 
 2114000   0.93220946   -2.9624446    1929.4697  0.076059195  0.076367208            3 
 2115000   0.91470337   -2.9255137    1943.6441  0.076581723  0.076354962            2 
 2116000   0.93360345   -2.9799178    1939.8363  0.076395568  0.076342706            3 
 2117000   0.91718307   -2.9481811    1943.0659  0.076486612  0.076330563            4 
 2118000   0.90591298   -2.9529092    1938.3285  0.076264106  0.076317998            2 
 2119000   0.92215116   -2.9419753    1935.6158  0.076121434  0.076305589            2 
 2120000   0.92961597     -2.92363    1943.9382  0.076412664   0.07629323            1 
 2121000   0.89952209   -2.9388189    1943.7022  0.076367364  0.076281143            4 
 2122000   0.91920977   -2.9184988     1943.118  0.076308436  0.076268762            2 
 2123000    0.9185267   -2.9383721    1952.0958  0.076624894  0.076256476            3 
 2124000   0.90207026   -2.9177878    1939.8726   0.07610925  0.076244147            4 
 2125000   0.91650704   -2.9322133     1948.241  0.076401608  0.076231778            2 
 2126000   0.93640117   -2.9549958    1946.8296  0.076310349  0.076219791            3 
 2127000   0.91665246   -2.9168048    1950.8182   0.07643074  0.076207608            3 
 2128000   0.92925834   -2.8984808    1949.1982  0.076331383  0.076195412            3 
 2129000   0.91898749   -2.9349316    1951.3586  0.076380091  0.076183188            4 
 2130000    0.9310488   -2.9345452    1947.6995  0.076201076  0.076170935            2 
 2131000   0.92381159   -2.9025999    1952.7565  0.076363073  0.076158441            2 
 2132000   0.91506834   -2.9405207    1957.6475  0.076518429  0.076145845            2 
 2133000   0.90540041   -2.9432055     1952.845  0.076294931  0.076133157            2 
 2134000   0.91039595   -2.9250184    1957.5562  0.076443149  0.076120808            6 
 2135000   0.91972066    -2.959372    1951.4409  0.076168652  0.076108423            2 
 2136000   0.90585919     -2.94632    1954.6878  0.076259669  0.076096294            3 
 2137000   0.93646074   -2.9657343    1951.2422  0.076089619  0.076084025            2 
 2138000   0.90666513   -2.9413744    1961.2545  0.076444282  0.076071467            3 
 2139000   0.91600657   -2.9467555    1951.0793  0.076012128  0.076059025            2 
 2140000   0.91286757   -2.9478998    1956.4302  0.076184978  0.076046874            2 
 2141000   0.91870241   -2.9310088    1954.9997  0.076093713  0.076034916            3 
 2142000   0.92589688   -2.9560073    1956.6365  0.076121868  0.076022566            1 
 2143000   0.90066949   -2.9680668    1961.5152  0.076276063  0.076010507            4 
 2144000   0.88801139    -2.918915    1959.0835  0.076145971  0.075998682            5 
 2145000   0.90077182   -2.9639892    1958.8237  0.076100378   0.07598671            6 
 2146000   0.91469854   -2.9403938     1957.348  0.076007612  0.075974778            3 
 2147000   0.92071157    -2.937937    1965.1047  0.076273276  0.075962634            2 
 2148000   0.91592102    -2.964338    1967.3427  0.076324594  0.075950427            2 
 2149000   0.89518732   -2.9759547    1954.5943  0.075794721  0.075938337            2 
 2150000   0.90250088    -2.953694    1959.9505  0.075967074  0.075926013            5 
 2151000   0.90614515   -2.9600593    1963.6864   0.07607649  0.075913712            1 
 2152000   0.88747247    -2.926014    1964.9627  0.076090561  0.075901709            4 
 2153000   0.91440168    -2.911326    1971.4896  0.076307851  0.075889893            5 
 2154000   0.89123139   -2.9614445    1956.8337  0.075705418  0.075878142            4 
 2155000   0.90300917   -2.9594951    1960.8255  0.075824651  0.075866159            3 
 2156000   0.92242556   -2.9751132     1956.813  0.075634394  0.075853876            2 
 2157000   0.89861422   -2.9587022    1967.2822  0.076003795   0.07584145            3 
 2158000   0.89563066   -2.9284698    1960.6531  0.075712584  0.075828985            1 
 2159000   0.89786468   -2.9406476    1965.7302  0.075873484  0.075816839            2 
 2160000   0.91691133   -2.9453771    1964.3239  0.075784103  0.075804576            4 
 2161000   0.89403878   -2.9596704    1971.6656  0.076032144  0.075792304            4 
 2162000   0.91116972   -2.9624053    1965.3966  0.075755343  0.075779973            3 
 2163000   0.89711416   -2.9666482    1967.8229  0.075813796  0.075767502            3 
 2164000   0.92979874   -2.9434045    1968.7898  0.075815995   0.07575518            3 
 2165000   0.89916757   -2.9455579    1971.2991  0.075877564  0.075743025            2 
 2166000   0.90966184   -2.9774988    1973.6216  0.075931886  0.075730362            2 
 2167000   0.91838898    -2.945642    1966.1286    0.0756087  0.075717812            5 
 2168000    0.8981863   -2.9526375    1964.3411  0.075505114  0.075705145            2 
 2169000   0.92307272   -2.9430653    1971.5404  0.075746904  0.075692717            3 
 2170000    0.9191633   -2.9638277    1967.6758  0.075563586  0.075680304            2 
 2171000   0.89852701   -2.9703648    1969.8047  0.075610498  0.075667849            2 
 2172000   0.92317298   -2.9435513    1970.7156  0.075610635  0.075655327            1 
 2173000   0.91426992   -2.9395944    1976.3247  0.075790946  0.075642842            4 
 2174000   0.89682831   -2.9485796    1979.9145  0.075893688  0.075630414            7 
 2175000   0.93878095   -2.9706223    1969.0656  0.075443127  0.075618074            2 
 2176000   0.89956108   -2.9535052    1973.8656  0.075592281  0.075605492            3 
 2177000   0.91901002   -2.9247711    1977.9948  0.075715618  0.075593281            6 
 2178000   0.90031193   -2.9475724    1983.1936  0.075879767  0.075581416            3 
 2179000   0.90944539   -2.9576992    1980.4461   0.07573987  0.075569294            2 
 2180000    0.8995888   -2.9339579    1979.3131  0.075661817  0.075556954            2 
 2181000   0.90089088   -2.9529404    1986.2911  0.075893745  0.075544714            2 
 2182000   0.89526419   -2.9534999    1981.3915  0.075671842  0.075532215            1 
 2183000   0.91273194   -2.9474268    1983.3997  0.075713839  0.075519744            2 
 2184000    0.9035872   -2.9545148    1982.2083  0.075633712  0.075507218            3 
 2185000   0.90682226    -2.929586    1982.9027   0.07562558  0.075494798            3 
 2186000   0.91734564   -2.9497616    1972.4867  0.075193912  0.075482054            2 
 2187000   0.90121875   -2.9434248    1983.3917  0.075575054  0.075469414            1 
 2188000   0.93361625   -2.9762871     1978.857  0.075367802   0.07545671            2 
 2189000    0.8945927   -2.9649589    1977.4564  0.075280054   0.07544402            3 
 2190000   0.89364278   -2.9510726    1979.6627  0.075329632  0.075431315            2 
 2191000    0.9045366   -2.9527778    1978.2387  0.075241089  0.075418722            3 
 2192000   0.87893142   -2.9314024    1983.9994  0.075425767  0.075405941            2 
 2193000   0.90986448   -2.9430521     1984.128  0.075396262  0.075393541            2 
 2194000   0.91084752   -2.9453155    1989.9199  0.075581887  0.075381161            3 
 2195000   0.90201816   -2.9813077    1978.9929  0.075132609  0.075368421            2 
 2196000   0.88909063   -2.9322624    1985.9382  0.075361953  0.075355816            4 
 2197000   0.89691969   -2.9602455    1985.4397  0.075308742  0.075343234            3 
 2198000   0.90683806   -2.9569773    1985.9243  0.075292853  0.075330481            3 
 2199000   0.89105536   -2.9406638    1991.3757  0.075465202  0.075317738            2 
 2200000   0.89124274   -2.9206915    1993.4399  0.075509087  0.075305134            3 
 2201000   0.89024455   -2.9631537    1985.2273   0.07516384  0.075292502            2 
 2202000   0.90268563    -2.957245    1992.2188  0.075394292  0.075279536            4 
 2203000   0.90040365   -2.9518206    1991.9681  0.075350588  0.075266883            2 
 2204000   0.91722528   -2.9413734    1989.0353  0.075205509  0.075254228            3 
 2205000   0.89580504   -2.9536322    1994.4344   0.07537545  0.075241561            8 
 2206000   0.88933411   -2.9583087    1987.8053  0.075090861  0.075229015            3 
 2207000   0.91379979   -2.9667047    1990.8174  0.075170572  0.075216361            5 
 2208000   0.91025724   -2.9390846     1991.139  0.075148664  0.075203597            4 
 2209000   0.87425633   -2.9504741    1996.9628  0.075334344   0.07519073            3 
 2210000    0.9029592   -3.0003331    1989.1468  0.075005535  0.075177728            4 
 2211000   0.87203399   -2.9560358     1988.082  0.074931478  0.075164535            2 
 2212000   0.88460003   -2.9434471     1988.262  0.074904385  0.075151554            2 
 2213000   0.90128341    -2.939114    1989.2011  0.074905902  0.075138699            2 
 2214000    0.9086505   -2.9737859    1993.0483  0.075016874  0.075125547            2 
 2215000    0.8946354   -2.9576975    1991.4289  0.074922081  0.075112555            1 
 2216000   0.88557987   -2.9576617    1996.8305  0.075091399  0.075099671            3 
 2217000   0.90398654     -2.96566    1998.6837  0.075127187  0.075086631            4 
 2218000   0.90319795   -2.9484511    1997.8958  0.075063712  0.075073694            5 
 2219000   0.90120989   -2.9353351    1988.3558  0.074671615   0.07506073            3 
 2220000   0.89119859   -2.9454023    2000.7549  0.075103412  0.075048022            5 
 2221000   0.92529964   -2.9680439    2003.7941  0.075183631  0.075035118            3 
 2222000   0.91319679   -2.9347208    1997.8125  0.074925463  0.075022227            4 
 2223000   0.88967435   -2.9638001    1996.2703  0.074833945   0.07500954            2 
 2224000   0.90829344   -2.9503504    1998.4365  0.074881462  0.074996783            3 
 2225000   0.88240996   -2.9604993    1988.1813  0.074463719  0.074983781            5 
 2226000   0.89069151   -2.9719897    2001.6482   0.07493442  0.074970856            2 
 2227000   0.91048682   -2.9609841    1997.5813  0.074748588  0.074957967            4 
 2228000   0.88250211   -2.9671992    2002.3835  0.074894655  0.074945168            2 
 2229000   0.89342014    -2.939556    2009.1538  0.075114171  0.074932443            5 
 2230000    0.9033441   -2.9587304    2005.5786  0.074946883  0.074919715            5 
 2231000   0.89499746   -2.9913621    1997.3539  0.074606077  0.074906966            4 
 2232000   0.90632493   -2.9501127    2010.8566  0.075076785  0.074894116            7 
 2233000   0.90402079   -2.9541915    2005.4213  0.074840325  0.074881246            4 
 2234000    0.9171526   -2.9815974    2000.7686  0.074633266  0.074868284            6 
 2235000   0.89303381   -2.9481772    2003.0665  0.074685551  0.074855422            1 
 2236000   0.90554149   -2.9589268     1991.996  0.074239565  0.074842216            2 
 2237000   0.88806899   -2.9582005    2003.6153  0.074639224  0.074829081            4 
 2238000   0.87566532   -2.9409876    2009.0011  0.074806416  0.074816236            2 
 2239000   0.88779485   -2.9628901    2001.2055   0.07448286  0.074802912            2 
 2240000   0.90718034   -2.9438925    1995.6602  0.074243309   0.07478969            2 
 2241000   0.90059743   -2.9372157    2011.6135  0.074803417  0.074776303            3 
 2242000   0.90273716   -2.9586207    2007.7559  0.074626669  0.074763149            2 
 2243000    0.8810006   -2.9646983    2006.0454   0.07452985  0.074749982            2 
 2244000   0.89313465   -2.9468887    2004.6015  0.074443013  0.074736521            5 
 2245000   0.91255556   -2.9547459    2007.9105  0.074532683  0.074723478            2 
 2246000    0.8934875   -2.9851742    2009.3961   0.07455462   0.07471031            1 
 2247000   0.87587829   -2.9822847      2010.21  0.074551625  0.074697447            4 
 2248000    0.8825837   -2.9827195    2011.0735  0.074550471   0.07468424            2 
 2249000   0.90144945   -2.9628474    2016.1135  0.074704073  0.074671405            1 
 2250000   0.88383884   -2.9709556    2010.1868  0.074451365  0.074658234            7 
 2251000   0.89874234   -2.9712233    2006.5979  0.074285426   0.07464502            5 
 2252000   0.88967022   -2.9467288    2016.8395  0.074631422  0.074631792            2 
 2253000   0.89460239   -2.9796902     2015.056  0.074532326  0.074618606            3 
 2254000   0.89237004   -2.9579574    2007.7902  0.074230635  0.074605294            5 
 2255000   0.90589498   -2.9576358    2014.5868  0.074448885  0.074592027            3 
 2256000   0.88619711   -2.9652008    2018.0558  0.074544023  0.074578689            5 
 2257000    0.8826713   -2.9861143    2005.8131  0.074058967   0.07456553            3 
 2258000   0.88563446   -2.9948559     2019.595  0.074534803  0.074552282            3 
 2259000   0.90720019   -2.9780116    2007.8377  0.074068087  0.074539024            3 
 2260000   0.90104257   -2.9682164    2018.9481  0.074444989  0.074525665            3 
 2261000   0.90541544    -2.978198    2002.5874   0.07380906  0.074512373            2 
 2262000   0.86879415   -2.9529473     2017.164   0.07431344  0.074499047            2 
 2263000   0.87659868   -2.9651001    2007.8994  0.073939438  0.074485548            2 
 2264000   0.89972238   -2.9728369    2011.3758  0.074034741  0.074472158            3 
 2265000   0.88552678   -2.9780921    2016.9946   0.07420878  0.074458751            2 
 2266000   0.87281413   -2.9677056    2020.1191  0.074290934  0.074445304            5 
 2267000   0.87484459   -2.9929054    2010.2452  0.073895206  0.074431535            5 
 2268000   0.89140321   -2.9929359     2010.782  0.073882348  0.074417966            2 
 2269000   0.87905796   -2.9965162    2011.0092  0.073858133  0.074404442            5 
 2270000   0.87730198   -2.9583343    2013.6033  0.073920825  0.074390827            3 
 2271000   0.89375172   -2.9690738    2020.8529  0.074154295  0.074377435            2 
 2272000   0.90968635   -2.9695934    2020.1892  0.074097316  0.074363889            4 
 2273000   0.90732278   -2.9592955    2012.6518   0.07378838  0.074350473            5 
 2274000   0.88495682   -2.9801499     2020.749  0.074052662  0.074336986            2 
 2275000   0.88760334    -2.958448    2016.0167  0.073846765  0.074323367            4 
 2276000    0.8845604   -2.9342136    2018.3968  0.073901466  0.074309853            3 
 2277000   0.90321096   -2.9678323    2015.8667  0.073776414  0.074296122            4 
 2278000   0.89418097   -2.9678523    2016.8124   0.07377862  0.074282275            4 
 2279000   0.89573614   -3.0001275     2017.239  0.073761848  0.074268392            3 
 2280000   0.89127116   -2.9839221    2014.1483  0.073616532  0.074254692            3 
 2281000   0.89392172   -2.9622324    2029.7295  0.074153495  0.074241306            2 
 2282000   0.91119483   -2.9576688    2023.7425   0.07390237  0.074227771            3 
 2283000   0.86501662   -2.9615033    2018.1524  0.073665952   0.07421455            2 
 2284000   0.87872424   -2.9652727     2020.077  0.073703919  0.074201077            2 
 2285000   0.89669501   -2.9607226     2025.925  0.073884937  0.074187585            3 
 2286000   0.89474159   -2.9994408    2016.5614   0.07351128  0.074173925            2 
 2287000   0.88289279   -2.9992525    2019.2518   0.07357717  0.074160441            2 
 2288000   0.87583835   -2.9538219    2027.0863  0.073830357  0.074147102            3 
 2289000   0.89058143   -2.9796674    2030.1931  0.073911211   0.07413341            4 
 2290000   0.87593834   -2.9688798     2022.366  0.073594105  0.074119981            2 
 2291000   0.89045532   -2.9627236    2033.2955  0.073959534  0.074106691            8 
 2292000    0.8959391   -2.9688921    2027.9105  0.073731477  0.074093241            2 
 2293000   0.89840943   -2.9479384    2025.6443  0.073616961  0.074079647            2 
 2294000   0.89911401   -2.9837248    2037.7313   0.07402395  0.074066147            1 
 2295000   0.89077709   -2.9974473    2021.9602  0.073419035  0.074052751            4 
 2296000   0.88153122   -2.9879109    2031.9831  0.073750838  0.074039194            2 
 2297000   0.88420669   -2.9522612    2033.4242  0.073771013  0.074025687            2 
 2298000   0.88230988   -2.9689379    2040.3527  0.073990163  0.074012243            3 
 2299000   0.88369188   -2.9632237    2027.9868  0.073509744  0.073998834            6 
 2300000   0.89567123   -2.9822185    2037.8053  0.073833526   0.07398547            3 
 2301000   0.86782761   -2.9725009    2029.9187  0.073515814  0.073972064            3 
 2302000    0.8950628   -2.9666707    2042.0326  0.073922407  0.073958791            2 
 2303000     0.864332    -2.995681    2033.6246  0.073586071  0.073945566            8 
 2304000   0.87489866   -2.9864122    2030.6459  0.073446395  0.073932144            2 
 2305000   0.88920553   -2.9839978    2038.7368  0.073707044  0.073919039            3 
 2306000   0.89310272   -2.9904052    2036.3901  0.073590276  0.073905662            2 
 2307000   0.87938479   -2.9534841    2041.2913  0.073735418  0.073892424            4 
 2308000   0.88413495   -2.9709901    2042.1957  0.073736124  0.073879322            7 
 2309000   0.88765186   -2.9849639    2039.3947  0.073603101   0.07386616            3 
 2310000   0.86290348   -2.9421831     2041.218  0.073637013  0.073852803            2 
 2311000   0.87655012   -3.0039621    2033.8957   0.07334111  0.073839584            2 
 2312000   0.87051716   -2.9776671    2043.5573   0.07365763  0.073826336            5 
 2313000   0.86906089   -2.9888657    2039.1422  0.073466716  0.073813007            2 
 2314000   0.89019555   -2.9674044    2039.8026  0.073458751  0.073799537            2 
 2315000   0.87754745   -2.9834646    2051.0016   0.07383015  0.073786537            5 
 2316000   0.87282306   -2.9685308    2051.8188  0.073827676  0.073773393            4 
 2317000   0.88255165   -2.9730199    2049.6594  0.073718149  0.073760433            1 
 2318000   0.86024189   -2.9942459    2042.9365  0.073444653  0.073747211            3 
 2319000   0.87575871   -2.9875306    2057.3852  0.073932198  0.073734039            2 
 2320000   0.86933842   -2.9981097    2049.4223  0.073614305  0.073720947            5 
 2321000   0.85270177   -2.9746822    2042.2908  0.073326541  0.073707951            4 
 2322000   0.87040506   -2.9975357    2045.7852  0.073420369  0.073694925            4 
 2323000   0.89345635   -2.9875627       2045.8  0.073389296  0.073681935            2 
 2324000   0.88102014   -2.9772972    2050.7126  0.073533871  0.073668826            3 
 2325000   0.87387046   -2.9791574    2050.0586  0.073478803  0.073655782            2 
 2326000   0.86938835   -2.9537784    2050.6788  0.073469433  0.073642683            1 
 2327000   0.87699268   -2.9863734    2050.8172  0.073442816  0.073629669            3 
 2328000   0.87368912   -2.9890682    2041.1421  0.073064937  0.073616551            4 
 2329000   0.91321149   -2.9873011    2053.6727  0.073481922  0.073603458            3 
 2330000   0.88968763   -2.9881849    2053.9858  0.073461583  0.073590285            3 
 2331000   0.89506544   -3.0016576    2049.6598  0.073275411  0.073577111            4 
 2332000   0.87731526   -2.9894583    2045.7991  0.073106027  0.073563696            3 
 2333000   0.86336011   -2.9911356    2051.1167  0.073264636  0.073550307            5 
 2334000   0.88549419   -2.9883838    2047.4231  0.073101366   0.07353679            4 
 2335000   0.88729125   -2.9640861     2059.702   0.07350828  0.073523475            4 
 2336000   0.89501092   -2.9928832    2050.1764     0.073137  0.073510367            3 
 2337000   0.86582088   -2.9928223    2050.8037  0.073128075  0.073497045            3 
 2338000   0.87443775   -2.9866586     2047.661  0.072984782  0.073483391            4 
 2339000   0.84515529    -2.984226    2052.1269  0.073112687  0.073469938            2 
 2340000   0.88121976   -2.9712741    2055.3693  0.073196914  0.073456467            2 
 2341000   0.88032225   -2.9700954    2054.1749  0.073123127  0.073443119            4 
 2342000    0.8662758   -2.9655333    2068.3318  0.073595636  0.073429725            2 
 2343000    0.8824051   -2.9880738     2054.063  0.073056728   0.07341635            5 
 2344000   0.88356416   -2.9824629    2055.6822  0.073083128  0.073402901            1 
 2345000    0.8775719   -2.9779916    2059.5387  0.073189009  0.073389405            2 
 2346000   0.89184004   -2.9992848    2054.5797  0.072981659  0.073375933           14 
 2347000   0.88800038    -2.992964    2051.0733  0.072826063  0.073362464            2 
 2348000   0.90120793   -2.9867303    2057.9075  0.073037602  0.073349028            3 
 2349000   0.86863831   -2.9591667    2064.1357  0.073227462  0.073335559            2 
 2350000   0.87834227   -2.9708006    2059.9482  0.073047808  0.073321942            3 
 2351000     0.881598   -3.0062265    2059.1033   0.07298679  0.073308271            3 
 2352000   0.85891733   -3.0014813    2056.5818  0.072866418  0.073294663            4 
 2353000   0.88288889   -2.9884328    2053.0542  0.072710518  0.073280813            4 
 2354000   0.86468866   -2.9855092    2057.3167  0.072830524  0.073267086            2 
 2355000   0.87715385   -2.9795498    2056.6457  0.072775856  0.073253449            3 
 2356000   0.86727425   -3.0150851    2053.8706  0.072646808  0.073239755            4 
 2357000   0.87106953    -2.985339    2059.2785  0.072807189  0.073225953            3 
 2358000   0.85055687   -2.9746269    2059.8327  0.072795896  0.073212145            2 
 2359000   0.87875049   -2.9943449     2058.961  0.072734245   0.07319839            3 
 2360000   0.88775596   -2.9734337    2058.0208  0.072670227  0.073184808            3 
 2361000   0.87608102    -3.013243    2062.3045  0.072790643  0.073171279            5 
 2362000    0.8628792   -2.9901997    2059.2531  0.072652169  0.073157547            3 
 2363000   0.86685632    -3.012473    2065.4498  0.072839958  0.073143837            3 
 2364000   0.84969063   -2.9741661     2067.097  0.072867211  0.073130094            2 
 2365000   0.87732058   -2.9692863    2055.8264  0.072439267  0.073116162            2 
 2366000   0.86441212   -3.0070051    2061.9273   0.07262353  0.073102484           10 
 2367000   0.87107796   -2.9977908    2068.6027  0.072827865  0.073088688            2 
 2368000   0.85064471   -2.9730908    2067.6654  0.072764125  0.073074948            3 
 2369000    0.8783801   -2.9699863    2071.7174  0.072875945  0.073061042            3 
 2370000   0.88559329   -2.9909441     2061.561  0.072488081  0.073047348            3 
 2371000   0.87192492   -3.0051161    2069.9236  0.072751427  0.073033965            6 
 2372000   0.85741449   -2.9805438    2079.6273  0.073061667  0.073020409            3 
 2373000   0.86203562   -2.9840314    2075.7642  0.072895218   0.07300684            3 
 2374000    0.8597947   -2.9850163    2063.0259  0.072417363  0.072993176            3 
 2375000    0.8713347   -2.9824117    2073.9003  0.072768431  0.072979716            3 
 2376000   0.88724985    -3.000861    2072.3898  0.072684828  0.072966361            2 
 2377000   0.84761943   -3.0024381    2070.5872  0.072591054  0.072952874            3 
 2378000   0.85752657   -3.0045767    2068.1077  0.072473638  0.072939432            3 
 2379000   0.87645214   -2.9880899    2072.5804  0.072599844  0.072926073            4 
 2380000   0.89612602   -3.0040247     2068.879   0.07243974  0.072912601            3 
 2381000   0.87317055    -2.994717    2070.4104  0.072462916  0.072899004            3 
 2382000   0.86962472   -2.9971493    2078.1724  0.072704046  0.072885605            4 
 2383000   0.86776147   -2.9809741    2079.9725  0.072736484  0.072871979            3 
 2384000   0.86084654   -2.9921756    2080.2213  0.072714672   0.07285852            3 
 2385000   0.86305929   -3.0095214    2077.5709  0.072591575  0.072845111            3 
 2386000   0.89086925   -3.0114545    2067.7059  0.072216608  0.072831884            5 
 2387000   0.87140007   -3.0019767    2078.4804  0.072562506  0.072818388            3 
 2388000   0.86847248   -3.0280921    2077.2461  0.072489044  0.072804935            2 
 2389000   0.87957655   -3.0054867    2072.5917  0.072296347  0.072791344            3 
 2390000   0.86887952   -3.0163498    2074.4123  0.072329577  0.072777916            4 
 2391000   0.88565002   -2.9737473    2078.6538  0.072447154  0.072764497            2 
 2392000   0.87750039   -2.9725274    2080.9927  0.072498352  0.072751276            3 
 2393000   0.85448046   -2.9963214     2075.787  0.072286773  0.072737678            3 
 2394000   0.87245992    -2.984461    2076.1252  0.072268352  0.072724133            8 
 2395000   0.86866742   -2.9989834     2083.591  0.072497947  0.072710702            3 
 2396000   0.87668926   -2.9963517    2078.2846  0.072283131  0.072697166            7 
 2397000    0.8800875   -3.0101734    2086.3157  0.072532181  0.072683947            6 
 2398000   0.85012485   -2.9802182    2086.0544  0.072492854  0.072670412            3 
 2399000   0.87146507   -3.0055451    2079.1076  0.072221328  0.072656943            2 
 2400000   0.85508662   -3.0064373    2083.0896    0.0723295  0.072643504            2 
 2401000   0.85328505     -2.98019    2090.6152   0.07256057  0.072629966            2 
 2402000   0.87320442   -2.9981261    2091.4233  0.072558399  0.072616653            2 
 2403000   0.86454731   -2.9796042    2084.5718  0.072290602    0.0726032            3 
 2404000   0.87647431   -3.0175636    2082.6618   0.07219432  0.072589813            2 
 2405000   0.85579338   -2.9992106    2088.8989  0.072380418  0.072576251            3 
 2406000   0.86302798   -2.9936282    2083.2126  0.072153387  0.072562784            4 
 2407000   0.84794092   -2.9923383    2077.0514  0.071910104  0.072549265            3 
 2408000   0.85436695    -2.979721    2093.2833  0.072441975  0.072535592            1 
 2409000   0.85909084   -2.9944461    2092.8563  0.072397134  0.072522079            2 
 2410000   0.85462641   -2.9923269     2100.063  0.072616287  0.072508738            8 
 2411000   0.88816027   -2.9926778    2086.3834  0.072113347  0.072495415            5 
 2412000   0.86044354   -3.0260382    2084.9718   0.07203468  0.072481847            4 
 2413000   0.86798317   -3.0150565    2084.8538  0.072000753  0.072468322            3 
 2414000   0.85116681   -3.0012653    2080.3505  0.071815468  0.072454937            3 
 2415000   0.85166025   -2.9812338    2095.5716  0.072310959  0.072441506            4 
 2416000   0.86219667   -2.9840595    2094.0075  0.072227081  0.072428211            4 
 2417000   0.85639163   -2.9788254    2091.6896  0.072117282  0.072414727            6 
 2418000    0.8728598   -3.0029519    2085.9372  0.071889206  0.072401239            3 
 2419000   0.86293485    -2.985977    2084.6538  0.071815275  0.072387429            2 
 2420000   0.85819497   -2.9905383    2098.4788  0.072261667  0.072373844            3 
 2421000   0.86774262    -2.986678    2094.5997  0.072098294  0.072360161            3 
 2422000   0.84900659   -3.0077555    2085.8928   0.07176895  0.072346354            5 
 2423000   0.85459044   -2.9905546    2089.1007  0.071849658   0.07233268            2 
 2424000   0.86774271   -3.0100763    2092.5843   0.07193978  0.072319093            3 
 2425000   0.86370164   -3.0216159    2095.0519  0.071994911   0.07230526            5 
 2426000   0.85278121   -3.0195557    2087.6897  0.071712341  0.072291493            3 
 2427000   0.87085188   -3.0095365    2090.7578  0.071788141  0.072277796            3 
 2428000   0.85708312   -2.9763469    2097.8934  0.072003479  0.072264199            3 
 2429000   0.84718372   -3.0066319    2098.3697  0.071990178  0.072250386            1 
 2430000   0.85257983   -3.0110135    2092.7229  0.071766902  0.072236421            4 
 2431000   0.87029477   -3.0149284    2090.5186  0.071661821  0.072222393            2 
 2432000   0.86441071   -3.0219257    2091.1213  0.071653005  0.072208403            3 
 2433000   0.85402529   -2.9910083    2099.2032  0.071900371  0.072194358            2 
 2434000   0.84499631   -3.0151529    2090.8188  0.071583772  0.072180479            3 
 2435000   0.86719731    -3.002625    2097.2446  0.071774285  0.072166572            4 
 2436000   0.86773221   -3.0086613    2085.4581  0.071341614  0.072152453            1 
 2437000   0.87045629   -2.9895612    2101.2751  0.071853205  0.072138428            6 
 2438000   0.86958381    -3.008964    2098.3212  0.071722766  0.072124424            3 
 2439000   0.88283341    -3.000611    2093.3154  0.071522323  0.072110314            3 
 2440000   0.87845238     -2.96725    2108.2431  0.072002838  0.072096586            3 
 2441000   0.86553983   -3.0042257    2103.6682  0.071817157  0.072082746            4 
 2442000   0.86397492   -3.0158189    2094.5001  0.071474886  0.072068607            3 
 2443000   0.86598879    -3.011232    2094.7637  0.071454621  0.072054485            2 
 2444000   0.84771441   -2.9962114    2087.0816  0.071163449  0.072040093            2 
 2445000   0.86185401   -2.9828637    2100.0423  0.071576084  0.072025922            2 
 2446000   0.84722155   -3.0289743    2096.3619  0.071421434  0.072011724            4 
 2447000   0.86654496   -3.0054291    2091.3392  0.071221194  0.071997424            3 
 2448000   0.85217361   -2.9889521    2089.0852  0.071115374  0.071983122            3 
 2449000    0.8636148   -3.0166726    2093.9491  0.071251841  0.071968852            3 
 2450000   0.85037773   -3.0272378    2091.4895  0.071139097  0.071954485            3 
 2451000   0.83827853   -3.0167828    2095.8091  0.071256939  0.071940106            2 
 2452000   0.85951588   -3.0125333    2095.1235  0.071204579  0.071925848            3 
 2453000   0.88595489   -2.9838319    2095.5184  0.071188965  0.071911783            3 
 2454000   0.85169298   -3.0116303    2098.6859  0.071267519  0.071897589            3 
 2455000   0.85657794   -3.0020035    2105.8177  0.071480573  0.071883294            1 
 2456000   0.84368482   -3.0316129    2103.4956   0.07137268  0.071869114            2 
 2457000   0.84531471    -2.996482    2095.5001  0.071072449  0.071854844            6 
 2458000   0.85667382    -3.038199    2105.2488  0.071374043  0.071840618            2 
 2459000   0.85675106   -3.0013119    2098.1683  0.071105068  0.071826217            4 
 2460000   0.85416462   -3.0051923    2103.3016  0.071250054  0.071812063            2 
 2461000   0.83870177   -3.0183356    2095.7336   0.07096484  0.071797843            3 
 2462000   0.87065708   -3.0269634    2106.2216  0.071291011  0.071783514            3 
 2463000   0.85557714   -3.0107233    2100.0409  0.071052946  0.071769325            4 
 2464000   0.85687394   -2.9756806    2120.5306  0.071717079  0.071755327            2 
 2465000   0.87623667   -3.0193325    2112.9357  0.071431227  0.071741319            2 
 2466000   0.85683426   -3.0055216    2108.0452  0.071236997  0.071727231            3 
 2467000   0.86271482   -3.0155917     2105.686  0.071128429  0.071713033            2 
 2468000   0.85535253   -3.0225268    2103.9667  0.071041556  0.071698983            3 
 2469000   0.83991773    -2.990424    2114.0946  0.071354618  0.071684746            4 
 2470000   0.86445458   -3.0236707     2100.189  0.070856579  0.071670678            3 
 2471000   0.85624364   -3.0237718    2109.1332  0.071129543  0.071656536            2 
 2472000   0.86177425   -3.0310112    2108.9709  0.071095298  0.071642514            4 
 2473000    0.8526011   -3.0121866    2100.3091   0.07077467  0.071628492            4 
 2474000   0.83779307   -3.0356982    2110.6354  0.071093888  0.071614276            6 
 2475000   0.86133404   -3.0088317    2112.8646  0.071140223  0.071599998            3 
 2476000   0.84264557   -3.0161814    2112.0487  0.071084029  0.071585715            3 
 2477000   0.86762684   -3.0084128    2110.6369  0.071007836  0.071571488            3 
 2478000   0.85693788   -2.9973733    2112.3465  0.071036673  0.071557463            9 
 2479000   0.85713677   -3.0069369    2111.0507  0.070964459   0.07154299            5 
 2480000   0.83580858   -3.0328907     2112.369  0.070980142  0.071528755            8 
 2481000   0.85478075   -3.0167947    2113.5002  0.070989528  0.071514684            3 
 2482000   0.85429584    -3.030989    2124.0679  0.071315738  0.071500766            4 
 2483000    0.8473206   -3.0169405    2111.2411  0.070856527  0.071486794            3 
 2484000   0.86039604   -3.0171944    2118.6989  0.071078196  0.071472819            3 
 2485000   0.86307473   -3.0456842    2119.4576  0.071075037   0.07145896            4 
 2486000   0.86735285   -3.0142094    2121.3481  0.071109818  0.071445137            6 
 2487000   0.85815188   -3.0206354    2123.0276  0.071137503  0.071431172            4 
 2488000   0.86424135    -2.994732    2119.0316  0.070975066  0.071417157            2 
 2489000   0.85037429   -3.0113759    2119.8254  0.070973127  0.071403387            4 
 2490000   0.85571888    -3.011537    2117.8032  0.070876947  0.071389468            4 
 2491000    0.8598181   -3.0117281    2123.6823  0.071045171  0.071375716            2 
 2492000   0.85274303   -3.0343863    2122.4328  0.070974881  0.071361919            2 
 2493000   0.85547686   -3.0182415    2125.7667  0.071057852  0.071348108            4 
 2494000   0.83826243    -3.014724    2127.4339  0.071085067  0.071334327            3 
 2495000   0.85066654   -3.0096396    2117.1729  0.070713859  0.071320569            1 
 2496000   0.83978237   -3.0179745    2123.4981  0.070896705  0.071306688            4 
 2497000   0.84356963   -3.0068022    2122.5588  0.070836965  0.071292922            4 
 2498000   0.85945747   -3.0071519    2121.7275  0.070780875  0.071279125            3 
 2499000   0.83869157    -3.008628    2125.0905  0.070864695  0.071265449            4 
 2500000   0.84913756   -3.0324929    2124.6796  0.070822652  0.071251781            3 
 2501000   0.84591139   -3.0315763    2127.4443  0.070886454  0.071237988            3 
 2502000   0.85122644   -3.0357144    2122.2792  0.070686092  0.071224092            3 
 2503000   0.84942512   -3.0069941    2137.2505  0.071156295  0.071210166            3 
 2504000   0.87252482   -3.0342544      2126.01  0.070753795  0.071196331            4 
 2505000   0.84000607   -3.0246393    2122.9006   0.07062211  0.071182371            2 
 2506000   0.83761409   -3.0235956    2125.5057  0.070680555  0.071168567            9 
 2507000   0.86028351   -3.0380401    2127.1917  0.070708408  0.071154908            3 
 2508000   0.83755743   -3.0340328    2127.8125  0.070700842  0.071141246            2 
 2509000   0.84847601   -3.0173661    2131.2196  0.070785825  0.071127413            4 
 2510000   0.85399094   -3.0028244    2127.1465  0.070622395  0.071113659            2 
 2511000   0.85361418   -3.0335354    2127.9296  0.070620258  0.071099735            4 
 2512000   0.83169861   -3.0435488    2129.1368  0.070632192  0.071085978           10 
 2513000   0.85718928   -3.0242048    2133.0534  0.070733962  0.071072135            4 
 2514000   0.85906648   -3.0311725    2130.2832  0.070614003  0.071058406            3 
 2515000   0.85437443   -3.0273244    2133.0966  0.070679147  0.071044757            4 
 2516000   0.84021416   -3.0323827    2141.7097  0.070936331  0.071031039            4 
 2517000   0.86213457    -3.028445    2131.4598  0.070568792   0.07101763            2 
 2518000   0.86420659   -3.0191912    2135.2447  0.070666029  0.071004101            4 
 2519000    0.8477697   -3.0645304    2126.2457   0.07034027  0.070990416            6 
 2520000   0.86581414   -3.0334458    2138.9922   0.07073387  0.070976892            7 
 2521000   0.84188339    -3.022844     2137.728  0.070664023  0.070963208            3 
 2522000    0.8434479   -2.9932606    2144.4238   0.07085725  0.070949771            3 
 2523000    0.8428823   -3.0278126    2141.9078  0.070746063  0.070936195            3 
 2524000     0.848429   -2.9975238    2133.4421  0.070438528  0.070922512            5 
 2525000   0.85513075   -3.0195103    2137.0928  0.070531115  0.070908897            2 
 2526000   0.85505995   -2.9838509    2143.1382  0.070702632  0.070895181            5 
 2527000   0.83832616   -3.0392719    2136.5251  0.070456572  0.070881349            2 
 2528000   0.86899455   -3.0175567    2133.9854  0.070344981  0.070867493            4 
 2529000   0.84908529   -3.0208265    2138.1367  0.070453957  0.070853847            3 
 2530000   0.82792965   -3.0335421    2148.7882   0.07077695  0.070840078            2 
 2531000   0.84737426   -3.0129508    2136.0645  0.070330058  0.070826257            4 
 2532000    0.8396717   -3.0392607    2135.8355  0.070294743  0.070812527            4 
 2533000    0.8368351   -3.0527504    2130.2355  0.070082758  0.070798368            2 
 2534000   0.84373329   -3.0347473    2139.5673  0.070361988  0.070784496            3 
 2535000   0.84669979   -3.0315158    2136.4033  0.070230219  0.070770655            3 
 2536000   0.85641962    -3.016906    2140.7585   0.07034564  0.070756568            5 
 2537000   0.83635021   -3.0078106    2142.4329  0.070372912  0.070742988            2 
 2538000   0.85161994   -3.0359128     2137.701  0.070189815  0.070728989            4 
 2539000   0.82782436   -3.0456097     2142.188   0.07030944  0.070714689            5 
 2540000   0.83585222   -3.0173792    2145.2712  0.070382914  0.070700723            2 
 2541000   0.82552557   -3.0355732    2138.1212  0.070120727  0.070686564            2 
 2542000    0.8504464   -3.0104268    2151.2587  0.070523822  0.070672728            3 
 2543000   0.83806206   -3.0358007    2138.9448  0.070092569  0.070658854            3 
 2544000   0.84538665   -3.0511508    2142.0694  0.070167368  0.070644855            3 
 2545000   0.83845525   -3.0242239    2142.5213  0.070154595  0.070630887            3 
 2546000   0.85506497   -3.0513783      2144.33  0.070186238  0.070616809            2 
 2547000   0.83122451   -3.0170284    2152.5092  0.070426292  0.070602699            2 
 2548000   0.83849508   -3.0290208    2138.8679  0.069952508  0.070588687            3 
 2549000   0.81983448   -3.0406744    2144.1841  0.070098867  0.070574797            5 
 2550000   0.84126099    -3.028093    2146.7564  0.070155439  0.070560813            4 
 2551000   0.85282694    -3.005508    2155.7659  0.070422249  0.070547166            7 
 2552000   0.84636592   -3.0435366    2145.8295   0.07007019  0.070533406            3 
 2553000   0.82958462   -3.0234569    2148.6719  0.070135525  0.070519548            2 
 2554000   0.85892144   -3.0478514    2147.4594  0.070068499  0.070505746            4 
 2555000   0.84182407   -2.9941719    2155.1995  0.070293526  0.070492198            4 
 2556000    0.8417646   -3.0256365    2153.0442  0.070195755  0.070478598            2 
 2557000   0.85205262   -3.0203601    2154.7863  0.070225079  0.070465094            4 
 2558000    0.8403881   -3.0470801    2150.5808  0.070060621    0.0704515            2 
 2559000   0.85979439   -3.0262795    2149.9053  0.070011246  0.070437926            3 
 2560000   0.84901811   -3.0350112     2154.332  0.070127995  0.070424371            2 
 2561000   0.84003514   -3.0518039    2159.9698  0.070284061  0.070410714            3 
 2562000   0.82864563    -3.038544    2156.6913  0.070149989  0.070396916            3 
 2563000   0.84525339   -3.0442531    2157.4014  0.070145709  0.070383309            7 
 2564000   0.83689582     -3.04014    2153.1527  0.069980262   0.07036977            2 
 2565000   0.87029505   -3.0463999    2154.3119  0.069990639  0.070356048            3 
 2566000   0.84807106   -3.0446572    2153.2637  0.069929321  0.070342331            2 
 2567000   0.83387806   -3.0584084    2153.9083  0.069923007  0.070328736            4 
 2568000   0.83410257   -3.0452459     2158.546  0.070046273  0.070315227            5 
 2569000   0.84390203   -3.0489599    2154.3615  0.069883273  0.070301548            4 
 2570000   0.84128815   -3.0310767    2162.6463  0.070124718  0.070287897            4 
 2571000    0.8508082   -3.0291573    2157.4904  0.069930326  0.070274401            4 
 2572000   0.86121551   -3.0494204    2157.3349  0.069898097  0.070260583            2 
 2573000   0.84678662   -3.0326498    2158.2607  0.069900916  0.070246783            3 
 2574000   0.84455163   -3.0429966    2154.5543  0.069753765  0.070233092            3 
 2575000   0.84400204    -3.045023    2159.3596  0.069882188  0.070219625            3 
 2576000   0.84135121   -3.0606613    2165.9092  0.070066937   0.07020623            4 
 2577000   0.84265053   -3.0390895     2157.226  0.069758956  0.070192817            3 
 2578000   0.84688216    -3.065009    2157.8435   0.06975186  0.070179159            3 
 2579000   0.84195575   -3.0384697    2171.6157  0.070169825  0.070165611            2 
 2580000   0.83335084   -3.0666227    2168.1982  0.070032241  0.070152072            3 
 2581000   0.82410561   -3.0208155    2161.8708  0.069800814  0.070138531            5 
 2582000    0.8465611    -3.033908    2159.5091  0.069697557  0.070125151            4 
 2583000   0.83910883   -3.0499688    2166.6635  0.069901391  0.070111962            2 
 2584000   0.84734528   -3.0430074    2176.8884  0.070204088  0.070098541            2 
 2585000   0.85939799   -3.0228251    2171.9587  0.070018011  0.070085346            4 
 2586000   0.83455348   -3.0465274    2166.2364  0.069806534  0.070072115            2 
 2587000   0.83735592   -3.0613617    2159.7182  0.069569584  0.070058785            4 
 2588000   0.83361541   -3.0512383    2169.5453  0.069859136  0.070045442            3 
 2589000   0.83092631   -3.0231503    2169.2247  0.069821833  0.070032018            6 
 2590000   0.84717456   -3.0519876    2164.9916  0.069658675  0.070018508            6 
 2591000   0.82255947   -3.0304863    2169.1811  0.069766535  0.070004922            3 
 2592000   0.84480493    -3.041743    2170.1111   0.06976952  0.069991341            5 
 2593000   0.84069907   -3.0246993    2166.4229  0.069624079   0.06997789            3 
 2594000   0.83059778   -3.0204767    2173.0817  0.069811157  0.069964404            3 
 2595000   0.83052628   -3.0497974    2167.9334  0.069618928   0.06995096            8 
 2596000   0.84834677   -3.0527514    2163.5992  0.069452978  0.069937507            4 
 2597000   0.80592758   -3.0306023    2170.4151  0.069644948  0.069923898            5 
 2598000   0.83027011   -3.0393516    2171.7878  0.069662168  0.069910381            2 
 2599000   0.84633718   -3.0470508    2174.1847   0.06971222  0.069896894            4 
 2600000   0.83070445   -3.0467986    2171.6779  0.069605061  0.069883435            5 
 2601000   0.82187958   -3.0318555    2171.5005  0.069572616  0.069869933            6 
 2602000   0.84371584   -3.0627905    2173.2043  0.069600444  0.069856459            2 
 2603000   0.84249428   -3.0564545    2173.5096   0.06958348  0.069842852            7 
 2604000   0.84036361   -3.0516329    2174.1139  0.069576099   0.06982933            4 
 2605000   0.83202045   -3.0449748    2173.0627  0.069515762  0.069815864            3 
 2606000   0.85015227    -3.046061     2169.179  0.069364894  0.069802145            3 
 2607000   0.82487815   -3.0307869    2177.5993  0.069607446  0.069788447            2 
 2608000     0.844026   -3.0163852    2176.6716  0.069551112  0.069774805            2 
 2609000   0.82939148   -3.0220061     2175.781  0.069496007  0.069761295            3 
 2610000   0.81876966    -3.059771    2163.4815  0.069076678  0.069747707            4 
 2611000   0.83320248   -3.0322921    2169.2147  0.069233202  0.069733945            3 
 2612000   0.84702477   -3.0365481    2174.7771  0.069384159  0.069720327            5 
 2613000   0.84215714   -3.0176523    2175.1313  0.069368901  0.069706861            8 
 2614000   0.85330231   -3.0627318    2173.9967  0.069306195  0.069693295            2 
 2615000   0.84412066    -3.038923    2177.1948  0.069381607  0.069679621            6 
 2616000   0.85507098   -3.0473944    2175.1792  0.069290877  0.069665808            2 
 2617000   0.83753065   -3.0520899    2177.1926  0.069328514  0.069652147            3 
 2618000   0.82268716   -3.0348953    2168.3206  0.069019628  0.069638491            1 
 2619000   0.84120047    -2.999807    2191.0685  0.069717083  0.069625034            4 
 2620000    0.8242116   -3.0658787    2171.1913  0.069058247  0.069611481            6 
 2621000   0.84197329   -3.0672263    2167.0027  0.068898725  0.069597763            1 
 2622000   0.82792026   -3.0476662    2181.4596  0.069331922  0.069584203            3 
 2623000   0.83623491    -3.021547    2182.6405  0.069343006  0.069570618            3 
 2624000   0.83847938   -3.0725697    2181.6582  0.069285384  0.069556893            5 
 2625000   0.81343202   -3.0301798    2182.5048  0.069285865  0.069543398            5 
 2626000   0.83157703   -3.0413878    2186.2298  0.069377691  0.069529872            4 
 2627000   0.83068268   -3.0294546    2190.4709  0.069485818  0.069516201            3 
 2628000   0.83808919   -3.0496219    2179.5726  0.069113794  0.069502744            5 
 2629000   0.84304485   -3.0618285    2180.9003  0.069129589  0.069489089            3 
 2630000   0.80868276   -3.0428489    2177.5731   0.06899788  0.069475529            2 
 2631000   0.83865305   -3.0427127     2182.425  0.069125334  0.069461778            2 
 2632000   0.82182967    -3.060898    2175.2878  0.068873093   0.06944798            4 
 2633000   0.82168407   -3.0331786    2184.0328  0.069123712  0.069434187            2 
 2634000   0.84161459   -3.0539486    2178.6036  0.068925701  0.069420351            3 
 2635000   0.85125867   -3.0531822      2183.47  0.069053447  0.069406656            3 
 2636000   0.84522918   -3.0397341    2181.7063  0.068971496  0.069393052            3 
 2637000   0.84894026   -3.0474774    2190.2196  0.069214373  0.069379336            5 
 2638000   0.82763072   -3.0450662    2188.6957  0.069139997  0.069365578            6 
 2639000   0.83516277   -3.0616036    2182.4931  0.068917933  0.069351802            2 
 2640000   0.82840992    -3.039039    2181.4268  0.068858169  0.069337864            8 
 2641000    0.8399688   -3.0606412    2183.0937  0.068884693  0.069324063            5 
 2642000   0.83304978   -3.0547498    2184.1185  0.068890944  0.069310174            6 
 2643000   0.84175158    -3.046238    2190.6631  0.069071228  0.069296434            4 
 2644000   0.84622808   -3.0370978    2191.9921  0.069086991  0.069282594            3 
 2645000   0.84294362   -3.0513704    2188.8217  0.068960987  0.069268753            4 
 2646000   0.83121744   -3.0665372    2178.3747  0.068605905  0.069255081            2 
 2647000   0.83287368    -3.048335    2196.6108    0.0691541  0.069241277            4 
 2648000   0.84317018   -3.0659863    2191.7495  0.068974997  0.069227642            4 
 2649000   0.83656608   -3.0367623    2195.0851  0.069053892  0.069213821            3 
 2650000   0.82250621   -3.0404683    2188.7798  0.068829552  0.069200345            2 
 2651000   0.84180467   -3.0572272    2191.0561  0.068875146  0.069186701            2 
 2652000   0.84251643   -3.0225853    2195.0141  0.068973546  0.069172989            4 
 2653000   0.82552249   -3.0310286    2197.6282   0.06902966  0.069159367            2 
 2654000   0.82159412   -3.0708044    2189.1071  0.068736092  0.069145596            3 
 2655000   0.82581019   -3.0845532    2192.5274  0.068817557  0.069131919            5 
 2656000   0.82600739   -3.0272891    2196.7151   0.06892304  0.069118412            6 
 2657000   0.83890865   -3.0434021    2193.4061  0.068793316  0.069104854            3 
 2658000   0.82630161   -3.0328877    2189.0601  0.068631181  0.069091205            8 
 2659000   0.83489161   -3.0598977    2190.6437  0.068654998  0.069077476            5 
 2660000   0.81685814   -3.0414098    2204.8025  0.069072759   0.06906398            3 
 2661000   0.83092848   -3.0495222    2187.7323  0.068512222  0.069050477            6 
 2662000   0.82198313   -3.0494238    2194.3511  0.068693686  0.069036598            3 
 2663000   0.79650023   -3.0562819    2196.4118  0.068732375  0.069022951            4 
 2664000   0.83133044   -3.0566264    2196.9004  0.068721859  0.069009081            2 
 2665000   0.82302801   -3.0542507    2192.0983  0.068545914  0.068995364            6 
 2666000   0.83097406   -3.0529099    2197.8791  0.068700898  0.068981756            3 
 2667000   0.83436302   -3.0735458    2196.3319  0.068626793  0.068967931            2 
 2668000   0.81881347   -3.0266581    2202.2946  0.068787313  0.068954236            4 
 2669000   0.82398675     -3.06894    2194.9369  0.068531814  0.068940465            6 
 2670000   0.81926903   -3.0551448    2194.4382   0.06849058  0.068926779            4 
 2671000   0.82937896   -3.0503251    2202.6878  0.068722321  0.068912948            4 
 2672000   0.83723803   -3.0648752    2191.3732  0.068343724   0.06889906            3 
 2673000   0.80253896   -3.0445659    2194.4311  0.068413489  0.068885211            7 
 2674000   0.82391986    -3.048073    2193.8867  0.068370939   0.06887145            2 
 2675000   0.82151977   -3.0503202     2200.052  0.068537447  0.068857615            2 
 2676000   0.83068006   -3.0455867    2200.1031  0.068513425  0.068843779            3 
 2677000   0.81645335   -3.0669955    2196.5072  0.068375893   0.06882999            2 
 2678000   0.82556484   -3.0753433    2191.2757  0.068187569  0.068816067            4 
 2679000   0.82707611   -3.0515292    2201.7317  0.068487362  0.068802193            5 
 2680000   0.81430573   -3.0592238     2203.654   0.06852158  0.068788519            6 
 2681000   0.80241619   -3.0481113    2202.8889  0.068472239   0.06877476            4 
 2682000   0.83910698   -3.0732092    2200.9324  0.068385917  0.068761004            3 
 2683000   0.82834889   -3.0509923    2201.8164  0.068387886  0.068747042            6 
 2684000   0.82576379    -3.048323    2203.1134  0.068402678  0.068733351            9 
 2685000    0.8389382   -3.0768411    2204.8535  0.068431208  0.068719564            6 
 2686000   0.83141063   -3.0649867    2202.9877  0.068347844  0.068705833            3 
 2687000   0.83507339   -3.0696324    2200.1116  0.068233209  0.068692072            4 
 2688000   0.81247171    -3.074586     2195.961  0.068079147  0.068678325            4 
 2689000   0.80386296   -3.0427575    2210.7025  0.068510677  0.068664593            4 
 2690000   0.83496635   -3.0587109    2204.5878  0.068295782  0.068650823            3 
 2691000   0.81636897   -3.0666395    2203.1459  0.068225749  0.068636983            3 
 2692000   0.80647701   -3.0464985    2200.8462  0.068129216  0.068623341            3 
 2693000   0.81812179   -3.0688032    2201.8492  0.068134953  0.068609533            3 
 2694000   0.79141475    -3.085642    2197.6545   0.06797991  0.068595775            4 
 2695000   0.81704131   -3.0735393    2197.9983  0.067965315   0.06858197            3 
 2696000   0.82032561   -3.0495713    2206.1875  0.068193233  0.068568078            4 
 2697000   0.82398121   -3.0433025    2206.7719  0.068186007  0.068554493            4 
 2698000   0.82293535   -3.0736595    2203.7329  0.068066868  0.068540726           14 
 2699000   0.81231661   -3.0789586    2212.4121  0.068309624  0.068526916            2 
 2700000   0.81134808    -3.074038    2210.8283  0.068235442   0.06851324            3 
 2701000   0.80881834    -3.063762     2205.332  0.068040602  0.068499548            3 
 2702000   0.81997508   -3.0847901    2218.3484  0.068416865  0.068485824            5 
 2703000   0.81788134   -3.0702473    2217.3274  0.068360076  0.068472015            4 
 2704000   0.81958142   -3.0540646    2214.3317  0.068242471  0.068458211            2 
 2705000   0.81668041   -3.0677278    2212.1854  0.068151122  0.068444629            5 
 2706000    0.8153471   -3.0517717    2218.9434  0.068334053  0.068431061            3 
 2707000   0.80943722   -3.0614338    2215.0788  0.068189842  0.068417348            5 
 2708000   0.81687308   -3.0796532    2214.9959   0.06816211  0.068403686            3 
 2709000   0.80066433    -3.058879    2214.8515  0.068132506   0.06839003            5 
 2710000    0.8201724   -3.0874686     2210.943  0.067987178  0.068376472            4 
 2711000   0.81602425   -3.0742397    2209.1742  0.067907728  0.068362874            3 
 2712000   0.83289414   -3.0630437    2213.6468  0.068020121   0.06834911            9 
 2713000   0.81357873   -3.0843922    2213.1487  0.067979749  0.068335485            5 
 2714000   0.82496554   -3.0940795    2215.0262   0.06801235  0.068321785            2 
 2715000   0.82066413   -3.0646997    2216.6741  0.068037879   0.06830818            3 
 2716000   0.80971956   -3.0690267    2211.6511   0.06785871  0.068294482            3 
 2717000   0.83026297    -3.080177    2210.2126  0.067789616  0.068280943            3 
 2718000   0.81217746   -3.0864616    2212.2538  0.067827258  0.068267279            3 
 2719000   0.81303254   -3.0684931    2215.9601  0.067915904  0.068253489            7 
 2720000   0.82173696   -3.0864769    2222.8643  0.068102459  0.068239683            7 
 2721000   0.82622695   -3.0695376    2222.3155  0.068060625  0.068225899            5 
 2722000   0.83359105   -3.0560691    2217.1468  0.067877383  0.068212346            3 
 2723000   0.81938647   -3.0556673    2219.4648  0.067923392  0.068198736            5 
 2724000   0.81739357   -3.0645111    2205.5659  0.067473259   0.06818492            5 
 2725000    0.8178173   -3.0689601    2220.4262  0.067902942  0.068171174            4 
 2726000   0.81483437    -3.041322    2229.5395  0.068156624  0.068157412            3 
 2727000    0.8201401   -3.0570847    2222.5311  0.067917463  0.068143796            2 
 2728000   0.81749042   -3.0968187    2208.6446   0.06746837  0.068130103            2 
 2729000   0.83114914   -3.0868973    2220.8653  0.067816823  0.068116279            4 
 2730000   0.81914698   -3.0693129    2233.4833  0.068177147  0.068102683            4 
 2731000   0.81631356    -3.067533    2222.3359  0.067812032  0.068089118            3 
 2732000   0.81023391     -3.11343    2219.2036  0.067691668  0.068075389            4 
 2733000   0.80893982   -3.0660067    2229.3617  0.067976634  0.068061659            5 
 2734000   0.82272335    -3.087184    2219.9071   0.06766359  0.068048046            2 
 2735000   0.81555911   -3.0703949    2231.4113  0.067989377  0.068034402            2 
 2736000   0.81795389   -3.0676397    2223.7452   0.06773103  0.068020753            3 
 2737000   0.81058967   -3.0925867     2216.158  0.067475276  0.068006954            2 
 2738000   0.80487384   -3.0885917    2217.9611  0.067505512  0.067993284            7 
 2739000   0.82510997   -3.1033378    2223.8346  0.067659566  0.067979434            2 
 2740000   0.82078421   -3.0525906    2226.4778  0.067715262  0.067965801            5 
 2741000    0.8112431   -3.0760798    2223.5621  0.067601913  0.067951995            7 
 2742000   0.81529561   -3.0954053    2222.8357  0.067555181   0.06793833            1 
 2743000    0.8292108   -3.0868917    2223.1431  0.067539891  0.067924616            8 
 2744000   0.82096283   -3.0703443    2227.0815  0.067634886  0.067910991            7 
 2745000   0.81604359   -3.0860507    2230.2271  0.067705741  0.067897383            9 
 2746000   0.80626468   -3.0768017    2225.5656  0.067539623  0.067883807            4 
 2747000   0.80349522   -3.0846253    2226.6716  0.067548586  0.067870206            3 
 2748000   0.81409385   -3.0817216    2232.8205  0.067710471  0.067856844            3 
 2749000   0.81468958   -3.0542032    2241.5256  0.067949726  0.067843415            6 
 2750000   0.80032794   -3.0777844    2224.2921  0.067402791  0.067829931            4 
 2751000   0.80116961   -3.0748737    2230.8236  0.067576141  0.067816414            3 
 2752000    0.7842039    -3.075725    2231.5056   0.06757224  0.067803093            3 
 2753000   0.81417506   -3.0800391    2230.6824  0.067522775  0.067789624            4 
 2754000   0.80961741   -3.0559955    2226.7331  0.067378757  0.067776135            3 
 2755000   0.80966944   -3.0761349    2235.1645  0.067609332    0.0677627            3 
 2756000   0.81528891   -3.0713956    2235.4454  0.067593294  0.067749347            2 
 2757000    0.8271261   -3.0621106    2232.0703  0.067466761  0.067735935            3 
 2758000   0.79630343   -3.0891619    2239.5018  0.067666842  0.067722488            3 
 2759000   0.81683168   -3.1003739     2233.665  0.067466019  0.067709062            6 
 2760000   0.82336636   -3.0740054    2250.2243  0.067941554  0.067695737            2 
 2761000    0.8193702   -3.0765288    2238.0047  0.067548132  0.067682557            2 
 2762000   0.80223863   -3.0900541    2232.7049  0.067363773  0.067669106            4 
 2763000   0.80945881   -3.0867996    2230.7152  0.067279382  0.067655741            4 
 2764000   0.81956749   -3.0910054    2239.2576  0.067512591  0.067642601            5 
 2765000    0.7996531   -3.0887875    2236.7094  0.067411374   0.06762903            4 
 2766000   0.81860919   -3.0587003    2242.3092  0.067555713  0.067615775            2 
 2767000   0.80165561    -3.092079     2229.266  0.067138478   0.06760232            4 
 2768000   0.79674898   -3.0522807    2238.3037  0.067386311  0.067588896            4 
 2769000   0.80198646    -3.076934     2232.804  0.067196462  0.067575504            5 
 2770000   0.79970157    -3.074123    2236.7218  0.067290066  0.067562095            4 
 2771000   0.79692039   -3.0825517     2240.133  0.067368368  0.067548676            4 
 2772000    0.8093482   -3.0814863    2243.8999  0.067457308  0.067535168            4 
 2773000   0.80153252   -3.0974818    2245.2268  0.067472858  0.067521763            3 
 2774000   0.80184335   -3.0737485    2241.7551  0.067344241  0.067508231            3 
 2775000   0.79636757   -3.0726914    2237.0492  0.067178653  0.067494618            3 
 2776000    0.8175797   -3.0781856    2241.0261  0.067273839  0.067481092            6 
 2777000   0.79572293   -3.0930046    2235.4502  0.067082289  0.067467598            5 
 2778000   0.80319495    -3.098934    2241.3849  0.067236167  0.067453973            3 
 2779000   0.79840441    -3.071194    2247.7394  0.067402524  0.067440506            6 
 2780000   0.81973866   -3.0784876    2245.5206  0.067311769  0.067426928            3 
 2781000    0.8187501   -3.0644386    2233.1229  0.066916064  0.067413547            3 
 2782000   0.81461379   -3.0659141    2242.4899  0.067172596  0.067400163            4 
 2783000    0.8087736   -3.1108111    2245.2623  0.067231474  0.067386574            2 
 2784000   0.81570605   -3.0924147    2248.6672  0.067309243  0.067373143            3 
 2785000   0.80465023   -3.1080376    2243.2446   0.06712282  0.067359599            4 
 2786000   0.79734416   -3.0510033     2238.448  0.066955251  0.067346018            3 
 2787000   0.81832097   -3.0695346    2238.6459  0.066937147  0.067332513            4 
 2788000    0.8015943   -3.0880803     2244.696  0.067093973   0.06731903            4 
 2789000   0.80222729   -3.0705774    2244.1022  0.067052174  0.067305462            4 
 2790000   0.79397534   -3.0874072    2249.2275  0.067181229  0.067291925            6 
 2791000   0.80473616   -3.0947573    2239.6766  0.066871988  0.067278548            2 
 2792000   0.82923111   -3.0649216    2249.9083  0.067153424  0.067265137            6 
 2793000   0.79549193   -3.0900079    2251.0029   0.06716204  0.067251783            2 
 2794000   0.80336073   -3.1043066    2244.5683  0.066946083  0.067238283            5 
 2795000   0.79416343   -3.0699528    2248.2876  0.067033023  0.067224709            2 
 2796000   0.81212535   -3.0987177    2248.0851  0.067003014  0.067211319            3 
 2797000    0.8199699   -3.0979086    2246.9434  0.066945043  0.067197909            8 
 2798000   0.80278458   -3.0764189    2252.6842  0.067092094  0.067184526            2 
 2799000   0.78597771   -3.1235338    2245.0446  0.066840676  0.067171018            4 
 2800000   0.78792367   -3.1011356    2246.7224  0.066866737  0.067157409            2 
 2801000    0.8081046   -3.0681494     2241.487  0.066687106  0.067144018            3 
 2802000   0.82044127   -3.1035662    2250.7183  0.066937852  0.067130497            6 
 2803000   0.81094325   -3.0969558    2246.4804  0.066787978  0.067116915            3 
 2804000   0.80539393   -3.0840808     2255.829  0.067041992  0.067103309            2 
 2805000   0.80827547   -3.0861872    2248.7154  0.066806755  0.067089737            3 
 2806000   0.81464721   -3.1035877    2249.2869   0.06679992  0.067076151            7 
 2807000   0.80098162   -3.0425381    2262.1413   0.06715774  0.067062507            3 
 2808000    0.8045012   -3.0941526    2245.5055   0.06664012  0.067048947            5 
 2809000   0.81565963   -3.1120796    2248.7094  0.066711444  0.067035431            3 
 2810000   0.80678478   -3.0636373     2259.053  0.066994454  0.067022008            4 
 2811000   0.80363077   -3.0768722    2251.3028  0.066740863  0.067008654            4 
 2812000   0.78902346   -3.0945063    2258.6667  0.066935357  0.066995258            5 
 2813000   0.78529925   -3.1179601    2249.3904  0.066636757   0.06698172            3 
 2814000   0.80652807   -3.0979771    2252.2564  0.066697951  0.066968136            3 
 2815000   0.81535951   -3.0782524     2253.231  0.066703108   0.06695475           11 
 2816000   0.79235591   -3.0845704    2258.2362  0.066827538  0.066941131            3 
 2817000    0.7972797   -3.0761215    2254.2676  0.066686417  0.066927641            5 
 2818000   0.81884105   -3.0772022    2260.7276  0.066853785  0.066913974            3 
 2819000   0.79437268   -3.0833571    2255.0771  0.066663035   0.06690044            2 
 2820000   0.79651574   -3.1111068    2251.9792  0.066547848  0.066886882            2 
 2821000   0.78984748    -3.102914    2261.5546   0.06680712  0.066873355            5 
 2822000   0.79390043     -3.10782    2250.8987  0.066468778  0.066859802            3 
 2823000   0.80592865   -3.0753301    2252.6932  0.066498206  0.066846337            5 
 2824000   0.81451956   -3.0940116     2253.803  0.066507407  0.066832676            3 
 2825000    0.7955634   -3.0791603    2254.6578   0.06650908  0.066819148            4 
 2826000    0.7970662   -3.1177807    2252.6648  0.066426776  0.066805547            3 
 2827000   0.80313485   -3.0939189    2253.7389   0.06643494  0.066791864            4 
 2828000   0.81697686   -3.0900118    2255.3148  0.066457885  0.066778215            5 
 2829000   0.79366408   -3.0900178    2259.1898  0.066548538  0.066764608            5 
 2830000   0.77977634   -3.0785816    2262.6959  0.066628266  0.066750998            6 
 2831000   0.78916131   -3.0982894    2258.6608  0.066485952  0.066737371            5 
 2832000   0.80295492   -3.0900594    2258.1323  0.066446926  0.066723669            3 
 2833000   0.80034332   -3.0796679    2261.5803  0.066524895  0.066710203            3 
 2834000   0.80593077   -3.0853365    2256.0616  0.066339143  0.066696681            3 
 2835000    0.8156437   -3.1016812    2264.0523  0.066550626  0.066683174            4 
 2836000   0.79396075   -3.0915351    2257.5363  0.066335693  0.066669496            4 
 2837000   0.78969457   -3.1106361     2265.763  0.066553959   0.06665614            3 
 2838000   0.78017792   -3.0903141    2263.8249  0.066473598  0.066642707            3 
 2839000   0.80017113   -3.0891984    2269.0781  0.066604382  0.066629273            3 
 2840000   0.78807011   -3.0765379    2261.0431  0.066345161  0.066615692            5 
 2841000   0.78987025   -3.0891227    2260.9032  0.066317704  0.066602214            3 
 2842000   0.77918692   -3.0935156     2261.524  0.066312572   0.06658898            3 
 2843000   0.81727638   -3.0730533    2264.5453  0.066377809  0.066575826            5 
 2844000   0.80704879   -3.0989055    2268.3204  0.066465085  0.066562611            5 
 2845000   0.79768751   -3.0995198    2259.2711  0.066176659  0.066549214            7 
 2846000   0.79346488   -3.0884945    2269.6602  0.066457608  0.066535804            3 
 2847000   0.78934714   -3.1081428    2264.7611  0.066290865  0.066522473            7 
 2848000   0.79931682   -3.1025337    2266.5244  0.066319182  0.066509012            6 
 2849000   0.80399595   -3.0851151    2265.6933  0.066271596  0.066495689            6 
 2850000   0.80950667   -3.0967729    2265.4932  0.066242492  0.066482323            3 
 2851000   0.78234174   -3.0959134    2263.5299   0.06616187  0.066468672            3 
 2852000   0.77207957   -3.0977569    2269.4572  0.066311864  0.066455394            2 
 2853000   0.79203423   -3.1220775     2270.164  0.066309265  0.066441991            5 
 2854000    0.7737534   -3.0909024    2267.6569  0.066212826  0.066428576            5 
 2855000   0.79977483    -3.103302    2268.9655  0.066227831  0.066415249            6 
 2856000   0.77900719   -3.0944211    2265.8122  0.066112635  0.066401951            7 
 2857000   0.81120302   -3.0907497     2263.813  0.066031181  0.066388465            5 
 2858000   0.80478767   -3.0715517    2274.4748  0.066318953  0.066375068            2 
 2859000   0.79530401   -3.0957405    2263.6468  0.065980144  0.066361641            8 
 2860000   0.78702895   -3.0866137    2265.5156  0.066011528  0.066348177            4 
 2861000   0.77956767   -3.1056762    2270.7924  0.066142152  0.066334685            6 
 2862000   0.78904477   -3.0870526    2270.3654  0.066106608    0.0663213            7 
 2863000   0.78335796   -3.0957205    2264.9697  0.065926466   0.06630778            5 
 2864000   0.80352429   -3.1104995     2277.463  0.066266962  0.066294271            3 
 2865000   0.79124067    -3.093519    2272.7435  0.066106558  0.066280811            2 
 2866000   0.78815908    -3.107381    2269.4007  0.065986295  0.066267258            3 
 2867000   0.76700543    -3.104441    2279.8096   0.06626583  0.066253882            3 
 2868000   0.77699048   -3.0903008    2276.8614  0.066157061   0.06624039            6 
 2869000   0.80758746   -3.1234886    2276.8706  0.066134269  0.066226845            2 
 2870000   0.80510478   -3.1051371    2268.2323  0.065860403  0.066213356            4 
 2871000   0.78019487   -3.1247567    2276.2533   0.06607028  0.066199884            3 
 2872000   0.78924317   -3.1367423    2273.5127  0.065967756  0.066186285            5 
 2873000   0.79636617    -3.081572    2267.2402  0.065762855  0.066172755            5 
 2874000   0.80029105   -3.1127149     2279.018  0.066081476  0.066159307            8 
 2875000   0.78730634   -3.1140068     2261.005  0.065536377  0.066145855            6 
 2876000   0.80295322   -3.1044083     2279.806  0.066058356  0.066132446            6 
 2877000   0.77946012   -3.0698819    2289.9552   0.06632937  0.066119149            5 
 2878000    0.7694469    -3.134865    2276.8963  0.065928199  0.066105853            3 
 2879000   0.78238762   -3.1093324     2285.808  0.066163252  0.066092677            2 
 2880000   0.79011522   -3.1144832    2281.7769  0.066023638  0.066079461            6 
 2881000   0.80399109   -3.0859231    2280.5643  0.065965646  0.066066308            3 
 2882000   0.77783125   -3.1099497    2279.6344  0.065915868  0.066053125            2 
 2883000   0.79472414   -3.1234622    2279.2472  0.065881814  0.066039919            4 
 2884000   0.79666099   -3.0934398    2281.8969  0.065935532  0.066026711            5 
 2885000   0.79226008   -3.0972726    2274.3323  0.065694174  0.066013282            3 
 2886000   0.76606656   -3.0970709    2277.3618  0.065758888  0.065999928            4 
 2887000   0.80237833   -3.1001687    2279.8418  0.065807696  0.065986605            3 
 2888000   0.76476288   -3.1062967    2285.8874  0.065959354  0.065973176            4 
 2889000   0.79782214   -3.1297236    2276.2713  0.065659147  0.065959691            2 
 2890000   0.78455187   -3.1367662      2274.27  0.065578721  0.065946222            3 
 2891000   0.77477439   -3.1184454    2277.6265  0.065652788   0.06593273            3 
 2892000   0.79477627   -3.1066319    2285.3846  0.065853635  0.065919087            4 
 2893000   0.78431621   -3.1097716    2277.5333  0.065604714  0.065905524            4 
 2894000    0.7953516   -3.1331134    2271.2053  0.065399831  0.065891823            3 
 2895000    0.7906273   -3.1184164     2276.099  0.065518106  0.065878185            6 
 2896000    0.7953529   -3.1303467    2272.0468  0.065378878  0.065864431            4 
 2897000   0.76705961   -3.1151098    2273.2977  0.065392293  0.065850747            3 
 2898000   0.78856336   -3.1111671    2280.2173  0.065568706  0.065836979            7 
 2899000    0.7798501   -3.1128466    2278.3183    0.0654915  0.065823391            4 
 2900000   0.78899552   -3.1148585     2289.674   0.06579523  0.065809778            5 
 2901000   0.79423649   -3.1247649    2276.8566  0.065404361  0.065796149            7 
 2902000   0.78609038   -3.1107202    2271.1806  0.065218832  0.065782584            5 
 2903000   0.77237381    -3.109908    2274.5508  0.065293109  0.065768907            6 
 2904000    0.7945586   -3.0995907    2286.8616  0.065623897  0.065755267            3 
 2905000   0.79500003   -3.1088005    2282.6038  0.065479169  0.065741606            4 
 2906000   0.77460436   -3.1221747    2276.2298  0.065273854  0.065728031            3 
 2907000   0.77786956   -3.1225391    2284.4949   0.06548833  0.065714345            4 
 2908000   0.78868009   -3.0779306    2290.6256  0.065641495  0.065700941            7 
 2909000   0.76730104   -3.1215792    2281.9253  0.065369693  0.065687256            3 
 2910000   0.80444431   -3.1190823    2287.0178  0.065493063   0.06567357            3 
 2911000   0.78318285   -3.0881354    2290.2888  0.065564204  0.065660256            2 
 2912000   0.79193934   -3.1248039    2280.2711  0.065255011  0.065646743            2 
 2913000   0.77099042   -3.0944718    2285.5119  0.065382536  0.065633157            5 
 2914000    0.7860158   -3.1105386    2291.0967  0.065519809  0.065619703            6 
 2915000   0.79902672   -3.1296491    2288.8401  0.065432821  0.065606243            4 
 2916000   0.79774024   -3.1209289    2284.5758  0.065288518  0.065592879            5 
 2917000   0.78293821   -3.1128006    2292.5114  0.065492841  0.065579607            4 
 2918000   0.77422494   -3.1192218    2292.1834  0.065461029  0.065566173            5 
 2919000   0.78918146   -3.1187824    2289.6553   0.06536643  0.065552766            5 
 2920000   0.78711804   -3.1111573    2290.0885  0.065356408  0.065539308            3 
 2921000   0.78513656   -3.1151358    2285.3573  0.065199056  0.065525713            5 
 2922000   0.78122892   -3.1401836    2290.7001  0.065329115  0.065512211            7 
 2923000   0.80111661   -3.1352415    2287.4822  0.065215024  0.065498814            2 
 2924000   0.78552158   -3.1301903     2285.371  0.065132552  0.065485363            6 
 2925000   0.78351725   -3.0982332    2293.7564  0.065349184  0.065471982            6 
 2926000   0.77999065   -3.1200756    2292.1544  0.065281225  0.065458486            3 
 2927000   0.77742024   -3.1111753    2290.3975  0.065208902  0.065445044            2 
 2928000   0.80414711    -3.129537    2286.9664  0.065088979  0.065431619            2 
 2929000   0.79430095    -3.105601    2295.1494  0.065299573  0.065418038            4 
 2930000   0.77132241   -3.1322658    2295.8081  0.065296022  0.065404546            3 
 2931000   0.78118593   -3.1087883    2294.2827  0.065230374  0.065391078            4 
 2932000   0.78676943   -3.1309626     2291.357  0.065124972  0.065377566            5 
 2933000   0.79390036   -3.1273798    2296.7651  0.065256425   0.06536392            2 
 2934000   0.78885509    -3.140518    2292.5307  0.065113916  0.065350429            8 
 2935000   0.79068007   -3.1323015    2284.6101  0.064866839  0.065336879            6 
 2936000   0.78440574   -3.1060952    2291.6578  0.065044782  0.065323574            8 
 2937000    0.8017069   -3.1359739    2290.8037  0.064998402  0.065310063            5 
 2938000   0.76321223   -3.1284694    2299.5221  0.065223566  0.065296681            5 
 2939000    0.7547862   -3.1158854     2295.226  0.065079562  0.065283103            4 
 2940000    0.7951022   -3.1170915    2301.9288  0.065247416  0.065269673            3 
 2941000   0.78689736   -3.1098482     2294.131  0.065004278  0.065256272            4 
 2942000   0.76575193   -3.1168215    2290.3232  0.064874327  0.065242779            6 
 2943000   0.76660505   -3.1129811    2297.5836  0.065057865  0.065229315            3 
 2944000   0.77295122   -3.1486483    2291.6117  0.064866725  0.065215813            2 
 2945000   0.78253158   -3.1218348    2303.6701  0.065185911   0.06520251            5 
 2946000   0.79615058   -3.1242864    2289.5865  0.064765401  0.065189131            4 
 2947000   0.77664549   -3.1289259    2302.7313  0.065115125  0.065175667            7 
 2948000   0.78622602   -3.1219847    2293.2055  0.064823765  0.065162249            5 
 2949000   0.79272828    -3.125292    2300.6337  0.065011689    0.0651489            3 
 2950000   0.78057093   -3.1255334    2298.0045  0.064915382  0.065135503            7 
 2951000    0.7782322   -3.1358085    2299.4681  0.064934713  0.065122211            6 
 2952000   0.78161572   -3.1218119    2297.0836  0.064845404  0.065108875            4 
 2953000   0.79539656   -3.1265743    2305.8025  0.065069491  0.065095492            2 
 2954000   0.78618471   -3.1343733    2310.4501  0.065178576  0.065082043            3 
 2955000   0.80149437   -3.1169716    2302.8251  0.064941485  0.065068641            4 
 2956000   0.77997524   -3.1025913    2297.6712  0.064774222  0.065055288            2 
 2957000    0.7740026   -3.1480259    2299.8587  0.064813964  0.065042046            6 
 2958000   0.79032324   -3.1359245    2302.6514   0.06487073  0.065028726            7 
 2959000   0.76789545   -3.1187816    2304.1669  0.064891487  0.065015331            3 
 2960000   0.78141791   -3.1427642    2301.8193  0.064803472  0.065001997            4 
 2961000   0.76614121   -3.1139353    2303.6362  0.064832719  0.064988473            4 
 2962000   0.77765031   -3.1316026    2302.7963  0.064787203  0.064975053            2 
 2963000   0.79228785   -3.1083969    2300.9459  0.064713294  0.064961741            3 
 2964000   0.75866209   -3.1311758    2300.9932  0.064692792  0.064948381            6 
 2965000   0.78036525   -3.1275033    2297.1502  0.064562963  0.064934842            7 
 2966000   0.77963922   -3.1347797    2300.5842  0.064637676  0.064921298            6 
 2967000   0.77439822    -3.102918    2314.2694  0.065000265  0.064908047            3 
 2968000   0.77581001    -3.126456    2309.8939  0.064855511   0.06489488            8 
 2969000   0.77489883   -3.1404867     2304.781   0.06469016  0.064881492            8 
 2970000   0.78134619   -3.1322761    2305.3569  0.064684538  0.064868044            4 
 2971000   0.79029227    -3.111988    2303.6233   0.06461414  0.064854721            5 
 2972000    0.7775452    -3.134014    2301.3837  0.064529601  0.064841279            5 
 2973000   0.78157441   -3.1266558    2309.8895  0.064746315  0.064827902            4 
 2974000   0.76465153   -3.1279788    2301.4367   0.06448769  0.064814698            4 
 2975000   0.78035263   -3.1349287    2305.4792  0.064579248  0.064801344            2 
 2976000   0.76432923   -3.1279073    2310.2037  0.064689845  0.064787982            2 
 2977000    0.7744956   -3.1149032    2304.6318  0.064512143  0.064774614            5 
 2978000   0.77297611   -3.1227823    2308.5531  0.064600211  0.064761231            6 
 2979000   0.75942711   -3.1056357    2311.4913  0.064660716  0.064747953            5 
 2980000   0.77555755   -3.1344126    2308.4967  0.064555277   0.06473468           10 
 2981000   0.78987649   -3.1271593    2314.4866  0.064701067  0.064721349            6 
 2982000    0.7656208   -3.1135283    2315.0566  0.064695299  0.064707805            2 
 2983000   0.78121154   -3.1370573    2312.6156  0.064605418  0.064694589            3 
 2984000   0.77741371   -3.1326062      2318.62  0.064751452  0.064681351            7 
 2985000   0.76541198   -3.1420798    2311.6961  0.064536463  0.064668167            8 
 2986000   0.77160487   -3.1486953    2316.4059   0.06464629  0.064654739            5 
 2987000   0.76846882   -3.1345244    2320.1571  0.064729302  0.064641231            3 
 2988000   0.78182335   -3.1597221    2312.2027  0.064485796  0.064627824            3 
 2989000    0.7750592   -3.1161456    2308.2823  0.064354922  0.064614474            8 
 2990000   0.78063407   -3.1438882    2313.5237  0.064479479  0.064601119            6 
 2991000   0.76730181   -3.1267583    2308.7977  0.064326247  0.064587643            3 
 2992000    0.7715807   -3.1409505    2317.9564  0.064559837  0.064574045            4 
 2993000   0.78039789   -3.1255666    2318.5872  0.064555829  0.064560724            6 
 2994000   0.78944811   -3.1244929    2309.3522  0.064277226  0.064547336            4 
 2995000   0.77414134    -3.125117    2312.4975  0.064343282  0.064533872            5 
 2996000   0.78109526   -3.1289367    2318.3336  0.064484134  0.064520333            6 
 2997000   0.76820318    -3.119219    2315.8141  0.064392562  0.064507055            4 
 2998000    0.7709577    -3.128717    2308.8517  0.064177554  0.064493637            4 
 2999000   0.75865727     -3.14361    2317.6355  0.064400229  0.064480235            4 
 3000000   0.77653194    -3.120548    2312.5894  0.064238593  0.064466786            5 
 3001000   0.77598204   -3.1115806    2323.0237  0.064506934  0.064453405            4 
 3002000   0.76360132   -3.1313565    2314.3348   0.06424425  0.064439972            6 
 3003000   0.78144674   -3.1257298    2314.2088  0.064219357  0.064426573            3 
 3004000   0.75145521     -3.11995    2326.8128  0.064547626  0.064413215            4 
 3005000   0.78997074    -3.136122    2312.0094  0.064115623  0.064399826            3 
 3006000   0.76308083   -3.1381287    2320.8316  0.064338868   0.06438643            6 
 3007000   0.75781196   -3.1251811     2318.416  0.064250527  0.064373073            5 
 3008000   0.76646746   -3.1253619    2322.2452  0.064335249  0.064359774            4 
 3009000   0.76977404    -3.149849    2315.3911  0.064124047  0.064346484            7 
 3010000   0.75384997    -3.158871    2315.0399   0.06409302  0.064333089            4 
 3011000   0.77495623   -3.1405336    2318.9858  0.064180943   0.06431969            3 
 3012000   0.76099318   -3.1239867    2326.4596  0.064366412    0.0643063            6 
 3013000   0.75956599   -3.1487582    2326.6336  0.064349861  0.064292907            6 
 3014000    0.7871381    -3.146335    2326.6232  0.064328223  0.064279565            2 
 3015000   0.76603787   -3.1444943    2320.7898  0.064145656  0.064266293            4 
 3016000   0.77719414   -3.1501646    2321.0814  0.064132444   0.06425293            4 
 3017000   0.77993026   -3.1366424    2323.0233  0.064164824  0.064239648            5 
 3018000   0.77577677   -3.1507348    2318.5681  0.064020547  0.064226314            6 
 3019000   0.76617859   -3.1409375    2325.0532  0.064178348  0.064212997           10 
 3020000   0.76721595   -3.1477476    2321.2263  0.064051499  0.064199734            2 
 3021000   0.79516434    -3.174312    2325.8664  0.064158291  0.064186514            3 
 3022000   0.77803312    -3.127008    2328.1471  0.064199954  0.064173271            2 
 3023000   0.77544034   -3.1337365    2321.1745  0.063986507      0.06416            4 
 3024000   0.77932023   -3.1401329    2321.8654  0.063984387  0.064146798           13 
 3025000   0.76248632   -3.1662372    2322.8915  0.063991502  0.064133526            6 
 3026000   0.75587539   -3.1312946    2327.9947  0.064110891   0.06412033            5 
 3027000   0.76907972   -3.1456094    2324.2028  0.063985321  0.064107057            6 
 3028000   0.75980898   -3.1113831     2330.827  0.064146494  0.064093825            2 
 3029000   0.77707781   -3.1277977    2327.5825  0.064036053  0.064080472            2 
 3030000   0.76805791   -3.1671743    2319.0145  0.063779276  0.064067089            3 
 3031000      0.76269   -3.1456778    2328.1969  0.064010692  0.064053799            4 
 3032000   0.76689405   -3.1250456    2327.1397  0.063960523  0.064040598            4 
 3033000   0.76238134   -3.1408876    2328.5073  0.063977011  0.064027438           11 
 3034000   0.75764531   -3.1434801     2328.936    0.0639677   0.06401417            3 
 3035000   0.74874151   -3.1430662    2331.6264  0.064020493  0.064000979            3 
 3036000   0.76703486   -3.1222038    2327.1038  0.063875269  0.063987741            4 
 3037000   0.75947704   -3.1487843    2323.6139  0.063758477  0.063974579            5 
 3038000   0.77725923   -3.1287508    2329.0691  0.063887128  0.063961195            8 
 3039000   0.75549334   -3.1470029    2326.1071  0.063784883  0.063947741            5 
 3040000   0.76521584   -3.1807496    2320.5662  0.063612011  0.063934273            3 
 3041000   0.76787143   -3.1299282    2326.9377  0.063765693  0.063920917           10 
 3042000   0.77018876   -3.1307703    2335.2376  0.063972102  0.063907546            4 
 3043000   0.75166746   -3.1473269    2327.0892  0.063727933  0.063894239            8 
 3044000    0.7674249   -3.1438213     2330.763  0.063807573  0.063881062            3 
 3045000   0.73772136   -3.1464323    2330.3541  0.063775427   0.06386775            3 
 3046000   0.77446137    -3.149928    2333.6641  0.063845044  0.063854458            4 
 3047000   0.75253026   -3.1483987    2329.7542   0.06371716  0.063841045            2 
 3048000   0.76619247   -3.1481898    2331.1148  0.063733453  0.063827715            6 
 3049000   0.76096337   -3.1349549    2334.0173  0.063791879  0.063814441            3 
 3050000   0.74615223   -3.1479958    2334.4678  0.063783273  0.063801111            3 
 3051000   0.76868058   -3.1784243    2330.3369  0.063649537   0.06378797            4 
 3052000   0.76386003   -3.1423453    2335.3739  0.063766216  0.063774772            7 
 3053000   0.77126371   -3.1519521    2333.8973  0.063705025  0.063761538            5 
 3054000   0.78484815    -3.140419    2332.8893  0.063656661  0.063748298            4 
 3055000   0.76391846   -3.1450088    2341.0048  0.063857197  0.063735194            4 
 3056000   0.75829316   -3.1306252    2338.7377  0.063774478  0.063722058            7 
 3057000   0.74206585    -3.121935    2342.4484   0.06385477  0.063708869            5 
 3058000   0.76868133   -3.1464335    2334.0231  0.063604293  0.063695534            3 
 3059000   0.75894342   -3.1778629    2333.4959  0.063569137  0.063682207            3 
 3060000   0.76496815   -3.1593425    2332.5889  0.063523663  0.063668841            5 
 3061000    0.7615516   -3.1694866    2332.1141  0.063489983  0.063655505            4 
 3062000   0.75800568   -3.1308224    2343.2345  0.063771895  0.063642339            4 
 3063000   0.77758388   -3.1480719    2337.2254  0.063587589  0.063629087            2 
 3064000   0.75374447   -3.1358689    2329.9814  0.063369817  0.063615811            3 
 3065000   0.75464349   -3.1599388    2335.8217  0.063507931  0.063602472            3 
 3066000   0.77500386   -3.1413302    2333.4707  0.063423316  0.063589134            4 
 3067000   0.77051074   -3.1449075    2327.2143  0.063232645  0.063575849            3 
 3068000    0.7540853   -3.1422426    2332.6391  0.063359385  0.063562448            5 
 3069000   0.75465861   -3.1601387    2337.2067  0.063462764  0.063549071            2 
 3070000   0.76603881   -3.1510271    2333.3427  0.063337207  0.063535739            5 
 3071000   0.77444725   -3.1532659    2332.6756  0.063298481  0.063522302            6 
 3072000   0.74004021   -3.1480649    2329.4528  0.063190452  0.063508969            5 
 3073000   0.76172578    -3.173665    2333.0597    0.0632677  0.063495466            3 
 3074000   0.75244366   -3.1524702    2338.8711  0.063404659   0.06348192            6 
 3075000   0.76020003    -3.144414    2330.2964  0.063151665  0.063468531            4 
 3076000   0.74156358   -3.1288075    2336.5016  0.063299242  0.063455112           10 
 3077000   0.75996841   -3.1604398    2341.8225  0.063422773  0.063441731            3 
 3078000   0.75016682   -3.1771852    2337.1004  0.063274323  0.063428339            3 
 3079000   0.76846652   -3.1619748    2338.7785  0.063299192  0.063414955            9 
 3080000   0.73682284   -3.1705166    2330.1139  0.063044206  0.063401493            5 
 3081000   0.74515289     -3.13893    2343.6381  0.063389541  0.063388049            5 
 3082000   0.75126797   -3.1673846    2337.5853  0.063205312  0.063374706            4 
 3083000    0.7528511   -3.1248719    2339.8014  0.063244712  0.063361225            5 
 3084000   0.75804974    -3.149456    2339.4244  0.063214018  0.063347768            6 
 3085000   0.76769078   -3.1635687    2333.6639  0.063037924  0.063334322           13 
 3086000   0.76317298   -3.1676413    2332.9872  0.062999223  0.063320833            4 
 3087000   0.75247147   -3.1692927    2332.9625  0.062978148  0.063307342            6 
 3088000   0.75968272   -3.1653142    2342.6246  0.063218497  0.063293983            4 
 3089000   0.74585403   -3.1597607    2337.2558  0.063053194  0.063280521            5 
 3090000   0.75693936   -3.1568643    2337.6978  0.063044709  0.063267193            9 
 3091000   0.75753261   -3.1642643    2346.2694  0.063255403  0.063253845            4 
 3092000   0.75393885   -3.1523372    2342.0967  0.063122486  0.063240468            4 
 3093000   0.74519335   -3.1299613    2340.0495  0.063046919  0.063227247            6 
 3094000   0.75149045   -3.1647688    2337.4316  0.062956034  0.063213854            3 
 3095000   0.77581843    -3.141601    2348.0446  0.063221448   0.06320053            4 
 3096000   0.75739157   -3.1676375    2339.9639  0.062983524  0.063187209            4 
 3097000   0.76321704   -3.1385196      2346.97  0.063151705  0.063173801            3 
 3098000   0.75796212   -3.1544444    2343.7397   0.06304443  0.063160526            2 
 3099000   0.75854745   -3.1457624    2346.5188  0.063098817  0.063147088            6 
 3100000   0.75484667   -3.1484423     2340.047   0.06290449  0.063133639            6 
 3101000   0.75819831   -3.1473295    2351.7266  0.063198071  0.063120243            4 
 3102000   0.76819263   -3.1569187    2337.3556  0.062791628  0.063106839            3 
 3103000    0.7640443   -3.1656416    2343.4472  0.062934988  0.063093445           10 
 3104000   0.75303594   -3.1780567    2346.8757  0.063006758  0.063080006            5 
 3105000   0.75823506    -3.160039    2350.6902  0.063088842  0.063066705            4 
 3106000   0.75621018   -3.1638104    2344.9916  0.062915635  0.063053175            4 
 3107000   0.73959421   -3.1399231    2345.0565  0.062897127   0.06303989            5 
 3108000    0.7507665   -3.1668106    2345.0497  0.062876708  0.063026511            6 
 3109000   0.75798142   -3.1329866    2357.6463  0.063194121  0.063013195            3 
 3110000   0.75719761    -3.145113    2344.3503  0.062817531  0.062999868            5 
 3111000   0.76281581   -3.1597166    2358.1221   0.06316624  0.062986643            3 
 3112000   0.74737629   -3.1400012    2354.2748  0.063042919  0.062973503            5 
 3113000   0.77051881   -3.1553902    2349.0219   0.06288205    0.0629603            5 
 3114000   0.74424563   -3.1779145    2347.2345  0.062814026  0.062947009            2 
 3115000   0.75876731   -3.1665839    2351.5008  0.062907993  0.062933749            3 
 3116000    0.7419997    -3.145262    2357.5389  0.063049285   0.06292052            6 
 3117000   0.75387312   -3.1532455     2347.809  0.062768928   0.06290721            4 
 3118000   0.75000571   -3.1672813    2353.5085  0.062901126  0.062894006            3 
 3119000   0.75288101   -3.1599093    2363.9584  0.063160157  0.062880947            5 
 3120000   0.74935239   -3.1671875    2354.3729  0.062883892  0.062867708            3 
 3121000   0.74352426   -3.1548939     2352.323  0.062809008  0.062854644            4 
 3122000   0.74874664   -3.1533113    2353.6826  0.062825182  0.062841537            8 
 3123000   0.73005303    -3.158373    2352.3605  0.062769785  0.062828391            4 
 3124000    0.7577068   -3.1837117    2347.3884  0.062617062  0.062815255            3 
 3125000     0.755672   -3.1633929    2354.6437    0.0627905  0.062802125            5 
 3126000   0.73133164    -3.132723    2359.8917  0.062910313  0.062788941            4 
 3127000   0.73264074   -3.1715559    2350.9839  0.062652806   0.06277587            3 
 3128000     0.743429   -3.1535471    2355.2326  0.062745966  0.062762775            4 
 3129000   0.75675974   -3.1761533     2357.281  0.062780467  0.062749722            4 
 3130000   0.75343809   -3.1691912    2356.3738  0.062736257  0.062736752            7 
 3131000   0.74630033   -3.1563977    2352.9174  0.062624226  0.062723684            3 
 3132000    0.7554309   -3.1785515    2353.7834  0.062627273  0.062710493            3 
 3133000   0.74718931   -3.1838393    2359.0362     0.062747  0.062697389            4 
 3134000   0.74855306   -3.1730691    2364.3493  0.062868253  0.062684334            4 
 3135000   0.75912549   -3.1716803    2353.0145  0.062546903  0.062671335            3 
 3136000   0.72880463   -3.1593292     2348.023  0.062394318  0.062658232            4 
 3137000   0.76199583   -3.1655089    2368.6385  0.062922073  0.062645153            4 
 3138000   0.75825784   -3.1861573    2360.8744  0.062695836  0.062632173            3 
 3139000   0.74917312   -3.1469666    2361.7463   0.06269901  0.062619245            4 
 3140000   0.74995944   -3.1645532    2361.6791  0.062677259  0.062606304            4 
 3141000   0.74660348   -3.1544751    2348.9316  0.062319102  0.062593257            5 
 3142000    0.7453747   -3.1647151    2356.9639  0.062512305  0.062580149            7 
 3143000   0.73780925   -3.1556559    2363.4267  0.062663768  0.062567129           10 
 3144000   0.73717772   -3.1716126     2354.755   0.06241399  0.062554036            5 
 3145000   0.74126505   -3.1701663    2363.6503  0.062629844  0.062540916            8 
 3146000   0.76080947   -3.1683428    2363.6945  0.062611106  0.062527842            3 
 3147000    0.7481876   -3.1604979    2360.9115  0.062517516  0.062514819            3 
 3148000   0.74714032   -3.1631136    2362.8682  0.062549454  0.062501763            3 
 3149000   0.74230079   -3.1594807    2365.9631  0.062611494  0.062488704            7 
 3150000   0.75787934   -3.1488463    2363.2999  0.062521162  0.062475701            5 
 3151000   0.73469663   -3.1573883    2364.3719  0.062529671  0.062462626           10 
 3152000   0.75240018   -3.1769083    2360.4472  0.062406071  0.062449575            6 
 3153000   0.76241929   -3.1802011     2366.169  0.062537504  0.062436546            5 
 3154000   0.74170387    -3.178325    2367.7043  0.062558241  0.062423402            4 
 3155000   0.74229754   -3.1537662    2367.5369  0.062533991  0.062410382            3 
 3156000   0.74385482   -3.1707173    2367.5845  0.062515434  0.062397438            4 
 3157000   0.75599007    -3.168102    2361.4198  0.062332906  0.062384381            4 
 3158000   0.74739407   -3.1588864    2369.5194    0.0625269   0.06237136            2 
 3159000   0.75706802   -3.1696222    2372.5827  0.062587914  0.062358311            3 
 3160000   0.74298108   -3.1556112    2370.8235  0.062521716  0.062345399            4 
 3161000   0.76777659   -3.1803093    2374.2317  0.062591787  0.062332412            4 
 3162000   0.74473441   -3.1707732    2372.3259  0.062521767  0.062319485            3 
 3163000   0.74876262   -3.1811859    2355.6569  0.062062833  0.062306615            5 
 3164000   0.75040636   -3.1679784    2364.6032  0.062278846  0.062293491            3 
 3165000   0.73253325   -3.1668665    2369.9416  0.062399726  0.062280529            3 
 3166000   0.73955664   -3.1722046    2369.0638  0.062356913  0.062267394            3 
 3167000   0.73669961   -3.1712879     2368.787  0.062329938   0.06225445            3 
 3168000   0.72985802   -3.1839276    2366.7687  0.062257174  0.062241453            6 
 3169000   0.75189121   -3.1983249    2364.9307  0.062189194  0.062228287            6 
 3170000   0.74499902   -3.1976001    2363.2204  0.062124617  0.062215137           11 
 3171000   0.73522635   -3.1599391    2364.6829  0.062143458  0.062202054            4 
 3172000   0.73393734   -3.1883816    2372.0109  0.062316385  0.062188901            5 
 3173000   0.75764768   -3.1823237    2370.2679  0.062250969  0.062175909            4 
 3174000   0.74205325   -3.1809558    2374.5282  0.062343211    0.0621629            3 
 3175000   0.73392757   -3.1986025    2356.3692  0.061846962   0.06214978            9 
 3176000   0.74318521   -3.1926173    2367.2519  0.062113033  0.062136692            6 
 3177000   0.74389317   -3.1941472    2369.9035  0.062163033  0.062123583            3 
 3178000   0.73275758   -3.1689195    2367.8723  0.062090212  0.062110415            5 
 3179000   0.74358214   -3.1619632    2370.9466   0.06215127  0.062097327            2 
 3180000   0.72470409   -3.1867445    2372.9517   0.06218427  0.062084207            6 
 3181000   0.72721665   -3.1663193    2369.6073  0.062077107  0.062071078            2 
 3182000   0.73788648   -3.1775895    2369.7734  0.062061947   0.06205797            3 
 3183000   0.72789892   -3.1816266    2374.1055  0.062155867  0.062044877            3 
 3184000   0.73616926   -3.1819747    2366.0526  0.061925581  0.062031647            4 
 3185000   0.73710022   -3.1856045    2362.4028  0.061810645   0.06201854            3 
 3186000   0.73743574   -3.1639543    2379.4948  0.062238304  0.062005532            5 
 3187000    0.7514895   -3.1781606    2376.4005  0.062137865  0.061992575            6 
 3188000   0.74133906   -3.1690544    2379.1586   0.06219047  0.061979593            4 
 3189000   0.72977195   -3.1755075    2372.1803  0.061988615  0.061966503            5 
 3190000   0.73618812   -3.1749856    2371.3156  0.061946594   0.06195346            5 
 3191000   0.72388926   -3.1885703    2375.2428  0.062029739  0.061940359            5 
 3192000   0.73851424   -3.1780446    2375.1275  0.062007297  0.061927362            7 
 3193000    0.7597062   -3.1720803    2373.9238  0.061956461  0.061914476            4 
 3194000   0.75022547   -3.1936643    2374.0029  0.061939129   0.06190149            4 
 3195000   0.74703114   -3.1791472    2377.1562  0.062001987  0.061888439            6 
 3196000   0.73087611   -3.1743431      2374.93   0.06192454  0.061875345            3 
 3197000   0.75683133   -3.1990547    2382.3351  0.062098193  0.061862423           10 
 3198000   0.74545565   -3.1546908    2379.0967  0.061994389  0.061849451            7 
 3199000   0.74755215   -3.1939571    2378.7436  0.061965812  0.061836557            4 
 3200000   0.74794073   -3.1618475    2381.7871  0.062025706  0.061823568            5 
 3201000    0.7343365   -3.1619207     2386.687  0.062133891  0.061810683            5 
 3202000   0.72711574    -3.194686    2380.7379  0.061959658  0.061797632            4 
 3203000   0.74364355   -3.1794078    2378.9444  0.061893652  0.061784672            4 
 3204000   0.74199773   -3.2190637    2370.6281  0.061658034  0.061771501            3 
 3205000    0.7734169   -3.1879013    2380.5241  0.061896103  0.061758475            5 
 3206000   0.74457925   -3.1717873    2382.9988  0.061941122  0.061745519            3 
 3207000   0.74419391   -3.1774653    2370.1686  0.061588417  0.061732626            8 
 3208000   0.73344953   -3.1833042    2387.5053  0.062019567  0.061719716            5 
 3209000   0.73271849    -3.197626    2372.4381  0.061608967  0.061706844            3 
 3210000   0.74212922   -3.1760518    2382.5712  0.061852834  0.061693872            3 
 3211000   0.72750518   -3.1846858     2380.354  0.061776029  0.061680924            4 
 3212000   0.74422624   -3.1886544    2379.7453  0.061741006  0.061668088            2 
 3213000   0.73258459   -3.1598155    2385.4836  0.061870621  0.061655274            4 
 3214000   0.73733022   -3.1899277    2378.3631  0.061666746  0.061642478            4 
 3215000   0.73216299   -3.1950026    2386.4292   0.06185664  0.061629647            8 
 3216000   0.73932608   -3.1694406    2385.7734  0.061820413  0.061616786            2 
 3217000   0.73418663   -3.1878798    2383.2389  0.061735543  0.061603924            5 
 3218000   0.75146005   -3.1793834    2386.2848  0.061795234  0.061591098            4 
 3219000   0.74803197   -3.1972285    2376.8834  0.061532656  0.061578287            6 
 3220000   0.72339416   -3.1869872    2385.5771  0.061738538  0.061565444            3 
 3221000    0.7458538   -3.1851105    2383.1572  0.061656762  0.061552607            7 
 3222000   0.72906411   -3.1861862    2389.7146  0.061807227  0.061539842           11 
 3223000   0.75181682   -3.1851688    2387.0621  0.061719466   0.06152706            8 
 3224000   0.75279354   -3.2066587    2381.0659  0.061545334  0.061514205            6 
 3225000   0.74410796   -3.2230138    2379.1426  0.061476553  0.061501352            5 
 3226000   0.73246853    -3.192678    2386.9747  0.061659814  0.061488626            5 
 3227000   0.74173665    -3.193339    2390.5309   0.06173254  0.061475885            6 
 3228000   0.75210875   -3.1842121    2390.6404  0.061716244  0.061463219            2 
 3229000   0.75096184   -3.1685459    2392.4208  0.061743079  0.061450557            5 
 3230000    0.7299209   -3.1703173     2404.824  0.062043962  0.061437963            4 
 3231000   0.73717595   -3.2050825    2387.0727  0.061566921  0.061425349            3 
 3232000   0.74173257   -3.1773857    2396.4777  0.061790369  0.061412627            5 
 3233000    0.7232389   -3.1701446    2389.1155  0.061581491  0.061399902            8 
 3234000   0.73952583   -3.1631584     2390.139  0.061588822  0.061387225            7 
 3235000   0.72109505   -3.1990893    2386.5453   0.06147721  0.061374401            4 
 3236000   0.74555145   -3.1983006    2395.6228  0.061691975  0.061361733            4 
 3237000   0.74661415   -3.1880661    2392.9366  0.061603763  0.061348981            4 
 3238000   0.73970213   -3.1965284     2382.577  0.061318123  0.061336208            2 
 3239000    0.7487651   -3.1846987    2397.6514  0.061687027   0.06132345            4 
 3240000   0.73344213   -3.2013989    2390.4057  0.061481629  0.061310592            5 
 3241000   0.74487051   -3.1916189    2389.1319  0.061429905  0.061297833            5 
 3242000   0.74512278   -3.2040195    2387.9897  0.061381599  0.061285047            5 
 3243000   0.72092662   -3.2020112    2393.0256  0.061492075   0.06127236            3 
 3244000   0.72371618   -3.2017711    2396.6811  0.061567025  0.061259521            5 
 3245000   0.73669911   -3.2031068    2393.4005  0.061463802  0.061246851            5 
 3246000   0.72175222   -3.1899635    2382.2867  0.061159548  0.061234073            4 
 3247000   0.73642133   -3.1781886    2393.5571  0.061429962   0.06122144            5 
 3248000   0.73008842   -3.1946143    2399.5844  0.061565691  0.061208705            7 
 3249000   0.73834275    -3.207575    2392.9364  0.061376229  0.061196082            3 
 3250000   0.73064424   -3.2184853    2387.0996  0.061207682  0.061183329            5 
 3251000    0.7243243    -3.195107    2392.4671  0.061326441  0.061170572            7 
 3252000   0.72964496   -3.1872419    2398.8159  0.061470273  0.061157928            5 
 3253000   0.74351433   -3.1776025    2395.1057   0.06135633  0.061145215            3 
 3254000   0.72112383    -3.228171    2401.1855  0.061493174  0.061132541            4 
 3255000   0.72970776   -3.1873037    2401.4747  0.061481688  0.061119795            2 
 3256000   0.72958236    -3.190821    2399.1053  0.061402163  0.061107173            5 
 3257000   0.71322543   -3.2043443    2401.4626  0.061443625   0.06109462            5 
 3258000   0.73916988   -3.1845694    2396.6311  0.061301185  0.061082116            8 
 3259000   0.72130381   -3.1971751     2400.627  0.061384549  0.061069477            4 
 3260000   0.73004811   -3.2008863    2406.9547  0.061527473  0.061056948            3 
 3261000   0.71642835   -3.2049089    2403.7984  0.061427946  0.061044497            4 
 3262000   0.73647297    -3.209803    2403.6153  0.061404439  0.061031907            3 
 3263000   0.74375188   -3.2018703    2407.6484   0.06148862  0.061019426            4 
 3264000   0.73046476   -3.1930955    2404.0366  0.061377568  0.061006896           11 
 3265000   0.72151706   -3.1744242    2402.2259  0.061312556  0.060994489            3 
 3266000   0.72700165   -3.2015184    2400.9316  0.061260756  0.060982137            8 
 3267000   0.72811213   -3.1888435    2403.5452  0.061308672  0.060969564            7 
 3268000   0.73606101   -3.2003495    2399.3473  0.061182866  0.060957076            6 
 3269000   0.72855232   -3.1883056    2400.4378   0.06119195   0.06094461            6 
 3270000   0.72768712   -3.1955365    2405.9512  0.061313742  0.060932312            5 
 3271000   0.72385995   -3.1923249    2402.0418  0.061195399  0.060919839            6 
 3272000    0.7270767   -3.2114346    2409.7761  0.061373679  0.060907347            6 
 3273000   0.72283985   -3.2075994    2410.1685  0.061364918   0.06089491            6 
 3274000   0.72938624   -3.1932754    2406.9973  0.061265458  0.060882471            6 
 3275000   0.72097136   -3.1995808    2414.7486  0.061443984   0.06086998            6 
 3276000   0.72900778   -3.1983779    2409.7125  0.061297124  0.060857489           10 
 3277000   0.70822721   -3.2220405    2412.9734  0.061361341  0.060845021            3 
 3278000   0.73423439   -3.1965161      2406.46  0.061177038  0.060832513            3 
 3279000   0.70287244   -3.2077483    2413.8267  0.061345602  0.060820198            5 
 3280000   0.72174409   -3.1952146    2410.8442  0.061251124  0.060807791            5 
 3281000   0.73047821    -3.216991    2406.6499  0.061125925  0.060795448            8 
 3282000   0.70795932   -3.2085135    2408.2138  0.061147009  0.060782937            4 
 3283000   0.73526876   -3.2162936    2416.6084  0.061341467  0.060770526            5 
 3284000   0.71776234   -3.1932939    2413.1379  0.061234723  0.060758206            7 
 3285000   0.73546692   -3.1950497    2413.5039  0.061225364  0.060745925            6 
 3286000   0.73839094    -3.189535    2407.6507  0.061058295  0.060733564            3 
 3287000   0.73186867   -3.2040351    2409.5976  0.061089078  0.060721208            9 
 3288000   0.71387523   -3.2068281    2414.2616  0.061188707  0.060708838            4 
 3289000   0.73312843   -3.2174222    2406.6803  0.060978016  0.060696425            6 
 3290000   0.71969256   -3.2162488    2415.6844  0.061187548  0.060683959            4 
 3291000   0.73498588   -3.2146858    2410.4022  0.061035202  0.060671566            4 
 3292000   0.73905517   -3.2026029    2410.9836  0.061031379  0.060659136            7 
 3293000   0.73500878   -3.1810164    2407.3046  0.060919744  0.060646649            3 
 3294000   0.72935906   -3.2233897    2405.0175  0.060843391  0.060634138            4 
 3295000   0.70844118   -3.1988308    2416.7878  0.061122604  0.060621697            4 
 3296000   0.73504783   -3.1898812    2413.8157  0.061028917  0.060609307            5 
 3297000   0.72693866   -3.2078599    2415.4884  0.061052684  0.060596912            5 
 3298000   0.71399868   -3.1956618    2409.7105  0.060888177  0.060584566            3 
 3299000   0.73379046   -3.2039016    2414.8305  0.060999053  0.060572279            3 
 3300000   0.71272916   -3.2022322    2409.8652  0.060855181  0.060559915            6 
 3301000   0.70986905   -3.2084785    2418.1059  0.061044782  0.060547547            7 
 3302000   0.71777211   -3.2335398     2412.061  0.060873737  0.060535106            3 
 3303000   0.71960082   -3.1944324    2417.5401  0.060993544  0.060522667            3 
 3304000   0.71383534   -3.2099525    2415.4413  0.060922148  0.060510324            6 
 3305000   0.73154077   -3.2178838    2410.7673  0.060785863  0.060497967            4 
 3306000   0.73620628   -3.2364867    2410.6568  0.060764691  0.060485583            6 
 3307000   0.72935398   -3.2060436    2416.9882  0.060905863  0.060473265            8 
 3308000   0.72872675   -3.2052239    2416.1325  0.060865894  0.060460962            3 
 3309000    0.7148172   -3.2144943    2422.1103  0.060998042  0.060448683            4 
 3310000   0.72154914   -3.1986175     2419.498  0.060913847  0.060436439            7 
 3311000    0.7219844    -3.210908    2412.8435  0.060727964   0.06042423            4 
 3312000   0.73125039   -3.1782954    2421.8069  0.060935157  0.060412022            9 
 3313000   0.70572947   -3.2160934    2417.8165  0.060816391  0.060399691            5 
 3314000   0.73420893   -3.2055636    2418.3571  0.060811635  0.060387487            2 
 3315000   0.70419823    -3.210925    2424.2932  0.060942515  0.060375141           14 
 3316000   0.72309984   -3.1968233     2427.553  0.061006056  0.060362891            3 
 3317000   0.71817342   -3.1986267    2417.1352  0.060725938  0.060350709            5 
 3318000   0.72712978   -3.2095051    2419.2757  0.060761395  0.060338431            4 
 3319000   0.72585304   -3.1955543    2419.8326  0.060757069   0.06032616            4 
 3320000    0.7179882   -3.2119648    2422.2548  0.060799568  0.060313958            6 
 3321000   0.72646878   -3.1942081    2418.8283  0.060695279  0.060301748            4 
 3322000   0.70463134    -3.203565    2425.9431  0.060855487  0.060289581            5 
 3323000   0.72236869   -3.2197607    2419.0407  0.060664077  0.060277347            2 
 3324000      0.70769   -3.1762475    2427.4869  0.060857573  0.060265129            4 
 3325000   0.70596669   -3.2130709    2420.1711  0.060655917  0.060252884            4 
 3326000   0.72094154   -3.1927225    2425.3813  0.060768223  0.060240663            8 
 3327000   0.70954425   -3.2221092    2427.0016  0.060790541  0.060228413            7 
 3328000   0.72418238   -3.2196824    2421.9107    0.0606448  0.060216147            6 
 3329000   0.71682262   -3.2312252    2419.3999   0.06056373  0.060203901            5 
 3330000   0.71541636   -3.1995747    2426.6345  0.060726589   0.06019168            7 
 3331000    0.7119083    -3.232659    2421.6353   0.06058329  0.060179424            3 
 3332000    0.7096252   -3.2127637    2427.8668  0.060720957  0.060167161            4 
 3333000   0.73796463   -3.1940822    2421.7943  0.060550912  0.060155095           10 
 3334000    0.7185331   -3.2092376    2424.7644  0.060606989  0.060142799            6 
 3335000   0.70646076   -3.2224239    2428.1374  0.060673099  0.060130493            3 
 3336000   0.71533198   -3.2165924     2422.929  0.060524805  0.060118279            4 
 3337000   0.71323107   -3.2035181    2425.5726  0.060572686  0.060106046            4 
 3338000   0.72020192   -3.2130425    2433.5528  0.060753764  0.060093783            5 
 3339000   0.71164217   -3.2192904    2423.6154  0.060487555  0.060081592            5 
 3340000   0.70960235   -3.2351454     2420.197  0.060384156   0.06006922            8 
 3341000   0.70275873   -3.1877236    2432.9308  0.060683698  0.060056995            5 
 3342000   0.73184621    -3.222869    2428.5958  0.060557447   0.06004479            4 
 3343000   0.70360352   -3.2248538    2428.2971  0.060531885  0.060032639            2 
 3344000   0.70541471   -3.2370503    2428.2251  0.060511989  0.060020414            3 
 3345000   0.70538197   -3.2367864    2426.3536  0.060447274  0.060008032           11 
 3346000   0.71560308   -3.2171766    2433.1382  0.060598181  0.059995836            9 
 3347000   0.70145728   -3.2321853    2432.3731  0.060561028  0.059983611           11 
 3348000   0.71906909   -3.1988979    2435.1953  0.060613184  0.059971392            3 
 3349000   0.71608987   -3.2203976    2433.8329  0.060561184  0.059959189            2 
 3350000   0.72257146   -3.2544715    2417.6293  0.060140033  0.059946949           10 
 3351000   0.71373914   -3.2161198    2431.5586  0.060468483  0.059934786            9 
 3352000   0.72355105   -3.2012816    2432.5542  0.060475194   0.05992274           12 
 3353000   0.73162669   -3.2063499    2425.0842  0.060271502  0.059910647            8 
 3354000     0.723264   -3.2237136    2429.7828  0.060370274  0.059898664            4 
 3355000   0.71198516   -3.2065663    2429.9377  0.060356127  0.059886516            4 
 3356000   0.72449132    -3.201766    2432.1393  0.060392811  0.059874425            6 
 3357000   0.70947818   -3.2464903    2434.5763  0.060435316  0.059862268            4 
 3358000   0.72091585   -3.2323104    2427.6794  0.060246164   0.05985013           14 
 3359000    0.7137027   -3.2426517    2429.0814  0.060263009  0.059837916            7 
 3360000   0.72435473   -3.2074534    2440.2778  0.060522763  0.059825813            3 
 3361000   0.70520096    -3.210468    2429.3704  0.060234316  0.059813713            6 
 3362000   0.71663825    -3.239561    2441.2926  0.060511913  0.059801635           15 
 3363000   0.71729506   -3.2256037    2437.3124  0.060395291  0.059789506            5 
 3364000   0.72171227   -3.2016635    2431.2997  0.060228392  0.059777526           15 
 3365000   0.69555007   -3.2062164    2443.8084  0.060520268  0.059765422            4 
 3366000   0.71286815   -3.2415349    2438.8194  0.060378773  0.059753409            6 
 3367000   0.69848253   -3.2330107    2435.1419  0.060269821  0.059741231            4 
 3368000   0.71682122   -3.2109968    2437.6173  0.060313176  0.059729262            5 
 3369000   0.71243641   -3.2093503    2434.6475  0.060221815  0.059717222            7 
 3370000   0.71156825   -3.2197035    2439.5733  0.060325748  0.059705183            3 
 3371000   0.70514029   -3.2064871    2441.8606  0.060364398  0.059693141            5 
 3372000    0.7021068   -3.2179188    2439.0929  0.060278097   0.05968111            4 
 3373000   0.71305194   -3.2125755    2435.7747  0.060178248  0.059669003            5 
 3374000   0.71600853   -3.2187382    2441.5677  0.060303491  0.059656976           10 
 3375000   0.73746915   -3.2148187    2441.6056  0.060286558  0.059644838            3 
 3376000   0.70477482   -3.2502602    2432.0252  0.060032217  0.059632759            5 
 3377000   0.72248084   -3.2493852    2440.3832  0.060220689  0.059620539            3 
 3378000   0.72506207   -3.2187166    2433.7821  0.060040017  0.059608443            8 
 3379000   0.71638181   -3.2204193    2428.8164  0.059899784  0.059596312            6 
 3380000   0.71117865   -3.2258873    2432.0852  0.059962654  0.059584275            4 
 3381000   0.72004068   -3.2351057    2439.4345  0.060126061  0.059572171            9 
 3382000   0.71423865   -3.2320011     2441.753   0.06016541  0.059560069            4 
 3383000   0.70825519   -3.1916382    2437.3874  0.060040087  0.059547956            3 
 3384000    0.6941895   -3.1939787     2440.497  0.060098921  0.059535936            7 
 3385000   0.70911564   -3.2131295    2438.7366  0.060037828  0.059523958            4 
 3386000   0.69573225   -3.2261217    2440.9163  0.060073743  0.059511948            3 
 3387000   0.69711426   -3.2206396    2443.7751  0.060126343  0.059499792            6 
 3388000   0.69846271   -3.2308637    2439.1902  0.059995823  0.059487715            3 
 3389000   0.69809381   -3.2286113    2439.3775  0.059982726  0.059475724            9 
 3390000    0.7055409   -3.2320632    2443.6366   0.06006973  0.059463746            4 
 3391000   0.70113839   -3.2250064    2451.0845  0.060235047  0.059451775            4 
 3392000   0.73171249   -3.2093747     2444.646  0.060059109  0.059439739            2 
 3393000   0.71776601   -3.2181491    2441.4183  0.059962135  0.059427739            7 
 3394000   0.69983147   -3.2497409    2440.1376  0.059913023  0.059415734            3 
 3395000   0.70094526   -3.2301773    2442.0664   0.05994272  0.059403648            2 
 3396000   0.70042778   -3.2370879    2441.9907  0.059923211  0.059391639            5 
 3397000   0.71426792   -3.2324795    2448.7942  0.060072471  0.059379546            4 
 3398000   0.70687467    -3.240844    2443.3476  0.059921219  0.059367428            8 
 3399000    0.7031043   -3.2198211    2449.0198  0.060042654  0.059355472            6 
 3400000   0.69461917   -3.2106813    2439.2787  0.059786243  0.059343438            5 
 3401000   0.68515568   -3.2118159    2442.9517  0.059858661  0.059331416            5 
 3402000   0.70206497    -3.236133    2441.8955  0.059815195  0.059319371            5 
 3403000    0.6971375   -3.2094518    2453.3354  0.060077759  0.059307328            5 
 3404000   0.70578929   -3.2283077    2451.5122  0.060015478  0.059295332            3 
 3405000   0.68917274   -3.2453501    2444.6486  0.059829872  0.059283359           17 
 3406000   0.71089584   -3.2245479    2452.5543  0.060005733  0.059271386            8 
 3407000   0.71323902   -3.2381796     2443.205  0.059759442  0.059259434            7 
 3408000   0.70602318   -3.2354836    2444.9009  0.059783375  0.059247481           12 
 3409000   0.71776514   -3.2162839    2449.0158  0.059866426  0.059235594            7 
 3410000   0.70208259   -3.2413716    2449.7579  0.059867007  0.059223561            8 
 3411000   0.70735825   -3.2462915    2451.0442  0.059880881  0.059211603            5 
 3412000   0.69587232   -3.2368031    2446.4134  0.059750229  0.059199704            7 
 3413000   0.70312419   -3.2300266    2452.9203  0.059891598  0.059187742            5 
 3414000   0.70476423   -3.2622992    2454.1098  0.059903091  0.059175828            7 
 3415000   0.70550872    -3.244741    2446.1585  0.059691519  0.059163883           10 
 3416000   0.71195414   -3.2178341     2445.859   0.05966674  0.059151934            5 
 3417000    0.7062464   -3.2405361    2448.6974    0.0597185  0.059139873            4 
 3418000   0.69869302    -3.248082    2447.0204  0.059660143  0.059127924            4 
 3419000   0.71263681   -3.2259905     2450.111  0.059718023  0.059115938            5 
 3420000   0.70566312   -3.2208601    2445.9769  0.059599826  0.059103951            3 
 3421000   0.70190851   -3.2450631    2448.7605  0.059650212   0.05909204           11 
 3422000   0.69738521   -3.2586681    2446.0755  0.059567395  0.059080018            7 
 3423000   0.68975658   -3.2305146    2445.6321  0.059539199  0.059068057            9 
 3424000   0.69301978   -3.2491824    2453.6595  0.059717179  0.059056203            4 
 3425000   0.71333938   -3.2209395    2457.4879  0.059792893  0.059044271            4 
 3426000   0.70404333   -3.2385601    2456.3768  0.059748414  0.059032416            7 
 3427000   0.69691083    -3.241423     2454.914   0.05969541   0.05902054            2 
 3428000   0.70773275   -3.2386498    2449.1923  0.059538904  0.059008649            3 
 3429000   0.69500023   -3.2443903    2460.2135  0.059789382  0.058996778            6 
 3430000   0.69948566   -3.2460905    2455.2904  0.059652342  0.058984932            4 
 3431000   0.70916817      -3.2296    2455.5825  0.059642051  0.058973026            4 
 3432000   0.70425203   -3.2276068    2456.4663  0.059646132  0.058961168            3 
 3433000   0.68875942   -3.2370017    2456.7834  0.059636455  0.058949184            6 
 3434000   0.69914795   -3.2413934    2445.6714  0.059349433  0.058937134            6 
 3435000   0.69971205   -3.2140664    2457.4435  0.059617747  0.058925145            6 
 3436000   0.70233581   -3.2430867    2457.4291  0.059600046  0.058913221            4 
 3437000   0.69631893   -3.2381546    2453.2129  0.059480479  0.058901121            7 
 3438000   0.70262538   -3.2546341    2451.3327  0.059417605  0.058889078            3 
 3439000   0.70950274   -3.2512861    2448.5635  0.059333224  0.058877084           12 
 3440000   0.69736784   -3.2555073    2450.3125  0.059358345  0.058864952            7 
 3441000   0.68662138     -3.25538    2451.7968  0.059377041  0.058852927            6 
 3442000   0.71098058   -3.2277601    2454.2038  0.059418066  0.058840922            5 
 3443000   0.70437348   -3.2566714    2453.4004  0.059381364  0.058828957            8 
 3444000   0.69171746   -3.2483783    2454.6911  0.059395351  0.058816916            4 
 3445000   0.70647125    -3.228364    2462.1816  0.059559303  0.058804916            4 
 3446000   0.70281709   -3.2338671     2460.011  0.059489529  0.058793035            2 
 3447000   0.70990242   -3.2574878    2451.8217  0.059274289  0.058781109            8 
 3448000   0.69749989   -3.2598134    2456.2935  0.059365176  0.058768989            5 
 3449000   0.70218131   -3.2294394      2465.03  0.059559051  0.058756993            8 
 3450000   0.70300672   -3.2353025    2450.0074  0.059178923  0.058744938            6 
 3451000   0.70584025   -3.2208664    2452.3712  0.059218853  0.058732871            5 
 3452000   0.70598809    -3.226565    2459.4871  0.059373481  0.058720836            3 
 3453000   0.69531718   -3.2541029    2458.2093   0.05932545  0.058708788           12 
 3454000   0.71246054    -3.265168    2456.9147  0.059277038  0.058696806            9 
 3455000    0.7017814   -3.2431761    2453.8346  0.059185591  0.058684736            7 
 3456000   0.70381679   -3.2298153    2452.8647  0.059145079  0.058672612            5 
 3457000   0.69863919   -3.2405898    2460.3195  0.059307672  0.058660472            5 
 3458000   0.70505071   -3.2568571    2457.3793  0.059219667  0.058648283            4 
 3459000   0.70812129   -3.2182142    2461.2782  0.059296477  0.058636291            5 
 3460000    0.7024328   -3.2570035    2460.2627  0.059254881  0.058624248            5 
 3461000   0.70763837   -3.2633358    2457.8408  0.059179447  0.058612211            5 
 3462000   0.68629987   -3.2562077     2454.948  0.059092721  0.058600191            8 
 3463000   0.69162463   -3.2463478    2460.3373  0.059205345  0.058588211            4 
 3464000   0.69505071   -3.2363317    2458.6416  0.059147459  0.058576254            5 
 3465000   0.68490419   -3.2428005    2465.0441  0.059284371  0.058564169            4 
 3466000   0.70714311   -3.2685441    2456.9757  0.059073276   0.05855207            4 
 3467000   0.69600653   -3.2512645    2454.4323  0.058995103  0.058539996            7 
 3468000   0.70972854   -3.2485643     2462.568  0.059173588  0.058528035            9 
 3469000   0.69359579   -3.2467514    2461.1273   0.05912192  0.058516009            4 
 3470000   0.70301676   -3.2508204    2466.1131  0.059224619  0.058504056            7 
 3471000   0.70224218   -3.2397928    2453.2635  0.058899055  0.058492055            6 
 3472000    0.7011902   -3.2523733    2460.0704  0.059045468  0.058480048            4 
 3473000    0.6929546   -3.2261898    2459.7261  0.059020206  0.058468008            4 
 3474000   0.69378877   -3.2607131    2453.5302  0.058854592  0.058456073            5 
 3475000   0.69432828   -3.2351037    2459.1822  0.058973194   0.05844408            3 
 3476000   0.68956026   -3.2229335    2460.2432  0.058981665  0.058432065            5 
 3477000     0.706765   -3.2395352     2460.654  0.058974548  0.058420076            7 
 3478000   0.69238166   -3.2483695    2465.2129  0.059066822  0.058408045            6 
 3479000   0.69853101   -3.2304283    2470.5598   0.05917792  0.058396065            3 
 3480000   0.70770194   -3.2601039    2465.6718  0.059043864  0.058384046            5 
 3481000   0.68065877   -3.2467011    2465.9497  0.059033557   0.05837204           10 
 3482000    0.6924448   -3.2288246    2453.8686   0.05872747  0.058360099            7 
 3483000   0.69235044   -3.2352818    2468.4039  0.059058377  0.058348171            9 
 3484000   0.71511622   -3.2527662    2469.0652  0.059057244   0.05833617            4 
 3485000   0.65839376   -3.2574018    2463.0644  0.058896806  0.058324225            9 
 3486000    0.6858193   -3.2568297    2462.5853  0.058868458   0.05831216            6 
 3487000   0.68827727   -3.2550783    2465.6571  0.058924985  0.058300157            4 
 3488000   0.69654153   -3.2396369    2460.5397   0.05878583  0.058288063            8 
 3489000   0.70666748   -3.2468322    2460.3077  0.058763441  0.058275993            5 
 3490000    0.6972557   -3.2381164    2462.8171   0.05880652  0.058263948            7 
 3491000   0.68335727   -3.2426126    2460.5668  0.058735959  0.058251971            6 
 3492000   0.69231238   -3.2447802    2463.8408  0.058797269  0.058240008            5 
 3493000   0.69360569   -3.2437748    2460.3485   0.05869712  0.058228006            5 
 3494000   0.69681576   -3.2760689     2463.771  0.058761948  0.058215916           11 
 3495000   0.70276596    -3.251654    2465.4609  0.058785429  0.058203825            3 
 3496000   0.67659619   -3.2461568    2461.9188  0.058684183  0.058191839            7 
 3497000   0.70524512   -3.2244583    2463.1699  0.058697215  0.058179801            3 
 3498000   0.68990958   -3.2525176    2465.2565  0.058730143  0.058167838            3 
 3499000   0.69414442   -3.2765627    2461.3172  0.058619538  0.058155785            5 
 3500000   0.68259016   -3.2600728    2465.8142  0.058709862  0.058143661            3 
 3501000   0.69436803   -3.2628527    2468.0142  0.058745457   0.05813162            4 
 3502000   0.69228396   -3.2398966    2462.4187  0.058595535  0.058119596            4 
 3503000   0.69300756   -3.2526224    2464.8407  0.058636423  0.058107514            5 
 3504000   0.68967922   -3.2736608    2463.2745  0.058582442  0.058095359           15 
 3505000   0.70431949   -3.2806638    2463.4605   0.05857015  0.058083206            6 
 3506000   0.67996004   -3.2551029     2467.044  0.058638619  0.058071175            3 
 3507000   0.68618613   -3.2469464    2467.1443  0.058624282  0.058059172            8 
 3508000   0.68962841   -3.2652799    2463.2863  0.058515924  0.058047126            3 
 3509000    0.6966785   -3.2465427    2463.4796  0.058503837   0.05803511           10 
 3510000   0.67972348   -3.2423763     2467.257  0.058576852  0.058023097            5 
 3511000   0.68702055   -3.2489265    2471.7238  0.058666188  0.058010938            4 
 3512000   0.67953475   -3.2376414     2469.994  0.058608438  0.057998777            9 
 3513000    0.6981539   -3.2439411    2466.4881  0.058508589  0.057986613            7 
 3514000   0.68972932   -3.2420221    2464.0647  0.058434469  0.057974437            5 
 3515000   0.69503362   -3.2597204    2461.1787  0.058349423  0.057962295            5 
 3516000   0.68473226   -3.2708321    2465.4956  0.058435145  0.057950157            6 
 3517000   0.67922959   -3.2522702    2472.5608  0.058585934  0.057938114            4 
 3518000   0.69901396   -3.2583216    2469.1363  0.058488164  0.057926131            2 
 3519000   0.68669536    -3.232622    2475.4424  0.058620877  0.057914184           12 
 3520000   0.69532844   -3.2675612     2469.276  0.058458238  0.057902079            7 
 3521000   0.68932912   -3.2535448     2467.813   0.05840701  0.057889872            4 
 3522000   0.68584874   -3.2778658    2455.0009  0.058087283  0.057877589           19 
 3523000    0.6851717   -3.2834371    2463.7116  0.058276837  0.057865359            7 
 3524000   0.69038215   -3.2877667    2467.0081  0.058338255  0.057853161            5 
 3525000   0.70096868   -3.2553812    2467.5602  0.058334756  0.057840902            4 
 3526000   0.70056323   -3.2643563    2473.5539  0.058459866   0.05782876           10 
 3527000    0.6804494   -3.2516083    2473.4619  0.058441119  0.057816674            7 
 3528000   0.68128139   -3.2618293    2473.6408  0.058428779   0.05780463            4 
 3529000   0.67796262   -3.2629615    2468.4557  0.058289783  0.057792462            4 
 3530000   0.68346189   -3.2496592    2464.4647  0.058179052  0.057780288            2 
 3531000   0.68371286   -3.2757467    2467.0025   0.05822247  0.057768212            6 
 3532000   0.66827148   -3.2514033    2472.6284  0.058338723  0.057756205            4 
 3533000   0.67507955   -3.2586141    2477.0882  0.058427403  0.057744188            6 
 3534000   0.69973752   -3.2723279    2467.7764  0.058191294  0.057732087            5 
 3535000   0.70736526   -3.2823702    2468.7165  0.058196995  0.057719965            6 
 3536000   0.68714289   -3.2538038    2480.6095  0.058460819  0.057707868            5 
 3537000    0.6717188    -3.258892    2467.8182  0.058142921  0.057695844            4 
 3538000   0.68286895   -3.2593407    2474.2249  0.058277391  0.057683822            4 
 3539000    0.6776499   -3.2567998    2472.2142  0.058213578  0.057671814            3 
 3540000    0.6844273   -3.2514339    2471.0131  0.058168858  0.057659841            5 
 3541000   0.66929444   -3.2755776    2473.5317  0.058211703  0.057647748           17 
 3542000   0.67829954   -3.2858125    2471.7787  0.058154026   0.05763557            5 
 3543000   0.68046014   -3.2467561    2471.4935  0.058130903   0.05762342            6 
 3544000   0.68837936   -3.2736328    2468.1246  0.058035284  0.057611207            7 
 3545000   0.68145552   -3.2953333     2470.561  0.058076186   0.05759902            8 
 3546000   0.68992538   -3.2611317    2472.7245  0.058110653  0.057586951           12 
 3547000   0.67134681   -3.2663472    2468.3834  0.057992279  0.057574861            4 
 3548000   0.68932729   -3.2688232    2479.0245  0.058225866  0.057562825            8 
 3549000   0.70488421    -3.252347    2475.5454  0.058127769  0.057550765            7 
 3550000   0.67423095   -3.2875471    2466.8705  0.057907759  0.057538636            9 
 3551000   0.67799887   -3.2664109    2476.5892  0.058119525  0.057526491            5 
 3552000    0.6783714   -3.2717344    2481.5971  0.058220652  0.057514428            5 
 3553000   0.69258424    -3.280903    2475.1141  0.058052213  0.057502405            7 
 3554000   0.68883273   -3.2701769    2476.5303  0.058069085  0.057490372            8 
 3555000   0.69446369   -3.2780554     2482.391  0.058190132  0.057478405           10 
 3556000   0.67766675   -3.2681971    2481.5081  0.058153077  0.057466479            4 
 3557000   0.68198255   -3.2596694    2476.4346  0.058017867  0.057454473            4 
 3558000   0.69333801   -3.2752413    2472.6212  0.057912245  0.057442412            3 
 3559000   0.66352262   -3.2602831    2475.5404  0.057964326  0.057430376           11 
 3560000   0.68822047   -3.2967359    2476.4339  0.057968959  0.057418341            5 
 3561000   0.67817916   -3.2735534    2487.2289    0.0582053  0.057406429           10 
 3562000   0.66617627   -3.2771213     2479.468  0.058007393  0.057394432            8 
 3563000   0.68116657   -3.2741313     2481.632  0.058041725  0.057382442            8 
 3564000   0.66580785   -3.2791387    2475.0215  0.057870873  0.057370425            7 
 3565000   0.67230956   -3.2545948    2477.9098  0.057922156  0.057358498            4 
 3566000   0.68957244   -3.2786551    2476.7199  0.057878105  0.057346598            4 
 3567000   0.66758248   -3.2522521    2472.8535  0.057771551  0.057334621            8 
 3568000   0.67219127   -3.2669147    2476.5827   0.05784246   0.05732275            5 
 3569000   0.69415942   -3.2621154    2479.8027  0.057901435  0.057310938            3 
 3570000   0.69876911   -3.2767901    2483.7308   0.05797691  0.057298978           11 
 3571000   0.67488681   -3.2672265    2480.1205  0.057876423  0.057286991            9 
 3572000   0.67213948   -3.2697108    2477.3113  0.057794683  0.057275076            4 
 3573000   0.69009217   -3.2641206    2480.0058  0.057841353  0.057263173            4 
 3574000   0.67542097   -3.2752363    2481.0025  0.057848408  0.057251325            8 
 3575000   0.66650293   -3.2416264    2496.3077   0.05818899  0.057239511            5 
 3576000    0.6705186   -3.2581191    2487.9641  0.057978283   0.05722768            4 
 3577000   0.68289338   -3.2702392    2480.0334  0.057777314  0.057215723            2 
 3578000   0.68573439   -3.3024469    2484.8768  0.057873971  0.057203792            7 
 3579000   0.68301925   -3.2814728    2488.3315  0.057938239   0.05719189            4 
 3580000   0.68142674   -3.2723787     2480.203  0.057732845  0.057179851            3 
 3581000   0.68877718   -3.2798326    2475.3656  0.057604152  0.057167965            4 
 3582000   0.68925425   -3.2732835    2476.3838  0.057611758  0.057156023            7 
 3583000   0.68015043   -3.2968964    2484.0948  0.057775021  0.057144071            4 
 3584000   0.65858696   -3.2609741     2483.516  0.057745443  0.057132099            4 
 3585000   0.67876215   -3.2926668    2487.0846  0.057812286  0.057120273            6 
 3586000   0.66656373   -3.2975681    2481.5789  0.057668222  0.057108312           18 
 3587000   0.66041272   -3.2739418    2481.4143   0.05764832  0.057096468            5 
 3588000   0.67751872    -3.245295    2491.5215  0.057866999  0.057084546            4 
 3589000   0.68753746   -3.2614947    2487.5992  0.057759804  0.057072768            3 
 3590000   0.69008252   -3.2658172     2482.754  0.057631243  0.057060924            5 
 3591000   0.68801281   -3.2757669    2485.8959  0.057688107  0.057049142            3 
 3592000   0.67271541   -3.3018375    2487.0605  0.057699066  0.057037271            5 
 3593000   0.68402294   -3.2667564    2481.1871  0.057546783  0.057025347            8 
 3594000   0.67977613   -3.2745136     2483.418  0.057582499  0.057013561            5 
 3595000   0.67355417   -3.2988563    2481.6347  0.057525143  0.057001633            6 
 3596000   0.68178115   -3.2717016    2489.5938  0.057693591  0.056989807            9 
 3597000   0.67075741   -3.2639171    2485.7514  0.057588532  0.056978012            9 
 3598000   0.68241784   -3.2953014      2490.35  0.057679034  0.056966216            7 
 3599000   0.67061257   -3.2681699    2479.1028  0.057402584  0.056954327            7 
 3600000   0.66985906   -3.2981347    2480.9729  0.057429929  0.056942354            2 
 3601000   0.66853329   -3.2826334    2495.6527  0.057753697  0.056930557           14 
 3602000   0.67804262   -3.3085713    2480.5801  0.057388952  0.056918662            5 
 3603000   0.68844866   -3.3045035    2486.4272  0.057508262    0.0569067            4 
 3604000   0.66441706   -3.3029126    2484.6976  0.057452313   0.05689479           10 
 3605000   0.66298409   -3.2605055    2494.2729  0.057657718  0.056882964           10 
 3606000   0.67691385   -3.2913644    2494.4706  0.057646298  0.056871066            5 
 3607000   0.66888369   -3.2993136    2485.0692  0.057413113  0.056859201            5 
 3608000   0.67103559   -3.2983788     2485.219   0.05740066  0.056847313            5 
 3609000   0.67542057   -3.2932375    2483.8994  0.057354286  0.056835259            9 
 3610000   0.67138251   -3.2877438    2496.6467  0.057632657  0.056823281            6 
 3611000   0.68055821   -3.2814947    2491.8435  0.057505851   0.05681136            7 
 3612000   0.66977848   -3.2693699    2502.4688  0.057735068  0.056799545            6 
 3613000   0.68426564   -3.2797001    2489.7422  0.057425551   0.05678778           10 
 3614000   0.69627275   -3.2741097    2488.8921  0.057390059  0.056775864            3 
 3615000    0.6974753   -3.2746406    2495.5369  0.057527361  0.056764112            4 
 3616000   0.66825727   -3.2853799    2485.8741  0.057288766  0.056752264            6 
 3617000   0.68113645   -3.2822249     2483.016  0.057207077  0.056740311            5 
 3618000   0.68048273   -3.2793273    2487.4182  0.057292662  0.056728377            4 
 3619000   0.66208651   -3.2923252    2488.5823  0.057303635  0.056716551            5 
 3620000   0.67770014    -3.260719    2488.7738  0.057292215  0.056704653            5 
 3621000   0.67006083   -3.2820627    2485.5914  0.057203152  0.056692823            2 
 3622000   0.68864922   -3.2890745    2494.6374  0.057395485  0.056680936            3 
 3623000   0.66981447   -3.2735251    2494.0937  0.057367137   0.05666914            7 
 3624000   0.67411561   -3.2888603     2489.518  0.057246092  0.056657332            4 
 3625000   0.65401426   -3.2744587    2497.5526  0.057415003  0.056645475            7 
 3626000   0.68247961   -3.3049316    2494.9519  0.057339399  0.056633638            3 
 3627000    0.6798382   -3.2756326    2498.7043  0.057409804  0.056621942            5 
 3628000   0.66510145   -3.2897469    2490.4001  0.057203236  0.056610232            8 
 3629000   0.68316297    -3.288446    2494.7621   0.05728764  0.056598465            5 
 3630000   0.66219527   -3.2936209    2492.3593  0.057216696  0.056586673            4 
 3631000   0.67444362   -3.2936922      2504.19   0.05747246  0.056574896            6 
 3632000   0.66923995   -3.2903234    2493.6761  0.057215402  0.056563173            3 
 3633000   0.67204309   -3.2986075    2493.4448  0.057194347  0.056551451            6 
 3634000   0.67246084    -3.305394    2500.5404  0.057341322  0.056539751            5 
 3635000   0.66411611   -3.3118403    2495.9955  0.057221355  0.056527997            5 
 3636000   0.67233524   -3.2816609    2498.9479  0.057273284  0.056516311            8 
 3637000   0.67217439   -3.2904082    2498.9448  0.057257465  0.056504635            4 
 3638000   0.67059756   -3.2819973    2493.2961  0.057112335  0.056492983            5 
 3639000   0.67368449    -3.329116    2491.1058  0.057046483  0.056481144            6 
 3640000   0.66864881   -3.2946555    2500.6375  0.057249027  0.056469405            5 
 3641000   0.65661928   -3.2858287    2502.6695   0.05727981  0.056457658           10 
 3642000   0.66117877   -3.2770841    2506.5685  0.057353297  0.056446019            4 
 3643000   0.66931615   -3.2995659    2501.7546  0.057227436  0.056434388            4 
 3644000   0.66826811   -3.2802372    2502.2146  0.057222251  0.056422793            5 
 3645000   0.67239147   -3.3149766     2498.201  0.057114792  0.056411091            5 
 3646000   0.67042745   -3.2846743    2506.9375   0.05729881  0.056399347           10 
 3647000   0.65313598   -3.3025879    2501.3196  0.057154729  0.056387694            5 
 3648000   0.67014365   -3.2730554    2507.0148  0.057269161  0.056376008            5 
 3649000   0.66909531   -3.2839724    2502.5672  0.057151894  0.056364415            5 
 3650000   0.66026043   -3.2886526     2500.922  0.057098675  0.056352822            5 
 3651000   0.66617706   -3.2868106    2502.4131   0.05711707  0.056341255            7 
 3652000   0.66285019   -3.2986614    2497.3678  0.056986305  0.056329565           20 
 3653000   0.66513427   -3.2994298     2501.699   0.05706951  0.056317939            6 
 3654000   0.68048978   -3.2945008    2500.5709  0.057028162  0.056306275            3 
 3655000    0.6673094   -3.3002492    2501.4493  0.057032587  0.056294617           12 
 3656000    0.6646158   -3.2991426     2515.639  0.057340423   0.05628293           10 
 3657000   0.65253517   -3.2733313    2505.7679  0.057099806  0.056271369            7 
 3658000   0.68573917   -3.2993793    2506.0647  0.057090957  0.056259825            7 
 3659000   0.66409743   -3.3075428    2503.0187  0.057005983  0.056248103            9 
 3660000   0.67923903   -3.2855304     2508.944  0.057125319  0.056236536            5 
 3661000   0.66828945   -3.2964689    2502.9521  0.056973325  0.056225057            5 
 3662000   0.67492167   -3.2856503    2506.5138  0.057038818  0.056213409           14 
 3663000   0.65732776   -3.2936745    2508.9944   0.05707968  0.056201858            6 
 3664000   0.68320496   -3.2947228    2504.5303  0.056962571  0.056190224            9 
 3665000   0.66100905   -3.2884387    2498.8524  0.056817927  0.056178622            8 
 3666000    0.6640849   -3.3003289    2509.6236  0.057047273  0.056166974            8 
 3667000   0.66157274    -3.309934    2502.7992   0.05687663  0.056155317            4 
 3668000   0.65964286   -3.2912505     2502.969  0.056864981  0.056143779            6 
 3669000   0.67095563   -3.2939072    2506.8394  0.056937389  0.056132086            7 
 3670000   0.65845394   -3.2952047    2507.8003  0.056943694  0.056120415            9 
 3671000   0.66378608   -3.2922357    2506.5667  0.056900179  0.056108804            5 
 3672000    0.6752453    -3.289596      2503.37  0.056812137  0.056097208            4 
 3673000   0.66037662   -3.3008242    2506.2849  0.056862802  0.056085564           17 
 3674000    0.6736254   -3.3104013    2499.2788  0.056688415  0.056073884            5 
 3675000    0.6643771   -3.3047095    2499.5543  0.056679236  0.056062157            4 
 3676000   0.66346685   -3.2989468    2509.2853  0.056884414  0.056050466            5 
 3677000   0.67716638   -3.2910429    2500.6355  0.056672909  0.056038812            4 
 3678000    0.6633621   -3.3170859    2501.7407  0.056682543  0.056027105            5 
 3679000    0.6514269   -3.3116021    2503.2492  0.056701305  0.056015351            8 
 3680000   0.65462711   -3.2948741    2507.9577   0.05679252  0.056003667            5 
 3681000   0.65670898   -3.2905306    2502.0889  0.056644229  0.055991916           10 
 3682000   0.66032301   -3.2928251    2516.2089  0.056948417  0.055980289            4 
 3683000   0.64930447   -3.2930338    2506.1908   0.05670628  0.055968573            6 
 3684000   0.66846829   -3.3083851    2506.8705  0.056706264  0.055956827            9 
 3685000    0.6694881   -3.3202089    2501.9617  0.056579866  0.055945075            6 
 3686000   0.66532951   -3.2925645    2506.4697  0.056666435   0.05593329            4 
 3687000   0.65258361   -3.3053274    2510.0474  0.056731927  0.055921547            7 
 3688000   0.67337698   -3.3107417    2496.8437  0.056418197  0.055909742            8 
 3689000   0.66930782   -3.3137809     2507.649  0.056646991  0.055897907            9 
 3690000   0.67320276   -3.3166163    2498.4186  0.056423185  0.055886132            4 
 3691000   0.65636283   -3.3185884    2507.2207  0.056606626  0.055874342            9 
 3692000   0.66570597   -3.3088498    2503.4006  0.056505069  0.055862561            5 
 3693000   0.66704907   -3.3002649    2506.2323  0.056553667   0.05585082            3 
 3694000   0.65589755   -3.3000723     2505.943  0.056531831  0.055839077            7 
 3695000   0.66248498   -3.2869525    2505.8534   0.05651451  0.055827305            4 
 3696000   0.67283687   -3.2944956    2508.4547  0.056557871  0.055815542            3 
 3697000   0.64749001   -3.2910633    2509.0243  0.056555411  0.055803835            6 
 3698000   0.66631828   -3.2950708    2508.4654  0.056527525   0.05579206            8 
 3699000   0.65858603   -3.3006161    2509.0056  0.056524413  0.055780276           10 
 3700000   0.65386032   -3.3101549    2495.6605   0.05620857  0.055768388            4 
 3701000   0.67498376   -3.2947815    2511.2307  0.056543968   0.05575665           11 
 3702000   0.67750054   -3.3018639    2506.8714  0.056430564   0.05574487            9 
 3703000   0.65547779   -3.2915912    2506.3567  0.056403743  0.055733184            2 
 3704000   0.66273669   -3.3082233    2500.6407  0.056259915  0.055721431           10 
 3705000   0.66334942   -3.3034506    2509.8476  0.056451814  0.055709679            6 
 3706000   0.65971218   -3.3082949    2506.5501  0.056362433   0.05569792           10 
 3707000   0.66569074   -3.2987084    2506.3787  0.056343375   0.05568613            7 
 3708000   0.66092811   -3.3105661    2504.7104  0.056290686  0.055674345            7 
 3709000   0.66129856   -3.2920156    2509.6296  0.056386033  0.055662527            3 
 3710000   0.66196739    -3.328513    2499.0411  0.056132999  0.055650761            6 
 3711000   0.66526171   -3.3069129    2508.5451  0.056331293  0.055638886            6 
 3712000   0.66621405   -3.2853726    2507.6196  0.056295339  0.055627103            4 
 3713000   0.65929934   -3.2957366     2511.325   0.05636334   0.05561538            5 
 3714000   0.65087987   -3.3010441    2513.7032  0.056401526  0.055603597            8 
 3715000   0.66412732   -3.3087209    2507.8886  0.056255913  0.055591849           11 
 3716000   0.66297863   -3.3062037    2512.2741  0.056339121  0.055580024           12 
 3717000   0.65871877   -3.2994588    2511.1127  0.056297926  0.055568281            7 
 3718000    0.6568237   -3.3038481    2515.0772  0.056371643  0.055556548            3 
 3719000   0.65742851   -3.2980465    2508.4824  0.056208713  0.055544865            8 
 3720000   0.65363913   -3.3259346    2509.5856  0.056218316  0.055533091            6 
 3721000   0.66836194   -3.3146418    2514.9185  0.056322639  0.055521319            9 
 3722000   0.65017748   -3.3035612    2518.3882  0.056385191  0.055509569            4 
 3723000   0.65056529   -3.3108316    2508.8226  0.056155937   0.05549778            8 
 3724000   0.66210291   -3.3051162    2508.5617  0.056135017  0.055485997            3 
 3725000   0.64887732   -3.3156391    2505.6845  0.056055582  0.055474299            3 
 3726000   0.65710544   -3.3188437    2513.2789  0.056210388  0.055462428            4 
 3727000   0.66424606   -3.3047147    2519.1464    0.0563265  0.055450682            7 
 3728000    0.6356183   -3.3151099    2504.8759  0.055992399  0.055438957            7 
 3729000   0.64749004   -3.3173761    2507.5008  0.056036043  0.055427196           11 
 3730000   0.65864735   -3.3193289    2515.8512  0.056207579  0.055415505            6 
 3731000   0.66660849    -3.293874    2510.8473  0.056080748  0.055403819            4 
 3732000    0.6557483   -3.2927768    2505.3435  0.055942826  0.055392089            8 
 3733000   0.64366049   -3.3140486    2509.5283  0.056021259  0.055380433            3 
 3734000   0.65268564   -3.3140251    2512.2365  0.056066697  0.055368672            5 
 3735000    0.6446575   -3.3026361    2515.0065  0.056113487  0.055356972           12 
 3736000   0.64791538   -3.3183814    2508.9091  0.055962463  0.055345346            8 
 3737000    0.6472513   -3.2940755    2515.5743  0.056096118  0.055333568            4 
 3738000   0.64757993   -3.3139381    2514.1679  0.056049758  0.055321812            7 
 3739000   0.65168445    -3.307586    2515.9653  0.056074826  0.055310093            8 
 3740000   0.67117979   -3.3381274    2514.8659  0.056035337  0.055298368            3 
 3741000   0.64230493   -3.3375854    2523.5397  0.056213573  0.055286626            7 
 3742000    0.6491764   -3.3385816    2512.1653  0.055945246  0.055274928           13 
 3743000   0.64750691    -3.341394    2510.6695  0.055896997   0.05526321            7 
 3744000   0.64857034    -3.323346    2517.4034  0.056031949  0.055251545            9 
 3745000   0.65074611   -3.3003779    2518.2277   0.05603533   0.05523984            4 
 3746000   0.66077845   -3.3238751    2521.6047  0.056095496  0.055228112            7 
 3747000   0.66190317   -3.3175908     2514.868    0.0559307  0.055216397            5 
 3748000   0.65816597   -3.3220678    2507.7447  0.055757397  0.055204682            3 
 3749000   0.66281564   -3.3192987    2519.1964  0.055997075   0.05519294            6 
 3750000   0.65183892   -3.3218085    2524.9546  0.056110102  0.055181204            6 
 3751000   0.63812619   -3.3174471    2515.8122  0.055892034  0.055169422           10 
 3752000   0.63669015   -3.3285213    2511.9557  0.055791482  0.055157612            4 
 3753000   0.64266959   -3.3053482    2505.2602  0.055627947  0.055145911            6 
 3754000   0.64396467   -3.3518808     2516.498  0.055862591  0.055134051            7 
 3755000   0.64318775   -3.3406956    2504.3755  0.055578684   0.05512224            8 
 3756000    0.6573272   -3.3231075    2516.0841  0.055823662  0.055110424            4 
 3757000   0.65449391   -3.3175268    2514.2848  0.055768893  0.055098662            9 
 3758000   0.65557801   -3.3299954    2515.8884  0.055789613  0.055086837           10 
 3759000    0.6584233   -3.3248723    2512.7794  0.055705848  0.055075043           10 
 3760000   0.65354992   -3.3103576    2518.2611  0.055812524  0.055063152            3 
 3761000   0.65662513   -3.3194455    2509.5665  0.055605037  0.055051382           10 
 3762000    0.6401172   -3.2912265    2520.7806  0.055838664  0.055039639            6 
 3763000   0.65649882   -3.3337205    2517.8528  0.055758986   0.05502792           10 
 3764000   0.64717688   -3.3282664      2517.77  0.055742341   0.05501619            6 
 3765000   0.64383965   -3.3156095    2513.8148  0.055639991   0.05500441           12 
 3766000   0.65271296   -3.3319335    2511.5901   0.05557599  0.054992492            3 
 3767000   0.64929831   -3.3411935    2509.2222  0.055508854  0.054980606           13 
 3768000   0.64204055   -3.3271608    2517.7659  0.055683075   0.05496876            5 
 3769000    0.6579401   -3.3432879    2518.4082  0.055682502  0.054957034            8 
 3770000   0.63387501   -3.3289554    2517.9085  0.055656686  0.054945269            6 
 3771000   0.63470406   -3.3058335    2519.2137   0.05567077  0.054933534            5 
 3772000    0.6468839   -3.3139333    2511.0686  0.055476064  0.054921885            5 
 3773000      0.65446   -3.3238118     2519.495  0.055647474  0.054910154            9 
 3774000   0.67552156    -3.327194     2510.457  0.055433162   0.05489843            5 
 3775000   0.65222887   -3.3291629     2519.757  0.055623775  0.054886745            5 
 3776000   0.65734767   -3.3206563    2530.9728  0.055856567  0.054875088            7 
 3777000   0.65623867   -3.3318725    2518.8014  0.055573237  0.054863408            4 
 3778000   0.63076704   -3.3124448     2516.681  0.055511756  0.054851664            4 
 3779000   0.65940094   -3.3248998    2514.7315  0.055454076  0.054840005            6 
 3780000   0.65733496   -3.3088562    2520.4224  0.055564867  0.054828396            7 
 3781000   0.64933203   -3.3232353    2517.6244  0.055488503  0.054816774            5 
 3782000   0.63956454   -3.3156258     2516.151  0.055441367   0.05480505            6 
 3783000   0.64906713   -3.2913118    2524.5935  0.055612686  0.054793325            2 
 3784000   0.65496261   -3.3266028    2524.8741  0.055604168  0.054781656            7 
 3785000   0.64442028   -3.3170067    2526.2184  0.055619075   0.05477001            2 
 3786000   0.64358546   -3.3353407    2520.3202   0.05547456  0.054758349            7 
 3787000   0.65349988   -3.3180488    2523.2153  0.055523619   0.05474661            5 
 3788000    0.6349083   -3.3265191    2522.9355  0.055502806  0.054734929            3 
 3789000   0.64065644   -3.3217486    2521.5796  0.055458336  0.054723163            4 
 3790000   0.65524867   -3.3212902    2524.8777  0.055516219  0.054711528            7 
 3791000     0.649016   -3.3302785    2516.9463  0.055327228  0.054699819            3 
 3792000    0.6369871   -3.3428773    2526.6885  0.055526733  0.054688141           10 
 3793000   0.66016297   -3.3323651    2527.7371  0.055535133  0.054676484            4 
 3794000   0.64203596   -3.3255559    2521.8843  0.055391941  0.054664857            5 
 3795000   0.63461362   -3.3503863    2523.0674  0.055403325  0.054653245            7 
 3796000     0.641072   -3.3257223    2516.3658  0.055241608  0.054641634            6 
 3797000   0.63153172   -3.3092024    2524.8525  0.055413319  0.054629982            6 
 3798000   0.65964736   -3.3246262    2521.7552  0.055330771  0.054618329            8 
 3799000    0.6505175   -3.3412577    2516.5155  0.055201269  0.054606581           11 
 3800000   0.65000476   -3.3075545    2526.2061  0.055399257  0.054594854           11 
 3801000   0.64971969   -3.3279415    2519.8366  0.055245036  0.054583225           10 
 3802000   0.63617918   -3.3404764    2514.6744  0.055117359   0.05457146            6 
 3803000   0.65716054   -3.3295706    2522.9325  0.055283822  0.054559756            4 
 3804000   0.63243814   -3.3273021    2518.1706  0.055164971  0.054548038            4 
 3805000   0.65152303   -3.3183423    2523.6276  0.055269988  0.054536255            7 
 3806000    0.6470219   -3.3199397    2529.3161  0.055380016  0.054524581            9 
 3807000   0.65147253   -3.3425385      2520.48  0.055172051  0.054512798            9 
 3808000   0.64659311   -3.3201887    2523.9819  0.055234198  0.054501171            6 
 3809000   0.64185413   -3.3308736    2524.8843  0.055239439  0.054489498            5 
 3810000   0.64028482   -3.3440802    2527.9119  0.055291162  0.054477855           10 
 3811000    0.6438299   -3.3396764    2527.5642   0.05526905  0.054466168            8 
 3812000   0.65963636   -3.3216511    2521.7008  0.055126373  0.054454424            7 
 3813000   0.64439442   -3.3425599    2524.6761   0.05517694  0.054442788            5 
 3814000   0.64540109   -3.3138255     2521.791  0.055099437   0.05443109           10 
 3815000   0.65947694   -3.3409328    2526.2896  0.055183259  0.054419413           13 
 3816000   0.65100718   -3.3512518    2522.0945  0.055077187  0.054407754           10 
 3817000   0.64842852   -3.3257782     2522.446  0.055070431  0.054396084            6 
 3818000    0.6395946   -3.3530673    2522.8978  0.055065868  0.054384327           16 
 3819000   0.63700999   -3.3331775    2520.6192  0.055001727  0.054372591            6 
 3820000   0.63947284   -3.3318269    2527.5962  0.055139532  0.054360896            5 
 3821000    0.6387852   -3.3295296    2521.1153  0.054983759  0.054349171            9 
 3822000   0.64194909   -3.3545283    2517.7922  0.054896917  0.054337376            6 
 3823000   0.63456131   -3.3575211    2521.8993  0.054972084  0.054325636            5 
 3824000   0.63651503   -3.3689363    2524.4403  0.055013082  0.054313904            7 
 3825000    0.6503554   -3.3089773    2524.6016  0.055002213  0.054302165            8 
 3826000   0.64112366   -3.3211384    2524.8428   0.05499309  0.054290454            4 
 3827000   0.63274322   -3.3453581    2527.9638  0.055046682  0.054278803            5 
 3828000   0.63735142   -3.3749758    2516.8967  0.054791377  0.054267001           17 
 3829000   0.62268528   -3.3469129    2523.8265  0.054927886  0.054255237            5 
 3830000   0.63988286   -3.3370054     2527.333  0.054989839  0.054243458            8 
 3831000   0.63919036   -3.3332954    2525.4504  0.054934533  0.054231689            8 
 3832000   0.63608762    -3.326884    2526.7441  0.054948332  0.054219918            6 
 3833000   0.65595645   -3.3444736    2525.8032   0.05491354  0.054208203           11 
 3834000   0.63736517   -3.3318857    2530.2108  0.054995017   0.05419648            6 
 3835000   0.63620222   -3.3328108    2519.2756   0.05474306  0.054184721            7 
 3836000   0.63414622   -3.3457163    2530.3628  0.054969647  0.054172973            5 
 3837000   0.62397143   -3.3543586    2524.3009  0.054823667  0.054161189            9 
 3838000   0.63941763   -3.3296277    2522.9477  0.054779999  0.054149459            8 
 3839000   0.63631509   -3.3230929    2536.2289  0.055054028  0.054137701            5 
 3840000   0.64787071   -3.3450739     2519.928  0.054685937  0.054125968            5 
 3841000   0.63645202    -3.348457    2530.7877   0.05490731   0.05411433            5 
 3842000   0.64951317   -3.3509581    2528.4537  0.054842393  0.054102499            5 
 3843000   0.62056074   -3.3415241    2522.6253  0.054701738  0.054090747            7 
 3844000   0.64905657   -3.3295374    2525.7462  0.054755165  0.054078966           11 
 3845000   0.62407487   -3.3347087    2520.8283  0.054634336  0.054067174            5 
 3846000   0.63177116   -3.3666064    2521.7619   0.05464036  0.054055347            9 
 3847000   0.64310927   -3.3545588    2528.2175  0.054765997  0.054043456            7 
 3848000    0.6383173    -3.331301     2526.521  0.054715026  0.054031669            7 
 3849000   0.63441256   -3.3447677    2524.7741  0.054662988  0.054019921            6 
 3850000   0.65222874   -3.3545095    2526.9784  0.054696503  0.054008183            8 
 3851000   0.62340291   -3.3420087    2532.4828  0.054801411  0.053996444            7 
 3852000   0.64115744   -3.3219719    2528.9633  0.054711043  0.053984673            4 
 3853000   0.63472552    -3.338974    2525.9314  0.054631271  0.053972908            5 
 3854000   0.63488225   -3.3382902     2523.432   0.05456305  0.053961177            6 
 3855000   0.62815276   -3.3233833    2535.1703  0.054802644  0.053949471            9 
 3856000   0.63317423   -3.3387034    2531.2153  0.054702959  0.053937818            6 
 3857000   0.64672293   -3.3577184     2516.596  0.054372915  0.053926117            7 
 3858000   0.63899859    -3.341378     2526.426  0.054571152  0.053914406            4 
 3859000   0.63276755   -3.3385706    2526.5391  0.054559453   0.05390264            8 
 3860000   0.63363985   -3.3439285    2521.7937   0.05444287  0.053890953            9 
 3861000   0.62951105   -3.3446968    2521.7865  0.054428613  0.053879153            5 
 3862000   0.63107552   -3.3340952    2531.5943  0.054626149  0.053867492            8 
 3863000    0.6411222   -3.3420556    2530.4607  0.054587555   0.05385581            8 
 3864000   0.63806903   -3.3526948    2521.0934  0.054371408  0.053844099           12 
 3865000   0.63144438   -3.3360311    2532.8004  0.054609754  0.053832422            3 
 3866000   0.63574133   -3.3341406    2529.8594  0.054532234   0.05382079           10 
 3867000    0.6231251   -3.3619786    2530.9789  0.054542257  0.053809154            6 
 3868000   0.63184072   -3.3510071    2529.4447  0.054495104  0.053797483           10 
 3869000   0.64307023   -3.3428167    2533.2076  0.054562066  0.053785873            7 
 3870000   0.64204247   -3.3628667    2531.1185  0.054502983  0.053774123           10 
 3871000   0.63877298   -3.3624432    2529.7024  0.054458418  0.053762261           17 
 3872000   0.62444116   -3.3575833    2523.8122  0.054317585  0.053750501           18 
 3873000   0.62604077   -3.3502505    2525.5278  0.054340472  0.053738751            4 
 3874000   0.64167984    -3.341071    2539.1077  0.054618561  0.053727079            5 
 3875000   0.63316011   -3.3366131    2535.8811  0.054535077  0.053715412            6 
 3876000   0.63760897   -3.3569877      2535.86  0.054520555  0.053703676           17 
 3877000    0.6318076   -3.3534372     2531.495  0.054412669  0.053691945            9 
 3878000   0.63481032   -3.3657448    2528.9514  0.054343979  0.053680207            8 
 3879000   0.63348529   -3.3451423    2535.2661  0.054465628  0.053668477           10 
 3880000    0.6348169   -3.3547419    2532.3506  0.054388974   0.05365676            5 
 3881000   0.64683253    -3.367199    2529.4684  0.054313072  0.053644953            8 
 3882000   0.63260026   -3.3460195    2531.0423  0.054332868  0.053633243           11 
 3883000   0.62395512   -3.3667596    2531.2807  0.054323991  0.053621514            8 
 3884000   0.62642852   -3.3476441    2533.6889  0.054361674  0.053609839           11 
 3885000   0.63133697    -3.343606    2537.1434   0.05442178  0.053598251           10 
 3886000   0.64668004   -3.3452843    2540.3459  0.054476452  0.053586692            8 
 3887000   0.62894975   -3.3620495    2524.9109  0.054131525  0.053575023           10 
 3888000   0.62124825   -3.3566251    2534.4189  0.054321393  0.053563296            7 
 3889000   0.63360854   -3.3405555    2529.3778  0.054199405  0.053551661           10 
 3890000   0.63102621   -3.3529104    2534.5502  0.054296277  0.053540054            6 
 3891000    0.6309606    -3.357553    2535.8471  0.054310097  0.053528445            7 
 3892000   0.62120782   -3.3731506    2531.4034  0.054200998  0.053516739            5 
 3893000   0.62605875   -3.3676933    2536.4471   0.05429504  0.053505038            9 
 3894000   0.61950305    -3.356797    2532.8663  0.054204467  0.053493387           10 
 3895000    0.6181528   -3.3526346    2538.5729  0.054312643  0.053481759            4 
 3896000   0.61941367   -3.3520451    2532.5369  0.054169594  0.053470159            5 
 3897000   0.62138116   -3.3332174    2538.8563  0.054290828  0.053458538            6 
 3898000   0.63845268   -3.3629826    2532.1096  0.054132667  0.053446885            8 
 3899000   0.61899194   -3.3646855    2540.1323  0.054290253  0.053435243            8 
 3900000   0.62077128   -3.3558569    2535.6359  0.054180255   0.05342358            5 
 3901000   0.62927066   -3.3726525    2530.4725  0.054056065  0.053411899            5 
 3902000   0.63488354   -3.3606137    2530.6609  0.054046235  0.053400264            5 
 3903000   0.64978414   -3.3697826     2538.257  0.054194573  0.053388751           19 
 3904000   0.62552075   -3.3570931    2534.6338   0.05410335   0.05337712           10 
 3905000   0.62766963   -3.3467594    2547.4015  0.054361961  0.053365529            7 
 3906000    0.6409033   -3.3648406    2540.6869   0.05420479  0.053354009            7 
 3907000   0.61072151   -3.3445306    2537.0081   0.05411245  0.053342392            7 
 3908000   0.62049108   -3.3523451    2538.9518   0.05414005  0.053330851            7 
 3909000   0.63442128   -3.3682606    2540.4468  0.054158072  0.053319182            5 
 3910000   0.62576103   -3.3493157      2539.42  0.054122336  0.053307713            6 
 3911000   0.62327919   -3.3562856    2538.3911  0.054086573  0.053296111            6 
 3912000   0.63022028   -3.3661191    2532.5949  0.053949278  0.053284512           17 
 3913000   0.61376136    -3.347813    2534.8513  0.053983543  0.053272899            6 
 3914000   0.63840699   -3.3661495    2535.8082  0.053990125  0.053261289           10 
 3915000   0.61762183   -3.3534791     2546.512  0.054204171  0.053249663            5 
 3916000   0.62564509   -3.3508632    2540.5529   0.05406352  0.053238135            7 
 3917000   0.63422855   -3.3458689    2542.4525  0.054090132  0.053226548            4 
 3918000   0.62509122   -3.3695977    2542.9575  0.054087066  0.053214983            9 
 3919000   0.62669621   -3.3552953    2536.7028  0.053940266  0.053203375           14 
 3920000   0.62788635   -3.3508381    2537.3436  0.053940128  0.053191727           14 
 3921000   0.62985258   -3.3660824    2537.9813  0.053939923  0.053180132            8 
 3922000   0.62566439   -3.3497265     2544.055  0.054055222  0.053168529            7 
 3923000   0.62338937   -3.3632496    2531.4259  0.053773173  0.053156881            3 
 3924000   0.62809883   -3.3520982    2529.9965  0.053729113  0.053145243            4 
 3925000   0.62486396   -3.3402639    2542.6273  0.053983595  0.053133542            3 
 3926000     0.609147   -3.3369336    2538.0291  0.053872242  0.053122021            5 
 3927000   0.63112639   -3.3589281    2536.4034  0.053824025  0.053110433            8 
 3928000   0.62490431   -3.3586412    2538.6449  0.053857878  0.053098832            6 
 3929000   0.62098313   -3.3614852     2536.464  0.053797912  0.053087297           13 
 3930000   0.63883471   -3.3741944    2535.7433  0.053768943  0.053075726            9 
 3931000   0.62910859    -3.363537      2539.42  0.053833206  0.053064109            6 
 3932000   0.62244235   -3.3732972    2535.3996  0.053734308  0.053052423           10 
 3933000   0.61871449    -3.390454     2533.346  0.053677133  0.053040742            5 
 3934000   0.60493447   -3.3608875    2546.0897  0.053933436  0.053029056           10 
 3935000   0.61795686   -3.3781842    2532.6741  0.053635623  0.053017441            7 
 3936000   0.61803531    -3.373051    2538.7957  0.053751602  0.053005825            7 
 3937000   0.63869827   -3.3646331    2533.5214  0.053626309  0.052994184            6 
 3938000   0.62076486    -3.377774    2541.1536  0.053774201  0.052982502           11 
 3939000    0.6252032   -3.3742404    2535.8195    0.0536477   0.05297085            7 
 3940000   0.61906667   -3.3687455    2530.7055  0.053525919  0.052959163            6 
 3941000   0.61745218   -3.3586476    2539.0468  0.053688717  0.052947446           10 
 3942000   0.61958289   -3.3812258    2535.2859  0.053595593  0.052935816            6 
 3943000   0.61605394   -3.3753652     2531.494   0.05350186  0.052924041           10 
 3944000   0.61909082   -3.3661758    2537.2457  0.053609822  0.052912332            9 
 3945000   0.62023265   -3.3617661    2539.4588  0.053642983  0.052900725           11 
 3946000   0.61874302    -3.354147    2539.0614  0.053620995  0.052889115            5 
 3947000   0.62900668   -3.3612577    2540.1807  0.053631042  0.052877528            8 
 3948000   0.62259223   -3.3414026    2542.0113  0.053656098  0.052865859            5 
 3949000   0.61824448   -3.3464077    2542.0388  0.053643092  0.052854173            6 
 3950000   0.61644312   -3.3700293    2533.3358  0.053445903  0.052842547            6 
 3951000   0.61098982   -3.3828857    2540.1167  0.053575397  0.052830947            4 
 3952000    0.6085626   -3.4035436     2542.743  0.053617218  0.052819347            8 
 3953000   0.61604452   -3.3683045    2537.0187  0.053482982  0.052807708            3 
 3954000   0.63321858   -3.3492941    2537.1847  0.053472953  0.052796043            4 
 3955000   0.61933518    -3.370875    2533.2231  0.053375961  0.052784445           10 
 3956000   0.61915888   -3.3572455    2541.9408  0.053546108  0.052772827            6 
 3957000   0.61477442   -3.3782494    2537.3022  0.053434888   0.05276123           14 
 3958000   0.61649583    -3.385529    2538.3474  0.053443394  0.052749587            7 
 3959000   0.62101817   -3.3590782      2539.94  0.053463417  0.052737972            7 
 3960000   0.62653721   -3.3994597    2534.7836  0.053341405  0.052726248            6 
 3961000   0.62187361   -3.3769348     2544.508  0.053532526  0.052714607            6 
 3962000    0.6222167   -3.3752779    2540.8734  0.053442567  0.052702956           10 
 3963000   0.62040078   -3.3662359    2539.0194  0.053390096  0.052691264           11 
 3964000   0.61209763   -3.3675267    2536.2698  0.053318823  0.052679682            6 
 3965000   0.61891034   -3.3908275    2541.2013  0.053409022  0.052667956            9 
 3966000   0.60682114   -3.3629507    2541.7336   0.05340674  0.052656261            5 
 3967000   0.61738833   -3.3678116    2535.9275   0.05327131  0.052644562            8 
 3968000   0.62987222   -3.3737418    2541.7778  0.053380751  0.052632868           11 
 3969000   0.62729853   -3.3923081    2533.4877  0.053193241  0.052621141           14 
 3970000   0.61934147    -3.358937    2540.2222  0.053321204  0.052609439            6 
 3971000   0.62474319   -3.3600529    2534.6914   0.05319171  0.052597724           21 
 3972000   0.61519029   -3.3728288    2541.6591  0.053324502  0.052586003            5 
 3973000   0.60840566   -3.3687875    2544.4299  0.053369199  0.052574218            8 
 3974000   0.60298208    -3.374297    2543.8274  0.053343135  0.052562559            4 
 3975000   0.61939244   -3.3938211    2535.6767  0.053158841  0.052550821            6 
 3976000   0.61890597   -3.3651664    2540.6204  0.053249087  0.052539114            5 
 3977000   0.61807359   -3.3829634    2537.5829  0.053172049  0.052527347            4 
 3978000   0.61649058   -3.3750318    2535.2785  0.053110409  0.052515539           10 
 3979000   0.62301281   -3.3778997    2544.0985  0.053281782  0.052503754            6 
 3980000   0.63628297   -3.3823978    2534.6982   0.05307157   0.05249201            9 
 3981000   0.62285066   -3.3831137    2529.7392  0.052954433  0.052480139            4 
 3982000   0.61469077   -3.3571012     2544.435  0.053248682  0.052468361            7 
 3983000   0.60557445   -3.3580299     2541.613  0.053176269  0.052456647            3 
 3984000   0.60681536    -3.341956    2547.4181  0.053284348   0.05244493            5 
 3985000   0.60892663   -3.3745085    2533.8093  0.052986393  0.052433248            7 
 3986000   0.60964169   -3.3604772    2541.7331  0.053138759   0.05242148            7 
 3987000   0.62024775   -3.3965662    2534.5293  0.052974862  0.052409716            5 
 3988000    0.6129922    -3.381257    2531.6816  0.052902074  0.052397921            3 
 3989000    0.6052351   -3.3778222    2535.0757  0.052959716  0.052386055           11 
 3990000   0.60985046   -3.3920008    2537.7979  0.053003298  0.052374217            5 
 3991000   0.60936705   -3.3874422     2536.904  0.052971353  0.052362376           12 
 3992000   0.61172275   -3.3628555    2535.9792  0.052938777  0.052350528           23 
 3993000   0.60264938   -3.3550774    2536.3461  0.052933177  0.052338782           11 
 3994000   0.60931035   -3.3608608    2541.4135  0.053025653     0.052327            6 
 3995000    0.6161321   -3.3863591    2533.6566  0.052850576  0.052315206            4 
 3996000    0.6057997   -3.3791073    2541.7556  0.053006249  0.052303385            9 
 3997000   0.61207413   -3.3879752     2537.715  0.052908744  0.052291652           11 
 3998000   0.61282906   -3.3682194    2542.8877  0.053003328  0.052279966            5 
 3999000   0.62475841   -3.3931685    2538.2597  0.052893633  0.052268253            4 
 4000000   0.60946215   -3.3853036    2541.2142  0.052941963  0.052256428            5 
 4001000   0.62445208   -3.4013526    2541.0134  0.052924548  0.052244667           15 
 4002000   0.61461358    -3.353797    2543.3945  0.052960906  0.052232995            7 
 4003000   0.60610856   -3.3959063    2547.2424  0.053027779  0.052221274            9 
 4004000   0.61049479   -3.3795159    2547.7826  0.053025779  0.052209535            3 
 4005000   0.61276051   -3.3845055    2534.7872   0.05274214  0.052197864           10 
 4006000   0.61985901   -3.3858737    2545.5449  0.052952756   0.05218617            6 
 4007000   0.61394768   -3.4038446    2541.9979  0.052865775  0.052174437            8 
 4008000   0.62341805   -3.3923215    2537.9529  0.052768481  0.052162627            5 
 4009000   0.62953823   -3.3794239    2545.9422  0.052921389  0.052150815           18 
 4010000   0.62243935    -3.383649    2541.1913  0.052809462  0.052139063            7 
 4011000   0.60388546   -3.3778443    2542.9603  0.052833048   0.05212733           11 
 4012000   0.59869095   -3.3929591    2541.3578  0.052786595   0.05211561            7 
 4013000   0.60719213   -3.3807724    2543.9512  0.052827294  0.052103902            9 
 4014000   0.61225219   -3.3899705    2542.0739   0.05277516  0.052092193            7 
 4015000   0.61819599    -3.360817    2549.0106  0.052905991  0.052080516            4 
 4016000   0.59924011   -3.3645101     2545.085  0.052811359  0.052068893            7 
 4017000   0.60880699   -3.3719283    2543.5959  0.052767321  0.052057274            6 
 4018000   0.60851904   -3.3968692    2542.9539  0.052740872  0.052045504           11 
 4019000    0.5975078   -3.3883624    2543.0143  0.052729001  0.052033733           15 
 4020000   0.60778053    -3.397388    2543.9833  0.052735972  0.052022042           15 
 4021000   0.59818121   -3.3842341    2543.0593  0.052703707  0.052010271            4 
 4022000   0.61523197   -3.4082303    2538.9354  0.052605159  0.051998585           11 
 4023000   0.61428635   -3.3804251    2546.2642  0.052743894  0.051986892            6 
 4024000    0.6090388   -3.3922093    2539.0908  0.052582233  0.051975181            7 
 4025000   0.60689461    -3.392557    2545.6593  0.052705162  0.051963548            7 
 4026000   0.59817615    -3.378932    2544.8955   0.05267626  0.051951904            6 
 4027000   0.61557566   -3.3748305    2544.6808  0.052658737  0.051940266           10 
 4028000     0.612485   -3.3747798    2549.0611  0.052736286  0.051928646            6 
 4029000   0.59492954   -3.3984688     2549.769  0.052737838  0.051916989            7 
 4030000   0.60797548   -3.4036414    2542.9682  0.052584122  0.051905337           10 
 4031000   0.61531087   -3.3870931    2540.5106  0.052520272   0.05189374            9 
 4032000   0.61152898   -3.4074911    2551.5573  0.052735558  0.051882107            8 
 4033000   0.60317884   -3.3826533    2547.2696  0.052633887  0.051870484            6 
 4034000   0.60404289   -3.4086283    2541.1054    0.0524935  0.051858871            8 
 4035000   0.60910617   -3.4099171    2548.0372  0.052623651  0.051847243            7 
 4036000   0.59985536   -3.3866529    2547.6063  0.052601716  0.051835583           18 
 4037000   0.59904203   -3.3989292    2548.8019  0.052613366  0.051823935            9 
 4038000   0.60721711   -3.3894355    2549.4758  0.052614244  0.051812324            8 
 4039000    0.6142463   -3.3853377      2552.76  0.052668977  0.051800801            5 
 4040000    0.6072526   -3.3772999    2545.5296  0.052506798  0.051789209            5 
 4041000     0.611609   -3.3787645    2550.6972  0.052600372  0.051777584            7 
 4042000   0.60352745    -3.399741    2549.5671  0.052564059  0.051765978            3 
 4043000   0.60894677   -3.3894514    2541.4622     0.052384  0.051754397           11 
 4044000    0.5992086   -3.4102171    2548.8677   0.05252365  0.051742819            9 
 4045000   0.59638282   -3.3901646    2545.4624  0.052440512  0.051731258            5 
 4046000   0.60130639   -3.4158906    2541.4072  0.052344027  0.051719664           14 
 4047000   0.59196095   -3.3996358    2553.2204  0.052574343  0.051708059            5 
 4048000   0.61318179   -3.3949248    2550.4495  0.052504313  0.051696511           11 
 4049000   0.61982447   -3.3941392    2541.8692  0.052314752  0.051684939            9 
 4050000   0.61635777   -3.3902027    2551.8795   0.05250781  0.051673396            6 
 4051000   0.59489489   -3.4124816    2550.3432  0.052463244  0.051661847            5 
 4052000   0.61344805   -3.3868557    2548.1546  0.052405285  0.051650286           10 
 4053000   0.60006856   -3.4261917    2550.4349   0.05243924  0.051638754            6 
 4054000   0.59061427   -3.3946459    2546.0501  0.052336172  0.051627158            6 
 4055000   0.60889735   -3.3877168    2546.9915  0.052342613  0.051615669           14 
 4056000   0.60553144   -3.3934488    2551.3696  0.052419658  0.051604061            4 
 4057000   0.59119838    -3.396236    2552.5391   0.05243076  0.051592568            4 
 4058000    0.6066252   -3.3874043    2548.9614  0.052344369  0.051581038            5 
 4059000   0.60492357   -3.3943472    2551.5923  0.052385487  0.051569539            8 
 4060000   0.60182865   -3.3885375    2555.8998  0.052460997  0.051558047            6 
 4061000   0.59691044   -3.4201466    2548.0745  0.052287501  0.051546544            6 
 4062000   0.60101797   -3.4043098    2553.3967  0.052383815  0.051534993            4 
 4063000   0.58823173   -3.4070863    2550.9156  0.052320034  0.051523458           14 
 4064000   0.59387804   -3.3867812    2556.3438  0.052418467  0.051511976            6 
 4065000   0.59699196   -3.3943018    2551.6601  0.052309555  0.051500437           10 
 4066000   0.61496463   -3.4128343    2544.8507  0.052157131  0.051488943           21 
 4067000    0.5946701   -3.4156913    2552.1532  0.052293935  0.051477338           15 
 4068000   0.60001888   -3.3974551    2554.9329  0.052338023  0.051465797           12 
 4069000   0.58904564   -3.3940771    2551.7983  0.052260962  0.051454303            5 
 4070000   0.59878366   -3.4052103    2552.2922  0.052258235    0.0514428            4 
 4071000   0.60868249   -3.4046023    2554.0202   0.05228077  0.051431309           15 
 4072000   0.58980102    -3.395606    2551.1349  0.052208884  0.051419745           14 
 4073000   0.61168511     -3.40834    2551.6919  0.052207461  0.051408175            5 
 4074000   0.59835634   -3.4098761     2559.549  0.052355362  0.051396722           14 
 4075000   0.59420791   -3.3922847    2545.7361  0.052060043  0.051385272           12 
 4076000   0.59985982   -3.4230515    2549.4824  0.052123863  0.051373787            5 
 4077000   0.60868103   -3.4234471     2549.456  0.052110539    0.0513622            4 
 4078000   0.59386003   -3.4001138    2558.5472  0.052283537  0.051350751            4 
 4079000   0.59914644   -3.3916859    2551.5864  0.052128512  0.051339283            3 
 4080000   0.59768641   -3.4024341    2554.7443  0.052180235  0.051327839            6 
 4081000   0.59867068   -3.4055951    2554.2348  0.052157046  0.051316434            5 
 4082000   0.59916456   -3.4192314    2566.1554  0.052387624  0.051305023           15 
 4083000   0.60056019   -3.4140992    2553.0802   0.05210793  0.051293546            6 
 4084000   0.59699946   -3.3937691    2553.6329   0.05210645  0.051282068            4 
 4085000   0.60853799   -3.4023223    2562.1623  0.052267694  0.051270645            5 
 4086000   0.60296273    -3.419783    2552.6039   0.05205996  0.051259158            4 
 4087000   0.58678162   -3.4034716    2559.3005  0.052183764  0.051247693            9 
 4088000   0.60539877    -3.412666    2557.7801  0.052140006  0.051236226           11 
 4089000   0.59147733   -3.3970284    2554.4588  0.052059566  0.051224763           13 
 4090000   0.59848024   -3.4169279    2549.1506  0.051938683  0.051213328            6 
 4091000   0.58274099   -3.4130311    2553.9904  0.052024574  0.051201907           10 
 4092000   0.59869191   -3.4047182    2554.7531  0.052027392  0.051190456            6 
 4093000   0.59199315    -3.423736    2549.4138  0.051905974  0.051178996           15 
 4094000    0.5891131   -3.4162678    2544.8852  0.051801116  0.051167491            6 
 4095000   0.59721819   -3.4242646    2547.5883  0.051843474  0.051156031            6 
 4096000   0.58905474   -3.3972849    2554.8978  0.051979528  0.051144572            9 
 4097000   0.59332124   -3.4190993    2549.0425  0.051847745  0.051133085            4 
 4098000   0.58515791   -3.4154263      2552.65  0.051908451  0.051121658            8 
 4099000   0.59254828   -3.4150912    2555.2324  0.051948288  0.051110209            8 
 4100000   0.59329684   -3.4079385    2560.1521  0.052035612  0.051098732            9 
 4101000   0.58907889   -3.4168891    2555.8502  0.051935508  0.051087284            8 
 4102000   0.60351081   -3.4108012    2555.8734  0.051923319  0.051075831            6 
 4103000   0.59471896   -3.4151176    2553.7712  0.051867966  0.051064426            6 
 4104000   0.59158273   -3.3980436    2563.6334  0.052055583  0.051053027            8 
 4105000   0.58785788   -3.4073787    2552.9073  0.051825158   0.05104162           10 
 4106000    0.6046777   -3.4250906    2554.1573  0.051837906   0.05103014            7 
 4107000   0.59345092   -3.4111957    2553.1064   0.05180396  0.051018663            7 
 4108000   0.59313123   -3.4020557    2557.6852  0.051884234  0.051007232           10 
 4109000   0.59599744   -3.3945655    2555.0635  0.051818438  0.050995854           15 
 4110000   0.59624865   -3.4079311    2554.0225  0.051784721  0.050984514            6 
 4111000   0.60250818   -3.4030026    2557.9947  0.051852645  0.050973139           11 
 4112000   0.59485464   -3.4119077    2555.4783  0.051789038  0.050961777           10 
 4113000   0.59990712   -3.4073217    2560.4077  0.051876322  0.050950361            8 
 4114000   0.59291008   -3.4154578    2555.0417  0.051755017  0.050938988            5 
 4115000   0.59439866   -3.4011258    2555.0994  0.051743608  0.050927571            6 
 4116000   0.58018916   -3.4142468    2558.0152  0.051790071  0.050916075            7 
 4117000   0.59207975   -3.4129537    2555.6582  0.051729784  0.050904615            7 
 4118000       0.5999   -3.4367148    2563.1864  0.051869564  0.050893175            8 
 4119000   0.59440364   -3.4220062     2555.937  0.051710306  0.050881759            5 
 4120000   0.59313487   -3.4299093    2557.8014  0.051735465  0.050870293           16 
 4121000   0.60722837   -3.4250924    2562.8889  0.051825789  0.050858845           13 
 4122000   0.61108798   -3.4188454    2557.1987  0.051698179  0.050847409           16 
 4123000   0.60300567   -3.4031243    2556.2391  0.051666244   0.05083601            7 
 4124000   0.59892083   -3.4142555    2558.5887  0.051701193  0.050824616           11 
 4125000    0.5878725   -3.4101666    2550.5189  0.051525634  0.050813179            8 
 4126000   0.58613004   -3.3997849    2558.9904  0.051684247  0.050801673            8 
 4127000   0.58405241   -3.4307252    2555.4132  0.051599492  0.050790256            8 
 4128000   0.58355736   -3.4256314    2551.5491  0.051508985  0.050778841           17 
 4129000   0.58082023   -3.4169612    2562.1924  0.051711318  0.050767408            4 
 4130000   0.59298502   -3.4152601    2554.1203  0.051535922  0.050756045            7 
 4131000   0.58270531   -3.4267844    2553.0845  0.051502552  0.050744578           18 
 4132000   0.59632414   -3.4115208    2561.6238  0.051662307  0.050733156            4 
 4133000   0.58472161   -3.4268183    2561.6108  0.051649545  0.050721707            6 
 4134000   0.59577548   -3.4042226    2557.4476  0.051553128  0.050710232            8 
 4135000   0.59431569   -3.4219366    2556.8625   0.05152887  0.050698782            7 
 4136000   0.58733147   -3.4084206    2550.4372  0.051386952  0.050687408           10 
 4137000   0.59373994   -3.4130263    2571.7998  0.051804847  0.050676058            8 
 4138000   0.57450255   -3.4170693    2561.8465  0.051591882  0.050664693            5 
 4139000   0.57831253     -3.41751    2554.7519  0.051436577  0.050653338            8 
 4140000   0.59440754   -3.4097439    2554.9071  0.051427276   0.05064197           11 
 4141000   0.59522536   -3.4160821    2556.6587  0.051450107  0.050630467            7 
 4142000   0.59096253   -3.4298848    2556.3432  0.051431338  0.050619054           24 
 4143000   0.58152568   -3.4264265    2559.8138  0.051488732  0.050607682           12 
 4144000   0.58444131   -3.4182458    2564.6718  0.051573998  0.050596261            8 
 4145000   0.59141914    -3.422181    2567.5473  0.051619367  0.050584898            9 
 4146000   0.58996921   -3.4179254    2565.6222  0.051568223  0.050573551            6 
 4147000   0.60153873   -3.4212097    2555.8294  0.051359003  0.050562234           10 
 4148000   0.58141396   -3.4233474    2561.9463   0.05146951  0.050550916            7 
 4149000   0.58097231   -3.4447857    2563.3993  0.051486288  0.050539542           13 
 4150000   0.58574205   -3.4091175    2561.4591  0.051434922  0.050528143           10 
 4151000   0.59098257   -3.4254333    2564.7427   0.05148845  0.050516719            5 
 4152000   0.57475719   -3.4103623    2557.7798  0.051336301   0.05050528           12 
 4153000   0.59080349   -3.4493704    2555.9162  0.051286544  0.050493815            4 
 4154000   0.57358243   -3.4349319    2558.8915  0.051333886  0.050482339           12 
 4155000   0.57115208   -3.4165793    2561.9667  0.051383207  0.050470901           16 
 4156000   0.59292131   -3.4174961    2556.4928  0.051261084  0.050459478            6 
 4157000   0.57196555   -3.4496474    2552.9099  0.051176928  0.050448007            9 
 4158000   0.58355443   -3.4293711    2557.3213  0.051253033  0.050436496            8 
 4159000   0.56279705   -3.4222825    2560.9602  0.051313622     0.050425           10 
 4160000   0.60219025   -3.4143994    2565.3593  0.051389408  0.050413551           12 
 4161000   0.58931515   -3.4114494    2553.9832  0.051149226  0.050402123           12 
 4162000   0.58378117   -3.4251039    2559.0459  0.051238305  0.050390668            6 
 4163000   0.59158246   -3.4307713    2563.8539  0.051322242  0.050379187           12 
 4164000   0.59509145    -3.428356    2554.4736  0.051122191  0.050367816            8 
 4165000    0.5745518   -3.4359146    2560.6499  0.051233491  0.050356353            7 
 4166000   0.58089531   -3.4301914    2562.2208  0.051252616  0.050344884            7 
 4167000   0.59160562   -3.4392756     2560.392  0.051203744  0.050333481            6 
 4168000   0.58229537   -3.4286941    2563.5329  0.051254256  0.050322107            8 
 4169000   0.57872349   -3.4226774    2562.0016  0.051211354  0.050310697           13 
 4170000   0.58891091   -3.4424634    2556.1591  0.051082316  0.050299295           11 
 4171000   0.59081293   -3.4202662    2558.6821  0.051120477  0.050287856            6 
 4172000   0.58438494   -3.4260989    2561.2744  0.051160003  0.050276421           11 
 4173000   0.58922003   -3.4227617    2565.2162   0.05122646  0.050265042            6 
 4174000   0.58571845   -3.4323755    2561.7614  0.051145212   0.05025368           10 
 4175000   0.60065472    -3.439438    2561.9917   0.05113756  0.050242314           23 
 4176000    0.5891711   -3.4321534    2559.7929  0.051081435  0.050230907            6 
 4177000   0.58230878   -3.4428473    2557.5881   0.05102522  0.050219499            7 
 4178000   0.58844955   -3.4144001    2560.4014   0.05106912  0.050208182            6 
 4179000   0.56762063   -3.4345661     2560.615  0.051061158  0.050196782            7 
 4180000   0.57600718   -3.4298219    2562.5565  0.051087649  0.050185319           15 
 4181000   0.59214296    -3.411661    2563.3128  0.051090505  0.050173978            9 
 4182000   0.58827916   -3.4370342    2562.3133  0.051058372  0.050162599            8 
 4183000   0.58809695   -3.4173437    2560.8514  0.051017042  0.050151191           17 
 4184000   0.58760404   -3.4314914     2558.025  0.050948555  0.050139839            6 
 4185000   0.58756191   -3.4294765     2557.872  0.050933333  0.050128487            7 
 4186000   0.58161483   -3.4325628    2562.9317  0.051021893   0.05011713           10 
 4187000   0.57731753   -3.4250716    2561.6847  0.050984888  0.050105724            7 
 4188000   0.59198853   -3.4200157    2564.8567  0.051035831  0.050094378           11 
 4189000   0.58104604   -3.4239757    2561.7223  0.050961294  0.050083092           18 
 4190000   0.57906021   -3.4195237     2565.048  0.051015275  0.050071763            5 
 4191000   0.57383013   -3.4380107    2564.3641  0.050989503  0.050060362            5 
 4192000   0.57423751    -3.417548    2561.5435  0.050921268  0.050048994            6 
 4193000    0.5791455   -3.4490154    2559.8842  0.050876148  0.050037517            9 
 4194000    0.5849457   -3.4238609    2563.3531  0.050932943  0.050026141            5 
 4195000   0.57131882   -3.4362073     2564.299  0.050939591  0.050014755            8 
 4196000   0.57796783   -3.4262209    2570.1995  0.051044636  0.050003434            6 
 4197000   0.56674564   -3.4461611     2558.251   0.05079523  0.049992073           10 
 4198000   0.57917203   -3.4410033    2560.2629  0.050823068  0.049980754           12 
 4199000    0.5908056   -3.4252667    2560.0269  0.050806282  0.049969429            6 
 4200000   0.58749993   -3.4316126     2560.932  0.050812143  0.049958129            5 
 4201000    0.5854639   -3.4319474    2570.2343  0.050984574  0.049946808            5 
 4202000    0.5840893   -3.4344795    2566.4221  0.050896837  0.049935502            4 
 4203000   0.57371901    -3.442597    2559.9133  0.050755676  0.049924192            5 
 4204000   0.58484246   -3.4355881    2561.9855   0.05078468  0.049912824           12 
 4205000     0.578448   -3.4320637    2560.4091  0.050741362  0.049901456           20 
 4206000   0.57499685   -3.4416833    2560.4772  0.050730647  0.049890123            6 
 4207000   0.57765796   -3.4268701    2558.1575  0.050672638  0.049878778            7 
 4208000   0.57490528   -3.4160797    2565.5992   0.05080797  0.049867421            6 
 4209000   0.56839145   -3.4436882    2557.9242  0.050643942  0.049856091           13 
 4210000   0.57852262   -3.4393204    2562.0525  0.050713628  0.049844742           10 
 4211000   0.57815372   -3.4465068    2562.1183  0.050702886  0.049833469            8 
 4212000   0.57722944   -3.4174081    2567.5508   0.05079833  0.049822158            3 
 4213000   0.57745143   -3.4520049    2565.6677  0.050749024  0.049810848            7 
 4214000   0.58713372    -3.446349    2566.2668   0.05074883  0.049799474            7 
 4215000   0.58346691   -3.4282929    2563.8506   0.05068902  0.049788161           11 
 4216000   0.58415237   -3.4206936    2564.7137  0.050694057  0.049776868            3 
 4217000   0.57836391   -3.4518668    2557.5943  0.050541346  0.049765567            7 
 4218000   0.57846571   -3.4336099      2564.71  0.050669946  0.049754227            5 
 4219000   0.57252433   -3.4358363    2567.3231  0.050709551  0.049742928           22 
 4220000   0.58206657   -3.4341278    2577.0684  0.050889976  0.049731676           10 
 4221000    0.5752546   -3.4433044    2564.2242  0.050624343  0.049720408            6 
 4222000   0.57888766   -3.4362746    2566.0061  0.050647523  0.049709152            5 
 4223000   0.57570282   -3.4384337    2571.0472  0.050735007  0.049697845            7 
 4224000   0.56544253   -3.4539223    2571.5046   0.05073202  0.049686471           21 
 4225000   0.57468849   -3.4619206    2563.9155  0.050570326  0.049675144            5 
 4226000   0.57663968   -3.4389126    2575.5396  0.050787577  0.049663904            7 
 4227000   0.56395681   -3.4430883    2568.2617  0.050632082  0.049652656            9 
 4228000   0.56856892   -3.4400116    2565.5155  0.050565979  0.049641405           12 
 4229000   0.57620556   -3.4428862    2562.2715  0.050490099  0.049630166            9 
 4230000    0.5788425   -3.4683598    2566.7745  0.050566873   0.04961892            5 
 4231000    0.5866484   -3.4329983    2573.1413  0.050680322  0.049607655            6 
 4232000   0.58510927    -3.427971    2568.8648  0.050584137  0.049596395            7 
 4233000   0.57567209    -3.439812    2570.8142  0.050610563  0.049585197           12 
 4234000   0.57233943   -3.4383024    2565.1508  0.050487144  0.049573984           10 
 4235000   0.58152355   -3.4519721    2565.3328  0.050478804  0.049562733            4 
 4236000   0.57353337   -3.4569949    2570.8457  0.050575341  0.049551548           18 
 4237000   0.58577359   -3.4438676    2570.5356  0.050557306  0.049540325            6 
 4238000   0.57256855   -3.4417505    2569.9091  0.050533055  0.049529085            6 
 4239000   0.56843072   -3.4526038    2561.2495  0.050350899  0.049517889           11 
 4240000   0.57391105   -3.4229346    2568.2443  0.050476499  0.049506597            5 
 4241000   0.56204719    -3.450565    2566.6874  0.050434006   0.04949539            4 
 4242000   0.55836851   -3.4439496    2566.4934  0.050418306    0.0494841            7 
 4243000   0.57717008    -3.426587    2564.9373  0.050375861  0.049472817            9 
 4244000   0.57888422   -3.4413869    2567.8969  0.050422103  0.049461575           20 
 4245000   0.56759802   -3.4365246    2560.2636  0.050260377  0.049450304            9 
 4246000   0.59300644   -3.4496026     2573.984  0.050517821   0.04943904            8 
 4247000    0.5744618   -3.4419684    2569.9043  0.050425875  0.049427794           12 
 4248000   0.56841636   -3.4711094    2562.6104  0.050270919   0.04941656           16 
 4249000   0.58056379   -3.4400257    2562.6991  0.050260827  0.049405315           10 
 4250000   0.57221722   -3.4476546     2565.696  0.050307764  0.049394098           13 
 4251000   0.56852819   -3.4368103    2570.5166   0.05039043  0.049382913           15 
 4252000   0.57314078   -3.4618659    2563.3322  0.050237774  0.049371627            9 
 4253000    0.5711906   -3.4486112    2568.3324  0.050323936  0.049360367            8 
 4254000   0.56712983   -3.4460693    2569.4187  0.050333387  0.049349166            8 
 4255000   0.57429271    -3.476216     2572.109  0.050374246  0.049337947            7 
 4256000    0.5833841   -3.4755111    2567.6985  0.050276051   0.04932668            9 
 4257000   0.56850582   -3.4493002    2575.0123  0.050407413  0.049315436            4 
 4258000   0.57114096     -3.44091    2572.1006   0.05033859  0.049304255           14 
 4259000   0.56996749   -3.4669378    2573.4753  0.050353668  0.049293061            6 
 4260000   0.57986016   -3.4481308    2565.9268  0.050194185  0.049281873           15 
 4261000   0.55160027   -3.4538964    2564.7298  0.050158997  0.049270596            9 
 4262000   0.57155551   -3.4517973    2572.1413  0.050292143  0.049259351            6 
 4263000   0.57828324   -3.4516233    2569.9996  0.050238479  0.049248102            8 
 4264000   0.58193093   -3.4337725     2569.729  0.050221409  0.049236853            8 
 4265000    0.5736314   -3.4579147    2575.2875  0.050318239  0.049225635            7 
 4266000   0.58262219   -3.4562415    2574.5643  0.050292316  0.049214384            9 
 4267000   0.56517235   -3.4464721    2574.5102  0.050279474   0.04920316           12 
 4268000   0.57337292   -3.4512144    2566.5075  0.050111439  0.049191883            8 
 4269000   0.57383241   -3.4574431    2567.9224  0.050127321  0.049180588           12 
 4270000   0.57163633   -3.4613414    2565.5245  0.050068785  0.049169262            7 
 4271000   0.56597646   -3.4503856    2565.2002  0.050050734  0.049158038           18 
 4272000   0.56727894   -3.4530748    2564.7695  0.050030617  0.049146827            8 
 4273000   0.56403686   -3.4507495    2570.2037  0.050124887  0.049135549            9 
 4274000   0.57336363   -3.4675022    2566.2574  0.050036215  0.049124274           10 
 4275000   0.57646457   -3.4503375     2570.718  0.050111462  0.049113009            5 
 4276000   0.58049603   -3.4514064    2572.8713  0.050141707  0.049101747           11 
 4277000   0.56095029   -3.4281745    2568.8671  0.050051965   0.04909047            9 
 4278000   0.57085734   -3.4642483    2559.6262  0.049860258  0.049079166           10 
 4279000   0.56069761   -3.4545513    2565.3042  0.049959184  0.049067835            6 
 4280000   0.57918036   -3.4564386    2564.3625  0.049929177  0.049056534            7 
 4281000   0.56453941   -3.4697901    2566.8479  0.049965894  0.049045264           13 
 4282000   0.57177891   -3.4559126    2564.2829  0.049904306  0.049033951           25 
 4283000   0.55546411   -3.4567514    2565.9367  0.049924833  0.049022713            6 
 4284000   0.57632507    -3.445519    2566.2802  0.049919861  0.049011431            8 
 4285000   0.57840326   -3.4713236     2566.444  0.049911396  0.049000205            9 
 4286000   0.56487419   -3.4557106    2570.0664  0.049970181  0.048988943            8 
 4287000    0.5634515   -3.4639423    2570.0029  0.049957292  0.048977681            7 
 4288000   0.56141961   -3.4576185    2571.1953  0.049968813  0.048966405            6 
 4289000   0.56453399   -3.4726956    2570.7889  0.049949267  0.048955171            6 
 4290000    0.5653633   -3.4476701    2568.1678  0.049886709  0.048943882            4 
 4291000   0.56122525   -3.4685927    2567.2835  0.049857911  0.048932576            7 
 4292000   0.55899951   -3.4560372    2567.3329  0.049847253  0.048921254            6 
 4293000   0.54375153   -3.4615837    2565.3303  0.049796768  0.048909923           10 
 4294000   0.56249488   -3.4738199    2562.0826  0.049722143  0.048898595            9 
 4295000   0.55754391   -3.4634987    2564.0159  0.049748077  0.048887303           10 
 4296000   0.56770428   -3.4573565    2565.9068  0.049773176  0.048875987           11 
 4297000   0.57500729   -3.4847929    2559.1531  0.049630615  0.048864668           25 
 4298000      0.56199   -3.4635324    2571.3761  0.049856059  0.048853412           10 
 4299000   0.57257927   -3.4691753    2572.6105   0.04986839   0.04884214           19 
 4300000   0.55637579   -3.4706348    2564.3121  0.049695971  0.048830808           14 
 4301000   0.55413621   -3.4780338    2565.4487  0.049706439  0.048819491           15 
 4302000   0.56544614   -3.4399666    2567.8699  0.049741786  0.048808172            8 
 4303000   0.56761772   -3.4824177    2567.4099  0.049721317  0.048796874            7 
 4304000   0.55663105   -3.4654528    2563.7133  0.049638192  0.048785526            8 
 4305000   0.55574951   -3.4870682    2568.2291  0.049714075  0.048774155            6 
 4306000   0.56704785   -3.4641459    2564.4819  0.049630011  0.048762812            6 
 4307000   0.56663583    -3.474816    2560.5242  0.049541912  0.048751486           10 
 4308000   0.55225118   -3.4737232     2564.555  0.049608383  0.048740206           10 
 4309000   0.56675793   -3.4570059    2564.4572  0.049594979    0.0487289            5 
 4310000   0.55659449   -3.4640382    2562.7238  0.049549958  0.048717604           10 
 4311000   0.56776689   -3.4664262    2566.2455   0.04960654  0.048706329            6 
 4312000   0.57021101   -3.4493345    2566.0532  0.049591319  0.048695103           18 
 4313000   0.55891077   -3.4733752    2559.8173  0.049459334  0.048683812            9 
 4314000   0.56035672   -3.4564065    2566.5875  0.049578649  0.048672422           10 
 4315000      0.57538   -3.4738769    2564.1057  0.049519229  0.048661059            9 
 4316000   0.54669417   -3.4671044    2568.8105  0.049598596   0.04864978            8 
 4317000   0.55182076    -3.482889    2567.0735  0.049553577  0.048638497            8 
 4318000   0.57528215   -3.4594872    2565.7044  0.049515679  0.048627228            9 
 4319000   0.56206483   -3.4540833     2565.808  0.049506214  0.048615945            8 
 4320000   0.56093716   -3.4791415    2570.1655  0.049578809  0.048604668           29 
 4321000   0.56747474   -3.4602032    2568.1491  0.049528448  0.048593396           13 
 4322000    0.5575424   -3.4608741    2569.5829  0.049544635  0.048582086            8 
 4323000   0.58019924   -3.4659951    2564.3186  0.049431696  0.048570802           13 
 4324000   0.55677653   -3.4657782     2561.903  0.049373709   0.04855947           12 
 4325000    0.5657785   -3.4811753    2570.3595  0.049525231  0.048548134            5 
 4326000   0.56885251   -3.4813557    2568.1211  0.049470663  0.048536852           13 
 4327000   0.55869339   -3.4686939    2560.6365  0.049315086  0.048525544           12 
 4328000   0.55587347   -3.4835885    2562.9961  0.049349124  0.048514231           16 
 4329000   0.55640577     -3.47319    2570.6587  0.049485229  0.048502967           25 
 4330000   0.55192454   -3.4764266    2569.2458   0.04944661  0.048491691            8 
 4331000   0.54574772   -3.4669841    2567.5582   0.04940272  0.048480398           15 
 4332000    0.5438579   -3.4731589    2556.4761  0.049178135  0.048469073           16 
 4333000   0.55702048   -3.4835532    2566.6639  0.049362719  0.048457762           13 
 4334000   0.56416978   -3.4803688    2572.7314  0.049467993   0.04844645            5 
 4335000   0.56629383   -3.4513278    2559.6248   0.04920463  0.048435176           10 
 4336000    0.5664102   -3.4766768    2564.7492  0.049291768  0.048423969           12 
 4337000   0.56856892   -3.4452089    2565.4047  0.049292996  0.048412709           11 
 4338000   0.55430967   -3.4866905    2565.5513   0.04928445  0.048401432           18 
 4339000   0.56171062   -3.4696041    2565.3929  0.049270049  0.048390117           11 
 4340000   0.54966492   -3.4732936    2572.2549  0.049390455  0.048378879           10 
 4341000   0.54819706   -3.4681325    2569.1907  0.049320254  0.048367635           12 
 4342000   0.55461104   -3.4852228    2568.5941  0.049297446  0.048356389           29 
 4343000   0.55960781   -3.4788032    2571.4098  0.049340121  0.048345151           17 
 4344000   0.56112646   -3.4472733    2565.8399  0.049221913  0.048334003           14 
 4345000   0.56622552   -3.4734249    2574.6462  0.049379482  0.048322839           28 
 4346000   0.56068076    -3.477558    2571.7341  0.049312282  0.048311682           13 
 4347000   0.56403405   -3.4665179    2572.5422   0.04931643  0.048300473            7 
 4348000   0.55513987   -3.4582116    2565.0152  0.049160825  0.048289321           11 
 4349000   0.55299849    -3.477661    2572.6902  0.049296585  0.048278092            8 
 4350000   0.55565442    -3.471931    2572.2674  0.049277153    0.0482669            4 
 4351000   0.57315685   -3.4806271    2574.9576  0.049317353  0.048255777            9 
 4352000   0.55204439   -3.4821352     2572.262  0.049254404   0.04824461           10 
 4353000   0.55753047   -3.4851701     2570.465  0.049208688  0.048233477            7 
 4354000   0.55976726   -3.4722976    2569.0922   0.04917111  0.048222324            7 
 4355000   0.55434268   -3.4878325    2575.3964  0.049280451  0.048211165           10 
 4356000   0.54981206   -3.4847835    2572.3453  0.049210768   0.04820002            9 
 4357000   0.55223963   -3.4822424    2575.4285  0.049258444  0.048188881           16 
 4358000   0.56535689   -3.4758939    2571.0217  0.049162875   0.04817771           14 
 4359000   0.55032863   -3.4775414    2575.7226  0.049241465  0.048166557           13 
 4360000   0.55442511   -3.4537312    2573.6361  0.049190292  0.048155373           19 
 4361000   0.56107555   -3.4673581    2575.2818   0.04921046  0.048144232            9 
 4362000   0.54750514   -3.4785166    2569.2014  0.049083016    0.0481331           13 
 4363000   0.54816046   -3.4810112    2566.1698  0.049013863   0.04812189           11 
 4364000   0.54947273   -3.4725639     2575.309  0.049177151  0.048110719           11 
 4365000   0.55259853   -3.4827414    2573.4967  0.049131285  0.048099572            4 
 4366000   0.56314784   -3.4701058    2568.7037  0.049028548  0.048088449           16 
 4367000   0.55999052   -3.4993654    2562.8135  0.048904922  0.048077291            8 
 4368000   0.56216569   -3.4928336    2571.9865  0.049068729  0.048066125            8 
 4369000   0.54628886    -3.507679    2571.4181  0.049046657  0.048054886           10 
 4370000   0.54214048   -3.4885491    2573.4167  0.049073544  0.048043678            6 
 4371000   0.55815655   -3.4909203    2568.1605  0.048962108  0.048032529           11 
 4372000   0.55237845   -3.4764506    2574.2031  0.049066085   0.04802138           23 
 4373000   0.55470449   -3.4785144    2571.3119  0.048999768  0.048010173           12 
 4374000   0.54898053   -3.5008913    2566.6525  0.048899795  0.047998986           18 
 4375000   0.55673945   -3.4956102    2571.3172  0.048977471   0.04798773           16 
 4376000   0.54763705   -3.4968965    2569.9204  0.048939678  0.047976543           28 
 4377000   0.55011532   -3.4996096    2571.8967  0.048966124  0.047965289           20 
 4378000   0.54501018   -3.4868229    2572.9005  0.048974046  0.047954111           18 
 4379000   0.54434548   -3.4768736    2567.0296  0.048851139  0.047942965           11 
 4380000   0.54760357    -3.496714     2571.239  0.048920073   0.04793175            7 
 4381000   0.57171225   -3.4737044    2572.8825  0.048940167  0.047920578           11 
 4382000   0.54557644    -3.474494    2570.3795  0.048881399  0.047909411           10 
 4383000   0.55849596   -3.4757683    2573.0875  0.048921733  0.047898227            8 
 4384000    0.5503933   -3.4696933    2562.2484   0.04870454  0.047887044            8 
 4385000    0.5488784   -3.4870765    2566.4982  0.048774195  0.047875845            8 
 4386000   0.56369802   -3.4909994    2568.7562  0.048805978  0.047864704           15 
 4387000   0.55391329   -3.4949805    2572.7038  0.048869839  0.047853503           31 
 4388000   0.54714952   -3.4869263    2569.7791  0.048803158  0.047842338           16 
 4389000   0.54219785   -3.4886733    2564.5803   0.04869333  0.047831153            5 
 4390000   0.54794755   -3.4834267    2573.3988  0.048849636  0.047819962            9 
 4391000   0.54604581   -3.4946366    2575.3945  0.048876386  0.047808757            6 
 4392000   0.54983604   -3.4811969    2569.5871  0.048755068  0.047797506           16 
 4393000   0.55419678     -3.49113    2567.7914  0.048709906   0.04778632            9 
 4394000   0.55324277   -3.5192955    2566.2604  0.048669785  0.047775091           10 
 4395000    0.5497107   -3.4958662    2570.3024   0.04873535   0.04776381           12 
 4396000   0.54588399   -3.4695802    2567.4175  0.048669577  0.047752587            9 
 4397000   0.55870384   -3.4910775    2572.6841  0.048758323  0.047741422           14 
 4398000   0.53998075   -3.4678084    2567.3852  0.048646831  0.047730235            8 
 4399000   0.55105507   -3.5013203    2567.0553  0.048629524  0.047719041           19 
 4400000   0.54045076   -3.5182639    2572.3258  0.048718291  0.047707831           12 
 4401000   0.54433042   -3.5037143    2567.4182  0.048614295  0.047696654           12 
 4402000   0.53955323   -3.4825114    2572.1087  0.048692047  0.047685509            8 
 4403000   0.55709809   -3.4902182    2570.6949   0.04865423  0.047674313           13 
 4404000   0.54371936    -3.490512     2569.368  0.048618075  0.047663119            7 
 4405000   0.53963796   -3.5035322    2573.5936  0.048686976  0.047651943           11 
 4406000   0.54600462   -3.4937041    2572.6172   0.04865746  0.047640808            5 
 4407000   0.53873237   -3.4833744    2573.7663  0.048668146  0.047629645           10 
 4408000   0.54757141   -3.5007431    2567.9029  0.048546258  0.047618499            5 
 4409000   0.54715751   -3.4721401    2573.4329  0.048639769  0.047607395           13 
 4410000   0.55087577   -3.4897245    2572.1269  0.048604061  0.047596205           19 
 4411000   0.56219462   -3.5075481    2566.1609  0.048480332  0.047585027           10 
 4412000   0.55199877   -3.5081888    2563.4908  0.048418911  0.047573837            7 
 4413000   0.54452167   -3.4839209    2569.3436  0.048518461   0.04756269           16 
 4414000   0.53241398   -3.4925394    2569.4774  0.048509995  0.047551489           16 
 4415000   0.53845233   -3.5065835    2564.7769  0.048410285  0.047540223           25 
 4416000   0.54177541   -3.4978237    2573.7712  0.048569052  0.047529012           10 
 4417000   0.55211175   -3.5057933    2576.4066  0.048607777  0.047517868            7 
 4418000   0.54701959   -3.5064813    2569.0201  0.048457449  0.047506702            7 
 4419000   0.54650989   -3.5061116    2570.8813  0.048481582  0.047495477            5 
 4420000   0.53853881   -3.5375263    2566.2942  0.048384129   0.04748424           11 
 4421000   0.53963029   -3.5058769    2569.0895  0.048425875  0.047472976           10 
 4422000   0.54589833   -3.4913169    2573.3095   0.04849445   0.04746175            8 
 4423000   0.54861742   -3.4897871    2567.6598  0.048377041  0.047450522           22 
 4424000   0.53355772   -3.4898809    2567.9624  0.048371805  0.047439316           11 
 4425000   0.53666793   -3.5220074    2568.4153  0.048369403  0.047428101            8 
 4426000   0.54706066   -3.4834293    2569.3989  0.048376994  0.047416878           15 
 4427000   0.55014747   -3.5056623    2570.7824  0.048392109   0.04740563           12 
 4428000   0.54265229   -3.5052042      2566.79  0.048306045   0.04739438            6 
 4429000   0.55229651   -3.5174441     2568.766  0.048332317  0.047383185           14 
 4430000   0.54828907   -3.4907772    2565.7191  0.048264091  0.047371976           10 
 4431000   0.54360008   -3.4828886    2575.5869  0.048438781  0.047360822           20 
 4432000   0.54433781   -3.5107456    2569.6605  0.048316421  0.047349657            8 
 4433000   0.54212706   -3.4851875    2566.8369  0.048252443   0.04733844            8 
 4434000   0.54389639   -3.4969972    2572.7198  0.048352124  0.047327231            6 
 4435000   0.53524909   -3.5129307    2576.7724   0.04841737  0.047316035           10 
 4436000   0.55094691   -3.4995427    2569.0313  0.048261033  0.047304821           10 
 4437000   0.54055357   -3.5003051     2565.597  0.048185654  0.047293606           10 
 4438000   0.53104273   -3.5078012    2570.6957  0.048270537  0.047282383            8 
 4439000   0.53369076   -3.5088199    2564.1583  0.048136937  0.047271152           16 
 4440000   0.54530114   -3.5308905     2570.797  0.048250695  0.047259941           16 
 4441000   0.55005803   -3.5051568    2573.7669  0.048295559  0.047248752           16 
 4442000   0.54785552   -3.5071032    2569.4488  0.048203677  0.047237556           17 
 4443000   0.54230235   -3.4980368    2569.1813   0.04818781  0.047226362            9 
 4444000   0.53762707   -3.4903478    2564.2774  0.048085009  0.047215154           15 
 4445000   0.54277055    -3.485629    2574.2055  0.048260321   0.04720399           16 
 4446000   0.53149106   -3.4999199    2573.2541  0.048231633  0.047192841           11 
 4447000   0.53848006   -3.5298522    2567.4531  0.048112082  0.047181693           19 
 4448000   0.53555834   -3.5112533    2579.5116  0.048327181  0.047170529           11 
 4449000   0.54490723   -3.5145032    2563.9589  0.048025003  0.047159364           21 
 4450000   0.53786832   -3.5114587    2576.3641   0.04824652   0.04714818           13 
 4451000   0.55968205   -3.5087014    2567.8885  0.048076995  0.047136959            9 
 4452000   0.53764241   -3.5158264    2564.6256  0.048005121  0.047125743            6 
 4453000   0.53927771   -3.5046296    2567.6002  0.048050008  0.047114563            6 
 4454000   0.53928211   -3.5128998    2565.5392  0.048000658  0.047103385            7 
 4455000   0.54179323   -3.5019739    2572.6165   0.04812227  0.047092276            9 
 4456000   0.54020982   -3.5081353    2573.5841  0.048129564  0.047081155            7 
 4457000    0.5413718   -3.5092231    2568.2012  0.048018121   0.04706998           10 
 4458000   0.54798127   -3.4967772     2573.679  0.048109746  0.047058838           29 
 4459000    0.5374023   -3.5017246    2573.1634  0.048089322  0.047047704            6 
 4460000   0.53622323      -3.5123    2572.2903  0.048062225  0.047036556           11 
 4461000   0.53577547   -3.5250621    2569.3668  0.047996839  0.047025389           14 
 4462000   0.53545574   -3.4892908    2568.7646  0.047974836  0.047014191            6 
 4463000   0.53846154   -3.5096256    2564.6307  0.047886898  0.047003043           12 
 4464000   0.54134057   -3.5046287    2565.5822  0.047893933  0.046991869           15 
 4465000   0.54711618   -3.5034666    2564.6735  0.047866246  0.046980748            8 
 4466000   0.54609008   -3.5184631    2567.5894  0.047909938  0.046969549            5 
 4467000   0.54848147    -3.520121    2568.5185  0.047916546  0.046958353            7 
 4468000   0.53257818   -3.5202879    2571.8361  0.047967699  0.046947178            8 
 4469000   0.54087052    -3.497697    2569.2295   0.04790836  0.046936065           11 
 4470000   0.53720355   -3.5265287     2569.976  0.047911559  0.046924903            8 
 4471000   0.53887713   -3.5108952    2576.5733  0.048023807  0.046913748            6 
 4472000   0.53714347   -3.5140326    2572.2628  0.047932745  0.046902635            9 
 4473000   0.53290885    -3.500228    2573.7773  0.047950243  0.046891502            8 
 4474000   0.54243391   -3.5162165    2571.5999   0.04789897  0.046880394            7 
 4475000    0.5418417   -3.5186735    2567.7238  0.047816085  0.046869281           10 
 4476000   0.53980043    -3.504489    2572.4722  0.047893808  0.046858138           27 
 4477000   0.53113547   -3.5199263    2568.2919    0.0478053  0.046846961           13 
 4478000   0.53827808   -3.5087279    2570.7074  0.047839576  0.046835817           11 
 4479000   0.53301361   -3.5216186    2570.3491  0.047822227  0.046824699           16 
 4480000   0.54025593   -3.5136497    2571.1319  0.047826114  0.046813593           14 
 4481000   0.52836442   -3.5111151    2568.5509  0.047767443  0.046802447           11 
 4482000   0.53450593    -3.502477    2575.5791  0.047887458  0.046791291           16 
 4483000   0.53020996   -3.5187487    2577.7022  0.047916243  0.046780177           10 
 4484000   0.53325297   -3.5247739    2575.2559  0.047860093  0.046769032            8 
 4485000   0.52169868   -3.4998876    2572.2287  0.047793175  0.046757945           12 
 4486000   0.53178431   -3.5135117    2567.5047  0.047694768  0.046746853           24 
 4487000   0.54376572   -3.5221213    2569.4977  0.047721152  0.046735713            9 
 4488000   0.52977835   -3.5027001    2569.0302  0.047701839  0.046724577           22 
 4489000   0.53597014   -3.5150871    2568.1043  0.047674023   0.04671348           15 
 4490000   0.53675676   -3.5208773     2564.857  0.047603136  0.046702378           53 
 4491000   0.53639934   -3.5328789    2573.4065  0.047751178  0.046691313           23 
 4492000   0.51849372   -3.4997216    2579.0998  0.047846166  0.046680258           11 
 4493000   0.52973688   -3.5370293    2566.4465  0.047600832  0.046669174           14 
 4494000    0.5409657   -3.5174024    2571.2902  0.047680058  0.046658099            9 
 4495000   0.53865848   -3.5004156    2572.7133  0.047695835   0.04664709           11 
 4496000   0.54118352   -3.5352179    2567.0102  0.047579519  0.046636005           24 
 4497000   0.53199667   -3.5109371    2570.4054  0.047631854  0.046624851           19 
 4498000   0.52984848   -3.5368351    2573.9015  0.047686037  0.046613675           15 
 4499000   0.54061309   -3.5159835     2573.536  0.047668667   0.04660257           18 
 4500000   0.53645232   -3.5321124    2575.6226  0.047696715  0.046591519           13 
 4501000   0.52969316   -3.4984421    2573.9676  0.047655476  0.046580476           14 
 4502000   0.52560325   -3.5336315     2574.849  0.047661207  0.046569372           13 
 4503000   0.53901304   -3.5135695    2575.4667  0.047662053  0.046558267           15 
 4504000   0.53444659   -3.5091907    2577.5816  0.047690601  0.046547206           10 
 4505000   0.53270128   -3.5163144    2571.9303  0.047575477  0.046536165           17 
 4506000   0.52384706   -3.5346015    2571.8828   0.04756404  0.046525087           15 
 4507000   0.52983692   -3.5091603    2569.4396  0.047508313  0.046513964           11 
 4508000    0.5413489   -3.5231398    2567.4845  0.047461632  0.046502896            9 
 4509000   0.52409328   -3.5070042    2576.2692  0.047613462  0.046491847            7 
 4510000   0.53507463   -3.5126236    2571.8339  0.047520952  0.046480807           11 
 4511000   0.53436769   -3.5158364    2571.0295  0.047495558  0.046469735            9 
 4512000   0.53145798   -3.5024474    2570.9636  0.047483813  0.046458662           15 
 4513000   0.53584892   -3.5312767    2574.2207  0.047533436  0.046447548           20 
 4514000   0.52557842   -3.5047724    2577.1901  0.047577723  0.046436477            5 
 4515000   0.53236277   -3.5207051    2574.8404  0.047523817  0.046425448           13 
 4516000   0.52301984   -3.5271996    2580.0467  0.047609364  0.046414414           17 
 4517000   0.53226127   -3.5335137    2574.1953  0.047490874  0.046403343           12 
 4518000   0.50999649    -3.532943    2568.2261  0.047370262  0.046392299            8 
 4519000    0.5293804   -3.5176756    2574.5932  0.047477193  0.046381239           19 
 4520000   0.53384305   -3.5199718    2567.1261   0.04732902  0.046370191            8 
 4521000   0.53454707   -3.5202772    2573.3476  0.047433229  0.046359115           12 
 4522000   0.52311606   -3.5452975    2565.0498  0.047269824  0.046348002           12 
 4523000   0.52300875   -3.5391855    2565.8037  0.047273265  0.046336918           14 
 4524000   0.51814986   -3.5201346    2574.1962  0.047417406  0.046325856           15 
 4525000   0.52376725   -3.5208696    2575.2467  0.047426275  0.046314785           15 
 4526000   0.51754868   -3.5326152    2571.6282  0.047349172  0.046303741            8 
 4527000   0.52089646   -3.5217223    2569.2624  0.047295163  0.046292711            8 
 4528000   0.53760443   -3.5193446    2567.9843  0.047261196  0.046281608           10 
 4529000   0.52955843   -3.5190236     2568.828  0.047266284  0.046270569            6 
 4530000   0.53014965   -3.5143007    2570.0817  0.047278914  0.046259456            9 
 4531000   0.52801393   -3.5341262    2566.4433  0.047201562  0.046248392            9 
 4532000   0.53205352   -3.5109898    2568.6821  0.047232312  0.046237321           28 
 4533000   0.53017246   -3.5304166    2570.6925  0.047258851  0.046226241           11 
 4534000   0.53824809   -3.5274628    2576.9372  0.047363203  0.046215197           12 
 4535000   0.53100735   -3.5296764    2568.7965  0.047203169  0.046204108           10 
 4536000   0.53401207   -3.5351829     2573.972  0.047287846  0.046193029           19 
 4537000   0.52453024    -3.513426     2573.813  0.047274503  0.046182011           16 
 4538000   0.52921576   -3.5274234    2574.3485  0.047273919  0.046170992            6 
 4539000   0.52716225    -3.522423     2569.757  0.047179207  0.046160014           13 
 4540000   0.52695624   -3.5334147     2571.039  0.047192346  0.046149002           13 
 4541000   0.52088819   -3.5213797    2582.7823  0.047397458  0.046138016           12 
 4542000   0.53788484   -3.5333203    2573.7386  0.047221096  0.046127058           12 
 4543000   0.52868847   -3.5118583    2571.0665  0.047161686  0.046116062           20 
 4544000   0.52787251   -3.5357141    2574.4283   0.04721296  0.046105081           22 
 4545000   0.51997718   -3.5262229    2578.4006  0.047275406  0.046094133           33 
 4546000    0.5288398   -3.5324596    2573.2141  0.047169932  0.046083207           19 
 4547000   0.52339208   -3.5419166    2575.4902  0.047201271  0.046072176           16 
 4548000   0.52651101   -3.5275737    2573.4741  0.047153953  0.046061148           18 
 4549000   0.52162441   -3.5361893     2573.771  0.047149026  0.046050155           11 
 4550000   0.53380933   -3.5321883    2574.4371  0.047150862   0.04603918           17 
 4551000   0.52219876   -3.5389196    2573.3748   0.04712105   0.04602815           10 
 4552000   0.52166124   -3.5270143    2574.7638  0.047136128  0.046017143           16 
 4553000   0.52822943   -3.5238289    2569.5554  0.047030444  0.046006151           28 
 4554000   0.52960638   -3.5348952     2566.068  0.046956303  0.045995107            9 
 4555000   0.51327709    -3.519224    2571.2181  0.047040214   0.04598407           17 
 4556000   0.51609354   -3.5342041    2570.3224  0.047013506  0.045973057           21 
 4557000   0.52792117    -3.530777    2574.1743  0.047073629  0.045962024            9 
 4558000   0.52343219    -3.530414    2564.8488  0.046892804  0.045951036           13 
 4559000   0.52152269   -3.5486251    2575.0867  0.047069656   0.04594004           13 
 4560000   0.52728085    -3.530447     2573.005   0.04702129  0.045929005           14 
 4561000   0.52139813   -3.5418154    2569.1961   0.04694139  0.045917994           11 
 4562000   0.52459838   -3.5322621    2563.4662  0.046826431  0.045906955           18 
 4563000   0.52918323   -3.5256327    2570.5912  0.046946293  0.045895927           14 
 4564000   0.52338341   -3.5289481    2575.1929  0.047020028  0.045884897           12 
 4565000   0.52520508   -3.5578921    2567.4518  0.046868416  0.045873851           11 
 4566000    0.5205063   -3.5312186     2569.572  0.046896847  0.045862811           12 
 4567000   0.51515942   -3.5325314    2566.6524  0.046833304  0.045851763           24 
 4568000    0.5214287   -3.5421998    2572.5822  0.046931227  0.045840779           21 
 4569000   0.51725161   -3.5257002    2567.9058  0.046835663  0.045829775            8 
 4570000   0.51703029   -3.5395916    2570.7886  0.046877983  0.045818752            9 
 4571000   0.51856895   -3.5400014    2571.8355  0.046886814  0.045807784           16 
 4572000   0.52731874   -3.5340273    2574.2117   0.04691987  0.045796811            7 
 4573000   0.51952637   -3.5269053    2580.9841  0.047033022  0.045785841           12 
 4574000   0.51456929   -3.5471597    2575.0109  0.046913914  0.045774908           12 
 4575000   0.52910159   -3.5284128    2582.4104  0.047038441  0.045763995           11 
 4576000   0.52370167   -3.5267632    2572.0988  0.046840377  0.045753083           10 
 4577000   0.51426366   -3.5382545    2573.4112  0.046854038  0.045742199            7 
 4578000   0.51574335   -3.5412831    2578.8623   0.04694303   0.04573124            6 
 4579000   0.52259867   -3.5411577    2571.7702   0.04680371  0.045720279           28 
 4580000   0.51576313   -3.5324363    2571.8729  0.046795358  0.045709326           13 
 4581000    0.5177731   -3.5448145    2576.0463  0.046861061  0.045698347           20 
 4582000   0.52863835   -3.5469099    2571.2695  0.046763958  0.045687431           17 
 4583000   0.51650142   -3.5532472    2578.6407  0.046887787  0.045676471           11 
 4584000     0.517267   -3.5304798    2575.0319  0.046811953  0.045665523           13 
 4585000   0.51172059   -3.5249416    2578.7928  0.046870097  0.045654578           19 
 4586000   0.52409993   -3.5559477    2563.4508  0.046581094  0.045643616           12 
 4587000   0.51896948   -3.5531023    2568.8709  0.046669407  0.045632623            9 
 4588000    0.5105132   -3.5456349    2569.6073  0.046672611  0.045621672           13 
 4589000   0.51671845   -3.5497348     2580.364  0.046857775   0.04561071           13 
 4590000   0.52899545   -3.5401174    2574.8209  0.046746929  0.045599757            8 
 4591000   0.51739883   -3.5625814    2568.0276   0.04661344  0.045588813           14 
 4592000   0.51024185   -3.5322981    2572.3185  0.046681158  0.045577835           15 
 4593000   0.51414222   -3.5446372    2567.0537  0.046575472  0.045566859            9 
 4594000   0.52451857   -3.5290376    2567.2822  0.046569479   0.04555589           12 
 4595000   0.52252697   -3.5277272    2573.5429  0.046672885  0.045544948            4 
 4596000   0.52460343   -3.5440888    2573.3188  0.046658666  0.045534096           16 
 4597000   0.52984007   -3.5643057    2579.7748   0.04676555  0.045523204           13 
 4598000   0.52409746   -3.5597336    2575.4689   0.04667734  0.045512271           16 
 4599000   0.51678011   -3.5449758    2570.2276  0.046572218  0.045501308            6 
 4600000   0.51124603   -3.5531285    2569.7703  0.046553809  0.045490332           11 
 4601000   0.50725523   -3.5678471    2568.8295  0.046526653  0.045479382            5 
 4602000   0.52209972    -3.539148    2575.4998  0.046637328  0.045468432            8 
 4603000   0.51593438   -3.5476797    2575.6768    0.0466304  0.045457546            7 
 4604000   0.50587805   -3.5414226    2572.0368  0.046554388  0.045446589           13 
 4605000   0.51295548   -3.5584285    2572.8231  0.046558507  0.045435639            9 
 4606000   0.51929616   -3.5448313    2573.6803  0.046563907  0.045424756           11 
 4607000   0.49791121   -3.5513922    2575.0475  0.046578531  0.045413847           15 
 4608000   0.51532977   -3.5375185    2575.7497  0.046581122  0.045402894           17 
 4609000   0.50168873   -3.5530186    2575.1244  0.046559709  0.045391977            5 
 4610000   0.51478907     -3.54792    2573.7554  0.046524863  0.045381064            5 
 4611000   0.51452784   -3.5547964     2569.424  0.046436492  0.045370123           20 
 4612000   0.50533624   -3.5671601    2569.9031   0.04643508  0.045359159           17 
 4613000   0.52373657   -3.5568901    2573.8306  0.046495965  0.045348204           17 
 4614000   0.50863348   -3.5552908    2569.9185  0.046415231   0.04533727            6 
 4615000     0.506906   -3.5442946    2573.9866  0.046478632  0.045326361           14 
 4616000   0.50968363   -3.5666822    2569.4753  0.046387119   0.04531546           31 
 4617000   0.50938901   -3.5573882    2570.8559  0.046401991   0.04530457           13 
 4618000    0.5111276   -3.5500622    2577.6427  0.046514412  0.045293666           14 
 4619000    0.5040471   -3.5624359    2569.1923  0.046351886  0.045282757           13 
 4620000   0.51522943   -3.5788951    2568.4281  0.046328068   0.04527179           10 
 4621000    0.5278578   -3.5634425    2569.7343  0.046341598  0.045260837            6 
 4622000   0.52094156   -3.5459132    2578.3888   0.04648761  0.045249919            7 
 4623000   0.51242739   -3.5384682    2575.3867   0.04642344  0.045239045           18 
 4624000   0.50684089    -3.560377     2570.434  0.046324142  0.045228208           20 
 4625000   0.52276425   -3.5583246    2576.0095  0.046414586  0.045217293            9 
 4626000    0.5222052   -3.5592379    2570.2898  0.046301516  0.045206404           14 
 4627000   0.50126019   -3.5607613    2574.7152  0.046371213  0.045195502           21 
 4628000    0.5084466   -3.5529423    2578.9196  0.046436899  0.045184589            9 
 4629000   0.51592106    -3.548871    2573.8932  0.046336379  0.045173782            6 
 4630000    0.5181632   -3.5651579    2575.3344  0.046352311  0.045162975           22 
 4631000   0.50431112    -3.568365    2574.1716  0.046321378  0.045152171           17 
 4632000   0.51362698   -3.5764737     2568.742  0.046213694  0.045141282           11 
 4633000   0.51976723   -3.5870443    2571.6523  0.046256067  0.045130379            8 
 4634000   0.49292076   -3.5425701    2574.5076  0.046297432  0.045119502           16 
 4635000   0.52157906   -3.5614488    2574.2038  0.046281981   0.04510867           19 
 4636000   0.50439282   -3.5570736    2578.3468   0.04634647  0.045097843           49 
 4637000   0.49554443    -3.573164    2577.0262  0.046312742  0.045086975           24 
 4638000   0.50837689   -3.5583576    2576.4505  0.046292412  0.045076149           14 
 4639000   0.50978793   -3.5464804    2576.9175  0.046290822  0.045065318           18 
 4640000   0.50426035   -3.5595413    2577.8381   0.04629738  0.045054462           28 
 4641000   0.52156357   -3.5757186    2571.2224  0.046168613  0.045043575           29 
 4642000   0.51762395   -3.5624288    2584.4455  0.046396049   0.04503274           22 
 4643000   0.50721512   -3.5411242     2577.096  0.046254146  0.045021945            8 
 4644000   0.51251742   -3.5561035    2570.2819  0.046121911  0.045011136           10 
 4645000   0.51102702   -3.5593593    2565.9031  0.046033424  0.045000316           36 
 4646000   0.51141865   -3.5634638    2571.0199  0.046115294  0.044989494           13 
 4647000    0.5122966   -3.5439671    2569.5093  0.046078282  0.044978666           11 
 4648000   0.49664484   -3.5611584    2574.2303   0.04615301  0.044967822           23 
 4649000   0.50206689   -3.5507923    2574.2081  0.046142685  0.044956979            7 
 4650000   0.50876046   -3.5656794    2571.7484  0.046088681  0.044946153           24 
 4651000   0.52171319   -3.5479771    2571.1789  0.046068569  0.044935337           26 
 4652000     0.501975   -3.5496099    2578.0357  0.046181494  0.044924548           10 
 4653000   0.50138117   -3.5681041    2574.8546  0.046114596  0.044913751           28 
 4654000   0.51606466   -3.5583379     2574.195  0.046092877  0.044902941            8 
 4655000   0.50592844   -3.5611029    2573.8973  0.046077645  0.044892157            6 
 4656000   0.50189909   -3.5692106    2571.5101  0.046025023  0.044881386           13 
 4657000    0.5061378   -3.5419335    2585.1715    0.0462596  0.044870623            7 
 4658000   0.51058464   -3.5529824    2578.1674  0.046124363  0.044859831           14 
 4659000    0.5084802   -3.5579167    2576.8596  0.046091071  0.044849046           18 
 4660000   0.49712199   -3.5492639    2580.8186  0.046151977  0.044838263            7 
 4661000   0.50920323   -3.5695853    2575.3475  0.046044259   0.04482748           18 
 4662000   0.50199377   -3.5698519    2583.0328  0.046171757  0.044816761           10 
 4663000    0.5085164    -3.577324    2571.9972  0.045964636  0.044806039           20 
 4664000   0.50924582   -3.5578553    2580.6271  0.046108974  0.044795296           15 
 4665000   0.51651005   -3.5604858    2578.1298   0.04605448  0.044784584           10 
 4666000   0.51219514   -3.5668068    2570.3565  0.045905781  0.044773877           28 
 4667000   0.50485421   -3.5704569    2573.6691  0.045955093   0.04476311           42 
 4668000   0.49503566    -3.559436     2577.528  0.046014139  0.044752365            6 
 4669000   0.50610803   -3.5773862    2576.2226  0.045980985  0.044741626           13 
 4670000   0.50180283   -3.5738957    2581.7103  0.046069063  0.044730921           18 
 4671000   0.50422381   -3.5653572    2582.4492  0.046072382  0.044720202           19 
 4672000   0.50473144    -3.572268    2581.6429   0.04604814   0.04470948           22 
 4673000   0.52028686   -3.5690277    2577.1487   0.04595814  0.044698728           23 
 4674000   0.51512385   -3.5759115     2570.235  0.045825043  0.044687984           18 
 4675000   0.50078892   -3.5836223    2573.6685  0.045876444   0.04467721           12 
 4676000   0.50467655   -3.5672339    2575.3099  0.045895885  0.044666435           25 
 4677000   0.49622504   -3.5804114    2569.0311  0.045774198  0.044655653           21 
 4678000   0.49903857   -3.5696123    2574.2979  0.045858236  0.044644901           12 
 4679000   0.51043665   -3.5805796    2576.6564  0.045890439  0.044634134           13 
 4680000   0.50688436    -3.570455    2575.6466  0.045862653  0.044623396            5 
 4681000   0.51104278    -3.585793      2583.95  0.046000677  0.044612642            7 
 4682000   0.49924911   -3.5933836    2580.3462  0.045926709  0.044601899           12 
 4683000    0.5037146   -3.5882849    2575.0064  0.045821881  0.044591181           13 
 4684000   0.51585628   -3.5587588    2582.5843  0.045946916  0.044580438           32 
 4685000   0.51172822   -3.5715417    2573.8917  0.045782492  0.044569748           25 
 4686000    0.4945975   -3.5731524    2573.2041  0.045760494  0.044559056           15 
 4687000   0.48942655   -3.5698069    2571.9859  0.045729072  0.044548359           12 
 4688000   0.50948455   -3.5691821    2573.5947  0.045747916  0.044537659           18 
 4689000   0.50144405   -3.5781284    2583.0251  0.045905757  0.044526959           12 
 4690000   0.50661125   -3.5612332    2581.6886   0.04587222   0.04451629           25 
 4691000   0.50705808   -3.5765327    2573.6358  0.045719389  0.044505589           11 
 4692000   0.50971014   -3.5672123    2578.8591  0.045802414   0.04449491           24 
 4693000   0.49834727   -3.5735044    2577.8502  0.045774738   0.04448422           11 
 4694000   0.50323372   -3.5778953    2578.3889  0.045774551  0.044473503           16 
 4695000   0.50619677   -3.5762501    2578.3642  0.045764363   0.04446281           18 
 4696000   0.50231014   -3.5690615    2580.8667  0.045799026  0.044452103           40 
 4697000   0.50194769   -3.5823598    2573.3164  0.045655319  0.044441373           31 
 4698000   0.49671609   -3.5708758    2573.9496  0.045656833  0.044430666           10 
 4699000   0.50315937   -3.5794217    2577.7071  0.045713753  0.044419987           17 
 4700000   0.50033206    -3.590194    2585.7338  0.045846344  0.044409282           12 
 4701000   0.49715237   -3.5915463    2577.7668  0.045695362  0.044398593           11 
 4702000   0.49589707   -3.5821878    2579.1604  0.045710343  0.044387908            8 
 4703000   0.48744444   -3.5734667    2580.3731  0.045722111   0.04437718           18 
 4704000   0.49219757   -3.5788866    2572.9174  0.045580311  0.044366495           33 
 4705000   0.50037716   -3.5898726    2573.7171  0.045584788  0.044355775           16 
 4706000   0.49185069   -3.5644948    2569.5257  0.045500881  0.044345052           12 
 4707000   0.49904323   -3.5678678    2575.2781  0.045593055  0.044334356           25 
 4708000   0.47938653    -3.582931    2575.8026  0.045592654  0.044323657           13 
 4709000   0.49789193   -3.5771086    2577.1118   0.04560614  0.044312938           20 
 4710000   0.49652309   -3.5755802    2577.2198   0.04559837  0.044302243           16 
 4711000   0.50358133   -3.5745902     2576.363  0.045573533  0.044291576           10 
 4712000   0.50076657   -3.5825237    2579.2612  0.045615117  0.044280911           11 
 4713000   0.51595185   -3.5806829    2577.3414  0.045571494  0.044270249           32 
 4714000   0.48847705   -3.5779334    2570.8969  0.045447902  0.044259541           24 
 4715000   0.49436023   -3.5930755    2579.0396  0.045582177  0.044248893           10 
 4716000   0.51085932   -3.5895836    2576.1319  0.045521131  0.044238236           15 
 4717000   0.50461349   -3.5792323    2579.4568  0.045570221  0.044227583           22 
 4718000   0.49632164   -3.5584277    2572.0583  0.045429885   0.04421696           13 
 4719000   0.49766366   -3.5720877    2576.0427  0.045490618  0.044206327           16 
 4720000   0.49223213   -3.5774963     2583.126  0.045606038  0.044195701           11 
 4721000   0.49122177   -3.5945413    2576.9174  0.045486785  0.044185056           10 
 4722000   0.49209013   -3.6016624     2573.008   0.04540816  0.044174379           62 
 4723000   0.50939516   -3.5863334    2570.9864  0.045362877  0.044163727           24 
 4724000    0.4983943   -3.5744873    2571.5824  0.045363787   0.04415307           29 
 4725000   0.48759102   -3.5903231    2571.9547  0.045360753  0.044142418           18 
 4726000   0.51044071    -3.583489    2576.4652  0.045430688  0.044131752           46 
 4727000   0.50227743   -3.5897891    2580.5255  0.045492657  0.044121093           50 
 4728000   0.49941051    -3.595267    2582.6189  0.045519933  0.044110433           13 
 4729000   0.48955964   -3.5762504    2576.3727  0.045400237  0.044099783           19 
 4730000   0.49082612   -3.5800626    2575.3497  0.045372616  0.044089121           68 
 4731000   0.49589323   -3.5982033    2580.9771  0.045462149  0.044078491           17 
 4732000   0.48921073   -3.5998671     2573.291  0.045317185  0.044067767           15 
 4733000   0.49884231   -3.5991389    2579.0976  0.045409845  0.044057074           19 
 4734000   0.49599048   -3.5818571    2574.2216  0.045314421  0.044046409           13 
 4735000   0.49355996   -3.5815139    2573.1428  0.045285864  0.044035719           12 
 4736000    0.4959921   -3.5885235    2573.2481  0.045278154  0.044025034           12 
 4737000   0.49169148   -3.5988611    2565.3799  0.045130179  0.044014369           11 
 4738000   0.49225544    -3.582258    2573.6763  0.045266573  0.044003725           10 
 4739000   0.49268706   -3.5805343    2578.9869  0.045350406  0.043993121           12 
 4740000   0.49795554   -3.5854518     2579.372  0.045347608  0.043982538           13 
 4741000   0.49428698   -3.5835451    2575.1544   0.04526391  0.043971924           11 
 4742000   0.49594526    -3.568229    2574.6427  0.045245372  0.043961308           15 
 4743000   0.49983904    -3.586811    2578.0522  0.045295737   0.04395069           11 
 4744000   0.48057692   -3.5990942    2576.9809   0.04526737  0.043940058            9 
 4745000   0.50477546   -3.6049753    2575.0201  0.045223395  0.043929389           10 
 4746000   0.48317468   -3.5734626    2577.6092  0.045259328  0.043918774           13 
 4747000   0.48998219   -3.5893092    2569.6962   0.04511088  0.043908105           15 
 4748000    0.4889095   -3.5788655    2577.1065   0.04523144  0.043897479           12 
 4749000    0.4851447   -3.5677121    2575.1447   0.04518749  0.043886851           17 
 4750000   0.49424818   -3.5824002    2578.2732  0.045232863  0.043876246           16 
 4751000    0.4960942   -3.5804606    2574.9276   0.04516466  0.043865618           24 
 4752000   0.49878859   -3.5931871    2580.8843  0.045259614  0.043854987            8 
 4753000    0.5054121   -3.5937419    2580.5863  0.045244868  0.043844405           14 
 4754000   0.49343604   -3.5954904    2576.9926  0.045172357  0.043833786           13 
 4755000   0.49481454   -3.5939133    2578.2161  0.045184298  0.043823159           19 
 4756000   0.48995357   -3.5814365    2576.1542   0.04513867  0.043812502           10 
 4757000   0.48665571   -3.6014558     2574.395  0.045098363  0.043801918           45 
 4758000    0.4911915   -3.5893224    2578.5365  0.045161421  0.043791281           14 
 4759000   0.48664205   -3.5800747    2573.7746  0.045068547  0.043780669           14 
 4760000   0.48831364   -3.5978273    2575.2818  0.045085466  0.043770045            8 
 4761000   0.47779049   -3.6069859    2573.3206  0.045041669  0.043759415           12 
 4762000   0.48727985   -3.6078827    2575.9123  0.045077563  0.043748812           30 
 4763000   0.49310385    -3.577558    2576.3391  0.045075566  0.043738215           31 
 4764000   0.49249949   -3.5850444    2582.6562  0.045176605  0.043727614           13 
 4765000   0.49415317   -3.5875995    2573.4975  0.045006952  0.043717025           28 
 4766000   0.50084008   -3.6026487    2576.9761  0.045058331  0.043706428           36 
 4767000   0.48428133   -3.5912038    2583.0115  0.045154385  0.043695837           12 
 4768000   0.51065422   -3.5998897    2575.7035   0.04501719  0.043685252           18 
 4769000   0.49018574   -3.5953159    2580.8691  0.045098014  0.043674666           21 
 4770000   0.47982018   -3.5957314    2580.2873  0.045078395  0.043664081           24 
 4771000   0.48849492   -3.5940563    2576.6491  0.045005399   0.04365351           19 
 4772000   0.49902152   -3.5846139    2575.8538  0.044982079  0.043642972           32 
 4773000    0.4819146   -3.6089611    2577.4767  0.045000989  0.043632404           26 
 4774000   0.48751866   -3.5737738    2578.9099  0.045016581   0.04362182           14 
 4775000     0.494364   -3.6161171    2576.4388  0.044964029  0.043611265           20 
 4776000   0.50210695   -3.5952413    2583.0625  0.045070187  0.043600714           40 
 4777000   0.48067217   -3.6099461    2576.1374  0.044939944  0.043590158           14 
 4778000   0.48619414   -3.5915304    2573.6494  0.044887147  0.043579608           42 
 4779000   0.48627586   -3.5964898    2572.6245  0.044859882  0.043569049           22 
 4780000   0.49040061   -3.5921045    2583.5094  0.045040262  0.043558494           38 
 4781000   0.48491346   -3.6016621    2573.9183  0.044863668  0.043547961           30 
 4782000   0.49376569    -3.613243    2571.6803  0.044815285  0.043537415           35 
 4783000   0.47853839   -3.5944624    2579.7144  0.044945892  0.043526881           14 
 4784000   0.47616861   -3.6116271     2581.238  0.044963037  0.043516349           17 
 4785000   0.48699742   -3.6210628    2582.0436   0.04496767  0.043505786            7 
 4786000   0.48862564   -3.6059264    2577.6428  0.044881647   0.04349522           17 
 4787000   0.47695562   -3.5936348    2584.5898  0.044993207  0.043484708            7 
 4788000   0.49553584   -3.6048996    2579.4598  0.044894524  0.043474231           20 
 4789000   0.48762316   -3.6013975    2583.1624  0.044949579  0.043463708           19 
 4790000   0.49904552   -3.6197279    2575.7852  0.044811851  0.043453174            7 
 4791000   0.49658704   -3.5926896    2577.4688  0.044831782  0.043442662           14 
 4792000   0.49758871    -3.606619     2576.979  0.044813908  0.043432135           35 
 4793000   0.49320803   -3.6005837    2586.0119  0.044961609  0.043421613           11 
 4794000   0.48778559   -3.6123281      2575.51  0.044769678  0.043411121           17 
 4795000    0.4775203   -3.5908342    2578.9654  0.044820393  0.043400616           21 
 4796000   0.48702884   -3.6104404    2581.2621  0.044850954   0.04339011           49 
 4797000   0.47960457   -3.6072664    2574.9189  0.044731411   0.04337956           31 
 4798000   0.47577646   -3.5939947    2576.8384  0.044755426  0.043369031            9 
 4799000   0.48248878   -3.6200895    2571.5773  0.044654742  0.043358467           10 
 4800000   0.48639242   -3.5852685     2578.926   0.04477302  0.043347928           20 
 4801000    0.4933939     -3.60786    2573.5054  0.044669608  0.043337385           27 
 4802000   0.47906549   -3.5946598    2572.7368  0.044646967  0.043326865           22 
 4803000   0.48256578   -3.5979551    2577.0752  0.044712944  0.043316338           28 
 4804000   0.48722125   -3.6160263    2578.4916  0.044728206  0.043305812           25 
 4805000   0.48088862   -3.6020024    2577.9986  0.044710347  0.043295291           19 
 4806000   0.48453695   -3.6008815    2575.5223  0.044658106  0.043284787            8 
 4807000   0.48341124   -3.6137235    2572.1562  0.044590462  0.043274277           16 
 4808000   0.47300413   -3.6120995    2577.6654  0.044676674  0.043263779           13 
 4809000   0.48761695   -3.6119313    2581.0722  0.044726419    0.0432533           37 
 4810000   0.48471867   -3.6086629    2585.0266  0.044785631  0.043242849           22 
 4811000   0.48211942   -3.6068825     2580.681   0.04470105   0.04323241           11 
 4812000   0.48900298   -3.6147095    2580.6297  0.044690872  0.043221959           14 
 4813000   0.49458296   -3.6019116     2580.199  0.044674129  0.043211497           12 
 4814000    0.4906224   -3.6161552    2578.8245  0.044641056  0.043201004           17 
 4815000   0.47705952   -3.6069568    2575.4245  0.044572941  0.043190481           49 
 4816000    0.4881542   -3.6233645    2572.5056  0.044513178  0.043179938           34 
 4817000   0.47577831   -3.6215461    2575.3401  0.044552975  0.043169387           21 
 4818000   0.48049444   -3.6199809    2580.1095  0.044626219  0.043158854           27 
 4819000   0.48963082   -3.6228676    2578.8584  0.044595325  0.043148369           21 
 4820000   0.47339417   -3.6180378    2578.4199   0.04457849  0.043137882           27 
 4821000    0.4798657   -3.6045461    2580.3109  0.044601931  0.043127397           19 
 4822000   0.46818451   -3.6132576    2576.7893  0.044531821  0.043116945           60 
 4823000   0.48395036     -3.60795    2574.9793  0.044491314  0.043106509           17 
 4824000    0.4772038   -3.6104659     2576.721  0.044512178  0.043096022           18 
 4825000   0.47808891   -3.6235682    2570.2049  0.044390412  0.043085545           44 
 4826000   0.47838446   -3.6108171    2580.6703  0.044561927    0.0430751           15 
 4827000   0.47253625   -3.6169326     2587.351  0.044668031  0.043064664           35 
 4828000   0.47844559   -3.6126587    2580.3219  0.044537454   0.04305427           11 
 4829000   0.48637988   -3.6232843    2578.9567  0.044504672  0.043043859           32 
 4830000   0.47912886    -3.601846    2577.6014  0.044472074  0.043033459           21 
 4831000   0.48832245   -3.6138841    2578.7841   0.04448327  0.043023058           29 
 4832000   0.47683028   -3.6008125     2582.206  0.044533079  0.043012616           27 
 4833000   0.47884704   -3.6240285    2574.4559  0.044390232  0.043002148           18 
 4834000   0.48389267   -3.6262479    2579.0845  0.044460842  0.042991687            9 
 4835000   0.47959938   -3.6146336    2587.5497  0.044597547  0.042981272           15 
 4836000   0.47834552   -3.6003353     2574.612  0.044365385  0.042970899           20 
 4837000   0.47356011   -3.5997141    2579.8165  0.044445877    0.0429605           26 
 4838000   0.46392298   -3.5978897    2573.8131  0.044333283  0.042950078           26 
 4839000   0.48271275   -3.6097845    2575.8578  0.044359334  0.042939652           25 
 4840000    0.4714016   -3.6108511    2575.9435  0.044351644  0.042929209           23 
 4841000   0.48413453   -3.6155602    2573.1621  0.044294604  0.042918811           58 
 4842000   0.47799172   -3.6152671    2575.4389  0.044324641  0.042908375           50 
 4843000   0.48370152    -3.615953    2578.4565  0.044367412  0.042897928           12 
 4844000    0.4795087   -3.6110476     2575.816  0.044312828  0.042887485           23 
 4845000   0.46561376   -3.6200077    2579.0155  0.044358711  0.042877015           20 
 4846000   0.47291078   -3.6411819    2571.1083  0.044213583   0.04286653           14 
 4847000   0.48299786   -3.6407362    2577.6647  0.044317184  0.042856069           10 
 4848000   0.48119604   -3.6184345    2583.0139  0.044399992  0.042845605           13 
 4849000    0.4845778   -3.6091077    2577.9683  0.044304123  0.042835169           15 
 4850000   0.47633883   -3.6030624    2580.5107  0.044338671  0.042824799           19 
 4851000   0.47149433   -3.6256429    2582.4733  0.044363246  0.042814436           12 
 4852000   0.47491344    -3.619291     2582.012   0.04434618  0.042804043           11 
 4853000   0.48040922   -3.6078002    2574.2375  0.044203542  0.042793643           30 
 4854000   0.47289818   -3.6270682    2578.8166   0.04427305  0.042783228           17 
 4855000   0.47520512   -3.6242943    2582.7958  0.044332232  0.042772807           17 
 4856000    0.4850594   -3.6260515    2577.8141  0.044237612  0.042762378           15 
 4857000   0.47246287   -3.6124679     2581.539  0.044292413  0.042752003           25 
 4858000   0.47692516   -3.6155523    2574.9023   0.04416945  0.042741644           17 
 4859000   0.47605268   -3.6252621    2584.5877  0.044326467  0.042731249           40 
 4860000   0.46861175   -3.6091706    2577.4411  0.044194807   0.04272089           16 
 4861000   0.48392746   -3.6169223    2580.4413  0.044237147  0.042710499           55 
 4862000   0.47136883   -3.6259251    2582.3983  0.044261591  0.042700085           17 
 4863000    0.4884678   -3.6039848    2578.8735  0.044192088  0.042689696           13 
 4864000   0.46533103    -3.611016    2582.3824  0.044243119  0.042679342           14 
 4865000   0.46859417   -3.6368214    2580.4502  0.044200929  0.042668963           23 
 4866000   0.47122468   -3.6254083    2573.7511  0.044077118  0.042658541           17 
 4867000    0.4694243   -3.6125257    2574.6992  0.044084295  0.042648142           24 
 4868000   0.48361658   -3.6272009    2576.8097  0.044111369  0.042637788           10 
 4869000   0.46777475   -3.6371355    2576.6587  0.044099725  0.042627433           19 
 4870000    0.4762071   -3.6301633    2582.7744  0.044195318   0.04261707           16 
 4871000   0.46512998   -3.6313643    2579.8965   0.04413701  0.042606724           20 
 4872000   0.46019286   -3.6202929    2582.6834   0.04417562   0.04259636           23 
 4873000   0.47297351   -3.6189715    2576.4676  0.044060258   0.04258601           12 
 4874000   0.47361231    -3.619641    2571.9583   0.04397412  0.042575674           11 
 4875000   0.46641135     -3.62609    2577.4553  0.044059064  0.042565353           15 
 4876000   0.46350955   -3.6047531    2579.4255  0.044083701  0.042555029           14 
 4877000   0.47849219   -3.6219931    2579.6912  0.044079202  0.042544686           25 
 4878000   0.47160102   -3.6102348     2579.825  0.044072451  0.042534345           33 
 4879000   0.47123254   -3.6342678    2576.1849  0.044001246  0.042523992           13 
 4880000   0.48007022   -3.6305307    2580.6169  0.044067911  0.042513641           14 
 4881000   0.47635805   -3.6262324    2574.3204  0.043951384  0.042503285            9 
 4882000   0.47460192   -3.6304555    2577.3426  0.043993967  0.042492941           13 
 4883000   0.47286798    -3.637351    2574.6586  0.043939153  0.042482605           17 
 4884000   0.47142459   -3.6334148    2582.3394   0.04406121  0.042472255           15 
 4885000   0.46923238   -3.6307686    2582.0835  0.044047824  0.042461911           30 
 4886000   0.46613862   -3.6310106    2577.6378  0.043962987  0.042451565           22 
 4887000   0.47320802   -3.6437374    2577.6351  0.043953944  0.042441203           31 
 4888000   0.47005243   -3.6321031    2581.3617  0.044008484  0.042430815           35 
 4889000    0.4641859   -3.6427098     2576.102  0.043909832  0.042420467           21 
 4890000   0.47169271   -3.6361207    2580.3004  0.043972399  0.042410118           19 
 4891000   0.46843191   -3.6256058    2580.8642  0.043973015  0.042399812           11 
 4892000   0.47445529   -3.6196717    2570.9131  0.043794514  0.042389483           28 
 4893000    0.4672053   -3.6172279    2574.9486  0.043854292   0.04237913           30 
 4894000   0.46161099   -3.6322278    2575.8586  0.043860826  0.042368756           15 
 4895000   0.46052098   -3.6357516    2579.0046  0.043905423  0.042358364           20 
 4896000   0.46800472   -3.6315039    2576.2273  0.043849185  0.042347998           29 
 4897000   0.46579466   -3.6455603    2571.8265  0.043765342  0.042337606           21 
 4898000   0.46523493   -3.6409464    2572.6556  0.043770512  0.042327239           13 
 4899000   0.46913889   -3.6245665    2576.3187  0.043823888  0.042316906            6 
 4900000   0.46194381   -3.6313676    2578.9592  0.043859849  0.042306574           18 
 4901000    0.4627877   -3.6305656     2582.528  0.043911583  0.042296219           14 
 4902000   0.46703748   -3.6322443      2575.58   0.04378451  0.042285886           29 
 4903000   0.46836013   -3.6147175    2575.2371  0.043769752  0.042275558           14 
 4904000   0.46838472   -3.6286543    2580.0939  0.043843357  0.042265218           36 
 4905000   0.45948554   -3.6324677    2578.4237  0.043806043  0.042254883           21 
 4906000   0.46580295   -3.6425649    2582.2806  0.043862628  0.042244526           26 
 4907000   0.46041241   -3.6356769    2577.4313  0.043771336  0.042234161           27 
 4908000   0.47248782   -3.6420934    2577.4035  0.043761945  0.042223841           20 
 4909000   0.46204597   -3.6230668     2576.469  0.043737167  0.042213504           16 
 4910000   0.46910014   -3.6360628    2573.0636  0.043670462  0.042203175           26 
 4911000   0.46023141   -3.6219963    2570.0226  0.043609967  0.042192892           15 
 4912000   0.46919175   -3.6505304    2574.1235  0.043670661  0.042182533           13 
 4913000   0.47394218   -3.6478786    2573.9943  0.043659581  0.042172155           31 
 4914000   0.46659402   -3.6286512     2572.809  0.043630595  0.042161811           24 
 4915000   0.47027004   -3.6349988    2575.4862  0.043667111  0.042151492           38 
 4916000   0.46227785   -3.6245983    2570.9652  0.043581591  0.042141175           32 
 4917000   0.48350292   -3.6261634    2576.4438  0.043665578  0.042130861           68 
 4918000   0.46680868   -3.6328127    2578.2551  0.043687392  0.042120539           18 
 4919000   0.45644013   -3.6465841    2577.8361  0.043671412  0.042110148           18 
 4920000   0.46576449   -3.6432239    2577.4704  0.043656341  0.042099778           46 
 4921000   0.46490432   -3.6490564     2572.546  0.043564079  0.042089414           21 
 4922000   0.46212788   -3.6448958    2576.0599  0.043614721  0.042079041           43 
 4923000   0.46229408   -3.6466628    2576.0862  0.043606307  0.042068698           25 
 4924000   0.45852191   -3.6520901    2575.5585   0.04358852  0.042058385           17 
 4925000   0.46303875   -3.6472774    2577.0722  0.043605282  0.042048057           14 
 4926000   0.47292821   -3.6380033    2581.9826    0.0436795   0.04203775           17 
 4927000   0.45704331   -3.6229591    2578.3602  0.043609367  0.042027432            9 
 4928000   0.46495356   -3.6394117    2580.2675  0.043632769  0.042017106            6 
 4929000   0.46706682   -3.6419344    2579.8025  0.043616056  0.042006816           10 
 4930000   0.46319843   -3.6328504    2576.2881  0.043547804  0.041996535           17 
 4931000   0.46835274   -3.6537456    2571.2683  0.043454139  0.041986205           26 
 4932000   0.45727389   -3.6266232     2574.539  0.043500591  0.041975882           30 
 4933000   0.46013432   -3.6381372    2579.8643  0.043581734  0.041965554           15 
 4934000    0.4584113   -3.6474714    2573.6372  0.043467727  0.041955242           17 
 4935000   0.46140808   -3.6387767    2575.7129  0.043493969  0.041944934           21 
 4936000   0.46638195   -3.6524407     2575.642  0.043483961  0.041934615           31 
 4937000   0.46115187   -3.6333992    2566.7969  0.043325853  0.041924245           13 
 4938000    0.4526825   -3.6324434    2571.1728  0.043390927  0.041913922           26 
 4939000   0.46869582   -3.6495294    2574.0009  0.043429859   0.04190361           12 
 4940000   0.46256072   -3.6464388    2572.9778  0.043403808  0.041893298           59 
 4941000   0.45725449    -3.649146    2572.2077  0.043382036  0.041883021           25 
 4942000   0.45974885   -3.6339239    2575.9024  0.043435559  0.041872732           28 
 4943000   0.46490529   -3.6553921    2574.9646  0.043410961  0.041862464           43 
 4944000   0.46238108   -3.6638583    2568.3056   0.04328994  0.041852128           56 
 4945000   0.47357096   -3.6456036    2569.3841  0.043299362  0.041841791           41 
 4946000   0.45546406   -3.6455946    2576.0998  0.043403757  0.041831481           25 
 4947000   0.45067913   -3.6418729    2574.9006  0.043374783  0.041821188           31 
 4948000   0.45605762   -3.6407722    2576.3155  0.043389846  0.041810932           11 
 4949000   0.45135348   -3.6601537    2577.3523  0.043398537  0.041800669           24 
 4950000   0.45680316   -3.6455276    2577.2751  0.043388469  0.041790396           22 
 4951000   0.46252514   -3.6473726    2575.1598  0.043344101  0.041780119           36 
 4952000   0.45913808   -3.6498647    2573.3397   0.04330472  0.041769892           33 
 4953000   0.45541132    -3.651142    2578.9409  0.043390216   0.04175967           40 
 4954000   0.46423926   -3.6537112    2573.2995  0.043286561  0.041749412           26 
 4955000   0.44703419   -3.6459552    2575.4297  0.043313651  0.041739174           36 
 4956000   0.45867142   -3.6526888    2574.6567  0.043291914   0.04172896            9 
 4957000   0.45143716    -3.650852    2576.3536  0.043311708  0.041718693           20 
 4958000   0.45214698   -3.6614789    2580.4254   0.04337141  0.041708429           31 
 4959000   0.45337511   -3.6453767     2578.789  0.043335165  0.041698199           35 
 4960000    0.4595551   -3.6449931    2579.2951   0.04333493  0.041687987           47 
 4961000   0.45255782   -3.6492925    2581.2312  0.043358718  0.041677765           43 
 4962000   0.47180796   -3.6436034    2577.3271  0.043284413   0.04166753           24 
 4963000   0.44827156   -3.6350074    2573.7503  0.043215634  0.041657316           26 
 4964000    0.4553341   -3.6376733    2580.3491  0.043317706  0.041647153           13 
 4965000   0.46297708   -3.6524016    2572.6492  0.043179745  0.041636955           10 
 4966000   0.46156926   -3.6491467    2575.6189  0.043220884  0.041626717           24 
 4967000   0.45613407   -3.6530965    2577.4613  0.043243092  0.041616516           16 
 4968000   0.45750688   -3.6418234    2581.3743  0.043300025   0.04160631           34 
 4969000   0.46596444   -3.6563471    2579.4687  0.043259352  0.041596095           29 
 4970000   0.45305916   -3.6644003    2568.1127  0.043060239  0.041585868           30 
 4971000   0.45240852   -3.6660495    2571.6007   0.04311005  0.041575597           30 
 4972000   0.45410353   -3.6588692    2573.6849  0.043136311  0.041565347           27 
 4973000   0.45560608   -3.6664443    2575.4967  0.043157997  0.041555108           21 
 4974000   0.44866124   -3.6499667    2576.7723  0.043170693  0.041544921           31 
 4975000   0.44918827   -3.6609487    2578.7747  0.043195557  0.041534731           52 
 4976000   0.46483662   -3.6805863    2575.5391  0.043132689  0.041524523           28 
 4977000   0.45092631   -3.6758243    2571.0119   0.04304822  0.041514299           48 
 4978000   0.46106678   -3.6574447    2579.2443  0.043177386   0.04150406           16 
 4979000   0.45147947   -3.6507755    2575.1397  0.043100015  0.041493874           52 
 4980000   0.44997665   -3.6575604     2578.734  0.043151506  0.041483689           17 
 4981000   0.45459227    -3.656782    2579.1314  0.043149491  0.041473507           11 
 4982000     0.451954   -3.6428571    2579.3631  0.043144707  0.041463361           27 
 4983000   0.44763271   -3.6659777    2571.7493  0.043008718  0.041453237           14 
 4984000   0.45103616    -3.646233    2575.1854  0.043057541  0.041443081           11 
 4985000   0.45569601   -3.6611451    2574.0283   0.04302956  0.041432941           15 
 4986000   0.45479781   -3.6664149    2574.8475  0.043034622  0.041422749           48 
 4987000   0.45896112   -3.6572346     2575.653  0.043039453  0.041412578           99 
 4988000    0.4481113     -3.65123    2572.4032   0.04297653  0.041402398           53 
 4989000   0.45522917   -3.6570551    2575.0352   0.04301188  0.041392218           44 
 4990000   0.46268373   -3.6591173    2573.5331  0.042978175  0.041382028           34 
 4991000   0.43891156   -3.6771145    2574.9817   0.04299375   0.04137185           15 
 4992000   0.45652997   -3.6730711    2575.1365  0.042987722  0.041361655           54 
 4993000   0.45358835   -3.6679419    2578.0596  0.043027899  0.041351463           15 
 4994000   0.45246832   -3.6756259     2573.046  0.042935623   0.04134128           21 
 4995000   0.44848235   -3.6632593    2575.5342  0.042968538  0.041331083           16 
 4996000   0.44590757   -3.6743719    2574.1688  0.042937164   0.04132091           26 
 4997000   0.45369593   -3.6758193    2577.0946  0.042977364   0.04131073           26 
 4998000   0.45462971   -3.6560384    2571.8183  0.042880791  0.041300569            8 
 4999000   0.46385693   -3.6625867    2576.0158  0.042942185  0.041290422           28 
 5000000   0.46014494   -3.6699023    2575.8594  0.042930989  0.041280303           24 
 5001000   0.46019118   -3.6682265    2576.3324  0.042930287  0.041270168           26 
 5002000   0.44425025    -3.658381     2569.773  0.042812425  0.041260016           12 
 5003000   0.44629575   -3.6666849    2580.4659  0.042981975  0.041249877           21 
 5004000   0.45223236   -3.6578671    2578.7776   0.04294527  0.041239741            9 
 5005000   0.45603229   -3.6541061    2574.8102  0.042870633  0.041229593           14 
 5006000   0.43862598   -3.6474223    2578.0003  0.042915174   0.04121947           14 
 5007000   0.45684274   -3.6567073    2578.1594   0.04290925  0.041209371           13 
 5008000   0.44660299    -3.639699    2576.4957  0.042872999  0.041199248           14 
 5009000   0.44590184   -3.6643303    2572.1357  0.042791903  0.041189108           17 
 5010000   0.44776343   -3.6676912    2575.4155  0.042837916  0.041178958            8 
 5011000    0.4337798   -3.6663374    2575.8563  0.042836697  0.041168835           22 
 5012000   0.44063717   -3.6782241    2571.9718  0.042763565  0.041158695           20 
Loop time of 12412.3 on 48 procs for 5000000 steps with 4000 atoms

Performance: 69608.585 tau/day, 402.827 timesteps/s
99.4% CPU use with 48 MPI tasks x no OpenMP threads

MPI task timing breakdown:
Section |  min time  |  avg time  |  max time  |%varavg| %total
---------------------------------------------------------------
Pair    | 815.38     | 868.5      | 928.07     |  95.9 |  7.00
Neigh   | 82.396     | 85.309     | 87.568     |  13.5 |  0.69
Comm    | 761.87     | 826.75     | 892.3      | 117.0 |  6.66
Output  | 14.513     | 14.518     | 14.6       |   0.3 |  0.12
Modify  | 10483      | 10507      | 10535      |  12.4 | 84.65
Other   |            | 110        |            |       |  0.89

Nlocal:        83.3333 ave          91 max          76 min
Histogram: 2 2 7 3 11 6 8 4 4 1
Nghost:        2190.35 ave        2207 max        2171 min
Histogram: 4 5 2 4 5 8 4 5 7 4
Neighs:        14539.4 ave       15984 max       12884 min
Histogram: 2 4 3 5 3 11 7 8 1 4
FullNghs:      29077.1 ave       31883 max       26481 min
Histogram: 2 4 4 7 9 7 6 4 4 1

Total # of neighbors = 1395703
Ave neighs/atom = 348.92575
Neighbor list builds = 271341
Dangerous builds = 0

#clear
#
#next RN
#
#jump SELF
Total wall time: 3:26:55
