
units lj                  # Use reduced LJ style units
atom_style atomic         # Uncharged point particles
atom_modify map hash      # Needed for indexing of clusters etc
                          # Used to be able to find where atoms are in relation to each other.

lattice fcc 1.0 spacing 1 1 1
Lattice spacing in x,y,z = 1.5874011 1.5874011 1.5874011
region box block 0 10 0 10 0 10 units lattice
create_box 2 box
Created orthogonal box = (0.0000000 0.0000000 0.0000000) to (15.874011 15.874011 15.874011)
  3 by 4 by 4 MPI processor grid
create_atoms 1 box
Created 4000 atoms
  using lattice units in orthogonal box = (0.0000000 0.0000000 0.0000000) to (15.874011 15.874011 15.874011)
  create_atoms CPU = 0.003 seconds
set type 1 type/fraction 2 0.18 78393
Setting atom values ...
  747 settings made for type/fraction
mass 1 1.0
mass 2 1.0
pair_style lj/cut  3.5
pair_modify tail  yes
pair_coeff 1  1  1.0  1.0   # Intearaction between 1 and 1 set with epsilon = 1 and sigma = 1
pair_coeff 1  2  1.5  0.8
pair_coeff 2  2  0.5  0.88

write_data data.0
System init for write_data ...
Neighbor list info ...
  update every 1 steps, delay 10 steps, check yes
  max neighbors/atom: 2000, page size: 100000
  master list distance cutoff = 3.8
  ghost atom cutoff = 3.8
  binsize = 1.9, bins = 9 9 9
  1 neighbor lists, perpetual/occasional/extra = 1 0 0
  (1) pair lj/cut, perpetual
      attributes: half, newton on
      pair build: half/bin/atomonly/newton
      stencil: half/bin/3d
      bin: standard
WARNING: Not all mixed pair coeffs generated from mixing. Use write_data with 'pair ij' option to store all pair coeffs. (../write_data.cpp:312)


#############################
#   M E L T   S Y S T E M   #
#############################

velocity all create 2.4 5300450 mom yes dist gaussian # Assign velocities
                                                    # Temperature 2.4, random number seed, zero linear momentum
                                                                                # Gaussian distribution

timestep 0.002   # simulation timestep
thermo 1000       # output thermodynamic data every 1000 steps bf 100

# Define a fix  in this case with index 1 applied to all
# particles in the simulation. This fix is for simulations
# in the anisotropic NPT ensemble. Note that we use the MTK
# correction.
fix 1 all npt temp 2.4 2.4 0.1 iso 5.68 5.68 0.5 mtk yes tchain 5 pchain 5 # Use NPT ensemble
                                                                         # Set temperature and pressure and damping
                                                                         # Numbers of thermostats in chain and in barostat
run 10000          # run for 10000 steps
Per MPI rank memory allocation (min/avg/max) = 3.642 | 3.644 | 3.648 Mbytes
Step Temp E_pair E_mol TotEng Press Volume 
       0          2.4   -7.1764538            0   -3.5773538   -3.5088476         4000 
    1000    2.4258356   -4.8003451            0   -1.1625014      5.71292    4535.8317 
    2000    2.3896434   -4.7854048            0   -1.2018358    5.5969408    4559.1283 
    3000    2.4156617   -4.7881817            0    -1.165595    5.6604594    4554.8667 
    4000    2.4165442   -4.7772083            0   -1.1532983    6.1319558    4509.3834 
    5000    2.4033283   -4.7832147            0   -1.1791236    5.6276596    4560.9788 
    6000     2.398165   -4.7360788            0   -1.1397306    5.7279351    4568.8079 
    7000    2.4228725    -4.786558            0   -1.1531578    6.1797078    4505.9943 
    8000     2.441529   -4.7496759            0   -1.0882979    5.9042016    4548.3557 
    9000    2.4018185   -4.7881313            0   -1.1863042    5.6078059    4564.3554 
   10000    2.4357657   -4.7250394            0   -1.0723043     5.748476    4575.9564 
Loop time of 2.28279 on 48 procs for 10000 steps with 4000 atoms

Performance: 756969.931 tau/day, 4380.613 timesteps/s
99.6% CPU use with 48 MPI tasks x no OpenMP threads

MPI task timing breakdown:
Section |  min time  |  avg time  |  max time  |%varavg| %total
---------------------------------------------------------------
Pair    | 0.94976    | 1.0147     | 1.104      |   3.3 | 44.45
Neigh   | 0.19001    | 0.20235    | 0.21903    |   1.2 |  8.86
Comm    | 0.71597    | 0.78876    | 0.85781    |   4.4 | 34.55
Output  | 0.00024262 | 0.00024594 | 0.00031709 |   0.0 |  0.01
Modify  | 0.22114    | 0.26213    | 0.28765    |   3.8 | 11.48
Other   |            | 0.01461    |            |       |  0.64

Nlocal:        83.3333 ave          92 max          73 min
Histogram: 3 0 2 3 12 12 6 4 3 3
Nghost:        1504.42 ave        1538 max        1477 min
Histogram: 3 6 3 9 10 6 2 5 2 2
Neighs:        8331.25 ave        9474 max        7173 min
Histogram: 3 1 4 5 14 5 8 1 3 4

Total # of neighbors = 399900
Ave neighs/atom = 99.975000
Neighbor list builds = 904
Dangerous builds = 180

# Equilibrate just above the melting temperature to avoid step fn in T

fix 1 all npt temp 1.25 1.25 0.1 iso 5.68 5.68 0.5 mtk yes tchain 5 pchain 5
run 2000
Per MPI rank memory allocation (min/avg/max) = 3.642 | 3.644 | 3.649 Mbytes
Step Temp E_pair E_mol TotEng Press Volume 
   10000    2.4357657   -4.7250394            0   -1.0723043     5.748476    4575.9564 
   11000    1.2588363   -6.4633338            0   -4.5755515    5.6883327    3719.6126 
   12000    1.2673203   -6.4789915            0   -4.5784863    5.6658504    3715.9626 
Loop time of 0.509562 on 48 procs for 2000 steps with 4000 atoms

Performance: 678229.001 tau/day, 3924.936 timesteps/s
99.7% CPU use with 48 MPI tasks x no OpenMP threads

MPI task timing breakdown:
Section |  min time  |  avg time  |  max time  |%varavg| %total
---------------------------------------------------------------
Pair    | 0.21842    | 0.24091    | 0.2754     |   2.2 | 47.28
Neigh   | 0.031283   | 0.034224   | 0.038436   |   0.7 |  6.72
Comm    | 0.15051    | 0.17587    | 0.20664    |   3.1 | 34.51
Output  | 4.9624e-05 | 5.1315e-05 | 6.7665e-05 |   0.0 |  0.01
Modify  | 0.04053    | 0.053891   | 0.068845   |   3.8 | 10.58
Other   |            | 0.004622   |            |       |  0.91

Nlocal:        83.3333 ave          93 max          75 min
Histogram: 2 2 6 9 10 7 5 4 1 2
Nghost:        1727.62 ave        1756 max        1701 min
Histogram: 1 1 6 9 11 3 11 5 0 1
Neighs:        10280.2 ave       11788 max        9329 min
Histogram: 6 5 7 8 9 3 4 4 1 1

Total # of neighbors = 493450
Ave neighs/atom = 123.36250
Neighbor list builds = 142
Dangerous builds = 7

#############################
# L I N E A R  Q U E N C H  #
#############################

# Define solid atoms. This closely follows ten Wolde  Ruiz-Montero and Frenkel  Faraday Discuss  1996  104  93-110
# Compute components of the per-atom q6 vector
compute q6 all orientorder/atom degrees 1 6 components 6 nnn NULL cutoff 1.3 # compute the Q6 parameter.
                                                                             # Use all neighbours within 1.3 unit cell.

# get number of connections
compute coord_number all coord/atom orientorder q6 0.5

# An atom is solid if it has 8 or more connections (of a possible 14)
variable is_solid atom c_coord_number>=8
group solid dynamic all var is_solid    # Must be dynamic to update
dynamic group solid defined

# do clustering
compute cluster solid cluster/atom 1.3 # Create a cluster where all atoms within are solid and max 1.3 units from another member

# define chunks one chunk per cluster
compute clus_chunks solid chunk/atom c_cluster nchunk every compress yes  # Says which atoms are in which chunk

# count the size of each chunk
compute size_chunks solid property/chunk clus_chunks count


# Find the maximum entry in the vector of chunk sizes
variable max_n equal max(c_size_chunks)


# Thermo style which includes this variable
# thermo_style custom step temp pe vol v_max_n

thermo ${N}  # Print the thermo information every 100 steps
thermo 1000  

# Reset the npt fix at a lower temperature (below freezing)
fix 1  all npt temp  ${temp} ${temp}  0.1  iso  5.68  5.68  0.5  mtk yes tchain  5  pchain  5
fix 1  all npt temp  0.45 ${temp}  0.1  iso  5.68  5.68  0.5  mtk yes tchain  5  pchain  5
fix 1  all npt temp  0.45 0.45  0.1  iso  5.68  5.68  0.5  mtk yes tchain  5  pchain  5

dump dmp2 all dcd ${N} traj.dcd
dump dmp2 all dcd 1000 traj.dcd


compute msd all msd com yes
variable twopoint equal c_msd[4]/6/(step*dt+1.0e-6)
fix 9 all vector 10 c_msd[4]
variable fit equal slope(f_9)/6/(10*dt)
thermo_style custom step temp pe c_msd[4] v_twopoint v_fit v_max_n

fix 1 all npt temp 1.25 ${temp} 0.1 iso 5.68 5.68 0.5 mtk yes tchain 5 pchain 5
fix 1 all npt temp 1.25 0.45 0.1 iso 5.68 5.68 0.5 mtk yes tchain 5 pchain 5
run 500000 # 5000000  # Run for this many steps
Neighbor list info ...
  update every 1 steps, delay 10 steps, check yes
  max neighbors/atom: 2000, page size: 100000
  master list distance cutoff = 3.8
  ghost atom cutoff = 3.8
  binsize = 1.9, bins = 9 9 9
  4 neighbor lists, perpetual/occasional/extra = 1 3 0
  (1) pair lj/cut, perpetual
      attributes: half, newton on
      pair build: half/bin/atomonly/newton
      stencil: half/bin/3d
      bin: standard
  (2) compute orientorder/atom, occasional
      attributes: full, newton on
      pair build: full/bin/atomonly
      stencil: full/bin/3d
      bin: standard
  (3) compute coord/atom, occasional
      attributes: full, newton on
      pair build: full/bin/atomonly
      stencil: full/bin/3d
      bin: standard
  (4) compute cluster/atom, occasional
      attributes: full, newton on
      pair build: full/bin/atomonly
      stencil: full/bin/3d
      bin: standard
Per MPI rank memory allocation (min/avg/max) = 9.769 | 9.775 | 9.780 Mbytes
Step Temp PotEng c_msd[4] v_twopoint v_fit v_max_n 
   12000    1.2673203   -6.4789915 1.7268165e-30 1.1991781e-32 8.3333333e+20            1 
   13000    1.2587528   -6.4986772    0.5260451 0.0033720839  0.043283272            3 
   14000    1.2625018   -6.4885402    1.0555131 0.0062828156  0.043427568            2 
   15000    1.2294335   -6.5002786    1.5802066 0.0087789254  0.043837299            3 
   16000    1.2202373   -6.4825938    2.0885164  0.010877689  0.043366808            6 
   17000     1.250153   -6.4716155    2.5988924  0.012739668  0.043246839            2 
   18000    1.2513871   -6.5653075    3.1313669  0.014497068  0.043187566            1 
   19000    1.2305352   -6.4874571    3.6800602  0.016140614  0.043418122            2 
   20000      1.22724    -6.494437    4.1282042  0.017200851  0.043186052            2 
   21000    1.2479299   -6.5061922    4.6252584  0.018354199  0.043013173            2 
   22000    1.2080576   -6.5175813    5.1064389  0.019342571  0.042759507            1 
   23000    1.2318583   -6.4773083    5.6406426   0.02043711  0.042584367            1 
   24000    1.2185757   -6.5429056    5.9741728  0.020743655  0.042259019            3 
   25000    1.2224619   -6.4861497    6.4807483  0.021602494  0.041765613            3 
   26000    1.2535383   -6.5288352    7.0720728    0.0226669  0.041609551            2 
   27000    1.2156323   -6.5396035    7.5378069  0.023264836  0.041571774            2 
   28000      1.23373   -6.4890337    8.1409885  0.024229132  0.041617064            3 
   29000    1.2342612   -6.5335016     8.589402  0.024682189   0.04166712            1 
   30000    1.2128493   -6.5752569    9.0664561    0.0251846  0.041652773            3 
   31000    1.2261822   -6.5423842    9.6374133  0.025907025  0.041678094            3 
   32000    1.2197615   -6.5255537    10.057045  0.026190222  0.041689203            4 
   33000    1.2159751   -6.5575813    10.498878  0.026512317  0.041614248            2 
   34000    1.2121038   -6.5375448    11.126027  0.027269674  0.041589566            2 
   35000    1.2049483   -6.5491523    11.587618  0.027589567  0.041626607            2 
   36000    1.2094901   -6.5890344    11.981556  0.027735083  0.041606843            2 
   37000    1.2119175   -6.5666862    12.476559  0.028100357  0.041534974            1 
   38000    1.2206297   -6.5645779    12.828786  0.028133303   0.04143331            1 
   39000    1.2313455   -6.5450568    13.338553  0.028501182  0.041314661            1 
   40000    1.2100129   -6.6091528    13.748399  0.028642498  0.041222393            2 
   41000    1.1863158   -6.5927933    14.257967  0.028979607  0.041110155            2 
   42000    1.1790961   -6.5832764    14.645165  0.029057866  0.040960252            2 
   43000    1.2189758   -6.5837519    15.085649  0.029235754  0.040797717            2 
   44000    1.1896189    -6.580915    15.605045  0.029555009  0.040676901            2 
   45000    1.2112278   -6.5888823    16.172581  0.029949224  0.040597261            2 
   46000    1.1937358    -6.578217    16.490169  0.029873494  0.040507041            2 
   47000    1.1988807     -6.58846    17.083437  0.030289782  0.040432963            2 
   48000    1.1795593   -6.5664273    17.524266  0.030424072  0.040371969            3 
   49000    1.1889945   -6.5680773    17.927788  0.030489435  0.040295091            2 
   50000    1.1957563   -6.5863216    18.478242   0.03079707  0.040236476            2 
   51000    1.1572271   -6.6042809    18.922546  0.030919193  0.040198003            3 
   52000    1.1884284   -6.5720872     19.39621   0.03108367  0.040146829            2 
   53000    1.2000422   -6.6061207    19.878725  0.031255857  0.040091162            2 
   54000    1.1932335   -6.6119689    20.222916  0.031208203  0.040019979            2 
   55000    1.1812323   -6.5727083    20.696838  0.031358845  0.039952431            3 
   56000    1.1556629     -6.56728    21.153967  0.031479118  0.039888223            2 
   57000    1.1909202   -6.5984217    21.503424  0.031437755  0.039814117            2 
   58000    1.1968252   -6.6022028    21.939753  0.031522633  0.039728445            2 
   59000    1.1559175   -6.6579611    22.241687  0.031414812  0.039627862            2 
   60000    1.1694152   -6.6172734    22.753011  0.031601405  0.039531984            2 
   61000    1.1468545   -6.6402464    23.255864  0.031770306  0.039457542            2 
   62000    1.1612477   -6.6303984    23.521959  0.031615535  0.039371367            1 
   63000    1.1702184   -6.6381844    24.081047  0.031853237  0.039280504            2 
   64000    1.1410448   -6.6583468    24.398974  0.031769497  0.039195639            2 
   65000    1.1584283   -6.6800698     24.73507  0.031711628  0.039103822            6 
   66000     1.173239   -6.6539329    25.188625   0.03180382  0.038998544            6 
   67000    1.1646645   -6.7040597    25.533307  0.031757844  0.038892903            2 
   68000    1.1435536   -6.6617693    26.032849  0.031903001  0.038800873            5 
   69000    1.1739013   -6.6342366    26.428214  0.031918132  0.038702054            3 
   70000    1.1707288    -6.657159    26.858053  0.031973872  0.038603096            1 
   71000    1.1591527   -6.7048515    27.193082  0.031916763  0.038505268            3 
   72000    1.1467461   -6.6996498    27.512936  0.031843676  0.038404834            2 
   73000    1.1367393   -6.6709772    27.935794  0.031890175  0.038307211            3 
   74000     1.140661   -6.6936441    28.330711  0.031903954   0.03820737            3 
   75000    1.1331901   -6.6906072    28.738769  0.031931965  0.038106019            3 
   76000    1.1562138    -6.684405    29.043799   0.03184627  0.038001251            2 
   77000    1.1352522   -6.7023555    29.568116  0.032000125  0.037895433            2 
   78000    1.1845779   -6.7291465      29.9184  0.031964103  0.037804975            3 
   79000    1.1461113   -6.6598504    30.391303  0.032058336  0.037718155            2 
   80000    1.1629862   -6.6984712    30.754379  0.032035811  0.037636666            1 
   81000    1.1169857   -6.6702727    31.046272  0.031940609  0.037556759            3 
   82000    1.1206469   -6.6983316    31.532801  0.032045529  0.037466772            1 
   83000    1.1573926   -6.7068401    31.847694  0.031975596  0.037376887            1 
   84000    1.1434759   -6.7110877    32.294619  0.032038313  0.037288512            2 
   85000     1.126291   -6.6762259    32.513079  0.031875567  0.037195034            3 
   86000    1.1345268   -6.7060342    32.720015  0.031705441  0.037091578            6 
   87000    1.1168911   -6.7535732    33.040802  0.031648278  0.036981506            2 
   88000    1.1245251   -6.7341212    33.433262  0.031660286  0.036870072            1 
   89000    1.1338152   -6.7033592    33.822257   0.03166878  0.036758953            2 
   90000    1.0882979   -6.7200282    34.067884  0.031544337  0.036644967            3 
   91000    1.1263602   -6.7139291    34.599169  0.031684221   0.03654638            1 
   92000     1.136635    -6.768235    34.678885  0.031412033  0.036444816            1 
   93000    1.1138604   -6.7631519    35.208331  0.031548683  0.036341296            2 
   94000    1.1084252   -6.7119423    35.606483   0.03156603  0.036243224            3 
   95000    1.1348564   -6.7166637    35.876878  0.031470946  0.036139122            2 
   96000    1.1128427   -6.7157174    36.246372  0.031463865   0.03604064            3 
   97000    1.0939579    -6.729531    36.694082  0.031524125  0.035943387            3 
   98000    1.1164922   -6.7616221    37.047152   0.03150268  0.035845669            1 
   99000    1.1012601   -6.7739059    37.364764  0.031451821   0.03575765            1 
  100000    1.1102811   -6.7396696    37.734667  0.031445556  0.035666285            3 
  101000    1.1249181   -6.7678817    38.044941  0.031390215  0.035578838            3 
  102000    1.0847665   -6.7511394    38.385933  0.031361056  0.035487078            4 
  103000    1.0977165   -6.7765957    38.645408  0.031266511  0.035392647            2 
  104000    1.1301856   -6.7514452    38.869036  0.031145061  0.035293947            1 
  105000    1.1105094   -6.7705127    39.310893  0.031199121  0.035195277            4 
  106000    1.0914214   -6.7440081    39.551436  0.031093896   0.03509229            1 
  107000    1.0857229   -6.7639739    39.904396   0.03107819  0.034990263            5 
  108000    1.0872184   -6.8083847    40.089125  0.030932967  0.034894716            4 
  109000    1.0868302   -6.7436033    40.652036  0.031079538  0.034799511            3 
  110000    1.0952955   -6.8433445    40.813964   0.03091967   0.03470944            1 
  111000     1.073941   -6.7680528     41.39673  0.031078626  0.034622402            7 
  112000    1.1103516   -6.7755052    41.652299  0.030991294  0.034536808            6 
  113000    1.0986286   -6.8036102    41.848231  0.030861527  0.034450087            2 
  114000    1.0721032   -6.7808909    42.033167  0.030725999  0.034358045            2 
  115000    1.0804209   -6.8037067    42.227252  0.030599458  0.034262207            2 
  116000     1.091538   -6.8082563    42.542523  0.030562157  0.034161761            1 
  117000    1.0856947   -6.8215722    43.119922  0.030712195  0.034072831            1 
  118000    1.0778454   -6.7594202    43.363938   0.03062425   0.03398735            2 
  119000    1.0671198   -6.8179589    43.641271  0.030561114  0.033898011            5 
  120000    1.0795465   -6.7732981    43.908055  0.030491704  0.033808325            3 
  121000    1.0790965   -6.7794477    44.092964  0.030367055  0.033714487            2 
  122000    1.0913634   -6.8282882    44.246222  0.030222829  0.033615537            2 
  123000     1.039818   -6.8419573    44.565553  0.030193464  0.033519543            4 
  124000    1.0761675   -6.8534858    44.872671  0.030156364  0.033423539            5 
  125000    1.0527512   -6.8539922    45.254029  0.030169353   0.03333042            4 
  126000    1.0651263   -6.8434485    45.458449  0.030065112  0.033239255            3 
  127000    1.0578403   -6.8300291    45.867648  0.030096882  0.033146012            2 
  128000    1.0480609    -6.856987    46.163932  0.030054643  0.033057603            4 
  129000    1.0560899   -6.8248677    46.278297   0.02989554  0.032968112            4 
  130000    1.0719759   -6.8385735    46.637422  0.029895783   0.03287876            2 
  131000    1.0555588   -6.8226522    46.985206  0.029888808   0.03279163            2 
  132000       1.0549   -6.8384118    47.226488  0.029814702  0.032702847            3 
  133000    1.0722341   -6.8495504    47.486088  0.029753188   0.03261458            5 
  134000    1.0790636   -6.8700379    47.716523  0.029674455  0.032527993            6 
  135000    1.0513333   -6.8543043    47.937992  0.029591353  0.032438408            2 
  136000     1.062173   -6.8803537    47.971366  0.029394219  0.032344643            1 
  137000    1.0453598   -6.8405528     48.14717  0.029286599  0.032247447            3 
  138000     1.032811   -6.8967312     48.40686  0.029231196   0.03215286            2 
  139000    1.0371811   -6.8838792    48.757158   0.02923091  0.032058496            6 
  140000     1.031038    -6.873379     49.21017  0.029291768   0.03196695            6 
  141000    1.0481002   -6.9114382    49.407967  0.029200926  0.031878221            2 
  142000    1.0259714   -6.9005726     49.66754  0.029147617  0.031789446            4 
  143000    1.0290912   -6.8676089    50.112725  0.029203219  0.031702781            2 
  144000    1.0233768     -6.88164    50.206429  0.029054646  0.031613541            2 
  145000     1.015298   -6.8742929    50.500216  0.029023113  0.031524221            2 
  146000     1.054944   -6.9215962    50.633975  0.028900671  0.031434334            3 
  147000    1.0304304   -6.9180587    50.928429  0.028870992  0.031346816            6 
  148000    1.0350132   -6.9153885    51.382153  0.028931392  0.031260503            1 
  149000     1.012619   -6.9133069    51.411972  0.028753899  0.031173281            2 
  150000    1.0486288   -6.9208979    51.925043  0.028847246  0.031087679            2 
  151000    1.0149125   -6.9048679    52.102042  0.028753886  0.031005542            5 
  152000    1.0388855   -6.9254462    52.281245  0.028662963  0.030924267            2 
  153000    1.0263405   -6.9418725    52.736809  0.028723752  0.030841998            3 
  154000    1.0278227   -6.9197989    52.895472  0.028623091  0.030759297            3 
  155000    1.0269174   -6.9428599    53.066023   0.02853012   0.03067784            3 
  156000    1.0164489   -6.9403147    53.452195  0.028553523  0.030597857            2 
  157000    1.0081034   -6.8953572    53.531442  0.028413716  0.030517658            2 
  158000    1.0160658   -6.9301788    53.508614  0.028221842  0.030434306            1 
  159000    1.0181931   -6.9407522    53.806006  0.028200213   0.03035043            3 
  160000    1.0083492   -6.9600144    53.994011  0.028121881  0.030266069            2 
  161000    1.0088524   -6.9178954    54.613775  0.028267999  0.030183949            1 
  162000    1.0139791   -6.9609071    54.523441  0.028047038  0.030103219            2 
  163000     1.010469   -6.9760445    54.875597  0.028055008  0.030021534            2 
  164000    1.0075281   -6.9239961    55.123653  0.028009986  0.029944132            3 
  165000    1.0129225   -6.9397275    55.743603  0.028153335  0.029870392            5 
  166000    1.0060437   -6.9873274    55.717071  0.027970417   0.02979716            3 
  167000   0.97383175    -6.927068    56.061911  0.027975005  0.029722431            2 
  168000    1.0012539   -7.0086178    56.080478  0.027817697  0.029646521            3 
  169000    1.0104459   -6.9325623    56.392748  0.027807075  0.029569558            3 
  170000   0.99597709   -6.9593794    56.749417  0.027818342  0.029495716            4 
  171000     1.002433   -7.0001476    57.002324   0.02777891  0.029422184            4 
  172000   0.97367538   -6.9558236    57.157275  0.027692478  0.029350019            2 
  173000   0.99114623   -6.9926922    57.311181  0.027606542  0.029276978            3 
  174000   0.98211746   -7.0083607    57.541631  0.027558252  0.029203901            5 
  175000   0.97511349   -6.9971932    58.072872  0.027653748  0.029134681            4 
  176000   0.97755086   -6.9905842    58.458174   0.02767906  0.029067479            4 
  177000    0.9776462   -7.0207634     58.34062  0.027467335  0.029000786            3 
  178000   0.98889629   -7.0265352    58.627698  0.027447424  0.028932775            3 
  179000   0.98215303    -6.980894    59.152781  0.027538538  0.028866807            2 
  180000   0.99559179   -7.0226427    59.393827  0.027497142  0.028802386            2 
  181000   0.97387399    -6.976076     59.60825  0.027443946  0.028739812            4 
  182000   0.99583465   -7.0187908    59.778858  0.027371272  0.028676738            3 
  183000   0.96838831   -7.0277695    59.939996   0.02729508  0.028612475            5 
  184000   0.97745144   -7.0394492    60.343087  0.027329296  0.028550282            3 
  185000   0.96305377   -7.0138949    60.773651  0.027375518  0.028491256            3 
  186000   0.96315033   -7.0347514    61.089861  0.027370009    0.0284326            2 
  187000   0.98752081   -7.0400485     61.10682  0.027231203  0.028372207            3 
  188000   0.97339531   -7.0290893     61.36463  0.027200634  0.028311981            2 
  189000   0.98100991   -7.0696392    61.358342  0.027053943  0.028251385            3 
  190000    0.9755976   -7.0484422    61.545432   0.02699361  0.028188916            5 
  191000   0.96775551   -7.0700092    61.948744  0.027028248  0.028127855            4 
  192000   0.98329276   -7.0676908     62.01978  0.026918307  0.028066926            3 
  193000   0.95595266   -7.0998938    62.058268  0.026795453  0.028003599            3 
  194000   0.97343184   -7.0890677    62.280003  0.026752578  0.027939433            3 
  195000   0.95735122   -7.0508877    62.506467  0.026712166  0.027874849            4 
  196000    0.9250604   -7.0820546    62.638781  0.026632135  0.027808782            6 
  197000   0.97100229   -7.1012047    62.640912  0.026497847  0.027742937            4 
  198000   0.95188828     -7.03238    62.813177  0.026436522  0.027675977            6 
  199000   0.93075692   -7.0640765    63.042388   0.02639966  0.027609316            6 
  200000   0.94514094   -7.0693634    63.238522  0.026349384  0.027542496            2 
  201000   0.94526261   -7.1052109    63.404752  0.026287211  0.027476536            1 
  202000    0.9366091   -7.0853319    63.730565  0.026291487  0.027410767            3 
  203000    0.9422426   -7.0790529    63.890742  0.026227726   0.02734515           14 
  204000   0.93082427   -7.0740195    64.180839  0.026217663  0.027280426            3 
  205000   0.95480391   -7.0805961    64.202754   0.02609868   0.02721702            4 
  206000   0.93853662   -7.1286475    64.467312   0.02607901  0.027155172            2 
  207000   0.96230063   -7.1311499    64.798186  0.026086226  0.027091434            3 
  208000   0.94165746   -7.1066018    64.969846  0.026029586  0.027028453            2 
  209000   0.95382882   -7.1386254    65.309428  0.026040442   0.02696612            2 
  210000   0.93294367   -7.1359771    65.554013  0.026013497  0.026905148            2 
  211000    0.9249725   -7.1361653    65.495373  0.025867051   0.02684408            4 
  212000   0.93033606   -7.1624173    65.880097  0.025896264  0.026783466            4 
  213000   0.94837427   -7.1241123    66.228191  0.025910873  0.026724336            3 
  214000    0.9144613   -7.1160147    66.411396  0.025861135  0.026666056            2 
  215000   0.92299343   -7.1410326    66.602272  0.025814834  0.026608694            3 
  216000   0.93244108   -7.1248279    66.885367   0.02580454  0.026551282            5 
  217000   0.94458014   -7.1653246    66.943677  0.025708017  0.026494115            6 
  218000   0.90227873   -7.1801709    67.150182   0.02566903  0.026436652            2 
  219000   0.92284309   -7.1666772    67.138998  0.025547564  0.026377309            5 
  220000   0.91698835   -7.1425366    67.279515  0.025484665  0.026318728            6 
  221000   0.92414425     -7.17768    67.816686  0.025571903  0.026261674            5 
  222000   0.94052189    -7.155598    67.889188  0.025483929  0.026205054            2 
  223000   0.90778457   -7.1714031    67.820325  0.025343918  0.026147867            3 
  224000   0.92450904   -7.1682078    68.122084  0.025343037  0.026088921            4 
  225000   0.89210151   -7.1623986     68.32632  0.025306045  0.026031179            4 
  226000   0.90768679   -7.1412508    68.771394  0.025358183  0.025974945            3 
  227000   0.88857298   -7.1629877    68.887841  0.025289222  0.025919266            6 
  228000   0.89699905   -7.1849298    68.876414  0.025174128  0.025861477            4 
  229000   0.91522477   -7.1506435    68.870938  0.025062205  0.025803393           10 
  230000   0.89289568   -7.1738086    69.221533  0.025080266  0.025745367            3 
  231000   0.88787399   -7.1774137     69.21842   0.02497057  0.025687016            4 
  232000    0.9010555   -7.1793909    69.579551  0.024992655  0.025629119            2 
  233000   0.90238913   -7.1944416    69.483589  0.024851069  0.025570119            5 
  234000   0.91419239    -7.203254    69.448679  0.024732435  0.025511649            4 
  235000   0.89956995   -7.1746711    69.745596  0.024732481  0.025452913            2 
  236000   0.91645714    -7.199568    70.028897  0.024727718   0.02539418            8 
  237000   0.90820094   -7.2149449    69.868752  0.024567072  0.025334907            5 
  238000   0.88530388   -7.2321754    70.036459   0.02452257  0.025275524            4 
  239000   0.89009164   -7.2442852    70.170755   0.02446679  0.025215277            6 
  240000    0.8998389   -7.2131775    70.242775  0.024389852  0.025154879            3 
  241000   0.87513031   -7.2251843    70.529518    0.0243878  0.025094167            2 
  242000   0.88945497   -7.2023083     70.64621  0.024327207  0.025034077            4 
  243000   0.87442849   -7.2016761    70.798966  0.024279481  0.024973969            6 
  244000   0.87755504   -7.2312999    70.654466  0.024130624  0.024913482            5 
  245000   0.85881315   -7.2291047    70.892055  0.024112944  0.024852304            7 
  246000   0.88047699   -7.2586119    71.001878  0.024052127  0.024791598            3 
  247000   0.86575373    -7.186697    71.270913  0.024045517  0.024731735            4 
  248000   0.87847319   -7.2298797    71.237994  0.023937498  0.024670984            3 
  249000   0.86062163   -7.2375284    71.413639  0.023900147  0.024609864            4 
  250000   0.85980771   -7.2480549    71.861844  0.023953948  0.024548663            3 
  251000   0.87131454   -7.2667859    71.595908  0.023770222  0.024488231            3 
  252000   0.88613861   -7.2529921    71.721487  0.023717423  0.024427655            3 
  253000    0.8608983   -7.2734472    71.872971  0.023673574  0.024366457            3 
  254000   0.88467176   -7.2639144    71.760959  0.023543622  0.024304149           10 
  255000   0.86789913    -7.243584    72.039564  0.023542341  0.024242131            2 
  256000   0.84572195   -7.2622741    72.086597  0.023465689   0.02418044            3 
  257000   0.87698265    -7.285318    72.080566  0.023372427  0.024118484            4 
  258000   0.82933553   -7.2985285     72.16009  0.023307523  0.024055531            8 
  259000   0.85821664   -7.2888219    72.368203  0.023284492  0.023992376            3 
  260000   0.86738884   -7.3054501    72.228183  0.023150059   0.02392875            3 
  261000   0.84549688   -7.3119798    72.272813  0.023075611  0.023863999            5 
  262000   0.85481434   -7.3226276    72.250682  0.022980497  0.023799051            3 
  263000   0.84278609   -7.3192787    72.420672  0.022946981   0.02373428            5 
  264000   0.83092566   -7.3185158    72.467211  0.022874751  0.023669151            3 
  265000   0.83871373   -7.3241902    72.634433  0.022841017  0.023603969            4 
  266000   0.82112099    -7.306886    72.548805  0.022728322  0.023539215            4 
  267000   0.84251254   -7.3067051    72.810616  0.022724911  0.023474341            2 
  268000   0.84070957   -7.3424776    72.678894  0.022599158  0.023408752            5 
  269000    0.8444104   -7.3335954    72.897651  0.022582916  0.023344101            6 
  270000   0.83581236   -7.3397609    73.108079  0.022564222  0.023279968            5 
  271000    0.8524733   -7.3446521    73.482543  0.022596108  0.023216277            9 
  272000   0.84101956   -7.3067834    73.637718  0.022560575  0.023153684            4 
  273000    0.8162815    -7.368875     73.40548  0.022407045  0.023090726            5 
  274000   0.83548252   -7.3327028    73.797641  0.022444538  0.023028011            3 
  275000   0.82918459    -7.360229    73.740966  0.022345747  0.022966008            4 
  276000   0.84137064   -7.3215396    73.727058  0.022260585  0.022903979            2 
  277000   0.81889563   -7.3646503    74.077229  0.022285568  0.022842534           10 
  278000   0.80837098   -7.3351168    74.302073  0.022272804  0.022781484            6 
  279000   0.80762529   -7.3271319    74.395999  0.022221027  0.022720637            6 
  280000    0.8120022   -7.3773144    74.170765  0.022074632  0.022659479            3 
  281000   0.82546745   -7.3567248     74.35899  0.022051895  0.022598169            8 
  282000   0.81233256   -7.3278492    74.245313  0.021940104  0.022536125            4 
  283000   0.81794075   -7.3622298    74.460977  0.021926083   0.02247391            5 
  284000   0.80621176   -7.3725683    74.442676  0.021843508   0.02241184            4 
  285000   0.81962771   -7.3419537      74.7268  0.021849942  0.022350299            4 
  286000    0.8119045   -7.3823532    74.754805  0.021781703  0.022289224            4 
  287000    0.8216649   -7.3767365    74.893229  0.021746001  0.022228212            7 
  288000   0.83185075   -7.4034773    74.945326  0.021685569  0.022167911            2 
  289000   0.82977163   -7.4140175    74.879972  0.021591687  0.022107165            5 
  290000   0.78723471   -7.3693387    75.220293  0.021615027  0.022046629            4 
  291000   0.82467147   -7.3770958    75.343029  0.021575896  0.021987255            7 
  292000   0.80978214   -7.3915178    75.470157  0.021538287  0.021927949            3 
  293000   0.79345567   -7.4256592    75.511308  0.021476481  0.021869027            2 
  294000   0.77985136   -7.4193393    75.337556  0.021354182  0.021810012            3 
  295000   0.77896814   -7.4384818    75.671998  0.021376271  0.021750892           17 
  296000   0.79568117   -7.4190809    75.581362  0.021278537  0.021691151            4 
  297000   0.78772757   -7.3890484    75.836347  0.021278436  0.021631647            7 
  298000    0.7804112   -7.4183164    75.756007  0.021184566  0.021572469            3 
  299000   0.78076178   -7.4358239    75.651256  0.021084519  0.021512638            4 
  300000   0.79416313   -7.4308811      75.7364  0.021037889  0.021452882            9 
  301000    0.7950173   -7.4518455    75.911833  0.021016565  0.021392845            8 
  302000    0.7939242   -7.4185597     75.90139  0.020944092  0.021332925           14 
  303000   0.77742884   -7.4104399    76.117342  0.020934363  0.021273166            6 
  304000   0.79334185   -7.4395944    76.312088  0.020918884  0.021214423            2 
  305000   0.78211466   -7.4473552    76.311521  0.020850142   0.02115618           16 
  306000   0.77476106   -7.4812269    76.105678  0.020725947  0.021097571            5 
  307000   0.76979134   -7.4702817    76.188458  0.020680906  0.021039036            4 
  308000   0.78456518   -7.4204352    76.386244  0.020667274  0.020980364            7 
  309000   0.78549379   -7.4517578    76.435778  0.020613748  0.020921714            7 
  310000   0.76013161   -7.4679412    76.432293  0.020546315  0.020862849            8 
  311000   0.77817897   -7.4716667    76.600987  0.020525452  0.020804095            4 
  312000    0.7618842   -7.4494386    76.480188  0.020427401  0.020744853            8 
  313000   0.76662764   -7.4533196    76.585051  0.020390056  0.020685613            4 
  314000    0.7696188   -7.4959088    76.628281  0.020336593  0.020626993            4 
  315000    0.7691251   -7.4726387    76.539178   0.02024846  0.020567862            6 
  316000   0.76536372    -7.473497    76.785233   0.02024927  0.020509125            9 
  317000   0.76270402   -7.4960171    76.681366  0.020158088  0.020450608            4 
  318000   0.76831479   -7.4827612    76.972012  0.020170863  0.020392365            3 
  319000   0.75885619    -7.480469    76.803312  0.020063561  0.020334693           11 
  320000   0.76536625   -7.4883269    77.010454  0.020054806   0.02027681            5 
  321000   0.74779923   -7.4962596    76.938156  0.019973561  0.020219169            8 
  322000   0.75529154   -7.5206116    77.036965  0.019937103  0.020161895            9 
  323000   0.74464973   -7.5356004    77.076156  0.019885489  0.020104654            7 
  324000   0.72616747   -7.5271448    77.333725  0.019890361  0.020047608            9 
  325000   0.75102912   -7.4907174     77.46336    0.0198624  0.019991104            3 
  326000   0.74583982   -7.5409456     77.60136  0.019836748  0.019934868            6 
  327000   0.75498446   -7.5510638    77.399543  0.019724654  0.019878762            4 
  328000   0.73552773   -7.5464085    77.634943  0.019724325  0.019822697            3 
  329000   0.74738096   -7.5563943    77.651455  0.019668555  0.019767217            6 
  330000   0.75399729   -7.5344343    77.719544  0.019626147  0.019711637            5 
  331000   0.73451231   -7.5643631    77.660966  0.019552106  0.019655792           10 
  332000   0.73100581   -7.5630105    77.699821  0.019502967  0.019599451            5 
  333000    0.7206919   -7.5589338    77.628841  0.019426637  0.019543508           10 
  334000   0.73362297   -7.5793082    77.761945  0.019401683  0.019487811            5 
  335000   0.72301157   -7.5594893      77.8521  0.019366194  0.019432452            9 
  336000   0.72736401   -7.5910379    77.877671  0.019314899  0.019377254            4 
  337000   0.72528427   -7.5692894    77.897844  0.019262573  0.019322144           12 
  338000   0.72184693   -7.5639024    77.927433  0.019212878   0.01926725           11 
  339000   0.72723986    -7.593565    77.955233  0.019163037  0.019212289            4 
  340000    0.7295768   -7.5612837     78.08441  0.019138336  0.019157467           11 
  341000   0.73283717   -7.5866367    77.822857  0.019018294  0.019102796           10 
  342000    0.7168067    -7.567868    77.953128  0.018994427  0.019047964           11 
  343000   0.71189912   -7.6070877    78.029557  0.018957618  0.018992986            3 
  344000   0.70728731   -7.5848499    78.007949  0.018897275  0.018937968            7 
  345000   0.71740602   -7.6064613    78.041761  0.018850667  0.018883076            8 
  346000    0.7186859   -7.5841266    78.130761  0.018817621  0.018828432            7 
  347000   0.71745886   -7.6067593    78.049289  0.018743825  0.018773552            6 
  348000   0.70096663   -7.6390276    77.850886  0.018642453  0.018718463            6 
  349000   0.70562354   -7.6132536    78.038279  0.018633782  0.018663357            8 
  350000   0.70590676   -7.6201819    77.966983  0.018563567  0.018608242            5 
  351000    0.7037792   -7.6490647    77.945014  0.018505464  0.018553271            5 
  352000    0.7173771   -7.5969182    78.215646  0.018516962  0.018498752            4 
  353000   0.69713898   -7.6192314    78.172986  0.018454435  0.018444723            3 
  354000   0.69518597   -7.6186806    78.157336   0.01839862  0.018390431            5 
  355000   0.71010022   -7.6356519    78.252664   0.01836917  0.018335913            3 
  356000   0.68547525   -7.6359795    78.176194  0.018299671  0.018281734            5 
  357000   0.70235841   -7.6282734     78.40313  0.018301384  0.018228141            5 
  358000   0.69871216     -7.65059    78.359693  0.018240152  0.018174555            9 
  359000   0.68334351   -7.6454123     78.39668  0.018197929  0.018120771            9 
  360000    0.7010149   -7.6319917    78.394907  0.018146969  0.018067618            4 
  361000   0.69264371   -7.6385442    78.487973  0.018118184  0.018014534            8 
  362000   0.69118857   -7.6487174    78.586205  0.018090747   0.01796169            3 
  363000    0.7075621   -7.6584322    78.530126  0.018028036  0.017908838            5 
  364000   0.68326757   -7.6478443    78.725446  0.018023225   0.01785596            7 
  365000   0.68698978   -7.6631845     78.54447  0.017932527  0.017803243            8 
  366000   0.69700007    -7.664236    78.452722  0.017862642  0.017750754            7 
  367000   0.69518163   -7.6743111    78.592121  0.017845622  0.017698276            6 
  368000   0.68558367   -7.6540047    78.545226  0.017786509  0.017645771            6 
  369000   0.66869009   -7.6739942    78.318393  0.017687081  0.017593098            8 
  370000   0.65841057   -7.7045759    78.516571  0.017683912  0.017540526           21 
  371000   0.68012471   -7.6994932    78.477296  0.017627425   0.01748796            5 
  372000   0.68861803   -7.7081903    78.499687  0.017585055   0.01743535            5 
  373000   0.67080973   -7.7110655     78.61382  0.017563409  0.017382686            4 
  374000   0.66814052   -7.6871312    78.418114  0.017472842  0.017330144            4 
  375000   0.66924592   -7.7004218    78.542528  0.017453895  0.017277985            7 
  376000   0.65798338    -7.694603     78.46372  0.017390009  0.017225817            4 
  377000   0.67231554   -7.7073737    78.637072    0.0173822  0.017173873            8 
  378000   0.67242491   -7.7224024    78.477523  0.017301041  0.017122192            5 
  379000   0.65519462   -7.6853089    78.732503  0.017311456  0.017070806            3 
  380000   0.65472819   -7.7024296    78.609578  0.017238943  0.017019395            3 
  381000   0.66390639   -7.7109665    78.612179  0.017194265  0.016968138            6 
  382000    0.6715602    -7.732877    78.704571  0.017169409  0.016916951            9 
  383000   0.65730091   -7.7300533    78.836389  0.017153261  0.016865969            3 
  384000   0.65506735   -7.7378006    78.710406  0.017081251  0.016815121            9 
  385000   0.64111097   -7.7459138    78.772015   0.01705022  0.016764275            8 
  386000    0.6505374    -7.730592    78.699358  0.016990362  0.016713593            8 
  387000   0.63912774   -7.7306115    78.727647  0.016952551  0.016662936            4 
  388000   0.64915647   -7.7499688    78.684594  0.016899612  0.016612274            2 
  389000   0.64731104   -7.7457956    78.638469  0.016846287  0.016561886            9 
  390000     0.643267   -7.7358719    78.525414  0.016778935  0.016511666            6 
  391000   0.63766695   -7.7523153    78.652444  0.016763095  0.016461299            3 
  392000   0.64435275   -7.7571052    78.778274  0.016747082  0.016411271            4 
  393000   0.64664881   -7.7727997    78.643006  0.016675786  0.016361316            6 
  394000   0.64583789    -7.760592     78.60285  0.016624968  0.016311336            7 
  395000   0.63516522   -7.7913826    78.554317  0.016572641  0.016261382            9 
  396000   0.65398297   -7.7810971    78.582877  0.016536801  0.016211591            7 
  397000   0.62495515   -7.7743936    78.739759  0.016528077  0.016162025            7 
  398000   0.62989631   -7.8063823     78.71196  0.016480729  0.016112745            6 
  399000    0.6302073   -7.7749939    78.720318  0.016441169  0.016063322            4 
  400000   0.62490929   -7.7785918    78.785074  0.016413557  0.016014038           13 
  401000   0.63070793   -7.7924424    78.700396  0.016355028  0.015965166            6 
  402000   0.63180952   -7.8026811    78.779471  0.016330736  0.015916321            9 
  403000   0.61588952   -7.7824841    78.736961  0.016281423  0.015867545           12 
  404000     0.632946   -7.7964607    78.864084  0.016267344  0.015819027            7 
  405000   0.61703608   -7.7965574    78.708112  0.016195085  0.015770479            8 
  406000   0.60929067    -7.798482    78.719016  0.016157434   0.01572208            8 
  407000   0.61595789   -7.8040741    78.696766  0.016113179  0.015673696            5 
  408000   0.62680239   -7.8208647    78.602139  0.016054358  0.015625376            8 
  409000   0.62053565   -7.8227539    78.449046  0.015983913  0.015577225           10 
  410000   0.61920978   -7.8415437    78.657553  0.015987308  0.015529057            9 
  411000   0.60406159   -7.8390363    78.621932  0.015941186  0.015481032            7 
  412000   0.61619627   -7.8393898    78.508701  0.015879592  0.015433117            8 
  413000   0.60537252   -7.8241738    78.559096  0.015851311  0.015385337           10 
  414000    0.5963917   -7.8389102    78.631135  0.015827523  0.015337796            9 
  415000   0.59580721   -7.8602813    78.431719  0.015749341  0.015290185            8 
  416000   0.60852449   -7.8297117    78.572926  0.015739769   0.01524286            8 
  417000   0.59763318   -7.8544002    78.676681  0.015722758   0.01519561            9 
  418000   0.60398508   -7.8828534    78.594165  0.015668693  0.015148495            8 
  419000   0.60115011   -7.8600829      78.5996  0.015632379  0.015101595           17 
  420000   0.59948772   -7.8607744    78.621351  0.015599474  0.015054732           16 
  421000   0.59694517   -7.8495616    78.573233  0.015552897  0.015008065            9 
  422000    0.6014901   -7.8706729     78.59188  0.015519724  0.014961518            9 
  423000   0.58095092    -7.871942    78.466759  0.015458384  0.014914954           10 
  424000   0.60323076   -7.8407207    78.409073  0.015410588  0.014868401           11 
  425000   0.58719563   -7.8829369    78.387983  0.015370193  0.014822011            9 
  426000   0.59607658   -7.8700372    78.542846  0.015364406  0.014775754            9 
  427000   0.58228715   -7.8663984    78.464701  0.015313174  0.014729636            5 
  428000    0.6065509   -7.8880001    78.575706  0.015299008  0.014683531            9 
  429000   0.59159675   -7.8994131    78.501072  0.015248848  0.014637564            9 
  430000   0.58296943   -7.8952996    78.419383  0.015197555  0.014591711            8 
  431000    0.5789748   -7.8878921    78.519507  0.015181653   0.01454611            8 
  432000   0.58230964   -7.9038848    78.372913  0.015118232  0.014500657            9 
  433000   0.58442968   -7.9160515    78.487969   0.01510546  0.014455187            7 
  434000   0.57568209   -7.8837867    78.478562  0.015068848  0.014409919           12 
  435000   0.56376058   -7.9233002    78.439679  0.015026758  0.014364803           10 
  436000   0.57931529   -7.8935767    78.353966  0.014975911  0.014319853            9 
  437000    0.5642807   -7.9090005    78.330938   0.01493725  0.014275029            8 
  438000   0.57587118   -7.9267831    78.449408  0.014925686  0.014230314           14 
  439000   0.57341783   -7.8919596    78.254852  0.014854755  0.014185812           11 
  440000   0.55315909   -7.8969644    78.158872  0.014802817  0.014141263            8 
  441000   0.57148276     -7.92704    78.447285   0.01482375  0.014096951            8 
  442000   0.57088579   -7.9493891    78.402845  0.014781833  0.014052688            4 
  443000   0.56182373   -7.9174418    78.286142  0.014726513  0.014008664           10 
  444000   0.56429167   -7.9384724    78.447667  0.014723661  0.013964706            9 
  445000   0.55686573   -7.9215228    78.378804  0.014677679  0.013920874           10 
  446000   0.54539915   -7.9084585    78.082098  0.014589331  0.013877218           13 
  447000   0.55808719   -7.9283262    78.191071  0.014577008  0.013833614           10 
  448000   0.54162681   -7.9385638    78.416698  0.014586439   0.01379017           10 
  449000   0.54846823   -7.9394102    78.277262  0.014528074  0.013747059            8 
  450000   0.54655116   -7.9573478    78.373893  0.014513684  0.013704002            9 
  451000   0.55823361   -7.9439174    78.120827  0.014434743  0.013661052           11 
  452000   0.54520705   -7.9421764    78.169297  0.014411743  0.013618244            7 
  453000   0.54063551    -7.969138    78.072596  0.014362141  0.013575575            9 
  454000   0.55258359   -7.9661515    78.178126  0.014349876  0.013533177           15 
  455000   0.53006945   -7.9480249    78.209534   0.01432409  0.013490926            9 
  456000   0.53467001   -7.9507219    78.201114  0.014291139  0.013448765           11 
  457000   0.53399012   -7.9611014    78.237801  0.014266557  0.013406801           17 
  458000   0.53757262   -7.9752331    78.290217  0.014244945  0.013365036           14 
  459000   0.54152879   -7.9559409    78.251454  0.014206873  0.013323311           14 
  460000   0.53444802   -7.9538673    78.300067  0.014184795  0.013281715           14 
  461000   0.54426537   -7.9788124    78.060616   0.01411074  0.013240259           11 
  462000   0.52534904    -7.990113    78.248251  0.014114042  0.013198897           10 
  463000   0.52682484   -7.9839091    78.165554  0.014068674  0.013157725           10 
  464000    0.5281285   -7.9969047    78.265039  0.014056221  0.013116745           11 
  465000   0.52982124   -7.9880461      78.1045  0.013997222  0.013075847           16 
  466000    0.5250423   -7.9790715     78.09555  0.013965585  0.013035088            9 
  467000   0.51370172   -7.9816069    78.256177  0.013964343  0.012994425           11 
  468000   0.51286182   -7.9982884     78.20763   0.01392586  0.012953985            9 
  469000   0.51479767   -8.0131588    78.208501  0.013896322  0.012913665            8 
  470000   0.51661539   -8.0129179    78.232662  0.013871039  0.012873532           13 
  471000   0.50531178   -8.0098891    78.163268  0.013829311  0.012833486           13 
  472000   0.51841087   -7.9998201    78.151449  0.013797925  0.012793568           12 
  473000   0.50107124   -8.0274123    78.039396  0.013749013  0.012753697           10 
  474000   0.50508971   -8.0039591    78.008404  0.013714558   0.01271401           14 
  475000   0.51356757   -8.0130079    77.937682  0.013673278  0.012674478           14 
  476000   0.50895302   -8.0326244    77.997028  0.013654942  0.012635031            7 
  477000   0.49829226   -8.0146799    78.119356  0.013647686  0.012595784            7 
  478000   0.50625894   -8.0110635    77.982809  0.013595329  0.012556675           19 
  479000     0.507394   -8.0209178    78.082976  0.013584373  0.012517633           12 
  480000   0.51219837   -8.0251825    78.064233  0.013552818  0.012478757           10 
  481000   0.49061004    -8.028434    78.040999  0.013520617  0.012440006           13 
  482000   0.50050078   -8.0265279    77.960341  0.013478621  0.012401376            7 
  483000   0.50735232   -8.0450499    77.847127  0.013431181  0.012362892           10 
  484000   0.49015807   -8.0343426    77.937478  0.013418987  0.012324577           16 
  485000   0.49669735   -8.0332139    77.981551  0.013398892  0.012286346           16 
  486000    0.4823177   -8.0265006     77.99337  0.013373349   0.01224832            9 
  487000   0.48440692   -8.0358896    77.942869  0.013337247  0.012210471           11 
  488000   0.49110363    -8.043588    78.105317  0.013337657  0.012172653           16 
  489000   0.49123194   -8.0461999    77.899936  0.013275381  0.012135032           11 
  490000   0.48499535    -8.032584    77.982348  0.013262304  0.012097519           11 
  491000    0.4841335   -8.0437708    77.854428  0.013213583  0.012060206           12 
  492000   0.46879193   -8.0633975    77.893436  0.013193333  0.012022918           11 
  493000   0.47918583   -8.0514187    77.838868  0.013157348  0.011985812           10 
  494000   0.47176071   -8.0604281    77.853313   0.01313315  0.011948773            9 
  495000   0.46571197    -8.045626    77.787084  0.013095469  0.011911925            7 
  496000   0.47599309   -8.0674172     77.84007  0.013077969   0.01187519            7 
  497000   0.47899264   -8.0611817    77.843464  0.013052224   0.01183861           10 
  498000   0.47512626   -8.0802773    77.940033  0.013042174  0.011802218           14 
  499000   0.46322794   -8.0755839    77.906219  0.013010391  0.011765863            7 
  500000   0.47060012   -8.0696896     77.91466  0.012985777  0.011729655           16 
  501000   0.47465491   -8.0756444    77.836665  0.012946884  0.011693539           10 
  502000    0.4599027   -8.0740804    77.933634   0.01293719  0.011657615           15 
  503000   0.46695509   -8.0862478     77.82928  0.012894181  0.011621842           13 
  504000   0.46360725   -8.0995055    77.901526  0.012880543  0.011586201           11 
  505000   0.45783459   -8.0936322    77.824322  0.012842297  0.011550685           32 
  506000   0.46862753   -8.0801462    77.774392  0.012808694  0.011515253            9 
  507000   0.45733806   -8.1012541    77.804889  0.012788443  0.011479965           24 
  508000   0.45933057   -8.1077867    77.789927  0.012760815  0.011444806           17 
  509000   0.44434315   -8.1034984    77.709725  0.012722614  0.011409716           10 
  510000   0.44610246   -8.1154261    77.759776  0.012705846  0.011374822            8 
  511000   0.45125699   -8.1019828    77.758292  0.012680739   0.01134002           10 
  512000   0.44773427    -8.095288    77.740673  0.012653104  0.011305388           16 
Loop time of 1136.13 on 48 procs for 500000 steps with 4000 atoms

Performance: 76047.485 tau/day, 440.090 timesteps/s
99.4% CPU use with 48 MPI tasks x no OpenMP threads

MPI task timing breakdown:
Section |  min time  |  avg time  |  max time  |%varavg| %total
---------------------------------------------------------------
Pair    | 68.808     | 73.736     | 76.747     |  22.5 |  6.49
Neigh   | 7.2184     | 7.4781     | 7.7172     |   4.4 |  0.66
Comm    | 67.277     | 71.948     | 77.471     |  24.2 |  6.33
Output  | 0.84755    | 0.84813    | 0.85799    |   0.2 |  0.07
Modify  | 967.07     | 970.88     | 975.14     |   5.7 | 85.45
Other   |            | 11.25      |            |       |  0.99

Nlocal:        83.3333 ave          90 max          76 min
Histogram: 1 2 6 3 8 13 3 5 3 4
Nghost:        1904.40 ave        1923 max        1887 min
Histogram: 3 3 5 9 3 11 3 3 6 2
Neighs:        11960.1 ave       13598 max       10373 min
Histogram: 1 1 6 8 9 9 7 4 2 1
FullNghs:      23920.6 ave       26216 max       21544 min
Histogram: 2 1 5 7 11 9 3 4 2 4

Total # of neighbors = 1148191
Ave neighs/atom = 287.04775
Neighbor list builds = 26874
Dangerous builds = 0

#clear
#
#next RN
#
#jump SELF
Total wall time: 0:18:59
