
units lj                  # Use reduced LJ style units
atom_style atomic         # Uncharged point particles
atom_modify map hash      # Needed for indexing of clusters etc
                          # Used to be able to find where atoms are in relation to each other.

lattice fcc 1.0 spacing 1 1 1
Lattice spacing in x,y,z = 1.5874011 1.5874011 1.5874011
region box block 0 10 0 10 0 10 units lattice
create_box 2 box
Created orthogonal box = (0.0000000 0.0000000 0.0000000) to (15.874011 15.874011 15.874011)
  3 by 4 by 4 MPI processor grid
create_atoms 1 box
Created 4000 atoms
  using lattice units in orthogonal box = (0.0000000 0.0000000 0.0000000) to (15.874011 15.874011 15.874011)
  create_atoms CPU = 0.003 seconds
set type 1 type/fraction 2 0.38 78393
Setting atom values ...
  1537 settings made for type/fraction
mass 1 1.0
mass 2 1.0
pair_style lj/cut  3.5
pair_modify tail  yes
pair_coeff 1  1  1.0  1.0   # Intearaction between 1 and 1 set with epsilon = 1 and sigma = 1
pair_coeff 1  2  1.5  0.8
pair_coeff 2  2  0.5  0.88

write_data data.0
System init for write_data ...
Neighbor list info ...
  update every 1 steps, delay 10 steps, check yes
  max neighbors/atom: 2000, page size: 100000
  master list distance cutoff = 3.8
  ghost atom cutoff = 3.8
  binsize = 1.9, bins = 9 9 9
  1 neighbor lists, perpetual/occasional/extra = 1 0 0
  (1) pair lj/cut, perpetual
      attributes: half, newton on
      pair build: half/bin/atomonly/newton
      stencil: half/bin/3d
      bin: standard
WARNING: Not all mixed pair coeffs generated from mixing. Use write_data with 'pair ij' option to store all pair coeffs. (../write_data.cpp:312)


#############################
#   M E L T   S Y S T E M   #
#############################

velocity all create 2.4 3143649 mom yes dist gaussian # Assign velocities
                                                    # Temperature 2.4, random number seed, zero linear momentum
                                                                                # Gaussian distribution

timestep 0.002   # simulation timestep
thermo 1000       # output thermodynamic data every 1000 steps bf 100

# Define a fix  in this case with index 1 applied to all
# particles in the simulation. This fix is for simulations
# in the anisotropic NPT ensemble. Note that we use the MTK
# correction.
fix 1 all npt temp 2.4 2.4 0.1 iso 5.68 5.68 0.5 mtk yes tchain 5 pchain 5 # Use NPT ensemble
                                                                         # Set temperature and pressure and damping
                                                                         # Numbers of thermostats in chain and in barostat
run 10000          # run for 10000 steps
Per MPI rank memory allocation (min/avg/max) = 3.642 | 3.644 | 3.648 Mbytes
Step Temp E_pair E_mol TotEng Press Volume 
       0          2.4   -5.9717516            0   -2.3726516   -4.1474152         4000 
    1000    2.4352242   -5.0617173            0   -1.4097941    5.8978063    3912.3387 
    2000    2.4618514   -4.9989274            0   -1.3070736    6.0939525    3924.2915 
    3000     2.390973   -4.9950677            0   -1.4095047    5.7699063    3943.2399 
    4000    2.3720549   -5.0772118            0    -1.520019    5.4856422    3932.4925 
    5000    2.4082443   -5.0369725            0   -1.4255092     5.837773    3918.3883 
    6000    2.3777412   -4.9973333            0   -1.4316132    5.7815641    3940.3422 
    7000    2.3943965   -5.0517069            0   -1.4610101    5.5242672    3936.5519 
    8000    2.3338068   -5.0047069            0    -1.504872    5.5010673    3962.5806 
    9000    2.4472207   -5.0113626            0   -1.3414492    5.5209299    3958.0655 
   10000    2.3971566   -5.0208265            0   -1.4259905    5.7662683    3934.0587 
Loop time of 2.5045 on 48 procs for 10000 steps with 4000 atoms

Performance: 689958.979 tau/day, 3992.818 timesteps/s
99.6% CPU use with 48 MPI tasks x no OpenMP threads

MPI task timing breakdown:
Section |  min time  |  avg time  |  max time  |%varavg| %total
---------------------------------------------------------------
Pair    | 1.1105     | 1.1706     | 1.2829     |   3.2 | 46.74
Neigh   | 0.20641    | 0.21586    | 0.22999    |   1.1 |  8.62
Comm    | 0.73014    | 0.8555     | 0.93519    |   4.7 | 34.16
Output  | 0.00024487 | 0.00024909 | 0.00031824 |   0.0 |  0.01
Modify  | 0.20241    | 0.24705    | 0.27925    |   4.3 |  9.86
Other   |            | 0.01523    |            |       |  0.61

Nlocal:        83.3333 ave          92 max          75 min
Histogram: 1 3 7 4 14 9 0 3 4 3
Nghost:        1666.69 ave        1693 max        1635 min
Histogram: 1 2 3 7 10 5 6 7 5 2
Neighs:        9702.21 ave       11304 max        8576 min
Histogram: 5 3 6 10 9 6 5 1 2 1

Total # of neighbors = 465706
Ave neighs/atom = 116.42650
Neighbor list builds = 906
Dangerous builds = 204

# Equilibrate just above the melting temperature to avoid step fn in T

fix 1 all npt temp 1.25 1.25 0.1 iso 5.68 5.68 0.5 mtk yes tchain 5 pchain 5
run 2000
Per MPI rank memory allocation (min/avg/max) = 3.643 | 3.645 | 3.649 Mbytes
Step Temp E_pair E_mol TotEng Press Volume 
   10000    2.3971566   -5.0208265            0   -1.4259905    5.7662683    3934.0587 
   11000    1.2404977   -7.0164149            0   -5.1561336    5.2272204    3148.4296 
   12000    1.2632242    -7.025467            0   -5.1311044    5.7177728    3127.3338 
Loop time of 0.595845 on 48 procs for 2000 steps with 4000 atoms

Performance: 580016.477 tau/day, 3356.577 timesteps/s
99.6% CPU use with 48 MPI tasks x no OpenMP threads

MPI task timing breakdown:
Section |  min time  |  avg time  |  max time  |%varavg| %total
---------------------------------------------------------------
Pair    | 0.26391    | 0.2893     | 0.31028    |   2.3 | 48.55
Neigh   | 0.037795   | 0.0412     | 0.04492    |   0.7 |  6.91
Comm    | 0.19377    | 0.21695    | 0.24676    |   3.0 | 36.41
Output  | 5.159e-05  | 5.384e-05  | 7.022e-05  |   0.0 |  0.01
Modify  | 0.040654   | 0.043568   | 0.04609    |   0.8 |  7.31
Other   |            | 0.004773   |            |       |  0.80

Nlocal:        83.3333 ave          91 max          74 min
Histogram: 1 1 3 3 10 12 7 8 2 1
Nghost:        1934.58 ave        1966 max        1916 min
Histogram: 6 9 6 7 5 6 4 2 2 1
Neighs:        12218.2 ave       13953 max       10750 min
Histogram: 3 5 4 7 7 9 4 5 3 1

Total # of neighbors = 586474
Ave neighs/atom = 146.61850
Neighbor list builds = 143
Dangerous builds = 10

#############################
# L I N E A R  Q U E N C H  #
#############################

# Define solid atoms. This closely follows ten Wolde  Ruiz-Montero and Frenkel  Faraday Discuss  1996  104  93-110
# Compute components of the per-atom q6 vector
compute q6 all orientorder/atom degrees 1 6 components 6 nnn NULL cutoff 1.3 # compute the Q6 parameter.
                                                                             # Use all neighbours within 1.3 unit cell.

# get number of connections
compute coord_number all coord/atom orientorder q6 0.5

# An atom is solid if it has 8 or more connections (of a possible 14)
variable is_solid atom c_coord_number>=8
group solid dynamic all var is_solid    # Must be dynamic to update
dynamic group solid defined

# do clustering
compute cluster solid cluster/atom 1.3 # Create a cluster where all atoms within are solid and max 1.3 units from another member

# define chunks one chunk per cluster
compute clus_chunks solid chunk/atom c_cluster nchunk every compress yes  # Says which atoms are in which chunk

# count the size of each chunk
compute size_chunks solid property/chunk clus_chunks count


# Find the maximum entry in the vector of chunk sizes
variable max_n equal max(c_size_chunks)


# Thermo style which includes this variable
# thermo_style custom step temp pe vol v_max_n

thermo ${N}  # Print the thermo information every 100 steps
thermo 1000  

# Reset the npt fix at a lower temperature (below freezing)
fix 1  all npt temp  ${temp} ${temp}  0.1  iso  5.68  5.68  0.5  mtk yes tchain  5  pchain  5
fix 1  all npt temp  0.45 ${temp}  0.1  iso  5.68  5.68  0.5  mtk yes tchain  5  pchain  5
fix 1  all npt temp  0.45 0.45  0.1  iso  5.68  5.68  0.5  mtk yes tchain  5  pchain  5

dump dmp2 all dcd ${N} traj.dcd
dump dmp2 all dcd 1000 traj.dcd


compute msd all msd com yes
variable twopoint equal c_msd[4]/6/(step*dt+1.0e-6)
fix 9 all vector 10 c_msd[4]
variable fit equal slope(f_9)/6/(10*dt)
thermo_style custom step temp pe c_msd[4] v_twopoint v_fit v_max_n

fix 1 all npt temp 1.25 ${temp} 0.1 iso 5.68 5.68 0.5 mtk yes tchain 5 pchain 5
fix 1 all npt temp 1.25 0.45 0.1 iso 5.68 5.68 0.5 mtk yes tchain 5 pchain 5
run 500000 # 5000000  # Run for this many steps
Neighbor list info ...
  update every 1 steps, delay 10 steps, check yes
  max neighbors/atom: 2000, page size: 100000
  master list distance cutoff = 3.8
  ghost atom cutoff = 3.8
  binsize = 1.9, bins = 8 8 8
  4 neighbor lists, perpetual/occasional/extra = 1 3 0
  (1) pair lj/cut, perpetual
      attributes: half, newton on
      pair build: half/bin/atomonly/newton
      stencil: half/bin/3d
      bin: standard
  (2) compute orientorder/atom, occasional
      attributes: full, newton on
      pair build: full/bin/atomonly
      stencil: full/bin/3d
      bin: standard
  (3) compute coord/atom, occasional
      attributes: full, newton on
      pair build: full/bin/atomonly
      stencil: full/bin/3d
      bin: standard
  (4) compute cluster/atom, occasional
      attributes: full, newton on
      pair build: full/bin/atomonly
      stencil: full/bin/3d
      bin: standard
Per MPI rank memory allocation (min/avg/max) = 9.818 | 9.827 | 9.834 Mbytes
Step Temp PotEng c_msd[4] v_twopoint v_fit v_max_n 
   12000    1.2632242    -7.025467 5.0299743e-30 3.4930376e-32 8.3333333e+20            1 
   13000    1.2565151   -7.0697203   0.49648178 0.0031825754  0.041092985            2 
   14000    1.2715821   -7.0935358   0.91781956 0.0054632114  0.037362445            1 
   15000    1.2305827   -7.0502014    1.3808928 0.0076716266  0.037462971            1 
   16000    1.2614841   -7.1136168     1.821575 0.0094873694  0.037367628            2 
   17000    1.2236889    -7.056433    2.2803103  0.011177991   0.03730343            2 
   18000    1.2250251   -7.0781737    2.7047991  0.012522218  0.037403958            1 
   19000    1.2552818   -7.0731265    3.1141845  0.013658703  0.037154508            2 
   20000    1.2654938     -7.09596    3.5489553  0.014787313  0.036809341            1 
   21000    1.2153988   -7.0846022    3.9766935  0.015780529   0.03656537            1 
   22000    1.2461864   -7.1276367    4.3868832  0.016616981  0.036416798            1 
   23000    1.1986327   -7.0765536    4.8317386  0.017506299  0.036215855            2 
   24000     1.200448   -7.0821107    5.2393163   0.01819207  0.035975079            1 
   25000    1.2475841   -7.1718557    5.6880843  0.018960281  0.035970603            1 
   26000    1.2296317   -7.1215433    6.0043252  0.019244632  0.035839396            2 
   27000    1.2522222   -7.0678182    6.4197368  0.019814002  0.035640106            1 
   28000    1.2476202   -7.1379635    6.7736332  0.020159622  0.035392018            1 
   29000    1.2424796   -7.1639699    7.1834835  0.020642194   0.03518337            1 
   30000    1.2363816   -7.0921748    7.6650174  0.021291715  0.035050742            2 
   31000     1.237386    -7.140997     8.048599  0.021636018  0.034946802            3 
   32000    1.2112159   -7.1413623    8.3291797  0.021690572  0.034780195            2 
   33000    1.2339987   -7.1477096    8.7090131  0.021992457  0.034573447            1 
   34000    1.1893226   -7.1479133    8.9911525  0.022037138  0.034324262            1 
   35000    1.2307487   -7.1531184    9.4108822  0.022406862   0.03411338            1 
   36000    1.2107022   -7.1593809     9.821662  0.022735328  0.033915201            3 
   37000    1.2155363    -7.158647    10.122825  0.022799154  0.033753051            1 
   38000    1.2055939   -7.1447493    10.522696  0.023076088  0.033567693            1 
   39000    1.1981995   -7.1299448    10.907052  0.023305667  0.033409252            2 
   40000    1.1880027   -7.1528535    11.229075  0.023393906  0.033240693            1 
   41000    1.1874961   -7.1851454    11.528371  0.023431647  0.033060323            1 
   42000    1.1928211   -7.1418037    11.921902  0.023654567  0.032899528            2 
   43000    1.1737102   -7.1944868     12.24781  0.023736065  0.032744462            2 
   44000    1.1951371   -7.2434802    12.440962  0.023562428  0.032560137       -1e+20 
   45000    1.2046755    -7.172126    12.841207  0.023780012  0.032361916            2 
   46000     1.201718   -7.2269472    13.159837  0.023840284  0.032201148            1 
   47000    1.1688262   -7.1935117    13.684934  0.024264068  0.032085926            1 
   48000    1.1769076   -7.2063535    14.135101  0.024540106  0.032016751            3 
   49000    1.1812875    -7.174026    14.627645  0.024876947  0.031987716            1 
   50000    1.1881244   -7.1650789    14.990488  0.024984147  0.031976127            4 
   51000    1.1876638   -7.2122149    15.319086  0.025031186  0.031946439            1 
   52000    1.1785963   -7.2227163     15.70968   0.02517577   0.03192376            1 
   53000    1.1954935   -7.2088927    16.019404  0.025187742  0.031893174            2 
   54000    1.1781327   -7.2269443     16.47357  0.025422175  0.031865501            2 
   55000    1.2197683   -7.2280753    16.934933  0.025658989   0.03185749            2 
   56000    1.1836248   -7.2238101    17.386855  0.025873296  0.031867638            1 
   57000    1.1688252   -7.2221506    17.709976  0.025891778    0.0318845            1 
   58000    1.1743588   -7.2672003    17.983904  0.025838943  0.031877843            1 
   59000    1.1516393   -7.1870535    18.455028  0.026066424  0.031855961            3 
   60000    1.1741265   -7.2536416    18.695484  0.025965949   0.03183424            2 
   61000    1.1905261   -7.2227962    19.002174  0.025959254  0.031792295            1 
   62000    1.1731501    -7.252552    19.475684  0.026176994  0.031762673            1 
   63000    1.1625547   -7.2381413    20.010771  0.026469274  0.031763818            3 
   64000    1.1693565   -7.2675029    20.379087  0.026535269  0.031770851            2 
   65000    1.1640056   -7.3073343    20.729315  0.026576044  0.031770787            1 
   66000    1.1521654   -7.2790518    21.232985  0.026809324  0.031785579            2 
   67000    1.1476899   -7.2302306    21.701134   0.02699146  0.031814656            1 
   68000    1.1738457   -7.3098851    22.014562  0.026978629  0.031838463            3 
   69000    1.1329873   -7.3009804    22.174027  0.026780226  0.031843678            2 
   70000    1.1520544   -7.2853966    22.571885  0.026871292   0.03183214            1 
   71000       1.1472   -7.2671004       22.983  0.026975352  0.031820522            2 
   72000    1.1599169   -7.3138508    23.264961  0.026927038  0.031813134            1 
   73000    1.1497835   -7.2979986    23.708093  0.027064033  0.031806709            2 
   74000    1.1317436   -7.3114032    23.970199  0.026993468  0.031790068            3 
   75000    1.1791846   -7.2846406    24.397905  0.027108783  0.031777821            1 
   76000    1.1484844   -7.3017478    24.806986  0.027200642  0.031765077            2 
   77000    1.1519997   -7.3080886    24.922197  0.026972075  0.031737985            3 
   78000    1.1351797   -7.3192848    25.292112  0.027021487  0.031696407            1 
   79000    1.1865041   -7.3325593    25.598773  0.027002925  0.031655533            2 
   80000    1.1344024   -7.3594074    25.882014  0.026960431  0.031612121            2 
   81000    1.1422558   -7.3194626     26.12678  0.026879403   0.03156934            2 
   82000    1.1401094   -7.3383794    26.584493  0.027016761  0.031521972            1 
   83000    1.1219746   -7.3226652    26.778296  0.026885839  0.031462081            1 
   84000    1.1505289    -7.342866    27.050051  0.026835368  0.031395019            2 
   85000    1.1245146   -7.3233505    27.290723  0.026755611  0.031329387            1 
   86000    1.1397275   -7.3530798    27.530658  0.026676994  0.031253219            3 
   87000    1.1307531   -7.3880921    27.794745  0.026623318  0.031175157            1 
   88000    1.1147911   -7.4072114    28.095743  0.026605817  0.031096843            2 
   89000     1.126788   -7.3878352    28.352668  0.026547441  0.031013297            2 
   90000    1.1361861   -7.3239622    28.773802  0.026642409   0.03093029            2 
   91000     1.116589   -7.3692759     29.04485  0.026597848  0.030848695            1 
   92000    1.1102375    -7.396462     29.07718  0.026338025  0.030763056            1 
   93000     1.101331   -7.3865658    29.377931  0.026324311  0.030668295            3 
   94000    1.1393259   -7.3202153    29.813617  0.026430512  0.030580348            3 
   95000    1.1283957   -7.3921276    29.945516  0.026267997  0.030490072            3 
   96000    1.1125461   -7.3695989    30.248686   0.02625754  0.030398102            2 
   97000    1.1263189   -7.3915314    30.518023  0.026218233  0.030308489            5 
   98000    1.1351241   -7.3652596    30.896231  0.026272305    0.0302185            1 
   99000    1.1169893    -7.382383    31.423525  0.026450778  0.030135861            1 
  100000    1.0891463    -7.393417    31.692307  0.026410256  0.030062918            5 
  101000    1.0977864   -7.4424199    31.893971  0.026315157  0.029987333            4 
  102000    1.1220163   -7.3732558     32.11722  0.026239559   0.02990856            1 
  103000      1.10841   -7.4475079    32.252311  0.026094103  0.029826687            1 
  104000    1.1146022     -7.38245    32.703693  0.026204882  0.029743377            4 
  105000    1.1004149    -7.408578    33.152218  0.026311284   0.02967046            4 
  106000    1.1086021   -7.4354155    33.291052   0.02617221  0.029595973            2 
  107000    1.1067038   -7.4058519      33.7794  0.026307944  0.029530075            1 
  108000    1.0952343   -7.4183426      34.0765  0.026293596  0.029468019            2 
  109000    1.0955688   -7.3801941    34.278789  0.026207025   0.02940731            2 
  110000    1.1032034   -7.4125962    34.571626  0.026190625   0.02934404            1 
  111000    1.1198551   -7.4577947    35.075397  0.026332881  0.029285921            2 
  112000    1.0869059   -7.4187944     35.40889    0.0263459  0.029226927            1 
  113000    1.0829603   -7.4143825    35.483537    0.0261678  0.029164651            2 
  114000    1.0825648   -7.4265418    35.828506  0.026190429  0.029103093            2 
  115000    1.0845419   -7.4693614    36.048779  0.026122304  0.029038327            1 
  116000    1.0746221   -7.4803442    36.193737  0.026001248  0.028975806            2 
  117000    1.0430395   -7.4870191    36.564719  0.026043247  0.028912172            1 
  118000    1.1053039   -7.4542334    36.664329  0.025892888   0.02884666            2 
  119000    1.0861921   -7.4652638    36.870662  0.025819791  0.028774745            2 
  120000    1.0609777   -7.4827109    37.027773  0.025713731   0.02869899            2 
  121000    1.0988182   -7.4596201    37.310879  0.025696198  0.028623848            2 
  122000    1.0614733   -7.4484496    37.418425  0.025559034  0.028546363            1 
  123000    1.0872319   -7.5106906    37.544459  0.025436625  0.028467857            3 
  124000    1.0711311   -7.5096993    37.770429  0.025383353  0.028388571            3 
  125000    1.0655083   -7.4781855    38.089576  0.025393051  0.028308205            1 
  126000    1.0884258   -7.4876893    38.237106  0.025289091  0.028226486            2 
  127000    1.0761062   -7.4967429    38.385376  0.025187255  0.028138157            2 
  128000    1.0678464   -7.5109598    38.620323  0.025143439  0.028052893            2 
  129000    1.0679736   -7.5231617    38.980311  0.025181079   0.02796986            3 
  130000    1.0630189   -7.4673786    39.317849  0.025203749  0.027890073            3 
  131000    1.0528028   -7.5480276    39.323353  0.025014856  0.027809535            1 
  132000    1.0653833   -7.5434657    39.709826  0.025069335  0.027729891            1 
  133000    1.0315292   -7.5360892     39.92325  0.025014567  0.027651581            3 
  134000    1.0615324   -7.5730378    40.052314  0.024908155  0.027571283            2 
  135000    1.0655038   -7.5276524    40.192884  0.024810422  0.027488326            1 
  136000    1.0201008   -7.5010025    40.518202   0.02482733  0.027408242            1 
  137000    1.0429344   -7.5483661    40.636039  0.024717785  0.027328498            1 
  138000    1.0510376   -7.5251296    40.848997  0.024667269  0.027245919            1 
  139000    1.0491327   -7.5263496    41.060146  0.024616395  0.027165665            1 
  140000    1.0297281   -7.5253618    41.314878  0.024592189  0.027085723            1 
  141000      1.03926   -7.5373589    41.544838  0.024553687  0.027005326            1 
  142000    1.0311367   -7.5948101    41.662172  0.024449632  0.026924433            1 
  143000    1.0373345   -7.5679435    41.908514  0.024422211  0.026845447            4 
  144000    1.0621386   -7.5903053    41.972953  0.024289903  0.026764141            3 
  145000     1.032031   -7.6248662    42.200945  0.024253417  0.026683331            2 
  146000    1.0379842   -7.6184329     42.33943  0.024166341  0.026600862            2 
  147000   0.99889587   -7.5849573    42.603566  0.024151681  0.026520827            2 
  148000     1.026592   -7.5733399    42.760647  0.024076941  0.026438672            1 
  149000    1.0337554   -7.5546007    43.093947   0.02410176   0.02635657            1 
  150000    1.0505009   -7.6030321    43.229407  0.024016337   0.02627655            2 
  151000    1.0086517   -7.5771585    43.356397  0.023927371  0.026197553            2 
  152000    1.0376011   -7.6187688    43.535132  0.023867945   0.02611557            1 
  153000    1.0101729   -7.6036316    43.610235  0.023752851  0.026033201            2 
  154000    1.0249505   -7.6010027     43.78629   0.02369388  0.025952523            2 
  155000    1.0386735   -7.6093544    43.982619  0.023646569  0.025869951            2 
  156000    1.0178266   -7.6333194    44.137137  0.023577531  0.025787582            2 
  157000    1.0155844   -7.5940027    44.594623  0.023670182  0.025706464            2 
  158000   0.99358892   -7.6090598      44.6977  0.023574736  0.025627122            2 
  159000    1.0240311   -7.5731266     44.96206  0.023565021  0.025550003            3 
  160000    1.0008558   -7.6573124    45.134285   0.02350744  0.025473343            1 
  161000     1.002712   -7.6393195    45.420075  0.023509355  0.025398707            1 
  162000    1.0128686   -7.6203704    45.590341  0.023451822  0.025325961            1 
  163000    1.0145109   -7.6218255    45.671334  0.023349353  0.025252125            1 
  164000    1.0125363   -7.6323692    45.672309  0.023207474  0.025177023            2 
  165000    1.0059655   -7.6310261    46.019686  0.023242266  0.025099435            2 
  166000    1.0317742   -7.6552074    46.158132  0.023171753  0.025022184            2 
  167000    1.0013204   -7.6464003    46.133844   0.02302088  0.024946141            1 
  168000   0.99638544   -7.6421822    46.432524  0.023032006  0.024870341            2 
  169000    1.0100953   -7.6894697     46.42844  0.022893708  0.024793671            2 
  170000    1.0119963   -7.6869613    46.610727  0.022848396  0.024713331            2 
  171000   0.99009719    -7.676702    46.970016  0.022889871  0.024635551            1 
  172000   0.98107325   -7.6753748    47.054396  0.022797672  0.024559435            5 
  173000   0.98824082   -7.6571221    47.191513  0.022731943  0.024481892            1 
  174000   0.96926608   -7.6747156    47.324214  0.022664853  0.024406141            2 
  175000   0.98948208   -7.6512847    47.462759  0.022601314  0.024331581            1 
  176000   0.98883296   -7.6903945    47.779775     0.022623  0.024258647            3 
  177000   0.96936166   -7.6653257    47.831002  0.022519304  0.024184186            2 
  178000   0.99108668   -7.6855033    48.094468  0.022516137  0.024110473            2 
  179000   0.98545731   -7.6794903    48.152356  0.022417298  0.024035476            1 
  180000   0.98487349   -7.7021155    48.163466  0.022297901  0.023959891            1 
  181000   0.98616782   -7.7113299    48.298077  0.022236684  0.023884345            3 
  182000   0.98491178    -7.726963    48.531459  0.022221364  0.023809348            1 
  183000   0.97161591   -7.6998775    48.892351  0.022264276  0.023735652            2 
  184000   0.98280963   -7.7699126    48.855123  0.022126415  0.023661887            3 
  185000   0.99068366   -7.7437716    48.928065  0.022039669  0.023587221            2 
  186000   0.97583846    -7.733921    49.082045  0.021990163  0.023512654            2 
  187000   0.94044144   -7.7211101    49.196822  0.021923717  0.023438216            2 
  188000   0.97451112   -7.7344617     49.53509  0.021957044   0.02336561            1 
  189000   0.95283751   -7.7673757    49.525349  0.021836574   0.02329382            2 
  190000   0.95039412   -7.7400929    49.661759  0.021781473  0.023222156            5 
  191000   0.97573366   -7.7657615    49.787754  0.021722406  0.023148869            1 
  192000   0.94370888   -7.7183379    49.982834  0.021693938  0.023076218            1 
  193000    0.9585367   -7.7279023    50.192096  0.021671889  0.023004907            1 
  194000   0.98405458   -7.7780605    50.194785  0.021561334   0.02293317            4 
  195000   0.97925789   -7.7531587    50.427006  0.021550002  0.022862004            2 
  196000   0.94887232   -7.8025299    50.356845  0.021410223  0.022790133            4 
  197000   0.95816772   -7.7560322    50.496461  0.021360601  0.022717583            3 
  198000   0.95563734   -7.7817949    50.685538  0.021332297  0.022646085            3 
  199000   0.95390635    -7.786781    50.753995  0.021253767   0.02257478            2 
  200000   0.95275823    -7.762292      50.9571  0.021232125    0.0225031            1 
  201000   0.93657789   -7.8162215    51.033648  0.021158229  0.022432653            5 
  202000   0.92732314     -7.76804    51.249447  0.021142511  0.022362325            3 
  203000   0.93516049   -7.7696731    51.417327  0.021107277  0.022292514            3 
  204000   0.95032648   -7.8262102    51.380406  0.020988728  0.022221391            2 
  205000   0.93435241   -7.8340559    51.401976  0.020895112  0.022150081            1 
  206000   0.95530106   -7.8131236    51.531222  0.020845964  0.022079104            1 
  207000   0.93353947   -7.7839167    51.941701  0.020910508  0.022008243            4 
  208000   0.91215799   -7.7770153    51.962917  0.020818476  0.021937902            1 
  209000   0.93539499   -7.8106518    52.110971  0.020777899  0.021868904            2 
  210000   0.95004257   -7.8147164    52.168287  0.020701701  0.021800763            1 
  211000   0.93999182   -7.7984072    52.246754  0.020634579  0.021732276            2 
  212000   0.92790506   -7.8360101    52.436867  0.020611976  0.021664423            2 
  213000   0.92680625   -7.8561314    52.385865  0.020495252  0.021595751            1 
  214000   0.91192417   -7.8334762    52.484636  0.020437942  0.021525956            3 
  215000   0.92545689    -7.861692    52.615005  0.020393413  0.021455861            2 
  216000   0.94148685   -7.8263277    52.822256  0.020378957  0.021386897            1 
  217000   0.90945478    -7.819576    52.789785  0.020272575   0.02131776            4 
  218000   0.92401896   -7.8539321    52.797409  0.020182496  0.021248894            1 
  219000    0.9175966   -7.8727104    52.906682  0.020131918  0.021178936            5 
  220000   0.91419143   -7.8824598    53.008562  0.020079001  0.021109246            4 
  221000   0.91539563   -7.8820197    53.160073  0.020045277   0.02103955            2 
  222000   0.92817857   -7.8807291    53.076631   0.01992366  0.020969851            2 
  223000   0.90096721   -7.8785854    53.333593  0.019930341   0.02090072            1 
  224000   0.90595725   -7.8987854     53.40064  0.019866309  0.020833266            1 
  225000   0.89559647   -7.8501835    53.638125  0.019865972  0.020766073            3 
  226000   0.91184118   -7.9113057    53.565185  0.019751174  0.020698107            1 
  227000   0.89699673   -7.8754252     53.80859   0.01975352  0.020630243            2 
  228000   0.90655407   -7.8982889    53.939898  0.019714875  0.020563758            2 
  229000   0.90360258   -7.9001537    53.986343  0.019645685  0.020498104            3 
  230000   0.89516763   -7.9067492    54.134955  0.019614114  0.020432821            2 
  231000   0.90451112    -7.854241    54.325401  0.019597908  0.020368119            3 
  232000   0.90410395   -7.9102712     54.33873  0.019518222  0.020303182            1 
  233000   0.89201797   -7.9245145    54.549504  0.019509837   0.02023874            1 
  234000   0.89073344   -7.9298982    54.496702  0.019407657  0.020174603            2 
  235000   0.88721053    -7.949441    54.485366  0.019321052  0.020109705            3 
  236000    0.8705563   -7.9381079    54.727995  0.019324857   0.02004588            1 
  237000   0.88292241   -7.9653668    54.748582  0.019250556  0.019982226            3 
  238000   0.87821367   -7.9799816    54.705404  0.019154553  0.019917702            1 
  239000   0.88125198   -7.9614218    54.967608  0.019165833  0.019852843            2 
  240000   0.87786441   -7.9785982     54.84127  0.019042108  0.019788499            2 
  241000   0.88470855   -7.9732486    55.047219  0.019034308  0.019724885            1 
  242000   0.86262095   -7.9622193       55.128  0.018983471  0.019661204            3 
  243000   0.90641755   -7.9676051    55.313818  0.018969073  0.019598473            1 
  244000   0.88565534   -7.9695481    55.406358  0.018922937  0.019536748            2 
  245000   0.87094398   -7.9547133    55.503291   0.01887867   0.01947482            2 
  246000   0.87492012   -7.9258168    55.658537  0.018854518  0.019412876            5 
  247000   0.88892435   -7.9508381    55.665784  0.018780629  0.019351853            5 
  248000   0.86860257   -7.9917367    55.716503  0.018721943  0.019290552            2 
  249000   0.86626856   -7.9633629    55.941463  0.018722042  0.019229471            3 
  250000   0.88629418    -7.992011    55.655217  0.018551739  0.019168149            3 
  251000   0.86510932   -7.9988695    55.849003  0.018542166   0.01910596            2 
  252000   0.86806468    -7.993571    56.068748  0.018541253   0.01904522            1 
  253000   0.86357884   -8.0034941     56.09253    0.0184758  0.018984903            2 
  254000   0.88005134   -7.9909394     56.24687  0.018453697  0.018924729            1 
  255000   0.85742898   -7.9774662    56.338978  0.018411431  0.018865071            4 
  256000   0.85499978   -8.0353687    56.521885  0.018399051  0.018805989            5 
  257000   0.85447349   -8.0421191     56.63389  0.018363777  0.018747063            1 
  258000   0.85489064   -8.0515764    56.446973  0.018232226  0.018688558            3 
  259000   0.86996328   -8.0166801    56.984089  0.018334649  0.018631352            4 
  260000   0.84013249   -8.0539549    56.921846  0.018244181  0.018574442            3 
  261000   0.86983324   -8.0678544    56.895561  0.018165888  0.018517401            2 
  262000   0.85145538   -8.0518815    57.071964   0.01815266  0.018459729            5 
  263000   0.85258466    -8.067305    57.001411  0.018061284  0.018402384            2 
  264000   0.83667283   -8.0449394    56.868026  0.017950766   0.01834442            3 
  265000   0.84173222   -8.1012147    56.807141  0.017863881  0.018285895            3 
  266000   0.86196673   -8.0486796    56.935696  0.017836997  0.018227643            1 
  267000   0.85349656   -8.0628711    57.229206    0.0178618  0.018170021            5 
  268000   0.85193269   -8.0855752    57.263191  0.017805719  0.018112577            1 
  269000   0.84083038   -8.0830203    57.345984  0.017765175  0.018055072            4 
  270000   0.84611155   -8.1235314    57.294892  0.017683609  0.017997996            3 
  271000   0.82590701   -8.0840912    57.570855  0.017703215  0.017941324            1 
  272000   0.83618423   -8.0843658    57.656826  0.017664469  0.017885346            1 
  273000   0.84030032   -8.0891162    57.736126   0.01762397  0.017829486            4 
  274000   0.86149761     -8.10271     57.64507  0.017531956  0.017773456            2 
  275000   0.83365999   -8.0967051    57.705947  0.017486651  0.017717929            3 
  276000   0.81948364   -8.1191724    57.651701  0.017406915  0.017663027            6 
  277000   0.83937047   -8.0898958    57.749208  0.017373408  0.017608214            2 
  278000   0.83323823   -8.1133216    57.863083  0.017345049  0.017553087            3 
  279000   0.82558259   -8.0988171    58.152535  0.017369335  0.017498853            3 
  280000   0.81538747   -8.1230971    58.013271  0.017265854  0.017444566            3 
  281000   0.82324315   -8.1308928     58.13238  0.017239733  0.017390403            1 
  282000   0.80715431   -8.1389299    58.037686  0.017150616  0.017336191            2 
  283000    0.8032403   -8.1546139    58.289327  0.017164113  0.017281843            1 
  284000   0.82312188   -8.1815156    58.337666   0.01711786  0.017227845            2 
  285000   0.80081721   -8.1500688    58.602366  0.017135195  0.017174873            3 
  286000   0.80501126   -8.1506846    58.527051  0.017053337  0.017122241            1 
  287000   0.82543859   -8.1477476    58.586946  0.017011308  0.017069871            2 
  288000   0.82269846   -8.1833333    58.543235  0.016939593   0.01701741            1 
  289000   0.79318066   -8.1463129     58.68114  0.016920744   0.01696494            4 
  290000    0.8089174   -8.1710508    58.645438  0.016852137  0.016912371            4 
  291000   0.79065564   -8.1833647    58.545356  0.016765566  0.016859608            2 
  292000   0.80652123   -8.1733939    58.834875  0.016790775  0.016806986            3 
  293000   0.79561819   -8.1773129    58.918199  0.016757167  0.016755129            4 
  294000   0.78702412   -8.1658819    58.995978  0.016722216  0.016703703            2 
  295000   0.81891485   -8.1714843    59.079218  0.016689044  0.016652793            4 
  296000     0.802793   -8.1899753     59.16602    0.0166571  0.016602037            3 
  297000   0.79294239   -8.1790651    59.159471  0.016599178  0.016551002            1 
  298000   0.80023147    -8.211721    59.189461  0.016551863  0.016500775            4 
  299000   0.77992989   -8.1904225    59.201167  0.016499768  0.016450201            2 
  300000   0.77897699   -8.2114174    59.305626  0.016473785  0.016399557            1 
  301000   0.78920349   -8.2600187    59.220952  0.016395612  0.016348635            2 
  302000   0.79429989   -8.2436356    59.125168  0.016314892  0.016297528            1 
  303000   0.77714468   -8.2418333    59.251981  0.016295924  0.016246323            1 
  304000   0.77341997   -8.2244236    59.209224  0.016230599  0.016195577            1 
  305000   0.77596816    -8.258692    59.285769  0.016198297  0.016144914            3 
  306000   0.78101905   -8.2269303    59.316874  0.016153833  0.016094353            2 
  307000   0.77617967   -8.2537072    59.265724   0.01608733  0.016043686            2 
  308000   0.77503476   -8.2399115    59.360478  0.016060735  0.015992863            3 
  309000   0.77250129   -8.2582211    59.447772  0.016032301   0.01594234            2 
  310000   0.77295091   -8.2525017    59.419063  0.015972866  0.015891715            5 
  311000   0.77467619   -8.2752459    59.344456  0.015901515  0.015841187            3 
  312000   0.76220989   -8.2951775    59.352877  0.015852798  0.015790607            1 
  313000   0.78824033   -8.2756315    59.217535  0.015766117  0.015739833            4 
  314000   0.75576892   -8.2542631    59.442558  0.015775626  0.015688927            8 
  315000   0.75805336   -8.2726298    59.399863  0.015714249  0.015637987            2 
  316000   0.75074132   -8.2683921    59.477963  0.015685117  0.015587247            2 
  317000   0.76427644   -8.2545853    59.488066  0.015638293   0.01553656            2 
  318000   0.77796472   -8.2824918    59.615015  0.015622383  0.015486466            4 
  319000   0.76382171   -8.3097974    59.530801  0.015551411  0.015436481            2 
  320000   0.76632322   -8.2936254    59.584086  0.015516689  0.015386387            3 
  321000   0.75089429   -8.2846971    59.515219  0.015450472  0.015336348            2 
  322000   0.75491215   -8.3025263    59.569173  0.015416453  0.015286539            3 
  323000   0.75221092   -8.3231498    59.637876  0.015386449  0.015236545            1 
  324000   0.75986428   -8.3258804    59.592705  0.015327342   0.01518688            1 
  325000   0.74095521   -8.3369342    59.581951  0.015277423  0.015137207            1 
  326000   0.74835085   -8.3027962    59.685618   0.01525706  0.015087882            2 
  327000   0.76347895   -8.3256022     59.64656  0.015200448  0.015038474            2 
  328000   0.73642583   -8.3439593    59.512293  0.015119993  0.014989012            3 
  329000   0.76124957   -8.3279118    59.603072  0.015097029  0.014939588            1 
  330000   0.73685357   -8.3314831    59.626996  0.015057322  0.014890139            2 
  331000   0.73857269    -8.370541    59.643166  0.015015903  0.014840759            4 
  332000   0.74363916   -8.3537772    59.630049  0.014967382  0.014791332            3 
  333000   0.74307557   -8.3798305    59.563543  0.014905792  0.014742067            3 
  334000   0.72087244    -8.337593    59.504544  0.014846443  0.014692564            3 
  335000   0.73084087   -8.3460278    59.695773  0.014849695  0.014643281            2 
  336000   0.72714875   -8.3638459    59.434151  0.014740613  0.014594185            1 
  337000   0.71368494   -8.3530222    59.745866  0.014773953  0.014545175            3 
  338000   0.73245902   -8.3423828     59.66048  0.014709191  0.014496372            6 
  339000    0.7324716   -8.3719804    59.708858  0.014677694  0.014447914            3 
  340000   0.72695805   -8.3608758    59.751147  0.014644889   0.01439934            2 
  341000   0.74204786   -8.3766983    59.716095  0.014593376  0.014350936            1 
  342000   0.73601255   -8.3888388    59.652912   0.01453531  0.014302482            3 
  343000   0.72408824   -8.3887094    59.686812  0.014501169  0.014254327            2 
  344000   0.70756821   -8.3719782    59.699942  0.014462195  0.014206164            2 
  345000   0.71426813   -8.3947308    59.740862   0.01443016  0.014158432            2 
  346000   0.72277284   -8.4006556    59.816564  0.014406687  0.014110684            5 
  347000   0.71203861   -8.3775065    59.622773  0.014318629  0.014062809            1 
  348000   0.71893403   -8.4387277    59.705434  0.014297278  0.014015058            2 
  349000    0.7274731   -8.4177792     59.69658  0.014254198  0.013967352            2 
  350000   0.73050956    -8.385597    59.641979  0.014200471  0.013920022            3 
  351000   0.71407845   -8.4201645      59.7235  0.014179369   0.01387264            4 
  352000   0.72401378   -8.4228705    59.536501  0.014094816  0.013825438            2 
  353000   0.71230169   -8.4376369    59.648689  0.014081371   0.01377826            2 
  354000   0.69567375   -8.4202477    59.658089  0.014043806  0.013731216            1 
  355000   0.71846424     -8.43322    59.779759  0.014032807  0.013684351            4 
  356000   0.70879483   -8.4527973    59.688153  0.013971946  0.013637759            2 
  357000   0.69911684   -8.4422999    59.745195  0.013946124  0.013591322            2 
  358000   0.68286092   -8.4595997    59.654899   0.01388615  0.013545028            1 
  359000    0.6931266   -8.4442161      59.5939   0.01383331  0.013498701            3 
  360000    0.7016889   -8.4718649    59.770013  0.013835651  0.013452541            3 
  361000   0.67644751   -8.4687653    59.743017  0.013791094  0.013406676            3 
  362000   0.69698616   -8.4913335    59.606683  0.013721612  0.013360773            1 
  363000    0.6845584   -8.4795894     59.62097  0.013687091  0.013315014            3 
  364000   0.68542223   -8.4900898    59.659113  0.013658222  0.013269194            8 
  365000    0.6841551   -8.4809919    59.720052  0.013634715   0.01322367            2 
  366000   0.68656582   -8.5008721    59.560805  0.013561203  0.013178315            2 
  367000   0.67783028   -8.4808269    59.776478  0.013573224  0.013133234            4 
  368000   0.66605425   -8.5126366     59.70025  0.013519078  0.013088212            4 
  369000   0.67013509   -8.4815266    59.759514  0.013495825  0.013043405            2 
  370000   0.68056039   -8.5073013    59.651528  0.013435029  0.012998775            4 
  371000   0.66384357   -8.5162741    59.717803  0.013413702  0.012954381            7 
  372000   0.66209543   -8.5310195    59.769653  0.013389259  0.012910248            5 
  373000   0.67782424   -8.5173861     59.81907  0.013364403  0.012866248           11 
  374000   0.64835211   -8.5254742    59.730629  0.013308964  0.012822262           10 
  375000   0.66400039   -8.5363114    59.822684   0.01329393  0.012778371            4 
  376000    0.6718892   -8.5307059    59.763392  0.013245433  0.012734555            8 
  377000   0.65170643   -8.5393301    59.764851  0.013210621  0.012690949            3 
  378000   0.65719308   -8.5235587    59.805308  0.013184592  0.012647337            2 
  379000   0.67276344   -8.5705074    59.548489  0.013093335  0.012603871            8 
  380000    0.6664359   -8.5360948    59.764048  0.013106151  0.012560578            4 
  381000   0.67093783   -8.5719775    59.668046  0.013050754  0.012517383            4 
  382000   0.66175921   -8.5669545    59.699988  0.013023558  0.012474335            3 
  383000   0.64930122   -8.5723729    59.703815  0.012990386  0.012431569            4 
  384000   0.65521629   -8.5690438    59.750364  0.012966659  0.012388828            2 
  385000   0.66161184   -8.5753404    59.620982  0.012904974  0.012346223            7 
  386000   0.65959895   -8.5985491    59.734231  0.012895991  0.012303815            2 
  387000    0.6465291   -8.5834004    59.765194  0.012869336  0.012261438            2 
  388000   0.63929345   -8.5686099    59.693771  0.012820827  0.012219254            5 
  389000   0.63613526   -8.5845114    59.699897  0.012789181  0.012177063            2 
  390000   0.64171629    -8.587012     59.61796   0.01273888  0.012135141            3 
  391000    0.6411862   -8.6075195    59.633572  0.012709627  0.012093184            3 
  392000   0.64420249   -8.5867183    59.667701   0.01268446  0.012051449            3 
  393000   0.64301094   -8.6180711    59.625509  0.012643238  0.012009841            1 
  394000   0.65680594   -8.6090807    59.596349  0.012604981  0.011968437            1 
  395000   0.64588968   -8.6094527    59.737859  0.012602924  0.011927178            3 
  396000   0.63657315   -8.6113817    59.518979  0.012525038  0.011886058            3 
  397000   0.63314817   -8.6270459    59.622823  0.012515286  0.011845074            2 
  398000    0.6273097   -8.6201008    59.531833  0.012464789  0.011804113            4 
  399000   0.62973155   -8.6282576     59.63681  0.012455474   0.01176336            3 
  400000   0.62457656   -8.6136364    59.717575  0.012441161  0.011722878            8 
  401000   0.63139764   -8.6196113    59.752922  0.012417482  0.011682539            3 
  402000   0.63319281    -8.615207    59.678319  0.012371128  0.011642394            5 
  403000   0.62857507   -8.6267313     59.74497  0.012354212  0.011602378            2 
  404000   0.61949105   -8.6075026    59.586194  0.012290882  0.011562588            1 
  405000   0.60709026   -8.6590384    59.500074  0.012242814  0.011522745            1 
  406000   0.61480084   -8.6545053    59.556193  0.012224178  0.011483083            2 
  407000   0.59681733   -8.6501898     59.62484  0.012208198  0.011443527            3 
  408000   0.62623298   -8.6620347    59.557153  0.012164451   0.01140406            4 
  409000   0.61239842   -8.6758288    59.576091  0.012138568   0.01136481            1 
  410000   0.61428831   -8.6603403    59.560897  0.012105873  0.011325696            4 
  411000   0.61473474   -8.6519327    59.640164  0.012092491  0.011286754            2 
  412000   0.61056141   -8.6877713    59.559917  0.012046909   0.01124786            1 
  413000   0.61582918   -8.6702847    59.620246  0.012029912  0.011209023            6 
  414000   0.60892056   -8.6867945    59.495677   0.01197578   0.01117042            3 
  415000   0.60914108   -8.6762521    59.612206  0.011970323  0.011131904            2 
  416000   0.60642525   -8.6802945    59.661141   0.01195135  0.011093696            1 
  417000   0.60545236   -8.6990521    59.555582  0.011901595  0.011055579            5 
  418000   0.60734245   -8.6886183    59.430737  0.011848233  0.011017516            2 
  419000    0.5956929   -8.7195062    59.475725  0.011828903  0.010979645            1 
  420000   0.58959309   -8.6738547    59.569676   0.01181938  0.010941861            1 
  421000   0.59923973   -8.7114851    59.427187  0.011763101  0.010904215            1 
  422000   0.58762474   -8.6938833    59.409589  0.011731751    0.0108667            3 
  423000   0.58743508   -8.7218208    59.506117  0.011723033  0.010829339            5 
  424000    0.5831449   -8.7056288    59.435617  0.011681528  0.010792156            4 
  425000   0.58949629   -8.7099893    59.457319  0.011658298  0.010755137            2 
  426000   0.58724023   -8.7046437    59.500251  0.011639329  0.010718249            1 
  427000   0.58268069   -8.7006042    59.574954   0.01162665  0.010681577            2 
  428000   0.59926348   -8.7000139    59.503089  0.011585492  0.010645041            4 
  429000   0.57533908   -8.7062199    59.433676  0.011545003   0.01060868            1 
  430000   0.59285163   -8.7174852    59.466066  0.011524431  0.010572402            2 
  431000   0.58852211   -8.7169929    59.441801  0.011493001  0.010536254            1 
  432000   0.58066498   -8.7037157    59.403119  0.011458935  0.010500244            2 
  433000   0.57570422   -8.7197071    59.444401  0.011440416  0.010464379            3 
  434000   0.57103738   -8.7294712    59.448311  0.011414806  0.010428695            2 
  435000   0.56903952    -8.707936    59.464538  0.011391674  0.010393128            2 
  436000   0.58415129   -8.7259694    59.388203  0.011350956  0.010357721            1 
  437000   0.58440991   -8.7326593    59.453862  0.011337502   0.01032246            1 
  438000   0.57091786   -8.7299849    59.432837  0.011307617  0.010287354            2 
  439000   0.55782215   -8.7309529    59.453056  0.011285698  0.010252317            5 
  440000   0.56132899   -8.7494256    59.300478  0.011231151  0.010217513            4 
  441000   0.56219511   -8.7297161    59.514107  0.011246052  0.010182704            4 
  442000   0.56398483   -8.7583525    59.387064  0.011196656  0.010148037            1 
  443000   0.56691463    -8.751032    59.396591  0.011173174  0.010113542            2 
  444000   0.56553252   -8.7705984    59.344139  0.011138164  0.010079163            2 
  445000   0.56755604   -8.7502266    59.418804  0.011127117  0.010044982            4 
  446000   0.55556499   -8.7595731    59.444786  0.011107023  0.010010924            2 
  447000   0.55520104   -8.7730699    59.350862  0.011064665 0.0099770818            1 
  448000   0.55411786   -8.7734943    59.387789  0.011046836 0.0099433076            3 
  449000   0.54694818   -8.7588468    59.279203  0.011002079 0.0099096419            1 
  450000   0.55795282   -8.7740947    59.397285  0.010999497 0.0098761156            3 
  451000    0.5493995   -8.7700605    59.292118  0.010955676 0.0098427275            1 
  452000    0.5523913   -8.7959429    59.435633  0.010957897  0.009809538            2 
  453000    0.5366904    -8.760504    59.385318  0.010924451 0.0097763971            2 
  454000    0.5421962   -8.7884058     59.32078  0.010888543 0.0097433885            2 
  455000   0.53474913   -8.7833992    59.308134  0.010862296 0.0097105037            3 
  456000   0.54407092   -8.7931804    59.381577  0.010851896 0.0096777481            1 
  457000    0.5446578   -8.7840949    59.336094  0.010819857 0.0096451881            1 
  458000   0.53304347   -8.7926831    59.282692  0.010786516 0.0096127579            1 
  459000   0.54342967    -8.797213    59.386462  0.010781856 0.0095803621            2 
  460000   0.52283082   -8.7898192    59.314733  0.010745423 0.0095480993            2 
  461000   0.52970018   -8.7906635    59.251552  0.010710693 0.0095159863            2 
  462000   0.52577124   -8.8021842    59.278029  0.010692285  0.009484008            2 
  463000    0.5273896   -8.8010612    59.328036  0.010678192 0.0094521363            1 
  464000   0.52489847   -8.7967884    59.308771  0.010651719 0.0094204728            1 
  465000    0.5211431   -8.8031572    59.220499  0.010612993  0.009388961            1 
  466000   0.52708346   -8.7874666    59.285719  0.010601881 0.0093575586            1 
  467000   0.51975182     -8.82332    59.159785  0.010556707 0.0093261994            2 
  468000   0.52427711   -8.8152814    59.220052  0.010544881 0.0092949407            2 
  469000   0.52044914   -8.8281323    59.219102  0.010522228 0.0092638032            2 
  470000   0.52640133   -8.8332308      59.2958   0.01051344 0.0092328299            2 
  471000   0.52436219   -8.8250727    59.133524  0.010462407 0.0092019605            3 
  472000    0.5130003   -8.8318823    59.208782  0.010453528  0.009171227            2 
  473000   0.51348157   -8.8433636    59.187819  0.010427734 0.0091406214            3 
  474000   0.50954885   -8.8363455    59.208654  0.010409398 0.0091102215            1 
  475000   0.50883828    -8.832612    59.138144  0.010375113 0.0090798487            6 
  476000   0.50346996   -8.8437569    59.244889  0.010372004 0.0090496432            3 
  477000    0.5068875   -8.8526245    59.136663  0.010331353 0.0090195542            1 
  478000   0.50352511   -8.8559511    59.154365  0.010312825 0.0089895853            2 
  479000   0.49603596   -8.8614773    59.145603  0.010289771 0.0089597313            2 
  480000   0.50691741   -8.8446965    59.229844  0.010282959 0.0089300439            2 
  481000    0.4994476   -8.8590291    59.208776  0.010257931 0.0089005359            1 
  482000   0.49874586   -8.8657899    59.069663  0.010212597 0.0088710822            2 
  483000   0.51031982   -8.8759721    59.097519  0.010196259 0.0088417164            3 
  484000   0.49649767   -8.8529638    59.144378  0.010183261 0.0088125321            1 
  485000   0.50173491   -8.8768399     59.18342  0.010168973  0.008783444            1 
  486000   0.48851193    -8.880372    59.162049  0.010144384 0.0087544931            1 
  487000   0.48766873   -8.8686298    59.089408  0.010111124 0.0087256302            3 
  488000   0.49221729   -8.8663446    59.118319  0.010095341 0.0086968438            2 
  489000   0.49013478    -8.883476    58.993676  0.010053455  0.008668183            2 
  490000   0.49129619   -8.8849585    59.063083  0.010044742 0.0086396334            2 
  491000   0.49180592   -8.8805064    59.104706  0.010031349 0.0086111425            2 
  492000   0.48112779   -8.8976422    59.126466  0.010014645 0.0085828235            1 
  493000   0.48838153   -8.8757117    59.057612  0.009982693 0.0085546179            2 
  494000   0.48052473   -8.9151868    59.072491 0.0099649952 0.0085265138            2 
  495000    0.4838613   -8.9037157    59.040342 0.0099394515 0.0084985401            2 
  496000   0.47309236   -8.8949574    59.034616 0.0099184503 0.0084706536            2 
  497000   0.47210976   -8.8935364    59.070725 0.0099045481 0.0084428965            2 
  498000   0.47477125   -8.8865364    59.036914 0.0098790017  0.008415305            1 
  499000   0.46957991   -8.9120458     59.05118 0.0098615864 0.0083878282            2 
  500000   0.47475204    -8.902765    59.153435 0.0098589059 0.0083604908            1 
  501000    0.4798566   -8.9141083    59.101961 0.0098306654 0.0083332769            2 
  502000   0.46764965   -8.9191559    59.003164 0.0097946819 0.0083061424            1 
  503000   0.46013718   -8.9094559    58.999772 0.0097746475 0.0082791188            2 
  504000   0.46668322   -8.9098269    59.063239 0.0097657471 0.0082522061            1 
  505000   0.44417564   -8.9225281    59.062791 0.0097463351  0.008225418            1 
  506000   0.46404373    -8.915299    58.901386 0.0097004917 0.0081986586            1 
  507000   0.45380739   -8.9308324    58.995155  0.009696771 0.0081720763            1 
  508000   0.46491146   -8.9236172    58.892596 0.0096608589 0.0081455523            1 
  509000   0.45052354   -8.9374902    58.941588 0.0096498997 0.0081191051            3 
  510000   0.45058619   -8.9296294    58.950568 0.0096324457 0.0080927964            2 
  511000   0.44308956   -8.9329951    58.957375 0.0096147057 0.0080666106            1 
  512000    0.4462072   -8.9344524    59.002304 0.0096032396 0.0080405821            2 
Loop time of 1217.18 on 48 procs for 500000 steps with 4000 atoms

Performance: 70983.680 tau/day, 410.785 timesteps/s
99.4% CPU use with 48 MPI tasks x no OpenMP threads

MPI task timing breakdown:
Section |  min time  |  avg time  |  max time  |%varavg| %total
---------------------------------------------------------------
Pair    | 77.344     | 85.853     | 92.735     |  35.1 |  7.05
Neigh   | 8.0996     | 8.4238     | 8.7473     |   6.1 |  0.69
Comm    | 79.036     | 86.071     | 95.813     |  37.8 |  7.07
Output  | 0.82874    | 0.82924    | 0.83793    |   0.1 |  0.07
Modify  | 1020.5     | 1024.9     | 1028       |   4.9 | 84.21
Other   |            | 11.06      |            |       |  0.91

Nlocal:        83.3333 ave          90 max          75 min
Histogram: 2 1 3 3 12 5 9 4 5 4
Nghost:        2162.58 ave        2182 max        2139 min
Histogram: 3 1 4 6 5 6 8 9 4 2
Neighs:        14323.9 ave       16299 max       12639 min
Histogram: 1 4 9 6 9 7 4 5 2 1
FullNghs:      28647.4 ave       31082 max       25793 min
Histogram: 2 1 5 7 7 5 8 7 1 5

Total # of neighbors = 1375077
Ave neighs/atom = 343.76925
Neighbor list builds = 26709
Dangerous builds = 0

#clear
#
#next RN
#
#jump SELF
Total wall time: 0:20:20
