
units lj                  # Use reduced LJ style units
atom_style atomic         # Uncharged point particles
atom_modify map hash      # Needed for indexing of clusters etc
                          # Used to be able to find where atoms are in relation to each other.

lattice fcc 1.0 spacing 1 1 1
Lattice spacing in x,y,z = 1.5874011 1.5874011 1.5874011
region box block 0 10 0 10 0 10 units lattice
create_box 2 box
Created orthogonal box = (0.0000000 0.0000000 0.0000000) to (15.874011 15.874011 15.874011)
  3 by 4 by 4 MPI processor grid
create_atoms 1 box
Created 4000 atoms
  using lattice units in orthogonal box = (0.0000000 0.0000000 0.0000000) to (15.874011 15.874011 15.874011)
  create_atoms CPU = 0.002 seconds
set type 1 type/fraction 2 0.11 78393
Setting atom values ...
  470 settings made for type/fraction
mass 1 1.0
mass 2 1.0
pair_style lj/cut  3.5
pair_modify tail  yes
pair_coeff 1  1  1.0  1.0   # Intearaction between 1 and 1 set with epsilon = 1 and sigma = 1
pair_coeff 1  2  1.5  0.8
pair_coeff 2  2  0.5  0.88

write_data data.0
System init for write_data ...
Neighbor list info ...
  update every 1 steps, delay 10 steps, check yes
  max neighbors/atom: 2000, page size: 100000
  master list distance cutoff = 3.8
  ghost atom cutoff = 3.8
  binsize = 1.9, bins = 9 9 9
  1 neighbor lists, perpetual/occasional/extra = 1 0 0
  (1) pair lj/cut, perpetual
      attributes: half, newton on
      pair build: half/bin/atomonly/newton
      stencil: half/bin/3d
      bin: standard
WARNING: Not all mixed pair coeffs generated from mixing. Use write_data with 'pair ij' option to store all pair coeffs. (../write_data.cpp:312)


#############################
#   M E L T   S Y S T E M   #
#############################

velocity all create 2.4 9622624 mom yes dist gaussian # Assign velocities
                                                    # Temperature 2.4, random number seed, zero linear momentum
                                                                                # Gaussian distribution

timestep 0.002   # simulation timestep
thermo 1000       # output thermodynamic data every 1000 steps bf 100

# Define a fix  in this case with index 1 applied to all
# particles in the simulation. This fix is for simulations
# in the anisotropic NPT ensemble. Note that we use the MTK
# correction.
fix 1 all npt temp 2.4 2.4 0.1 iso 5.68 5.68 0.5 mtk yes tchain 5 pchain 5 # Use NPT ensemble
                                                                         # Set temperature and pressure and damping
                                                                         # Numbers of thermostats in chain and in barostat
run 10000          # run for 10000 steps
Per MPI rank memory allocation (min/avg/max) = 3.642 | 3.644 | 3.648 Mbytes
Step Temp E_pair E_mol TotEng Press Volume 
       0          2.4   -7.6169122            0   -4.0178122   -3.1065461         4000 
    1000    2.4202894   -4.6438376            0   -1.0143112    5.6204455    4802.3414 
    2000    2.4269341   -4.6846045            0   -1.0451135    5.5934624    4784.4048 
    3000     2.420593   -4.6869006            0   -1.0569189    5.4634361    4790.6621 
    4000    2.4349529   -4.6287091            0  -0.97719285    5.6059647    4817.5544 
    5000    2.3873063   -4.6402272            0   -1.0601631    5.7199646     4791.316 
    6000    2.4579954   -4.6463659            0  -0.96029455    5.6458809    4796.0469 
    7000    2.3795916   -4.6564304            0   -1.0879354    5.6391044    4788.3384 
    8000    2.4369695    -4.660491            0   -1.0059506    5.8625785    4761.6509 
    9000    2.3205908   -4.6217847            0   -1.1417687    5.6332446     4800.152 
   10000    2.4018107   -4.6437417            0   -1.0419262    5.7614503     4776.708 
Loop time of 2.2194 on 48 procs for 10000 steps with 4000 atoms

Performance: 778588.610 tau/day, 4505.721 timesteps/s
99.7% CPU use with 48 MPI tasks x no OpenMP threads

MPI task timing breakdown:
Section |  min time  |  avg time  |  max time  |%varavg| %total
---------------------------------------------------------------
Pair    | 0.88918    | 0.97022    | 1.1508     |   4.2 | 43.72
Neigh   | 0.19091    | 0.19855    | 0.22651    |   1.5 |  8.95
Comm    | 0.60203    | 0.78786    | 0.88182    |   5.3 | 35.50
Output  | 0.00023995 | 0.00024398 | 0.00031092 |   0.0 |  0.01
Modify  | 0.19646    | 0.24818    | 0.3084     |   5.3 | 11.18
Other   |            | 0.01434    |            |       |  0.65

Nlocal:        83.3333 ave          95 max          74 min
Histogram: 3 3 6 10 9 5 5 5 1 1
Nghost:        1459.08 ave        1480 max        1439 min
Histogram: 3 1 7 5 11 5 7 3 3 3
Neighs:        7970.17 ave        9379 max        6951 min
Histogram: 2 3 7 13 8 5 8 0 1 1

Total # of neighbors = 382568
Ave neighs/atom = 95.642000
Neighbor list builds = 906
Dangerous builds = 209

# Equilibrate just above the melting temperature to avoid step fn in T

fix 1 all npt temp 1.25 1.25 0.1 iso 5.68 5.68 0.5 mtk yes tchain 5 pchain 5
run 2000
Per MPI rank memory allocation (min/avg/max) = 3.642 | 3.644 | 3.648 Mbytes
Step Temp E_pair E_mol TotEng Press Volume 
   10000    2.4018107   -4.6437417            0   -1.0419262    5.7614503     4776.708 
   11000    1.2758057      -6.2209            0   -4.3076699    5.6411494    3958.4363 
   12000    1.2301006    -6.234309            0   -4.3896193     5.674845    3946.6092 
Loop time of 0.484722 on 48 procs for 2000 steps with 4000 atoms

Performance: 712985.834 tau/day, 4126.075 timesteps/s
99.7% CPU use with 48 MPI tasks x no OpenMP threads

MPI task timing breakdown:
Section |  min time  |  avg time  |  max time  |%varavg| %total
---------------------------------------------------------------
Pair    | 0.20735    | 0.22641    | 0.26775    |   2.6 | 46.71
Neigh   | 0.030696   | 0.032938   | 0.038726   |   0.9 |  6.80
Comm    | 0.12445    | 0.1691     | 0.18919    |   3.4 | 34.89
Output  | 4.7229e-05 | 4.837e-05  | 6.2856e-05 |   0.0 |  0.01
Modify  | 0.03718    | 0.051911   | 0.070773   |   4.4 | 10.71
Other   |            | 0.00431    |            |       |  0.89

Nlocal:        83.3333 ave          93 max          77 min
Histogram: 5 6 6 12 4 5 4 1 3 2
Nghost:        1661.19 ave        1679 max        1642 min
Histogram: 1 1 6 4 12 8 5 6 3 2
Neighs:        9665.19 ave       11042 max        8745 min
Histogram: 6 4 10 7 7 3 5 2 2 2

Total # of neighbors = 463929
Ave neighs/atom = 115.98225
Neighbor list builds = 141
Dangerous builds = 7

#############################
# L I N E A R  Q U E N C H  #
#############################

# Define solid atoms. This closely follows ten Wolde  Ruiz-Montero and Frenkel  Faraday Discuss  1996  104  93-110
# Compute components of the per-atom q6 vector
compute q6 all orientorder/atom degrees 1 6 components 6 nnn NULL cutoff 1.3 # compute the Q6 parameter.
                                                                             # Use all neighbours within 1.3 unit cell.

# get number of connections
compute coord_number all coord/atom orientorder q6 0.5

# An atom is solid if it has 8 or more connections (of a possible 14)
variable is_solid atom c_coord_number>=8
group solid dynamic all var is_solid    # Must be dynamic to update
dynamic group solid defined

# do clustering
compute cluster solid cluster/atom 1.3 # Create a cluster where all atoms within are solid and max 1.3 units from another member

# define chunks one chunk per cluster
compute clus_chunks solid chunk/atom c_cluster nchunk every compress yes  # Says which atoms are in which chunk

# count the size of each chunk
compute size_chunks solid property/chunk clus_chunks count


# Find the maximum entry in the vector of chunk sizes
variable max_n equal max(c_size_chunks)


# Thermo style which includes this variable
# thermo_style custom step temp pe vol v_max_n

thermo ${N}  # Print the thermo information every 100 steps
thermo 1000  

# Reset the npt fix at a lower temperature (below freezing)
fix 1  all npt temp  ${temp} ${temp}  0.1  iso  5.68  5.68  0.5  mtk yes tchain  5  pchain  5
fix 1  all npt temp  0.45 ${temp}  0.1  iso  5.68  5.68  0.5  mtk yes tchain  5  pchain  5
fix 1  all npt temp  0.45 0.45  0.1  iso  5.68  5.68  0.5  mtk yes tchain  5  pchain  5

dump dmp2 all dcd ${N} traj.dcd
dump dmp2 all dcd 1000 traj.dcd


compute msd all msd com yes
variable twopoint equal c_msd[4]/6/(step*dt+1.0e-6)
fix 9 all vector 10 c_msd[4]
variable fit equal slope(f_9)/6/(10*dt)
thermo_style custom step temp pe c_msd[4] v_twopoint v_fit v_max_n

fix 1 all npt temp 1.25 ${temp} 0.1 iso 5.68 5.68 0.5 mtk yes tchain 5 pchain 5
fix 1 all npt temp 1.25 0.45 0.1 iso 5.68 5.68 0.5 mtk yes tchain 5 pchain 5
run 500000 # 5000000  # Run for this many steps
Neighbor list info ...
  update every 1 steps, delay 10 steps, check yes
  max neighbors/atom: 2000, page size: 100000
  master list distance cutoff = 3.8
  ghost atom cutoff = 3.8
  binsize = 1.9, bins = 9 9 9
  4 neighbor lists, perpetual/occasional/extra = 1 3 0
  (1) pair lj/cut, perpetual
      attributes: half, newton on
      pair build: half/bin/atomonly/newton
      stencil: half/bin/3d
      bin: standard
  (2) compute orientorder/atom, occasional
      attributes: full, newton on
      pair build: full/bin/atomonly
      stencil: full/bin/3d
      bin: standard
  (3) compute coord/atom, occasional
      attributes: full, newton on
      pair build: full/bin/atomonly
      stencil: full/bin/3d
      bin: standard
  (4) compute cluster/atom, occasional
      attributes: full, newton on
      pair build: full/bin/atomonly
      stencil: full/bin/3d
      bin: standard
Per MPI rank memory allocation (min/avg/max) = 9.754 | 9.759 | 9.762 Mbytes
Step Temp PotEng c_msd[4] v_twopoint v_fit v_max_n 
   12000    1.2301006    -6.234309            0            0 8.3333333e+20            2 
   13000    1.2493885   -6.2354631   0.55309955 0.0035455098   0.04490178            2 
   14000    1.2303159   -6.2290931    1.1547226 0.0068733487   0.04742823            1 
   15000    1.2539961   -6.2664938    1.6898244 0.0093879131  0.047861452            3 
   16000    1.2555897   -6.2341954    2.2122894   0.01152234  0.046400226            3 
   17000    1.2330089    -6.263127    2.6749945  0.013112718  0.045080726            2 
   18000    1.2538946   -6.2939671    3.2087726  0.014855428  0.044261333            2 
   19000     1.238532   -6.3184525    3.6887835  0.016178875  0.043687971            2 
   20000    1.2790887   -6.3149581    4.2446286  0.017685952  0.043337709            3 
   21000    1.2362172   -6.3200323    4.8628577  0.019297054  0.043677568            2 
   22000     1.246174   -6.2527139    5.4313266  0.020573206  0.044178567            1 
   23000    1.2300694   -6.2772066    6.0492618  0.021917615  0.044569177            2 
   24000    1.2422429   -6.3337185    6.6275698  0.023012395  0.045064454            4 
   25000    1.2097813   -6.2614037    7.1305528  0.023768509  0.045400297            2 
   26000    1.2369031   -6.2947045    7.5791644  0.024292193   0.04539493            2 
   27000    1.2330879   -6.2912469    8.0403031   0.02481575  0.045101986            5 
   28000    1.2115651   -6.2591926    8.5834287  0.025545918  0.045001305            2 
   29000    1.2116006   -6.3316953    9.1185335  0.026202682  0.044872269            2 
   30000    1.2070055   -6.2915838    9.6578035  0.026827232  0.044736829            2 
   31000    1.2300168   -6.3213147    10.044981  0.027002637  0.044551474            2 
   32000    1.1804172   -6.2970193    10.480495  0.027292954  0.044267207            2 
   33000    1.2324866   -6.3033351    11.046241  0.027894547  0.044065728            2 
   34000    1.2091248    -6.325184    11.528749  0.028256736  0.043927452            5 
   35000    1.2063647    -6.307067     12.12595   0.02887131  0.043825679            3 
   36000     1.206239   -6.3122275    12.486484  0.028903898  0.043667647            3 
   37000    1.2314428    -6.320398     12.79609  0.028820022  0.043405721            1 
   38000     1.196466   -6.2853671      13.3531  0.029283114  0.043153968            2 
   39000     1.205101   -6.3476554    13.831003  0.029553425  0.042945299            2 
   40000     1.207365   -6.2933761    14.418267  0.030038056  0.042793901            2 
   41000    1.1937294   -6.3478652    14.942012  0.030369943  0.042699055            2 
   42000    1.2130734   -6.3056795    15.313318  0.030383566  0.042545594            1 
   43000     1.194029   -6.3364198    15.703544  0.030433224  0.042412709            4 
   44000    1.2064476   -6.3114606    16.331739  0.030931323  0.042295844            2 
   45000    1.2187898   -6.3399277    16.932634  0.031356729  0.042239115            3 
   46000    1.2079303   -6.3376185    17.328621  0.031392428  0.042180665            2 
   47000    1.1970139   -6.3675429    17.779496  0.031523929  0.042094918            1 
   48000    1.1763735   -6.3622333    18.128699  0.031473436  0.041984202            3 
   49000    1.1799328   -6.3611943    18.485228  0.031437463  0.041839977            3 
   50000    1.1716709    -6.350596    18.880876  0.031468127  0.041677046            5 
   51000      1.19779    -6.377057    19.419253  0.031730806  0.041528458            1 
   52000    1.1989561   -6.3468386     19.89977  0.031890657  0.041400976            4 
   53000     1.176054   -6.3778318    20.259417  0.031854429  0.041268036            2 
   54000    1.1669276   -6.3560964    20.814066  0.032120472  0.041147767            2 
   55000    1.1676029   -6.3920009    21.259222  0.032210943  0.041053469            3 
   56000    1.1515847   -6.3812281    21.853291  0.032519778   0.04096079            3 
   57000    1.1795613   -6.3991402    22.190531  0.032442296  0.040875243            2 
   58000     1.189323   -6.4093999    22.538728   0.03238323   0.04076899            2 
   59000    1.1753829   -6.3609845    22.981245  0.032459385  0.040666837            4 
   60000    1.1828434   -6.3723301    23.600947  0.032779093  0.040585264            2 
   61000    1.1475557   -6.3869241    24.125289  0.032958045  0.040525878           11 
   62000    1.1855768   -6.4186983    24.588861  0.033049544  0.040470144            2 
   63000     1.171541    -6.391761    25.137975  0.033251289  0.040423941            3 
   64000    1.1702774   -6.3848378    25.564905  0.033287637  0.040384577            6 
   65000    1.1745801   -6.3786829    25.976665  0.033303416  0.040347124            3 
   66000    1.1818319   -6.3997652    26.437402  0.033380558  0.040286771            4 
   67000    1.1614048   -6.4005137    26.908807  0.033468665  0.040241783            2 
   68000    1.1281896   -6.4358392    27.405527  0.033585204  0.040203666            6 
   69000    1.1741692   -6.4271722    27.942024  0.033746406  0.040175462            4 
   70000    1.1703661   -6.4306144     28.46101  0.033882155  0.040157104            1 
   71000    1.1608021   -6.4053656    28.903754  0.033924594  0.040129646            4 
   72000    1.1575569   -6.3839343    29.112049  0.033694501  0.040089279            2 
   73000    1.1541124   -6.4641369    29.526069  0.033705558  0.040029866            3 
   74000    1.1486849   -6.4550677    29.967099  0.033746733  0.039968244            2 
   75000    1.1334824   -6.4310968    30.222035  0.033580038  0.039898324            2 
   76000    1.1527145   -6.4240391    30.842923  0.033818994  0.039831126            4 
   77000     1.177535   -6.4505964    31.320506  0.033896652  0.039783367            1 
   78000    1.1362999   -6.4066195    31.795819  0.033969892  0.039728466            2 
   79000    1.1275024   -6.4375445     31.96828  0.033721815  0.039661201            4 
   80000    1.1320699   -6.4853141    32.504201  0.033858542  0.039597343            3 
   81000    1.1158999   -6.4972251     32.69895  0.033640895  0.039526106            2 
   82000    1.1483984    -6.468381    33.024212  0.033561191  0.039435128            3 
   83000    1.1619577   -6.4409814    33.625296  0.033760337  0.039358412            3 
   84000    1.1327348   -6.4378347     33.98264  0.033712937   0.03928103            7 
   85000    1.1457026   -6.4617913    34.421171  0.033746246  0.039201025            5 
   86000    1.1357886   -6.4157918    35.027511  0.033941386  0.039132558            3 
   87000    1.1112766    -6.517712    35.519415  0.034022428  0.039077195            2 
   88000    1.1458848   -6.4480224    36.003042   0.03409379   0.03902493            6 
   89000    1.1192497   -6.5044555    36.533881  0.034207753  0.038984236            2 
   90000    1.0983729    -6.446376    36.910975  0.034176829  0.038942072            3 
   91000    1.1243222   -6.4842793    37.164535  0.034033457  0.038894235            4 
   92000    1.0981776   -6.4609302    37.632946  0.034087814  0.038845417            6 
   93000    1.1361913   -6.4671206    38.229743  0.034256042  0.038803758            8 
   94000    1.1114386   -6.4803283     38.72807  0.034333395  0.038766941            2 
   95000    1.1328076   -6.4698148    39.131251  0.034325659  0.038730803            2 
   96000    1.1267192   -6.4949685     39.63419  0.034404679  0.038697757            4 
   97000     1.146039   -6.5081094     39.84754  0.034233282  0.038662165            4 
   98000    1.1142671   -6.5110126    40.277009  0.034249157  0.038621418            2 
   99000    1.1163038   -6.4970816    40.651167  0.034218154  0.038574118            2 
  100000    1.1228888   -6.4479745    40.978487  0.034148739   0.03852215            3 
  101000    1.1081765    -6.521931    41.431522  0.034184424  0.038478964            2 
  102000    1.0965062   -6.4922942    41.776614  0.034131221  0.038430255            3 
  103000    1.0940146   -6.5469226    42.117064  0.034075295  0.038381174            4 
  104000    1.1085131   -6.5082889     42.49409  0.034049751  0.038326912            4 
  105000    1.0766826   -6.5195114    42.899957  0.034047585  0.038267112            3 
  106000    1.1186393   -6.5390243    43.350648  0.034080698  0.038215841            6 
  107000    1.0816872   -6.5127432    43.686962  0.034024113   0.03815732            7 
  108000    1.0788203   -6.5199015    44.003203  0.033953088  0.038099158            2 
  109000    1.1078108   -6.5127248    44.290787  0.033861458  0.038033959            3 
  110000    1.0743504   -6.5476579     44.78301  0.033926523  0.037974242            4 
  111000    1.0978623   -6.5698778    45.219537  0.033948601  0.037915927            3 
  112000    1.0961681   -6.5455574    45.702395  0.034004758  0.037857547            4 
  113000    1.0857046   -6.5473914    45.911515  0.033858049  0.037800734            1 
  114000    1.0937873   -6.5745165    46.156441  0.033740089  0.037732677            4 
  115000     1.075924   -6.5605053     46.67816  0.033824753  0.037666844            6 
  116000     1.081107   -6.5753815    46.830412  0.033642537  0.037599111            2 
  117000    1.0676413    -6.549004     47.05827  0.033517286   0.03752344            3 
  118000    1.0716477   -6.5854581    47.480423  0.033531372  0.037446404            6 
  119000     1.086145   -6.5558845     47.75274  0.033440294  0.037372607            5 
  120000    1.0756354   -6.5656076    48.302752  0.033543578  0.037296265            4 
  121000    1.0634616   -6.5714478    48.622841  0.033486805   0.03722466            4 
  122000    1.0900895   -6.5944195    48.937011   0.03342692  0.037154378            4 
  123000    1.0766659   -6.5429796    49.542256  0.033565214  0.037089365            4 
  124000    1.0451579   -6.5595105    49.615335  0.033343639  0.037018992            4 
  125000    1.0751416   -6.5738602    49.995432  0.033330288  0.036945402            4 
  126000     1.041255   -6.5748014    50.456715  0.033370843   0.03687262            5 
  127000    1.0408503   -6.5714832    50.713351  0.033276477  0.036798866            5 
  128000    1.0901413    -6.571592    50.976886  0.033188077  0.036726104            3 
  129000    1.0603321   -6.5806323    51.294905  0.033136243  0.036653998            3 
  130000    1.0469668    -6.548007    51.784094  0.033194932  0.036580021            4 
  131000    1.0609771   -6.6000435    51.968958  0.033059133  0.036505665            3 
  132000    1.0437467   -6.5686946    52.299061  0.033017084  0.036429508            3 
  133000    1.0483071   -6.5767657    52.810542  0.033089312  0.036357024            5 
  134000    1.0477892   -6.6146139    52.983522  0.032949951    0.0362847            5 
  135000    1.0543587   -6.5907725     53.37821  0.032949512  0.036213287            7 
  136000    1.0715731   -6.6239222    53.545006   0.03280944  0.036140903            1 
  137000    1.0184314   -6.5908283    54.054157  0.032879657  0.036067025            4 
  138000    1.0350627   -6.6207547    54.339794  0.032813885  0.035995655            3 
  139000    1.0669679   -6.6486035      54.5633  0.032711811  0.035922244            4 
  140000    1.0252387   -6.6540142    54.862539  0.032656273  0.035846914            3 
  141000    1.0449907   -6.6535026    55.142353  0.032590043  0.035770329            2 
  142000    1.0317597   -6.6180098    55.288135  0.032446089  0.035693525            3 
  143000    1.0584735   -6.6574136    55.452098  0.032314742  0.035610707            2 
  144000    1.0376102   -6.6206602    55.881037  0.032338563  0.035526258            3 
  145000    1.0271026   -6.6211385    56.131501  0.032259483  0.035442342            8 
  146000    1.0600145   -6.6431926    56.365782   0.03217225  0.035358708            2 
  147000    1.0182798   -6.6355904    56.759951  0.032176843  0.035275703           10 
  148000    1.0349048   -6.6790848     57.12421  0.032164533  0.035195842            3 
  149000    1.0384032    -6.627451    57.558438   0.03219152  0.035117877            4 
  150000    1.0284606   -6.6651666    57.812723  0.032118179  0.035043301            3 
  151000    1.0160763   -6.6650037    58.210554   0.03212503  0.034969453            4 
  152000    1.0587602   -6.7032518    58.315006  0.031970946  0.034892348            8 
  153000   0.99188465    -6.672587    58.744172  0.031995736  0.034816905            3 
  154000    1.0249657   -6.6545522     59.00848  0.031930996  0.034740923            3 
  155000   0.99863643    -6.658137    59.621071  0.032054339   0.03466785            2 
  156000   0.99830068   -6.6757642    59.677022  0.031878751  0.034596382            3 
  157000    1.0323483   -6.6708779    60.233304  0.031970968   0.03452759            3 
  158000    1.0442647   -6.6536753     60.49452  0.031906392  0.034461101            3 
  159000     1.013602   -6.6596905    60.761347   0.03184557  0.034393599            1 
  160000    1.0210287   -6.7169746    60.974062  0.031757324  0.034325908            6 
  161000    1.0018218   -6.6657318    61.449069  0.031805936  0.034259974            4 
  162000    1.0171637   -6.6774717    61.724229  0.031751146  0.034194782            5 
  163000    1.0039038   -6.6906554    62.098879  0.031747893  0.034129358            3 
  164000   0.99996039   -6.6607553    62.292464  0.031652675  0.034063847            4 
  165000    1.0090871   -6.6853391    62.632192   0.03163242  0.033997043            2 
  166000    1.0005995   -6.7224074    62.696345  0.031474069  0.033927611            4 
  167000     1.012582    -6.712018    62.952075  0.031413211  0.033858086            2 
  168000   0.99478541   -6.7195475    63.088986   0.03129414  0.033784316            7 
  169000   0.98181937   -6.7148286    63.459471  0.031291652   0.03370973            3 
  170000    1.0085253   -6.7039227    63.618899  0.031185735  0.033636002            5 
  171000   0.97281896   -6.7073514    64.054804  0.031215791  0.033566612            4 
  172000    1.0032683   -6.6926683    64.456783  0.031229061  0.033497488            4 
  173000    1.0154561    -6.708695    64.431493  0.031036364  0.033426619            7 
  174000   0.99398422   -6.7015296    64.805146  0.031036947   0.03335444            5 
  175000   0.99497248   -6.7262238    64.998028  0.030951442  0.033282686            3 
  176000   0.99856834   -6.7619213    65.267663   0.03090325  0.033211311            2 
  177000    0.9814624   -6.7338098    65.448023   0.03081357  0.033141097            8 
  178000   0.97487573   -6.7313222    65.744724  0.030779365  0.033069177            3 
  179000    0.9606654   -6.7206545    66.021094  0.030736077  0.032996643            4 
  180000   0.97619124   -6.7650868    66.193046  0.030644929  0.032925108            8 
  181000   0.98935559   -6.7692775    66.604657  0.030665127  0.032853449            3 
  182000   0.96805988   -6.7346646    66.793988  0.030583328  0.032783648            5 
  183000   0.97593212   -6.7371648    67.270135  0.030633031  0.032712979            5 
  184000   0.96495005   -6.7638432    67.165769  0.030419279  0.032642678            5 
  185000   0.97059604   -6.7683663     67.62068  0.030459766  0.032570618            8 
  186000   0.98791182   -6.7644069    67.673735  0.030319774  0.032497939            3 
  187000   0.97369095   -6.7599021    67.907855  0.030261967  0.032424063            3 
  188000   0.96919584    -6.755561     68.25578  0.030255222  0.032350957            5 
  189000   0.95052179   -6.7511047    68.247221  0.030091367  0.032277197            3 
  190000   0.95344474   -6.7645673    68.656842   0.03011265  0.032202591            5 
  191000   0.98992226   -6.7708577    68.637532  0.029946567  0.032126454            5 
  192000   0.96548217   -6.7736322    68.845316   0.02988078  0.032049576            4 
  193000   0.96500342   -6.7945973    68.959975  0.029775464  0.031972532           16 
  194000   0.95661336   -6.8119418    69.374685  0.029800122  0.031894298            3 
  195000   0.94445933   -6.7867153    69.504204  0.029702651  0.031817173            3 
  196000    0.9457544   -6.8103812    69.642808  0.029610037  0.031739016            9 
  197000   0.95138488    -6.805445    69.733371  0.029498042  0.031659501           10 
  198000   0.96036374   -6.8013319    69.899948   0.02941917  0.031581128            7 
  199000   0.96499167   -6.8136316    70.027683  0.029324825  0.031502389            5 
  200000   0.94437636   -6.8391546    70.285266  0.029285527   0.03142146            4 
  201000   0.95429901   -6.8133016    70.617296  0.029277486  0.031341923            4 
  202000   0.92024521   -6.8336664    71.093316  0.029328926  0.031264966            3 
  203000   0.92863051   -6.8128176    71.283515  0.029262527  0.031190262            2 
  204000   0.94708936   -6.8385988     71.47894  0.029198913  0.031115388            3 
  205000    0.9526737   -6.8278063    71.721762  0.029155188  0.031039615            6 
  206000   0.94085125   -6.8049777    71.973745  0.029115593  0.030961678            7 
  207000   0.91667183   -6.8300115    72.059769  0.029009569  0.030885566            5 
  208000   0.94851229   -6.8431315    72.030755  0.028858475  0.030808869           10 
  209000   0.93483537   -6.8478276    72.392078  0.028864465  0.030732745            5 
  210000   0.95418874   -6.8479147    72.775103  0.028879009  0.030658588            4 
  211000   0.93225252   -6.8739652    73.012148  0.028835761  0.030585759            6 
  212000    0.9227302   -6.8824636     73.39111  0.028848707  0.030514383            9 
  213000   0.94124018   -6.8662112     73.44727  0.028735239  0.030442292            4 
  214000   0.92878673   -6.8511977    73.511247  0.028625875  0.030369622            3 
  215000   0.93477945   -6.8390206     73.93581  0.028657291  0.030297365            3 
  216000   0.95210593   -6.8359546    73.981715  0.028542328  0.030225781            6 
  217000   0.93779533   -6.8592837    74.296628  0.028531731  0.030154318            6 
  218000    0.9207766    -6.871224    74.284327   0.02839615  0.030080781           12 
  219000   0.90542562   -6.8682707    74.289615  0.028268499  0.030007052            4 
  220000   0.90944947   -6.9036653    74.401719  0.028182469  0.029932176            7 
  221000   0.90278032   -6.8727023    74.652159  0.028149381  0.029857147            7 
  222000   0.91646296   -6.8841319    74.980892   0.02814598  0.029783218            3 
  223000   0.91444936   -6.9105034    75.045429  0.028043882   0.02970983            6 
  224000   0.91615901   -6.8526447    75.381088   0.02804356  0.029636476            7 
  225000   0.89436092    -6.894987    75.637265  0.028013802  0.029563771            6 
  226000   0.90622481   -6.9029524    75.709838  0.027916607  0.029490097            8 
  227000    0.9224548   -6.9237466    75.797172  0.027825687  0.029417625            8 
  228000   0.88633743   -6.8973881    75.901554  0.027741796  0.029344675            6 
  229000   0.89212178   -6.8993272    76.137414  0.027706483  0.029271219            6 
  230000   0.91904726   -6.9272024    76.169393  0.027597606   0.02919751            5 
  231000   0.90041878   -6.9291464     76.43833  0.027575155  0.029123421            4 
  232000    0.8983177   -6.9215453    76.581865  0.027507854  0.029048801           10 
  233000    0.9163801   -6.9182659    76.653031  0.027415247  0.028974231           12 
  234000   0.88484152   -6.9070719    76.702877  0.027315839  0.028899482            3 
  235000   0.87881078   -6.9100781    76.792903  0.027231526  0.028823979            4 
  236000   0.89413723   -6.9288782    76.850257   0.02713639  0.028748974            4 
  237000   0.91137682   -6.9128735    77.310633  0.027183767   0.02867378            5 
  238000   0.88870472    -6.951679    77.171959  0.027020994   0.02859807            9 
  239000   0.87934685   -6.9366573     77.37015   0.02697704  0.028523348            5 
  240000   0.88303893   -6.9210468    77.569703  0.026933925  0.028448029            3 
  241000   0.88111958   -6.9667312    77.509688  0.026801414  0.028371699            3 
  242000    0.8875829   -6.9594228    77.779903  0.026783713  0.028295602            8 
  243000   0.88786701   -6.9610119    77.702698  0.026647016  0.028219545            4 
  244000   0.88654572   -6.9562841    77.834465  0.026582809   0.02814294            6 
  245000   0.87715638   -6.9547953    78.183661  0.026593082  0.028066785            4 
  246000   0.87024855    -6.944823    78.501715  0.026592722  0.027992421            7 
  247000   0.86092288   -7.0087018    78.499502  0.026484312  0.027918124            7 
  248000   0.87174542   -7.0070702    78.825479  0.026487056   0.02784352            7 
  249000   0.87019694   -6.9685981     78.85779  0.026391496  0.027769391            4 
  250000   0.88984555   -6.9778746    79.245629   0.02641521  0.027695899            9 
  251000    0.8815409   -6.9748552    79.370767  0.026351516  0.027622909            4 
  252000   0.88348416   -7.0191986    79.185056  0.026185534  0.027549739           19 
  253000   0.86444132   -6.9662577    79.299666  0.026119785  0.027475823            8 
  254000   0.84421704   -6.9777922     79.23932  0.025997152  0.027400591            5 
  255000   0.86862817   -7.0137489    79.404721  0.025949255  0.027325951            4 
  256000   0.85991818   -6.9912181    79.672886  0.025935184  0.027250616            7 
  257000   0.85459672   -6.9934925    79.526082  0.025786667  0.027174951            4 
  258000   0.86891647   -6.9802447    79.487143  0.025674142  0.027098397            5 
  259000   0.86960933   -7.0271902    79.516164  0.025584351   0.02702164            6 
  260000   0.85467949   -6.9886092    79.926315  0.025617409  0.026944408            4 
  261000   0.84750892   -7.0167623    79.914242  0.025515403  0.026867091            4 
  262000   0.86053146   -7.0258189    79.715513  0.025354807  0.026789109            5 
  263000   0.86686725   -7.0239643    79.805383  0.025286877  0.026711089            7 
  264000   0.84795235   -7.0135331    79.862635  0.025209165  0.026633785            9 
  265000   0.84810719   -7.0173867    79.900174  0.025125841  0.026555777           10 
  266000   0.84736213   -7.0341568    80.105529  0.025095717  0.026477341            3 
  267000   0.83509373    -7.026169    80.123914  0.025007464  0.026399446            5 
  268000   0.83897926   -7.0240701    80.279294  0.024962467  0.026320962            8 
  269000   0.82761189   -7.0114083     80.37384  0.024898959  0.026242698           10 
  270000   0.83103839   -7.0402292    80.473431  0.024837479  0.026164664            5 
  271000   0.82842524   -7.0182201    80.670869   0.02480654  0.026087166            4 
  272000   0.85084444   -7.0498322    80.544892  0.024676744  0.026010282            3 
  273000   0.82882117   -7.0520254    80.464244  0.024561735  0.025932245            7 
  274000   0.84267171   -7.0755208    80.631349  0.024522916  0.025854501           12 
  275000   0.82086012   -7.0742691    80.842237  0.024497648   0.02577697            6 
  276000   0.82895735   -7.0744652    80.751073  0.024381362  0.025699731            6 
  277000   0.82785049   -7.0405486    81.003616  0.024369319  0.025622825            6 
  278000   0.82361069   -7.0830947    81.200691  0.024340735  0.025546383            6 
  279000   0.83099033   -7.0718405    81.308934  0.024285823  0.025469661            5 
  280000      0.82526   -7.0893723    81.302068  0.024197044   0.02539339            6 
  281000   0.83476017   -7.0399948     81.37451  0.024132417  0.025317139            6 
  282000   0.79121229   -7.0951387    81.262712  0.024013804   0.02524094            5 
  283000   0.82618895   -7.0719681      81.3346  0.023950118  0.025164156           13 
  284000   0.82277109   -7.0611733    81.446325  0.023898569   0.02508779           16 
  285000   0.79006429   -7.0427205    81.552033  0.023845624  0.025011572            6 
  286000   0.82105095   -7.0854378    81.546779  0.023760716  0.024935033            6 
  287000   0.79651209   -7.1035739    81.605974  0.023695114  0.024859643            6 
  288000   0.79653123   -7.0791358    81.686258   0.02363607    0.0247838            5 
  289000   0.80519317   -7.0874445    82.214026  0.023706466  0.024708871            5 
  290000   0.80850519   -7.0867267    82.200125  0.023620726  0.024634216           11 
  291000   0.81074072   -7.1022439    82.107094  0.023512914  0.024559711            7 
  292000   0.80733154    -7.085104     82.23773  0.023469672  0.024484954           12 
  293000   0.78683558   -7.1162187    81.967575  0.023312735   0.02440979           21 
  294000   0.81451706   -7.1172287    82.125531  0.023278212   0.02433506            7 
  295000   0.79521048   -7.1362319    82.413723  0.023280713  0.024260806            7 
  296000   0.80266352   -7.1467343    82.482805   0.02322151  0.024187005            5 
  297000   0.78863949   -7.1388082    82.408269   0.02312241  0.024113387            4 
  298000   0.79578497   -7.1235974    82.423843  0.023049173  0.024040166            6 
  299000   0.79182232   -7.1255707     82.69415  0.023047422  0.023967335            9 
  300000   0.79952926   -7.1048508    82.816777   0.02300466  0.023894878            6 
  301000   0.80152909    -7.162111    82.826217  0.022930846  0.023822713            7 
  302000   0.77201148   -7.1497699    82.938388  0.022885869  0.023750712           10 
  303000   0.78216898   -7.1212942    83.187916  0.022878965  0.023678825            5 
  304000   0.80822159   -7.1797294    83.163321  0.022796963  0.023607328            6 
  305000    0.7929355   -7.1920738    83.220884  0.022737947  0.023536348            6 
  306000   0.78925802   -7.1522228    83.056561  0.022618889  0.023465213           10 
  307000   0.76910493   -7.1641114    83.110491  0.022559851   0.02339318           13 
  308000   0.78328194    -7.171857     82.99596  0.022455617  0.023321493            6 
  309000   0.79978227   -7.1620712    83.177002   0.02243177   0.02324963           23 
  310000   0.78402419   -7.2135497    83.089995   0.02233602  0.023177867           11 
  311000   0.74930125   -7.2040032    83.209505  0.022296223  0.023105918           12 
  312000   0.79007526     -7.19182    83.582252  0.022324319  0.023034928            6 
  313000   0.77709108   -7.1964591    83.497784  0.022230507  0.022964289            8 
  314000   0.76440884   -7.2035597    83.503025    0.0221611   0.02289356            9 
  315000    0.7649916   -7.1955837      83.9427  0.022207063  0.022823658           16 
  316000    0.7688055   -7.1969028    83.633187  0.022055165  0.022754098            5 
  317000   0.74648601   -7.2071957    83.644585  0.021988587   0.02268495            8 
  318000   0.75384904   -7.2135738    83.871806  0.021978985  0.022615682            9 
  319000   0.77418889   -7.2040553    83.649452  0.021851999  0.022546337           11 
  320000    0.7548951   -7.1905871    83.878956  0.021843478  0.022476731           16 
  321000    0.7603255    -7.228712    83.842272  0.021765906  0.022407073           11 
  322000   0.73575248   -7.2106744    83.854891  0.021701576  0.022337542            7 
  323000   0.76047909   -7.2337326    83.891812  0.021643914  0.022267725           11 
  324000   0.73266029   -7.2356698     83.77483  0.021547024   0.02219802            4 
  325000   0.73800413   -7.2469614    83.848953  0.021499731  0.022128175           15 
  326000   0.75217369   -7.2340587    83.967759  0.021464151  0.022059158           10 
  327000   0.73882097   -7.2419764     84.07809  0.021426629  0.021990304           11 
  328000   0.75276717   -7.2420214    84.071252  0.021359566  0.021921708           13 
  329000    0.7516007   -7.2710198    84.217589  0.021331709  0.021853459           11 
  330000   0.74412391   -7.2370636    84.375379  0.021306914  0.021785644           14 
  331000   0.72324025   -7.2468251    84.402988  0.021249493  0.021718117           13 
  332000    0.7578842   -7.2444914    84.255677  0.021148513  0.021650731           12 
  333000   0.72406654   -7.2697548    84.351564     0.021109  0.021583591           10 
  334000   0.72015346   -7.2249455    84.635351  0.021116604  0.021516557            9 
  335000   0.73846473   -7.2789706    84.470007   0.02101244  0.021449835           12 
  336000   0.71939059   -7.2570343    84.638319  0.020991647  0.021383545            7 
  337000   0.74945731   -7.2618994    84.544428  0.020906139  0.021317465           30 
  338000   0.73989735   -7.2688198    84.478321  0.020827988  0.021251519           21 
  339000   0.73267611   -7.3156148    84.681863  0.020816584  0.021185485           31 
  340000   0.71955638   -7.2900656    84.544175  0.020721612  0.021119437           10 
  341000   0.73829138   -7.2900416    84.897615  0.020747218  0.021054243           15 
  342000   0.73821902   -7.2566014     84.59812  0.020613577  0.020989097           18 
  343000   0.72728921   -7.2862266    84.753923  0.020591332  0.020923934           18 
  344000   0.72247257   -7.2877709    84.830778  0.020550091  0.020858916           10 
  345000   0.70617275   -7.2603233    84.567965  0.020427045  0.020793923            6 
  346000   0.70398121    -7.320497    84.683686  0.020395878  0.020728955           17 
  347000   0.73148624   -7.3015832    84.958681  0.020403142   0.02066404           11 
  348000   0.71210851   -7.3141284    84.797129  0.020305826   0.02059908           14 
  349000    0.7216928   -7.3020445      84.7691   0.02024095  0.020534453            5 
  350000    0.7135832   -7.3115691    84.869436  0.020207008  0.020469888            7 
  351000   0.71402397   -7.3037885    84.666429  0.020101241  0.020405504            9 
  352000   0.70995401   -7.3123481    84.957676  0.020113086  0.020341694            8 
  353000   0.70746582   -7.3284949    85.032147  0.020073689  0.020278059            7 
  354000   0.70745939   -7.3061186    84.898569  0.019985539   0.02021484           13 
  355000   0.69718074   -7.3401309    85.109411  0.019978735  0.020151798           15 
  356000   0.69468135   -7.3351091     85.06249  0.019911632  0.020089237           15 
  357000   0.71621794   -7.3110747    85.268434  0.019903929  0.020026875           15 
  358000   0.70116965   -7.3234047    85.076777  0.019803719  0.019964592           39 
  359000    0.6923852   -7.3214612    85.197187  0.019776506  0.019902321           24 
  360000   0.68752874   -7.3548589    85.313621  0.019748523  0.019840378           39 
  361000   0.69437972   -7.3329022    85.363732  0.019705386  0.019778641           10 
  362000   0.68005069   -7.3532104    85.278584   0.01963135  0.019717025           18 
  363000   0.70025496   -7.3288466    85.453366  0.019617393  0.019655747           22 
  364000   0.69099485   -7.3719027    85.430049  0.019558161  0.019594742           23 
  365000   0.68453551    -7.350998    85.421028  0.019502518   0.01953396           11 
  366000   0.68376321    -7.361038    85.363726  0.019436185  0.019473079           17 
  367000   0.69222322    -7.380617    85.368928  0.019384407  0.019412558           15 
  368000   0.68085839   -7.3692284    85.427515  0.019344999  0.019352277            8 
  369000   0.67475538   -7.3809129    85.634306  0.019339274  0.019292347            7 
  370000   0.68098837   -7.3561031    85.707498  0.019303491  0.019232752           21 
  371000   0.67059121   -7.3759892    85.623432  0.019232577  0.019173333           11 
  372000   0.67008742   -7.3589053    85.783481   0.01921673  0.019114242           12 
  373000   0.67134931   -7.3895606    85.731148  0.019153518  0.019055234           18 
  374000   0.67153999   -7.3729342    85.760387  0.019108821  0.018996314           19 
  375000   0.67391667   -7.3894601     85.74351  0.019054113   0.01893772           31 
  376000    0.6742096    -7.392292    85.685086  0.018990489  0.018879175           31 
  377000   0.65879191   -7.3844496    85.704367  0.018944378  0.018820795            8 
  378000   0.66920186   -7.3910408    85.763474  0.018907292  0.018762639           11 
  379000   0.67466568   -7.4038547    85.865406  0.018879817  0.018704629            7 
  380000   0.66651741   -7.4050218    85.767088  0.018808572  0.018647028           13 
  381000   0.65914024   -7.4335798    85.841398  0.018775459  0.018589482           16 
  382000   0.64438456   -7.4330234     85.89277  0.018737515  0.018532205           12 
  383000   0.64582799   -7.4017375    85.906239  0.018691523  0.018475038           10 
  384000   0.67149508   -7.4463578      85.9853  0.018660004  0.018418093           46 
  385000   0.64558945   -7.4219191    85.940057  0.018601744  0.018361389           21 
  386000   0.65292662   -7.4268853    85.986079  0.018563489  0.018304626           18 
  387000   0.65112493    -7.438184    85.979907  0.018514192  0.018247997           46 
  388000   0.65176707   -7.4599446    86.029043  0.018477028  0.018191524           24 
  389000   0.65032547    -7.438204    85.978704  0.018418745  0.018135446           10 
  390000   0.64888883   -7.4354971    86.038636  0.018384324  0.018079475           10 
  391000   0.63207477   -7.4565422    85.959319    0.0183204    0.0180235           40 
  392000   0.64210146   -7.4757783    86.069941  0.018297181  0.017967628           53 
  393000   0.63478028   -7.4482171    85.949385   0.01822506  0.017912059           16 
  394000   0.65353847   -7.4545814    85.995607   0.01818858  0.017856757           26 
  395000   0.65355807      -7.4562    85.988048  0.018140938  0.017801422           33 
  396000   0.63771795   -7.4768367    85.728529  0.018040515  0.017746002           45 
  397000   0.62189591   -7.4786968     86.04128  0.018060722  0.017690976           27 
  398000   0.62128013    -7.470777    86.134053  0.018034768  0.017636074           15 
  399000   0.64425201   -7.4708163    85.963468  0.017953941  0.017581474           34 
  400000   0.63307904   -7.4921682    86.016355  0.017920074  0.017526882           29 
  401000   0.62591917   -7.4885086    85.878173  0.017846669  0.017472494           28 
  402000   0.62888919   -7.4990531    85.873171  0.017801238  0.017418208           36 
  403000   0.63316088   -7.4891243    86.048653  0.017793353  0.017364113           26 
  404000   0.61929989   -7.4741949    85.940713  0.017727045  0.017310391           18 
  405000   0.62734064   -7.4945451    86.045713  0.017704879  0.017256965           27 
  406000   0.61217355   -7.4891885    86.229314  0.017698956  0.017203428           11 
  407000   0.60905856   -7.5134403    86.120517  0.017633193  0.017150063           21 
  408000   0.60657009   -7.4900511    86.122477  0.017590375  0.017097022           11 
  409000   0.62146998   -7.5085828    86.106913  0.017544196  0.017044116           27 
  410000    0.6213105   -7.5120939    86.260737   0.01753267  0.016991548           15 
  411000   0.61997697   -7.5031421    86.069207  0.017451177  0.016938946           28 
  412000   0.60166254    -7.522927    86.132918  0.017421707  0.016886497           29 
  413000   0.59522429   -7.5132766    86.064325  0.017365683  0.016834299           17 
  414000   0.61952269   -7.5329122    86.061456  0.017323159  0.016782148           21 
  415000   0.60128158   -7.5455717     86.07555  0.017284247  0.016730099           26 
  416000   0.62492986   -7.5528939     85.99488  0.017226538  0.016678196           16 
  417000   0.61124343   -7.5535973    86.277996  0.017241806  0.016626319           26 
  418000   0.60176646   -7.5471655    85.959297  0.017137021  0.016574669           26 
  419000   0.59344642   -7.5547408    85.891387  0.017082615  0.016523034           23 
  420000   0.58819655   -7.5484275    85.916207  0.017046866  0.016471611           19 
  421000   0.60685256   -7.5494197    85.975482  0.017018108  0.016420369           24 
  422000    0.5990527   -7.5392529    86.046898  0.016991883  0.016369278           24 
  423000   0.60405157   -7.5591802    86.095108  0.016961211  0.016318302           13 
  424000   0.58607477    -7.561856    85.971587  0.016896931  0.016267665           17 
  425000   0.59287378   -7.5573974    86.126535  0.016887556  0.016217162           11 
  426000   0.58964353   -7.5651572    86.220777  0.016866349  0.016166893           19 
  427000   0.59113531   -7.5448226    86.181498  0.016819184  0.016116812           16 
  428000   0.58060882   -7.5652801    86.093892  0.016762829  0.016066917           16 
  429000   0.57356532   -7.5719294    86.113608  0.016727585   0.01601721           16 
  430000   0.58682507   -7.5685008    86.002047  0.016667063  0.015967539           18 
  431000    0.5677697   -7.5652082    86.088987  0.016645202  0.015917896           19 
  432000   0.58617028   -7.5777246    86.040058  0.016597233  0.015868442           20 
  433000   0.57211369   -7.5752967    86.018928  0.016554836  0.015818994           21 
  434000   0.58021355   -7.5777579    85.962201  0.016505799  0.015769719           16 
  435000   0.57571764   -7.5922247    85.993555  0.016473861  0.015720508           28 
  436000   0.58544537   -7.5900118    85.921373  0.016422281   0.01567151           31 
  437000   0.57653812   -7.5825198    86.031552  0.016405712  0.015622576           21 
  438000   0.57594599   -7.5780421    86.112247  0.016383609  0.015573968           18 
  439000   0.55488807   -7.5964658    85.880245  0.016302248  0.015525306           15 
  440000   0.56217982   -7.6212446     85.94021  0.016276555  0.015476899           39 
  441000   0.58519988   -7.5963586    85.820048   0.01621694  0.015428601           39 
  442000   0.55442283    -7.608366    85.876836  0.016190957  0.015380544           26 
  443000   0.55986483   -7.6026763    86.006446   0.01617879  0.015332635           23 
  444000   0.56349567   -7.6286191    85.802146  0.016104006  0.015284892           26 
  445000   0.55668482   -7.6206866    85.834172  0.016073815  0.015237296           29 
  446000   0.54888369   -7.6319201    85.704807  0.016013604  0.015189797           27 
  447000   0.57654528   -7.6320133     85.89905  0.016013991  0.015142485           10 
  448000   0.54426739   -7.6294579    85.917641  0.015981704  0.015095281           23 
  449000   0.55339102   -7.6494946    85.924679  0.015947416  0.015048233           40 
  450000   0.53957269   -7.6340131    85.826213  0.015893743  0.015001228           21 
  451000   0.54701768   -7.6456393    85.819111   0.01585719  0.014954358           36 
  452000   0.54236198   -7.6465393    85.889374  0.015835062  0.014907674           26 
  453000   0.54755271   -7.6628912    85.795947  0.015782919  0.014861107           12 
  454000   0.54965656   -7.6195052    85.653823  0.015722067  0.014814705           24 
  455000   0.54365374    -7.640469    85.709224   0.01569766   0.01476843           29 
  456000   0.53490381   -7.6634875      85.7228  0.015665716  0.014722258           15 
  457000   0.54013026   -7.6560771    85.662628  0.015620465  0.014676186           26 
  458000   0.54141263   -7.6689627    85.745055  0.015601356  0.014630255           22 
  459000   0.53016159   -7.6707115    85.828353   0.01558249  0.014584532           22 
  460000   0.53900094    -7.663247    85.634068  0.015513418  0.014538911           13 
  461000   0.51978782   -7.6718181    85.695199  0.015490817  0.014493439           18 
  462000   0.53688259   -7.6736476     85.72322  0.015462341  0.014448178           18 
  463000    0.5267959   -7.6877757    85.547663  0.015397348  0.014402964           23 
  464000   0.53992045   -7.6633857    85.628801  0.015378736  0.014357872           19 
  465000   0.52686546   -7.6799103    85.688366  0.015356338  0.014312962           32 
  466000   0.53647559   -7.6756735    85.460165  0.015282576  0.014268183           16 
  467000   0.53020499   -7.6727478    85.551477  0.015266145  0.014223547           29 
  468000   0.51394356    -7.682672    85.762934  0.015271178  0.014179104           38 
  469000    0.5174068   -7.6887036    85.654112  0.015219281  0.014134834           17 
  470000   0.51014211   -7.7007576    85.710075  0.015196822  0.014090737           26 
  471000   0.51767595   -7.7024386    85.701144  0.015162977  0.014046742           46 
  472000   0.51236918   -7.6736073      85.5531  0.015104714  0.014002918           21 
  473000   0.50892449   -7.6963097    85.575139  0.015076663  0.013959222           16 
  474000   0.52113654   -7.6978313    85.568567    0.0150437  0.013915713           26 
  475000   0.50028535   -7.6952494    85.422945  0.014986482  0.013872291           22 
  476000   0.51643209   -7.7022871    85.555353  0.014978178   0.01382904           46 
  477000     0.504669    -7.704103    85.474644  0.014932677  0.013785899           23 
  478000   0.49917983   -7.7241889    85.407975  0.014889814  0.013742825           28 
  479000   0.50002593   -7.7083485    85.470727  0.014869646  0.013699978           13 
  480000   0.51592188   -7.7142621    85.550243  0.014852473  0.013657384           24 
  481000   0.49728865   -7.7124064    85.399103  0.014795409  0.013614835           21 
  482000   0.49117017   -7.7210752    85.555614  0.014791773  0.013572411           26 
  483000    0.4940145   -7.7068436    85.346602  0.014725087  0.013530126           25 
  484000   0.50233188   -7.7191493    85.293452  0.014685512  0.013488043           31 
  485000    0.5055248   -7.7146172     85.31734  0.014659337  0.013446149           29 
  486000   0.48567763   -7.7253871    85.307757   0.01462753  0.013404353           39 
  487000   0.49006692   -7.7330252    85.231108  0.014584378   0.01336271           45 
  488000   0.49605647   -7.7262157    85.379029  0.014579752  0.013321182           50 
  489000   0.47941672   -7.7415659    85.360448   0.01454677  0.013279912           32 
  490000   0.48954732   -7.7339939    85.280482  0.014503483  0.013238707           62 
  491000    0.4761605   -7.7434817    85.301467  0.014477506  0.013197646           44 
  492000   0.47713951   -7.7201534    85.180514  0.014427594  0.013156714           81 
  493000   0.50028684   -7.7385445    85.294007  0.014417513  0.013115969           30 
  494000   0.47639751   -7.7481381    85.204909  0.014373298  0.013075337           36 
  495000   0.48358927   -7.7550034    85.384214  0.014374447  0.013034842           49 
  496000   0.47852304   -7.7474665    85.343422  0.014338612  0.012994468           52 
  497000   0.47118026   -7.7485478    85.241962   0.01429275  0.012954229           53 
  498000   0.46373561   -7.7491141     85.30512  0.014274618  0.012914132           31 
  499000   0.46585752   -7.7534223    85.212087  0.014230475  0.012874246           33 
  500000   0.45944115   -7.7656344     85.26528   0.01421088  0.012834471           46 
  501000   0.47721537   -7.7624693    85.136033  0.014161017  0.012794803           36 
  502000   0.45564973   -7.7717416    85.174031  0.014139115  0.012755363           49 
  503000   0.46980271   -7.7562287    85.074038   0.01409444  0.012716052           23 
  504000   0.44833301   -7.7671915    85.122901  0.014074554  0.012676921           32 
  505000   0.46585877    -7.753886    85.161503  0.014053053  0.012637942           74 
  506000   0.46356936   -7.7857239    85.230647  0.014036668  0.012599031           37 
  507000   0.46986604   -7.7816817    85.147407    0.0139953  0.012560258           67 
  508000   0.45356098   -7.7688077    85.234111  0.013981974  0.012521665           40 
  509000   0.44825081   -7.7843634    85.117775  0.013935458  0.012483204           32 
  510000   0.44457861   -7.7782378    85.156982   0.01391454  0.012444885           52 
  511000    0.4471619   -7.7922056    85.183896  0.013891699  0.012406719           53 
  512000   0.45940802   -7.7958447    85.149644  0.013858991  0.012368735           63 
Loop time of 1113.96 on 48 procs for 500000 steps with 4000 atoms

Performance: 77561.147 tau/day, 448.849 timesteps/s
99.4% CPU use with 48 MPI tasks x no OpenMP threads

MPI task timing breakdown:
Section |  min time  |  avg time  |  max time  |%varavg| %total
---------------------------------------------------------------
Pair    | 67.484     | 71.096     | 75.281     |  20.6 |  6.38
Neigh   | 6.7276     | 6.9683     | 7.1584     |   3.5 |  0.63
Comm    | 57.859     | 65.416     | 71.66      |  44.5 |  5.87
Output  | 0.80307    | 0.8036     | 0.81192    |   0.1 |  0.07
Modify  | 945.44     | 955.52     | 963.44     |  18.3 | 85.78
Other   |            | 14.16      |            |       |  1.27

Nlocal:        83.3333 ave          91 max          76 min
Histogram: 3 2 7 1 10 7 9 6 0 3
Nghost:        1816.77 ave        1853 max        1799 min
Histogram: 9 7 8 8 4 6 3 1 1 1
Neighs:        11236.6 ave       12874 max        9991 min
Histogram: 2 6 8 5 9 7 1 7 2 1
FullNghs:      22474.8 ave       24889 max       20388 min
Histogram: 3 6 4 4 8 7 9 4 0 3

Total # of neighbors = 1078790
Ave neighs/atom = 269.69750
Neighbor list builds = 26951
Dangerous builds = 0

#clear
#
#next RN
#
#jump SELF
Total wall time: 0:18:37
