
units lj                  # Use reduced LJ style units
atom_style atomic         # Uncharged point particles
atom_modify map hash      # Needed for indexing of clusters etc
                          # Used to be able to find where atoms are in relation to each other.

lattice fcc 1.0 spacing 1 1 1
Lattice spacing in x,y,z = 1.5874011 1.5874011 1.5874011
region box block 0 10 0 10 0 10 units lattice
create_box 2 box
Created orthogonal box = (0.0000000 0.0000000 0.0000000) to (15.874011 15.874011 15.874011)
  3 by 4 by 4 MPI processor grid
create_atoms 1 box
Created 4000 atoms
  using lattice units in orthogonal box = (0.0000000 0.0000000 0.0000000) to (15.874011 15.874011 15.874011)
  create_atoms CPU = 0.014 seconds
set type 1 type/fraction 2 0.85 78393
Setting atom values ...
  3394 settings made for type/fraction
mass 1 1.0
mass 2 1.0
pair_style lj/cut  3.5
pair_modify tail  yes
pair_coeff 1  1  1.0  1.0   # Intearaction between 1 and 1 set with epsilon = 1 and sigma = 1
pair_coeff 1  2  1.5  0.8
pair_coeff 2  2  0.5  0.88

write_data data.0
System init for write_data ...
Neighbor list info ...
  update every 1 steps, delay 10 steps, check yes
  max neighbors/atom: 2000, page size: 100000
  master list distance cutoff = 3.8
  ghost atom cutoff = 3.8
  binsize = 1.9, bins = 9 9 9
  1 neighbor lists, perpetual/occasional/extra = 1 0 0
  (1) pair lj/cut, perpetual
      attributes: half, newton on
      pair build: half/bin/atomonly/newton
      stencil: half/bin/3d
      bin: standard
WARNING: Not all mixed pair coeffs generated from mixing. Use write_data with 'pair ij' option to store all pair coeffs. (../write_data.cpp:312)


#############################
#   M E L T   S Y S T E M   #
#############################

velocity all create 2.4 5833274 mom yes dist gaussian # Assign velocities
                                                    # Temperature 2.4, random number seed, zero linear momentum
                                                                                # Gaussian distribution

timestep 0.002   # simulation timestep
thermo 1000       # output thermodynamic data every 1000 steps bf 100

# Define a fix  in this case with index 1 applied to all
# particles in the simulation. This fix is for simulations
# in the anisotropic NPT ensemble. Note that we use the MTK
# correction.
fix 1 all npt temp 2.4 2.4 0.1 iso 5.68 5.68 0.5 mtk yes tchain 5 pchain 5 # Use NPT ensemble
                                                                         # Set temperature and pressure and damping
                                                                         # Numbers of thermostats in chain and in barostat
run 10000          # run for 10000 steps
Per MPI rank memory allocation (min/avg/max) = 3.642 | 3.644 | 3.648 Mbytes
Step Temp E_pair E_mol TotEng Press Volume 
       0          2.4   -3.4381692            0   0.16093083   -2.9520202         4000 
    1000    2.3830242   -2.6566779            0   0.91696484    5.6129099    3894.4832 
    2000    2.4161864   -2.6142058            0    1.0091677    5.6650295    3912.8413 
    3000    2.4188783   -2.6057403            0      1.02167    5.7082612    3903.2683 
    4000    2.4143292   -2.6516388            0   0.96894962    5.8400155    3866.4673 
    5000    2.3833617   -2.6234724            0   0.95067636    6.0720257    3843.6195 
    6000     2.427898   -2.6153182            0    1.0256184    5.8864909    3884.7485 
    7000    2.3906761   -2.6442197            0   0.94089803    5.7352674    3889.2177 
    8000    2.4123746   -2.6164785            0    1.0011788    5.5985741    3932.7707 
    9000     2.386895   -2.6335917            0   0.94585567    5.8054907    3870.7014 
   10000    2.4219392   -2.6469753            0   0.98502517    5.6715442    3887.8944 
Loop time of 2.53731 on 48 procs for 10000 steps with 4000 atoms

Performance: 681036.098 tau/day, 3941.181 timesteps/s
99.6% CPU use with 48 MPI tasks x no OpenMP threads

MPI task timing breakdown:
Section |  min time  |  avg time  |  max time  |%varavg| %total
---------------------------------------------------------------
Pair    | 1.1018     | 1.189      | 1.2618     |   2.8 | 46.86
Neigh   | 0.21015    | 0.21799    | 0.22742    |   0.8 |  8.59
Comm    | 0.7768     | 0.85969    | 0.95886    |   3.8 | 33.88
Output  | 0.00024497 | 0.00025132 | 0.00031553 |   0.0 |  0.01
Modify  | 0.23731    | 0.25508    | 0.27884    |   2.3 | 10.05
Other   |            | 0.01533    |            |       |  0.60

Nlocal:        83.3333 ave          92 max          70 min
Histogram: 2 0 2 2 4 11 10 11 4 2
Nghost:        1667.96 ave        1697 max        1650 min
Histogram: 5 6 10 7 8 3 4 3 1 1
Neighs:        9827.04 ave       11058 max        7552 min
Histogram: 1 0 1 2 2 9 14 12 4 3

Total # of neighbors = 471698
Ave neighs/atom = 117.92450
Neighbor list builds = 906
Dangerous builds = 185

# Equilibrate just above the melting temperature to avoid step fn in T

fix 1 all npt temp 1.25 1.25 0.1 iso 5.68 5.68 0.5 mtk yes tchain 5 pchain 5
run 2000
Per MPI rank memory allocation (min/avg/max) = 3.643 | 3.645 | 3.649 Mbytes
Step Temp E_pair E_mol TotEng Press Volume 
   10000    2.4219392   -2.6469753            0   0.98502517    5.6715442    3887.8944 
   11000    1.2581124   -3.8828721            0   -1.9961754    5.6791815     3018.564 
   12000    1.2266497   -3.9295338            0   -2.0900193    5.6758187    2992.5812 
Loop time of 0.627339 on 48 procs for 2000 steps with 4000 atoms

Performance: 550898.021 tau/day, 3188.067 timesteps/s
99.6% CPU use with 48 MPI tasks x no OpenMP threads

MPI task timing breakdown:
Section |  min time  |  avg time  |  max time  |%varavg| %total
---------------------------------------------------------------
Pair    | 0.27699    | 0.30433    | 0.34739    |   2.5 | 48.51
Neigh   | 0.039923   | 0.042591   | 0.049593   |   0.8 |  6.79
Comm    | 0.18161    | 0.23106    | 0.26153    |   3.3 | 36.83
Output  | 5.2649e-05 | 5.3975e-05 | 6.8245e-05 |   0.0 |  0.01
Modify  | 0.040743   | 0.044449   | 0.048833   |   1.1 |  7.09
Other   |            | 0.004857   |            |       |  0.77

Nlocal:        83.3333 ave          93 max          73 min
Histogram: 2 1 1 7 10 13 4 6 1 3
Nghost:        1990.29 ave        2013 max        1967 min
Histogram: 5 3 3 7 2 7 11 3 4 3
Neighs:        12758.4 ave       15354 max       10629 min
Histogram: 2 1 9 8 10 9 4 3 1 1

Total # of neighbors = 612403
Ave neighs/atom = 153.10075
Neighbor list builds = 143
Dangerous builds = 11

#############################
# L I N E A R  Q U E N C H  #
#############################

# Define solid atoms. This closely follows ten Wolde  Ruiz-Montero and Frenkel  Faraday Discuss  1996  104  93-110
# Compute components of the per-atom q6 vector
compute q6 all orientorder/atom degrees 1 6 components 6 nnn NULL cutoff 1.3 # compute the Q6 parameter.
                                                                             # Use all neighbours within 1.3 unit cell.

# get number of connections
compute coord_number all coord/atom orientorder q6 0.5

# An atom is solid if it has 8 or more connections (of a possible 14)
variable is_solid atom c_coord_number>=8
group solid dynamic all var is_solid    # Must be dynamic to update
dynamic group solid defined

# do clustering
compute cluster solid cluster/atom 1.3 # Create a cluster where all atoms within are solid and max 1.3 units from another member

# define chunks one chunk per cluster
compute clus_chunks solid chunk/atom c_cluster nchunk every compress yes  # Says which atoms are in which chunk

# count the size of each chunk
compute size_chunks solid property/chunk clus_chunks count


# Find the maximum entry in the vector of chunk sizes
variable max_n equal max(c_size_chunks)


# Thermo style which includes this variable
# thermo_style custom step temp pe vol v_max_n

thermo ${N}  # Print the thermo information every 100 steps
thermo 1000  

# Reset the npt fix at a lower temperature (below freezing)
fix 1  all npt temp  ${temp} ${temp}  0.1  iso  5.68  5.68  0.5  mtk yes tchain  5  pchain  5
fix 1  all npt temp  0.45 ${temp}  0.1  iso  5.68  5.68  0.5  mtk yes tchain  5  pchain  5
fix 1  all npt temp  0.45 0.45  0.1  iso  5.68  5.68  0.5  mtk yes tchain  5  pchain  5

dump dmp2 all dcd ${N} traj.dcd
dump dmp2 all dcd 1000 traj.dcd


compute msd all msd com yes
variable twopoint equal c_msd[4]/6/(step*dt+1.0e-6)
fix 9 all vector 10 c_msd[4]
variable fit equal slope(f_9)/6/(10*dt)
thermo_style custom step temp pe c_msd[4] v_twopoint v_fit v_max_n

fix 1 all npt temp 1.25 ${temp} 0.1 iso 5.68 5.68 0.5 mtk yes tchain 5 pchain 5
fix 1 all npt temp 1.25 0.45 0.1 iso 5.68 5.68 0.5 mtk yes tchain 5 pchain 5
run 2000000 # 5000000  # Run for this many steps
Neighbor list info ...
  update every 1 steps, delay 10 steps, check yes
  max neighbors/atom: 2000, page size: 100000
  master list distance cutoff = 3.8
  ghost atom cutoff = 3.8
  binsize = 1.9, bins = 8 8 8
  4 neighbor lists, perpetual/occasional/extra = 1 3 0
  (1) pair lj/cut, perpetual
      attributes: half, newton on
      pair build: half/bin/atomonly/newton
      stencil: half/bin/3d
      bin: standard
  (2) compute orientorder/atom, occasional
      attributes: full, newton on
      pair build: full/bin/atomonly
      stencil: full/bin/3d
      bin: standard
  (3) compute coord/atom, occasional
      attributes: full, newton on
      pair build: full/bin/atomonly
      stencil: full/bin/3d
      bin: standard
  (4) compute cluster/atom, occasional
      attributes: full, newton on
      pair build: full/bin/atomonly
      stencil: full/bin/3d
      bin: standard
Per MPI rank memory allocation (min/avg/max) = 9.829 | 9.835 | 9.841 Mbytes
Step Temp PotEng c_msd[4] v_twopoint v_fit v_max_n 
   12000    1.2266497   -3.9295338 8.5729459e-31 5.9534344e-33 8.3333333e+20            1 
   13000    1.2673085   -3.9125545   0.87760503 0.0056256731  0.074510865            1 
   14000    1.2667569   -3.9460617    1.8076813  0.010760007  0.076990669            2 
   15000    1.2585555   -3.9074448    2.7175345  0.015097413  0.076902245            2 
   16000    1.2647644    -3.886571    3.6502782  0.019011865   0.07690113            2 
   17000    1.2543173   -3.9103465     4.533725  0.022224141  0.076331484            1 
   18000    1.2377246    -3.931178    5.4631176   0.02529221  0.076451673            2 
   19000    1.2267134   -3.9199366    6.3829281  0.027995298  0.076360744            1 
   20000     1.253655   -3.9136184    7.3820332  0.030758471  0.076478071            1 
   21000    1.2537223   -3.9230693    8.3083719  0.032969729  0.076769157            2 
   22000    1.2254495    -3.895133    9.2435117  0.035013301  0.077085692            3 
   23000    1.2589786   -3.9326288     10.21864  0.037024058  0.077341538            1 
   24000    1.2512075   -3.8907763    11.249583   0.03906105  0.077536119            2 
   25000      1.27877   -3.9218823    12.069754  0.040232513  0.077814791            5 
   26000    1.2341847   -3.9263728    13.167896  0.042204793  0.078087353            3 
   27000    1.2314196   -3.9521549    14.058945  0.043391805  0.078459632            3 
   28000    1.2501344   -3.9626533    15.086963  0.044901676  0.078731986            2 
   29000    1.2673351   -3.9407097    16.184581  0.046507417  0.079022622            3 
   30000    1.2329756    -3.921924     16.88704  0.046908445  0.079182844            3 
   31000    1.2247316   -3.8708834    17.719715  0.047633641  0.078929878            1 
   32000    1.2614293   -3.9531486    18.318391  0.047704144  0.078545617            3 
   33000     1.254302   -3.9251402    19.078375  0.048177715  0.077997929            3 
   34000    1.2614425   -3.9487933    20.091502  0.049243876  0.077541079            1 
   35000    1.2418891   -3.9611204    21.018634  0.050044366  0.077207432            2 
   36000    1.2379041   -3.9413661    22.089363  0.051132784  0.077045957            2 
   37000    1.2443135   -3.9170182    23.193703  0.052238069  0.077034614            2 
   38000    1.2200442   -3.9499105    23.844009  0.052289494  0.076970073            2 
   39000    1.2382703   -3.8947599    24.840079   0.05307709  0.076877366            2 
   40000    1.2274027   -3.9254119    25.819009  0.053789601  0.076873101            3 
   41000    1.2326398   -3.9164618    26.691214  0.054250434   0.07682522            1 
   42000    1.2073216   -3.9217069    27.872768  0.055303111  0.076837577            4 
   43000     1.252494   -3.9230108    28.811166  0.055835593  0.076909725            1 
   44000    1.2217002   -3.9281163    30.005245  0.056828115  0.077048404            2 
   45000     1.252911   -3.9152414    30.919354  0.057258063  0.077208622            2 
   46000    1.2310185   -3.9546514    31.605549  0.057256429  0.077367064            2 
   47000    1.2583489   -3.9720477    32.692162  0.057964826  0.077467601            2 
   48000    1.2189007   -3.9742014    33.475475  0.058117143  0.077531702            2 
   49000    1.2332321   -3.9659264    34.552515  0.058762779  0.077588792            4 
   50000    1.2519389   -3.9400866    35.600022  0.059333369  0.077633024            3 
   51000    1.2346739   -3.9203306    36.765847  0.060074913  0.077708596            1 
   52000    1.2345047   -3.9707933    37.331523  0.059826158  0.077735223            1 
   53000    1.2336203   -3.9537231    38.101218  0.059907574  0.077761813            3 
   54000     1.256297   -3.9501968    39.031118  0.060233206  0.077775264            1 
   55000    1.2388226   -3.9448457    40.252841  0.060989152  0.077818996            1 
   56000    1.2416217   -3.9421668    41.411824  0.061624737   0.07790431            2 
   57000    1.2241682   -3.8987993    42.471265  0.062092493  0.077983672            6 
   58000    1.2132528   -3.9328609    43.312268  0.062230269  0.078078552            1 
   59000    1.2343074   -3.9678349    44.199439  0.062428586  0.078161571            3 
   60000    1.2373016   -3.9392177    45.241518  0.062835442  0.078233418            2 
   61000    1.2263237   -3.9278356    46.334538  0.063298548  0.078301844            1 
   62000    1.2351929   -3.9483513    47.192084  0.063430219  0.078389265            3 
   63000    1.2332501   -3.9636862    48.243991  0.063814802  0.078493805            5 
   64000      1.24306   -3.9430615    49.463344  0.064405395  0.078596606            1 
   65000    1.2856638     -3.95653      50.3534  0.064555641  0.078695861            1 
   66000    1.2316871   -3.9627791    51.154446  0.064588947  0.078774498            1 
   67000    1.2251971   -3.9645492    52.044044  0.064731397  0.078842443            3 
   68000    1.2313516   -3.9291875    53.402689  0.065444471  0.078897032            3 
   69000    1.2097095   -3.9512654    53.886123  0.065079858   0.07897311            1 
   70000     1.213232    -3.931905    55.197062  0.065710788  0.079048199            2 
   71000    1.2405333   -3.8989674    56.240913  0.066010461   0.07911713            2 
   72000    1.2535985   -3.9552948    56.821291  0.065765383  0.079176396            1 
   73000    1.2263632   -3.9384043    58.056886  0.066274983   0.07923315            4 
   74000    1.2229468   -3.9620468     58.94064  0.066374594  0.079300422            2 
   75000    1.1785611   -3.9320314    59.683915  0.066315461   0.07933555            3 
   76000    1.2136345   -3.9739861    60.456012  0.066289486  0.079344781            1 
   77000    1.2423653   -3.9767735    61.216106  0.066251196  0.079344152            2 
   78000    1.2577672   -3.9796311    62.138708  0.066387508  0.079338942            4 
   79000    1.2362952   -3.9829171    62.917922  0.066369115  0.079326515            3 
   80000     1.218687   -3.9441703    63.664531  0.066317219  0.079300248            2 
   81000    1.2259912     -3.96966    64.673192  0.066536205  0.079258358            1 
   82000    1.2287542    -3.977599    65.198429  0.066258565  0.079188629            1 
   83000    1.2625287   -3.9765235    66.456417  0.066723309  0.079132344            2 
   84000    1.2342027   -3.9410236    67.701131   0.06716382  0.079079197            3 
   85000     1.212622   -3.9537136    68.442071  0.067100069  0.079029897            3 
   86000    1.2122419   -3.9448628    69.481049  0.067326598  0.078989748            2 
   87000    1.2311102    -3.991478    69.882704  0.066937456  0.078941792            3 
   88000    1.1955935   -3.9617148    70.840013  0.067083345   0.07887717            1 
   89000    1.2140542   -3.9469932    71.910331   0.06733177  0.078809297            4 
   90000    1.2091056   -3.9625314    72.421603   0.06705704    0.0787325            1 
   91000    1.2200238   -3.9700522    73.040944  0.066887311  0.078638701            2 
   92000    1.2023212   -3.9311313    73.987652    0.0670178  0.078543302            2 
   93000    1.2097926   -3.9663589    74.800596  0.067025623  0.078442471            1 
   94000    1.2322723    -3.980666    75.748026  0.067152505  0.078338337            2 
   95000    1.2257124   -3.9615987     76.70463  0.067284763  0.078240278            2 
   96000    1.2234743   -3.9382871    77.571357  0.067336247  0.078161158            4 
   97000     1.225747   -4.0084935    78.305422  0.067272699  0.078084268            1 
   98000     1.222734   -3.9819664    78.795569  0.067003034  0.077977377            1 
   99000    1.2121345   -4.0045721    80.004602  0.067343941  0.077883901            2 
  100000    1.1972995   -3.9590876    81.450828   0.06787569  0.077809795            2 
  101000    1.2266704   -3.9670591    82.239013  0.067853971  0.077732671            3 
  102000    1.2222533   -3.9605936    82.923598  0.067748037  0.077662682            2 
  103000    1.2152928   -3.9563955    83.792069  0.067792936  0.077588732            2 
  104000    1.2055766   -3.9626608     84.56699  0.067762011  0.077509162            2 
  105000    1.2381624   -3.9606084    85.639725  0.067968035  0.077427491            3 
  106000     1.224379   -3.9728392    86.024568  0.067629377  0.077349928            2 
  107000    1.2281835   -3.9928401    87.113597   0.06784548  0.077287239            2 
  108000    1.2114176   -4.0056662    88.249381  0.068093658  0.077222518            2 
  109000    1.1903947   -3.9576169    88.984129  0.068030679  0.077155808            4 
  110000    1.1957368   -3.9448824    90.275673  0.068390661   0.07710045            2 
  111000    1.2122868   -3.9601798    90.925832  0.068262637  0.077047538            2 
  112000    1.2070085   -3.9682077    91.145429  0.067816539   0.07698859            2 
  113000     1.205019   -3.9773985    92.169001   0.06797124   0.07692519            1 
  114000    1.2035989   -3.9862176     93.47408  0.068329006  0.076859711            1 
  115000    1.1877823   -3.9537765    94.864397  0.068742316  0.076810432            3 
  116000    1.2012545   -3.9750103      94.8984  0.068174137  0.076760484            1 
  117000    1.1988259   -3.9576406    95.697944  0.068160928  0.076694542            2 
  118000     1.180261   -3.9494365    96.634125  0.068244438  0.076632359            1 
  119000    1.2076425   -3.9431316    97.840827  0.068515985  0.076569297            1 
  120000    1.2019893   -3.9771988    98.590089  0.068465339  0.076520235            1 
  121000    1.1870589   -3.9417557    99.628222  0.068614477  0.076467434            2 
  122000    1.1995354   -3.9705719    99.880397  0.068224315  0.076402843            1 
  123000    1.2145752   -3.9976621    99.801459  0.067616164  0.076324957            3 
  124000    1.1767848   -3.9879296    101.11897  0.067956296  0.076234052            4 
  125000     1.193479   -3.9680205    101.65722  0.067771483  0.076140097            2 
  126000    1.1989438   -3.9825299    102.66282   0.06789869  0.076043524            1 
  127000    1.2105889   -3.9804637    103.71898  0.068057072  0.075960626            2 
  128000    1.2206787   -3.9532748    104.18272  0.067827292  0.075876269            4 
  129000    1.1936664   -3.9779676    105.01523  0.067839294  0.075795912            1 
  130000    1.1817224   -3.9568157    106.21767   0.06808825  0.075718806            1 
  131000    1.2375482   -3.9698935    107.42527  0.068336684  0.075655947            1 
  132000    1.1997593   -3.9630755    108.24485  0.068336395   0.07560306            1 
  133000    1.1915585   -3.9800215    108.79565  0.068167698  0.075546288            1 
  134000    1.1726557   -4.0202047    109.78004  0.068271167  0.075489095            1 
  135000    1.1848146    -3.981011    111.15024   0.06861126  0.075438511            3 
  136000    1.1963573   -3.9670217    112.18981  0.068743757  0.075391417            2 
  137000    1.2085159    -3.958448    112.83985  0.068637375  0.075352954            2 
  138000    1.1975267   -3.9945024    114.43485  0.069103171  0.075315122            2 
  139000     1.196692    -4.007995    114.43249  0.068604611  0.075276785            2 
  140000    1.2149783   -4.0081958    115.48402  0.068740486    0.0752356            1 
  141000    1.1877171   -3.9441612    116.22024  0.068688085  0.075189256            1 
  142000    1.2016374   -3.9712995    117.06232  0.068698546  0.075145727            2 
  143000     1.193916   -3.9758848    118.02292  0.068777925  0.075100788            2 
  144000    1.2320788    -4.019005    118.28051  0.068449368   0.07505211            1 
  145000    1.2192854   -3.9730733    119.94208  0.068932229  0.075011271            3 
  146000    1.2129135   -3.9864049    121.05907  0.069097645  0.074971917            3 
  147000    1.2020888   -4.0003913    120.92478  0.068551464  0.074940724            2 
  148000    1.1894734    -3.991825     121.9647  0.068673815  0.074896613            2 
  149000     1.204369   -4.0041061    122.51514  0.068520772  0.074853262            3 
  150000    1.1970203   -3.9803594    123.62617  0.068681207  0.074813861            2 
  151000    1.2033479   -3.9954143    125.04069  0.069007003  0.074784996            2 
  152000    1.1957581   -4.0248325     125.6994  0.068914147  0.074754392            3 
  153000     1.199325   -3.9746793    126.51756  0.068909347   0.07471924            4 
  154000    1.1869817   -3.9942217    127.33467  0.068904044  0.074685168            5 
  155000    1.1737582   -4.0105333    127.91609  0.068772091  0.074651628            2 
  156000    1.1893718   -4.0206708    128.63335  0.068714396  0.074609255            2 
  157000    1.1733348   -4.0169995    129.63222   0.06880691  0.074565741            2 
  158000    1.1985443   -4.0084581    131.18516  0.069190486  0.074529241            4 
  159000    1.1755037   -4.0068789    131.63092  0.068988953  0.074496765            4 
  160000    1.1744083   -3.9930967    132.35429  0.068934525  0.074465155            1 
  161000    1.2079494   -4.0362007    133.15246  0.068919492  0.074437224            2 
  162000    1.1616732     -4.02598     133.8638  0.068859977  0.074411849            3 
  163000    1.2004247   -4.0120255    135.21573  0.069128696  0.074389449            5 
  164000    1.1895259   -3.9990736    136.76591  0.069494872  0.074369787            1 
  165000    1.1899894   -3.9863896    137.00008  0.069191961  0.074357836            1 
  166000    1.1738809   -4.0162554      138.508  0.069532129  0.074340253            4 
  167000    1.2016674   -4.0175241    139.08878  0.069405578  0.074326678            2 
  168000    1.2076643   -4.0332289    139.91685  0.069403201  0.074311008            3 
  169000    1.1851405   -4.0211198    140.36999  0.069215972  0.074298028            1 
  170000    1.1711855   -3.9673342    141.53503  0.069379917  0.074277176            2 
  171000    1.1860136    -4.025769    143.25959  0.069814612  0.074260397            2 
  172000    1.2050552   -4.0030057     143.0147  0.069290069  0.074244374            1 
  173000    1.1900226   -4.0237361    143.72231  0.069230399   0.07422666            2 
  174000    1.1777682   -4.0026077    145.65388  0.069757607  0.074213655            2 
  175000    1.1824861   -4.0095932    146.37981  0.069704672  0.074199915            1 
  176000    1.2177188   -3.9974574    147.48462  0.069831735   0.07418534            3 
  177000    1.1873854   -3.9956328    148.61955  0.069971538  0.074181502            3 
  178000     1.184308   -4.0523206    148.68906  0.069610982  0.074174396            1 
  179000    1.2040414   -4.0496863    149.52304  0.069610354  0.074167149            3 
  180000    1.1785445   -4.0176761    151.50739   0.07014231  0.074162645            2 
  181000    1.2087946   -3.9988061    152.00328  0.069983094  0.074162263            4 
  182000    1.1860041   -4.0063587    153.20555   0.07014906  0.074160077            2 
  183000    1.1728941   -4.0232756    153.46244  0.069882713    0.0741541            3 
  184000    1.1784879   -3.9858586    154.10777  0.069795184   0.07414533            2 
  185000    1.1702055   -4.0253099    154.78381  0.069722438  0.074135244            1 
  186000    1.1838359    -4.052584    155.99338  0.069889505  0.074123018            5 
  187000    1.1635867   -3.9680047    157.17143  0.070040744  0.074111252            3 
  188000    1.1573869    -4.020361    157.22042    0.0696899  0.074095179            1 
  189000    1.2009801   -4.0347266    156.58244  0.069039875  0.074073379            3 
  190000    1.1604153   -4.0421242    157.83242  0.069224744  0.074049804            1 
  191000     1.186423   -4.0377041    159.25703  0.069483869  0.074018223            2 
  192000    1.1922827     -4.01101    160.18801  0.069526045  0.073995542            1 
  193000    1.1757366   -4.0309533    161.06721  0.069545425  0.073970867            2 
  194000    1.1897253    -4.012431     161.6476  0.069436255  0.073950446            3 
  195000    1.1481372   -4.0473642    162.75087  0.069551652  0.073930226            3 
  196000    1.1742615   -4.0164214    164.60975   0.06998714  0.073907782            2 
  197000    1.1835282    -4.019005    165.25886  0.069906454  0.073889745            1 
  198000    1.1737795   -4.0276609    164.95728  0.069426464  0.073867398            2 
  199000    1.1696665   -4.0172953    165.92782   0.06948401  0.073844745            1 
  200000    1.1643898   -4.0740422     167.1156  0.069631499    0.0738191            3 
  201000    1.1727497   -4.0197698    168.07976  0.069684809  0.073799594            2 
  202000    1.1804962    -4.019762     169.0859  0.069754909  0.073782454            2 
  203000    1.1862016   -4.0184615    169.87791  0.069736416  0.073766814            1 
  204000    1.1535136   -4.0088182    170.53978  0.069664943  0.073749939            2 
  205000    1.1802487   -4.0635918    171.41668  0.069681578  0.073736698            3 
  206000    1.1515978   -4.0490957    172.52595  0.069792052  0.073722262            2 
  207000     1.207199   -4.0381409    173.09985  0.069685928  0.073707666            3 
  208000    1.1731505   -4.0075769    174.74023  0.070008105  0.073696797            2 
  209000     1.170054   -4.0364397    174.99162  0.069773374  0.073681476            2 
  210000     1.179345   -4.0776289    175.69312  0.069719491  0.073659105            2 
  211000    1.1455033   -4.0521555    176.70644  0.069789274    0.0736374            1 
  212000    1.1916225   -4.0382721    177.36911   0.06972056  0.073612019            2 
  213000    1.1814097   -4.0508131    177.03162  0.069261197  0.073588735            1 
  214000    1.1822873   -4.0473823    177.83925  0.069252044  0.073561805            3 
  215000    1.1548509     -4.03881    179.24324  0.069474123  0.073538707            3 
  216000    1.1659006   -4.0090828    180.29099  0.069556708   0.07351179            2 
  217000    1.1721983   -4.0298899    180.64078  0.069370499  0.073481557            2 
  218000    1.1450416   -4.0080266    181.54051  0.069396218  0.073451432            2 
  219000    1.1694428   -4.0358549    180.83486  0.068810829  0.073416893            1 
  220000    1.1814851   -4.0098469     182.8891  0.069276172  0.073383146            4 
  221000     1.160468   -4.0187085    183.58814  0.069226296  0.073350012            2 
  222000    1.1627682   -4.0652369    184.43361  0.069231835  0.073315519            6 
  223000    1.1376504    -4.057316    185.50057  0.069320094  0.073284345            1 
  224000    1.1903201   -4.0351532    186.42111  0.069353093  0.073252875            2 
  225000    1.1687825   -4.0560958    187.19868  0.069332845  0.073225018            6 
  226000    1.1520836   -4.0065791    188.16557  0.069382585  0.073195535            1 
  227000    1.1412435    -4.046873    189.35883  0.069514988  0.073170151            3 
  228000    1.1500347   -4.0575246     190.2482  0.069535162  0.073149589            2 
  229000    1.1462244    -4.027955    191.37762   0.06964251  0.073129427            3 
  230000    1.1459986   -4.0588893    191.60833  0.069423307  0.073104303            4 
  231000    1.1733158   -4.0420188    191.39641  0.069046323   0.07307752            4 
  232000    1.1679963   -4.0329495     192.1423   0.06901663  0.073051818            2 
  233000    1.1575063   -4.0334633    192.99244  0.069024479  0.073022066            4 
  234000     1.140363   -4.0582016    194.21809  0.069165988  0.072986757            1 
  235000    1.1397443   -4.0373809    193.79895  0.068723031  0.072948878            2 
  236000    1.1724039   -4.0393641    195.03377  0.068867857  0.072911646            1 
  237000    1.1466075   -4.0485437    195.72939  0.068821868  0.072873282            4 
  238000    1.1444433    -4.013152    197.13059  0.069023317  0.072842287            3 
  239000    1.1561255   -4.0546676    197.21655  0.068764489  0.072810983            1 
  240000    1.1543067   -4.0664834    198.71548   0.06899843  0.072780342            2 
  241000     1.180039   -4.0229695    199.59957  0.069017831  0.072749733            2 
  242000    1.1800399   -4.0740881    199.86884  0.068825359  0.072718073            2 
  243000    1.1471695    -4.051538    201.06578  0.068952598  0.072687307            3 
  244000    1.1527943   -4.0859086    201.76552  0.068908988  0.072654074            3 
  245000    1.1342562   -4.0485492    202.87174  0.069003992  0.072620831            1 
  246000    1.1736618   -4.0811193    202.75875  0.068685212  0.072588912            4 
  247000    1.1619869   -4.0632362    204.11467  0.068864598  0.072556897            3 
  248000    1.1577759   -4.0235404    205.25161  0.068968955  0.072525086            3 
  249000    1.1722272   -4.0805678    204.40587  0.068408927    0.0724916            3 
  250000    1.1420963   -4.0699334    206.58704  0.068862346  0.072453568            2 
  251000     1.149874   -4.0556528    207.51026   0.06889451  0.072418745            2 
  252000       1.1506   -4.1013907    206.94392  0.068433835  0.072385241            2 
  253000    1.1573461   -4.0663514    208.22047  0.068583818  0.072349187            2 
  254000    1.1247839   -4.0931042    208.68152  0.068465066  0.072314682            7 
  255000    1.1728331   -4.0317859    210.36044  0.068745243  0.072278023            2 
  256000    1.1537377   -4.0595274    210.46368  0.068510313  0.072239062            3 
  257000     1.131274   -4.0637891    211.07798  0.068442924  0.072199598            5 
  258000    1.1504262   -4.0414811    212.34062  0.068585471  0.072159711            2 
  259000    1.1511158    -4.041687    212.65149  0.068420684  0.072117985            2 
  260000    1.1316334   -4.0859768    212.64315  0.068154854  0.072074721            4 
  261000    1.1562249   -4.0846514    213.24309  0.068085278  0.072033635            2 
  262000     1.162203    -4.086889    215.36652  0.068500802  0.071994472            1 
  263000    1.1324591    -4.061568    214.98048  0.068118023  0.071954932            3 
  264000    1.1510113   -4.1030994    215.52752  0.068032676   0.07191678            4 
  265000    1.1334033   -4.0751923     217.6926  0.068456791  0.071879234            2 
  266000    1.1660651   -4.0390209    219.64062  0.068809716   0.07184916            2 
  267000    1.1449858   -4.0592266    219.31763  0.068451194  0.071818367            6 
  268000    1.1421682   -4.0485201    220.17278  0.068461685  0.071787704            2 
  269000    1.1406931   -4.0674828    220.36447  0.068266564  0.071755486            5 
  270000    1.1464696   -4.1033307    220.61992  0.068092568  0.071722817            4 
  271000    1.1386305   -4.0701146    222.51746  0.068424804  0.071689934            4 
  272000    1.1518373   -4.0881233    223.40656  0.068445636  0.071659648            2 
  273000    1.1420762   -4.0783077    223.25372  0.068148265  0.071627203            1 
  274000    1.1406329   -4.1151501    224.13135  0.068166469  0.071595364            1 
  275000    1.1479265   -4.0763896    224.96353  0.068170767  0.071561734            2 
  276000    1.1682876   -4.0719103    224.81224  0.067878093  0.071527595            1 
  277000    1.1133175   -4.0786903    226.57881  0.068164502  0.071494453            1 
  278000    1.1527716   -4.0518682    227.15713  0.068092663  0.071458336            2 
  279000    1.1456083   -4.0928617    228.82406  0.068346493  0.071423671            5 
  280000    1.1533116   -4.1013351    228.94929  0.068139668  0.071389574            1 
  281000    1.1422763   -4.0764344    229.78673  0.068145531  0.071356342            2 
  282000    1.1456833   -4.0452565    231.17523  0.068314195  0.071319657            1 
  283000     1.136636    -4.099967    231.39399  0.068137216  0.071284885            3 
  284000      1.10882   -4.0909765    231.67835  0.067980737  0.071247575            3 
  285000    1.1387346   -4.1164438    231.69755  0.067747822  0.071209987            3 
  286000     1.163736   -4.0792014    234.18277  0.068235072  0.071174642            3 
  287000    1.1425062   -4.0954083      234.836  0.068186992  0.071142205            1 
  288000    1.1441089   -4.0952206    236.42464  0.068409907  0.071115199            3 
  289000    1.1388148   -4.0480732    237.88916  0.068595489   0.07109019            2 
  290000    1.1548296   -4.0794522    237.63316  0.068285392  0.071062676            4 
  291000    1.1508612   -4.0878111    238.11681  0.068189235  0.071035804            2 
  292000    1.1471163   -4.0473474    239.31545  0.068297788   0.07100862            1 
  293000    1.1258955   -4.0690955    240.14287  0.068300021  0.070982158            2 
  294000    1.1469236   -4.0586641    242.22014  0.068656501  0.070958263            2 
  295000    1.1369522   -4.0768366     242.6295  0.068539407  0.070935478            3 
  296000    1.1484034   -4.0659177    243.27296  0.068489008  0.070915049            1 
  297000    1.1341112    -4.094904      243.291  0.068263467  0.070894416            3 
  298000     1.121184   -4.0942305    245.30698  0.068598149  0.070875228            3 
  299000    1.1423037   -4.1000122      245.373  0.068387124  0.070854523            2 
  300000    1.1497565   -4.1153404    245.41063  0.068169619  0.070832328            2 
  301000     1.118676   -4.1033419    246.62997  0.068280722  0.070808321            2 
  302000    1.1391343    -4.093385     246.8294  0.068109657  0.070787158            3 
  303000    1.1009898   -4.0670322    249.17989  0.068531322   0.07076283            2 
  304000    1.1423374   -4.0772981    248.76085  0.068191023  0.070738184            3 
  305000    1.1340972   -4.1381295    248.53374  0.067905393  0.070713507            3 
  306000    1.1294306   -4.0975654    250.61755  0.068250968  0.070687789            1 
  307000    1.1130818   -4.1304859    250.04245  0.067872544  0.070660265            3 
  308000    1.1130222    -4.080454    252.61446  0.068348069  0.070632829            1 
  309000    1.1276063   -4.0874946    252.40585  0.068070616   0.07060462            1 
  310000    1.1406315   -4.0993946    253.12938  0.068045531  0.070577333            1 
  311000    1.1335157   -4.1021235    253.48218  0.067921269  0.070545718            3 
  312000    1.1208588   -4.1178737    252.88226  0.067543338  0.070512702            1 
  313000    1.1462391   -4.0849336    253.68213  0.067540504  0.070478134            2 
  314000    1.1778953   -4.0916396     254.3569  0.067504486  0.070444988            2 
  315000    1.1271646   -4.1050569    255.24756  0.067525811  0.070412916            3 
  316000     1.139163   -4.0909876    255.78179  0.067453005   0.07037913            4 
  317000    1.1165988   -4.0375586      257.573  0.067711093  0.070345723            1 
  318000    1.1354135   -4.1317106    256.16273  0.067128597  0.070311417            1 
  319000    1.1257155   -4.0743077    259.01791  0.067664031  0.070277349            2 
  320000    1.1425697   -4.1223571    260.14906  0.067747152  0.070245155            1 
  321000     1.131573   -4.1313882    259.83633  0.067454914  0.070213109            2 
  322000    1.1298504   -4.1146113     260.5624  0.067433334  0.070183355            3 
  323000    1.1279974   -4.1313991    260.78757  0.067282654  0.070153576            2 
  324000    1.1223556   -4.0547491    262.33852  0.067473898  0.070123324            2 
  325000    1.1266449   -4.1182326    263.26217  0.067503121  0.070092276            2 
  326000    1.1010644   -4.1006729    263.74483  0.067419435  0.070056786            2 
  327000    1.1328297   -4.1119247    264.73567  0.067465767  0.070026352            2 
  328000    1.1438876   -4.1020247    264.70276  0.067251717  0.069994629            2 
  329000    1.1202112   -4.0667515    265.33185  0.067206649  0.069962971            2 
  330000    1.1226456   -4.1300294    266.07169  0.067189821  0.069932021            3 
  331000    1.1083659   -4.0911024    268.04809  0.067484414  0.069900654            5 
  332000    1.1212631   -4.1315512    266.80135  0.066968209  0.069867007            2 
  333000    1.1266874     -4.10484    268.17572   0.06711104  0.069832885            3 
  334000    1.1185474   -4.1332537    268.17105  0.066908945  0.069798388            3 
  335000    1.1278283   -4.1391538    268.70898  0.066843031  0.069763559            3 
  336000    1.1117335   -4.1046454    269.19513  0.066764666  0.069726845            2 
  337000    1.1372344   -4.0910907    269.86521  0.066732247   0.06969117            6 
  338000    1.1290962   -4.1125149    270.71466  0.066744246  0.069652102            1 
  339000    1.0714885    -4.129591    270.67275  0.066537056   0.06961161            3 
  340000    1.1084628   -4.1458988    271.72477  0.066599207  0.069570371            3 
  341000    1.1306744   -4.1307365    272.04615  0.066482441   0.06953048            2 
  342000    1.1364498   -4.0983582    272.88216  0.066491755  0.069490213            3 
  343000    1.1246971   -4.1311334    273.60565  0.066473676  0.069447762            3 
  344000    1.1018159   -4.1094898    273.56238  0.066269956  0.069404484            2 
  345000     1.112576   -4.1162682    273.38231  0.066034375   0.06936006            2 
  346000    1.1236398   -4.1260543    275.61592  0.066381485  0.069315511            3 
  347000    1.1189587   -4.1186489    275.04505  0.066053086  0.069270508            1 
  348000    1.1014083   -4.1038161    274.95931  0.065842746  0.069223135            2 
  349000    1.1218969   -4.1003807    277.13328   0.06617318  0.069175936            1 
  350000    1.1070149   -4.1328731    277.47592  0.066065695  0.069131735            2 
  351000    1.1201993   -4.1385944    278.28271   0.06606902  0.069087569            1 
  352000    1.1274647   -4.1393263    279.04716    0.0660623  0.069045981            2 
  353000    1.1010094   -4.1238195    279.54586  0.065992884  0.069003874            2 
  354000    1.1156279   -4.1270917    280.87169  0.066118572  0.068962969            5 
  355000    1.1293948   -4.1029117    281.77343  0.066143997  0.068922026            2 
  356000    1.1113354   -4.1538622    282.21451   0.06606145  0.068882486            2 
  357000    1.1024311   -4.1140215    281.81503  0.065783153  0.068839705            2 
  358000    1.1194135   -4.1358257    282.89956  0.065851853  0.068796918            2 
  359000    1.1389044   -4.1171811    283.50747  0.065809533  0.068754921            2 
  360000    1.1268524   -4.1266077    285.50875  0.066089988  0.068713115            2 
  361000    1.1236899   -4.1495153    283.66775  0.065481937  0.068671987            3 
  362000     1.123664   -4.1336573    285.39669  0.065699054  0.068631042            4 
  363000    1.1139419   -4.1307037    286.55115  0.065783093  0.068589537            2 
  364000    1.1086991   -4.1424763    285.84994  0.065441835  0.068548425            1 
  365000    1.1147527   -4.1284163    287.20305  0.065571472  0.068505994            2 
  366000    1.1111273   -4.1097274    291.02614  0.066262783  0.068465692            1 
  367000    1.1165127   -4.1286995    290.45559  0.065952676  0.068426471            1 
  368000    1.1138107   -4.1275037    291.46143   0.06600123  0.068389826            2 
  369000    1.1070276   -4.1345046    292.24968   0.06600038  0.068355349            2 
  370000    1.0866914   -4.1302667    292.90149  0.065968804  0.068321138            2 
  371000    1.1156464   -4.1477186    293.72682  0.065976374  0.068285914            1 
  372000    1.1265837   -4.1236255    293.34747  0.065714038  0.068250738            5 
  373000    1.1109826   -4.1377142    295.32704  0.065980126   0.06821581            2 
  374000    1.0923354   -4.1155778    295.15082  0.065764442  0.068180192            4 
  375000    1.1044269   -4.1273101    296.72692  0.065939316  0.068143179            1 
  376000    1.1264735   -4.1387467    296.95901  0.065815382  0.068108771            3 
  377000    1.1127133   -4.1142921    298.89314  0.066068334     0.068074            2 
  378000    1.1255542   -4.1315833    298.50189  0.065807295  0.068042645            2 
  379000    1.0696629   -4.1163004    299.06214  0.065756847  0.068010955            3 
  380000    1.1219841   -4.1268743    300.71706  0.065946724  0.067976749            2 
  381000    1.0973239   -4.1747199    299.96588  0.065609334  0.067941483            2 
  382000    1.1018403    -4.153697    300.75809  0.065610403  0.067904739            3 
  383000    1.0984583   -4.1665854    299.37196  0.065137501  0.067865364            2 
  384000    1.0953776   -4.1326282    301.70332  0.065473812  0.067827778            2 
  385000    1.1090885   -4.1342611    300.19438  0.064977139  0.067789691            3 
  386000    1.0949371   -4.1446319    302.49073  0.065304562   0.06775317            2 
  387000    1.1044127   -4.1552167    304.36768  0.065539983  0.067715778            4 
  388000    1.0983004   -4.1535464    304.09119  0.065311682  0.067679069            2 
  389000    1.1124156   -4.1210851    304.35426  0.065200141  0.067642451            2 
  390000    1.0985192   -4.1619308      306.315  0.065451922  0.067605184            2 
  391000    1.0959453   -4.1347739    305.98818  0.065214872  0.067569419            7 
  392000    1.0934872   -4.1432738    306.05492  0.065062696  0.067532225            4 
  393000    1.1152716   -4.1650013    306.79063  0.065053144  0.067495711            1 
  394000    1.1143187   -4.1746042    308.19635  0.065185353  0.067458607            5 
  395000    1.0794343    -4.160277    308.72415  0.065131678  0.067421475            3 
  396000    1.1125995   -4.1588226    309.91107  0.065216976  0.067387248            5 
  397000    1.0811933    -4.128219    311.40974  0.065367284  0.067352857            2 
  398000    1.0570031   -4.1595629    309.94913  0.064897221   0.06731839            2 
  399000    1.1000027   -4.1542869    312.38109    0.0652425  0.067283252            4 
  400000    1.0773985   -4.1816501    313.60786  0.065334971  0.067252263            3 
  401000    1.0931904   -4.1368507    314.55945  0.065369794  0.067221727            4 
  402000    1.0906406   -4.1517409    313.65052  0.065018765  0.067189768            1 
  403000    1.0712578   -4.1128672    316.86706  0.065522552  0.067158067            4 
  404000    1.0831317   -4.1506908    316.43813  0.065271892  0.067129105            2 
  405000      1.09277    -4.157808    318.08071  0.065448706  0.067099064            3 
  406000    1.0910764   -4.1834981    316.61937  0.064987555  0.067070706            3 
  407000    1.0653056   -4.1442576    318.72849  0.065259724   0.06704083            5 
  408000    1.1041777   -4.1939597    319.54976  0.065267516  0.067010949            3 
  409000    1.1153494   -4.1594782    318.58876  0.064912136  0.066980366            2 
  410000    1.0818037   -4.1832595    319.74374  0.064988565  0.066948509            1 
  411000    1.0938218   -4.2002198    319.86067  0.064854151  0.066917148            4 
  412000    1.0776777   -4.1570746    320.48634  0.064823289  0.066886055            2 
  413000    1.0512026    -4.179697    321.65457  0.064902053  0.066854916            1 
  414000    1.0928289   -4.1965579    321.81178  0.064776929  0.066821174            4 
  415000    1.0781982   -4.1595347    322.77517  0.064814292  0.066788659            4 
  416000    1.0981812   -4.1825504    323.56192  0.064816089  0.066755775            2 
  417000    1.0656149   -4.1463253    324.72282  0.064892649  0.066723861            4 
  418000    1.1138233    -4.158673    325.15138  0.064822842  0.066690614            2 
  419000    1.1043608   -4.1489669    325.70037   0.06477732  0.066657278            2 
  420000    1.0677746   -4.1667218    324.52061   0.06438901  0.066622063            2 
  421000    1.1001297   -4.1723379    327.33587  0.064793324    0.0665864            3 
  422000    1.0883508   -4.1879152    326.29211  0.064433671  0.066554113            4 
  423000    1.1032473    -4.178453    328.64202  0.064744291  0.066523327            3 
  424000    1.1072492   -4.1759171    328.92106  0.064646435  0.066491349            3 
  425000    1.1027635   -4.1844039    329.33462  0.064575416  0.066459785            2 
  426000    1.0835182   -4.1770755    330.63533  0.064678273  0.066428068            1 
  427000     1.087413   -4.1813779    330.46099  0.064492777  0.066396089            5 
  428000    1.0922763   -4.1542545    332.17112  0.064675062  0.066364494            2 
  429000    1.0821973   -4.1725601     332.7526  0.064637258  0.066332923            1 
  430000    1.0768364   -4.1910548     332.3309  0.064405213  0.066299913            2 
  431000    1.0782955   -4.1861552    333.45624  0.064473364  0.066267471            2 
  432000    1.0832324   -4.1565856    334.53744  0.064532686   0.06623476            2 
  433000    1.0764518   -4.1611078    334.05418  0.064290643  0.066201533            8 
  434000    1.0907479   -4.2028728    334.10179  0.064151649  0.066166409            5 
  435000    1.0916191   -4.2130208     334.4051  0.064062279  0.066130627            3 
  436000    1.0958061    -4.183821    334.65751  0.063963592  0.066094663            7 
  437000    1.1002285   -4.1853195    334.65853  0.063817416  0.066059046            3 
  438000     1.105046   -4.1732585    336.50765  0.064023526   0.06602518            5 
  439000    1.0987093   -4.2071524    337.34299  0.064036254   0.06599014            5 
  440000    1.0746079   -4.1983927    335.84313  0.063606653  0.065954683            1 
  441000    1.0974433   -4.1611792    337.84538  0.063840775   0.06591821            1 
  442000    1.0667236   -4.1661978    338.96434  0.063907304  0.065882704            2 
  443000    1.1092622   -4.1434059    340.34387  0.064022549  0.065847933            2 
  444000    1.0616921   -4.1825607    340.72969  0.063950768  0.065811736            2 
  445000    1.0689941   -4.1810311    340.96498  0.063851121  0.065775572            3 
  446000    1.0501534   -4.1982346     340.9443  0.063704092  0.065740178            1 
  447000     1.072303   -4.1845718    342.36212  0.063825899  0.065704909            3 
  448000    1.0621163   -4.1908577    342.99296  0.063800773  0.065669021            2 
  449000    1.0810076   -4.2140843    342.40574  0.063549692  0.065633367            3 
  450000     1.071249   -4.1782502    343.95996  0.063696289  0.065597491            3 
  451000    1.0718001   -4.1886479     344.4157  0.063639264  0.065561781            2 
  452000    1.0714308   -4.1919837    345.22882  0.063648381  0.065527841            2 
  453000    1.0772422   -4.1499223    346.66152  0.063771435  0.065493839            1 
  454000    1.1000684   -4.1984312    345.96694  0.063503477  0.065459282            2 
  455000    1.0726926   -4.1822531    348.09054  0.063752846  0.065425049            2 
  456000     1.057467   -4.1810759    349.64218  0.063896598  0.065393456            3 
  457000     1.073454   -4.1782003    351.01017  0.064006231  0.065361468            2 
  458000    1.0800967    -4.199911    349.91736  0.063667642  0.065330539            3 
  459000    1.0537769   -4.1850559    351.79239  0.063869352  0.065299269            3 
  460000    1.0838616    -4.218624    350.68172  0.063529297  0.065266881            4 
  461000      1.06515   -4.2263104    351.73018  0.063581015  0.065236073            1 
  462000    1.0583882    -4.208701    351.58559  0.063417315  0.065205102            3 
  463000    1.0669842   -4.1999901    352.61873  0.063466293  0.065174907            3 
  464000    1.0602501   -4.2075447    353.75447  0.063533489  0.065143717            3 
  465000    1.0774084   -4.2001352     354.2562  0.063486774  0.065111571            1 
  466000    1.0374984   -4.2313309    353.81981  0.063272498  0.065079002            3 
  467000    1.0662088   -4.1951987    355.91056  0.063510093  0.065048561            2 
  468000    1.0585842   -4.1963683    357.41014  0.063641407   0.06501846            5 
  469000    1.0741503   -4.2195371    357.82149    0.0635788  0.064987047            3 
  470000    1.0763276   -4.2056099    357.71453  0.063424562  0.064955934            1 
  471000    1.0576395   -4.2278532    356.06229  0.062997575  0.064923135            5 
  472000     1.055655   -4.1961149    358.71505  0.063332459  0.064890844            2 
  473000    1.0823454    -4.204626    357.58022   0.06299863  0.064859051            2 
  474000    1.0459358   -4.1677762    359.41655  0.063188563  0.064827199            5 
  475000    1.0694104   -4.1826632    360.21647  0.063195872  0.064794505            3 
  476000    1.0592822   -4.2040297    359.90377  0.063008363  0.064760967            3 
  477000    1.0929099   -4.1876263    360.85778  0.063042938  0.064728416            3 
  478000    1.0804909   -4.1861361     360.0269  0.062766196  0.064693933            2 
  479000    1.0636094   -4.1888343    360.82439  0.062773903  0.064660459            2 
  480000    1.0408961   -4.2168627    361.74349  0.062802689  0.064626177            1 
  481000    1.0668004   -4.2085498    360.95097  0.062534818  0.064591719            3 
  482000    1.0565144   -4.2139578    364.47084  0.063013631  0.064557448            4 
  483000    1.0756805    -4.219988    364.75962  0.062932991  0.064523861            5 
  484000     1.057352   -4.1689354    365.82303  0.062986058  0.064489748            1 
  485000    1.0774188   -4.2591525    364.33238  0.062600065  0.064456337            3 
  486000    1.0772162   -4.2138717    366.14951  0.062782838  0.064422079            4 
  487000    1.0568757   -4.2192537    366.19088  0.062660999  0.064387447            2 
  488000    1.0872683   -4.1914453    367.07014  0.062682743  0.064353385            4 
  489000    1.0536029   -4.2431059    368.09314  0.062728893  0.064320344            2 
  490000    1.0427671   -4.2291194    368.95401   0.06274728  0.064287269            3 
  491000    1.0707032   -4.2331686     368.6097  0.062561049  0.064254039            3 
  492000    1.0697686   -4.2158599    370.42356  0.062741117   0.06422215            8 
  493000    1.0574908   -4.2393199    369.87253  0.062520711  0.064190397            5 
  494000    1.0443646   -4.2218031    372.44728  0.062828489  0.064157811            2 
  495000    1.0417518   -4.1808335    373.05428  0.062803751  0.064127131            2 
  496000    1.0773074   -4.1932657    373.34191  0.062725455  0.064096881            3 
  497000    1.0486486   -4.2296235    374.22091  0.062746632  0.064065786            1 
  498000    1.0576807   -4.2007161    374.51087  0.062669155  0.064034971            1 
  499000    1.0335543   -4.2188215    374.69475  0.062574273  0.064004095            2 
  500000    1.0654282    -4.196038    376.32087  0.062720144  0.063972128            1 
  501000    1.0722638   -4.2104445    375.46199  0.062452093  0.063940849            2 
  502000    1.0374212   -4.2029817    376.65027  0.062524945  0.063910189            2 
  503000    1.0452464   -4.2180354    377.82679  0.062595558  0.063880762            3 
  504000    1.0683637   -4.2141676    378.22674  0.062537491  0.063852608            3 
  505000    1.0575426   -4.2121369    377.94301  0.062366834  0.063823993            3 
  506000    1.0383464   -4.2116726    379.57788  0.062512826  0.063793215            2 
  507000    1.0723055   -4.2450633    379.89362  0.062441423  0.063761921            4 
  508000    1.0492595   -4.2167429    381.22441  0.062536813  0.063730722            2 
  509000    1.0321835   -4.2218828    380.40584  0.062279935  0.063700431            2 
  510000    1.0500014   -4.2181892    380.88734  0.062236493  0.063669697            3 
  511000     1.049798   -4.2041303    381.82367  0.062267395  0.063637571            3 
  512000    1.0503557   -4.2428383    382.46615   0.06225035  0.063604777            6 
  513000    1.0602679   -4.2418698    381.54455  0.061979297   0.06357264            3 
  514000    1.0354666   -4.2274987    383.52341   0.06217954  0.063540627            2 
  515000    1.0188149   -4.2307147    384.17666  0.062164508  0.063507271            5 
  516000    1.0320967    -4.228327    383.76817  0.061978064  0.063473611            3 
  517000    1.0787533   -4.2519232    384.04212   0.06190234  0.063440031            2 
  518000    1.0287014   -4.2245735    384.15793  0.061801468  0.063407544            2 
  519000    1.0326291   -4.2056009     384.3749  0.061717228  0.063374652            2 
  520000    1.0391676   -4.2798549    384.05547  0.061547351  0.063342173            1 
  521000     1.055418   -4.2354135    388.05254  0.062068544  0.063310191            3 
  522000    1.0580309    -4.236579    388.97468  0.062096851  0.063277673            2 
  523000    1.0378642   -4.2536822    388.42561  0.061890632  0.063246206            2 
  524000    1.0600111    -4.252596    389.91185  0.062008882  0.063215243            3 
  525000    1.0469521   -4.2530863    388.07989  0.061599983  0.063183881            4 
  526000    1.0431081   -4.2424185    390.34602  0.061841892  0.063153151            2 
  527000    1.0309905   -4.2655592    389.55136  0.061598886  0.063121553            2 
  528000    1.0159516   -4.2233921    391.99748  0.061868288  0.063091318            3 
  529000    1.0545139   -4.2576972    392.74848  0.061869641  0.063061754            3 
  530000    1.0414217   -4.2691764    393.03116  0.061797353  0.063032073            4 
  531000    1.0653297   -4.1912381    394.89309  0.061973178  0.063002165            1 
  532000     1.050952   -4.2233337     394.9418  0.061864317  0.062972522            7 
  533000    1.0333118   -4.2419184    394.34302  0.061654631  0.062942598            5 
  534000    1.0308534   -4.2463038      395.733  0.061756087  0.062912369            2 
  535000    1.0313566   -4.2539037    395.80777    0.0616523  0.062882333            3 
  536000    1.0163809   -4.2319197    395.94562   0.06155871  0.062850587            2 
  537000    1.0372514   -4.2319554    396.78643  0.061574554  0.062819404            1 
  538000    1.0409922   -4.2577723     395.4246  0.061249163   0.06278911            4 
  539000    1.0437132   -4.2206986    398.73914   0.06164798  0.062756612            4 
  540000    1.0264228   -4.2426502    397.55753   0.06135147  0.062726223            3 
  541000    1.0336761    -4.267639    398.29666   0.06135192  0.062693812            3 
  542000    1.0405425   -4.2459628    399.66395  0.061448947  0.062662302            2 
  543000    1.0410397    -4.253553    398.24907  0.061118641  0.062630998            4 
  544000    1.0081927   -4.2583642    398.76453  0.061085252  0.062598386            2 
  545000    1.0305091   -4.2634126    400.01263   0.06116401  0.062565951            4 
  546000    1.0470434   -4.2255084    401.66394  0.061304021   0.06253405            2 
  547000    1.0405749   -4.2399344    402.08556  0.061256179  0.062502024            3 
  548000    1.0514309   -4.2011701    403.54858  0.061366877  0.062470911            4 
  549000    1.0234614   -4.2886264    401.28171  0.060911007  0.062439239            5 
  550000    1.0087071   -4.2313528    405.05624  0.061372158  0.062408223            3 
  551000    1.0429529   -4.2547099    403.06201  0.060959167  0.062377159            3 
  552000    1.0217241   -4.2322918    403.75715  0.060953677  0.062345393            3 
  553000    1.0268858   -4.2748107    404.42084  0.060943465  0.062314005            6 
  554000    1.0528799   -4.2803406    404.38145  0.060827534  0.062281998            2 
  555000    1.0578966   -4.2523061    405.46105  0.060880038  0.062250108            2 
  556000    1.0326252   -4.2510386    407.54307  0.061082594  0.062219299            1 
  557000     1.006398   -4.2804538    405.95418  0.060735215  0.062186301            2 
  558000     1.046331   -4.2545263    408.49412  0.061005694  0.062153561            3 
  559000     1.020523   -4.2205751    409.20964  0.061003227  0.062121648            5 
  560000    1.0338497   -4.2650703    408.67281  0.060814406  0.062089322            6 
  561000    1.0638457   -4.2810771    408.57804  0.060691925  0.062056596            3 
  562000    1.0211324   -4.2617382    410.02737  0.060798838  0.062024705            4 
  563000    1.0283897   -4.2287184    410.38857  0.060744312  0.061992624            4 
  564000    1.0194621   -4.2850348    409.72442  0.060538479  0.061959486            4 
  565000    1.0566512   -4.2633126    411.74804  0.060729799  0.061927207            4 
  566000    1.0183992   -4.3072946    410.68437  0.060465896  0.061893945            3 
  567000    1.0344531   -4.2475418     412.1177  0.060569914  0.061860485            1 
  568000    1.0383168    -4.268467    412.15232  0.060468356  0.061827759            4 
  569000    1.0280555   -4.2594698    413.15277  0.060508608  0.061794047            1 
  570000    1.0321678   -4.2555234    412.15787  0.060256999  0.061762312            2 
  571000     1.008978   -4.2831298     414.7573  0.060530837  0.061729222            2 
  572000    1.0379038   -4.2267815    416.44476  0.060670856  0.061696775            2 
  573000    1.0065938   -4.2826964    413.76188  0.060174793  0.061664159            3 
  574000    1.0156761   -4.2394465    416.27571  0.060434917  0.061631093            4 
  575000    1.0229753   -4.2879807    415.39504   0.06020218   0.06159776            4 
  576000    1.0280504     -4.26516    415.45474  0.060106299  0.061564338            2 
  577000    1.0416996    -4.256022     416.7753  0.060192851  0.061531317            2 
  578000    1.0305145   -4.2324457     416.9576  0.060114995  0.061498079            2 
  579000   0.99674591   -4.2952474    417.67039  0.060113758   0.06146499            2 
  580000    1.0103832   -4.2636553    418.30101   0.06010072  0.061431143            4 
  581000     1.011603     -4.26365    417.84987  0.059932568  0.061396949            2 
  582000    1.0397913   -4.2842088    418.43943  0.059914007  0.061363659            2 
  583000     1.028703   -4.2815891    419.36879  0.059944081  0.061329642            2 
  584000    1.0310098   -4.2658498    418.87576  0.059771084  0.061295413            2 
  585000     1.020791   -4.2802978    418.46405  0.059610263   0.06126098            4 
  586000    1.0176177   -4.2944607    420.51817  0.059800649  0.061226379            3 
  587000     1.016696   -4.2667651    421.78244  0.059878257  0.061192656            3 
  588000    1.0315574   -4.2891443    422.06139  0.059815956   0.06115965            2 
  589000   0.98278978   -4.2810159     421.6583  0.059657371  0.061126032            3 
  590000    1.0278759   -4.2726326    423.52839  0.059820394  0.061092299            2 
  591000    1.0349259   -4.2679705     422.6032  0.059588719  0.061057922            2 
  592000    1.0019435   -4.2995821    423.26292  0.059580929  0.061023576            3 
  593000   0.99329692   -4.2628866    424.93759  0.059715794   0.06098958            6 
  594000    1.0364537   -4.2849497    424.69317  0.059580972  0.060955179            2 
  595000    1.0032709   -4.2903892    425.92947  0.059653988  0.060921627            5 
  596000    1.0155091   -4.2756347    426.28847  0.059604093  0.060888047            2 
  597000     1.017127   -4.2783867     427.5854  0.059685287  0.060856609            2 
  598000    1.0316393   -4.2949447    427.18799  0.059530099  0.060824428            2 
  599000    1.0037345   -4.2826508    428.14441  0.059563774  0.060791918            2 
  600000    1.0288714   -4.3059812    429.40919  0.059640165  0.060760396            3 
  601000     1.019462   -4.3233982      428.209  0.059374515  0.060728398            7 
  602000    1.0204224   -4.3052631    431.19078  0.059688646  0.060697089            2 
  603000    1.0143909   -4.3068856    432.19916  0.059729016  0.060665932            3 
  604000    1.0131051   -4.2935584    431.61073  0.059548942  0.060635233            2 
  605000    1.0283722   -4.2917639    430.70006  0.059325077  0.060603891            4 
  606000    1.0102455   -4.2721579    432.99532  0.059542811  0.060572197            2 
  607000    1.0181883   -4.3005957    432.41556  0.059365123  0.060541139            5 
  608000    1.0080828   -4.2763371    433.67967  0.059440744  0.060510248            4 
  609000    1.0157389   -4.2733338    434.62979  0.059473151  0.060478689            2 
  610000    1.0143772   -4.3062781    434.08587  0.059301348  0.060446701            2 
  611000    1.0235259   -4.2973482     434.6189  0.059276991   0.06041498            2 
  612000    1.0009275   -4.3130139    435.07329  0.059242006  0.060383353            3 
  613000    1.0029993   -4.2676489     438.7182  0.059640864  0.060351466            4 
  614000     1.020323   -4.2919195    436.68248  0.059267438  0.060320562            2 
  615000     1.027928   -4.2919769    439.33014   0.05952983   0.06028892            7 
  616000   0.99867976   -4.3250637    436.88474  0.059102372  0.060258416            2 
  617000     1.016489   -4.2953124    439.36086  0.059341013  0.060228419            4 
  618000    1.0189856   -4.3035482    440.96003   0.05946063  0.060198998            4 
  619000    1.0332473   -4.2948731    441.29243  0.059409319  0.060169974            3 
  620000    1.0075582   -4.3075796    441.16004  0.059295704  0.060141103            3 
  621000     1.002101   -4.3169868    440.72002  0.059141173   0.06011202            1 
  622000    1.0450139   -4.2996788    443.31665  0.059393977   0.06008327            3 
  623000   0.97109541   -4.2825356    442.22174  0.059152186  0.060055025            2 
  624000    1.0071562   -4.3008513    442.61759  0.059110254  0.060026475            3 
  625000    1.0194977   -4.3432117    443.53821  0.059138427  0.059997745            4 
  626000    1.0057373   -4.2613184    446.65998  0.059459528  0.059969296            3 
  627000    1.0181187   -4.3096434    446.00958  0.059278254  0.059941338            6 
  628000    1.0048068   -4.3212862      445.353  0.059096735  0.059913635            6 
  629000    1.0044839    -4.288365    447.26655    0.0592563  0.059885769            2 
  630000   0.99486479    -4.285862    448.89755  0.059377982  0.059858548            3 
  631000    1.0150917   -4.3259649    446.30855  0.058941964  0.059830433            2 
  632000   0.98449193   -4.3198559    447.42676  0.058996144  0.059802676            3 
  633000   0.98677401   -4.3074208    449.34811  0.059155886  0.059774409            5 
  634000   0.98783788   -4.3086809    449.07271  0.059026382  0.059746946            3 
  635000    1.0069533   -4.3389728    450.43053  0.059111618  0.059719397            2 
  636000   0.99949417   -4.3270015    450.87214  0.059076539  0.059692704            2 
  637000    1.0039514   -4.3046335    451.69851  0.059091903  0.059665161            2 
  638000   0.99214641   -4.3134013    452.34247  0.059083394  0.059637082            3 
  639000    1.0075826   -4.3027627    452.92977  0.059067523  0.059609911            3 
  640000   0.99947766   -4.3149747    452.36548  0.058901755  0.059583243            3 
  641000     1.011003   -4.3123778      453.345  0.058937207  0.059556367            3 
  642000   0.99954615   -4.3119779    453.89737  0.058917104  0.059528839            2 
  643000   0.99566733    -4.314837    454.88793  0.058953854  0.059501162            4 
  644000   0.99635707   -4.2893523    454.98816  0.058875279  0.059473608            3 
  645000    1.0008632   -4.3578532    455.36097  0.058832167  0.059445746            2 
  646000   0.97888452   -4.2968852    457.15416  0.058972415  0.059417806            2 
  647000   0.96482644   -4.3506462    456.36931  0.058780179  0.059389661            3 
  648000   0.98396901   -4.3073099    456.27676  0.058677567  0.059361165            8 
  649000   0.99703772   -4.3308623    456.05794  0.058559057  0.059333218            2 
  650000   0.98638078   -4.3008988    458.15965  0.058738417  0.059306042            3 
  651000   0.98008491   -4.2906261    458.52439  0.058694878  0.059278485            2 
  652000   0.97794019   -4.3808369    457.65224  0.058493384  0.059250396            3 
  653000   0.98965545   -4.3319554    458.04749  0.058454249  0.059221929            2 
  654000   0.99657606   -4.3163471    459.68196  0.058573134  0.059194784            1 
  655000   0.98974678   -4.3104379    460.26311  0.058557647   0.05916705            3 
  656000    1.0116706   -4.3515712     458.1124  0.058195172  0.059138476            4 
  657000   0.98234885   -4.3198007    458.68245    0.0581789  0.059109737            5 
  658000   0.99592422   -4.3079633    460.47494  0.058317495  0.059080098            1 
  659000   0.99094259   -4.3615914    462.27142  0.058456173  0.059051977            2 
  660000   0.97027202   -4.3177104    460.82181  0.058184572  0.059022362            9 
  661000    1.0026379    -4.308696    461.79557   0.05821931  0.058992854            3 
  662000   0.98628328   -4.3099425    461.33071  0.058072849    0.0589637            3 
  663000   0.98782093   -4.3359662    462.55126   0.05813867  0.058935378            3 
  664000   0.98503764   -4.3209352    463.71732  0.058197455   0.05890608            3 
  665000   0.98976816   -4.3152928    461.91801  0.057884462  0.058877587            5 
  666000   0.98598585   -4.3214493    463.64535  0.058013683  0.058848204            3 
  667000    0.9993921    -4.308848      464.327   0.05801187  0.058818934            2 
  668000   0.99818401   -4.3424884    464.75765  0.057978748  0.058789889            2 
  669000   0.97549387   -4.3224749    466.29588  0.058083693  0.058761824            3 
  670000   0.98845746   -4.3420844    466.14046  0.057977669  0.058733746            4 
  671000   0.98677667   -4.3391595     468.8101  0.058222814  0.058705676            3 
  672000    0.9892102   -4.3195032    468.54144  0.058102857   0.05867826            4 
  673000    1.0013276   -4.3269444    469.47958  0.058132687  0.058651128            3 
  674000   0.98789985   -4.3494904    469.76938  0.058082268  0.058623982            3 
  675000   0.97148607   -4.3381229    467.76146  0.057748328  0.058595479            4 
  676000   0.98383911   -4.3367809     471.2525  0.058093257  0.058567648            4 
  677000   0.96609794   -4.3516533    467.95947  0.057602101  0.058538981            4 
  678000   0.99268969   -4.3307641     471.1466  0.057908875  0.058510082            3 
  679000   0.97716819   -4.3689861    469.57477  0.057630679  0.058481121            4 
  680000   0.97212065   -4.3639905    470.86137    0.0577036  0.058452071            3 
  681000    1.0037004   -4.3602541     470.5081  0.057575636  0.058423135            5 
  682000   0.98991389   -4.3744154     470.1377  0.057445955  0.058393945            1 
  683000   0.98793183   -4.3176635    473.35231  0.057754064   0.05836577            6 
  684000    0.9757685   -4.3456995    472.34258  0.057546611  0.058336791            3 
  685000   0.97272928   -4.3460861     472.2065  0.057446046  0.058307465            4 
  686000   0.98423257   -4.3349151     472.7211  0.057424817  0.058278542            4 
  687000   0.98989627   -4.3509768    473.83783   0.05747669  0.058249678            1 
  688000    1.0030031   -4.3400898    473.98188  0.057410596  0.058220864            4 
  689000   0.96431601   -4.3310155    476.60797  0.057644893  0.058192313            6 
  690000   0.97272301    -4.345368    476.07055  0.057496443  0.058164233            4 
  691000   0.97370325   -4.3643859    475.24792  0.057314028  0.058135163            3 
  692000   0.96353907   -4.3576853    477.37533  0.057487395  0.058105986            2 
  693000   0.98216301   -4.3482167    476.55152  0.057305377  0.058077304            4 
  694000   0.95907159   -4.3843247    477.23332  0.057304674  0.058048535            4 
  695000   0.96913823   -4.3833116    477.08764  0.057204752  0.058019298            3 
  696000    1.0009339   -4.3396435    479.20882  0.057376534  0.057989977            2 
  697000   0.97975596   -4.3473944    479.11031  0.057282438  0.057961186            5 
  698000     0.992097   -4.3695351    479.49799  0.057246656  0.057932507            2 
  699000    0.9881416     -4.34604    481.49314  0.057402616  0.057903326            7 
  700000   0.96621413   -4.3552605    481.09715   0.05727347    0.0578749            2 
  701000   0.98455865   -4.3533993    480.49192   0.05711982  0.057846457            4 
  702000   0.97096517   -4.3637616    482.10311  0.057229714  0.057818196            3 
  703000   0.96856634   -4.3675972    480.81576  0.056995704  0.057789827            4 
  704000   0.96450716   -4.3729554    481.27424  0.056969015  0.057760643            3 
  705000    0.9730565   -4.3656364    481.44576  0.056908482  0.057730872            7 
  706000    0.9917368   -4.3660222    483.07657  0.057020369  0.057701735            3 
  707000   0.96439171   -4.3632249    482.95323   0.05692518  0.057672056            4 
  708000   0.98073576   -4.3701019    480.99232  0.056613973  0.057641952            3 
  709000   0.97923201   -4.3516637    484.94366   0.05699855  0.057612362            2 
  710000   0.95455464   -4.3471201    485.04839  0.056930562  0.057583393            2 
  711000   0.95704527   -4.3862418    486.26089  0.056992603  0.057554404            5 
  712000   0.97074842   -4.3550846    484.76611  0.056737607  0.057525077            3 
  713000   0.97635081   -4.3765896    485.26007  0.056715763  0.057495595            3 
  714000   0.95461374   -4.3684106    486.52467  0.056783925  0.057465844            3 
  715000   0.93909191   -4.3588871    487.60646   0.05683059    0.0574367            4 
  716000   0.96867126    -4.347996    486.18025  0.056585225  0.057407897            3 
  717000   0.98073657   -4.3790754    488.83751  0.056815145  0.057378768            6 
  718000   0.94449415   -4.3605946    488.36883  0.056681619  0.057349556            4 
  719000   0.99709931   -4.3691394    486.70092  0.056409471  0.057319535            3 
  720000   0.99163913   -4.3844648    489.14625   0.05661415  0.057289901            6 
  721000   0.95082662   -4.3960098    489.82907  0.056614548  0.057260331            2 
  722000   0.96039418   -4.3432241    490.08337  0.056565486  0.057230989            2 
  723000   0.96346833   -4.3844844    491.19727  0.056615637  0.057201871            3 
  724000   0.97699851   -4.3974432    488.59739   0.05623819  0.057172255            4 
  725000   0.96621402   -4.3843359    491.53278  0.056498021  0.057142876            4 
  726000   0.96213317   -4.3766596    490.66983  0.056321147  0.057113747            7 
  727000    0.9769301   -4.3750375    490.21598  0.056191653  0.057084641            7 
  728000   0.97878949   -4.3656258     492.5108  0.056377152   0.05705582            1 
  729000   0.96069411   -4.3865496    492.49931  0.056298504  0.057026297            3 
  730000   0.95254141   -4.3708572    491.87785  0.056150439  0.056997805            3 
  731000   0.96833771   -4.3878016    493.71105  0.056282609   0.05696834            8 
  732000   0.95389675   -4.3561191    495.42178  0.056400476  0.056939341           12 
  733000   0.98300885   -4.3761909    494.74015  0.056246038  0.056910143            5 
  734000    1.0048529   -4.4169886    492.80734   0.05594997  0.056881367            4 
  735000   0.98241562    -4.352755    493.99752  0.056008789  0.056851787            2 
  736000    0.9596614   -4.3942684    496.90262  0.056261619  0.056822092            6 
  737000   0.95921044   -4.3752668    494.74798  0.055941654  0.056791973            2 
  738000   0.95301955    -4.376512    496.31071  0.056042312  0.056761853            4 
  739000   0.94849466   -4.4111035     496.4505   0.05598224  0.056731748            4 
  740000   0.96499064     -4.38397    498.06917   0.05608887  0.056701942            2 
  741000   0.96737627   -4.3547763    498.27191  0.056035978   0.05667257            3 
  742000   0.96590593   -4.3615005    500.59737  0.056221627  0.056643589            4 
  743000   0.94867201   -4.4199504    496.96228  0.055738255  0.056613988            3 
  744000   0.95951637   -4.3713129       498.29  0.055812052  0.056584712            3 
  745000    0.9538438   -4.4019106    498.51978  0.055762839  0.056555734            1 
  746000   0.95635351    -4.400193    500.79259  0.055941979  0.056525999            6 
  747000   0.94253804   -4.3481262    501.12284  0.055903931  0.056496595            4 
  748000   0.96670292   -4.4012632    501.18597  0.055836226  0.056467491            2 
  749000   0.93220482   -4.4337754    502.04017  0.055856717  0.056437766            5 
  750000   0.95499549   -4.3885524    499.45263  0.055494736  0.056407844            6 
  751000   0.93848874   -4.3767209    501.68853  0.055668945  0.056379302            3 
  752000   0.95265063   -4.3956226     503.0956  0.055750842  0.056349933            1 
  753000   0.96174709    -4.400623    502.83311  0.055647754  0.056320922            3 
  754000   0.95405414   -4.3833688    503.05907  0.055598925   0.05629209            3 
  755000   0.95281246   -4.3990236    503.78952  0.055605907  0.056263045            3 
  756000   0.96566142   -4.4243515    502.89605  0.055433868  0.056233792            4 
  757000   0.95053267    -4.381607    506.67067  0.055776163  0.056205146            2 
  758000   0.96608338   -4.3992914    507.35566  0.055777887  0.056176418            3 
  759000   0.93867881   -4.3844092    505.22309  0.055470256  0.056147782            4 
  760000   0.95317547   -4.3940042    506.68172  0.055557206  0.056119319            7 
  761000   0.95413003    -4.405746    507.19055   0.05553992  0.056091291            7 
  762000   0.93455665   -4.3789286    508.23921  0.055581716  0.056063506            7 
  763000   0.93562932   -4.3956467    507.87923  0.055469553  0.056035162            4 
  764000   0.97375723    -4.384458      510.046   0.05563329  0.056006427            2 
  765000   0.95034131   -4.4033575    509.08031  0.055455371    0.0559777            4 
  766000   0.95279477   -4.4137264    510.31472  0.055517267  0.055949287            2 
  767000   0.94782857   -4.3733273     510.8551  0.055503597  0.055921966            2 
  768000   0.95408178   -4.4191332    508.17436  0.055140447    0.0558939            2 
  769000   0.94016766   -4.4151717    510.93744  0.055368166  0.055865446            1 
  770000   0.95065981     -4.40856    510.83651  0.055285337  0.055837435            5 
  771000   0.95732587   -4.3815853    511.91993  0.055330731  0.055809279            7 
  772000   0.95414607   -4.4065524    512.85644  0.055360152  0.055781753            3 
  773000   0.93702677   -4.4124651    513.16543  0.055321844  0.055753094            3 
  774000   0.94640179   -4.4307981     512.2776   0.05515478  0.055724662            3 
  775000   0.93032323   -4.3680431    513.25057  0.055188233  0.055695705            3 
  776000   0.94150912   -4.3905243    512.65216  0.055052852  0.055666715            2 
  777000    0.9278817   -4.4135611    512.62574  0.054979166  0.055638407            6 
  778000   0.92426331   -4.4409523    513.30017  0.054980738  0.055609815            5 
  779000   0.93394951   -4.4135922    515.34613  0.055129026  0.055581053            3 
  780000   0.96936508   -4.4276802    513.53438  0.054864784  0.055552424            2 
  781000   0.94973576   -4.4385977    515.57919  0.055012717  0.055523601            3 
  782000   0.94452548   -4.4179961    514.87979  0.054867838  0.055495363            3 
  783000   0.93165926   -4.4300801    516.68077  0.054989439  0.055466746            4 
  784000   0.93652647   -4.4127042    517.66399  0.055023809  0.055438507            5 
  785000   0.93016757   -4.4023293    518.71281  0.055065054  0.055409658            3 
  786000   0.93410362   -4.3973926    518.16589  0.054937011  0.055381337            2 
  787000   0.94885176   -4.3855784    516.93461  0.054736828  0.055352504            5 
  788000   0.93504876   -4.3994634    518.08212  0.054788718  0.055323464            4 
  789000   0.93261297   -4.4309792    517.85072  0.054694838  0.055293994            4 
  790000    0.9353431   -4.4109607    518.35538  0.054678838   0.05526455            2 
  791000   0.93721431   -4.4265693    519.71773  0.054753237  0.055235546            4 
  792000   0.92021342   -4.3881692    521.47915  0.054869439  0.055206324            4 
  793000   0.92621194   -4.4053898    518.83359  0.054522236  0.055176656            3 
  794000   0.94535574   -4.4466828    517.74142   0.05433894    0.0551468            2 
  795000   0.95055956   -4.4400433     518.7164  0.054372788  0.055116762            2 
  796000   0.92731355   -4.4302782    520.36906  0.054477498  0.055087015           10 
  797000   0.93775186   -4.4291695    519.35763   0.05430339  0.055056414            6 
  798000   0.92650666   -4.4182671    519.73263  0.054274502  0.055026318            2 
  799000   0.91953511   -4.4357919    521.35878  0.054376176  0.054996546            3 
  800000   0.92272039   -4.4221947    520.57083  0.054226128  0.054966734            1 
  801000   0.93232183   -4.4322906    520.65598  0.054167288   0.05493643            3 
  802000   0.92623391   -4.4245603    521.80977  0.054219635  0.054906476            5 
  803000   0.93855252   -4.4235975    522.48543  0.054222233   0.05487695            5 
  804000   0.95075726   -4.4205518     522.7404  0.054181219  0.054847263            3 
  805000   0.92672647   -4.4524451    520.88695  0.053922044  0.054816739            6 
  806000    0.9409914   -4.4142614    522.11616  0.053982233  0.054786181            2 
  807000   0.92346226   -4.4354979    521.25721  0.053826643   0.05475504            9 
  808000   0.94499816   -4.4291392    521.11546  0.053745406  0.054724025            4 
  809000   0.93196297   -4.4273852    523.69199  0.053944375  0.054693284            2 
  810000   0.92622456    -4.456377    521.85811  0.053689106   0.05466225            2 
  811000   0.94085907   -4.4120231    525.11164  0.053957218  0.054631389            3 
  812000   0.91854452   -4.4016473    524.61066  0.053839353  0.054601043            4 
  813000   0.92855816   -4.4182215    525.38728  0.053852735  0.054570228            4 
  814000   0.93672566   -4.4446888    524.73446  0.053719744  0.054539885            2 
  815000   0.94511923   -4.4357084    525.92902  0.053775973  0.054508975            4 
  816000   0.92797988   -4.4523036    526.71361  0.053790197  0.054478231            4 
  817000   0.93426272   -4.4570128    526.21389  0.053673387  0.054448214            3 
  818000   0.93066821   -4.4248536    526.31108  0.053617673  0.054417932            6 
  819000    0.9266681   -4.4344613    529.04237  0.053830115  0.054387696            7 
  820000   0.92332329   -4.4504904    526.64062  0.053520388  0.054357662            3 
  821000   0.92199615   -4.4559961    527.62006  0.053554615  0.054327756            4 
  822000   0.92193785   -4.4506969    525.88386  0.053313449  0.054297035            2 
  823000   0.92350115   -4.4295756    530.71198  0.053737543  0.054266413            5 
  824000     0.910336   -4.4519546    527.73451  0.053371209  0.054236285            5 
  825000   0.94211246   -4.4345913    532.07022  0.053744467   0.05420615            2 
  826000   0.91748951   -4.4850173    529.97393   0.05346791  0.054176199            4 
  827000   0.91595036   -4.4576466    530.40269  0.053446462  0.054146124            5 
  828000   0.92061429   -4.4514392    531.58324  0.053500729  0.054116226            4 
  829000   0.91825391    -4.460302    529.60887  0.053237723   0.05408622            4 
  830000   0.89944606     -4.46108    531.82836  0.053396421  0.054056037            1 
  831000   0.92216895   -4.4378901    531.17903  0.053267051  0.054025944            2 
  832000   0.92897952   -4.4420482    532.23634  0.053308928  0.053996162            4 
  833000   0.92500564   -4.4464221    533.81527  0.053402889  0.053966782            4 
  834000   0.90024037   -4.4339579    535.16622  0.053473843    0.0539377            5 
  835000   0.92012773   -4.4607548    534.56952  0.053350252   0.05390821            7 
  836000   0.93930352   -4.4456192     535.1955  0.053348834  0.053879015            3 
  837000    0.9098604   -4.4730801    534.64799  0.053230584  0.053849579            3 
  838000   0.92709769   -4.4497939    534.11719  0.053114279   0.05381998            3 
  839000    0.9073603   -4.4417225    538.60911  0.053497131  0.053790215            4 
  840000   0.89350249   -4.4550665    535.31446  0.053106593  0.053760643            5 
  841000   0.90742609   -4.4562219    535.99467  0.053110847   0.05373072            4 
  842000   0.92465865   -4.4812044     536.0228  0.053050554  0.053700451            4 
  843000   0.92412673   -4.4717344    533.93949  0.052781682  0.053670108            2 
  844000   0.92286815   -4.4757662    535.09143  0.052832882  0.053639875            4 
  845000   0.91632827   -4.4843784    535.33529  0.052794408  0.053609851            5 
  846000   0.91694314   -4.4529395    537.62835  0.052957875  0.053580069            3 
  847000   0.90730728    -4.448546    537.65486  0.052897959  0.053550758            2 
  848000    0.9132317   -4.4856335    538.75227  0.052943422  0.053521373            5 
  849000   0.91886248    -4.441676    539.27654  0.052932522  0.053491981            4 
  850000   0.91497159   -4.4648963    540.51376  0.052991545  0.053462465            4 
  851000   0.92875305   -4.4804911    538.99216  0.052780274  0.053432855            5 
  852000   0.91290123   -4.4329997    541.28079  0.052942174  0.053404261            3 
  853000   0.91990922   -4.4641507    541.41095  0.052892824  0.053375554            2 
  854000    0.9272706   -4.4683959    541.02758   0.05279348  0.053346674            8 
  855000   0.92880113   -4.4655985    541.66574  0.052793932  0.053318432            7 
  856000   0.92817253   -4.4638727    542.95997  0.052858252  0.053289614            2 
  857000   0.91435077   -4.4737827    543.91418   0.05288936  0.053261158            4 
  858000   0.92057941   -4.4777487    543.38223  0.052776052  0.053232688            5 
  859000   0.91006295   -4.5157478    541.39786  0.052522105  0.053204094            5 
  860000   0.89171802   -4.4900762    543.26787  0.052642236   0.05317481            3 
  861000   0.90250146   -4.4791362    545.06963  0.052755481  0.053146068            4 
  862000   0.90344616   -4.4796325    543.95227  0.052586259  0.053117436            3 
  863000     0.912373   -4.4713894    544.02732  0.052532572  0.053088867            3 
  864000   0.89957956   -4.4627646    545.71491  0.052634539  0.053060031            3 
  865000   0.90706915   -4.4451098    545.90663  0.052592161  0.053031299           11 
  866000   0.90535667   -4.4663468    547.39824  0.052674965   0.05300322            3 
  867000   0.88767055   -4.4690731    547.16411  0.052591706  0.052974787            4 
  868000   0.91749887   -4.4648613    546.67097  0.052483772  0.052945897            4 
  869000   0.91874681   -4.4761124    547.56519  0.052509128   0.05291719            5 
  870000   0.91391171   -4.4656604    547.49094  0.052441661     0.052889            4 
  871000   0.90502495   -4.4647243    547.59156   0.05239108  0.052860025            4 
  872000   0.88984164   -4.4707657    547.49608  0.052321873  0.052831639            2 
  873000   0.91372567   -4.4714286    547.47351  0.052259785  0.052802873            3 
  874000   0.90175757   -4.4835384    549.88327  0.052429755  0.052773911            4 
  875000   0.88872375   -4.4956071    548.48434  0.052236604  0.052744958            6 
  876000     0.899925   -4.4944818    550.35342  0.052354777  0.052716492            4 
  877000   0.91532407   -4.4887931    548.38359  0.052107905  0.052687545            3 
  878000   0.90030242    -4.458527    550.74817  0.052272985  0.052659038            6 
  879000   0.88926687   -4.4892743    553.05185  0.052431916  0.052630463            4 
  880000   0.89511402   -4.4759811    548.68101  0.051958429  0.052602045            4 
  881000   0.91148554   -4.4805896    552.27092   0.05223902  0.052573658            2 
  882000   0.90143055   -4.4972346    551.18909  0.052077578  0.052544966            6 
  883000   0.88960004   -4.4874233    552.63685  0.052155233  0.052516422            7 
  884000   0.90806779   -4.5153525    551.94215  0.052030746  0.052487575            5 
  885000   0.90290475   -4.4892314     552.7866  0.052051469  0.052458907            6 
  886000   0.90494531   -4.4420024    553.30103  0.052041105  0.052430197            2 
  887000    0.8851226   -4.4659375    554.71771  0.052115531  0.052401572            9 
  888000   0.89710137   -4.4694944    553.89711  0.051979834   0.05237287            7 
  889000     0.875673   -4.4965984    553.48428  0.051882666  0.052344053            4 
  890000   0.88050229   -4.5006404     554.8244   0.05194985  0.052315406            5 
  891000    0.8950976   -4.5118187    554.48221   0.05185954  0.052286524            2 
  892000   0.91018466   -4.5012798    554.73326  0.051824856  0.052258238            3 
  893000   0.88985686   -4.5056987    555.06574  0.051797848  0.052230273            4 
  894000   0.90615937   -4.5110087    556.36423  0.051860946  0.052202044            6 
  895000   0.90083421   -4.4642879    558.19778  0.051973722  0.052173716            1 
  896000   0.91958077    -4.495231    557.71563  0.051870873  0.052145201            2 
  897000   0.89077357   -4.4959085     557.4843  0.051791555   0.05211691            4 
  898000   0.89206282   -4.4847571    558.62319  0.051839569  0.052088468            6 
  899000   0.88818325   -4.5167503    557.53118   0.05168068  0.052059742            2 
  900000   0.92218216   -4.4851682    559.54553  0.051809771  0.052031663            4 
  901000   0.88332122   -4.4928568    558.49988  0.051655557  0.052003291            5 
  902000   0.88926376    -4.506083    559.59406  0.051699377  0.051975202            4 
  903000   0.88582455   -4.5037271    558.09815  0.051504075  0.051947269            3 
  904000   0.89638113   -4.4666694    560.71418  0.051688254  0.051919249            3 
  905000   0.89737699   -4.5251715    559.01731  0.051474891  0.051891171            9 
  906000   0.88967106   -4.5059671     561.0772  0.051607542  0.051862907            4 
  907000   0.90635548    -4.478845    562.56769  0.051687587  0.051834395            6 
  908000   0.88850892   -4.5006849     560.6899  0.051458324  0.051806155            3 
  909000   0.90593048   -4.5297725    560.59447  0.051392966  0.051777884            3 
  910000   0.89473832   -4.5016039    563.08686   0.05156473  0.051749888            2 
  911000    0.8862675   -4.4955708     560.8858  0.051306788  0.051721798            7 
  912000   0.89214315   -4.4873247    564.86719  0.051614326  0.051693731            4 
  913000   0.89592321   -4.5156045    561.91893  0.051288694  0.051665452            4 
  914000   0.89903553   -4.5230273    561.57788  0.051201484  0.051636893            6 
  915000   0.89063542   -4.5194898    562.28836  0.051210233  0.051608092            4 
  916000   0.89493424   -4.5094302    564.18245  0.051326642  0.051579763            3 
  917000   0.87936758   -4.4932151    563.53748  0.051212058  0.051551773            8 
  918000   0.89019593   -4.4985098    564.26189   0.05122203  0.051523492            4 
  919000   0.89082822   -4.5177301    562.40474   0.05099789   0.05149533            5 
  920000    0.8755503   -4.5058695    565.23865  0.051199153  0.051467368            4 
  921000   0.89362947   -4.5268145    565.94663  0.051207621  0.051439571            6 
  922000   0.86635563   -4.5244783    564.79575  0.051048061  0.051411508            3 
  923000   0.88473725   -4.5398715     564.3275  0.050950479  0.051383212            4 
  924000   0.89176981   -4.5184092    565.79109  0.051027335  0.051355236            5 
  925000   0.88400677   -4.5259405    565.54088  0.050949629  0.051327378            4 
  926000   0.89652653   -4.5208391    564.40021  0.050791956  0.051299025            2 
  927000   0.87041387   -4.5309892    566.65715  0.050940053  0.051270894            3 
  928000   0.89206329   -4.5025539    566.77365  0.050895622  0.051242379            6 
  929000   0.88499333   -4.5120091    566.65251   0.05082997  0.051214008            4 
  930000   0.87837916   -4.5425339    567.50956  0.050852111   0.05118596            5 
  931000   0.87340963    -4.514287    568.44912   0.05088159  0.051158187            5 
  932000   0.87872203   -4.4903185    569.29704  0.050902811  0.051130627            7 
  933000   0.85194254   -4.5065608    568.72762  0.050797394  0.051103043            3 
  934000   0.88206047   -4.5233064    569.81406  0.050839941  0.051075254            3 
  935000   0.87071708   -4.5433921    570.25514  0.050824879  0.051046754            5 
  936000   0.87461048   -4.5406643    569.27169  0.050683021  0.051018411            8 
  937000   0.87791228   -4.5145915    571.26966  0.050806622   0.05099053            3 
  938000     0.883929    -4.540145    569.58748   0.05060301  0.050962563            7 
  939000   0.87984718   -4.5140738    570.57755  0.050636985   0.05093448            4 
  940000   0.89593547   -4.5200711    570.73697  0.050597249  0.050906181            3 
  941000   0.87191762   -4.5430349    571.47374  0.050608727  0.050877726            4 
  942000   0.89046947   -4.5594243    570.67836  0.050484639  0.050849321            2 
  943000   0.85840481   -4.5471292    570.51384  0.050416564  0.050820822            5 
  944000   0.86762041   -4.5099963    572.30186  0.050520998  0.050792077            4 
  945000   0.89368136   -4.5574654    571.94923   0.05043644  0.050763936            4 
  946000   0.87378934   -4.5382879    571.88792  0.050377723  0.050735578            3 
  947000   0.87659447   -4.5306945    572.00905  0.050335185  0.050707436            5 
  948000   0.85443271   -4.5565553    572.81114  0.050352597  0.050679408            2 
  949000   0.89495107   -4.5661553    569.92609  0.050046197   0.05065092            3 
  950000   0.87145795   -4.5582289    572.14959   0.05018856  0.050622228            3 
  951000   0.87586958   -4.5182908    575.81357   0.05045685  0.050593748            2 
  952000   0.89250001   -4.5168197     574.6026  0.050297847  0.050565475            6 
  953000   0.87991799   -4.5092431    574.67601  0.050251487  0.050537049            5 
  954000    0.8653632      -4.5278      574.068  0.050145702  0.050508298            4 
  955000    0.8947545    -4.540623    572.72207  0.049975748  0.050479293            3 
  956000   0.86263257    -4.531893    573.76276  0.050014188   0.05045017            6 
  957000    0.8573404   -4.5536015    575.70254  0.050130838   0.05042151            5 
  958000   0.86727677   -4.5415918    574.49967  0.049973875  0.050392557            6 
  959000   0.86148804   -4.5284878    575.18912  0.049981675  0.050363837            4 
  960000   0.86535907   -4.5599428    574.15855  0.049840152  0.050334978            3 
  961000   0.88366609   -4.5314525    576.40807  0.049983357  0.050306203            2 
  962000   0.86119604   -4.5427665    573.71282  0.049697923  0.050277683            3 
  963000   0.87544291   -4.5618771    576.47176   0.04988506  0.050249147            7 
  964000   0.88571658   -4.5325401    576.55555  0.049840556  0.050220596            3 
  965000   0.86866291     -4.55346    577.51362  0.049871642  0.050192463            5 
  966000   0.87869364   -4.5359129    578.13166  0.049873331  0.050163598            4 
  967000   0.85175077   -4.5285048    576.33128  0.049666605  0.050135232            3 
  968000   0.85724419   -4.5695018    577.30456  0.049699084  0.050106799            3 
  969000   0.88956318   -4.5469356     577.4705  0.049662066  0.050078634            7 
  970000   0.88921588   -4.5645758    577.41762  0.049606324  0.050050481            4 
  971000   0.87674422   -4.5256656    579.85136  0.049764105  0.050022267            3 
  972000   0.87563858    -4.542855    578.85442  0.049627436  0.049993938            3 
  973000   0.85802379   -4.5664824    579.83984  0.049660829  0.049965831           10 
  974000   0.85766839   -4.5519678    579.89828  0.049614842  0.049937711            5 
  975000   0.86873382   -4.5552995    582.68238  0.049801913  0.049909759            4 
  976000   0.86589593   -4.5804367    579.31549  0.049463413  0.049881685            7 
  977000   0.85612475   -4.5625902    582.05624  0.049646557  0.049853541            8 
  978000   0.84869596   -4.5363298    582.91867   0.04966928   0.04982541            7 
  979000    0.8477849   -4.5645505    582.84194  0.049612014  0.049797048            4 
  980000   0.86956843   -4.5501299    581.58158  0.049454216  0.049768699            7 
  981000   0.86667432   -4.5549395    583.08695  0.049531681  0.049740669            4 
  982000   0.86608354   -4.5401194    582.59462  0.049439462  0.049712372            3 
  983000     0.870663   -4.5543841     583.0515  0.049427899   0.04968424            2 
  984000   0.86765442   -4.5735411    583.25061   0.04939453  0.049655804            5 
  985000   0.86210578      -4.5709    584.50087  0.049450158  0.049627902            2 
  986000   0.84820391   -4.5910589    582.31523  0.049215283  0.049599645            4 
  987000   0.84088097   -4.5390798    586.17402  0.049491221  0.049571478            3 
  988000   0.84951914   -4.5671599    584.18484   0.04927335  0.049543699           10 
  989000   0.85142844     -4.58162    584.73648   0.04927001  0.049515827            2 
  990000   0.85682957   -4.5889962    584.84455  0.049229339  0.049487555            5 
  991000   0.86473945   -4.5623359    584.27427  0.049131708  0.049459585            2 
  992000   0.85208458   -4.5790719    587.53988  0.049356508  0.049431708            3 
  993000   0.85221918   -4.5601034    587.11326  0.049271002  0.049403967            3 
  994000   0.85120782   -4.5255794    587.77126  0.049276598  0.049376384            8 
  995000    0.8367597   -4.5872084     586.2505  0.049099706  0.049348448            3 
  996000   0.85566532   -4.5829016    587.12427  0.049123516  0.049320539            4 
  997000   0.86977856   -4.5848364    587.75136   0.04912666  0.049292709            2 
  998000    0.8470216   -4.5779708    586.87644  0.049004378  0.049264434            4 
  999000   0.84430482   -4.5991047    586.67434  0.048938467  0.049236507            6 
 1000000   0.84987614   -4.5986092    588.32362  0.049026968   0.04920862            6 
 1001000   0.84856516    -4.571749    588.77757  0.049015782  0.049180637            4 
 1002000   0.84444898   -4.5589828    588.62927   0.04895453  0.049152823            5 
 1003000   0.85905399   -4.6044931    587.36155  0.048800395  0.049125123            7 
 1004000   0.87507638   -4.5663125    588.41061  0.048838862  0.049097382            2 
 1005000    0.8451158   -4.5626647    589.50089  0.048880671  0.049069547            3 
 1006000   0.85333746   -4.5756874    590.32077  0.048899998  0.049042077            3 
 1007000   0.86121255   -4.5738872    590.61735   0.04887598  0.049014488            2 
 1008000   0.85190617   -4.5836671    588.50353  0.048652739  0.048986847            9 
 1009000   0.84705427   -4.5563143     590.7859  0.048793021  0.048959434            2 
 1010000   0.83517918   -4.5789044     591.0361  0.048765355   0.04893201           10 
 1011000   0.84593645   -4.5606377    591.58903  0.048762696  0.048904791            2 
 1012000   0.85805868   -4.6042458    591.40536  0.048699387  0.048877538            5 
 1013000   0.86025473   -4.5759548    590.63054  0.048587573  0.048850194            4 
 1014000   0.85558898   -4.5547472    593.22231  0.048752655  0.048822752            2 
 1015000   0.86753158   -4.5699681    593.87638  0.048758324  0.048795392            4 
 1016000   0.84534505    -4.577287    594.52097  0.048763203  0.048768293            7 
 1017000   0.83514539   -4.6127301    592.10464   0.04851726  0.048740655            3 
 1018000   0.86896223   -4.6131162    593.19651  0.048558981  0.048713495            5 
 1019000   0.83035546    -4.595202    593.04998  0.048499344  0.048686026            4 
 1020000   0.84073124   -4.6050831    592.70882  0.048423923  0.048658857            5 
 1021000   0.84001547   -4.5559985    595.76788  0.048626174  0.048632024            4 
 1022000   0.86722139   -4.5962831    596.03776    0.0486006  0.048605202            3 
 1023000   0.85380594   -4.6129725     595.7614   0.04853058  0.048578304            5 
 1024000   0.84976694   -4.5833209    596.41687  0.048536529  0.048551238            4 
 1025000   0.85964455   -4.5909601    596.02476  0.048457298  0.048524694            5 
 1026000   0.85294274   -4.5760034    595.50929  0.048368201  0.048497909            6 
 1027000   0.83843719   -4.5883558    596.94187  0.048437347  0.048471211            6 
 1028000   0.86134397   -4.6074196    598.31123  0.048501235  0.048444474            7 
 1029000   0.83746418   -4.5980174    599.50202  0.048550536  0.048417591            4 
 1030000   0.83962102   -4.6035469    598.37308  0.048412062  0.048390957            5 
 1031000   0.81741874   -4.5896641    598.99419  0.048415308  0.048364561            8 
 1032000   0.85276085   -4.5758194    599.49196  0.048408588  0.048338053            3 
 1033000   0.82934898   -4.5849951    600.62217  0.048452902  0.048311786            4 
 1034000   0.84399402   -4.5908306    599.57556  0.048321692  0.048285422            4 
 1035000     0.852436   -4.5873383    601.20966  0.048406575  0.048258842            5 
 1036000   0.84096199   -4.6119031    600.21198    0.0482796  0.048232547            3 
 1037000   0.84893536   -4.5861471    598.89072  0.048126866   0.04820634            4 
 1038000   0.81022947   -4.6062402    599.45624  0.048125902  0.048179872            4 
 1039000   0.83035889   -4.5885654    601.00817  0.048204056  0.048153339            3 
 1040000   0.83266701   -4.5941773    601.32195  0.048182849  0.048127036            7 
 1041000   0.84620026   -4.6006301    601.58773  0.048157839  0.048100712            4 
 1042000   0.82962609   -4.6173757    601.61637  0.048113913  0.048074345            5 
 1043000   0.82588929   -4.5952727    602.50918  0.048139116  0.048048398            3 
 1044000   0.83605697   -4.6073424    602.84384  0.048119719  0.048022352            3 
 1045000   0.81901068   -4.6007678    600.96774  0.047924062  0.047996228            6 
 1046000    0.8340638   -4.5901871    604.39298   0.04815113  0.047969915            4 
 1047000   0.83613549   -4.6055478    603.81071  0.048058796  0.047943846            6 
 1048000    0.8394429   -4.6110537     603.5499    0.0479922  0.047917876            6 
 1049000   0.83965277   -4.6302001    602.80997  0.047887668  0.047891621            2 
 1050000   0.85402037   -4.5929202    607.26001  0.048195239  0.047865647            3 
 1051000   0.84659957   -4.6051479    604.36009  0.047919449  0.047839482            6 
 1052000   0.81817538   -4.5653423    607.51014  0.048123426  0.047813601            5 
 1053000   0.82739023   -4.6112589    604.98256  0.047877695  0.047787567            4 
 1054000   0.83731562   -4.5936341     606.3799   0.04794275  0.047761561            3 
 1055000    0.8298426   -4.6066383     604.4579   0.04774549  0.047735073            6 
 1056000   0.81840795   -4.6424342     602.8663  0.047574676  0.047708531           10 
 1057000    0.8378191   -4.6323256    603.28257  0.047562486  0.047682052            9 
 1058000   0.82316064   -4.5968196    605.79746  0.047715616  0.047655182            3 
 1059000   0.83492692   -4.6152887    606.57104  0.047731432  0.047628867            6 
 1060000   0.82826156   -4.6334064    605.05244  0.047567016   0.04760252           12 
 1061000   0.81399079   -4.6438233    606.53829  0.047638886  0.047576228            4 
 1062000    0.8285578   -4.6021314     608.7519  0.047767726  0.047550302            4 
 1063000   0.80591633   -4.6208287    606.98695  0.047584427  0.047524266            4 
 1064000   0.83960464   -4.6209841    608.75806  0.047678419  0.047497895            9 
 1065000   0.81268533   -4.6167095    607.29609  0.047519256    0.0474717            4 
 1066000   0.81548735   -4.6281961    608.82448  0.047594159  0.047445443            6 
 1067000   0.82360722   -4.6487592    606.99347   0.04740655  0.047418905            5 
 1068000   0.82047638   -4.6185965    608.59722  0.047487299  0.047392649            5 
 1069000   0.83293416   -4.6194704    608.35256  0.047423804  0.047366451            3 
 1070000   0.83017861   -4.6040844    609.63028  0.047478994  0.047340729            3 
 1071000    0.8336715   -4.6241919    609.78396   0.04744662  0.047314824            4 
 1072000   0.82559779   -4.6618721    609.62896  0.047390311  0.047289207            5 
 1073000   0.82287269   -4.6056324    612.51039  0.047569928  0.047263269            5 
 1074000   0.83721541   -4.6430108    612.02228  0.047487762  0.047237483            4 
 1075000   0.81870164   -4.5990178    610.79701  0.047348606  0.047211862            3 
 1076000   0.82477999   -4.6230746     612.6182  0.047445648  0.047186548            3 
 1077000   0.80876559     -4.65254    610.62833  0.047247627  0.047160848            8 
 1078000   0.81734679   -4.6193815    615.26178  0.047561981  0.047135271            7 
 1079000   0.81940604   -4.6132778    613.60994  0.047390326   0.04710977            8 
 1080000   0.81899025   -4.6288736    611.59622  0.047191066  0.047084267            7 
 1081000   0.82823352   -4.6286679    612.88097  0.047246452   0.04705875            4 
 1082000    0.8077007   -4.6365749    614.39187  0.047319152  0.047033129            6 
 1083000   0.81235149   -4.6210678    613.80563   0.04723035  0.047007608            5 
 1084000   0.82015371   -4.6312728    613.43339  0.047158164  0.046982288            7 
 1085000   0.81275171   -4.6194682    613.15563  0.047093366  0.046957021            5 
 1086000   0.82210867   -4.6559286    614.14479  0.047125904  0.046931385            3 
 1087000   0.81250557   -4.6281053    611.43553  0.046874849   0.04690566            3 
 1088000   0.82845828   -4.6376496    615.65317  0.047154808  0.046879694            2 
 1089000   0.81394463    -4.656822    611.95891  0.046828812  0.046853597            4 
 1090000   0.82446647   -4.6542733    613.92519  0.046936177  0.046827559            8 
 1091000   0.81398419   -4.6594973     615.1925  0.046989956  0.046801702            6 
 1092000    0.8186256   -4.6750771    615.15579  0.046944123  0.046776279            6 
 1093000   0.82566126   -4.6576921    613.98696  0.046812059  0.046750479            3 
 1094000   0.82064458   -4.6620273     615.3545  0.046873439  0.046724818            5 
 1095000   0.81748455   -4.6479783    616.66738  0.046930547  0.046699337            5 
 1096000   0.82396219   -4.6476137    616.77349  0.046895794  0.046674176            4 
 1097000   0.81914481   -4.6365125    616.53504  0.046834931  0.046649008            8 
 1098000   0.81877361   -4.6492612    616.89218  0.046819382  0.046623567            4 
 1099000    0.8177107   -4.6469445    619.18005  0.046950262  0.046598322            5 
 1100000   0.82922419   -4.6347165    618.42948  0.046850718  0.046573177            5 
 1101000   0.81275186    -4.681504    617.54301  0.046741069  0.046547932            6 
 1102000   0.80773767   -4.6446203    618.48772  0.046770094  0.046522626            4 
 1103000   0.81398115   -4.6533225    619.26798  0.046786641  0.046497548            9 
 1104000   0.79182142   -4.6182188    620.52633  0.046839246  0.046472452            2 
 1105000   0.80436206   -4.6265256    622.05468  0.046912117  0.046447924            4 
 1106000   0.81018238   -4.6510674    618.96668  0.046637031  0.046423054            5 
 1107000   0.81372149   -4.6610238    620.78132  0.046731506  0.046398266            7 
 1108000   0.82198036   -4.6568108    619.82655   0.04661752  0.046373233            3 
 1109000   0.80816908   -4.6438111    621.98852  0.046737941  0.046348371            5 
 1110000   0.80123546   -4.6445972    623.45015  0.046805567    0.0463238            4 
 1111000   0.80221531    -4.657697    622.46178  0.046689303   0.04629917            5 
 1112000   0.81603954   -4.6319254    624.09851  0.046769972  0.046274662            3 
 1113000   0.80779023   -4.6541588    623.67099  0.046695941  0.046250037            5 
 1114000   0.80899953   -4.6615644    624.75162  0.046734861  0.046225503           15 
 1115000   0.81504491   -4.6620866    623.92873  0.046631444  0.046201265            8 
 1116000   0.78779428   -4.6693726    622.63674  0.046493185  0.046176666           11 
 1117000   0.81083179   -4.6571281     625.4666  0.046662682   0.04615204            4 
 1118000   0.79690492   -4.6756586    622.66399  0.046412045  0.046127644            3 
 1119000    0.8143913     -4.66295    624.83525  0.046532264  0.046103493           10 
 1120000   0.81028652   -4.6513549    625.86132  0.046567062  0.046079499            5 
 1121000    0.8217716   -4.6811227    625.33586   0.04648646   0.04605542            3 
 1122000   0.81526778    -4.654306     624.0282  0.046347906   0.04603132            4 
 1123000   0.79416988   -4.6483819    625.70849  0.046431322  0.046007271            2 
 1124000   0.78230261   -4.6708424    626.61626  0.046457314  0.045983124            6 
 1125000   0.79875562   -4.6368446    627.94967  0.046514791  0.045958971            9 
 1126000   0.82511678   -4.6533009    627.84505  0.046465738  0.045935212            6 
 1127000   0.81053647   -4.6850145    626.99878  0.046361933  0.045911207            4 
 1128000    0.8093462   -4.6695943    628.02947  0.046396976  0.045886842            6 
 1129000   0.80634851   -4.6921149    625.74775  0.046187463   0.04586256            2 
 1130000   0.79834107   -4.6771886    627.52959  0.046277993  0.045838099            4 
 1131000   0.79862255   -4.7022196    628.10015  0.046279115  0.045813909            3 
 1132000    0.8083754   -4.6509067    628.18583   0.04624454  0.045789774            5 
 1133000   0.78428634    -4.656522    629.72475  0.046316913  0.045765339            5 
 1134000   0.80308017   -4.6654072    628.81384   0.04620913  0.045741295            6 
 1135000   0.80382026    -4.671901    629.09355  0.046188954  0.045717119            4 
 1136000   0.78435765   -4.6594839    627.37994  0.046022589  0.045692951            5 
 1137000   0.80632107   -4.6796933    629.40029  0.046130188  0.045668426            9 
 1138000   0.81536076   -4.6538493    629.99943  0.046133526  0.045644269            5 
 1139000   0.79898525   -4.6773629    628.73221  0.046000308  0.045620149            4 
 1140000   0.79811316   -4.6755685    630.32472  0.046076368  0.045595908            3 
 1141000   0.79836134   -4.6914887    629.46569  0.045973246  0.045571281            8 
 1142000   0.79999608   -4.7018788    627.57168  0.045794781  0.045546669            5 
 1143000   0.79237431   -4.7140061    628.06117  0.045790403  0.045522246            4 
 1144000   0.80623224   -4.6650757    629.19625   0.04583306  0.045497708           15 
 1145000     0.778204   -4.6877851    628.22271  0.045722177   0.04547326            5 
 1146000   0.79144492   -4.6888121    631.20875  0.045899414  0.045448604            6 
 1147000   0.77500852   -4.6848408    630.23391  0.045788573  0.045424035            5 
 1148000   0.81098421   -4.6705276    629.77643  0.045715478  0.045399532            8 
 1149000   0.77186532   -4.6694645    631.27639  0.045784478  0.045374826            6 
 1150000   0.80230902   -4.6614739    631.03924  0.045727481   0.04535049            5 
 1151000    0.7712269   -4.6948294    631.45433  0.045717805  0.045326058            6 
 1152000   0.77459232   -4.6641142    631.75675  0.045699996  0.045301311           19 
 1153000   0.80175031   -4.6902149    631.91214  0.045671591  0.045276743            4 
 1154000   0.78437045   -4.6843576    632.43858  0.045670031  0.045252318            9 
 1155000   0.79373458   -4.6846779    631.13949   0.04553676  0.045227839            4 
 1156000   0.79640388   -4.6646489    632.66383  0.045607254  0.045203444            6 
 1157000   0.78591675     -4.69552    632.21277  0.045535348  0.045179077            3 
 1158000   0.80052765   -4.7088911    633.12049  0.045561348  0.045154709            3 
 1159000   0.78944804   -4.6923191    632.15874  0.045452886  0.045130534            4 
 1160000   0.78807807   -4.7016572    633.54432  0.045513241   0.04510624            5 
 1161000   0.78314872   -4.7225519    633.50788  0.045471424  0.045081831            6 
 1162000   0.79110699   -4.6903775    633.67082  0.045443977  0.045057444            4 
 1163000   0.78773476   -4.7124719    634.13508  0.045438169  0.045033158            5 
 1164000   0.79142979   -4.6900663          636  0.045532646  0.045008932            5 
 1165000   0.79512258    -4.691606    635.63361  0.045467354  0.044984822            7 
 1166000   0.80871247    -4.713792    635.51727  0.045420045  0.044960826            9 
 1167000   0.79961685   -4.6899473    635.51857  0.045381218  0.044936525            7 
 1168000    0.7979971   -4.7168777     636.5277  0.045414362    0.0449128            7 
 1169000   0.78091843    -4.710315    637.40158  0.045437809  0.044888993            5 
 1170000   0.78633792   -4.7023797    637.13832  0.045380222  0.044865128            3 
 1171000   0.77799849   -4.6849974    636.54602  0.045299318  0.044841422            6 
 1172000   0.79197301   -4.7180289    635.41739  0.045180418  0.044817486            8 
 1173000   0.79192584   -4.7015622    636.61538  0.045227009   0.04479347            8 
 1174000   0.78452691   -4.6988025    636.02454  0.045146546  0.044769646            9 
 1175000   0.78840341   -4.7098735    637.87427   0.04523931  0.044745611            4 
 1176000   0.78333787   -4.6782895     637.2534  0.045156845  0.044721662            7 
 1177000    0.7793391   -4.7146245    638.22847  0.045187515  0.044697817            6 
 1178000   0.77420673   -4.6925224    639.99827  0.045274354  0.044673869            3 
 1179000    0.7674722   -4.6795053       637.18  0.045036754  0.044649869            5 
 1180000   0.76540192   -4.6817615    639.14514  0.045137369  0.044625793           12 
 1181000   0.77404607   -4.7287256    638.24235  0.045035446  0.044601708           11 
 1182000   0.77442703   -4.7290299    637.53304  0.044947338  0.044577457            4 
 1183000     0.786886   -4.7138472    639.08451  0.045018633  0.044553477            7 
 1184000   0.78680882   -4.6908754    639.09038  0.044981024   0.04452949            7 
 1185000   0.78995117   -4.7001764    639.03611  0.044939248  0.044505514            6 
 1186000   0.77399205   -4.6934409    639.41271  0.044927818  0.044481274            5 
 1187000   0.78537206    -4.715902    639.27895  0.044880578  0.044457301            5 
 1188000   0.76481342   -4.6970646    640.47766  0.044926884  0.044433386            6 
 1189000   0.78500142   -4.6934591    642.42808  0.045025798  0.044409648            8 
 1190000   0.78938105   -4.7090054    639.38044   0.04477454   0.04438568            3 
 1191000   0.77046255   -4.7030438    640.81113  0.044837051  0.044361682           18 
 1192000   0.77402903   -4.7320077    640.08414  0.044748612  0.044337416            4 
 1193000   0.75780733   -4.7164698    639.54436  0.044673398  0.044313224            4 
 1194000   0.77313571   -4.7377461    640.63909  0.044712388  0.044288943            6 
 1195000    0.7842604   -4.6923357     641.8228  0.044757517  0.044264802            7 
 1196000   0.76893465   -4.7247286     640.6335  0.044637228  0.044240694            6 
 1197000   0.79321608   -4.7019062    642.45311  0.044726616   0.04421651            3 
 1198000   0.78456612    -4.714748    642.01598  0.044658874  0.044192575            6 
 1199000   0.78836074   -4.7097296    642.48096  0.044653945  0.044168485            4 
 1200000   0.78945155   -4.6907894    641.86766  0.044574143  0.044144561            5 
 1201000   0.77687968   -4.7408038    642.80513  0.044602077  0.044120451           11 
 1202000   0.76961836   -4.7487284    638.66289  0.044277793  0.044096184            3 
 1203000   0.77265816   -4.7387388     641.2511  0.044420275  0.044071825            3 
 1204000   0.75444284   -4.7324545    641.42857  0.044395665  0.044047356            3 
 1205000   0.76565138   -4.7200166    642.60405  0.044440114  0.044023098            9 
 1206000   0.78255826   -4.7214811    643.65107  0.044475613  0.043998866            5 
 1207000   0.77612415   -4.7259638    644.60687  0.044504755  0.043974934            7 
 1208000   0.78248952   -4.6980532    643.90274  0.044419339  0.043950793            4 
 1209000    0.7813219   -4.7318198    643.68862   0.04436784  0.043926817            4 
 1210000      0.75368   -4.7249656     642.6577  0.044260172  0.043902658           16 
 1211000   0.78535841   -4.7538126    643.18144  0.044259665   0.04387838            6 
 1212000   0.75666613   -4.7169809    645.12545   0.04435681   0.04385417            5 
 1213000   0.77128766   -4.7359797    645.43618  0.044341589  0.043830121            4 
 1214000     0.748821   -4.7536271    644.02539  0.044208223  0.043805793           16 
 1215000   0.76332355   -4.7480397    643.21873  0.044116511  0.043781458            5 
 1216000   0.75506969   -4.7378648     645.8796  0.044262583  0.043757291            6 
 1217000   0.77630282   -4.7559013    644.37462  0.044123159  0.043733235            5 
 1218000   0.75701374   -4.7441304    645.12556  0.044138312   0.04370911            6 
 1219000   0.75790457   -4.7547748    644.35213   0.04404923  0.043685054            3 
 1220000   0.75913642   -4.7367618    645.25418  0.044074739  0.043661015           13 
 1221000   0.75146963    -4.744212    644.53749  0.043989728  0.043636782            7 
 1222000   0.77596169   -4.7576976    644.31654  0.043938662  0.043612385            9 
 1223000    0.7707637   -4.7541886    647.73786  0.044135858  0.043588196            5 
 1224000   0.77828773   -4.7226328    647.82704  0.044105871  0.043564254            9 
 1225000   0.75023466   -4.7517863    647.42043  0.044042206  0.043540503            5 
 1226000   0.77117893    -4.735403    648.43483  0.044075233  0.043516654           12 
 1227000   0.78008688   -4.7409663    646.74505  0.043924548  0.043492895            8 
 1228000   0.76173035   -4.7483333    649.81299  0.044096973   0.04346911            8 
 1229000   0.76396726   -4.7632363    646.97707  0.043868801  0.043445393            9 
 1230000   0.75542032   -4.7575172    645.32315  0.043721081  0.043421203            5 
 1231000   0.75192432   -4.7743377    648.85586  0.043924713  0.043397074           10 
 1232000   0.76897893   -4.7370078    649.04135  0.043901606  0.043373012            5 
 1233000   0.76328235   -4.7658944    646.95479  0.043724979  0.043348849            7 
 1234000   0.75228264   -4.7904821    647.22237  0.043707616  0.043324639           10 
 1235000   0.77819819   -4.7636261    647.56018  0.043695019  0.043300547            6 
 1236000    0.7704128   -4.7518968    648.00159  0.043689428  0.043276601            4 
 1237000   0.77299418   -4.7536954    648.70815  0.043701708  0.043252714            7 
 1238000   0.76143847    -4.764573    648.63671  0.043661598  0.043228695            3 
 1239000   0.75024179   -4.7759661    649.16083  0.043661611  0.043204907            8 
 1240000   0.77001569   -4.7873325    647.24147  0.043497411  0.043181072            4 
 1241000    0.7613923   -4.7513167    648.57229  0.043551725  0.043157153            2 
 1242000   0.74871921   -4.7650355    650.03092  0.043614527  0.043133387            4 
 1243000   0.76112666    -4.763292     651.4477  0.043674423  0.043109827            6 
 1244000   0.73969708   -4.7366652    653.51008  0.043777471  0.043086184           13 
 1245000   0.76050412   -4.7640913    651.18563  0.043586722  0.043062711            6 
 1246000   0.74815702   -4.7606649    652.01666  0.043607321  0.043039076            7 
 1247000   0.77351391   -4.7402184    651.64292  0.043547375  0.043015228            5 
 1248000   0.76110077   -4.7782381    652.74164  0.043585847   0.04299126            9 
 1249000   0.76438413   -4.7834445    651.79643  0.043487886  0.042967464            5 
 1250000   0.76138211   -4.7737207    650.94512  0.043396342  0.042943586            7 
 1251000   0.75982038   -4.7807538    651.73802   0.04341447  0.042919778           12 
 1252000   0.76444834   -4.7699528    652.30808  0.043417737  0.042896086           14 
 1253000   0.76835842   -4.7856623    652.28998  0.043381882  0.042872519            4 
 1254000   0.74534678   -4.7821723    651.59833  0.043301325  0.042848923            5 
 1255000   0.75595875   -4.7744798    652.73183  0.043342087  0.042825272            3 
 1256000   0.73163093   -4.7931648    652.29725  0.043278746  0.042801655            4 
 1257000   0.75973133   -4.7839393     653.2296  0.043306126  0.042777889            3 
 1258000   0.75815872   -4.7551656    652.69379  0.043236208  0.042754264            6 
 1259000    0.7374397   -4.7538663    655.35685  0.043378134  0.042730629            8 
 1260000   0.76402296   -4.7541276    652.99188  0.043187293  0.042707135            5 
 1261000   0.75370516   -4.7770002    652.52854  0.043122425  0.042683429            9 
 1262000   0.74546745   -4.7816271    653.50889  0.043152991  0.042659643            7 
 1263000   0.76637466    -4.783924    654.10205  0.043157961  0.042635667            4 
 1264000   0.75630829   -4.7653333    655.71162  0.043229932  0.042611783            9 
 1265000   0.76245805   -4.8029799    653.65906  0.043060544  0.042588026            9 
 1266000   0.73930096   -4.7759954    653.13439  0.042991995  0.042564253           12 
 1267000    0.7493772   -4.7924619    654.35433  0.043038301  0.042540763            6 
 1268000   0.74725532   -4.7846204    654.46032  0.043011325  0.042517122            8 
 1269000   0.73996458   -4.7995096      655.412  0.043039926  0.042493542            4 
 1270000    0.7411463   -4.7680133    655.55368  0.043015333  0.042470041            7 
 1271000   0.74465213   -4.7924067    655.85344  0.043001144   0.04244673            9 
 1272000   0.74769484   -4.8058435    655.01094  0.042912142   0.04242325            6 
 1273000   0.75754729   -4.7686357    656.11157  0.042950482  0.042399951           11 
 1274000   0.74842282   -4.7722317    655.51902   0.04287801  0.042376758            5 
 1275000   0.72723335   -4.8060128    655.48339  0.042842052  0.042353333            4 
 1276000   0.74127734   -4.7726511    656.10779  0.042849255  0.042329967           15 
 1277000   0.74076367   -4.7895137    657.75615  0.042923267  0.042306485           11 
 1278000   0.73182189   -4.7793253    659.02045  0.042972121  0.042283383           10 
 1279000    0.7519401   -4.7981261     657.6135  0.042846853  0.042260038            9 
 1280000   0.74126854    -4.786566    659.10983  0.042910796  0.042236423            5 
 1281000   0.74461683   -4.7874031    657.67883  0.042784207  0.042212988            4 
 1282000   0.74874344   -4.7772636    657.18105  0.042718477  0.042189419            7 
 1283000   0.73062793   -4.7828337    660.13761  0.042877215  0.042166007            3 
 1284000   0.75430118   -4.7871096     657.5229  0.042674124  0.042142727           14 
 1285000   0.73320764   -4.7996366     657.8182  0.042660065  0.042119173            9 
 1286000    0.7387015   -4.8135861    657.27429  0.042591647  0.042095514            9 
 1287000   0.72968654   -4.7974044    657.81567  0.042593607  0.042071748           13 
 1288000   0.74671756   -4.7761512    660.51568  0.042735228  0.042048386            5 
 1289000   0.74271064   -4.8162989    660.78656  0.042719586  0.042025048            9 
 1290000   0.74444482   -4.7730086    660.39688  0.042661297  0.042001902            6 
 1291000   0.73092019   -4.7737812    659.32072  0.042558786  0.041978742            7 
 1292000   0.75055039   -4.7869648    660.77084  0.042619378  0.041955666            5 
 1293000   0.73337258   -4.7902939    659.40526  0.042498406  0.041932332           21 
 1294000   0.73549663   -4.7915488    659.58446  0.042477103   0.04190905           14 
 1295000   0.73634779   -4.7852014     661.4915   0.04256702  0.041885619            5 
 1296000   0.72872177   -4.8114228    659.91431  0.042432762  0.041862152            9 
 1297000   0.73117807   -4.7926321    659.52796  0.042375223  0.041838685           11 
 1298000    0.7318693   -4.7809767    659.83117  0.042362042  0.041815196            8 
 1299000   0.74120925   -4.7799265    660.46482  0.042370081  0.041791572            6 
 1300000   0.72069912   -4.8091874    661.05866  0.042375555   0.04176787            5 
 1301000   0.74071944   -4.8104738    659.68838  0.042255213   0.04174439            7 
 1302000   0.74066693   -4.8055901    662.27142  0.042388084  0.041720948            4 
 1303000   0.72769173   -4.8296328    661.28661  0.042292569  0.041697441            5 
 1304000   0.73753257   -4.7972602    661.64525  0.042283056   0.04167385            9 
 1305000   0.71133242    -4.817549    660.63332  0.042186036  0.041650065            9 
 1306000   0.75095848    -4.791305    660.83917  0.042166869  0.041626612            4 
 1307000   0.73664563   -4.8224899    659.60755  0.042056079  0.041603218            6 
 1308000   0.73870782   -4.8299326    661.07703  0.042117548  0.041579617            7 
 1309000   0.73886298   -4.7883232    661.83277  0.042133484  0.041556298            8 
 1310000   0.72652532   -4.8180938    662.38912  0.042136712  0.041532883            4 
 1311000   0.72607779   -4.8236969    661.63578  0.042056686  0.041509391           15 
 1312000   0.72548325   -4.8308702    662.36067  0.042070673   0.04148594            9 
 1313000   0.72982765   -4.8145157    661.55293  0.041987365  0.041462412            8 
 1314000   0.74254331   -4.8003769    661.02625   0.04192201   0.04143898            6 
 1315000   0.72611699   -4.8282778    660.41148  0.041851171  0.041415658            5 
 1316000   0.73946407   -4.8262481    662.31033  0.041939611  0.041391992            8 
 1317000   0.71997277   -4.8292947    662.12859  0.041896266  0.041368383           18 
 1318000   0.73988974   -4.8262456    662.85811  0.041910604  0.041344765            7 
 1319000   0.73031661   -4.7819243     665.2346  0.042028974  0.041321323            7 
 1320000    0.7399247   -4.8244253     660.6156   0.04170553  0.041297615            5 
 1321000   0.74831403   -4.8529419    662.40435    0.0417868  0.041274039            9 
 1322000   0.73588699   -4.8335847    661.94329  0.041726128  0.041250261            5 
 1323000    0.7284359   -4.8141248     662.0602  0.041701953  0.041226565           12 
 1324000    0.7210037   -4.8301045    661.78777  0.041653309  0.041203046            6 
 1325000   0.72488519   -4.8404044    662.18406  0.041646796  0.041179502            4 
 1326000   0.71834897   -4.8273267    664.66895  0.041771553  0.041155936            6 
 1327000   0.72345847   -4.8306455     662.8301  0.041624598  0.041132565            3 
 1328000   0.73291445   -4.8558243    662.50556  0.041572889  0.041108987            5 
 1329000   0.73957418   -4.8298697    663.73732  0.041618843  0.041085555            4 
 1330000   0.70833528   -4.8274146    664.51257  0.041636126  0.041062117            4 
 1331000   0.73906356   -4.8353874    663.77321  0.041558553  0.041038758            8 
 1332000    0.7275243   -4.8126558    662.76661  0.041464377  0.041015382            6 
 1333000   0.73397717   -4.8430125    665.67235  0.041614925  0.040991896            6 
 1334000     0.715301   -4.8392128    664.04089  0.041481815  0.040968233            5 
 1335000   0.71003631   -4.8468318    664.70708  0.041492327  0.040944771            6 
 1336000   0.72206267     -4.84017    664.03773  0.041419519  0.040921172            7 
 1337000    0.7250513   -4.8465091    666.53424  0.041544143  0.040897767            7 
 1338000   0.72419949   -4.8672356    664.65952  0.041396333  0.040874165            5 
 1339000   0.73432601   -4.8271512    664.65109  0.041364892  0.040850572           12 
 1340000   0.72226069   -4.8306383    665.19089  0.041367593  0.040827234            4 
 1341000   0.72274414   -4.8291127    665.75867  0.041372028  0.040803629            5 
 1342000   0.71695905   -4.8608468    664.84059  0.041284189  0.040780028            6 
 1343000   0.72687849    -4.825229    666.26352  0.041341742  0.040756472           10 
 1344000   0.71873699   -4.8416332    666.25808  0.041310645  0.040733139           17 
 1345000   0.71428777   -4.8535473    665.94568  0.041260575  0.040709748            5 
 1346000   0.70868737   -4.8479825     663.4004  0.041072338  0.040686167            7 
 1347000   0.70864486   -4.8544815    665.51652  0.041172762  0.040662636            4 
 1348000   0.72147249   -4.8274253    665.81794  0.041160852  0.040638979            8 
 1349000   0.69580844   -4.8594661    664.94402  0.041076354  0.040615527            7 
 1350000   0.70511646   -4.8313406    668.24596   0.04124975  0.040592249            6 
 1351000   0.70487906   -4.8432201     666.6234  0.041119134  0.040568935           10 
 1352000   0.71537793   -4.8690236    665.80161  0.041038067  0.040545605            6 
 1353000   0.72044892   -4.8606465    664.27865  0.040913935  0.040522202            5 
 1354000   0.71589101   -4.8513361    667.15893  0.041060988  0.040498714            7 
 1355000   0.72306151   -4.8477171    668.21064  0.041095365  0.040475457            6 
 1356000   0.73354437   -4.8579723     667.7795  0.041038563   0.04045219            5 
 1357000   0.72124411    -4.824284    669.52339  0.041115413  0.040429001           14 
 1358000   0.72489503   -4.8778414    666.26861  0.040885408  0.040405789           10 
 1359000   0.71984574   -4.8387646    670.09762  0.041090117  0.040382686            9 
 1360000   0.70580427   -4.8572911    668.84702  0.040983273  0.040359829            8 
 1361000   0.70120503   -4.8232298    670.67178   0.04106489  0.040337036            8 
 1362000   0.69483097   -4.8111285    669.53237  0.040965025  0.040314123            9 
 1363000   0.69821648   -4.8449639    670.02636  0.040965172  0.040291255           12 
 1364000   0.71619118   -4.8547447    670.14915  0.040942641  0.040268185           15 
 1365000    0.7126215   -4.8615705    667.55985   0.04075457  0.040245103            7 
 1366000   0.71995357     -4.85498    670.79257  0.040921948  0.040222082            7 
 1367000   0.69841667   -4.8360583    668.84935  0.040773552  0.040198968           12 
 1368000   0.70935061   -4.8623063    668.62519  0.040730092  0.040175959            4 
 1369000   0.71344371   -4.8911735     667.8183  0.040651224  0.040152908            7 
 1370000     0.704278   -4.8848717    670.10148  0.040760431  0.040129836           10 
 1371000   0.71112576    -4.883751    668.96617  0.040661693  0.040106759           12 
 1372000   0.70121969    -4.877823     670.5462  0.040728025  0.040083554            9 
 1373000    0.7072238   -4.8793481     669.8408  0.040655548  0.040060148            8 
 1374000   0.72371136   -4.8682719    667.41311  0.040478718   0.04003683            4 
 1375000   0.71820278   -4.8694126    669.90519  0.040600315  0.040013528            5 
 1376000   0.70202358   -4.8506062    670.98958  0.040636481  0.039990227           11 
 1377000    0.7068643    -4.890048    668.91676  0.040481528  0.039967046            7 
 1378000   0.70775957   -4.8668446    672.50592  0.040669202  0.039943813            5 
 1379000   0.70794611   -4.8652182    671.73014  0.040592829  0.039920784            6 
 1380000     0.707067   -4.8717228    670.46046  0.040486743  0.039897707            6 
 1381000   0.70718156   -4.8692496     670.9712  0.040488245  0.039874795            5 
 1382000   0.69486585   -4.8591482    671.31283  0.040479549  0.039851934           13 
 1383000   0.70298772   -4.8695424    671.29087  0.040448956  0.039829014            4 
 1384000   0.69713474   -4.8718231    673.72809  0.040566479  0.039806167            9 
 1385000   0.70925397     -4.90235    673.15539  0.040502731  0.039783262           11 
 1386000   0.70685928   -4.8866468    672.14765  0.040412918  0.039760238            5 
 1387000   0.70358678   -4.8766482    670.29252  0.040272322  0.039737229           10 
 1388000    0.6875216   -4.8870306    674.03292  0.040467875  0.039714383            5 
 1389000   0.70126905   -4.8831451    671.30715  0.040275207  0.039691606           20 
 1390000   0.69831594   -4.8971363    673.30316  0.040365897  0.039668799            6 
 1391000   0.71752898   -4.8633447    672.37784  0.040281442  0.039646005            5 
 1392000   0.71433131   -4.8485857    673.70001  0.040331658  0.039623471            9 
 1393000   0.70207216   -4.8806178    673.94665  0.040317459  0.039600956            7 
 1394000   0.70370597   -4.9094617    672.23649  0.040186303  0.039578049            7 
 1395000   0.69235094   -4.8829497    674.95628  0.040319969  0.039555116            7 
 1396000   0.67294439   -4.9053271    671.79418  0.040102327  0.039532265            6 
 1397000   0.70986936   -4.9049228    674.82443   0.04025438  0.039509316            4 
 1398000    0.6876975   -4.8888401    673.79964  0.040164499  0.039486449            8 
 1399000   0.70898437   -4.8962639    671.30243   0.03998704   0.03946372           12 
 1400000   0.68897659   -4.8617049    675.94654  0.040234913  0.039440885           10 
 1401000   0.68884165   -4.8655946    673.84953  0.040081461  0.039418128           11 
 1402000   0.68622663   -4.8967419    673.48912   0.04003145  0.039395427            8 
 1403000   0.68688054   -4.8938493    673.74643  0.040018201  0.039372815            4 
 1404000    0.6825838   -4.9150114    673.68697  0.039986169  0.039350131           12 
 1405000   0.67656924   -4.8878342    675.10491  0.040041809  0.039327384           10 
 1406000   0.68685885   -4.8947635    674.69428  0.039988992  0.039304701            4 
 1407000   0.68193676   -4.8970593     674.0629  0.039923176  0.039282156           18 
 1408000   0.70463308   -4.9008706    676.32668  0.040028804  0.039259554            3 
 1409000   0.69801257   -4.9349102    675.61056  0.039958041  0.039237033            7 
 1410000   0.68973548   -4.9029235    674.41839  0.039859243  0.039214393            5 
 1411000   0.68988447   -4.9101518    674.94589  0.039862148  0.039191787           11 
 1412000   0.67350487   -4.8825487    675.48798   0.03986591  0.039169114            9 
 1413000   0.69070172   -4.9058447    675.39663  0.039832309    0.0391466            4 
 1414000    0.6970068   -4.9300943    674.74327  0.039765633   0.03912399           15 
 1415000   0.68723113   -4.9350747    675.80764  0.039800214  0.039101375            9 
 1416000   0.70612518   -4.8727059    676.71776  0.039825668  0.039078886            9 
 1417000   0.67424779   -4.8743054    676.82514  0.039803878  0.039056414            6 
 1418000   0.69251612   -4.9103008    677.08893   0.03979131  0.039033895           10 
 1419000   0.69320245   -4.8968526    678.26125  0.039832115  0.039011527            8 
 1420000   0.67323331   -4.9007418    678.51842  0.039819156  0.038989254            8 
 1421000   0.68286135   -4.8704244    679.50906   0.03984923  0.038967119            8 
 1422000   0.68210065   -4.9148912     677.7545  0.039718384  0.038944968            9 
 1423000   0.67934872   -4.8996599    678.22451  0.039717997  0.038922762            8 
 1424000   0.69538752   -4.9105507     677.6284   0.03965522  0.038900374            9 
 1425000   0.70421715   -4.9144493    677.12147  0.039597747  0.038877971           19 
 1426000    0.6880685   -4.9011004    680.22729  0.039751478  0.038855704            9 
 1427000   0.67858848   -4.9289878    677.74053  0.039578401  0.038833382            9 
 1428000   0.67423878   -4.9056505    678.91786  0.039619389  0.038811023           13 
 1429000   0.67206347   -4.9226758    677.37572  0.039501733  0.038788731           12 
 1430000   0.67973348   -4.9278511    679.71094  0.039610194  0.038766382            9 
 1431000   0.69747489   -4.9043996     679.8073  0.039588126  0.038744128            7 
 1432000   0.68718006   -4.9011658     679.5432  0.039545112  0.038721834            7 
 1433000   0.67990886   -4.9220825    679.91753  0.039539284  0.038699593            6 
 1434000   0.67744109   -4.9188306    678.86068  0.039450295  0.038677369           15 
 1435000   0.68215331   -4.9195206    680.39933  0.039512156  0.038655161            9 
 1436000   0.69037378   -4.9313357    680.06421  0.039465193  0.038632899            9 
 1437000   0.66435362   -4.9371536    678.61729  0.039353821   0.03861042            9 
 1438000    0.6903718   -4.9295597    678.92389  0.039344221  0.038588021            5 
 1439000   0.68723599   -4.9322849    679.95131  0.039376379  0.038565655            6 
 1440000   0.68330892   -4.9060983    680.16458  0.039361376  0.038543185           18 
 1441000    0.6789443   -4.9335321    678.92886  0.039262599  0.038520898            8 
 1442000   0.67753632   -4.9400176    681.13502  0.039362865  0.038498639            7 
 1443000   0.67307682   -4.9304386    681.54573  0.039359306  0.038476558           13 
 1444000   0.67892854   -4.9272071    679.88789  0.039236374  0.038454366            5 
 1445000   0.67449664   -4.9159801     680.5198  0.039245663  0.038432263            8 
 1446000   0.68611719   -4.9338589    682.11924  0.039310699   0.03841021            7 
 1447000   0.67755193   -4.9297073    680.12801  0.039168855  0.038388249            9 
 1448000   0.67719338   -4.9426116    681.67025  0.039230562  0.038366206           18 
 1449000   0.67721679   -4.9146948    682.67517  0.039261282  0.038344229           13 
 1450000    0.6765996   -4.9272533    681.48488  0.039165798  0.038322293            5 
 1451000   0.66248616   -4.9191058    681.98982  0.039167805  0.038300192            7 
 1452000   0.67565966   -4.9092507    683.18411  0.039209373  0.038278183            8 
 1453000   0.66691252   -4.9411739    682.25368  0.039129025  0.038256206            8 
 1454000    0.6750538   -4.9316932    681.11031  0.039036584  0.038234115           12 
 1455000   0.67711096   -4.9391009    681.28323  0.039019658  0.038212039           11 
 1456000   0.68537637   -4.9195693    682.59724  0.039068066  0.038190131            8 
 1457000   0.66443729   -4.9196429     682.4389  0.039032195  0.038168398            8 
 1458000   0.65434528    -4.951652    681.44449  0.038948587  0.038146474            9 
 1459000     0.676849   -4.9208399    683.65071  0.039047904  0.038124499            7 
 1460000   0.69031384   -4.9440537    684.03844   0.03904329  0.038102544           10 
 1461000   0.66501744   -4.9141794    684.09189  0.039019615  0.038080716            8 
 1462000     0.669533   -4.9203829    683.84285  0.038978731  0.038059027           13 
 1463000   0.66088649   -4.9544542     684.3885  0.038983168  0.038037371            7 
 1464000   0.65972926   -4.9670238    683.18109  0.038887813  0.038015627            9 
 1465000   0.68504935   -4.9156392    685.22889  0.038977753  0.037993859           15 
 1466000   0.66669854   -4.9347843    684.76848  0.038924993  0.037972166            7 
 1467000   0.66463504   -4.9563848    684.12965   0.03886217  0.037950512           10 
 1468000   0.66914392   -4.9093808    684.89544  0.038879169  0.037928911            8 
 1469000   0.66317713   -4.9308603    685.30308  0.038875827   0.03790745           21 
 1470000   0.65117851   -4.9531839    683.81881  0.038765239  0.037885636           14 
 1471000   0.67015493   -4.9485322    685.00098  0.038805856  0.037863714            9 
 1472000   0.65997505   -4.9297821     685.1307  0.038786838  0.037841999           11 
 1473000   0.66912035   -4.9805733    685.03751  0.038755234  0.037820192           13 
 1474000   0.66870518   -4.9495363    683.58586  0.038646871  0.037798424            5 
 1475000   0.65871702     -4.94062    686.19794  0.038768245  0.037776503            8 
 1476000   0.67174264   -4.9592699    682.19509  0.038515983  0.037754537           10 
 1477000   0.65593716   -4.9772834    682.92855  0.038531288  0.037732526           14 
 1478000   0.67293945   -4.9556636    684.52467  0.038595212  0.037710575           15 
 1479000   0.66055451   -4.9534042    683.87741  0.038532647  0.037688615           15 
 1480000   0.66376068    -4.953833    684.27402  0.038528942  0.037666729           12 
 1481000   0.66904691   -4.9684638    684.48931  0.038515041  0.037644903           16 
 1482000   0.66485693   -4.9457449    684.20113  0.038472848  0.037622904            5 
 1483000   0.66003129   -4.9614991    683.22757  0.038392199  0.037600948            8 
 1484000   0.65927097   -4.9539192    683.98794  0.038409026  0.037578829            8 
 1485000   0.65522525   -4.9545501     685.4385  0.038464562  0.037556816           11 
 1486000   0.66106933    -4.983207    682.69023  0.038284558  0.037534608            7 
 1487000   0.65584501   -4.9674839    685.00339  0.038388444  0.037512527            7 
 1488000   0.66037236   -4.9711046    684.63363  0.038341937  0.037490535            7 
 1489000   0.65355999   -4.9490664    682.71178  0.038208629  0.037468654           15 
 1490000    0.6667987   -4.9647652    684.45467  0.038280463  0.037446856            7 
 1491000   0.64093758   -4.9644654    684.34445  0.038248628  0.037424972           12 
 1492000   0.65375612   -4.9507625    686.29939  0.038332182  0.037403195            4 
 1493000   0.66939549   -4.9412783    687.52334  0.038374824  0.037381314            7 
 1494000   0.67076023   -4.9323012    686.89629  0.038314162  0.037359596            7 
 1495000   0.64276014   -4.9773561    685.16502   0.03819203    0.0373378           10 
 1496000   0.66025666    -4.991485     685.3235  0.038175329  0.037315766           22 
 1497000   0.65172265   -4.9829972    684.62745  0.038111081  0.037293773           19 
 1498000   0.63904335   -4.9683524     686.7246  0.038202303  0.037272052           10 
 1499000   0.65565647   -4.9855631    684.76456  0.038067854  0.037250338            8 
 1500000   0.65986204   -4.9817359    684.45824  0.038025458  0.037228485           13 
 1501000   0.65058431   -4.9657865    685.89556  0.038079922   0.03720652           11 
 1502000   0.64609885   -5.0020697    686.16541  0.038069541  0.037184674            7 
 1503000   0.65100126   -4.9739827    685.10674  0.037985515  0.037162841           13 
 1504000   0.65145919   -4.9956082    684.24407   0.03791246  0.037141021            5 
 1505000   0.65236589   -4.9796076    687.06254   0.03804333  0.037119258            6 
 1506000   0.64207966   -5.0016501    686.85987  0.038006854  0.037097466            5 
 1507000     0.653394   -4.9827392    684.92913  0.037874869  0.037075709            7 
 1508000   0.65943852   -4.9762883    686.88729  0.037957963  0.037053993            9 
 1509000   0.65238527   -4.9799732    688.25247  0.038008199  0.037032248            9 
 1510000   0.64244778   -4.9913691    687.18382  0.037924052   0.03701065           21 
 1511000   0.64233477   -4.9911905    687.72328  0.037928705  0.036989048            5 
 1512000   0.64786691   -4.9841773    689.78671  0.038017345  0.036967471            7 
 1513000   0.65629989   -4.9926787    688.12966  0.037900951  0.036945871           12 
 1514000   0.65540725   -4.9754525    688.64738  0.037904413  0.036924478            7 
 1515000   0.64866602   -4.9987822    688.32065  0.037861422  0.036903007            8 
 1516000   0.65790538   -4.9654087    689.20445  0.037885029  0.036881667            8 
 1517000   0.62316753   -4.9732972    688.82604  0.037839268  0.036860417            9 
 1518000   0.65715978   -4.9848387     687.7939   0.03775768  0.036838975            6 
 1519000   0.65194334   -4.9949935    687.27279  0.037704235  0.036817508           24 
 1520000   0.65544751   -4.9824934     689.2232   0.03778636  0.036796058            8 
 1521000   0.65730261   -4.9729839    689.03126     0.037751  0.036774613            8 
 1522000   0.64409244   -4.9952205    688.47382  0.037695675  0.036753226            9 
 1523000   0.64790332   -4.9972895    687.93401  0.037641388  0.036731838            5 
 1524000   0.64545517   -5.0111914     687.6996  0.037603871  0.036710207           13 
 1525000   0.64645735   -4.9599952    691.12859   0.03776659  0.036688726            6 
 1526000   0.64513098   -4.9840298    689.92421  0.037676071  0.036667349            8 
 1527000   0.63743733   -5.0195334    689.15002  0.037609147  0.036645692           19 
 1528000   0.63589968   -5.0001713    687.41614  0.037489973  0.036623908           13 
 1529000   0.62648378   -5.0253199    688.38786  0.037518414  0.036602286           15 
 1530000   0.63476307   -5.0035162    688.59976  0.037505434  0.036580643           19 
 1531000   0.63591476   -5.0037201    687.15194   0.03740213  0.036558992            8 
 1532000   0.65104283   -4.9984656    689.30568   0.03749487  0.036537465            6 
 1533000   0.63852913   -4.9926399    687.41424  0.037367593   0.03651587           18 
 1534000     0.632933   -5.0147913    688.84927   0.03742119  0.036494252           22 
 1535000   0.63437525   -5.0217952    687.72812  0.037335946  0.036472664           17 
 1536000   0.64975372   -5.0104698    690.30635  0.037451516  0.036451122           13 
 1537000   0.63785242   -4.9923662     689.0784  0.037360573  0.036429747            5 
 1538000   0.64379458    -4.978792    688.70361  0.037315974   0.03640845           10 
 1539000   0.62886651   -5.0180054    689.73749  0.037347709  0.036387077           10 
 1540000   0.63664052   -5.0143949    689.22229  0.037295579  0.036365633            9 
 1541000   0.64384363   -5.0194801    689.03059  0.037261009  0.036344193           16 
 1542000   0.64263833     -5.00341    688.81337  0.037225106  0.036322651           11 
 1543000   0.63077404   -5.0090027    690.76985  0.037306645  0.036301169           10 
 1544000   0.61841749    -5.032422    687.80845   0.03712265  0.036279685           14 
 1545000   0.62988481   -4.9857693    691.01538  0.037271596  0.036258238           12 
 1546000   0.63473826   -4.9842402    690.72675  0.037231929  0.036236944           15 
 1547000   0.63736388   -4.9971946    691.79776  0.037265555  0.036215567            8 
 1548000   0.63825549   -5.0048567    690.21781  0.037156428   0.03619424           17 
 1549000   0.63593738   -5.0143562    689.31954  0.037084116  0.036173013           30 
 1550000   0.63229325   -5.0185923    690.11487   0.03710295  0.036151806            8 
 1551000   0.62398176   -5.0059167    690.43519  0.037096238  0.036130576           23 
 1552000   0.62381951   -4.9990479    692.60324  0.037188748  0.036109439           15 
 1553000   0.64025807   -5.0001695    691.29354  0.037094523  0.036088308           10 
 1554000   0.64020386   -5.0204534    692.74733  0.037148613   0.03606717            7 
 1555000   0.63455794   -5.0137159    691.03552  0.037032986  0.036046127            7 
 1556000   0.62587999   -5.0087011    692.66059  0.037096219  0.036025053           12 
 1557000   0.62403301    -5.032262    692.56988  0.037067538  0.036003929           12 
 1558000    0.6330871   -5.0100792    691.91185   0.03700855  0.035982797            9 
 1559000   0.63301855   -5.0091717    692.10657  0.036995219  0.035961861           16 
 1560000   0.63756962   -5.0163698    692.70499  0.037003472  0.035940891            8 
 1561000   0.63768463   -5.0512589     692.7478  0.036982052  0.035919839           13 
 1562000   0.61845103   -5.0289603    695.00645  0.037078876  0.035898804           13 
 1563000   0.63490985   -5.0634486    691.59143  0.036873077  0.035877652            9 
 1564000   0.62563421   -5.0236563    691.25766  0.036831717  0.035856482            9 
 1565000   0.63581686   -5.0395134    691.44657  0.036818241  0.035835281           10 
 1566000   0.61086826   -5.0382101    693.56666  0.036907549  0.035814163           10 
 1567000   0.62536273   -5.0232828    691.29723  0.036763307  0.035792989           12 
 1568000   0.61614269   -5.0345238    691.74554  0.036763688   0.03577182            9 
 1569000   0.62127335   -5.0117161    690.53441   0.03667593  0.035750688            5 
 1570000   0.64269855   -5.0308607    693.13185  0.036790438  0.035729545           14 
 1571000    0.6378577   -5.0309093    691.00657  0.036654284  0.035708398            8 
 1572000   0.63609847   -5.0450372    691.37964  0.036650744  0.035687117           10 
 1573000   0.62835082   -5.0463086     692.6666  0.036695624  0.035665852           19 
 1574000   0.62440511   -5.0226145    691.28563  0.036599197    0.0356447           14 
 1575000   0.62697138   -5.0386092    692.13294   0.03662079  0.035623546           18 
 1576000   0.62590909   -5.0433535    691.08707  0.036542252   0.03560227            9 
 1577000   0.62951225    -5.045501    692.16464  0.036576022   0.03558099            8 
 1578000   0.61904958   -5.0333961    692.37947  0.036564188  0.035559786            7 
 1579000   0.60255822   -5.0577988    693.62047  0.036606527  0.035538529           11 
 1580000    0.6171961    -5.040619    691.07385  0.036449043  0.035517352           15 
 1581000   0.62591873   -5.0475692    693.12479  0.036534092  0.035496291           20 
 1582000   0.61943081   -5.0197633    692.58871   0.03648276    0.0354753           20 
 1583000   0.63561739   -5.0499635    693.56589  0.036511154  0.035454293           29 
 1584000   0.62426229   -5.0231438    691.70224  0.036390059  0.035433094           20 
 1585000   0.62913226   -5.0371351    692.02596   0.03638412  0.035411975           17 
 1586000   0.64069825    -5.039172    692.71481  0.036397373  0.035390774           18 
 1587000   0.62640042   -5.0771805    691.95845  0.036334722  0.035369528           13 
 1588000   0.63134632   -5.0520915     692.1807  0.036323504  0.035348129           20 
 1589000   0.62941684   -5.0663676    690.73656  0.036224909  0.035326836           11 
 1590000    0.6148837    -5.071647    689.76468  0.036151189  0.035305525           16 
 1591000   0.61962489   -5.0540361    692.30049  0.036261287  0.035284121            7 
 1592000   0.62468998   -5.0597648    691.37779  0.036190211  0.035262881           19 
 1593000   0.61778406   -5.0480119    693.35641  0.036270999  0.035241585           13 
 1594000   0.61755818   -5.0591274    691.61233  0.036157065  0.035220315           11 
 1595000   0.61975814   -5.0569494    692.61782  0.036186929  0.035199012           10 
 1596000   0.61080474   -5.0455241    694.04436  0.036238741  0.035177689           17 
 1597000   0.62198932    -5.080261    690.38989  0.036025354  0.035156312           11 
 1598000   0.62112117   -5.0535923    692.20811  0.036097628  0.035134846           28 
 1599000   0.62418343   -5.0669138    691.49724  0.036038005   0.03511342           17 
 1600000   0.61411101   -5.0797668    690.90461  0.035984615  0.035091949            8 
 1601000   0.62072473   -5.0489022    691.36409  0.035986055  0.035070682           13 
 1602000   0.61253116   -5.0443375    693.12242  0.036055057  0.035049435           12 
 1603000   0.60912674    -5.066026    692.15249  0.035982142  0.035028032           17 
 1604000   0.63545954    -5.050601    689.74837  0.035834807  0.035006617           21 
 1605000   0.60886339   -5.0584411    691.69459   0.03591353  0.034985214           24 
 1606000   0.60844545   -5.0700359    690.65018  0.035836975  0.034963845           13 
 1607000   0.60164063   -5.0561695    693.51631  0.035963302  0.034942603            6 
 1608000   0.62090133    -5.070943    690.74072  0.035797094  0.034921238            8 
 1609000   0.61278785   -5.0669058    690.96739  0.035786585  0.034899775            7 
 1610000   0.60719284   -5.0678413    690.54624  0.035742559  0.034878375           13 
 1611000   0.60567437   -5.0575804    691.83493  0.035787033  0.034856973           11 
 1612000   0.61222165   -5.0848712    692.47295  0.035797816  0.034835668           11 
 1613000   0.60493552   -5.0662843    690.59909  0.035678812  0.034814405            8 
 1614000   0.61490904   -5.0735508    692.64279  0.035762226  0.034793103            6 
 1615000   0.59940427   -5.0783977    692.55398  0.035735499  0.034771893            5 
 1616000   0.61620562   -5.0735867    692.31891  0.035701264  0.034750639            7 
 1617000   0.59632915   -5.0769929    693.98298  0.035764944  0.034729389           12 
 1618000   0.61208257   -5.0817799    693.42713  0.035714212  0.034708075           10 
 1619000   0.59812826   -5.0502532    691.23679  0.035579411  0.034686705           15 
 1620000    0.6022778   -5.0833145    694.01131   0.03570017   0.03466537            7 
 1621000   0.60434396   -5.0888234    691.27787  0.035537624  0.034644088            9 
 1622000    0.6140053   -5.0755741    691.23133  0.035513324  0.034622703           13 
 1623000   0.60522331   -5.1115368    691.66914  0.035513922  0.034601344           13 
 1624000   0.59397724   -5.0723116    692.63813  0.035541776   0.03457995            8 
 1625000   0.60310178   -5.0768921    692.53671  0.035514703  0.034558609            7 
 1626000    0.6089983   -5.0762263    690.96854  0.035412492  0.034537341            6 
 1627000   0.60463954   -5.0738832    692.08184  0.035447748   0.03451614           35 
 1628000   0.60827996   -5.0695687    693.94511  0.035521351   0.03449505           14 
 1629000   0.58241932   -5.0934086    692.60667  0.035431076  0.034473929           10 
 1630000   0.60863129   -5.0990358    693.46875  0.035453413  0.034452719            5 
 1631000   0.60791287   -5.1249611    693.77492  0.035447318   0.03443151           18 
 1632000     0.604736   -5.1017749    693.43972  0.035408483  0.034410285           16 
 1633000   0.60039129   -5.0818073    693.48964  0.035389347  0.034389106           15 
 1634000   0.60427152   -5.0873537    693.56659  0.035371613  0.034368021            6 
 1635000   0.60109111   -5.0998494    693.25589  0.035334143  0.034347007           12 
 1636000   0.60606255    -5.066913    694.48564  0.035375185  0.034325955           14 
 1637000   0.59215282   -5.0988835     693.5093  0.035303874  0.034305031            9 
 1638000   0.59560658   -5.1018814    694.14019  0.035314417  0.034284006           14 
 1639000   0.58476943   -5.0961682    695.54146  0.035364117  0.034263054           15 
 1640000   0.61066859    -5.090289     695.3114  0.035330864  0.034241971           10 
 1641000   0.60361641   -5.0900437    693.86304  0.035235783  0.034220921           15 
 1642000   0.58637257   -5.0960995    694.63398   0.03525345  0.034199924           18 
 1643000   0.60641585   -5.0830986    695.04868  0.035253027  0.034178897           11 
 1644000   0.60205542   -5.1041024    694.70354  0.035214088   0.03415783           13 
 1645000    0.5983398    -5.116027    692.35669  0.035073794  0.034136705            9 
 1646000   0.60222756   -5.1032144    694.15115  0.035143335  0.034115542            8 
 1647000   0.60739462   -5.0960091    694.80661  0.035155162  0.034094435            7 
 1648000    0.5987177     -5.08712    694.54922  0.035120814  0.034073359           20 
 1649000   0.60121152   -5.1145218    693.11843   0.03502721  0.034052243           28 
 1650000   0.59544733   -5.1013022    693.40211  0.035020309  0.034031194           51 
 1651000   0.60485286   -5.1052216    693.69578   0.03501392  0.034010227           40 
 1652000   0.59327917   -5.1007052    695.25073  0.035071163  0.033989318           35 
 1653000   0.59707137   -5.1061212    693.35962  0.034954609  0.033968279           11 
 1654000   0.59116083    -5.110458    693.33384  0.034932176  0.033947256           10 
 1655000   0.58889549   -5.0968693    696.13919  0.035052326  0.033926284           11 
 1656000   0.58621073   -5.1031481    693.74763  0.034910811  0.033905297           12 
 1657000   0.61339709   -5.1143138    693.03282  0.034853793  0.033884175            7 
 1658000   0.59319368   -5.1057664    695.27723  0.034945579  0.033863161           12 
 1659000   0.58282808   -5.1139461    693.94947   0.03485782  0.033842242           14 
 1660000   0.58436593   -5.1056341    693.89312  0.034833992  0.033821284            7 
 1661000   0.60192326   -5.1312351     694.5372  0.034845334  0.033800287            7 
 1662000   0.58656202    -5.124722     693.6384  0.034779302  0.033779318           10 
 1663000   0.58135272   -5.1208426    693.85303  0.034769143  0.033758419           12 
 1664000   0.58584188   -5.1295014    694.69592  0.034790461  0.033737381            7 
 1665000   0.59840213   -5.1179101     694.2084  0.034745165   0.03371639           17 
 1666000    0.5904834   -5.1260679     693.0993  0.034668833  0.033695517            7 
 1667000   0.59478548   -5.1337299    693.32449  0.034659293  0.033674615            9 
 1668000    0.6101711    -5.129393    695.33105  0.034738762  0.033653659           14 
 1669000   0.57984508   -5.1437807    693.99506  0.034651241  0.033632814           59 
 1670000   0.59547761   -5.1408108    693.78493  0.034620006  0.033611981           21 
 1671000   0.58879367   -5.1119182    694.50957  0.034635426  0.033591034           15 
 1672000   0.58492104   -5.1156386    695.98381  0.034688188  0.033570128           12 
 1673000   0.57821004    -5.126855    693.81054  0.034559202  0.033549359           26 
 1674000   0.59013071   -5.1110368     694.3761  0.034566712  0.033528644           12 
 1675000    0.5769274   -5.1322368    693.33746  0.034494401  0.033507853           15 
 1676000   0.58405843   -5.1234209    695.78104  0.034595318  0.033487113            9 
 1677000   0.57937865   -5.1191703    696.65166  0.034617952  0.033466434           18 
 1678000   0.58495045   -5.1133707    695.46061  0.034538171  0.033445806            7 
 1679000   0.58843356     -5.11226    695.41183  0.034515179  0.033425119           11 
 1680000    0.5735861   -5.1269086    696.19547  0.034533505  0.033404371           15 
 1681000   0.57242062   -5.1408488    695.50575   0.03447877  0.033383634           18 
 1682000   0.58031589   -5.1498837    692.85205  0.034326796  0.033362814            9 
 1683000   0.58864942   -5.1427499    693.73783  0.034350259  0.033342021           10 
 1684000   0.58376914   -5.1334645    694.89328  0.034387039  0.033321297           20 
 1685000   0.58261575   -5.1193719     695.6855  0.034405811  0.033300574           18 
 1686000   0.60056053   -5.1266108    694.24617  0.034314263  0.033279883           14 
 1687000   0.57799546   -5.1385081    694.83435  0.034322977  0.033259115           43 
 1688000   0.57785797   -5.1566437    693.98575   0.03426075  0.033238357           16 
 1689000   0.57777447   -5.1466172    694.01887  0.034242099  0.033217613           17 
 1690000   0.57846079   -5.1506642     693.3004   0.03418641  0.033196867           18 
 1691000    0.5657212   -5.1468675    695.64249  0.034281613  0.033176149           14 
 1692000   0.58287634   -5.1468524    695.35124  0.034247008  0.033155405           10 
 1693000   0.57591394    -5.127882    695.60863  0.034239448  0.033134786           10 
 1694000    0.5746198   -5.1340808    695.69593  0.034223531  0.033114178           13 
 1695000   0.57008697   -5.1358513    696.84359  0.034259763  0.033093567           16 
 1696000    0.5698829   -5.1381172    695.08965  0.034153383  0.033072987           19 
 1697000   0.57108905   -5.1324855    695.22546  0.034139926  0.033052349           21 
 1698000   0.58328602   -5.1568539    694.93535  0.034105583  0.033031838           23 
 1699000    0.5811695   -5.1608365    694.51544  0.034064913  0.033011268           18 
 1700000   0.58094212   -5.1477568    695.73051  0.034104437  0.032990661           14 
 1701000   0.57278427   -5.1403687    696.65965  0.034129907  0.032970214           13 
 1702000   0.57927317   -5.1416572    695.97774  0.034076466  0.032949745           14 
 1703000   0.58287458   -5.1556072    694.95242  0.034006284  0.032929276           12 
 1704000   0.58744367   -5.1472623    694.82006  0.033979854   0.03290879           18 
 1705000   0.57879524   -5.1596851    696.53981  0.034043979  0.032888393           11 
 1706000   0.57357709    -5.141892    696.89046  0.034041152  0.032868013           17 
 1707000   0.55993342   -5.1441163    696.34343  0.033994504   0.03284758           10 
 1708000   0.57053124   -5.1532193    694.35912  0.033877787  0.032827074           13 
 1709000   0.57144611    -5.162645     695.0203  0.033890204  0.032806522           23 
 1710000   0.57900212   -5.1380146     696.3002  0.033932758  0.032785936           12 
 1711000    0.5750054   -5.1668334    697.04015  0.033948965  0.032765318           27 
 1712000   0.56391544   -5.1634179    694.02342  0.033782292  0.032744741           27 
 1713000   0.57451976   -5.1508311    694.58592  0.033789936  0.032724162           27 
 1714000   0.57027489   -5.1417283    696.35067  0.033856022  0.032703697           18 
 1715000   0.57035285   -5.1852093    695.46257  0.033793128  0.032683183           46 
 1716000   0.56684392   -5.1634965     695.3916  0.033769988  0.032662634           21 
 1717000   0.57004427   -5.1541918    694.46661  0.033705427  0.032642055           27 
 1718000   0.57258261   -5.1719455     695.7128  0.033746256  0.032621507           18 
 1719000   0.57261914   -5.1599351     694.2853  0.033657422  0.032600968           12 
 1720000   0.57134008   -5.1386105    694.92961   0.03366907  0.032580419           18 
 1721000   0.55285997   -5.1604437    695.93945  0.033698405  0.032559903            8 
 1722000   0.56329926   -5.1757713    694.15705  0.033592579  0.032539399           22 
 1723000   0.55620591   -5.1703407    694.81553   0.03360493  0.032518872           17 
 1724000   0.56827192   -5.1767116    696.45263   0.03366457  0.032498325           11 
 1725000   0.55708437    -5.166713    695.07116  0.033578317  0.032477787           20 
 1726000   0.56494769   -5.1912569    695.70277  0.033589358    0.0324572           30 
 1727000   0.57045048    -5.172686    695.55532  0.033562793  0.032436646           29 
 1728000     0.566535   -5.1775133    694.76147  0.033505086  0.032416075           17 
 1729000    0.5471403    -5.182812    693.85251  0.033441898  0.032395499           21 
 1730000   0.55137879   -5.1772053    695.06702   0.03348107  0.032374944           16 
 1731000   0.56376623   -5.1864847    696.04246  0.033508688  0.032354503           18 
 1732000   0.56262841   -5.1841001    695.67082   0.03347146  0.032334003           11 
 1733000   0.56718455   -5.1670261    696.19218  0.033477216  0.032313482           26 
 1734000   0.56149743   -5.1674218    696.72507  0.033483519  0.032293015           18 
 1735000   0.55707677   -5.1844739     696.0755  0.033433021  0.032272577           18 
 1736000   0.56977358   -5.1555412    694.80837  0.033352936  0.032252146           29 
 1737000   0.56183648   -5.1836825     696.5313  0.033416393  0.032231677           20 
 1738000   0.55542901   -5.1663967    694.48711  0.033299152  0.032211189           24 
 1739000   0.56620031   -5.1956312     694.3815  0.033274943  0.032190631           14 
 1740000   0.56752604   -5.1932865    695.49454  0.033309125  0.032170126           17 
 1741000   0.55261949   -5.1850843    696.25824  0.033326548  0.032149719           15 
 1742000   0.56532688   -5.1757004    694.19396  0.033208666  0.032129289            7 
 1743000   0.55311734   -5.1752846    696.65479  0.033307267  0.032108925           18 
 1744000   0.56221702   -5.1626989    696.10726  0.033262006  0.032088588           20 
 1745000   0.56163986    -5.180946    698.08356  0.033337324  0.032068334           22 
 1746000   0.55639239   -5.1737696    695.01286  0.033171672  0.032048085           16 
 1747000   0.55082241   -5.1725295    696.09642   0.03320437  0.032027701           15 
 1748000   0.55022651   -5.1735895    697.43278  0.033249084  0.032007277           22 
 1749000   0.55026231   -5.2016242    694.61909  0.033096011  0.031986808           14 
 1750000   0.56380677   -5.1903572    693.78455  0.033037359  0.031966329            7 
 1751000   0.55310323   -5.1990391    693.87249  0.033022677  0.031945903           11 
 1752000   0.55680903   -5.1774057    696.60856  0.033133969  0.031925606           13 
 1753000   0.55539993    -5.181128    696.00667  0.033086455  0.031905363           14 
 1754000   0.55797853   -5.2074551    695.07176  0.033023174   0.03188507           16 
 1755000    0.5326264   -5.1728536    695.72893  0.033035562  0.031864766           10 
 1756000    0.5536474   -5.1823853    694.87792  0.032976363  0.031844474           13 
 1757000   0.55243439   -5.1780807    694.36665  0.032933345  0.031824173            7 
 1758000   0.54004469   -5.1823223    695.14208  0.032951369  0.031803938            6 
 1759000   0.55690607   -5.1714138    696.88258  0.033015093  0.031783665           11 
 1760000   0.54231373    -5.204246    695.63719  0.032937367  0.031763412           12 
 1761000   0.54109536   -5.2185735     694.9371  0.032885534  0.031743068           10 
 1762000   0.56474525   -5.1728695     695.8017  0.032907761  0.031722782            6 
 1763000   0.55172867   -5.1967032    695.15261  0.032858414  0.031702469           15 
 1764000   0.54242247   -5.1871223    696.10999  0.032885015  0.031682239           17 
 1765000   0.53263064    -5.199676    694.96335  0.032812245  0.031662038           27 
 1766000   0.55340331   -5.1832234    695.92792  0.032839181   0.03164179            9 
 1767000   0.54745352    -5.206173     696.3834  0.032842077  0.031621588           19 
 1768000   0.55799449   -5.2060469    693.46138  0.032685774  0.031601314           22 
 1769000   0.54651086   -5.2098859    694.62195  0.032721968  0.031581063           31 
 1770000   0.55003189   -5.2117864    694.54715   0.03269996  0.031560827           15 
 1771000    0.5379527   -5.1902254    695.20336  0.032712373  0.031540611           12 
 1772000   0.54555158    -5.207144     695.9383  0.032728475  0.031520378           23 
 1773000   0.55981416   -5.2168577    695.65083  0.032696504  0.031500134           19 
 1774000    0.5641206   -5.1977789    697.68789  0.032773764  0.031479939           11 
 1775000    0.5413194   -5.2107272    694.44013  0.032602823  0.031459684           14 
 1776000   0.54781732   -5.2273946    693.76528    0.0325528  0.031439404           19 
 1777000   0.52696471   -5.2196742    694.63789  0.032575403   0.03141911           27 
 1778000   0.53437044   -5.2294566    695.16871   0.03258196  0.031398775           25 
 1779000    0.5494241   -5.2156623    693.78787  0.032498964  0.031378448           26 
 1780000   0.54396313     -5.21972    695.63246  0.032567063  0.031358174           41 
 1781000   0.53869296   -5.2211482    693.81387  0.032463685  0.031337961           42 
 1782000   0.54579732   -5.2281454    693.77262  0.032443538  0.031317686           18 
 1783000   0.55070694   -5.1951629     693.7613  0.032424813  0.031297376           25 
 1784000   0.54024016   -5.2191615    694.23606  0.032428815  0.031277056           33 
 1785000   0.53405628   -5.2090508    694.66568  0.032430704  0.031256806           48 
 1786000   0.53656776   -5.2106231    696.91408  0.032517454  0.031236639           27 
 1787000   0.53757508   -5.2298419    693.39142  0.032334985  0.031216406           29 
 1788000   0.54627796   -5.2225507    694.88269  0.032386404  0.031196205           45 
 1789000    0.5382696   -5.2432521    694.91518  0.032369815  0.031176047           21 
 1790000   0.55199584   -5.2253886    693.63775   0.03229226  0.031155826           25 
 1791000   0.53766523   -5.2279767    694.97671   0.03233653  0.031135547           25 
 1792000   0.53448467    -5.238359     692.9143  0.032222577  0.031115215           16 
 1793000   0.53969217   -5.2308832    694.57929  0.032281989  0.031094908           31 
 1794000   0.55268409   -5.2315176    694.71068  0.032270098  0.031074657           10 
 1795000   0.54723764   -5.2328719     694.1781  0.032227395  0.031054393           13 
 1796000   0.53261449   -5.2122825    693.49505  0.032177758  0.031034172            8 
 1797000   0.52877257   -5.2436724    693.13831  0.032143309  0.031013936           14 
 1798000   0.53678774   -5.2205519    694.03376  0.032166934  0.030993627           18 
 1799000   0.53079395   -5.2377144    694.67554  0.032178782   0.03097336           14 
 1800000   0.54889918   -5.2447694    693.76729  0.032118856  0.030953128           12 
 1801000   0.53189652   -5.2262508    693.80447  0.032102742  0.030933015           14 
 1802000   0.52195708   -5.2275441     693.4695  0.032069437  0.030912924           10 
 1803000   0.52395443   -5.2304569    693.89713  0.032071415    0.0308928            7 
 1804000   0.53273317   -5.2383997     694.1334  0.032064551  0.030872685            7 
 1805000   0.54382226   -5.2393406    693.27348  0.032007086  0.030852584           16 
 1806000   0.53021749   -5.2512229    692.70682  0.031963216  0.030832491           31 
 1807000   0.53361117   -5.2222512    695.04847  0.032053517  0.030812438           12 
 1808000   0.52634072   -5.2307626    694.03291   0.03198898  0.030792367           14 
 1809000   0.53765825   -5.2387448    695.29427  0.032029402  0.030772358           19 
 1810000   0.53776622   -5.2391982    693.12334  0.031911756  0.030752334           10 
 1811000   0.51638937   -5.2456154    693.07271  0.031891805  0.030732283            8 
 1812000   0.53180105   -5.2494537     692.4636  0.031846192  0.030712217           37 
 1813000   0.53434592   -5.2247413    693.35818  0.031869745  0.030692129           18 
 1814000   0.53608932   -5.2602213    693.88124  0.031876206   0.03067207           22 
 1815000    0.5303705   -5.2377557    693.85884  0.031857614  0.030652056           26 
 1816000   0.52853445   -5.2307018    694.48309  0.031868718  0.030632038           24 
 1817000   0.52823809   -5.2355848    694.26062  0.031840975  0.030612037           21 
 1818000   0.52889275   -5.2513513    692.67144  0.031750616  0.030591967           22 
 1819000    0.5266088   -5.2476201    693.21343  0.031757991  0.030571976           10 
 1820000   0.52146786   -5.2441972    693.80668  0.031767705  0.030551919           16 
 1821000   0.52462386    -5.240487    691.72809  0.031655138  0.030531879           11 
 1822000    0.5270442   -5.2501946    694.93745  0.031784552  0.030511825           18 
 1823000   0.52340334   -5.2364642     693.3848  0.031696142  0.030491793           27 
 1824000   0.52370821   -5.2465079    694.77188  0.031742136  0.030471723           12 
 1825000    0.5200504   -5.2579603    691.83613  0.031590691  0.030451693           19 
 1826000   0.52243724   -5.2486984    694.56369  0.031697868  0.030431691           22 
 1827000    0.5325698   -5.2517353    691.35363  0.031534101  0.030411618           80 
 1828000   0.52772021   -5.2546583    693.84772  0.031630549  0.030391576           36 
 1829000   0.51736514   -5.2476895    690.86711  0.031477452  0.030371555           23 
 1830000   0.52226243   -5.2383157    693.69526  0.031589037  0.030351559           22 
 1831000   0.52380269   -5.2517087    695.13425  0.031637277  0.030331624           24 
 1832000   0.51465035   -5.2466528    693.25851  0.031534685  0.030311652           29 
 1833000   0.52164737   -5.2604031    693.18557  0.031514165  0.030291687           58 
 1834000   0.52602553   -5.2581831    690.92111  0.031394089  0.030271749           36 
 1835000   0.51986423   -5.2431323    691.71648  0.031413101  0.030251788           11 
 1836000   0.51655404   -5.2522184    693.14586  0.031460869  0.030231889           12 
 1837000   0.52661569   -5.2550853    694.76443  0.031517167  0.030212056           34 
 1838000   0.51755524   -5.2698921    694.35623  0.031481512  0.030192171            7 
 1839000   0.51355697   -5.2766007    691.03324  0.031313814  0.030172209           30 
 1840000    0.5220686   -5.2748038    692.87531  0.031380222  0.030152227           28 
 1841000   0.51773163   -5.2724344    693.99765   0.03141398  0.030132316           28 
 1842000   0.51744327    -5.274439    692.59925  0.031333661  0.030112469           31 
 1843000   0.52057998   -5.2654172    694.08135  0.031383675  0.030092637           26 
 1844000   0.51715351   -5.2826805    692.73466  0.031305796  0.030072823           15 
 1845000   0.51950578   -5.2823582    692.90288  0.031296427  0.030052972           20 
 1846000   0.51890866   -5.2789537     693.0556  0.031286367  0.030033161           13 
 1847000   0.51517501   -5.2783311    691.70505  0.031208493  0.030013306           14 
 1848000   0.51702734   -5.2775209    693.86455  0.031288986   0.02999346           47 
 1849000    0.5124884   -5.2742041    693.05704   0.03123567  0.029973662           25 
 1850000   0.51065865   -5.2683233    692.96295  0.031214547  0.029953926           19 
 1851000   0.51662355   -5.2823283    692.44742  0.031174474  0.029934181           22 
 1852000   0.51242609   -5.2803174    692.79406  0.031173239  0.029914383           30 
 1853000   0.52515265   -5.2770732    693.48242  0.031187373  0.029894695           43 
 1854000   0.50007099   -5.2806171    693.30649  0.031162644  0.029874979           12 
 1855000   0.52022119    -5.294495    694.12958   0.03118282  0.029855213           14 
 1856000   0.51843744   -5.2916344    691.80187  0.031061506  0.029835465           28 
 1857000   0.51409458   -5.2772959    693.98925  0.031142939  0.029815732           27 
 1858000   0.51491174   -5.2638152    693.97159  0.031125385  0.029796043           15 
 1859000   0.51464639   -5.2636956    692.44824  0.031040355  0.029776373           22 
 1860000   0.51620398   -5.2901877    694.06149  0.031095945  0.029756718           44 
 1861000     0.512059   -5.2699833    693.70992  0.031063493  0.029737085           46 
 1862000   0.50883351   -5.3101772    692.31758  0.030984496   0.02971739           28 
 1863000   0.50464086   -5.2958643     691.3229  0.030923372   0.02969762           19 
 1864000   0.50386692   -5.2837195    692.20099  0.030946039  0.029677829           28 
 1865000   0.50229801   -5.2879753     691.3397  0.030890961  0.029658078           44 
 1866000   0.50185428   -5.2843171    692.36076  0.030920005  0.029638373           17 
 1867000   0.50533872   -5.3005278    691.96243  0.030885664  0.029618657           16 
 1868000   0.50395154   -5.3014364    692.27098  0.030882895  0.029598986           34 
 1869000   0.50097177   -5.2984242    693.37552   0.03091562  0.029579263           18 
 1870000   0.51417999   -5.3070096    692.12923  0.030843549  0.029559608           14 
 1871000   0.50346733   -5.2886825    693.16347  0.030873128  0.029539988           26 
 1872000   0.50331823   -5.2980522    692.35059   0.03082045  0.029520402           41 
 1873000   0.50573591   -5.3124101    693.05266  0.030835231  0.029500792           18 
 1874000   0.52263443   -5.3114169    691.81995  0.030763961  0.029481226           33 
 1875000   0.50624732   -5.2838953    692.52102  0.030778712  0.029461694           38 
 1876000   0.51601201   -5.2943929    692.91042  0.030779603  0.029442176           49 
 1877000   0.50922633   -5.2953969    693.18678  0.030775474  0.029422642           43 
 1878000   0.50117329   -5.2996781    693.50153  0.030773053  0.029403164           30 
 1879000   0.50197796   -5.2974067    693.55369  0.030758989  0.029383667           22 
 1880000   0.50653985   -5.3181733     691.9393  0.030671068  0.029364187           61 
 1881000    0.5031451   -5.3086868    693.21586  0.030711318  0.029344715           63 
 1882000   0.49979833   -5.2858963    693.12167  0.030690829  0.029325232          111 
 1883000   0.49817463   -5.2811166     693.4444  0.030688812  0.029305818           71 
 1884000   0.51021183   -5.3230325    692.13828  0.030614751  0.029286367           94 
 1885000    0.5063063   -5.3179407    693.92275  0.030677398  0.029266919           31 
 1886000   0.49801751    -5.295419    692.38813  0.030593325  0.029247472           42 
 1887000    0.5150562   -5.2973738    692.45722  0.030580164  0.029228022           20 
 1888000   0.49978519   -5.3063806    691.97566  0.030542711  0.029208559           50 
 1889000   0.49070826   -5.3100282    692.05124  0.030529876  0.029189114           44 
 1890000   0.49119643   -5.3002464    692.38459  0.030528421  0.029169655           42 
 1891000   0.49324781   -5.3149859    691.79866  0.030486456  0.029150301           67 
 1892000   0.49449376   -5.2951286    693.00217  0.030523352  0.029130927           62 
 1893000   0.50393912   -5.3033409    691.25144  0.030430157  0.029111596           67 
 1894000   0.49773781   -5.3163793    691.82436  0.030439298  0.029092266          108 
 1895000   0.49960358   -5.3145923    691.18596  0.030395161  0.029072923           90 
 1896000   0.48440117   -5.3262652    692.27019  0.030426784  0.029053561           29 
 1897000   0.48865244   -5.3173774    691.72838  0.030386943  0.029034162           39 
 1898000   0.49700517   -5.3283182    691.20797  0.030348085  0.029014826           41 
 1899000   0.50149689   -5.3289707     691.7761  0.030357034  0.028995421           32 
 1900000   0.49141314   -5.3260555     691.9601  0.030349127  0.028975986           50 
 1901000   0.49925522   -5.3319177    692.44646  0.030354483   0.02895655           34 
 1902000   0.49896197   -5.3357176    690.29824  0.030244402  0.028937159           30 
 1903000   0.48757405   -5.3243155    691.43055  0.030278094  0.028917752           47 
 1904000   0.48567102   -5.3474869    692.08845  0.030290986  0.028898362           30 
 1905000   0.49471973   -5.3401626     689.9424  0.030181208  0.028878933           21 
 1906000   0.50077539   -5.3494795     691.1451  0.030217956  0.028859493           22 
 1907000   0.47906389   -5.3321141    690.80908  0.030187427  0.028840088           33 
 1908000   0.47877775   -5.3267073    690.36708  0.030152301  0.028820702           64 
 1909000   0.48955839   -5.3423947    689.35058  0.030092133  0.028801371           43 
 1910000   0.49355427   -5.3516155    689.36162   0.03007686  0.028781984           36 
 1911000   0.48924668   -5.3351746    689.46601  0.030065673  0.028762637           49 
 1912000   0.47612316   -5.3124518    690.54555  0.030096999  0.028743302           47 
 1913000   0.48689579   -5.3272663    690.31707  0.030071313  0.028723996           23 
 1914000   0.48179157   -5.3538333    689.96027  0.030040068  0.028704652           50 
 1915000   0.48886464   -5.3502843    690.29243  0.030038835  0.028685357           46 
 1916000   0.49064248   -5.3495526    689.92877  0.030007341  0.028666031           67 
 1917000   0.48856974   -5.3491696     690.3215  0.030008759  0.028646764           59 
 1918000   0.49156581   -5.3277994    691.38697  0.030039406  0.028627455           76 
 1919000   0.48482537   -5.3223463    690.37918  0.029979989  0.028608208           82 
 1920000     0.491145   -5.3369745    691.10839  0.029996024  0.028588929           82 
 1921000   0.47728606   -5.3468195    690.93913  0.029973067  0.028569677          123 
 1922000   0.49322117   -5.3118312    690.17344  0.029924273  0.028550441          100 
 1923000   0.49009495   -5.3436029    691.38491  0.029961211  0.028531216           38 
 1924000   0.48486477    -5.347658     690.0208  0.029886556  0.028511982           57 
 1925000   0.47870529   -5.3476953    690.75133  0.029902655  0.028492751           40 
 1926000   0.47313572   -5.3422384    690.37944  0.029871039  0.028473473           33 
 1927000    0.4824806   -5.3449891    689.16256  0.029802913  0.028454235           58 
 1928000   0.49183284   -5.3479228    690.11508  0.029828625   0.02843504           50 
 1929000   0.48240058   -5.3496348    690.18576  0.029816216  0.028415823           41 
 1930000   0.48155738   -5.3383471    691.91118  0.029875267  0.028396659           36 
 1931000   0.48047693   -5.3517804    690.71837  0.029808319  0.028377518           42 
 1932000   0.48592301   -5.3432534    689.90826  0.029757948  0.028358385           28 
 1933000   0.48055749    -5.335391    691.77748  0.029823137  0.028339312           37 
 1934000   0.48824501   -5.3557073    689.25875  0.029699188  0.028320195           30 
 1935000   0.47638582    -5.343024    691.88723  0.029797038  0.028301098           34 
 1936000   0.46766769   -5.3586921     689.0366  0.029658945  0.028281965           31 
 1937000   0.47618797   -5.3563453    688.55312  0.029622832   0.02826283           56 
 1938000   0.48253621   -5.3449667    690.87054  0.029707195  0.028243634           37 
 1939000   0.48886775   -5.3607301    690.27762  0.029666392  0.028224512           55 
 1940000   0.48832991   -5.3634437    689.73489  0.029627787  0.028205393           26 
 1941000   0.47898523   -5.3815051    688.71788   0.02956886  0.028186263           34 
 1942000   0.47790979   -5.3656594     689.0462  0.029567722  0.028167151           42 
 1943000    0.4760869   -5.3599436     689.9101  0.029589556  0.028148096           33 
 1944000   0.48162947   -5.3371566    691.86162  0.029657991  0.028129103           35 
 1945000   0.48261598   -5.3580736    688.91981  0.029516701  0.028110123           45 
 1946000   0.47837736   -5.3606727    690.25981  0.029558916  0.028091113           73 
 1947000   0.46729788   -5.3671847    690.92138   0.02957205  0.028072138           47 
 1948000   0.46776062   -5.3594372    690.13503   0.02952323  0.028053111           60 
 1949000   0.46798522   -5.3614298    689.93684  0.029499608  0.028034174           79 
 1950000   0.46641687   -5.3596656    689.63483  0.029471574   0.02801519           67 
 1951000    0.4791491   -5.3704563    689.47657  0.029449708  0.027996209           97 
 1952000   0.47024151   -5.3546063    689.83564  0.029449951  0.027977237          118 
 1953000   0.47736386   -5.3660191    689.41709  0.029417012  0.027958277          131 
 1954000   0.46637107   -5.3720241    689.93565  0.029424072  0.027939327           58 
 1955000   0.48231113    -5.384437    689.05361  0.029371424  0.027920364           82 
 1956000   0.47585916   -5.3682676    690.10432  0.029401173  0.027901406           60 
 1957000   0.47614813   -5.3945172    688.89244  0.029334544  0.027882449          124 
 1958000   0.48094232   -5.3744631    689.83229  0.029359563  0.027863488          116 
 1959000   0.46334862   -5.3747985     688.6221  0.029293096  0.027844558          107 
 1960000   0.47363677   -5.3741766     688.7261  0.029282572   0.02782567           77 
 1961000   0.46516714   -5.3717718    687.39123  0.029210914  0.027806776           98 
 1962000   0.47695729   -5.3649607    689.73717  0.029295666  0.027787947           90 
 1963000   0.46482797    -5.393569     689.0756  0.029252657  0.027769061          149 
 1964000   0.46585735   -5.3835207    688.58795  0.029217072   0.02775019           68 
 1965000   0.45473521   -5.3868596    688.72784  0.029208136  0.027731316           73 
 1966000   0.46175506   -5.3913158    689.35916  0.029220039  0.027712423           78 
 1967000   0.48232318   -5.4013215    688.87726  0.029184768   0.02769354           55 
 1968000   0.47077056   -5.3989782    689.23528  0.029185098  0.027674663           96 
 1969000   0.46393374   -5.3881304    688.46138  0.029137523  0.027655767           69 
 1970000   0.45177863   -5.3921729    688.31875  0.029116698  0.027636908           87 
 1971000   0.46701624   -5.3767912    689.08954  0.029134515  0.027618067           83 
 1972000   0.46434914   -5.3802348     688.7705  0.029106259  0.027599294           27 
 1973000   0.46247139   -5.3800447    688.10446  0.029063375  0.027580548           49 
 1974000   0.46277644   -5.3816408    688.81506   0.02907865  0.027561765           50 
 1975000   0.46326661   -5.3815975    689.15503  0.029078271  0.027542993          115 
 1976000    0.4694842   -5.3871141     689.6177  0.029083068   0.02752427           71 
 1977000   0.46212144   -5.3906869    688.46863  0.029019922  0.027505535          111 
 1978000   0.46821874   -5.3904398    688.48569   0.02900597  0.027486836           76 
 1979000   0.47625056   -5.3897466    687.49255  0.028949493   0.02746815          267 
 1980000   0.47407293   -5.3888771     688.7112  0.028986161  0.027449461          290 
 1981000   0.45505873    -5.382416    688.97843  0.028982771    0.0274308           94 
 1982000   0.45704973    -5.408648    688.22804  0.028936598  0.027412142           62 
 1983000   0.47806287    -5.402424    688.77033  0.028944794  0.027393479           67 
 1984000    0.4615134   -5.4036786    688.98552  0.028939244  0.027374836           70 
 1985000   0.45326319   -5.4001592    687.45208  0.028860289  0.027356196           62 
 1986000   0.45229061   -5.4077383    688.04845  0.028870781  0.027337516           65 
 1987000    0.4629507     -5.41575    687.84269  0.028847622  0.027318841          110 
 1988000   0.46851732   -5.4151481    687.83444  0.028832765  0.027300175           76 
 1989000   0.47111525    -5.414277    687.81037   0.02881726  0.027281498           72 
 1990000   0.45007532   -5.4056458    688.31452  0.028823891   0.02726284          171 
 1991000   0.45634084   -5.4049433    687.11871  0.028759363  0.027244158          128 
 1992000   0.45060083   -5.4108061    688.64545  0.028808795  0.027225589          124 
 1993000   0.46016795   -5.4029989    687.91532  0.028763812  0.027206974           85 
 1994000   0.45708998   -5.4260286    687.90021  0.028748755  0.027188363          248 
 1995000   0.45279578   -5.4073696    687.32195   0.02871019  0.027169753          330 
 1996000   0.45975125   -5.4152328    687.09278  0.028686238  0.027151193          117 
 1997000   0.44670071   -5.4120463     687.7812  0.028700601  0.027132661          108 
 1998000   0.45285611   -5.4057399    687.61915  0.028679477  0.027114147          198 
 1999000   0.45595628   -5.4243338    687.23533   0.02864913  0.027095643          278 
 2000000   0.45457232   -5.3929256    687.76835  0.028657015  0.027077129          172 
 2001000   0.46095732   -5.4262179    687.78605   0.02864343  0.027058673          227 
 2002000   0.45943724   -5.4048849    687.88821  0.028633375  0.027040198          247 
 2003000   0.46123948   -5.4106961    687.69056  0.028610857   0.02702171          228 
 2004000   0.44799029   -5.4102965     687.8532  0.028603343  0.027003251          204 
 2005000   0.46081236    -5.411506    687.17574   0.02856092  0.026984811          414 
 2006000   0.44994721   -5.4191798     687.3091  0.028552222  0.026966383          440 
 2007000   0.44827505   -5.4193229    688.05224  0.028568853   0.02694799          192 
 2008000   0.46449358   -5.4144745    687.65257  0.028538038  0.026929619          245 
 2009000   0.45529492   -5.4154891     687.8705  0.028532873  0.026911285          210 
 2010000   0.45426716   -5.4026258     687.5614  0.028505863  0.026892945          168 
 2011000   0.44097083   -5.4090941    687.43639  0.028486507  0.026874627          114 
 2012000   0.46120201   -5.4240033    686.02057  0.028413708  0.026856287          125 
Loop time of 5104.4 on 48 procs for 2000000 steps with 4000 atoms

Performance: 67706.292 tau/day, 391.819 timesteps/s
99.4% CPU use with 48 MPI tasks x no OpenMP threads

MPI task timing breakdown:
Section |  min time  |  avg time  |  max time  |%varavg| %total
---------------------------------------------------------------
Pair    | 346.87     | 371.19     | 393.4      |  57.6 |  7.27
Neigh   | 33.825     | 35.329     | 37.015     |  13.6 |  0.69
Comm    | 321.1      | 346.22     | 372.28     |  67.0 |  6.78
Output  | 4.3243     | 4.3262     | 4.3768     |   0.4 |  0.08
Modify  | 4292       | 4302.7     | 4316.6     |   7.2 | 84.29
Other   |            | 44.6       |            |       |  0.87

Nlocal:        83.3333 ave          89 max          77 min
Histogram: 2 4 1 2 10 13 3 8 2 3
Nghost:        2312.88 ave        2329 max        2294 min
Histogram: 1 1 5 5 10 5 8 5 6 2
Neighs:        15693.2 ave       17223 max       13852 min
Histogram: 2 1 1 5 16 6 5 4 6 2
FullNghs:      31387.6 ave       33519 max       28593 min
Histogram: 1 2 3 1 12 10 5 6 5 3

Total # of neighbors = 1506606
Ave neighs/atom = 376.65150
Neighbor list builds = 107793
Dangerous builds = 0

#clear
#
#next RN
#
#jump SELF
Total wall time: 1:25:07
