
units lj                  # Use reduced LJ style units
atom_style atomic         # Uncharged point particles
atom_modify map hash      # Needed for indexing of clusters etc
                          # Used to be able to find where atoms are in relation to each other.

lattice fcc 1.0 spacing 1 1 1
Lattice spacing in x,y,z = 1.5874011 1.5874011 1.5874011
region box block 0 10 0 10 0 10 units lattice
create_box 2 box
Created orthogonal box = (0.0000000 0.0000000 0.0000000) to (15.874011 15.874011 15.874011)
  3 by 4 by 4 MPI processor grid
create_atoms 1 box
Created 4000 atoms
  using lattice units in orthogonal box = (0.0000000 0.0000000 0.0000000) to (15.874011 15.874011 15.874011)
  create_atoms CPU = 0.011 seconds
set type 1 type/fraction 2 0.41 78393
Setting atom values ...
  1648 settings made for type/fraction
mass 1 1.0
mass 2 1.0
pair_style lj/cut  3.5
pair_modify tail  yes
pair_coeff 1  1  1.0  1.0   # Intearaction between 1 and 1 set with epsilon = 1 and sigma = 1
pair_coeff 1  2  1.5  0.8
pair_coeff 2  2  0.5  0.88

write_data data.0
System init for write_data ...
Neighbor list info ...
  update every 1 steps, delay 10 steps, check yes
  max neighbors/atom: 2000, page size: 100000
  master list distance cutoff = 3.8
  ghost atom cutoff = 3.8
  binsize = 1.9, bins = 9 9 9
  1 neighbor lists, perpetual/occasional/extra = 1 0 0
  (1) pair lj/cut, perpetual
      attributes: half, newton on
      pair build: half/bin/atomonly/newton
      stencil: half/bin/3d
      bin: standard
WARNING: Not all mixed pair coeffs generated from mixing. Use write_data with 'pair ij' option to store all pair coeffs. (../write_data.cpp:312)


#############################
#   M E L T   S Y S T E M   #
#############################

velocity all create 2.4 3143649 mom yes dist gaussian # Assign velocities
                                                    # Temperature 2.4, random number seed, zero linear momentum
                                                                                # Gaussian distribution

timestep 0.002   # simulation timestep
thermo 1000       # output thermodynamic data every 1000 steps bf 100

# Define a fix  in this case with index 1 applied to all
# particles in the simulation. This fix is for simulations
# in the anisotropic NPT ensemble. Note that we use the MTK
# correction.
fix 1 all npt temp 2.4 2.4 0.1 iso 5.68 5.68 0.5 mtk yes tchain 5 pchain 5 # Use NPT ensemble
                                                                         # Set temperature and pressure and damping
                                                                         # Numbers of thermostats in chain and in barostat
run 10000          # run for 10000 steps
Per MPI rank memory allocation (min/avg/max) = 3.642 | 3.644 | 3.648 Mbytes
Step Temp E_pair E_mol TotEng Press Volume 
       0          2.4   -5.8082674            0   -2.2091674   -4.1765581         4000 
    1000    2.4793477    -5.037067            0   -1.3189751    5.5332089    3880.2187 
    2000    2.4568333   -5.0281874            0   -1.3438589    5.8913153    3856.2697 
    3000    2.3985643   -5.0245785            0   -1.4276316    5.8182231    3855.5189 
    4000    2.4388908   -5.0856438            0   -1.4282221    5.7262484    3841.3249 
    5000    2.3805015   -4.9805443            0   -1.4106848    5.7735375    3877.2582 
    6000    2.4125434   -5.0173205            0   -1.3994101    5.6655082    3886.0947 
    7000    2.4218678   -5.0480855            0    -1.416192    5.5128867     3874.605 
    8000    2.4385547   -4.9955346            0   -1.3386171     5.995336    3858.9139 
    9000    2.3670244   -4.9734726            0   -1.4238237    5.7279162    3887.9547 
   10000    2.3676159    -5.019499            0    -1.468963    5.6012484    3873.0805 
Loop time of 2.62994 on 48 procs for 10000 steps with 4000 atoms

Performance: 657049.236 tau/day, 3802.368 timesteps/s
99.5% CPU use with 48 MPI tasks x no OpenMP threads

MPI task timing breakdown:
Section |  min time  |  avg time  |  max time  |%varavg| %total
---------------------------------------------------------------
Pair    | 1.0958     | 1.1888     | 1.2628     |   3.1 | 45.20
Neigh   | 0.21104    | 0.21673    | 0.22739    |   0.8 |  8.24
Comm    | 0.78477    | 0.89596    | 1.02       |   4.5 | 34.07
Output  | 0.00025195 | 0.00025835 | 0.0004283  |   0.0 |  0.01
Modify  | 0.27288    | 0.31258    | 0.35762    |   3.7 | 11.89
Other   |            | 0.01563    |            |       |  0.59

Nlocal:        83.3333 ave          90 max          71 min
Histogram: 1 1 0 3 6 10 7 8 7 5
Nghost:        1668.12 ave        1689 max        1638 min
Histogram: 1 1 2 6 4 7 13 8 2 4
Neighs:        9826.23 ave       10789 max        7902 min
Histogram: 1 1 0 3 4 8 8 8 9 6

Total # of neighbors = 471659
Ave neighs/atom = 117.91475
Neighbor list builds = 904
Dangerous builds = 192

# Equilibrate just above the melting temperature to avoid step fn in T

fix 1 all npt temp 1.25 1.25 0.1 iso 5.68 5.68 0.5 mtk yes tchain 5 pchain 5
run 2000
Per MPI rank memory allocation (min/avg/max) = 3.643 | 3.645 | 3.649 Mbytes
Step Temp E_pair E_mol TotEng Press Volume 
   10000    2.3676159    -5.019499            0    -1.468963    5.6012484    3873.0805 
   11000    1.2623861   -7.0230216            0   -5.1299158    5.7938549    3064.0626 
   12000    1.2515792   -7.1038511            0   -5.2269516    5.8987825    3042.2408 
Loop time of 0.610169 on 48 procs for 2000 steps with 4000 atoms

Performance: 566400.110 tau/day, 3277.778 timesteps/s
99.6% CPU use with 48 MPI tasks x no OpenMP threads

MPI task timing breakdown:
Section |  min time  |  avg time  |  max time  |%varavg| %total
---------------------------------------------------------------
Pair    | 0.25461    | 0.29605    | 0.32369    |   2.4 | 48.52
Neigh   | 0.038381   | 0.041396   | 0.044291   |   0.6 |  6.78
Comm    | 0.19566    | 0.22195    | 0.26756    |   3.1 | 36.37
Output  | 5.1653e-05 | 5.6479e-05 | 0.00024535 |   0.0 |  0.01
Modify  | 0.041899   | 0.045726   | 0.049104   |   1.0 |  7.49
Other   |            | 0.004997   |            |       |  0.82

Nlocal:        83.3333 ave          90 max          74 min
Histogram: 1 3 2 3 3 11 12 5 4 4
Nghost:        1973.04 ave        1997 max        1944 min
Histogram: 2 3 4 6 7 6 6 2 6 6
Neighs:        12555.3 ave       13778 max       10440 min
Histogram: 1 3 0 5 4 4 10 6 8 7

Total # of neighbors = 602656
Ave neighs/atom = 150.66400
Neighbor list builds = 142
Dangerous builds = 7

#############################
# L I N E A R  Q U E N C H  #
#############################

# Define solid atoms. This closely follows ten Wolde  Ruiz-Montero and Frenkel  Faraday Discuss  1996  104  93-110
# Compute components of the per-atom q6 vector
compute q6 all orientorder/atom degrees 1 6 components 6 nnn NULL cutoff 1.3 # compute the Q6 parameter.
                                                                             # Use all neighbours within 1.3 unit cell.

# get number of connections
compute coord_number all coord/atom orientorder q6 0.5

# An atom is solid if it has 8 or more connections (of a possible 14)
variable is_solid atom c_coord_number>=8
group solid dynamic all var is_solid    # Must be dynamic to update
dynamic group solid defined

# do clustering
compute cluster solid cluster/atom 1.3 # Create a cluster where all atoms within are solid and max 1.3 units from another member

# define chunks one chunk per cluster
compute clus_chunks solid chunk/atom c_cluster nchunk every compress yes  # Says which atoms are in which chunk

# count the size of each chunk
compute size_chunks solid property/chunk clus_chunks count


# Find the maximum entry in the vector of chunk sizes
variable max_n equal max(c_size_chunks)


# Thermo style which includes this variable
# thermo_style custom step temp pe vol v_max_n

thermo ${N}  # Print the thermo information every 100 steps
thermo 1000  

# Reset the npt fix at a lower temperature (below freezing)
fix 1  all npt temp  ${temp} ${temp}  0.1  iso  5.68  5.68  0.5  mtk yes tchain  5  pchain  5
fix 1  all npt temp  0.45 ${temp}  0.1  iso  5.68  5.68  0.5  mtk yes tchain  5  pchain  5
fix 1  all npt temp  0.45 0.45  0.1  iso  5.68  5.68  0.5  mtk yes tchain  5  pchain  5

dump dmp2 all dcd ${N} traj.dcd
dump dmp2 all dcd 1000 traj.dcd


compute msd all msd com yes
variable twopoint equal c_msd[4]/6/(step*dt+1.0e-6)
fix 9 all vector 10 c_msd[4]
variable fit equal slope(f_9)/6/(10*dt)
thermo_style custom step temp pe c_msd[4] v_twopoint v_fit v_max_n

fix 1 all npt temp 1.25 ${temp} 0.1 iso 5.68 5.68 0.5 mtk yes tchain 5 pchain 5
fix 1 all npt temp 1.25 0.45 0.1 iso 5.68 5.68 0.5 mtk yes tchain 5 pchain 5
run 2000000 # 5000000  # Run for this many steps
Neighbor list info ...
  update every 1 steps, delay 10 steps, check yes
  max neighbors/atom: 2000, page size: 100000
  master list distance cutoff = 3.8
  ghost atom cutoff = 3.8
  binsize = 1.9, bins = 8 8 8
  4 neighbor lists, perpetual/occasional/extra = 1 3 0
  (1) pair lj/cut, perpetual
      attributes: half, newton on
      pair build: half/bin/atomonly/newton
      stencil: half/bin/3d
      bin: standard
  (2) compute orientorder/atom, occasional
      attributes: full, newton on
      pair build: full/bin/atomonly
      stencil: full/bin/3d
      bin: standard
  (3) compute coord/atom, occasional
      attributes: full, newton on
      pair build: full/bin/atomonly
      stencil: full/bin/3d
      bin: standard
  (4) compute cluster/atom, occasional
      attributes: full, newton on
      pair build: full/bin/atomonly
      stencil: full/bin/3d
      bin: standard
Per MPI rank memory allocation (min/avg/max) = 9.826 | 9.832 | 9.839 Mbytes
Step Temp PotEng c_msd[4] v_twopoint v_fit v_max_n 
   12000    1.2515792   -7.1038511 7.3663831e-30 5.1155436e-32 8.3333333e+20            1 
   13000    1.2173534   -7.1238234    0.4633929 0.0029704672  0.037437815            1 
   14000    1.2424993   -7.0804219   0.90156061  0.005366432   0.03672749            5 
   15000    1.2547912   -7.1174066    1.3289903 0.0073832793  0.036532701            2 
   16000    1.2324124   -7.1340135    1.7300647 0.0090107533  0.035766705            1 
   17000     1.265116   -7.0932655    2.1730997  0.010652449  0.035635867            2 
   18000    1.2316665   -7.1032074    2.6074351  0.012071458  0.035617075            1 
   19000     1.237779   -7.0951346    3.0688778   0.01345999  0.035789582            1 
   20000     1.240525   -7.1422296    3.5037429  0.014598928  0.036021045            2 
   21000    1.2526818    -7.162265    3.8990677   0.01547249   0.03597329            1 
   22000    1.2429856   -7.1372179     4.317198  0.016353022  0.035875694            1 
   23000    1.2399458   -7.1211293    4.7659633  0.017267983  0.035778552            4 
   24000    1.2586417   -7.1399302    5.1978341  0.018048035  0.035792826            2 
   25000    1.2518588   -7.1016746    5.6274687  0.018758229  0.035829471            2 
   26000    1.2288452   -7.1043951    5.9687592  0.019130638  0.035698193            2 
   27000    1.2310409   -7.1010911    6.3424907  0.019575588  0.035481236            1 
   28000    1.2412844   -7.1091834    6.7382239  0.020054238  0.035239182            3 
   29000    1.2532367   -7.1583752    7.0333626  0.020210812  0.034967541            3 
   30000    1.2573203   -7.1289355    7.4498312  0.020693975  0.034658785            2 
   31000      1.22498   -7.1554273    7.8863998  0.021199999   0.03445134            1 
   32000    1.2491716   -7.1545825    8.2722088   0.02154221   0.03430737            2 
   33000     1.225139   -7.0924833    8.6705074   0.02189522  0.034202578            4 
   34000    1.2211909   -7.1393222    9.1016265  0.022307908  0.034151444            1 
   35000    1.2350573   -7.1319771    9.5801302  0.022809833  0.034132587            2 
   36000    1.2462545   -7.1331888    9.8824327  0.022876001  0.034090703            2 
   37000    1.2428471   -7.1556499    10.309064  0.023218613  0.034044373            1 
   38000    1.2423298   -7.1784393    10.687813  0.023438186  0.033968743            3 
   39000    1.2168812   -7.1609205    11.168518  0.023864355  0.033936838            3 
   40000    1.2522623   -7.1842512    11.495254  0.023948446  0.033905701            2 
   41000    1.2532811   -7.1386374     11.88624  0.024159024  0.033854045            2 
   42000    1.2519246    -7.155035    12.170548  0.024147912  0.033798297            1 
   43000    1.2439134   -7.1000172    12.577273   0.02437456  0.033706581            1 
   44000    1.2379231   -7.1002567    13.088738  0.024789276  0.033656324            2 
   45000    1.2223528   -7.1306764    13.591881   0.02517015  0.033665229            1 
   46000    1.2333824   -7.1370737    14.056413  0.025464515  0.033700999            1 
   47000    1.2314002    -7.121033    14.580217  0.025851449  0.033764094            1 
   48000    1.2116932    -7.138615    14.874751  0.025824219  0.033817983            4 
   49000    1.2261256   -7.1117281     15.32883  0.026069439  0.033852385            1 
   50000    1.2168592   -7.1415395    15.755961  0.026259935  0.033876948            2 
   51000    1.2094802   -7.1406018    16.122861  0.026344544  0.033913933            1 
   52000    1.2109005   -7.1509954    16.600375  0.026603164  0.033962786            1 
   53000    1.2560537   -7.1748594    16.845926  0.026487305  0.033984389            2 
   54000    1.2508747   -7.1652662    17.294168  0.026688531  0.033990046            3 
   55000    1.2282997   -7.1176048    17.851494  0.027047719  0.033992894            3 
   56000     1.213036   -7.1374646    18.145758  0.027002615  0.034003783            1 
   57000    1.2400224   -7.1717365    18.563179   0.02713915  0.034013947            2 
   58000    1.2345347   -7.1283146     19.03732   0.02735247  0.034033649            2 
   59000    1.2371838   -7.1279368     19.34865  0.027328602  0.034045188            1 
   60000    1.2379053   -7.1771375    19.647769  0.027288568  0.034042258            2 
   61000    1.2162696   -7.1801931    19.984549  0.027301297  0.034012839            2 
   62000     1.234456   -7.1802835    20.522901  0.027584544  0.033989678            1 
   63000    1.2547931   -7.1540244    20.944598  0.027704495  0.033989032            2 
   64000    1.2399485   -7.1645084    21.443924  0.027921775  0.034000994            1 
   65000    1.2118737   -7.1078009    21.926924  0.028111441  0.034019473            3 
   66000    1.2087263   -7.1393334    22.357095  0.028228654  0.034041188            3 
   67000    1.2232828   -7.1793193    22.731067  0.028272471  0.034054965            2 
   68000    1.2566834   -7.1312295     23.30467  0.028559645  0.034080068            1 
   69000    1.2647083   -7.1781617    23.655654   0.02856963   0.03410978            2 
   70000    1.2245536   -7.1689937    24.029413  0.028606444  0.034132543            1 
   71000     1.228428   -7.1586967    24.286942    0.0285058  0.034139882            1 
   72000    1.2637082   -7.1884812    24.572154  0.028439992  0.034122616            1 
   73000    1.2078519   -7.1732471    24.912079  0.028438447  0.034101574            1 
   74000    1.2239361    -7.111947    25.361212  0.028559924  0.034083458            1 
   75000    1.2272153    -7.203388    25.537827  0.028375363  0.034049538            1 
   76000    1.2247054   -7.1536366    25.956226  0.028460774   0.03401432            3 
   77000    1.2528619   -7.1857185    26.236589  0.028394577  0.033964794            1 
   78000     1.249686   -7.1507989    26.612695  0.028432366  0.033921828            1 
   79000    1.2404297   -7.1833399      26.9537  0.028432173  0.033867528            1 
   80000    1.2309881   -7.1344402    27.401107  0.028542819   0.03381664            2 
   81000    1.1986061   -7.1486018    27.491778  0.028283722   0.03376069            1 
   82000    1.2394363   -7.1836116    27.708871  0.028159422  0.033691131            2 
   83000    1.2103493   -7.1940833    27.961181  0.028073474  0.033606934            1 
   84000    1.2501952   -7.1529259    28.430156   0.02820452  0.033528238            1 
   85000    1.2171729    -7.177932    28.948151   0.02838054  0.033457613            1 
   86000    1.2232899    -7.133079    29.283598  0.028375579   0.03339389            1 
   87000    1.2367364   -7.1403002    29.529677  0.028285131  0.033321801            2 
   88000    1.2283119   -7.2008922    29.986875  0.028396662    0.0332536            3 
   89000    1.2239989   -7.2065252    30.272205  0.028344762  0.033189522            4 
   90000    1.2099824   -7.1757301    30.835357  0.028551256  0.033129238            3 
   91000    1.1811405    -7.184443    31.130985  0.028508228   0.03307547            3 
   92000    1.1990774   -7.1968455    31.518716  0.028549562  0.033026042            1 
   93000    1.2000729   -7.1836769    32.074329  0.028740438  0.032978741            2 
   94000    1.2124753   -7.1861921    32.387395   0.02871223  0.032940754            2 
   95000    1.2330256   -7.1861454    32.800626  0.028772479  0.032906169            2 
   96000    1.2171194   -7.2310226     33.14469  0.028771432  0.032868466            2 
   97000    1.2209202   -7.1600418    33.467851  0.028752449  0.032830887            2 
   98000    1.2142007   -7.1419969    33.887789  0.028816147  0.032792753            1 
   99000    1.2421022   -7.2091968    34.131916  0.028730569  0.032754461            1 
  100000    1.1965393   -7.1537588    34.452213  0.028710177  0.032708435            1 
  101000    1.2192077   -7.1713732    34.812037  0.028722803  0.032666115            2 
  102000    1.2296694   -7.1804187    35.222635  0.028776662   0.03263048            1 
  103000    1.2399886    -7.179136    35.599465  0.028802156  0.032594833            1 
  104000    1.2304368   -7.1871459    36.024393  0.028865699  0.032562522            2 
  105000    1.2354682   -7.1928352    36.277424  0.028791606  0.032530462            1 
  106000    1.2106007   -7.1780737    36.674834  0.028832417  0.032491661            1 
  107000    1.1988081   -7.2140978    37.125706  0.028914101  0.032459097            2 
  108000    1.2148736   -7.2029852    37.451471   0.02889774  0.032426663            1 
  109000    1.2079325   -7.2287649    37.692748  0.028817086  0.032392513            2 
  110000     1.214446   -7.2090398    38.073424  0.028843503  0.032357664            1 
  111000    1.1972449   -7.2761165    38.272886  0.028733398  0.032323578            1 
  112000    1.2125123   -7.2275577    38.825755  0.028888211  0.032286943            3 
  113000    1.2059714   -7.2104166    39.125938  0.028853937  0.032250534            1 
  114000    1.2397363   -7.2298624      39.5685  0.028924342  0.032215701            2 
  115000    1.2014496    -7.251883    39.971947  0.028965179   0.03218937            2 
  116000    1.2035827   -7.1763835    40.373341  0.029003837  0.032163644            2 
  117000    1.2309417   -7.1834262     40.85771  0.029100933  0.032142253            2 
  118000    1.2136404   -7.2004002    41.129619  0.029046341  0.032123281            2 
  119000    1.2124776   -7.1863734    41.557338  0.029101777  0.032106326            2 
  120000    1.2195151   -7.2293843    42.082717  0.029224109  0.032088296            3 
  121000    1.2119075   -7.2036919     42.48621  0.029260475  0.032072531            1 
  122000    1.2053689   -7.1352863    42.953531  0.029339843  0.032057904            1 
  123000    1.2046409   -7.2097425    43.207568   0.02927342  0.032047929            2 
  124000    1.1901568   -7.1343396    43.507755  0.029239083  0.032032476            1 
  125000    1.2035542   -7.2296688    43.744896  0.029163264  0.032014123            1 
  126000     1.206042   -7.1992971    44.084632  0.029156503  0.031993443            2 
  127000    1.1836248   -7.1969714    44.410618  0.029140826  0.031974251            3 
  128000    1.2268949   -7.2348135    44.716314  0.029112183  0.031955282            4 
  129000    1.1943133   -7.2175328    44.842419  0.028967971  0.031928276            2 
  130000    1.2394991   -7.2024067    45.330481     0.029058  0.031900222            1 
  131000    1.1954742     -7.25569    45.431798  0.028900635  0.031871764            2 
  132000     1.193425   -7.2467141    45.848214   0.02894458  0.031840241            2 
  133000    1.2064831   -7.2114084    46.355026  0.029044502  0.031815158            2 
  134000    1.2208516   -7.2106609     46.82799  0.029121884  0.031790668            1 
  135000    1.2194885   -7.1995883      47.2075  0.029140432  0.031771688            3 
  136000      1.21138   -7.2823807    47.456102  0.029078494  0.031751167            1 
  137000    1.1867267   -7.2520565    47.797601  0.029073967  0.031728106            1 
  138000    1.2269739   -7.2566023    47.919581  0.028936945  0.031704767            1 
  139000    1.1961526   -7.1886485    48.395182  0.029013898  0.031681287            1 
  140000    1.1826785   -7.2261593    48.908145  0.029111991  0.031659586            2 
  141000     1.209769   -7.2677426    49.118294  0.029029724  0.031638294            2 
  142000    1.1917442    -7.224961    49.518978  0.029060433  0.031614417            2 
  143000    1.1509596   -7.2750592    49.553588  0.028877382  0.031587123            2 
  144000    1.1964722    -7.253051    49.958258  0.028911029  0.031558183            2 
  145000    1.2082161   -7.2551921    50.396542   0.02896353  0.031529705            1 
  146000    1.2034743   -7.2705823    50.971074  0.029093079  0.031507601            1 
  147000    1.2041486   -7.2211091    51.447085  0.029165014   0.03148592            1 
  148000    1.2023062   -7.2321489    51.640132  0.029076651   0.03146817            2 
  149000    1.2039639    -7.223859    52.250958  0.029223131  0.031447607            2 
  150000    1.1965109   -7.2280668    52.647423  0.029248569  0.031432379            2 
  151000    1.1987229   -7.2344638    52.847532  0.029165304  0.031416194            1 
  152000    1.1978795   -7.2485944    53.306395  0.029224997  0.031398044            2 
  153000    1.1853432   -7.2145209    53.630146  0.029210319  0.031381905            1 
  154000    1.1797886    -7.232719    53.963498  0.029201027  0.031364195            1 
  155000    1.1896393   -7.2338931    54.215085  0.029147895  0.031343829            1 
  156000    1.1747846   -7.2760159    54.367648  0.029042547  0.031324498            1 
  157000    1.2116905   -7.2621411    54.289449  0.028816056  0.031299137            2 
  158000    1.1707931     -7.23881    54.929256  0.028971127  0.031272649            1 
  159000     1.204574    -7.315557    54.828812  0.028736275  0.031244315            1 
  160000    1.2202606   -7.2438923    55.298152  0.028801121    0.0312134            1 
  161000    1.1696072   -7.2131676    55.762355  0.028862503  0.031181754            1 
  162000    1.1730991   -7.2186061    56.106616  0.028861428  0.031154273            3 
  163000    1.1737304   -7.2310953    56.610468  0.028941957  0.031128091            1 
  164000    1.1733046    -7.229555    56.750925  0.028836852  0.031101369            2 
  165000    1.1712525   -7.2712269    57.199901  0.028888839  0.031074882            1 
  166000    1.1993338   -7.2370724    57.731504  0.028981678   0.03104969            2 
  167000    1.1854519   -7.2652065    57.893864  0.028889154  0.031025292            2 
  168000     1.179624   -7.2665024    58.040405  0.028789884   0.03099946            2 
  169000     1.167843   -7.2402677    58.589534  0.028890303  0.030976096            4 
  170000    1.1800854   -7.2595349    58.843057  0.028844636  0.030949533            1 
  171000    1.1852324   -7.2582102    59.301219  0.028899229  0.030923879            2 
  172000    1.1875039   -7.2643434    59.294006  0.028727716  0.030897835            1 
  173000    1.1971873   -7.2936638    59.528012  0.028674379  0.030872509            1 
  174000    1.1823734   -7.2818073    60.144304  0.028804743  0.030846879            2 
  175000    1.1876961   -7.2435209    60.502383  0.028810658  0.030821273            2 
  176000    1.1794974   -7.2720398    60.660807  0.028721973  0.030793889            1 
  177000    1.1856574   -7.2924018     60.78865  0.028619892  0.030769258            1 
  178000    1.1498693   -7.3285232    61.330851  0.028712945  0.030744783            1 
  179000    1.2004822   -7.2880476    61.393033  0.028581486  0.030716193            2 
  180000    1.2024456   -7.2530159    61.993649  0.028700763  0.030688153            2 
  181000    1.1869372    -7.281495    62.105669   0.02859377  0.030659943            2 
  182000    1.2057164   -7.2950447    62.536467  0.028633913   0.03063004            6 
  183000    1.1886238   -7.3175508    62.513289  0.028466889  0.030599087            3 
  184000    1.1910616   -7.2866965    62.949261  0.028509629  0.030569269            2 
  185000    1.1802243   -7.2997788    63.369176  0.028544674  0.030542014            1 
  186000    1.2083056   -7.2926188    63.513232  0.028455749  0.030511668            2 
  187000    1.1822113     -7.27998    64.211127  0.028614584  0.030482486            1 
  188000     1.171577   -7.2524255    64.506658  0.028593377  0.030455455            1 
  189000    1.1850857   -7.2675651    65.039666  0.028677101  0.030430148            2 
  190000     1.171444   -7.2792837    65.035592  0.028524383  0.030405306            1 
  191000    1.1882296   -7.2772487    65.429906  0.028547079  0.030380561            1 
  192000    1.1701538   -7.2608541     65.55097  0.028450942  0.030355653            2 
  193000    1.1572417    -7.303446    65.960051   0.02848016  0.030331147            3 
  194000    1.1758388   -7.2331932    66.279814   0.02847071  0.030305498            1 
  195000    1.1592324   -7.2466331    66.643977  0.028480332   0.03028016            2 
  196000    1.1889943   -7.2558555    67.073236  0.028517532  0.030257635            1 
  197000    1.1626064   -7.2962204    67.345244  0.028487836  0.030233991            2 
  198000     1.186834   -7.3245457    67.441757  0.028384578  0.030207888            4 
  199000    1.2038269   -7.2794237    67.754904  0.028373075  0.030179797            4 
  200000    1.1761518   -7.3059455    67.922626  0.028301094   0.03015142            1 
  201000    1.2123359   -7.3040632    68.573902  0.028430308   0.03012263            3 
  202000    1.1783491   -7.2818899    68.658762  0.028324572  0.030095323            1 
  203000    1.1736151    -7.314149    69.141363  0.028383154  0.030070624            2 
  204000    1.1489922   -7.2823257    69.552584  0.028412003  0.030045557            1 
  205000    1.1566629   -7.2745237    69.594013  0.028290249  0.030020348            2 
  206000    1.1727947    -7.247227     70.02865  0.028328742  0.029994014            1 
  207000    1.1697279   -7.2424332    70.156037  0.028243171  0.029967929            2 
  208000    1.1586074   -7.3063624    70.188024  0.028120202  0.029941318            3 
  209000    1.1646798   -7.2705159    70.745257  0.028207838  0.029913888            3 
  210000    1.1727992   -7.3270257    70.935308  0.028148932  0.029887966            1 
  211000    1.1404391   -7.2887966    71.233878  0.028133443  0.029859572            3 
  212000     1.142641   -7.3102462    71.403844  0.028067549  0.029830463            3 
  213000    1.1743145   -7.3132827    71.483432  0.027966914  0.029801993            2 
  214000    1.1467508   -7.3321783    71.723209  0.027929598  0.029770462            1 
  215000     1.182293   -7.3123881    72.134302  0.027959032  0.029739119            1 
  216000     1.167313   -7.2665813     72.63605  0.028023167  0.029709159            3 
  217000    1.1744673   -7.3122286    73.148755   0.02809092  0.029681894            3 
  218000    1.1703529   -7.2596607    73.438318  0.028072752  0.029656348            1 
  219000    1.1873169   -7.3067029    73.785487  0.028076669  0.029631061            1 
  220000    1.1968134   -7.2702465     74.31377  0.028149155  0.029607083            1 
  221000    1.1648112   -7.2854715    74.674089   0.02815765  0.029584258            1 
  222000     1.146696   -7.2976105    75.254382  0.028248642  0.029560375            1 
  223000    1.1713633    -7.329981    75.014253  0.028032232   0.02953945            3 
  224000    1.1709247   -7.3090876    75.956019  0.028257448  0.029518965            1 
  225000     1.181033   -7.3434447     75.88677  0.028106211   0.02949827            1 
  226000    1.1448267   -7.3111396    76.066248  0.028048027  0.029477348            3 
  227000    1.1398048    -7.333489    76.290618  0.028006835   0.02945498            1 
  228000    1.1742123   -7.2917773    76.947975   0.02812426  0.029433624            1 
  229000    1.1486461   -7.3141618    77.365843  0.028153509  0.029412377            2 
  230000    1.1659635   -7.3325154    77.358832  0.028028562  0.029390957            1 
  231000    1.1702534   -7.3284874    77.717973  0.028036787  0.029370369            2 
  232000    1.1757152   -7.3472894    78.048062  0.028034505  0.029350705            2 
  233000    1.1817681     -7.31183    78.876067  0.028210324  0.029332068            2 
  234000    1.2046398   -7.3486407     79.40026  0.028276446  0.029315924            6 
  235000    1.1705503   -7.3114306     79.65602  0.028246815  0.029300109            1 
  236000    1.1715085   -7.3502537    79.764607  0.028165468    0.0292855            3 
  237000    1.1687904   -7.2891025    80.749368  0.028392886  0.029272824            2 
  238000    1.1550957   -7.2918597    81.199534  0.028431209  0.029262314            3 
  239000     1.145386   -7.2908621    81.517293  0.028423045  0.029252129            1 
  240000    1.1374725   -7.3175809     81.72091  0.028375316  0.029242953            1 
  241000     1.172475   -7.2995789    82.204878  0.028424923  0.029234599            1 
  242000    1.1853495    -7.332353    82.200674  0.028306017  0.029225576            2 
  243000    1.1855828   -7.3809749    82.495303   0.02829057   0.02921607            2 
  244000    1.1546723   -7.3466652    82.904654  0.028314431  0.029206381            2 
  245000    1.1747627   -7.3342733    83.025265  0.028239886  0.029196445            2 
  246000    1.1447266   -7.2973644    83.778027  0.028380091  0.029187563            1 
  247000    1.1718642   -7.3481736    83.918263  0.028312504  0.029178435            4 
  248000    1.1435307   -7.3545396    84.087138  0.028255087  0.029168602            2 
  249000    1.1492847   -7.3276836    84.953917  0.028431699  0.029158166            2 
  250000    1.1699999   -7.2977911    85.021398  0.028340466  0.029147892            4 
  251000    1.1599549   -7.3506508    85.150498  0.028270418  0.029137252            3 
  252000    1.1365857   -7.3521951     85.39847  0.028240235  0.029125141            3 
  253000    1.1374856   -7.3387322    85.529588  0.028171801   0.02911368            3 
  254000    1.1531612   -7.3259933    86.296881  0.028312625  0.029102015            1 
  255000    1.1302745   -7.3166593    86.747899  0.028348987  0.029091836            3 
  256000     1.149206   -7.3765753    86.535238  0.028169023   0.02908169            2 
  257000    1.1567266   -7.3297744    86.882539  0.028172029  0.029070998            2 
  258000    1.1263514   -7.3149648    87.704744  0.028328406  0.029060849            1 
  259000    1.1535611   -7.3665041    87.882777  0.028276312  0.029051143            1 
  260000    1.1668601   -7.2802667    88.324744  0.028309213  0.029041211            1 
  261000    1.1457788   -7.3132377    88.729422  0.028329956   0.02903104            1 
  262000    1.1575998   -7.3489344    88.725891  0.028220703  0.029021274            5 
  263000    1.1610545   -7.3156608    89.037319  0.028212078  0.029011256            1 
  264000    1.1400793   -7.3550758    89.023575  0.028100876  0.028999059            2 
  265000    1.1445372   -7.3791096    89.250472  0.028066186  0.028987572            2 
  266000    1.1289254   -7.3806821    89.562264  0.028058353  0.028975091            4 
  267000     1.160367   -7.3523588    90.076538  0.028113776   0.02896392            2 
  268000    1.1144795   -7.3338735    90.654311   0.02818853  0.028954329            1 
  269000    1.1509728   -7.3753121    90.846009  0.028143125  0.028944136            2 
  270000    1.1338744   -7.3592436    91.140885  0.028129903  0.028933633            2 
  271000    1.1371522   -7.3363416     91.55357  0.028153004   0.02892266            2 
  272000    1.1365399   -7.3448419    91.739498  0.028106464  0.028912548            1 
  273000    1.1605127   -7.3566511    91.435929  0.027910845  0.028899274            2 
  274000    1.1294421   -7.3534775    92.057096    0.0279979  0.028886133            1 
  275000    1.1467494   -7.3819567    92.135951  0.027919985  0.028871493            1 
  276000    1.1339729   -7.3603375    92.690416  0.027986237  0.028857549            2 
  277000    1.1489183   -7.3503094    92.787851  0.027914516  0.028843095            2 
  278000    1.1291492    -7.389287    92.920453  0.027853853  0.028828582            1 
  279000    1.1570933    -7.356476    93.179628   0.02783143  0.028814207            2 
  280000    1.1342756   -7.3886797    93.476543    0.0278204  0.028798604            2 
  281000    1.1437548   -7.3594125    94.063141  0.027895356  0.028784141            2 
  282000    1.1411409   -7.3545081    94.420995  0.027902185  0.028769677            1 
  283000    1.1511414   -7.3382734    94.776418   0.02790825  0.028755386            2 
  284000    1.1475511   -7.3492413    94.988274  0.027872146  0.028740319            2 
  285000    1.1669816   -7.3465955    95.133247  0.027816739  0.028725438            1 
  286000    1.1482223   -7.3821323    95.505338  0.027827896  0.028711511            1 
  287000    1.1377854   -7.3552259    96.106473   0.02790548  0.028699504            1 
  288000    1.1547039   -7.3675582    96.289909  0.027861663  0.028688275            1 
  289000    1.1344846   -7.3739167    96.926293  0.027948758  0.028676741            2 
  290000    1.1403008   -7.3810534    96.840202  0.027827644  0.028664423            4 
  291000    1.1425073   -7.3754322    97.018797  0.027783161  0.028650998            1 
  292000    1.1265073   -7.3905036    97.185456  0.027735575  0.028637205            2 
  293000    1.1332781   -7.3971234    97.318375  0.027678719  0.028622264            1 
  294000    1.1314512   -7.3589344    98.066802  0.027796712  0.028607108            1 
  295000    1.1216895   -7.3625412    98.164766   0.02773016  0.028592001            2 
  296000    1.1496963   -7.3932031     98.24212  0.027658254  0.028577138            2 
  297000    1.1191272   -7.3656231    98.877382  0.027743373  0.028562643            2 
  298000    1.1278942   -7.4094806    98.952089  0.027671166   0.02854756            1 
  299000    1.1310557   -7.3766098    99.153991  0.027634891  0.028531899            1 
  300000     1.112196   -7.4329855    98.904647  0.027473513  0.028515386            1 
  301000    1.1241126   -7.3819286    99.976421  0.027678965  0.028499017            1 
  302000    1.1180266   -7.4057943    99.634141  0.027492865  0.028483204            3 
  303000    1.1260565   -7.3546767    100.39039  0.027610118  0.028467152            1 
  304000    1.1259802   -7.3843206    100.73377  0.027613423   0.02845223            2 
  305000     1.101325   -7.4045792    101.06697  0.027613926  0.028436994            3 
  306000    1.1371418   -7.3950847    101.33577  0.027596887  0.028422123            1 
  307000    1.1422571   -7.3825546    101.52733  0.027558993  0.028406931            1 
  308000    1.1239258   -7.3888087    101.79007  0.027540603   0.02839173            1 
  309000    1.1258593    -7.365099    102.11031   0.02753784  0.028376433            1 
  310000    1.1206838   -7.4333503    102.31915  0.027505147  0.028361021            1 
  311000    1.1170212    -7.430662    102.61504  0.027495991  0.028345652            2 
  312000    1.1241335   -7.3788838    102.97567  0.027504186  0.028330531            1 
  313000    1.1610479   -7.4010684     103.1949   0.02747468  0.028315947            3 
  314000    1.1245254   -7.3529758    103.61954  0.027499878  0.028300801            2 
  315000    1.1363598   -7.3951176    103.62014  0.027412735  0.028285293            1 
  316000    1.1066713   -7.3848047    104.20163  0.027479332  0.028269901            3 
  317000    1.1149796   -7.3805731    104.36476   0.02743553   0.02825375            2 
  318000    1.1236063   -7.4021655     104.2788  0.027326729  0.028237642            1 
  319000    1.1308878   -7.3780492    104.51112  0.027301754  0.028221419            2 
  320000    1.1282171   -7.4234231     105.1713   0.02738836  0.028205567            1 
  321000    1.1248253   -7.3947374    105.37264  0.027355307   0.02818922            2 
  322000    1.1100372   -7.4130618    105.38495  0.027273537  0.028173255            2 
  323000    1.1424008   -7.4176956    106.00716  0.027349627  0.028157739            1 
  324000    1.1361602   -7.3956505    106.20135  0.027315162  0.028141722            2 
  325000     1.097395   -7.4299068    106.75368   0.02737274  0.028127273            1 
  326000    1.1389638   -7.4338759     106.9955  0.027350587  0.028113185            4 
  327000     1.115853   -7.3783963    107.50107  0.027395787   0.02809926            4 
  328000    1.1347745   -7.4176339    107.64188  0.027348038   0.02808451            4 
  329000    1.1281823   -7.4507607    107.34934  0.027190816  0.028069546            2 
  330000    1.1335544   -7.4039428    108.26906  0.027340672  0.028054494            1 
  331000    1.1202698   -7.4187142    108.27691  0.027260047  0.028039979            2 
  332000    1.1316178    -7.437615    108.63226  0.027267134  0.028024789           10 
  333000    1.1334072   -7.4078005     109.2029  0.027328054  0.028010256            2 
  334000    1.1075561    -7.414961    109.24369   0.02725641  0.027995942            3 
  335000    1.1123754   -7.4096747    109.24992  0.027176596  0.027980577            1 
  336000    1.1452869   -7.4613997    109.29757  0.027107531  0.027964201            2 
  337000    1.1465485   -7.4321678    109.62852  0.027108932  0.027947625            2 
  338000    1.0966363   -7.3754988    110.12532  0.027151212  0.027930812            5 
  339000    1.1214666   -7.4268059     110.7737  0.027230506  0.027914396            1 
  340000    1.1184581   -7.4048159    110.63259   0.02711583  0.027899107            1 
  341000    1.1242748   -7.4426047    110.94116  0.027111721  0.027883676            1 
  342000     1.110515   -7.4207918    111.40071  0.027144423  0.027867939            1 
  343000    1.1265661   -7.4090574     111.4922  0.027087513  0.027852544            3 
  344000    1.0999965    -7.409492    111.21554   0.02694175   0.02783651            4 
  345000     1.128925    -7.441562    112.30553  0.027126939  0.027820688            2 
  346000    1.1098183   -7.4021406    112.51384  0.027098709  0.027805702            4 
  347000    1.1209962   -7.4638355     112.5057   0.02701866   0.02779037            1 
  348000    1.0984437   -7.4642297    112.83149  0.027019034  0.027775359            1 
  349000    1.0966123   -7.4465619    113.18391  0.027025767  0.027759632            2 
  350000    1.1164704   -7.4345219    113.19154  0.026950366  0.027744772            1 
  351000    1.1238089    -7.455958    113.35094  0.026911428   0.02772998            1 
  352000     1.104358   -7.3946363    114.40396  0.027084271  0.027714936            2 
  353000    1.1213428   -7.4141078    114.36213  0.026997671  0.027700201            4 
  354000     1.083085   -7.4695263    113.98837  0.026833421  0.027683446            2 
  355000    1.1165731   -7.4362908    114.49566  0.026876915  0.027666953            3 
  356000    1.1060459    -7.416198    114.98667  0.026916355  0.027650552            2 
  357000    1.1185221   -7.4602491    115.12526  0.026873311  0.027633119            1 
  358000    1.1182112   -7.4476157    115.55524  0.026898333  0.027616737            4 
  359000    1.0834489   -7.4227788    116.07925  0.026945044  0.027600645            1 
  360000    1.1177916   -7.4404732     115.8492  0.026816945  0.027585293            4 
  361000    1.1172184   -7.4818728    116.22454  0.026829302  0.027569704            1 
  362000    1.1207973   -7.4410728    116.90888  0.026912726  0.027554877            3 
  363000      1.09145   -7.4784666    116.89735   0.02683594  0.027539748            2 
  364000    1.1292953   -7.4278452     117.1256  0.026814469  0.027524191            1 
  365000    1.0965646   -7.4429911      117.604  0.026850228  0.027509238            2 
  366000    1.1055966   -7.4503814    117.81817   0.02682563  0.027494592            1 
  367000    1.0996138   -7.4323436    118.08538  0.026813212   0.02748002            1 
  368000    1.0824858   -7.4885191    117.68159  0.026648911  0.027464378            2 
  369000     1.096817    -7.484434    118.09654  0.026670401    0.0274483            1 
  370000    1.1222255    -7.439169    118.82609  0.026762634  0.027432327            2 
  371000    1.1033829   -7.4682925    118.82985  0.026691341  0.027416545            3 
  372000    1.1051014   -7.4784998    118.75908  0.026603737  0.027400299            2 
  373000    1.1247905   -7.4472345    119.04784  0.026596927  0.027384076       -1e+20 
  374000    1.1077936   -7.4480923    119.20045  0.026559814  0.027368216       -1e+20 
  375000      1.12954   -7.4779845    119.70298  0.026600662  0.027351527            2 
  376000    1.1105546   -7.4400075    119.86677  0.026566217  0.027334129            1 
  377000     1.079202   -7.4862869    120.18836  0.026566834  0.027317764            2 
  378000    1.0943808   -7.4749295    120.90055   0.02665356  0.027301467            2 
  379000    1.1155023    -7.509436    120.37496  0.026467669  0.027284703            4 
  380000    1.0849013   -7.4794585    120.80684  0.026492728  0.027267733            2 
  381000    1.1263719   -7.4641238    121.04325  0.026474902  0.027251169            1 
  382000    1.1135556   -7.4848088    121.51666   0.02650887  0.027234405            2 
  383000    1.1155605   -7.4751627    121.54184  0.026445135  0.027216889            1 
  384000    1.1237407   -7.4451351    121.78229  0.026428448  0.027199401            2 
  385000    1.1081906   -7.4561756    122.27503  0.026466457  0.027182113            2 
  386000    1.1240267   -7.5023526    122.53822   0.02645471  0.027164693            2 
  387000    1.0958498   -7.4890498    122.56297  0.026391681  0.027147519            1 
  388000    1.1098142   -7.4753798    122.97316  0.026411762  0.027130648            2 
  389000    1.1011177   -7.5012899    122.98205  0.026345769  0.027113428            1 
  390000    1.1099706    -7.485117    123.11712  0.026307077  0.027095874            2 
  391000    1.0603013   -7.4988366    123.29755   0.02627825  0.027078521            1 
  392000    1.1108967   -7.4517142    124.11193  0.026384339  0.027060966            1 
  393000    1.1125992   -7.4632563     124.3942  0.026377056  0.027043595            2 
  394000    1.1150517   -7.4860428    124.11636  0.026251346  0.027026858            1 
  395000    1.0723314   -7.4989356    124.87909  0.026345799  0.027010391            1 
  396000    1.0953779   -7.4956678    125.23094  0.026353313  0.026994206            2 
  397000    1.0870135   -7.4936712    125.22339  0.026285346  0.026978065            2 
  398000    1.0798041   -7.4140639    125.94751  0.026370919  0.026962046            1 
  399000    1.0974583   -7.4814363    126.04574  0.026325343  0.026946698            3 
  400000    1.1021615   -7.4917302    126.17809  0.026287102  0.026931223       -1e+20 
  401000    1.0803909   -7.4714487    126.84427  0.026359989  0.026914972            2 
  402000    1.0964805   -7.4825433    126.62623  0.026249217  0.026899718            1 
  403000    1.0935091   -7.5085144    126.59142  0.026176886  0.026883798            2 
  404000    1.0809784   -7.4726879    126.69782  0.026134039  0.026867323            4 
  405000     1.076527   -7.5426675    127.09012  0.026150231  0.026849976            2 
  406000    1.0550587   -7.4739052    128.00237  0.026273065  0.026833361            1 
  407000    1.0757179   -7.4425373     128.3967  0.026289251  0.026817966            3 
  408000    1.1020044   -7.4735394    128.38577  0.026222584  0.026803208            2 
  409000    1.0846846   -7.4491928    128.59106  0.026200298  0.026788111            2 
  410000     1.078426   -7.5431191    128.15145  0.026047043  0.026772167            1 
  411000    1.0785702   -7.4985531    128.70498  0.026095899  0.026755614            2 
  412000    1.0764675   -7.4674354    129.21561  0.026135843  0.026739561            1 
  413000    1.0877096   -7.4920627    129.51309  0.026132584  0.026724507            2 
  414000    1.0896215   -7.5268953    129.38477  0.026043632  0.026709127            2 
  415000    1.0962695   -7.5320146    129.39607  0.025983147  0.026692276            3 
  416000    1.0822091   -7.4834521    130.17492  0.026076706  0.026676321            4 
  417000     1.078959   -7.4805525    130.35414  0.026049987  0.026660084            1 
  418000    1.0973276   -7.5377055    130.38728  0.025994274   0.02664382            3 
  419000    1.0836898   -7.5054538    130.47699  0.025950077  0.026627688            2 
  420000    1.0776628    -7.534293    130.94855  0.025981855  0.026611748            2 
  421000    1.1003761   -7.4864162    131.46613  0.026022591  0.026595846            1 
  422000    1.0885145   -7.4609304    131.18485  0.025905382  0.026580051            2 
  423000    1.0993828   -7.5103566    131.57977   0.02592194  0.026564057            1 
  424000     1.098338   -7.4886745      132.254  0.025993317  0.026548567            1 
  425000    1.0882008   -7.4931492    132.60866  0.026001698  0.026532764            1 
  426000    1.0927364   -7.5256492    132.23729  0.025868014  0.026516511            1 
  427000    1.0618585   -7.5123711    132.58006  0.025874328  0.026500641            2 
  428000    1.1071311   -7.4905789    133.40211   0.02597393  0.026484722            3 
  429000    1.0744997    -7.500054    133.41941  0.025916746  0.026468903            2 
  430000    1.1008309   -7.5266562    133.82215  0.025934525  0.026453203            2 
  431000     1.070486    -7.510169    134.28795  0.025964414   0.02643798            3 
  432000    1.0726028   -7.4579755    134.82008   0.02600696  0.026423223            1 
  433000    1.0595119   -7.5184957    134.90558  0.025963353  0.026409032            1 
  434000     1.117519   -7.4958358    134.98782   0.02591932  0.026394911            1 
  435000    1.0673396   -7.5374692    134.63888  0.025792888  0.026380855            1 
  436000    1.0875039   -7.5340559    135.17634  0.025836456  0.026366086            2 
  437000    1.1056164   -7.5275084    135.32253  0.025805212  0.026351039            1 
  438000    1.0737822   -7.5672196    135.55171  0.025789898  0.026336097            2 
  439000    1.0917256   -7.5252813    136.56046  0.025922639  0.026321101            2 
  440000    1.0811322   -7.5051682    136.74914  0.025899458  0.026306714            3 
  441000    1.0809892   -7.5179564     137.0289  0.025893595  0.026292684            3 
  442000    1.0674702   -7.5670688    136.41928  0.025720075  0.026278424            2 
  443000    1.0837935   -7.5469044    137.34848   0.02583681   0.02626432            3 
  444000    1.0737103    -7.535573    137.35945  0.025780677  0.026250296            1 
  445000    1.0601663   -7.5412183    137.44597  0.025738945  0.026236383            1 
  446000     1.081178   -7.5399352    138.37081  0.025854038  0.026222883            2 
  447000    1.0711615   -7.5348084    138.17711  0.025760087  0.026209354            2 
  448000     1.078694   -7.5431162    138.70994    0.0258017  0.026196166            1 
  449000    1.0834295   -7.5412559    139.17644  0.025830817  0.026183036            2 
  450000    1.0630308    -7.535644    139.32853   0.02580158  0.026169346            3 
  451000    1.0716934   -7.4838301    139.83819  0.025838542   0.02615564            1 
  452000    1.0909527   -7.5214048    139.29629   0.02568147  0.026142571            2 
  453000    1.0820164   -7.5367823    139.89909  0.025735668  0.026128922            1 
  454000    1.0640936   -7.5180272    140.63304    0.0258137  0.026115575            1 
  455000    1.0710613   -7.5405179    140.59733  0.025750427  0.026102887            1 
  456000    1.0679394   -7.5197864    141.33374  0.025828534  0.026090224            2 
  457000    1.0689583   -7.5700006    141.51736    0.0258055  0.026077973            2 
  458000    1.0851593   -7.5490308     141.9102  0.025820634  0.026065946            2 
  459000    1.0665306   -7.5386111    142.12078  0.025802611  0.026053892            2 
  460000    1.0618353   -7.5970195    142.09045  0.025741023  0.026042076            2 
  461000    1.0765948   -7.5691584    142.72224  0.025799393  0.026029778            3 
  462000    1.0757966   -7.5366399    142.75986  0.025750335   0.02601778            3 
  463000    1.0825006   -7.5489319    142.79416  0.025700892  0.026005937            2 
  464000    1.0878406   -7.5661802     142.8692  0.025658979  0.025993673            2 
  465000    1.0700213   -7.5457213    143.40817   0.02570039  0.025981481            3 
  466000     1.070376   -7.5653451    143.43593  0.025650203  0.025968435            2 
  467000    1.0341037   -7.5143073     144.2264  0.025736331   0.02595608            2 
  468000    1.0610176   -7.5487613    144.17647  0.025672448  0.025944371            2 
  469000     1.050596   -7.5329111    144.24471  0.025629836  0.025932478            1 
  470000    1.0811787   -7.5607436    144.16085  0.025560434  0.025920386            2 
  471000    1.0661228   -7.5690412     144.5986  0.025583617  0.025908321            3 
  472000    1.0721037   -7.5941104    144.67347  0.025542632  0.025895666            1 
  473000    1.0491433   -7.5681553    145.38185  0.025613434  0.025883306            4 
  474000    1.0482129   -7.5631773    145.45538  0.025572323  0.025870984            2 
  475000    1.0547504   -7.6198843    145.80401  0.025579652  0.025858254            2 
  476000    1.0747261   -7.5867754    145.87964  0.025539153  0.025845891            2 
  477000    1.0479464   -7.5658947     145.8884  0.025487141  0.025833798            2 
  478000     1.060454   -7.5271875    146.29639  0.025504949  0.025821333            2 
  479000    1.0661546   -7.5618303     146.8801  0.025553253   0.02580904            2 
  480000    1.0692186   -7.5415394     146.6073  0.025452656  0.025796759            3 
  481000    1.0516248   -7.5527579    147.12783  0.025489921  0.025784038            1 
  482000    1.0657189   -7.5626133     146.9899  0.025413192   0.02577062            1 
  483000    1.0616281   -7.5720659    146.47443  0.025271641  0.025756622            1 
  484000    1.0286837   -7.5927505     147.1515  0.025336003  0.025742597            4 
  485000    1.0498474   -7.5199315    147.59073  0.025359233  0.025729024            3 
  486000    1.0607676   -7.5246262    148.32296  0.025432606  0.025715445            2 
  487000    1.0470057   -7.5283733    147.81392  0.025293278  0.025701843            4 
  488000    1.0416838   -7.5415194    147.60635  0.025206002  0.025687527            2 
  489000    1.0473361   -7.5766413    148.33382   0.02527843  0.025673163            3 
  490000    1.0594319   -7.5796402    148.23472  0.025209987  0.025658426            1 
  491000    1.0658515    -7.579415    148.31477  0.025172228  0.025643008            1 
  492000    1.0525842   -7.6399509    148.06409  0.025078605  0.025627045            4 
  493000    1.0513641   -7.5810555      148.458  0.025094321  0.025611738            3 
  494000    1.0608561    -7.588196      148.747  0.025092274  0.025596861            2 
  495000    1.0532641   -7.5950035    148.91086  0.025069168   0.02558173            2 
  496000    1.0590732   -7.5472586    149.68024  0.025147889   0.02556687            1 
  497000     1.040061   -7.5481185    149.74989  0.025108969  0.025552157            2 
  498000    1.0626782   -7.6024215    149.73305   0.02505573  0.025537066            1 
  499000    1.0656988   -7.5947426    149.71012  0.025001689  0.025521354            2 
  500000    1.0689789   -7.5720264    149.75717  0.024959528  0.025505563            3 
  501000    1.0476456   -7.6204073     150.2146  0.024985796  0.025489459            5 
  502000    1.0612101   -7.5938708    150.30719  0.024951393  0.025473801            1 
  503000    1.0616697   -7.5761754    150.80678  0.024984555  0.025458385            3 
  504000    1.0693639   -7.5893998    150.59929  0.024900676  0.025442562            1 
  505000    1.0371148    -7.548651    151.43606  0.024989448  0.025427254            2 
  506000    1.0524643    -7.566691     151.7476  0.024991371  0.025411968            3 
  507000    1.0475348   -7.6005658      151.656  0.024927022  0.025396901            2 
  508000    1.0469488   -7.6244564    151.26645  0.024814051  0.025381601            3 
  509000    1.0441338   -7.5308089     152.2806  0.024931336    0.0253661            2 
  510000      1.03596   -7.5635012    152.47611  0.024914397  0.025350767            1 
  511000    1.0536275   -7.5740607    152.83725  0.024924535   0.02533527            3 
  512000    1.0412967   -7.5729314    152.59056  0.024835704  0.025319667            2 
  513000    1.0580603   -7.6279149    152.46619  0.024767087   0.02530382            4 
  514000    1.0280189    -7.576868    152.90526  0.024790088  0.025288416            3 
  515000    1.0852076   -7.5758237    153.24209  0.024796455  0.025272747            1 
  516000    1.0394708   -7.5509994    153.50589  0.024791002  0.025256729            2 
  517000    1.0523096   -7.5956124    153.58182   0.02475529  0.025241028            6 
  518000    1.0258485   -7.5794106    153.43509  0.024683895  0.025225223            2 
  519000    1.0278739   -7.5866493    153.72533  0.024682936  0.025209224            3 
  520000    1.0323382   -7.6081375    154.12468  0.024699468  0.025193229            3 
  521000     1.050542   -7.6312876    154.56082   0.02472182  0.025177099            3 
  522000    1.0629814   -7.5875728    155.01185  0.024746464  0.025161691            1 
  523000    1.0450329   -7.6091717    154.69805  0.024649147  0.025146424            2 
  524000    1.0526453   -7.6017539    155.24875  0.024689687  0.025131065            2 
  525000    1.0397468   -7.5520703    156.28166  0.024806613  0.025116194            7 
  526000     1.018483   -7.5630985    156.10475  0.024731424  0.025101356            2 
  527000    1.0389972    -7.578008     156.2786  0.024711986  0.025086566            2 
  528000    1.0413551   -7.6121072    156.14989   0.02464487  0.025071943            4 
  529000    1.0203898   -7.5769716    156.83626  0.024706404  0.025056813            1 
  530000    1.0379651   -7.5832364    156.77395  0.024649993  0.025042062            4 
  531000    1.0619559   -7.6124547    156.78274   0.02460495   0.02502685            7 
  532000    1.0600718   -7.5937967     156.8104  0.024563032  0.025011134            1 
  533000    1.0332827   -7.6244041    156.68604  0.024497504  0.024995512            1 
  534000    1.0283757   -7.6012396    156.80543  0.024470261  0.024979785            2 
  535000    1.0533658   -7.6043214    157.43475  0.024522547   0.02496431            3 
  536000    1.0439897   -7.6284835    157.85449  0.024542054  0.024949366            2 
  537000    1.0382921   -7.6417069    158.47379  0.024592457  0.024934712            2 
  538000    1.0580254    -7.587031    158.69384   0.02458083  0.024920245            1 
  539000    1.0512507   -7.6146519    158.91999   0.02457019  0.024905901            1 
  540000    1.0386799   -7.6166765    158.94887  0.024529147  0.024891534            1 
  541000    1.0301417   -7.6210612     159.4252  0.024557179   0.02487707            5 
  542000    1.0583276   -7.6169888    159.26168  0.024486728  0.024862806            2 
  543000    1.0407492   -7.6057515    159.38004  0.024459797  0.024847819            4 
  544000    1.0402263   -7.6603987    159.13806  0.024377767  0.024832838       -1e+20 
  545000    1.0570628   -7.6038665    159.54158  0.024394738  0.024817849            2 
  546000    1.0364808   -7.6535225    159.43836  0.024334304  0.024802476            5 
  547000    1.0323753   -7.6221681    160.23179  0.024410693  0.024787319            1 
  548000    1.0099879   -7.6482265    160.19231  0.024360145  0.024771936            1 
  549000    1.0351982   -7.6010184     160.5849  0.024375364  0.024756767            2 
  550000     1.037297   -7.6092625    160.19014  0.024271233  0.024741816            3 
  551000    1.0610067   -7.5759065    160.82814  0.024323676  0.024726609            2 
  552000    1.0460748   -7.6347104    160.30661  0.024200878  0.024711351            1 
  553000    1.0423368   -7.6251389    160.84628  0.024238438  0.024695638            3 
  554000     1.048417   -7.6522721     160.5683  0.024152873  0.024679929            1 
  555000    1.0350234   -7.6159538    161.19365   0.02420325  0.024664312            2 
  556000    1.0101363   -7.5800756     162.4972  0.024355096   0.02464882            1 
  557000    1.0426358   -7.6036716    162.24977  0.024274353  0.024633495            1 
  558000    1.0332395   -7.6530664    161.35591  0.024097358  0.024617755            1 
  559000    1.0191798   -7.6469432    161.54214  0.024082012  0.024601424            2 
  560000     1.042352   -7.6252695    161.35446   0.02401108  0.024584812            2 
  561000    1.0186544   -7.6596766    161.72019  0.024022607  0.024568193            2 
  562000    1.0405517   -7.6538656    162.12354  0.024039671  0.024551609            3 
  563000   0.99857831   -7.6407612    162.29645  0.024022566  0.024534852            1 
  564000    1.0372545   -7.6800247    162.32772  0.023984592  0.024518285            2 
  565000    1.0084894   -7.6746421    162.44545  0.023959506   0.02450155            2 
  566000    1.0148908   -7.6200826    163.00537  0.023999613  0.024485275            2 
  567000    1.0278555   -7.6235063     163.4946  0.024029188  0.024469072            2 
  568000    1.0365263    -7.639215    163.85237  0.024039373  0.024453108            2 
  569000    1.0324346   -7.6803421    164.03179  0.024023402  0.024437204            1 
  570000    1.0265112    -7.631786      163.821  0.023950438  0.024421341            2 
  571000    1.0074487   -7.6273812    164.51433   0.02400968  0.024405559            1 
  572000    1.0235468   -7.6383562    164.74685  0.024001581  0.024390121            2 
  573000    1.0179766   -7.6429428    164.97751  0.023993238  0.024374564            2 
  574000    1.0217727   -7.6481236    165.18323  0.023981305  0.024358961            1 
  575000    1.0251151   -7.6787269    164.82244  0.023887311  0.024343475            2 
  576000    1.0106516   -7.6370667    165.50119  0.023944038  0.024327865            5 
  577000    1.0363811   -7.6217045    165.48788  0.023900618  0.024312427            3 
  578000    1.0122705   -7.7189688    165.86842  0.023914132  0.024296886            2 
  579000    1.0499478   -7.6734005    165.84513  0.023869478  0.024281587            1 
  580000     1.045716   -7.6624924    166.44597   0.02391465    0.0242659            2 
  581000    1.0308941   -7.6685517    166.05857  0.023817925  0.024249934            1 
  582000    1.0275616   -7.6286473    167.00197  0.023912081  0.024234378            1 
  583000    1.0139776   -7.6487944    166.90897  0.023857771  0.024218832            1 
  584000    1.0151955   -7.6733172    166.34869  0.023736971  0.024203012            3 
  585000    1.0218864   -7.6950453    166.38335  0.023701332  0.024186954            2 
  586000    1.0154407     -7.69143    166.65432   0.02369942  0.024170781            2 
  587000   0.99236245   -7.6492885    167.35304  0.023758239  0.024154565            3 
  588000    1.0392732   -7.6020225    167.51164  0.023740312  0.024138722            1 
  589000    1.0157833   -7.7165439     166.7016    0.0235854   0.02412251            3 
  590000    1.0179907   -7.6411843    167.37297   0.02364025  0.024106146            2 
  591000     1.016944   -7.6711045    167.68405  0.023644114  0.024090042            4 
  592000    1.0232011    -7.704278    167.47444  0.023574668  0.024073731            3 
  593000    1.0171428   -7.6727092    167.98095  0.023606092  0.024057371            4 
  594000    1.0038929   -7.6843828    168.31085  0.023612633  0.024041352            2 
  595000    1.0016957   -7.7056783    167.91964  0.023518157  0.024025287            3 
  596000    1.0155696   -7.7106197    168.24818  0.023524634  0.024008777            4 
  597000    1.0136771   -7.7063878    168.45923  0.023514689  0.023992382            2 
  598000    1.0334316   -7.6808506    168.76029   0.02351732  0.023975927            2 
  599000    1.0195243   -7.6857345    168.23035  0.023404334  0.023959115            2 
  600000   0.99552716   -7.7053402    168.46408  0.023397788  0.023942372            2 
  601000     1.002271    -7.661291    168.81027   0.02340686  0.023925642            2 
  602000    1.0061628   -7.6842457    168.94967  0.023387275  0.023908928            2 
  603000    1.0222097   -7.6851053    169.60174  0.023438604  0.023892387            2 
  604000    1.0019861   -7.7114814     169.4647  0.023380892  0.023875708            1 
  605000    1.0167373   -7.6908386    169.84956  0.023395256  0.023859261            2 
  606000    1.0129818   -7.7000233    169.91963  0.023366285  0.023842689            1 
  607000    1.0247603   -7.6801484    170.33306  0.023384549  0.023826155            1 
  608000    1.0100226   -7.6860164    170.01442  0.023302415  0.023809649            3 
  609000   0.99611201   -7.7113046    170.86564   0.02338063  0.023793223            2 
  610000    1.0105376   -7.6756528    170.36241  0.023273553  0.023776766            1 
  611000    1.0270767   -7.7317205    170.70863  0.023282683  0.023760256            4 
  612000     1.002384   -7.7127403    171.04894  0.023290977  0.023743464            4 
  613000    1.0120572   -7.7268368    170.82471    0.0232225  0.023726693            3 
  614000   0.99990362   -7.6844197    170.77064   0.02317734  0.023709945            1 
  615000    1.0100856   -7.6604986    171.83641  0.023284066  0.023693038            1 
  616000   0.98554556    -7.653198    171.42874  0.023191118  0.023676289            2 
  617000   0.99938768   -7.7093436    171.57251  0.023172948  0.023659463            5 
  618000    1.0161839   -7.6559226    171.93631  0.023184507  0.023642712            2 
  619000     1.006358   -7.7544099    171.37095  0.023070941  0.023625718            4 
  620000    1.0242576   -7.7302747    171.69496   0.02307728  0.023608367            2 
  621000    1.0018001   -7.7983526    171.71877  0.023043313  0.023591156            1 
  622000    1.0342706   -7.7133895    172.08355  0.023055138  0.023574204            1 
  623000    1.0096081   -7.6946077    172.69933  0.023100499  0.023557292            3 
  624000   0.97731679   -7.7426141    171.92386  0.022959918  0.023540453            3 
  625000    1.0182593   -7.7224831    172.77712   0.02303695  0.023523566            2 
  626000   0.99976337    -7.687825     173.3158  0.023071858  0.023506851            4 
  627000    1.0068158   -7.7017474    173.32587    0.0230364  0.023490393            2 
  628000    1.0038265   -7.6845641    173.66919  0.023045275  0.023473863            3 
  629000   0.99652983   -7.6814224    173.78405  0.023023853  0.023457266            4 
  630000   0.99948506   -7.7265696    173.89664    0.0230022  0.023441108            6 
  631000   0.99788658   -7.6907228      174.058  0.022987058  0.023424686            2 
  632000    1.0101093   -7.7319482    173.87964  0.022927168  0.023408281            1 
  633000    1.0056766   -7.7266366    174.43602  0.022964194  0.023391694            8 
  634000    1.0115608    -7.725336     174.4536  0.022930284  0.023375333            1 
  635000   0.98671848   -7.7144014    174.74512  0.022932431   0.02335909            4 
  636000    1.0031142    -7.738401    174.77702  0.022900553  0.023342685            2 
  637000    1.0060949   -7.7305691    175.06041  0.022901675  0.023326485            1 
  638000   0.99631514   -7.7184436    175.87418  0.022972072  0.023310281            2 
  639000   0.97675777    -7.720329    175.54762  0.022893534  0.023293881            2 
  640000   0.99537265   -7.7182305    175.48041  0.022849011  0.023277391            3 
  641000     1.021142   -7.7012242    175.97627   0.02287783  0.023260609            2 
  642000    1.0000697   -7.7547197    175.40813  0.022768449  0.023244066            4 
  643000    1.0123619   -7.7420498    175.94873  0.022803101  0.023227534            1 
  644000   0.96725549   -7.7454326    176.47866  0.022836265  0.023211133            2 
  645000     0.975408   -7.7409806    176.36636  0.022786352  0.023194874            2 
  646000   0.99601233   -7.7617355    176.60646  0.022782051  0.023178513            2 
  647000   0.99396713      -7.7113     177.0507  0.022804057  0.023162239            2 
  648000   0.99783147   -7.7081157    177.25989  0.022795767  0.023146259            3 
  649000   0.98470378   -7.7340267    176.70158  0.022688955  0.023130252            1 
  650000   0.99035749   -7.7524423    177.39709  0.022743217  0.023114038            3 
  651000    1.0100654   -7.7310245     177.5268  0.022724884  0.023098082            3 
  652000   0.98451514   -7.7335277    177.77377  0.022721596   0.02308209            4 
  653000   0.98462483   -7.7762224    177.33642  0.022630988   0.02306589            3 
  654000    1.0166936    -7.777687    177.19333  0.022578152  0.023049635            2 
  655000    1.0127577   -7.7912769    177.48117  0.022580301  0.023033211            1 
  656000    1.0089579    -7.750114    178.03551    0.0226163  0.023016616            2 
  657000    1.0049796   -7.7346446    178.63282  0.022657638  0.022999953            3 
  658000   0.99309458   -7.7393867     178.3407  0.022586209  0.022983115            3 
  659000   0.98689304   -7.7569855    178.22093  0.022536789  0.022966207            3 
  660000    1.0111124    -7.779393    178.12705  0.022490789  0.022949217            1 
  661000   0.99602031   -7.7666933     178.3408  0.022483711  0.022931925            4 
  662000    1.0083383   -7.7310142    178.23172  0.022436018  0.022914843            2 
  663000    0.9793625   -7.7518887     178.6151  0.022450365   0.02289774            5 
  664000   0.98942241   -7.7502604    178.35862  0.022384365  0.022880642            2 
  665000    1.0102562   -7.7471369    178.62077  0.022383556  0.022863356            2 
  666000   0.98053394   -7.7814129    177.87367  0.022256465  0.022846124            2 
  667000    1.0025508   -7.7503787    178.83401   0.02234308  0.022828575            1 
  668000   0.98769853   -7.7409181    178.75968  0.022300359  0.022811035            4 
  669000   0.98619756   -7.7641546    179.12028  0.022311943  0.022793497            1 
  670000   0.98934779   -7.7790341    178.79715  0.022238451  0.022775927            2 
  671000    1.0240497   -7.7947226    178.57571  0.022177808  0.022758408            3 
  672000    1.0163782   -7.7464115    179.46541  0.022255135  0.022741124            2 
  673000   0.98470949   -7.7766412    179.56117  0.022233924  0.022723918            1 
  674000   0.97023098   -7.7285179    179.93221  0.022246811   0.02270667            3 
  675000   0.98308778   -7.7494911    179.60841  0.022173878  0.022689291            6 
  676000   0.96762544   -7.7467292    179.90321  0.022177417  0.022672041            1 
  677000   0.95468536   -7.7904425    180.09026  0.022167683  0.022654728            1 
  678000   0.98901872   -7.7655751    180.24282  0.022153739  0.022637215            1 
  679000   0.98558045   -7.7743775    180.69136  0.022176161  0.022619479            1 
  680000   0.97395468   -7.7928882    180.46708  0.022116064  0.022601875            3 
  681000   0.97552589   -7.7706394    180.80568  0.022125022  0.022584565            2 
  682000   0.97679279   -7.7540327    181.14256  0.022133744  0.022567681            2 
  683000   0.97921639   -7.8179252    181.10786  0.022097103   0.02255081            3 
  684000   0.96013558    -7.756057    181.24665  0.022081707  0.022533829            1 
  685000   0.96068795   -7.7550496    181.90612  0.022129699   0.02251704            3 
  686000   0.97143808   -7.7999687    182.01141  0.022110229  0.022500325            2 
  687000   0.97430005   -7.7536606    182.30238  0.022113341  0.022483657            4 
  688000   0.97011888   -7.7491462    182.59019   0.02211606  0.022467146            3 
  689000   0.97938611   -7.7553847    182.71165  0.022098651  0.022450613            2 
  690000    0.9631661   -7.7821899    182.69627  0.022064766  0.022433961            2 
  691000   0.95266729   -7.7918239     182.8128  0.022046889  0.022417426            4 
  692000   0.97861293   -7.7981088    182.90622  0.022026279  0.022400821            5 
  693000   0.98401813   -7.7870605    182.60651  0.021958454  0.022384144            1 
  694000   0.96412758   -7.7411418    183.27504   0.02200709  0.022367436            1 
  695000   0.96430249   -7.7750916    182.68337  0.021904481  0.022350602            1 
  696000   0.97546058   -7.7982688    182.96854  0.021907153  0.022333916            1 
  697000   0.95916233   -7.8255573     183.3851  0.021925526  0.022317188            5 
  698000   0.97548244   -7.7710874    183.68174   0.02192953  0.022300434            2 
  699000   0.97913939   -7.7868889    183.45429   0.02187104  0.022283882            2 
  700000   0.95706611   -7.7628813    184.12013  0.021919063  0.022267282            6 
  701000   0.96566587   -7.7839416    184.06042  0.021880696  0.022250692            2 
  702000   0.98563357   -7.7849126     184.0955  0.021853692  0.022234259            2 
  703000   0.99740426   -7.7489923    184.49818  0.021870338  0.022217757            2 
  704000   0.97509163   -7.8134064     184.4981  0.021839264  0.022201437            1 
  705000   0.97437199   -7.7892201    184.00748  0.021750293  0.022185096            3 
  706000   0.97194589   -7.7757822    184.93946  0.021829492  0.022168782            3 
  707000    0.9680522    -7.823838     185.1797  0.021826933  0.022152369            1 
  708000   0.97711825   -7.7769826    185.19964  0.021798451  0.022136096            2 
  709000   0.97748254   -7.7778424    185.00204  0.021744481  0.022119849            1 
  710000   0.97667543   -7.7740664    185.46792  0.021768536  0.022103297            2 
  711000   0.97438279   -7.7828823    185.22992  0.021710023  0.022086912            2 
  712000    0.9743959   -7.7988829    185.73399  0.021738528  0.022070569            2 
  713000   0.96128936   -7.7586917    185.91472  0.021729163  0.022053976            3 
  714000   0.96801043   -7.7993667    185.67097  0.021670281  0.022037077            2 
  715000   0.98473317   -7.7868875    185.94401  0.021671796  0.022020145            2 
  716000   0.94523155   -7.7830995    185.34601  0.021571928  0.022003396            3 
  717000   0.95029088   -7.7867034    186.13294  0.021633303   0.02198669            1 
  718000   0.98966341   -7.7761244    186.22843  0.021614257  0.021969858            2 
  719000   0.97644233   -7.7505889    186.08557  0.021567637  0.021953074            1 
  720000   0.98165638   -7.7510447    186.89284  0.021631116  0.021936473            2 
  721000   0.95736808   -7.8022102    186.63262  0.021571038   0.02191977            1 
  722000   0.98204436   -7.8250614    186.36934  0.021510773  0.021902856            1 
  723000   0.96315541   -7.7995316     186.7067  0.021519906  0.021886182            1 
  724000   0.97271305   -7.8069944    186.97359  0.021520902  0.021869186            2 
  725000    0.9447143   -7.7972172     186.5694  0.021444758  0.021852317            2 
  726000   0.97425049   -7.7978204    187.11118  0.021477408  0.021835681            2 
  727000   0.96853876   -7.8004248    187.11481  0.021448281   0.02181902            4 
  728000   0.96862242   -7.7917652    187.17746  0.021425991   0.02180216            3 
  729000   0.93764742   -7.8295685    187.24614  0.021404452  0.021785334            2 
  730000   0.96418423    -7.804802    187.95268  0.021455785  0.021768787            3 
  731000   0.96179057   -7.7977003    187.55942  0.021381603  0.021752172            2 
  732000   0.94956423   -7.8437117    187.52882  0.021348909   0.02173546           10 
  733000   0.97894635   -7.8072041    187.94167   0.02136672  0.021718714            4 
  734000   0.98744112   -7.8294995      188.417  0.021391575  0.021702289            2 
  735000   0.95631106    -7.801616    188.73738  0.021398796  0.021685929            3 
  736000   0.96239777   -7.8011079    188.86658  0.021384351  0.021669862            5 
  737000   0.96219951    -7.834794    189.09053  0.021380657  0.021653569            2 
  738000   0.96062436   -7.8299765     188.8175  0.021320856  0.021637231            3 
  739000   0.94780033   -7.8152889    189.10576   0.02132451  0.021620994            3 
  740000   0.95088742   -7.8051645    189.78491  0.021372175  0.021605023            2 
  741000    0.9737774   -7.8265527    189.93796  0.021360544  0.021589153            1 
  742000   0.96611803   -7.8878135    189.18702   0.02124742  0.021573064            1 
  743000   0.95591089   -7.8307691     190.0953  0.021320694   0.02155694            2 
  744000   0.96126895   -7.8385662    190.09377  0.021291864  0.021540995            1 
  745000   0.94675607   -7.8329215    190.08112   0.02126187  0.021525126            3 
  746000   0.95234287   -7.8082072    190.22542  0.021249488  0.021509352            2 
  747000   0.96787026   -7.8381055    190.13103  0.021210512  0.021493541            1 
  748000   0.96191986   -7.8321688    190.28435  0.021199237   0.02147754            1 
  749000   0.97887751   -7.8498155    190.33507  0.021176576  0.021461815            3 
  750000   0.95409324   -7.8077576    190.37052   0.02115228  0.021446007            2 
  751000    0.9477248   -7.8638975    190.13921  0.021098448  0.021429946            1 
  752000   0.95439092   -7.8454201    190.80759  0.021144458  0.021413812            2 
  753000   0.94791424   -7.8212385    191.34423  0.021175767  0.021397815            3 
  754000   0.96513382   -7.7938073    191.61865  0.021178012  0.021381895            4 
  755000   0.95537955   -7.8015994    191.51898  0.021138961  0.021366127            3 
  756000   0.94598877   -7.8283431    191.63258  0.021123521  0.021350323            3 
  757000   0.94005436    -7.861412    190.98402  0.021024221   0.02133431            2 
  758000   0.92467403   -7.8244055    192.02417  0.021110837  0.021318689            3 
  759000   0.96667195   -7.8443391    192.68378  0.021155443   0.02130306            3 
  760000    0.9361477   -7.7933185    192.71391  0.021130912   0.02128768            2 
  761000   0.94210043   -7.8366469     192.6356  0.021094568  0.021272312            2 
  762000   0.95631976   -7.8213573    192.31335  0.021031644  0.021256781            2 
  763000    0.9511686   -7.8321766    192.36856  0.021010109  0.021241219            2 
  764000   0.94559951   -7.8816775    192.45536  0.020992077  0.021225494            2 
  765000   0.97127009   -7.8764285    192.28844  0.020946454   0.02120974            3 
  766000   0.94241751   -7.8777265    192.50687  0.020942871  0.021194019            2 
  767000   0.94888345   -7.8527816    193.08048  0.020977888  0.021178435            2 
  768000   0.95327041   -7.8440128    193.05566  0.020947879  0.021162988            1 
  769000   0.93839876   -7.8685793     193.0703  0.020922226  0.021147497            4 
  770000   0.95555129   -7.8794944    193.74997  0.020968612  0.021132186            4 
  771000   0.94232951   -7.8769778    193.25302  0.020887702  0.021116524            3 
  772000   0.93255463   -7.8803883    193.46153  0.020883153   0.02110102            1 
  773000   0.92785871   -7.8937235    193.87251  0.020900443  0.021085651            2 
  774000   0.96245495   -7.8403269    194.50321  0.020941345  0.021070177            1 
  775000   0.94493926   -7.8300135    194.37477  0.020900513  0.021054802            2 
  776000   0.94368952   -7.8949965    194.39433   0.02087568  0.021039427            3 
  777000   0.94739313   -7.8879328    194.03535  0.020810312    0.0210241            3 
  778000   0.95849248   -7.8587263    194.32814  0.020814925  0.021008735            4 
  779000   0.94079047   -7.8887644    194.91842   0.02085135   0.02099355            4 
  780000   0.93857789   -7.8775174    194.92494  0.020825314  0.020978363            5 
  781000    0.9303846    -7.888056    195.22234  0.020830382  0.020963235            2 
  782000   0.93541036   -7.8906462    195.24881  0.020806565  0.020948156            1 
  783000     0.929718   -7.8642825    195.27151  0.020782408  0.020933111            4 
  784000   0.94379828    -7.880609    195.48353  0.020778436  0.020918108            5 
  785000    0.9490111   -7.8455203    196.45838  0.020855455  0.020903341            2 
  786000   0.93907609   -7.8601499    196.18985  0.020800451  0.020888775            6 
  787000    0.9380236   -7.9035893    196.34561  0.020790513  0.020874203            2 
  788000   0.92681118   -7.9105646    196.45252  0.020775436   0.02085963            5 
  789000   0.94012654   -7.9056501    195.80168  0.020680363  0.020844842            2 
  790000    0.9296815   -7.8906039    196.17599  0.020693669  0.020829898            6 
  791000   0.94251814   -7.8895469    196.61911  0.020714192   0.02081502            5 
  792000    0.9401868   -7.8488597    197.11683  0.020740407  0.020800418            4 
  793000   0.95718241   -7.9019312    196.76859  0.020677658  0.020785885            2 
  794000   0.93835484   -7.8400171    196.65033  0.020639204  0.020771338            2 
  795000   0.93099795   -7.9093168    197.39898  0.020691717  0.020756697            1 
  796000   0.93268062   -7.9024665    196.99958  0.020623909  0.020742037            4 
  797000    0.9472917   -7.9091822     197.0185   0.02060001  0.020727377            2 
  798000   0.95176158   -7.9104431    197.75673  0.020651287  0.020712761            2 
  799000   0.93578154   -7.8920205     197.5375  0.020602576  0.020697852            2 
  800000   0.92648109   -7.8667292    197.73691  0.020597595  0.020683011            3 
  801000   0.94448479   -7.9186018    197.18736  0.020514707  0.020668072            1 
  802000   0.95274803   -7.8953461    197.67013   0.02053929  0.020653224            1 
  803000   0.91074224   -7.9205885    197.55427  0.020501688  0.020638405            4 
  804000    0.9281763   -7.9057897    198.15213  0.020538156   0.02062347            2 
  805000   0.94393036   -7.8842706    198.33762  0.020531844  0.020608622            1 
  806000   0.94209596   -7.9233509    198.23705  0.020495973  0.020593737            3 
  807000   0.93059102   -7.9290173    198.21677  0.020468481  0.020578799            3 
  808000   0.92896685   -7.9071072    198.07062  0.020428075  0.020563806            2 
  809000    0.9317626   -7.9035966    198.43604  0.020440465  0.020548861            2 
  810000   0.95706569   -7.9116475    198.39652  0.020411165   0.02053387            2 
  811000    0.9217247   -7.9023047    198.87461  0.020435123  0.020518935            5 
  812000   0.93590603   -7.9003498    198.73794  0.020395929   0.02050417            1 
  813000   0.94557341   -7.9025867    198.80335  0.020377547  0.020489322            4 
  814000   0.93856631   -7.8873621    199.01015  0.020373685  0.020474587            1 
  815000   0.92219604   -7.9308749    199.85235  0.020434801  0.020459966            3 
  816000   0.93011926   -7.8881716    199.67558  0.020391705  0.020445216            3 
  817000   0.92505309   -7.9624691    199.66741  0.020365913  0.020430527            2 
  818000   0.92086027    -7.919232    199.89793    0.0203645  0.020415799            3 
  819000   0.92035183   -7.9307818    199.68836  0.020318311  0.020401057            3 
  820000   0.92686713   -7.8665082     199.9621  0.020321351  0.020386351            1 
  821000   0.91447246     -7.93712    199.90241  0.020290541   0.02037163            2 
  822000   0.91875988   -7.9411721    200.26075  0.020302185  0.020357089            2 
  823000   0.93586192   -7.9489137    199.80816  0.020231689   0.02034239            2 
  824000   0.92959395   -7.9516856    200.37303  0.020264263  0.020327546            2 
  825000   0.91875293    -7.913919    200.22762  0.020225012  0.020312882            4 
  826000   0.91279944    -7.932712    200.61126  0.020239232  0.020298457            5 
  827000   0.94935839   -7.9181099    200.82147   0.02023594  0.020283962            4 
  828000     0.920209    -7.922666    200.55592  0.020184775  0.020269506            3 
  829000   0.92835966   -7.9362796    200.75835  0.020180775  0.020254879            5 
  830000    0.9325895   -7.9301585    201.04877   0.02018562  0.020240264            3 
  831000   0.91368793   -7.9668845    200.68279  0.020124628  0.020225456            2 
  832000   0.91956421   -7.9392942    200.85004  0.020117192  0.020210636            5 
  833000   0.92155771   -7.9489041    201.21751  0.020129803  0.020195834            2 
  834000    0.9253932    -7.936113    201.32065  0.020115972  0.020181014            3 
  835000    0.9251339   -7.9242808    201.52625    0.0201124  0.020166381            3 
  836000   0.90761451   -7.9414759    202.17644  0.020153153  0.020151806            3 
  837000   0.92304686   -7.9578094    201.18416  0.020030283   0.02013705            2 
  838000   0.93616837   -7.9447665    201.52754  0.020040527  0.020122428            3 
  839000   0.89724402   -7.9565563    201.64193  0.020028002  0.020107678            2 
  840000   0.91844739   -7.9685431    202.02578   0.02004224  0.020093071            1 
  841000   0.88950681   -7.9387407    202.13545  0.020029276  0.020078401            3 
  842000   0.93431735   -7.9590556    201.96589  0.019988706  0.020063723            3 
  843000   0.90448769     -7.90304    202.26169  0.019994236  0.020049147            2 
  844000   0.94000556    -7.954126    201.59064  0.019904289  0.020034382           11 
  845000   0.92566312   -7.9357008    202.24178  0.019944948  0.020019589            2 
  846000   0.90811982   -7.9580543    202.33747  0.019930799  0.020005091            5 
  847000   0.92348173   -7.9568706    202.73086  0.019945972  0.019990405            1 
  848000   0.89718078   -7.9694563    202.71124  0.019920523  0.019975678            4 
  849000    0.9125866   -7.9380184    203.17388   0.01994247   0.01996086            3 
  850000   0.93131284   -7.9746166    202.69535  0.019872093  0.019946261            4 
  851000   0.93838135    -7.960868    202.86496  0.019865351   0.01993153            5 
  852000   0.90823965   -7.9575155    202.81283  0.019836935  0.019916881            2 
  853000   0.91969223   -7.9626755    203.18531   0.01985007  0.019902211            6 
  854000   0.90592078   -7.9480931    202.95566  0.019804416   0.01988745            3 
  855000   0.89350849   -7.9360407    203.67579  0.019851442  0.019872736            1 
  856000   0.90569253   -7.9766551    203.51345  0.019812446  0.019858134            2 
  857000   0.92792179   -7.9899244    203.22944  0.019761712  0.019843418            2 
  858000   0.90964987   -7.9669033    203.06791  0.019722991  0.019828572            1 
  859000   0.92178632   -8.0111748    203.39214  0.019731484  0.019813618            3 
  860000   0.89561941   -7.9842546     203.6819  0.019736618  0.019798738            1 
  861000   0.91282467     -7.93577    203.66423  0.019711985  0.019783961            2 
  862000   0.91225192   -7.9461282    204.30453  0.019751018  0.019769219            2 
  863000   0.91193185   -7.9721617    203.98681  0.019697452  0.019754662            2 
  864000   0.90144754   -7.9448981    204.00166  0.019676086  0.019740069            3 
  865000   0.90515493   -7.9449489     204.4303  0.019694634  0.019725657            2 
  866000   0.88638026   -7.9530045    204.87009  0.019714212  0.019711272            2 
  867000   0.88447152   -7.9500623    205.05833  0.019709566   0.01969687            2 
  868000    0.9077748   -7.9831689    204.16374  0.019600974  0.019682374            3 
  869000   0.90556682   -7.9672433    204.43684  0.019604607  0.019667821            2 
  870000   0.89760815   -7.9674164    204.69661  0.019606955  0.019653348            1 
  871000   0.90207191   -7.9708694     205.0331  0.019616638  0.019638972            2 
  872000   0.90327223   -7.9882342    204.56512  0.019549419  0.019624481            3 
  873000   0.91788559    -7.981587    204.72339  0.019542133  0.019609939            2 
  874000    0.9043395   -7.9585216    204.99942  0.019546093  0.019595308            1 
  875000   0.89954718   -7.9790381    204.63944   0.01948947  0.019580655            1 
  876000   0.90843971   -7.9650363    205.17096  0.019517785  0.019565925            1 
  877000   0.91022814   -8.0044862    204.80269  0.019460537  0.019551077            5 
  878000    0.8899917    -8.008689    204.69508  0.019428159   0.01953616            3 
  879000    0.9024493   -7.9894932    204.66794  0.019403483  0.019521285            4 
  880000   0.89224536   -7.9751374    205.12227  0.019424458   0.01950642            2 
  881000   0.90948221    -7.978179    205.47237  0.019435525  0.019491546            1 
  882000   0.91713951   -7.9741523    205.46503  0.019412796  0.019476789            3 
  883000   0.91329714   -7.9933136    205.79315  0.019421777  0.019461996            2 
  884000   0.91831399   -7.9921021    205.91457  0.019411253  0.019447178            2 
  885000   0.90715218   -7.9784826    205.64535  0.019363969   0.01943236            3 
  886000   0.90850304    -7.966049    205.62429  0.019340133  0.019417597            2 
  887000   0.89834303   -7.9592635    205.69048  0.019324547  0.019402764            2 
  888000   0.88478639   -7.9661906    205.98958  0.019330854  0.019387976            4 
  889000   0.91187863   -8.0069783    205.25806  0.019240538  0.019373154            2 
  890000   0.88786808   -7.9983813    205.31146   0.01922392  0.019358356            2 
  891000   0.89415912   -8.0000871    206.39948  0.019304104  0.019343653            6 
  892000   0.89817519   -7.9970813    206.20577  0.019264366  0.019329021            6 
  893000   0.90013107   -7.9823024    206.09767  0.019232705  0.019314337            4 
  894000   0.90545732   -7.9609465    206.71939  0.019269145  0.019299834            2 
  895000   0.89800049   -8.0035273     206.3165  0.019210103  0.019285226            2 
  896000   0.89599687   -7.9883446    207.16326  0.019267416  0.019270622            2 
  897000   0.86895025   -8.0053785    206.42885  0.019177708  0.019255892            1 
  898000   0.90133527    -7.982391    206.60252  0.019172468  0.019241291            1 
  899000   0.88296798   -8.0084889    206.96532  0.019184772  0.019226775            2 
  900000   0.89048029   -7.9902662    206.98965  0.019165708  0.019212124            6 
  901000    0.9035496   -8.0384014    206.45136   0.01909465  0.019197413            1 
  902000    0.8889049   -8.0070613    206.83514  0.019108937  0.019182814            2 
  903000    0.8813197   -8.0165767    207.36125  0.019136328  0.019168191            3 
  904000   0.89216155   -7.9663737     207.5299  0.019130706  0.019153548            3 
  905000   0.88090364   -7.9660963    207.29715  0.019088135  0.019139045            4 
  906000   0.90732391   -7.9990186    208.06834     0.019138  0.019124548            3 
  907000   0.89735702    -8.020755    207.98331  0.019109088  0.019110079            2 
  908000     0.880171   -8.0000161      207.692  0.019061307   0.01909559            1 
  909000   0.86948195   -7.9983479    208.17652  0.019084756  0.019081242            4 
  910000   0.88877295   -7.9844312    208.49232  0.019092703  0.019066937            4 
  911000    0.9058334   -7.9925024    208.16133  0.019041468   0.01905259            4 
  912000   0.89251555   -8.0036267     207.5617  0.018965798  0.019038078            3 
  913000   0.88780697   -8.0009505    207.91943  0.018977677   0.01902347            2 
  914000   0.89523103    -8.001069    207.46687  0.018915651  0.019008872            3 
  915000   0.87672101   -7.9928615    208.23174   0.01896464   0.01899441            1 
  916000   0.89917168   -8.0296776    208.61166  0.018978499  0.018979982            3 
  917000   0.88024138   -8.0189715    208.57628  0.018954588  0.018965637            2 
  918000    0.8720285   -8.0240265    208.43775  0.018921364  0.018951354            4 
  919000   0.88278959     -8.01997    208.68257  0.018922975  0.018937076            3 
  920000    0.8633162   -8.0425203     209.1418  0.018944003  0.018922765            3 
  921000   0.88674988   -8.0252478    208.79406  0.018891971  0.018908487            2 
  922000   0.89701908   -8.0342821    210.20595  0.018999092  0.018894392            1 
  923000   0.88603239   -8.0247017    209.94217  0.018954692   0.01888037            6 
  924000   0.85682336   -8.0602749    209.06526  0.018855092  0.018866212            1 
  925000   0.90679148   -8.0327031    209.52859   0.01887645  0.018852048            2 
  926000   0.89215625   -8.0352176     209.9012  0.018889597  0.018837873            1 
  927000   0.89183087     -8.01152    209.67166  0.018848585  0.018823621            5 
  928000   0.88184171   -8.0065222    209.46524  0.018809738  0.018809435            4 
  929000   0.88121759   -8.0173171    210.18198  0.018853783  0.018795385            2 
  930000   0.86982776   -7.9956659    210.14428  0.018830133  0.018781158            2 
  931000   0.87275553   -8.0589863    209.64598  0.018765305  0.018767006            3 
  932000   0.87600355   -8.0522678     209.7433  0.018753871  0.018752705            2 
  933000   0.86654755   -8.0319049    210.30343  0.018783801  0.018738425            2 
  934000   0.85572031   -8.0582278    209.85916  0.018724051  0.018724225            8 
  935000   0.88369457   -8.0277036    210.31474   0.01874463  0.018710022            2 
  936000   0.90135142   -8.0164902    210.64771  0.018754248  0.018695906            5 
  937000   0.87069409   -8.0182542    210.70463  0.018739294  0.018681874            4 
  938000    0.8890924   -8.0600131    210.19921  0.018674414  0.018667687            3 
  939000   0.87640946   -8.0308304    210.93052  0.018719428  0.018653603            2 
  940000   0.87896702   -8.0507318    210.26936    0.0186409  0.018639531            3 
  941000   0.88020649   -8.0865536    210.48732  0.018640393  0.018625442            5 
  942000   0.87137205   -8.0606603    210.91039  0.018658032  0.018611323            2 
  943000   0.87669536   -8.0529742    210.83147  0.018631271  0.018597228            2 
  944000   0.87426413    -8.089129    211.05094  0.018630909  0.018583106            2 
  945000   0.87567912   -8.1032746    211.14265  0.018619281  0.018568935            4 
  946000   0.85907653   -8.0664358     210.7731  0.018567046  0.018554678            3 
  947000   0.86156404   -8.0690552    210.88374  0.018557175  0.018540482            2 
  948000   0.88691567   -8.0635699    211.06465  0.018553503  0.018526316            4 
  949000   0.87813455   -8.0974286    211.06514  0.018533995  0.018512173            3 
  950000     0.889082   -8.0802528    210.89457  0.018499524  0.018497949            1 
  951000   0.85683921   -8.0764451    211.58762  0.018540801  0.018483821            2 
  952000   0.88434376   -8.0737136    211.68762  0.018530079  0.018469781            1 
  953000   0.85980469   -8.0715615    211.59676   0.01850269  0.018455741            2 
  954000   0.85951414   -8.0498762    211.80472  0.018501461  0.018441736            3 
  955000   0.87535369   -8.0627597    211.65232  0.018468789  0.018427789            6 
  956000   0.87230895   -8.1057442    211.20262   0.01841027  0.018413679            3 
  957000   0.84711579   -8.0392422    212.72425  0.018523533  0.018399661            5 
  958000   0.85534288   -8.0376724    212.34657  0.018471344  0.018385726            4 
  959000   0.86862272   -8.0514933    212.28963  0.018447135  0.018371802            2 
  960000   0.87139649   -8.0617425    212.84694  0.018476297  0.018358063            1 
  961000    0.8693642   -8.0620441     212.5428  0.018430697  0.018344194            2 
  962000   0.88782407   -8.0617343    212.57677  0.018414481  0.018330328            4 
  963000   0.86908531   -8.0616458     212.6669  0.018403159  0.018316545            3 
  964000   0.85924939   -8.0763788    212.71581  0.018388296  0.018302707            3 
  965000    0.8663991   -8.0845635    213.06847  0.018399695  0.018288914            3 
  966000   0.89077591   -8.0514854    212.92579  0.018368339  0.018275139            2 
  967000   0.87845155   -8.0746903    212.59724  0.018321031  0.018261301            3 
  968000   0.87941898   -8.0707757    212.79614  0.018319227  0.018247413            2 
  969000   0.86289205   -8.0902226    212.16649  0.018246173  0.018233479            2 
  970000   0.87138838    -8.052005    213.41872  0.018334941  0.018219587            3 
  971000   0.84147537   -8.0815914    213.16268  0.018294085  0.018205664            4 
  972000   0.88187424   -8.0638698    213.74664  0.018325329  0.018191903            2 
  973000   0.87250743   -8.1078193    213.49221  0.018284705  0.018178148            4 
  974000   0.85083839   -8.0661249    213.97812  0.018307505  0.018164364            4 
  975000   0.88380773   -8.0637566    213.69197  0.018264271   0.01815062            2 
  976000   0.83784864   -8.0644853    213.76564  0.018251848  0.018136851            4 
  977000    0.8581071   -8.0912641    214.05886  0.018258177  0.018123009            2 
  978000   0.84450935   -8.1159177    213.61647  0.018201812  0.018109186            2 
  979000   0.88784483   -8.1054772     213.7819  0.018197302  0.018095391            5 
  980000   0.86055898   -8.0891221     213.7518  0.018176173  0.018081516            2 
  981000   0.87267415   -8.0874387    213.71714  0.018154701  0.018067711            2 
  982000   0.86697646   -8.1062154    213.91871  0.018153319  0.018053913            2 
  983000    0.8821303   -8.0651442    213.37413  0.018088685  0.018040083            3 
  984000    0.8656802   -8.0881286    214.03183  0.018126002  0.018026254            3 
  985000   0.85064338   -8.0983794    213.64021  0.018074468  0.018012391            4 
  986000   0.85311571   -8.0902444     214.1741  0.018101259  0.017998445            6 
  987000   0.84883798   -8.1145397    214.12628  0.018078882  0.017984585            4 
  988000   0.85370738   -8.0665922    213.99888  0.018049838  0.017970585            2 
  989000   0.83951038   -8.0958668    213.98035  0.018030026  0.017956744            4 
  990000   0.84718295   -8.1224435     214.2705  0.018036237  0.017942891            1 
  991000   0.86348351   -8.1193024    214.23627  0.018015159  0.017929155            4 
  992000   0.86591642   -8.0835085    214.58556   0.01802634  0.017915429            2 
  993000   0.87209406   -8.0906822     214.3031  0.017984483  0.017901641            4 
  994000   0.86032563   -8.0939164    214.74339  0.018003302  0.017887892            3 
  995000   0.85885949   -8.1119189    214.50937  0.017965609  0.017874144            2 
  996000   0.85922086   -8.0798102    214.79302  0.017971303  0.017860469            2 
  997000   0.86155542   -8.0883046    214.93477  0.017965126  0.017846902            4 
  998000   0.86867313   -8.0352389    215.69832  0.018010882  0.017833319            7 
  999000   0.85760189   -8.1118025      214.786   0.01791675  0.017819769            6 
 1000000    0.8575831   -8.0776918    215.79859  0.017983216  0.017806235            4 
 1001000   0.86788633   -8.1020666    215.17671  0.017913479  0.017792636            3 
 1002000   0.85599533   -8.1007764    214.52587  0.017841473  0.017778813            1 
 1003000   0.83925152   -8.1092445    215.01949  0.017864697   0.01776509            2 
 1004000   0.86447566   -8.0869837     215.0863  0.017852449  0.017751416            2 
 1005000   0.87414355    -8.080934    215.35965  0.017857351  0.017737695            4 
 1006000   0.84519044   -8.1046964    215.10441  0.017818457  0.017724001            4 
 1007000   0.83937959   -8.1075988    215.16125  0.017805466  0.017710157            3 
 1008000   0.83841623   -8.1158922    214.64741  0.017745322  0.017696215            1 
 1009000   0.84193596   -8.0864049    215.44996  0.017794017  0.017682395            2 
 1010000   0.85713252   -8.0796465    215.37593  0.017770292  0.017668585            3 
 1011000    0.8476949   -8.0967772    215.19112  0.017737481    0.0176548            1 
 1012000   0.84998876    -8.079097    215.61549  0.017754898  0.017641048            1 
 1013000   0.85175455   -8.1449834    215.38856  0.017718703  0.017627218            4 
 1014000   0.87031213   -8.1088266    215.67583  0.017724838  0.017613403            2 
 1015000   0.85270858   -8.1398948    215.32741   0.01767877  0.017599632            5 
 1016000   0.85006618    -8.111211    215.59961  0.017683695  0.017585912            3 
 1017000   0.85558997   -8.1358725    215.41088  0.017650842  0.017572147            1 
 1018000   0.83541828   -8.1243139    215.41435  0.017633788  0.017558209            2 
 1019000    0.8509678   -8.1460782    215.79426  0.017647552  0.017544419            4 
 1020000   0.85006129   -8.0793187    217.05939  0.017733611  0.017530813            1 
 1021000    0.8394786   -8.1286658    216.09962  0.017637906   0.01751724            4 
 1022000   0.84757726   -8.1213837    216.58294  0.017660057  0.017503764            2 
 1023000   0.84106627   -8.1107239    215.78658  0.017577923  0.017490083            1 
 1024000   0.86280911   -8.1138415    216.56031  0.017623723  0.017476369            2 
 1025000   0.85198693   -8.0996871    216.42865  0.017595825  0.017462796            2 
 1026000   0.85064752   -8.1330615    216.25298  0.017564407  0.017449207            2 
 1027000   0.82562497   -8.1238729    216.87017  0.017597385  0.017435681            1 
 1028000   0.84369578   -8.1066074     216.2584  0.017530674   0.01742204            2 
 1029000   0.84067458   -8.1175734    216.87082  0.017563234  0.017408448            3 
 1030000   0.84495752   -8.1532093    216.04763  0.017479582  0.017394718            5 
 1031000   0.83355196   -8.1326723    216.45657  0.017495682  0.017380896            1 
 1032000   0.83717311   -8.1633396     216.0524  0.017446092  0.017367001            1 
 1033000    0.8480741   -8.1851498    216.43919  0.017460406  0.017353166            3 
 1034000   0.85133042   -8.1828525      216.231  0.017426741  0.017339362            4 
 1035000    0.8364703   -8.1614496    216.71612  0.017448963   0.01732552            2 
 1036000   0.84171058   -8.1246854    216.45969  0.017411494  0.017311707            5 
 1037000   0.83738984   -8.1451627    216.48682  0.017396883  0.017297902            3 
 1038000   0.85333602   -8.1457698    216.69987  0.017397228  0.017284134            2 
 1039000   0.83189949     -8.15588    216.94203  0.017399907  0.017270259            2 
 1040000   0.82383566   -8.1541161    216.73805  0.017366831  0.017256496            2 
 1041000    0.8390992   -8.1263028    217.12613  0.017381214  0.017242786            4 
 1042000   0.83151399   -8.1460886    217.02502  0.017356447  0.017229029            3 
 1043000    0.8238798   -8.1038744    217.20777  0.017354408  0.017215347            2 
 1044000   0.82973287   -8.1599596    216.93667  0.017316146  0.017201659            3 
 1045000   0.82780824    -8.181684    216.59143  0.017272044  0.017187893            2 
 1046000   0.84467449    -8.157489     217.1845  0.017302781   0.01717423            2 
 1047000   0.82508453   -8.1243602    216.96192  0.017268539  0.017160593            1 
 1048000   0.82174041   -8.1228608    217.05994  0.017259855  0.017146971            3 
 1049000   0.82156221   -8.1460611    217.24453  0.017258066  0.017133344            1 
 1050000   0.79885896   -8.1341059     217.5895  0.017269008  0.017119733            2 
 1051000   0.83925545   -8.1703745    217.37528  0.017235591  0.017106086            3 
 1052000   0.83472065   -8.1504532    217.42806  0.017223389  0.017092499            2 
 1053000   0.83268711    -8.160952    217.67491  0.017226568  0.017078866            3 
 1054000   0.83215037   -8.1610909     218.0052  0.017236338  0.017065206            3 
 1055000   0.82296123   -8.1642834    217.48894  0.017179221  0.017051654            3 
 1056000   0.85164181   -8.1466659    217.70034  0.017179635  0.017038121            6 
 1057000   0.83854288   -8.1564113     217.4767   0.01714575  0.017024535            7 
 1058000   0.84281113   -8.1335527    217.66615  0.017144467  0.017010911            3 
 1059000    0.8230053   -8.1864142    217.73393  0.017133611   0.01699739            3 
 1060000    0.8314786   -8.1636842    217.33601  0.017086164  0.016983795            2 
 1061000   0.83345065   -8.1742361    218.13547  0.017132852    0.0169702            2 
 1062000   0.83896755   -8.2169504    216.97899  0.017025972  0.016956611            4 
 1063000   0.82808066   -8.1946257    217.78044  0.017072785  0.016942949            1 
 1064000   0.84522339   -8.1955822    217.45695  0.017031403  0.016929406            2 
 1065000   0.83160919   -8.1876003    217.90806  0.017050709  0.016915782            5 
 1066000   0.81233515   -8.1790185     217.4737  0.017000758  0.016902136            3 
 1067000   0.81196232   -8.1944507    217.13603  0.016958453  0.016888459            7 
 1068000   0.82282413   -8.1843082    217.83127  0.016996822  0.016874824            7 
 1069000    0.8408096   -8.2096353    217.40713  0.016947858  0.016861114            3 
 1070000   0.84940672     -8.14853    218.51858  0.017018581  0.016847573            2 
 1071000   0.83800324   -8.1713631    218.12297  0.016971908  0.016834012            3 
 1072000   0.83335864   -8.2198991    217.69314  0.016922663  0.016820369            2 
 1073000   0.82899001   -8.2047071    218.18723  0.016945265  0.016806734            4 
 1074000   0.81125206   -8.2040824    218.07766  0.016920985  0.016793098            2 
 1075000   0.82973451   -8.2331027    218.47594  0.016936119  0.016779514            2 
 1076000   0.83332956   -8.1849459    218.23879  0.016902013  0.016765967            3 
 1077000   0.82214282   -8.1725726    218.76313   0.01692689  0.016752451            3 
 1078000   0.82388621   -8.1623492    218.49427  0.016890404  0.016738932            2 
 1079000   0.82539504   -8.1547982    218.49162  0.016874546  0.016725364            1 
 1080000     0.811076   -8.1482439    218.45458  0.016856063  0.016711838            2 
 1081000   0.82020091   -8.2035869    218.10225  0.016813309  0.016698264            3 
 1082000   0.82177473   -8.1775323    218.70407  0.016844121  0.016684757            2 
 1083000   0.81439609   -8.1879649    218.39587  0.016804853  0.016671231            1 
 1084000   0.82572173   -8.1686653    218.47852  0.016795704  0.016657704            3 
 1085000    0.8292249   -8.2058417    218.81364  0.016805963  0.016644179            1 
 1086000   0.82416653   -8.1935363    218.90564  0.016797548  0.016630581            4 
 1087000   0.80974018   -8.1963677    218.63143  0.016761073  0.016617042            2 
 1088000   0.80257112   -8.1937656     218.2707  0.016718037  0.016603515            2 
 1089000   0.83062197   -8.2380628    218.49237  0.016719649  0.016589914            3 
 1090000   0.82645132   -8.2339575    218.84517  0.016731282  0.016576363            3 
 1091000   0.81672942   -8.2318555    218.37629  0.016680132  0.016562861            3 
 1092000   0.79895679    -8.267146    218.18643  0.016650368  0.016549305            2 
 1093000   0.81165253    -8.237413    218.32889  0.016645996  0.016535765            2 
 1094000   0.81710353   -8.2236112    218.28343  0.016627318  0.016522247            2 
 1095000   0.82576613   -8.2102344    219.08233  0.016672932  0.016508826            3 
 1096000   0.82421209   -8.2150637    219.12951  0.016661307  0.016495478            1 
 1097000   0.81396494   -8.1910345    218.95223  0.016632652  0.016482071            3 
 1098000    0.8217093   -8.1964868    219.66483  0.016671587  0.016468752            5 
 1099000   0.81926159   -8.1616682    219.66602  0.016656507  0.016455491            2 
 1100000   0.82678038   -8.2245407    219.17229  0.016603962  0.016442265           10 
 1101000   0.83332091   -8.2367976     218.8761  0.016566462  0.016428931            5 
 1102000   0.80541949   -8.2333168    219.44001  0.016594072  0.016415591            2 
 1103000    0.8205318    -8.227792    219.64646  0.016594625  0.016402201            2 
 1104000   0.82377442   -8.2183362    219.70276  0.016583844  0.016388871            2 
 1105000   0.82990324   -8.2440975    218.62652  0.016487671  0.016375522            1 
 1106000   0.81233793   -8.2040631     219.8483  0.016564821  0.016362205            2 
 1107000   0.80988868   -8.2170109    219.93614  0.016556469  0.016348908            3 
 1108000   0.82243599   -8.2179614    219.47985  0.016507209  0.016335641            1 
 1109000   0.80370616   -8.2439124     219.4787  0.016492238   0.01632232            2 
 1110000   0.82575888    -8.199594    219.83805  0.016504358  0.016309102            1 
 1111000   0.81289724   -8.2005556    220.09587  0.016508841   0.01629587            6 
 1112000   0.83120976    -8.221832    219.71171  0.016465206  0.016282647            8 
 1113000   0.78628276   -8.2405897    219.73395  0.016452078  0.016269337            4 
 1114000   0.80256533   -8.2327261    220.20985  0.016472909  0.016256046           10 
 1115000    0.8032468   -8.2582221    220.22974  0.016459622  0.016242771            4 
 1116000   0.81511259   -8.2228778    220.01679  0.016428972   0.01622946            6 
 1117000   0.79985893   -8.2712706    219.71506  0.016391753  0.016216149            4 
 1118000   0.83241343   -8.2528817    219.22418  0.016340503  0.016202793            3 
 1119000    0.7967428   -8.2949388    219.41006  0.016339742   0.01618942            8 
 1120000   0.80330144   -8.2711357    219.30535  0.016317362  0.016175993            3 
 1121000   0.80637501   -8.2806447    219.46137  0.016314405  0.016162602            2 
 1122000    0.8133963   -8.2794519    219.47574  0.016300932  0.016149161            2 
 1123000   0.80179564   -8.2328401    220.02756  0.016327364  0.016135764            2 
 1124000   0.80164891   -8.2900266    219.31859  0.016260275  0.016122362            1 
 1125000   0.81260031   -8.2875914    219.55618   0.01626342  0.016108996            3 
 1126000   0.81882742   -8.2336992     220.2004  0.016296654  0.016095634            4 
 1127000    0.8026177   -8.2820042    219.59486  0.016237419  0.016082359            2 
 1128000   0.81673414   -8.2486881    219.92814  0.016247647  0.016069073            2 
 1129000   0.82389849   -8.2675199    219.75991  0.016220838  0.016055716            4 
 1130000   0.81303611   -8.2882476    219.38848  0.016179091   0.01604234            3 
 1131000   0.81782228   -8.2641029    219.97306  0.016207859  0.016028881            1 
 1132000   0.78939861   -8.2741793    219.69125  0.016172795  0.016015465            5 
 1133000   0.78856074   -8.2782046    219.98187  0.016179896  0.016002067            4 
 1134000   0.80342535   -8.2709062    219.55371  0.016134165  0.015988589            1 
 1135000   0.80638111   -8.2644953    219.40789  0.016109243  0.015975157            3 
 1136000   0.79667115   -8.2751407    220.33249  0.016162888  0.015961701            2 
 1137000   0.79132718   -8.2993257    219.78914   0.01610885   0.01594827            4 
 1138000   0.79617829    -8.263545     220.0452  0.016113445  0.015934863            3 
 1139000   0.80793467   -8.2761342     220.0857  0.016102261  0.015921484            8 
 1140000   0.78080691   -8.2550618    220.25274  0.016100346  0.015908169            4 
 1141000    0.7983069   -8.2537315     220.0683  0.016072765  0.015894861            4 
 1142000   0.78842846   -8.2644509    220.20709  0.016068819  0.015881495            6 
 1143000   0.82432492   -8.2694268     219.5757  0.016008727  0.015868161            5 
 1144000   0.79093402   -8.2494581    220.38483  0.016053673  0.015854813            2 
 1145000   0.77303998   -8.2889546    220.36093  0.016037914  0.015841463            5 
 1146000   0.78981736   -8.2635593    220.02894  0.015999778  0.015828198            3 
 1147000   0.79338305    -8.310354    219.72109  0.015963462  0.015814867            1 
 1148000   0.78748583    -8.289273    219.95737  0.015966708  0.015801507            5 
 1149000   0.80687712   -8.2775187     219.9474  0.015952089  0.015788177            3 
 1150000   0.78493023   -8.2995561     219.9394  0.015937637  0.015774823            2 
 1151000    0.7740746   -8.2947796     219.9815  0.015926839  0.015761476            7 
 1152000    0.7949235   -8.2532314     220.8526  0.015976027  0.015748208            2 
 1153000    0.7904191   -8.2621582    220.53457  0.015939186  0.015734983            1 
 1154000   0.78969422   -8.2676875    220.42556  0.015917501  0.015721731            2 
 1155000   0.78607249    -8.302875     220.1054  0.015880621  0.015708448            3 
 1156000   0.79628642   -8.2690938    219.90048  0.015852111    0.0156951            1 
 1157000   0.79105548   -8.3014412    219.87203  0.015836361  0.015681771            5 
 1158000   0.78776664   -8.2830045    220.40478  0.015861023  0.015668506            1 
 1159000   0.78199232   -8.2962761    220.58498  0.015860294  0.015655274            1 
 1160000   0.79372445    -8.291228    220.42953  0.015835455  0.015642022            1 
 1161000   0.80526137   -8.2862672    220.79181  0.015847819  0.015628784            2 
 1162000   0.78256494   -8.2748612    220.37808  0.015804509  0.015615531            6 
 1163000   0.77538119   -8.3325777    220.36952  0.015790307  0.015602298            3 
 1164000    0.7912979   -8.2990281    220.83587  0.015810128  0.015589044            4 
 1165000   0.78879663   -8.3567712    220.62327  0.015781349  0.015575832            5 
 1166000   0.79188425   -8.3232353     220.2535  0.015741388  0.015562595            2 
 1167000   0.80199516   -8.3136716    220.32353    0.0157329  0.015549396            2 
 1168000   0.79300304   -8.3490796     220.4241  0.015726605  0.015536219            6 
 1169000   0.77928529   -8.2779751    220.66171  0.015730091   0.01552303            8 
 1170000   0.76897536   -8.3246444    220.61156  0.015713074  0.015509895            3 
 1171000    0.7811228   -8.3258731    220.36263  0.015681941  0.015496711            2 
 1172000   0.77936428   -8.3142707    220.29007  0.015663401   0.01548352            2 
 1173000   0.77986843   -8.3355856    220.33293  0.015653092  0.015470424            3 
 1174000   0.78830343   -8.2831543    221.33613  0.015710969  0.015457358            2 
 1175000   0.76645942   -8.3027789    220.97371  0.015671894  0.015444283            1 
 1176000   0.77906816   -8.3411242       220.28   0.01560941  0.015431107            1 
 1177000   0.76014073   -8.3268047    220.39881  0.015604561  0.015417879            2 
 1178000   0.80045212   -8.3398012    220.80303  0.015619909  0.015404668            3 
 1179000   0.78129913   -8.3479604    220.41998  0.015579586  0.015391403            4 
 1180000   0.77913951    -8.351505     219.9839  0.015535586   0.01537814            2 
 1181000   0.76269692   -8.3423219    220.04742  0.015526914  0.015364879            4 
 1182000   0.78593249   -8.3652598    220.40437  0.015538943  0.015351644            8 
 1183000   0.80082636   -8.3361462    220.41491   0.01552655  0.015338417            3 
 1184000    0.7898616   -8.3293202    220.65776   0.01553053  0.015325207            1 
 1185000   0.78273383   -8.3337615    221.00004  0.015541493  0.015312013            2 
 1186000   0.78152049    -8.358266    220.57837  0.015498761  0.015298858            5 
 1187000   0.78823518   -8.3729901    220.45701  0.015477184  0.015285698            2 
 1188000   0.76549466   -8.3290627    220.62969  0.015476269   0.01527253            4 
 1189000   0.79671074   -8.3504539     220.5647  0.015458697  0.015259329            4 
 1190000   0.77250951   -8.3305643     220.8768  0.015467563  0.015246121            3 
 1191000   0.77508897   -8.3465606    220.39942  0.015421174  0.015232974            3 
 1192000   0.77290073   -8.3070093    221.21998  0.015465603  0.015219882            2 
 1193000   0.78071461   -8.3309061    220.91299  0.015431195  0.015206801            5 
 1194000    0.7849439   -8.3180086    220.73947  0.015406161  0.015193761            7 
 1195000   0.78046426    -8.329832    221.38038  0.015437962  0.015180753            3 
 1196000   0.77424281   -8.3261491     220.9068  0.015392057  0.015167779            3 
 1197000   0.79275693   -8.3204309    221.21712  0.015400802  0.015154774            4 
 1198000   0.76187321   -8.3248427    221.01947  0.015374198  0.015141765            3 
 1199000    0.7864686   -8.3353406    220.96679  0.015357714   0.01512875            3 
 1200000     0.779313   -8.3503365    221.04115   0.01535008  0.015115786            5 
 1201000   0.76224985   -8.3059196    220.80058  0.015320606  0.015102765            1 
 1202000   0.79889217    -8.335543    221.55367  0.015360071  0.015089808            3 
 1203000   0.76623036   -8.3361349    221.45377  0.015340383  0.015076861            3 
 1204000    0.7720505   -8.3275779    220.97284  0.015294355  0.015063885            2 
 1205000   0.77340232   -8.3409703    221.18156  0.015296097  0.015050901            4 
 1206000     0.773166    -8.349293    221.03198  0.015273078  0.015037904            7 
 1207000   0.77807059   -8.3406676    220.99321  0.015257747  0.015024913            4 
 1208000    0.7732537   -8.3320124    220.63435  0.015220361   0.01501193            2 
 1209000   0.76391944   -8.3355547    221.44057  0.015263342  0.014998944            2 
 1210000   0.75488373   -8.3484713    221.22453  0.015235849   0.01498598            1 
 1211000   0.77119831    -8.366351     220.4037  0.015166784  0.014972964            3 
 1212000    0.7675406   -8.3358019    220.90153  0.015188499  0.014959971            4 
 1213000    0.7707491   -8.3553584    220.98166  0.015181483  0.014946962            5 
 1214000   0.76153424   -8.3392519    220.90975  0.015164041  0.014933965            4 
 1215000    0.7660805   -8.3380749    221.20792  0.015172011  0.014920994            2 
 1216000   0.78134747   -8.3623369    221.04122   0.01514811  0.014908075            1 
 1217000   0.76040322   -8.3625494    221.23848   0.01514917  0.014895132            4 
 1218000   0.75909043   -8.3787894    221.21573  0.015135176  0.014882194            3 
 1219000   0.78880409   -8.3549266    221.29232  0.015127995  0.014869284            3 
 1220000   0.77054699   -8.3591774    221.32006   0.01511749  0.014856319            7 
 1221000   0.75948223   -8.3495788    221.11507  0.015091119  0.014843356            2 
 1222000   0.73938847   -8.3600816    221.75221  0.015122218  0.014830383            3 
 1223000   0.75660129   -8.3693921    220.77294  0.015043127  0.014817371            2 
 1224000    0.7898631   -8.3597384    221.68798  0.015093136  0.014804399            6 
 1225000   0.73205553   -8.3844171    221.60338   0.01507506   0.01479147            1 
 1226000   0.76765708   -8.3785658     220.9407   0.01501772  0.014778596            3 
 1227000   0.76930717   -8.4125051    220.55412  0.014979226  0.014765648            2 
 1228000   0.76309172   -8.3772133    220.67554  0.014975267  0.014752709            3 
 1229000   0.76408007   -8.3780328    221.24915  0.015001976  0.014739775            3 
 1230000   0.76084994   -8.4054376    220.85749  0.014963245  0.014726907            2 
 1231000   0.78116489   -8.3779152    220.90403   0.01495424  0.014713995            3 
 1232000   0.77401369   -8.3992321    221.06654  0.014953094  0.014701138            3 
 1233000   0.75817551   -8.3833088     220.9034  0.014929941  0.014688216            2 
 1234000   0.76316368   -8.4036704    220.65646  0.014901165  0.014675254            3 
 1235000   0.75510201   -8.3796528    221.01811  0.014913503  0.014662344            2 
 1236000   0.75181726   -8.3902232    220.96242  0.014897682   0.01464946            4 
 1237000   0.76602002   -8.4174596    221.08135  0.014893651  0.014636561            3 
 1238000   0.76840185   -8.3879528    221.44427   0.01490605  0.014623698            2 
 1239000   0.76124027    -8.427902     221.1242  0.014872491  0.014610847            3 
 1240000   0.76733838   -8.3868728    221.19623  0.014865338  0.014598031            4 
 1241000   0.75403705   -8.3979521    221.71339  0.014888087   0.01458529            3 
 1242000   0.74489976   -8.3832597    222.00402    0.0148956  0.014572552            4 
 1243000   0.73236217   -8.3852865    221.56253  0.014854018  0.014559844            2 
 1244000    0.7488751   -8.4168519    221.06675  0.014808866   0.01454713            3 
 1245000   0.75055211   -8.4067056    221.19282   0.01480541  0.014534361            2 
 1246000   0.76439134   -8.4018745    221.37345  0.014805608  0.014521586            1 
 1247000    0.7555401   -8.3913002    221.87923  0.014827534   0.01450886            2 
 1248000    0.7561762   -8.3743269    221.99625  0.014823468  0.014496129            2 
 1249000   0.73683576   -8.4004931     221.1174  0.014752962    0.0144834            2 
 1250000   0.74476363   -8.4059562    221.49429  0.014766286  0.014470674            3 
 1251000   0.73249296   -8.4037632     221.7778  0.014773368  0.014457961            2 
 1252000   0.74734766   -8.4191107    221.23037  0.014725131  0.014445249            2 
 1253000   0.77796071   -8.4166037      221.545  0.014734304  0.014432519            1 
 1254000   0.75503605   -8.4082822    221.06719  0.014690802  0.014419804            6 
 1255000   0.74704731   -8.4049516    221.58023  0.014713163   0.01440707            2 
 1256000   0.76095979   -8.4351907    221.17134   0.01467432  0.014394375            6 
 1257000   0.74378769    -8.421661    221.89832  0.014710841   0.01438175            1 
 1258000   0.74427092   -8.4101825    221.65671  0.014683142   0.01436915            3 
 1259000   0.75072007   -8.4115299    221.80163  0.014681072  0.014356555            4 
 1260000   0.73801312   -8.4326357    221.37229  0.014641024  0.014343992            6 
 1261000   0.74608775   -8.4024225    221.64312  0.014647312  0.014331424            3 
 1262000   0.74783171   -8.4475113    221.49359  0.014625831  0.014318872            2 
 1263000   0.74291292    -8.415269    221.83296  0.014636643  0.014306297            3 
 1264000   0.73603181   -8.3845951     221.7928  0.014622415  0.014293763            5 
 1265000   0.74367306   -8.4156907    221.93523  0.014620239  0.014281256            2 
 1266000   0.75502538    -8.417366    221.61176  0.014587398  0.014268765            8 
 1267000   0.75496628   -8.4021729    221.85742  0.014592043  0.014256306            4 
 1268000   0.73098373   -8.4405826    221.80781  0.014577275   0.01424382            3 
 1269000   0.73373542   -8.4261235    222.23458  0.014593812  0.014231329            3 
 1270000   0.75783395   -8.4254954    221.96481   0.01456462  0.014218913            2 
 1271000   0.74541582   -8.4272195    222.13279  0.014564174  0.014206501            2 
 1272000   0.75132822   -8.4199538      222.138  0.014553066  0.014194084            3 
 1273000   0.72949421   -8.4428375    221.92554  0.014527726  0.014181676            1 
 1274000   0.73957098   -8.4462221    221.62497  0.014496662    0.0141693            3 
 1275000   0.72794744   -8.4578493    221.72633  0.014491917  0.014156879            4 
 1276000   0.75035671    -8.456637    221.77427   0.01448369  0.014144449            2 
 1277000   0.74947654   -8.4385441    221.99636  0.014486842   0.01413202            5 
 1278000   0.72564474   -8.4331104    221.92513  0.014470861  0.014119597            2 
 1279000   0.74330901   -8.4472815    222.17171  0.014475613  0.014107204            4 
 1280000   0.74044029   -8.4487034     222.0481  0.014456257  0.014094833            3 
 1281000   0.74120844   -8.4482453    222.08426  0.014447324  0.014082498            1 
 1282000   0.73272775   -8.4229385     222.1797  0.014442258  0.014070204            2 
 1283000   0.74673278   -8.4257038    221.99201   0.01441881  0.014057953            1 
 1284000   0.75330948   -8.4342271    222.21294   0.01442192   0.01404571            2 
 1285000   0.75421148   -8.4053307    222.33571  0.014418658  0.014033447            9 
 1286000   0.75274045   -8.4387491    222.41284  0.014412444  0.014021225            3 
 1287000   0.74518488   -8.4349746    221.91291  0.014368875  0.014008952            4 
 1288000   0.74053315   -8.4306153    221.85391  0.014353902   0.01399665            4 
 1289000   0.74175198   -8.4460612    222.32657  0.014373324  0.013984345            4 
 1290000   0.74381418   -8.4404634    222.06217  0.014345101  0.013971989            6 
 1291000   0.74371697   -8.4354412    221.76605  0.014314876  0.013959686            2 
 1292000   0.72573468   -8.4197122    221.90384  0.014312683  0.013947359            2 
 1293000   0.76024893   -8.4111558    221.76142  0.014292435   0.01393511            2 
 1294000   0.74033332   -8.4443463    221.80126  0.014283956  0.013922853            3 
 1295000   0.74038965   -8.4200572    222.12123  0.014293516  0.013910619            9 
 1296000   0.73410537    -8.448119    221.86622  0.014266089  0.013898364            5 
 1297000   0.72824957   -8.4641187    221.84967  0.014254026   0.01388608            3 
 1298000   0.73185357   -8.4339248    221.90787  0.014246782  0.013873831            2 
 1299000   0.72895901   -8.4402437    222.16147  0.014252083  0.013861645            2 
 1300000   0.75602379   -8.4678348    221.73595  0.014213843  0.013849378            2 
 1301000   0.72111203   -8.4615223    221.98974  0.014219174  0.013837126            3 
 1302000   0.73570318   -8.4598625    221.53229  0.014178974  0.013824876            2 
 1303000   0.73253549   -8.4576708    221.48354  0.014164974  0.013812591            2 
 1304000   0.73953773   -8.4616409    221.45923  0.014152558   0.01380036            3 
 1305000   0.73418513   -8.4696748    222.10007  0.014182636  0.013788161            3 
 1306000   0.74399483   -8.4654699    222.19545  0.014177862  0.013775989            3 
 1307000   0.72766222   -8.4850824    221.61178    0.0141298  0.013763753            3 
 1308000   0.73993952   -8.4597746    221.65798  0.014121941  0.013751558            5 
 1309000   0.74123419   -8.4665205    222.30437  0.014152303  0.013739389            6 
 1310000   0.72798836   -8.4581967    221.86766  0.014113719  0.013727174            4 
 1311000   0.73073681   -8.5069965    222.18197  0.014122933  0.013714975            4 
 1312000   0.72801841   -8.4883794     221.7248   0.01408313  0.013702736            3 
 1313000   0.72468678   -8.4706549    222.17971  0.014101276   0.01369055            2 
 1314000   0.73285759   -8.4804401    221.92407  0.014074332  0.013678363            5 
 1315000   0.72260747   -8.5017466    221.98526  0.014067507  0.013666202            5 
 1316000   0.73629081   -8.4639609     221.8196  0.014046328  0.013654023            2 
 1317000   0.71685476   -8.4891669    221.95242  0.014044066  0.013641819            5 
 1318000   0.72264387   -8.5068291    221.13192  0.013981533  0.013629642            2 
 1319000   0.73058078   -8.5039825    222.03724   0.01402813  0.013617471            4 
 1320000   0.72018517   -8.4954232     221.3695  0.013975347  0.013605292            6 
 1321000   0.72954595   -8.5099216    221.51523  0.013973961  0.013593131            2 
 1322000   0.71765532   -8.4721048    222.06442   0.01399801  0.013580972            3 
 1323000   0.70663977   -8.4694147    222.13602  0.013991939  0.013568831            5 
 1324000   0.72620069   -8.4839151    221.90828  0.013967037  0.013556728            4 
 1325000   0.73046648   -8.4778283    222.07407  0.013966922  0.013544622            5 
 1326000   0.73486223   -8.4828518    221.75405  0.013936278  0.013532509            7 
 1327000   0.72051843    -8.487931    221.67785  0.013920991   0.01352038            4 
 1328000    0.7162291   -8.4936141    221.84757  0.013921158  0.013508296            7 
 1329000   0.74149925   -8.5050755    221.66739  0.013899385  0.013496203            8 
 1330000   0.73390156    -8.512112    221.93565  0.013905743  0.013484099            6 
 1331000    0.7161448   -8.4811316    222.18419  0.013910856  0.013472073            3 
 1332000   0.71456028   -8.4857827     222.4246  0.013915453  0.013460043            3 
 1333000   0.73107581   -8.5110592     221.6181  0.013854595  0.013447994            2 
 1334000   0.72425312   -8.5320748    221.58089  0.013841885  0.013435967            2 
 1335000   0.72481279   -8.5093934    221.68852  0.013838235  0.013423929            5 
 1336000   0.72068359   -8.5220358    221.85136  0.013838034  0.013411874            5 
 1337000   0.72206665   -8.5451384     222.0233  0.013838401  0.013399899            7 
 1338000   0.71430143   -8.5061967    222.02487  0.013828156  0.013387927            3 
 1339000   0.72748646   -8.5037406    221.91776  0.013811162  0.013375939            9 
 1340000   0.71215032   -8.5215007    221.86569  0.013797617  0.013363944            7 
 1341000   0.70995698     -8.52209     221.4205  0.013759663  0.013351907            4 
 1342000   0.71937084    -8.523406    221.51183  0.013755081  0.013339891            6 
 1343000   0.69202799    -8.539823    221.51401  0.013744974  0.013327865            2 
 1344000   0.73662026    -8.518084    221.54971  0.013736961  0.013315889            3 
 1345000   0.73262279   -8.4994479    222.00142  0.013754735   0.01330392            4 
 1346000   0.72012627   -8.5076266    221.71795  0.013726966  0.013291973            1 
 1347000   0.72234119   -8.5059356    221.88736  0.013727256  0.013280052            4 
 1348000   0.72781296   -8.5036758    222.09695  0.013730029  0.013268135            5 
 1349000    0.7096811   -8.5046879     221.8616  0.013705312  0.013256221            1 
 1350000   0.71359739   -8.5226308    221.72634  0.013686811  0.013244343            2 
 1351000   0.72670488   -8.5085701    222.34302  0.013714718  0.013232476            3 
 1352000   0.70044692   -8.5351106    222.15739  0.013693133  0.013220588            6 
 1353000   0.70845967   -8.5018933    221.70035  0.013654863  0.013208734            3 
 1354000   0.71484045   -8.5093616    221.70425  0.013645018  0.013196913            2 
 1355000   0.71295961   -8.5464721    221.30734  0.013610538  0.013185062            2 
 1356000    0.7065556   -8.5080953    221.76963   0.01362891  0.013173225            2 
 1357000   0.70051611   -8.5239922    222.03246  0.013635008   0.01316138            5 
 1358000   0.71804849   -8.5424971    221.85879   0.01361431  0.013149535            6 
 1359000   0.70297861   -8.4883409    222.02133  0.013614259  0.013137729            3 
 1360000   0.71998974   -8.5221741    221.69543  0.013584279  0.013125918            4 
 1361000    0.7127989   -8.5195768    221.66606  0.013572499  0.013114126            6 
 1362000   0.72338555   -8.5102773    222.09832  0.013588982  0.013102339            2 
 1363000   0.69971389   -8.5214521    221.56868   0.01354663  0.013090552            2 
 1364000   0.72707444   -8.5307967    221.73837  0.013547066  0.013078767            3 
 1365000   0.71111007   -8.5256484    221.82972  0.013542718  0.013067002            2 
 1366000   0.70349827   -8.5342521    221.63344   0.01352083  0.013055285            3 
 1367000   0.70024575   -8.5388524    221.73438  0.013517092  0.013043551            2 
 1368000   0.70283537   -8.5102201    221.81801  0.013512306  0.013031838            3 
 1369000   0.71666496   -8.5156162    222.01315  0.013514314  0.013020132            4 
 1370000   0.71374791    -8.515015    222.11266  0.013510502  0.013008455            6 
 1371000   0.71941805   -8.5344978    221.87658  0.013486299  0.012996796            4 
 1372000   0.70539878   -8.4964986    221.95897  0.013481473  0.012985173            8 
 1373000   0.70472366   -8.4977298    222.34169  0.013494883  0.012973554            4 
 1374000   0.69548421   -8.5280713    221.87663  0.013456856   0.01296192           11 
 1375000    0.7104722   -8.5392938      222.153  0.013463818  0.012950313            1 
 1376000   0.70006169   -8.5589357    221.56106  0.013418184  0.012938697            9 
 1377000    0.7116561   -8.5213914    221.65089  0.013413876  0.012927058            9 
 1378000   0.70897259    -8.533874    221.92095  0.013420474  0.012915413           10 
 1379000   0.71443761   -8.5268367    221.74912  0.013400358  0.012903773           12 
 1380000   0.70886857   -8.5435927    222.11258  0.013412595  0.012892184            8 
 1381000   0.70466128   -8.5382626    222.19051  0.013407586  0.012880598            5 
 1382000   0.69273742   -8.5475868    222.25081   0.01340152  0.012869026           10 
 1383000   0.69198438   -8.5409353    222.01345  0.013377528  0.012857482            1 
 1384000   0.70542967   -8.5377783    222.23012  0.013380908   0.01284594            2 
 1385000   0.69095526   -8.5438902    222.22834   0.01337114  0.012834418            1 
 1386000   0.69850918   -8.5304446    222.20864  0.013360308  0.012822908            4 
 1387000   0.71179617   -8.5489307    221.96006   0.01333574   0.01281141            1 
 1388000   0.69484489   -8.5501031    222.01171  0.013329233  0.012799923            3 
 1389000   0.69992979   -8.5301534    222.49405  0.013348575  0.012788431            2 
 1390000    0.6987733   -8.5185566     222.0617  0.013313051  0.012776957            4 
 1391000   0.71657411   -8.5390907    222.32749  0.013319404  0.012765487            4 
 1392000   0.69354592   -8.5530768    222.00169  0.013290331  0.012754062            4 
 1393000   0.70143464   -8.5387729    221.76449    0.0132666  0.012742631           14 
 1394000   0.69483402   -8.5385043     221.9378  0.013267444  0.012731237            5 
 1395000   0.69412868   -8.5501321    221.92376  0.013257094  0.012719826           18 
 1396000   0.69117569   -8.5435669     222.2147  0.013264965  0.012708466           20 
 1397000   0.70080214   -8.5404127    222.00368  0.013242882  0.012697092            4 
 1398000   0.69565974   -8.5511362    222.05017  0.013236181  0.012685719            5 
 1399000   0.71201047   -8.5759327    222.07358  0.013228114  0.012674341            2 
 1400000   0.68772126   -8.5527794    221.81558  0.013203308  0.012662942            4 
 1401000   0.70272668   -8.5479364    222.30673  0.013223099  0.012651558            6 
 1402000   0.69976298   -8.5656528    221.69295  0.013177185  0.012640171            2 
 1403000   0.69842437   -8.5512034    222.23536   0.01320001  0.012628818            6 
 1404000   0.70535054   -8.5480517    222.14172   0.01318505  0.012617509           11 
 1405000   0.68144775   -8.5721224    222.40374  0.013191207  0.012606183            2 
 1406000   0.70446028    -8.559024    222.28967  0.013175063  0.012594877            4 
 1407000   0.68996875   -8.5732668    221.63627     0.013127  0.012583578            4 
 1408000   0.69885951   -8.5676782    222.17676  0.013149666  0.012572285           13 
 1409000   0.69192911   -8.5786975    222.01307  0.013130652  0.012561011            3 
 1410000   0.70207124   -8.5591719    221.99458  0.013120247   0.01254977            4 
 1411000   0.69158933    -8.564437    222.05584  0.013114567   0.01253853            6 
 1412000   0.69541244   -8.5629152    222.53694  0.013133672  0.012527288            6 
 1413000   0.70079597   -8.5782465     222.0912  0.013098089  0.012516072            8 
 1414000   0.68677528    -8.571282    222.26046  0.013098801   0.01250486            4 
 1415000     0.695647   -8.5874945    222.01259  0.013074946  0.012493651            2 
 1416000   0.70387538   -8.5783717    222.67505  0.013104699  0.012482472            7 
 1417000     0.699029   -8.5539856    222.33817  0.013075639  0.012471314            4 
 1418000   0.68490279   -8.5730438    222.03963  0.013048873  0.012460136            5 
 1419000   0.66427543   -8.6047605    221.97707  0.013036004  0.012448949            3 
 1420000   0.67956493   -8.5916801    222.52975  0.013059258  0.012437772            7 
 1421000   0.69716869   -8.5731862    221.88258  0.013012115  0.012426613            5 
 1422000   0.69196984   -8.5891398    221.61394  0.012987221  0.012415443            3 
 1423000   0.68212584   -8.5866986     222.6068  0.013036238  0.012404276            4 
 1424000   0.67995274    -8.601484    222.02791  0.012993206  0.012393147            8 
 1425000   0.69324873   -8.5903388     222.0284  0.012984117  0.012382028            3 
 1426000   0.67622127   -8.5803469    222.22266  0.012986364  0.012370959            4 
 1427000    0.6779513   -8.5901147    222.06324  0.012967954  0.012359875            6 
 1428000   0.68434531   -8.5860917    222.16156   0.01296461  0.012348807            8 
 1429000   0.67889495   -8.5903481     222.2848  0.012962724  0.012337759            6 
 1430000   0.68594841   -8.6081131    222.48188  0.012965144  0.012326722            4 
 1431000   0.67862155   -8.6147311    221.81785  0.012917415  0.012315671            5 
 1432000    0.6932212   -8.5749742    222.22573   0.01293213  0.012304635            3 
 1433000   0.68540099   -8.6085886    221.99688  0.012909797  0.012293616            4 
 1434000   0.67433749   -8.6014932    221.90868  0.012895669  0.012282601            5 
 1435000   0.67649565    -8.580952    221.85141  0.012883357  0.012271597            3 
 1436000   0.68338117   -8.6044335    222.23985  0.012896927  0.012260623            6 
 1437000   0.67901459   -8.5972643    222.26395   0.01288935  0.012249637            4 
 1438000   0.67017953   -8.6073547    221.86358  0.012857185  0.012238671            4 
 1439000   0.68770631   -8.6242308     222.2323  0.012869602  0.012227715            4 
 1440000   0.68581998   -8.6191078    221.83807  0.012837851  0.012216794            2 
 1441000   0.67416001   -8.6323931    222.27274  0.012854079  0.012205854            4 
 1442000   0.67405718   -8.5841296    222.45609  0.012855761  0.012194924            3 
 1443000   0.69136748   -8.6056997     222.1895  0.012831456  0.012184004            3 
 1444000   0.66814426   -8.6215927    222.67269  0.012850455    0.0121731            3 
 1445000   0.66840323   -8.6081306    222.38937  0.012825223  0.012162211            3 
 1446000   0.67381801   -8.6056819    222.17057  0.012803744  0.012151302            4 
 1447000   0.65469397   -8.6023878    221.66816  0.012765962  0.012140394            6 
 1448000   0.65610019   -8.6240871    221.89799  0.012770373  0.012129525            1 
 1449000   0.67592716   -8.6142254    222.52681  0.012797723  0.012118653            2 
 1450000   0.67438948    -8.613937    221.89287  0.012752464  0.012107806            3 
 1451000   0.67352711   -8.6398098    221.96248  0.012747673  0.012096955            3 
 1452000    0.6608584   -8.6048711     222.4904  0.012769192  0.012086117            7 
 1453000    0.6650586   -8.6297932    221.99024  0.012731718  0.012075294            3 
 1454000    0.6773095   -8.6107417    222.56787  0.012756068  0.012064496            5 
 1455000    0.6668027   -8.6326843    222.33384  0.012733897  0.012053711            2 
 1456000   0.68505077   -8.6249623    222.09544  0.012711506  0.012042951            6 
 1457000   0.67361277   -8.6214838    222.06243  0.012700894  0.012032198            9 
 1458000   0.67557303   -8.5902175    221.62815  0.012667361  0.012021443            6 
 1459000   0.68593933   -8.6164461    222.62947  0.012715871  0.012010694            5 
 1460000   0.69113458   -8.6050803    221.90716  0.012665934  0.011999953            4 
 1461000   0.66176566   -8.6277454    222.15693  0.012671511  0.011989227            8 
 1462000   0.65940376   -8.6396154    221.74362  0.012639285  0.011978514            6 
 1463000    0.6629098   -8.6324247    221.89022  0.012638996  0.011967771            9 
 1464000   0.66868377   -8.6356263    221.82585  0.012626699  0.011957037           11 
 1465000   0.66836946   -8.6405155    222.38947  0.012650141   0.01194633            5 
 1466000   0.66922212   -8.6468864    222.40373  0.012642322  0.011935615           11 
 1467000    0.6640218    -8.619664    222.31286  0.012628543  0.011924931           12 
 1468000   0.67311489   -8.6103659    222.73009  0.012643625  0.011914283            7 
 1469000   0.66599584   -8.6385378    222.56288  0.012625532  0.011903612            4 
 1470000   0.66821172   -8.6536227    221.94538  0.012581938  0.011892952            8 
 1471000   0.66547439    -8.629571    222.25172  0.012590739   0.01188229            5 
 1472000   0.66507686   -8.6325365    221.94813  0.012564998  0.011871653            2 
 1473000   0.67437641   -8.6411566     221.6916  0.012541955  0.011861018            2 
 1474000   0.66571697   -8.6243258    221.75458  0.012537007  0.011850358            6 
 1475000   0.67713996    -8.623631    222.08946  0.012547427  0.011839738            6 
 1476000   0.68772339   -8.6619606    221.97526  0.012532478  0.011829107            3 
 1477000    0.6695846   -8.6565558    221.88738  0.012519035  0.011818486            3 
 1478000   0.66558434   -8.6515291    221.70717  0.012500404  0.011807856            3 
 1479000   0.66474923   -8.6530636    222.12886  0.012515712  0.011797223            3 
 1480000   0.65653253   -8.6614653    221.88565  0.012493561  0.011786636            2 
 1481000   0.66853628   -8.6488236    221.68792  0.012473999  0.011776027            4 
 1482000   0.67758284   -8.6584633    221.73532  0.012468248  0.011765437            4 
 1483000   0.65714894   -8.6564548    221.37638  0.012439671   0.01175485            3 
 1484000    0.6610388   -8.6565111    221.87362  0.012459211   0.01174428            5 
 1485000   0.65731703   -8.6436774    221.87387  0.012450834  0.011733711            6 
 1486000   0.67451632   -8.6602726    221.91841  0.012444954  0.011723156            6 
 1487000   0.65885269   -8.6607083    221.94458  0.012438051  0.011712596            6 
 1488000   0.65676898   -8.6472158    221.54155  0.012407121  0.011702039            5 
 1489000   0.66142861   -8.6769698    221.77522  0.012411866  0.011691512            8 
 1490000   0.66851389   -8.6674877    221.21856  0.012372403   0.01168097            9 
 1491000   0.65590135   -8.6518118    222.06957  0.012411668  0.011670467            6 
 1492000   0.66090926   -8.6496415    222.18032  0.012409535  0.011659971            8 
 1493000   0.66945126   -8.6695462    221.86215  0.012383464  0.011649496            4 
 1494000   0.65946573   -8.6563311    222.26537  0.012397667  0.011639031            5 
 1495000   0.66571803    -8.662989    221.39686  0.012340962   0.01162856            7 
 1496000   0.65407961   -8.6813784    222.00748  0.012366727  0.011618123            5 
 1497000   0.67673496   -8.6352902    221.99451  0.012357744  0.011607698            5 
 1498000    0.6377457   -8.6660444    221.55644  0.012325124  0.011597302            4 
 1499000   0.64814567    -8.673259    221.66081  0.012322705  0.011586895            3 
 1500000   0.65460705   -8.6572929    221.77142  0.012320634  0.011576491            4 
 1501000    0.6594346   -8.6703077    221.76564  0.012312105  0.011566087            3 
 1502000   0.64896175   -8.6638364    221.69449  0.012299961  0.011555709            5 
 1503000   0.66286151   -8.6680666    221.57786  0.012285311  0.011545327            3 
 1504000   0.65192583   -8.6817178    221.50478  0.012273093  0.011534972            3 
 1505000   0.64592821    -8.655188    221.49457  0.012264373  0.011524623            5 
 1506000   0.66153463   -8.6692541    222.11277  0.012290436  0.011514299            5 
 1507000   0.65018435   -8.6739341    222.10869  0.012282056  0.011503982            5 
 1508000   0.64635771   -8.6765535     221.6795  0.012250193  0.011493673            8 
 1509000   0.64726897   -8.6623111    221.59017  0.012237142   0.01148337            5 
 1510000   0.65459278   -8.6670594    221.45756   0.01222172  0.011473068            3 
 1511000   0.65154004   -8.6877932     221.8728  0.012236532  0.011462772            4 
 1512000   0.64577343   -8.6795821    221.43713  0.012204427    0.0114525            6 
 1513000   0.65987583   -8.6594115    221.51857  0.012200847  0.011442223            6 
 1514000   0.64433098   -8.6788247    221.49723  0.012191613  0.011431952            2 
 1515000   0.63055531   -8.6643943    221.96728  0.012209421  0.011421675            8 
 1516000   0.62970294   -8.6500773    221.91513  0.012198501  0.011411402            3 
 1517000   0.64991277    -8.661908    222.00624  0.012195465   0.01140115            4 
 1518000   0.64049191    -8.695684     221.9356  0.012183553  0.011390911            5 
 1519000    0.6454308   -8.6689141    221.56846  0.012155391  0.011380683            3 
 1520000   0.63894372   -8.6939094    221.59195  0.012148681  0.011370467            2 
 1521000   0.63936048   -8.6746634     221.2295  0.012120836  0.011360254           11 
 1522000    0.6415664   -8.6925333    221.71561  0.012139488  0.011350067            3 
 1523000   0.65304753   -8.6743693    221.78394  0.012135256  0.011339905            2 
 1524000   0.65791607   -8.6736004    221.55048  0.012114528  0.011329755            3 
 1525000    0.6471902   -8.6821315    221.59073  0.012108783   0.01131959            4 
 1526000   0.64685982   -8.6881246    221.66144  0.012104709  0.011309433            7 
 1527000   0.64173271   -8.7026784    221.60345  0.012093617  0.011299295            3 
 1528000   0.66297683   -8.6926356    221.56501  0.012083606  0.011289146            7 
 1529000   0.63249368   -8.6951332    221.60241  0.012077742  0.011279007            4 
 1530000   0.64460462   -8.6746488    221.38508  0.012058011  0.011268888            5 
 1531000   0.63566636   -8.6748593    221.80288  0.012072876   0.01125878            3 
 1532000    0.6333451   -8.6796668    221.49191   0.01204808  0.011248667            8 
 1533000   0.63938941   -8.6722227    221.87948  0.012061289  0.011238583            5 
 1534000   0.63585616   -8.6995273    221.41753  0.012028332  0.011228505            2 
 1535000    0.6484407   -8.7022233    221.54111  0.012027204  0.011218419            4 
 1536000   0.63572116   -8.7035302    221.41956   0.01201278  0.011208349            5 
 1537000   0.63251609   -8.6869869    221.99238  0.012036021  0.011198278            5 
 1538000   0.63451471   -8.7120274    221.44879  0.011998743  0.011188231            3 
 1539000     0.641781   -8.6998583    221.41389  0.011989056  0.011178199            6 
 1540000   0.63255628   -8.7042839    221.39862  0.011980445  0.011168159            5 
 1541000   0.63913859   -8.7084439    221.31934  0.011968383  0.011158127            3 
 1542000   0.63545257   -8.6955354    221.46046  0.011968248  0.011148103            3 
 1543000   0.63514568   -8.7066744    221.58501  0.011967218  0.011138081            5 
 1544000   0.62932645   -8.6827143    221.87397  0.011975063  0.011128072            4 
 1545000    0.6383303   -8.6978385    221.94174  0.011970967  0.011118078            2 
 1546000   0.62122159    -8.693195    221.23433  0.011925093  0.011108099            7 
 1547000   0.63281798   -8.7076253    221.78813  0.011947217  0.011098134            5 
 1548000   0.63612912   -8.6913881    221.40951  0.011919117  0.011088168            6 
 1549000   0.63569916    -8.713884    221.66985  0.011925427  0.011078206            7 
 1550000   0.62245133   -8.7246779     221.3667  0.011901435  0.011068251            4 
 1551000   0.63577064    -8.696332    221.20358  0.011884998  0.011058301            5 
 1552000   0.64034763   -8.7020034     221.1663  0.011875338   0.01104838            9 
 1553000   0.64190093   -8.7201442    221.24212   0.01187176  0.011038454            7 
 1554000   0.63429693   -8.7331117    221.25173  0.011864636  0.011028547            6 
 1555000   0.62570814   -8.6895174    221.66434  0.011879118  0.011018639            7 
 1556000   0.62669762   -8.7054409    221.75369  0.011876269  0.011008753            6 
 1557000   0.62864884   -8.7249089    221.26594  0.011842536  0.010998865            8 
 1558000   0.62358075   -8.7385277    221.34823  0.011839336  0.010988968           15 
 1559000   0.64742105   -8.7260766    221.32933  0.011830732  0.010979084           14 
 1560000   0.63378206   -8.7126196      221.832      0.01185  0.010969222            6 
 1561000   0.62220009   -8.7315046     221.3771  0.011818124   0.01095937            9 
 1562000   0.62784943   -8.7136152    221.37819  0.011810616  0.010949526            5 
 1563000   0.63988186   -8.7354271    221.60022  0.011814898  0.010939694            8 
 1564000   0.61846998   -8.7281784    221.43621  0.011798605  0.010929859            6 
 1565000   0.63349654   -8.7311698    221.33433   0.01178564  0.010920023            7 
 1566000   0.63445376   -8.7200589    221.45676   0.01178463  0.010910215            6 
 1567000   0.63137013   -8.7440443    220.92311   0.01174873  0.010900417            2 
 1568000   0.63503935   -8.7333477    221.09961  0.011750617  0.010890617            6 
 1569000   0.62450837   -8.7227146    221.39764  0.011758957  0.010880831            5 
 1570000   0.62903556   -8.7488548    221.33821  0.011748312  0.010871047            9 
 1571000   0.62154645   -8.7449397    221.29644  0.011738619  0.010861282           10 
 1572000   0.62028578   -8.7256169    221.44002  0.011738763  0.010851502           12 
 1573000   0.62306367   -8.7462039    221.09698  0.011713127  0.010841755            8 
 1574000     0.625147   -8.7510348    221.41097  0.011722309  0.010832024            4 
 1575000   0.61770558   -8.7293321    221.29517  0.011708739  0.010822275            3 
 1576000   0.63940463   -8.7279624    221.46497  0.011710288  0.010812572            3 
 1577000   0.62405308   -8.7271857    221.15859  0.011686673  0.010802871           10 
 1578000   0.62073284   -8.7622821    220.89549  0.011665373  0.010793174            5 
 1579000   0.62195088   -8.7527999    220.90869  0.011658681  0.010783481            5 
 1580000   0.62906972   -8.7500908    220.93271  0.011652569  0.010773786            7 
 1581000    0.6153655   -8.7648421    221.12755  0.011655469  0.010764089            8 
 1582000   0.62483527   -8.7635341    221.57138   0.01167148  0.010754415            3 
 1583000   0.62572223    -8.747749    221.22781  0.011646021  0.010744753            3 
 1584000   0.62082832    -8.726589     221.0725  0.011630497  0.010735092            4 
 1585000   0.61994379   -8.7669512    221.01463  0.011620117  0.010725445            8 
 1586000   0.61753647   -8.7532332    221.37459  0.011631704  0.010715823            3 
 1587000   0.60802627   -8.7532161    220.56009  0.011581605    0.0107062            2 
 1588000   0.61471066   -8.7553191    221.22619  0.011609267  0.010696589            4 
 1589000   0.62086685    -8.749447    221.18408  0.011599752  0.010686984            5 
 1590000   0.60319429   -8.7431403    220.95289   0.01158034    0.0106774            5 
 1591000   0.62792608   -8.7693389    221.02464  0.011576819  0.010667822            7 
 1592000   0.62874463   -8.7646513    220.97874  0.011567145  0.010658263            5 
 1593000   0.62669196   -8.7594308    221.12437  0.011567502  0.010648715            1 
 1594000   0.60870071   -8.7679777    221.08513  0.011558194  0.010639165            4 
 1595000   0.62732591   -8.7570834    220.98706  0.011545824  0.010629622            4 
 1596000   0.62424934    -8.752219    221.13322  0.011546221  0.010620086            2 
 1597000   0.62322251   -8.7585563    220.72026  0.011517442  0.010610567            2 
 1598000   0.61511872   -8.7541747    221.53886  0.011552924   0.01060106            6 
 1599000   0.61945336   -8.7434597    220.75441  0.011504816  0.010591543            2 
 1600000   0.62106635   -8.7581785    220.89312   0.01150485  0.010582032            2 
 1601000   0.61407884   -8.7634476    220.74344  0.011489873  0.010572544            4 
 1602000   0.62194379    -8.751934    221.16989  0.011504884  0.010563066            2 
 1603000   0.61619123   -8.7298632    221.46103  0.011512842  0.010553597            6 
 1604000   0.62276501   -8.7678051    221.21095  0.011492672  0.010544132            3 
 1605000   0.60275608   -8.7599554    220.92093  0.011470453  0.010534684            2 
 1606000   0.61444202   -8.7536815    220.94978  0.011464808   0.01052524            4 
 1607000   0.63184254   -8.7636994    221.10829  0.011465893  0.010515804            3 
 1608000   0.61663684   -8.7721411    220.68477  0.011436815  0.010506366            4 
 1609000   0.60915101   -8.7740928    220.91673   0.01144172  0.010496953            5 
 1610000   0.60444202   -8.7657972    221.01457  0.011439677   0.01048754            3 
 1611000   0.62457238   -8.7517641    221.08911  0.011436433   0.01047814            7 
 1612000   0.60795884     -8.74723     220.8232  0.011415591  0.010468753            4 
 1613000   0.61062009   -8.7749257    221.37822  0.011437189  0.010459375            3 
 1614000   0.60416084    -8.768409     220.6731  0.011393696  0.010449995            1 
 1615000   0.60769527   -8.7485527     220.6302  0.011384427  0.010440641            2 
 1616000   0.61010958   -8.7708655    221.16805  0.011405118  0.010431302            2 
 1617000   0.61084628   -8.7516527    221.09306    0.0113942  0.010421961            3 
 1618000   0.61583957   -8.7634738    220.92447  0.011378475   0.01041264            7 
 1619000   0.60744453   -8.7813046    220.78898  0.011364473  0.010403338            2 
 1620000   0.61180119   -8.7675486    221.15069  0.011376064  0.010394046            3 
 1621000   0.61521165   -8.7524609    220.78616  0.011350306  0.010384748            2 
 1622000   0.60918916    -8.752407    221.22087  0.011365643  0.010375463            2 
 1623000   0.59942228   -8.7669447    220.48068  0.011320635  0.010366191            2 
 1624000   0.62337176   -8.7849884    220.78422   0.01132924  0.010356938            3 
 1625000   0.60363738   -8.7659244    220.90733  0.011328581  0.010347666            4 
 1626000   0.60401093   -8.7628759    220.73444  0.011312753  0.010338414            3 
 1627000   0.59311492   -8.8054405     220.5515   0.01129643  0.010329158            6 
 1628000   0.61437047   -8.7834028    221.09763  0.011317446  0.010319915            3 
 1629000   0.61323465   -8.7808672     221.1093  0.011311096  0.010310682            3 
 1630000    0.6142469    -8.771812    220.98006  0.011297549   0.01030146            2 
 1631000   0.60361058   -8.7611366    220.91761  0.011287431  0.010292245            4 
 1632000   0.61838581   -8.7924727    221.07498  0.011288551  0.010283037            5 
 1633000    0.5946122   -8.7858995    220.85452  0.011270388  0.010273836            4 
 1634000   0.59807169   -8.7683883    220.83029  0.011262255  0.010264653           10 
 1635000   0.60723437    -8.774267     221.0036    0.0112642  0.010255476            5 
 1636000   0.60402033   -8.7720205    220.34063  0.011223545  0.010246312            2 
 1637000   0.60397637   -8.7884357    221.19241  0.011260049  0.010237156            5 
 1638000   0.60753539   -8.7825434    221.15372  0.011251207  0.010228007            4 
 1639000   0.59527335    -8.793605      220.687  0.011220612  0.010218876            4 
 1640000   0.58591114   -8.7882106    220.60407  0.011209556   0.01020975            6 
 1641000   0.59167897   -8.7781912    221.05115  0.011225429  0.010200624            9 
 1642000   0.59235026   -8.8077001    220.50004  0.011190623  0.010191509            3 
 1643000   0.59456078   -8.7868199    220.66248  0.011192051  0.010182404            6 
 1644000   0.58668145    -8.785305    220.95703  0.011200174  0.010173314            2 
 1645000   0.59408933   -8.7980077    220.49862  0.011170143  0.010164224            2 
 1646000   0.59878557   -8.7977215     220.9555  0.011186488  0.010155159            9 
 1647000   0.60378968   -8.7754929    220.78137  0.011170885  0.010146108            8 
 1648000   0.60691901   -8.8099617    220.80319   0.01116521  0.010137063           12 
 1649000   0.59397192   -8.7988371    221.10702  0.011173793  0.010128008           10 
 1650000   0.60170385   -8.7985908    220.63787  0.011143327  0.010118965           11 
 1651000   0.60035652   -8.8015036    220.61692   0.01113552  0.010109943            3 
 1652000   0.59981126   -8.7922977    220.66886  0.011131399  0.010100925            2 
 1653000    0.5807371   -8.7899945    220.55313  0.011118831  0.010091929            7 
 1654000    0.5797274   -8.7967837    220.19333  0.011093981  0.010082927            2 
 1655000   0.59275218   -8.7923236    220.55647  0.011105563  0.010073923            2 
 1656000   0.60523787    -8.794176    220.42125  0.011092052   0.01006494            5 
 1657000   0.60281846   -8.8111613    220.21531  0.011075001  0.010055946            2 
 1658000   0.59677588    -8.816316    220.75464  0.011095428  0.010046968            2 
 1659000   0.58178718   -8.7991794    220.82076  0.011092062  0.010037995            4 
 1660000   0.58924392   -8.8064806    220.58108  0.011073347  0.010029035            3 
 1661000    0.5880028   -8.8171514    220.53037  0.011064136  0.010020092            3 
 1662000   0.59880383   -8.7970501    220.27852  0.011044852  0.010011151            3 
 1663000   0.60557662   -8.8241347    220.42602  0.011045601  0.010002213            5 
 1664000   0.58871436   -8.8040332    220.49541  0.011042438 0.0099932944            4 
 1665000   0.57904296   -8.8153042    220.30058  0.011026055 0.0099843923            5 
 1666000   0.58217294   -8.8091146    220.88069  0.011048454 0.0099754925            3 
 1667000   0.58916544   -8.8162159    220.43381  0.011019487 0.0099666023            4 
 1668000    0.5825496   -8.8015637    220.85672  0.011034009 0.0099577211            2 
 1669000   0.59744002    -8.801983    220.47031  0.011008104 0.0099488543            4 
 1670000   0.58512432    -8.807897    220.06525    0.0109813 0.0099399795            4 
 1671000    0.5965796   -8.8183284      220.348  0.010988829 0.0099311128            6 
 1672000   0.58258996   -8.8044963    220.52409  0.010991033 0.0099222578            7 
 1673000   0.58369134    -8.805016    220.72715  0.010994578  0.009913403            5 
 1674000    0.5813567   -8.8185164    220.57341  0.010980357 0.0099045545            8 
 1675000   0.58910771   -8.8120873    220.25362  0.010957891 0.0098957158            4 
 1676000   0.57277398   -8.8337456    220.49657  0.010963433 0.0098869025            3 
 1677000   0.58093938    -8.823134    220.06247  0.010935324 0.0098780903            5 
 1678000   0.58133649   -8.8218904    220.52937  0.010951995 0.0098692933            7 
 1679000   0.58149657   -8.8203036     220.0522  0.010921789 0.0098605154            6 
 1680000    0.5850017   -8.8242557    220.30505   0.01092783 0.0098517369            6 
 1681000   0.59533192   -8.8113195    220.60637  0.010936267 0.0098429576            2 
 1682000   0.58847128   -8.8143662     220.0704  0.010903211 0.0098341958            7 
 1683000   0.57701686   -8.8299886    220.20108  0.010903203 0.0098254383            5 
 1684000   0.58644417   -8.8246506    220.37023  0.010905098 0.0098167024            7 
 1685000   0.56978129   -8.8335022    220.68986  0.010914434 0.0098079663            5 
 1686000   0.57822025   -8.8141391     220.3506  0.010891192 0.0097992439            4 
 1687000   0.57649575   -8.8375481    220.60796  0.010897449 0.0097905426            7 
 1688000   0.57444046   -8.8203059    220.55081  0.010888172  0.009781857            6 
 1689000   0.58744516    -8.826028    220.03002   0.01085603 0.0097731663            3 
 1690000   0.56891343   -8.8023065    220.32448  0.010864126 0.0097644934            3 
 1691000   0.57011983   -8.8093988    220.57089  0.010869845 0.0097558146           10 
 1692000   0.57159054    -8.817672    220.24989  0.010847611 0.0097471357            7 
 1693000   0.58480783   -8.8398935    220.11976  0.010834798  0.009738474            4 
 1694000   0.57826553   -8.8402338    220.21939  0.010833303 0.0097298239            8 
 1695000   0.57305856   -8.8259195    220.06925   0.01081953 0.0097211876            4 
 1696000   0.57861537   -8.8460149    220.18452  0.010818815 0.0097125573            6 
 1697000   0.57346888   -8.8250745    219.95158  0.010801001 0.0097039305            5 
 1698000   0.57236594   -8.8070986     220.1794   0.01080582 0.0096953167            6 
 1699000   0.57177792   -8.8426584    220.42273  0.010811396 0.0096867142            6 
 1700000   0.57177561   -8.8279211    220.19181  0.010793716 0.0096781104            4 
 1701000   0.56536539   -8.8230048    220.08113  0.010781948 0.0096695031            9 
 1702000    0.5793658   -8.8234786    220.43292  0.010792838 0.0096609076            2 
 1703000   0.57650481   -8.8134628    220.54142   0.01079181 0.0096523378            3 
 1704000   0.55999643   -8.8126558    220.29087  0.010773223  0.009643782            4 
 1705000   0.56369176   -8.8446406    220.05732   0.01075549 0.0096352216            8 
 1706000   0.58285986   -8.8376079    219.90187  0.010741592 0.0096266649            6 
 1707000   0.58250778   -8.8493126    220.23426  0.010751526 0.0096181206            2 
 1708000   0.56674834   -8.8398848    219.80491  0.010724283 0.0096095802            4 
 1709000   0.56760536    -8.853091    220.11295  0.010733029 0.0096010572            4 
 1710000   0.56927274    -8.864308    220.60376  0.010750671 0.0095925361            4 
 1711000   0.56952063   -8.8630419    219.76703  0.010703635 0.0095840325            2 
 1712000   0.57997952   -8.8359106    220.20281  0.010718595 0.0095755387            4 
 1713000   0.57622845   -8.8412648    220.41564  0.010722691 0.0095670394            5 
 1714000   0.56660083   -8.8381846    219.89702   0.01069122 0.0095585548            5 
 1715000   0.57212896   -8.8380391    220.22056  0.010700708 0.0095500791            4 
 1716000   0.55634469   -8.8462108    220.09914  0.010688575 0.0095416061            3 
 1717000   0.56716175    -8.843629    220.04521  0.010679733  0.009533143            5 
 1718000   0.56025787   -8.8532531    220.27798  0.010684807 0.0095247015            7 
 1719000   0.56409697   -8.8397172    220.13452  0.010671636 0.0095162579            5 
 1720000     0.567908   -8.8533204    220.01097  0.010659446 0.0095078219            4 
 1721000   0.56629768   -8.8559104    219.84651  0.010645289 0.0094993864            6 
 1722000   0.57413308   -8.8527379    220.01281  0.010647155 0.0094909641            6 
 1723000   0.57919493    -8.845455    219.99436  0.010640083 0.0094825516            5 
 1724000   0.56212336   -8.8386229    220.05075  0.010636637 0.0094741542            3 
 1725000   0.55466146   -8.8436045    219.96275   0.01062622 0.0094657715            7 
 1726000   0.56906901   -8.8401825    220.17568  0.010630344 0.0094573927            3 
 1727000   0.55500678   -8.8529221    220.07215  0.010619193 0.0094490156            5 
 1728000   0.56634445    -8.857864    220.19042  0.010618751 0.0094406528            3 
 1729000   0.56791417   -8.8360921    219.92768  0.010599946 0.0094323036            5 
 1730000   0.56272979    -8.860905    219.66838  0.010581329 0.0094239609            8 
 1731000   0.57133615   -8.8565842    220.36466  0.010608736 0.0094156259            3 
 1732000   0.56095655   -8.8493858    219.77638  0.010574306 0.0094073064            5 
 1733000   0.56532308   -8.8555085    219.92207   0.01057521 0.0093989795            5 
 1734000   0.56000251   -8.8543666    219.93358  0.010569664 0.0093906622            8 
 1735000   0.55730018    -8.871491    220.21019  0.010576858 0.0093823587            2 
 1736000   0.55724411   -8.8673181    219.77813  0.010550025 0.0093740625            6 
 1737000    0.5552702   -8.8695003    219.80106  0.010545052 0.0093657786            3 
 1738000   0.56784553   -8.8464612    219.86343  0.010541975 0.0093574964            4 
 1739000   0.55673326   -8.8632763    219.71972  0.010529026 0.0093492449            3 
 1740000   0.55764186   -8.8543552    219.71683  0.010522837  0.009340994            5 
 1741000   0.56849933   -8.8413391    219.99206  0.010529967 0.0093327585            9 
 1742000   0.56089276   -8.8523282    219.93844  0.010521357 0.0093245297            2 
 1743000   0.56840169   -8.8648617    220.32313  0.010533712 0.0093163142            3 
 1744000   0.56586536   -8.8500483    220.30615  0.010526861 0.0093081125            5 
 1745000   0.54955122   -8.8634513    220.10209  0.010511084 0.0092999201            3 
 1746000   0.56003324   -8.8655688    220.18445  0.010508994 0.0092917218            4 
 1747000   0.54312401   -8.8518264    220.00092  0.010494225 0.0092835334            4 
 1748000   0.55439163   -8.8707052    219.90267  0.010483537 0.0092753566            6 
 1749000   0.55140143   -8.8512986    219.87653  0.010476297 0.0092671862            9 
 1750000   0.55678287   -8.8681669    220.25187  0.010488184 0.0092590338            6 
 1751000    0.5602096   -8.8787612    219.86459  0.010463763 0.0092508839            4 
 1752000    0.5606499   -8.8801461    219.76034  0.010452832  0.009242733            2 
 1753000   0.55772375   -8.8705492    219.75716  0.010446718 0.0092345988            3 
 1754000     0.552336   -8.8643948    220.15122  0.010459484 0.0092264827            2 
 1755000   0.55786594   -8.8722892     219.8264  0.010438101 0.0092183705            2 
 1756000   0.54897952   -8.8785659    219.62177  0.010422446 0.0092102513            2 
 1757000   0.55343936   -8.8669215    219.80335  0.010425126 0.0092021536            2 
 1758000   0.54208989   -8.8746653    219.78075  0.010418124 0.0091940533            7 
 1759000   0.54646234   -8.8714346    219.48179  0.010398038 0.0091859663           10 
 1760000   0.53991144   -8.8979922    219.98015  0.010415727 0.0091778836            7 
 1761000   0.56240909   -8.8797338    219.69542  0.010396338 0.0091698104           12 
 1762000   0.54773285   -8.8828189     219.8111  0.010395909 0.0091617647            2 
 1763000   0.54114649   -8.8726716    219.80156  0.010389562 0.0091537152            4 
 1764000   0.54767519   -8.8708596     219.8048  0.010383825 0.0091456741            3 
 1765000   0.55639132   -8.8754546    219.89827  0.010382354 0.0091376431            3 
 1766000    0.5508898   -8.9021457    219.74176   0.01036909 0.0091296237            7 
 1767000   0.54794338   -8.8718156    219.77256  0.010364674 0.0091216069            3 
 1768000   0.54290742    -8.885131    219.84907  0.010362418 0.0091136089            2 
 1769000   0.55233962   -8.8738386    219.60617  0.010345118 0.0091056124           10 
 1770000   0.54523327    -8.888364    219.26368  0.010323149 0.0090976224            7 
 1771000   0.54406668   -8.8708423    219.54831  0.010330713 0.0090896382            4 
 1772000   0.54984412   -8.8629904    219.37966  0.010316952 0.0090816736            6 
 1773000   0.54209853   -8.8846658    219.35157  0.010309813 0.0090737126            5 
 1774000   0.54270031    -8.878049    219.43338  0.010307844 0.0090657562            3 
 1775000    0.5484217    -8.890326     219.9786  0.010327634 0.0090578112            8 
 1776000    0.5371295   -8.8834893    219.61839  0.010304917 0.0090498707            7 
 1777000   0.56600247   -8.8923497     219.8101  0.010308108 0.0090419299           11 
 1778000   0.53611235    -8.898572    219.67575  0.010296014 0.0090340002            8 
 1779000   0.54107749   -8.8906012    219.77262  0.010294764 0.0090260829            6 
 1780000   0.54875556   -8.8729193    219.55327  0.010278711 0.0090181848            5 
 1781000   0.53935025   -8.8987325    219.55967  0.010273239 0.0090102922            4 
 1782000   0.55564695   -8.8851284    219.84721  0.010280921 0.0090024113            4 
 1783000   0.53748429   -8.8845746    219.64347  0.010265632 0.0089945383            4 
 1784000   0.54472394   -8.8873676    219.67297  0.010261256  0.008986666            6 
 1785000   0.54226785   -8.8949925    219.58131  0.010251228 0.0089788161            4 
 1786000   0.55176706    -8.884804    219.49161  0.010241303   0.00897096            3 
 1787000   0.53497507   -8.8833304    219.58752  0.010240045 0.0089631086            4 
 1788000   0.54690922   -8.9008914    219.65484  0.010237455 0.0089552714            5 
 1789000   0.52880466   -8.8951208     219.3988  0.010219806 0.0089474378            5 
 1790000   0.52669505   -8.9029185    219.61678  0.010224245 0.0089396167            8 
 1791000   0.53213443   -8.9086712    219.53207  0.010214595 0.0089318085            2 
 1792000   0.53119986   -8.8886794    219.44983   0.01020507 0.0089240114            5 
 1793000   0.54740277   -8.8979566    219.54873  0.010203975 0.0089162289            6 
 1794000   0.52697095   -8.9010541    219.82961  0.010211335 0.0089084436            4 
 1795000   0.53243615   -8.8917187     219.7215  0.010200627  0.008900668            5 
 1796000    0.5358424   -8.9213883     219.2699  0.010173993   0.00889289            3 
 1797000   0.53289651    -8.903238    219.21888  0.010165965 0.0088851081            4 
 1798000   0.52527309   -8.9169458     219.5983  0.010177897 0.0088773476            3 
 1799000   0.53356576   -8.9261974     219.4796  0.010166741 0.0088695858           10 
 1800000   0.54428265   -8.9061112    219.69029  0.010170847 0.0088618408            6 
 1801000   0.52966679    -8.884244    219.74899  0.010167916 0.0088541054            5 
 1802000   0.54135434   -8.9074432    219.74625  0.010162146 0.0088463833            6 
 1803000   0.54579396   -8.9054192    219.62496  0.010150904  0.008838668            5 
 1804000   0.52817085   -8.8979755    219.65323  0.010146583 0.0088309598            4 
 1805000   0.53816065   -8.9008024    219.94433  0.010154401  0.008823257            2 
 1806000   0.54241266   -8.8989067    219.59269  0.010132553 0.0088155695            8 
 1807000   0.53990774   -8.9086749    219.61209   0.01012784 0.0088078868           10 
 1808000   0.53532953   -8.9187424    219.32806  0.010109147 0.0088002092            6 
 1809000   0.52670593   -8.9241638    219.64635  0.010118221 0.0087925383            3 
 1810000   0.52838916    -8.898707     219.6207   0.01011145 0.0087848821            8 
 1811000   0.53127736   -8.9004054     219.8637  0.010117048 0.0087772318            2 
 1812000   0.51616628    -8.914868    219.26407  0.010083889 0.0087695905            5 
 1813000   0.53501925   -8.9077456    219.46562   0.01008759 0.0087619586            6 
 1814000   0.52606732   -8.8825789    219.40237  0.010079124 0.0087543425            3 
 1815000   0.52107695    -8.921401    219.34621  0.010070992 0.0087467141            9 
 1816000   0.51851467   -8.9157549     219.4585  0.010070599 0.0087391012            5 
 1817000   0.52863851   -8.9218102    219.49469  0.010066717 0.0087314983            8 
 1818000   0.53020308   -8.9134304    219.38853  0.010056313 0.0087239045            4 
 1819000   0.53330452   -8.9215932    219.45818  0.010053975 0.0087163268            6 
 1820000   0.53745256   -8.9383207    219.19249  0.010036286 0.0087087437            6 
 1821000   0.52696403    -8.911141    219.29029   0.01003525 0.0087011699            7 
 1822000   0.52944948   -8.8933441    219.11177  0.010021577 0.0086935994           13 
 1823000   0.52863291   -8.9031507    219.36086  0.010027467 0.0086860458           10 
 1824000   0.52790746   -8.9137475    219.14869  0.010012276 0.0086784959            9 
 1825000   0.51709075   -8.9271658    219.13617  0.010006218 0.0086709548            5 
 1826000   0.51583135   -8.9182065    219.49385  0.010017062 0.0086634297            7 
 1827000   0.51900273   -8.9202164    219.52781  0.010013128 0.0086559195           10 
 1828000   0.52104382   -8.9208663    219.52031  0.010007308 0.0086484122           13 
 1829000   0.52894479   -8.9004933    219.09831 0.0099826094 0.0086409054            6 
 1830000   0.52341551   -8.9222973    219.39711  0.009990761 0.0086334102            4 
 1831000    0.5239947   -8.8967022    219.46915 0.0099885834 0.0086259241            3 
 1832000   0.53010957   -8.9141861    219.15901 0.0099690234 0.0086184459            9 
 1833000   0.52393512   -8.9109186    219.45058 0.0099768403 0.0086109791            7 
 1834000   0.52733126    -8.933344    219.49571 0.0099734508 0.0086035196           10 
 1835000   0.53517816   -8.9270506    219.39617 0.0099634953 0.0085960694            3 
 1836000   0.53530133   -8.9136812    219.32452 0.0099548167 0.0085886301           13 
 1837000   0.52508526   -8.9307675      219.011 0.0099351749 0.0085811908            7 
 1838000   0.52067038   -8.9169609    219.39545 0.0099472004 0.0085737587           10 
 1839000    0.5353904   -8.9381096    219.11676 0.0099291624 0.0085663361            8 
 1840000   0.51690337   -8.9421948    219.38571 0.0099359472 0.0085589206            7 
 1841000   0.52243525   -8.9302451    219.34882 0.0099288803 0.0085515088            3 
 1842000   0.52236591   -8.9075625    219.39859 0.0099257417 0.0085441087            6 
 1843000   0.51700218    -8.924728    219.12136 0.0099078206 0.0085367185            7 
 1844000    0.5176211   -8.9186607    219.29082 0.0099101057 0.0085293315           11 
 1845000   0.52117349   -8.9320083    219.33104 0.0099065511  0.008521959            4 
 1846000   0.50782622   -8.9259201    219.47116 0.0099075098 0.0085145938            7 
 1847000   0.51257569   -8.9201103    219.22882 0.0098912119 0.0085072361           11 
 1848000   0.50541829   -8.9499086    219.03013 0.0098768996 0.0084998788            4 
 1849000   0.51594541   -8.9407132    219.17435 0.0098780578 0.0084925436            4 
 1850000   0.51906698   -8.9174688     219.0592 0.0098675317 0.0084852135           11 
 1851000   0.51513095     -8.93178    218.98282 0.0098587618 0.0084778945            8 
 1852000   0.51831059   -8.9374803    219.26366 0.0098660755 0.0084705781            5 
 1853000   0.51689118   -8.9233862    218.89383 0.0098441189 0.0084632743            5 
 1854000   0.51131458   -8.9632127    219.14667 0.0098501741 0.0084559627            5 
 1855000   0.51542032   -8.9311185    219.08845 0.0098422486 0.0084486772            5 
 1856000   0.52698158    -8.926627    219.23977 0.0098437395 0.0084413894            5 
 1857000   0.51776498   -8.9297313    219.22104 0.0098375983 0.0084341134           12 
 1858000   0.52552431   -8.9390465    219.25067 0.0098336325 0.0084268447            4 
 1859000    0.5066913    -8.933049    218.68938 0.0098031818 0.0084195795            5 
 1860000   0.51621095    -8.947123    219.02465 0.0098129321 0.0084123213            9 
 1861000   0.51893391   -8.9271973    218.84083 0.0097994284 0.0084050679            7 
 1862000   0.50574089    -8.937866    219.28171 0.0098138966 0.0083978281           11 
 1863000   0.49902241   -8.9459431    219.21629 0.0098057026 0.0083906001            8 
 1864000   0.51127317   -8.9485516    219.17887  0.009798769 0.0083833716           10 
 1865000   0.51700549   -8.9283357    219.25669 0.0097969924 0.0083761556            9 
 1866000   0.50857005    -8.925163    218.94268 0.0097777186 0.0083689439            6 
 1867000   0.51323494   -8.9453568    219.09759 0.0097793959 0.0083617366            7 
 1868000   0.50259888   -8.9476951    219.48605 0.0097914904 0.0083545474            7 
 1869000   0.49743346   -8.9554883    219.15329 0.0097714148 0.0083473669            4 
 1870000   0.51974553   -8.9629606    219.11354 0.0097644182 0.0083401845            8 
 1871000    0.5025283   -8.9249819    219.36463 0.0097703828 0.0083330043            8 
 1872000   0.51663743     -8.96978    219.10216 0.0097534794  0.008325837            7 
 1873000   0.50451625   -8.9469297     219.0037 0.0097438911 0.0083186785           12 
 1874000   0.50633027   -8.9492111    219.29122 0.0097514771 0.0083115365            9 
 1875000   0.51157502   -8.9394217    219.03357 0.0097348253 0.0083043975            6 
 1876000     0.505616   -8.9418286    218.91898  0.009724546  0.008297265           15 
 1877000   0.50750557   -8.9638761    219.33506  0.009737838 0.0082901442           12 
 1878000   0.50546326   -8.9626517    218.67794 0.0097034939 0.0082830342            9 
 1879000   0.50343421   -8.9616751    219.33584 0.0097275077 0.0082759329           10 
 1880000   0.49503371    -8.955487    219.06888 0.0097104999 0.0082688422            9 
 1881000   0.51220581   -8.9734696    219.00938 0.0097027016 0.0082617507            6 
 1882000   0.50130861   -8.9563158    219.32115 0.0097113508 0.0082546729            9 
 1883000   0.50908531   -8.9389912    219.51564 0.0097148009 0.0082476085            5 
 1884000   0.49529785   -8.9481115    218.90654 0.0096827028 0.0082405408           13 
 1885000   0.50366508   -8.9611151    219.08318 0.0096853751 0.0082334849            7 
 1886000   0.49685331   -8.9360597    219.27992 0.0096889326 0.0082264357            7 
 1887000   0.50247583   -8.9482577     218.8033 0.0096627494 0.0082193973            3 
 1888000   0.49952753   -8.9602936     219.0373   0.00966796 0.0082123606            5 
 1889000   0.50051062   -8.9641166    219.31259 0.0096749865 0.0082053333            6 
 1890000   0.49986264   -8.9499905     218.8319  0.009648673  0.008198312            5 
 1891000   0.50400992   -8.9537828    218.99693 0.0096508429 0.0081913055            8 
 1892000   0.50395352   -8.9614299    219.13215  0.009651698 0.0081842978            7 
 1893000    0.4882101   -8.9603177    218.54703 0.0096208413 0.0081772979            6 
 1894000   0.49311686   -8.9647658    218.68915 0.0096220149 0.0081702984            5 
 1895000   0.49833909    -8.982058    219.06658 0.0096335346 0.0081633143            5 
 1896000   0.49887233   -8.9645545    218.47962 0.0096026556 0.0081563327           12 
 1897000    0.4927306   -8.9575737    218.87636  0.009615022 0.0081493528            8 
 1898000   0.50126452   -8.9687081    218.75417 0.0096045913 0.0081423833            3 
 1899000   0.50358045   -8.9475033    218.90654   0.00960622 0.0081354277            5 
 1900000   0.49253889    -8.956463    219.00502 0.0096054832 0.0081284817            3 
 1901000   0.50828548   -8.9619845    218.78519 0.0095907939 0.0081215454            5 
 1902000   0.49789757   -8.9735566    218.59671 0.0095774932 0.0081146049            3 
 1903000   0.49223188   -8.9762989    219.26772 0.0096018445 0.0081076829            2 
 1904000   0.48309869   -8.9684304    219.00786 0.0095854279 0.0081007623            4 
 1905000   0.48732354   -8.9716763    218.33607 0.0095510092 0.0080938454            6 
 1906000   0.48817571   -8.9736637     218.8084 0.0095666492 0.0080869359            3 
 1907000   0.49635463   -8.9670373    218.88673 0.0095650555 0.0080800365            5 
 1908000   0.50002274   -8.9534916    218.84082 0.0095580373 0.0080731472            1 
 1909000   0.48928113    -8.983899    219.08603 0.0095637345  0.008066261            5 
 1910000   0.48399787   -8.9662157    218.70679 0.0095421811 0.0080593816            8 
 1911000   0.49141369   -8.9770096    218.57909 0.0095316192 0.0080525095            2 
 1912000   0.49004119   -8.9817848    218.72539 0.0095330102 0.0080456508            7 
 1913000   0.48896125   -8.9726194    218.75528 0.0095293291 0.0080387887            3 
 1914000   0.49586172    -8.969686    218.92731 0.0095318405 0.0080319388            7 
 1915000   0.48276854   -8.9790366    218.99038 0.0095296076 0.0080250945           13 
 1916000   0.48020653   -8.9843241    218.72323 0.0095130146 0.0080182621            7 
 1917000   0.49424213   -8.9822295    218.91241 0.0095162758 0.0080114363            5 
 1918000   0.48775616   -8.9641148    218.72738 0.0095032752 0.0080046174            7 
 1919000   0.48185698   -8.9771948    219.00806 0.0095105117 0.0079978055            6 
 1920000   0.49508492   -8.9830836    218.55606 0.0094859399 0.0079909909            6 
 1921000   0.47824151   -8.9781725    218.39475 0.0094740043 0.0079841939            3 
 1922000   0.48132119    -8.954896     218.8292 0.0094879119 0.0079774041            9 
 1923000   0.48368575   -8.9871912    218.77236 0.0094805148 0.0079706171            4 
 1924000   0.48915049   -8.9886937    218.91845 0.0094819148 0.0079638432            3 
 1925000   0.48916021   -8.9721652    219.08694 0.0094842833 0.0079570831            4 
 1926000   0.48305669    -8.983865    218.46491  0.009452445 0.0079503299            5 
 1927000   0.48398089   -8.9949133    218.66724 0.0094562896 0.0079435757            2 
 1928000   0.47769443   -8.9969692    219.10601 0.0094703495 0.0079368256            7 
 1929000   0.48068774   -8.9681383     218.6355  0.009445114 0.0079300879            5 
 1930000   0.48263511   -8.9927614    218.25593 0.0094238313 0.0079233545            9 
 1931000   0.49122715   -8.9743108    218.63061 0.0094351203 0.0079166382            3 
 1932000   0.48167997   -8.9886093    218.59282  0.009428607 0.0079099225            3 
 1933000   0.48780575   -9.0053302    218.46349 0.0094181535 0.0079032126            5 
 1934000   0.47977773    -9.001298    218.67799 0.0094225263 0.0078965065            5 
 1935000   0.48537817   -8.9738872    218.63187 0.0094156706 0.0078898141            4 
 1936000   0.47693575   -8.9797768    218.62055   0.00941032 0.0078831307            4 
 1937000   0.48468737   -8.9782238    218.51556 0.0094009449 0.0078764489            8 
 1938000   0.48774635   -8.9773536    218.19896 0.0093824803 0.0078697744            3 
 1939000   0.46746773   -8.9836383    218.87561 0.0094067223 0.0078631078           11 
 1940000   0.48169601   -8.9950503    218.68274 0.0093935884 0.0078564548            4 
 1941000   0.48429454   -8.9997508    218.78384 0.0093930894 0.0078498059            3 
 1942000    0.4834872   -8.9646063    218.81963 0.0093897885 0.0078431654            5 
 1943000   0.48674341   -8.9869157    218.40564 0.0093672004 0.0078365261            3 
 1944000    0.4826489   -9.0091768    218.43569 0.0093636699 0.0078298951            4 
 1945000   0.46651603   -8.9849236    218.47862 0.0093606951 0.0078232719            7 
 1946000   0.46909794   -8.9930275    218.30911 0.0093486259 0.0078166567            3 
 1947000   0.47642835   -8.9971525     218.6617 0.0093589155 0.0078100516            6 
 1948000   0.48244956   -8.9868847    218.31595   0.00933932 0.0078034459            5 
 1949000   0.48005393   -9.0020239     218.6523 0.0093489098 0.0077968514            3 
 1950000   0.47104367    -9.004946    218.32318 0.0093300506 0.0077902568            4 
 1951000   0.46703662   -8.9983558    218.46933 0.0093315108 0.0077836774            6 
 1952000   0.46919914   -9.0062817     218.4106  0.009324223 0.0077770996            4 
 1953000   0.47112841   -9.0050221    218.32387 0.0093157481 0.0077705297            5 
 1954000   0.47158904   -9.0072723     218.5072 0.0093187992 0.0077639652            2 
 1955000   0.47605476   -9.0009759    218.57411 0.0093168845 0.0077574167            5 
 1956000   0.47238756   -9.0023995    218.28397 0.0092997602 0.0077508747            5 
 1957000   0.46412737   -8.9960122    218.24223 0.0092932308 0.0077443371            5 
 1958000   0.46890729    -9.005777    218.69442 0.0093077299 0.0077378069            4 
 1959000   0.47301225   -9.0186335     218.2104 0.0092823888 0.0077312817            4 
 1960000   0.46730886    -9.008731    218.51385 0.0092905548 0.0077247684            6 
 1961000    0.4784013    -8.995688    218.40514 0.0092811974 0.0077182604            3 
 1962000   0.47312419   -9.0117247    218.60784 0.0092850764 0.0077117594            1 
 1963000    0.4662997   -9.0052546    218.58361 0.0092793177 0.0077052593            3 
 1964000   0.47336767   -9.0007744    218.49252 0.0092707283 0.0076987669            5 
 1965000   0.47508622   -9.0160252    218.68111 0.0092740081 0.0076922867            2 
 1966000   0.47976856   -9.0150056    218.71839 0.0092708709 0.0076858128            2 
 1967000    0.4682037   -8.9985836    218.30041 0.0092484498 0.0076793471            4 
 1968000   0.47988134   -9.0042802    218.27796 0.0092427996 0.0076728797            7 
 1969000   0.46826957    -9.012849     218.3878 0.0092427545 0.0076664252            4 
 1970000    0.4682895   -9.0024352    218.64759 0.0092490521 0.0076599739            2 
 1971000   0.46763811   -8.9978887    218.30122 0.0092297149 0.0076535366            6 
 1972000   0.46885631   -9.0013816    218.44371 0.0092310561 0.0076471017            7 
 1973000   0.46258517   -8.9848214    218.38987 0.0092241032  0.007640672            6 
 1974000   0.46627198   -9.0118778    218.59313 0.0092280112 0.0076342537            4 
 1975000   0.45262341   -9.0239439    218.29375 0.0092107069 0.0076278335            4 
 1976000   0.47221795   -9.0176042    217.97101 0.0091924346 0.0076214241            3 
 1977000   0.45984445   -9.0142091    218.20383 0.0091975985 0.0076150196            5 
 1978000   0.46431607   -9.0169197    218.33046 0.0091982835  0.007608629            3 
 1979000   0.45782604   -9.0002574    218.45241 0.0091987709 0.0076022464            3 
 1980000   0.46696272   -9.0359708    218.10003 0.0091792941 0.0075958706            4 
 1981000   0.45744235   -9.0210337    218.58043 0.0091948692 0.0075895023            3 
 1982000   0.47306571   -9.0122601    218.23703 0.0091757917 0.0075831388            2 
 1983000   0.45389989   -9.0108587    218.50573 0.0091824564 0.0075767838            3 
 1984000   0.46497309   -9.0408218    218.35891 0.0091716612 0.0075704271            3 
 1985000   0.45845884   -9.0085016    218.30713 0.0091648667 0.0075640825            5 
 1986000    0.4534801   -9.0167877    218.16713 0.0091543777  0.007557739            5 
 1987000   0.45125751   -9.0148012    218.34999 0.0091574397   0.00755141            3 
 1988000   0.46122074   -9.0248864    218.27507 0.0091496929  0.007545079            3 
 1989000   0.47157425   -9.0219212    218.09877 0.0091377063 0.0075387569            2 
 1990000   0.45476571   -9.0167365    218.29089 0.0091411597 0.0075324464            4 
 1991000   0.46380412   -9.0162771    218.13942 0.0091302285 0.0075261402            4 
 1992000   0.45586958   -9.0244698    218.56417 0.0091434139 0.0075198419            2 
 1993000   0.46091426   -9.0341811    218.40042 0.0091319792 0.0075135538            6 
 1994000   0.46594834    -9.019562    218.40238 0.0091274816 0.0075072714            2 
 1995000   0.46085524   -9.0311691    218.36071  0.009121166 0.0075009942            3 
 1996000   0.45974435   -9.0144099    218.17548 0.0091088627  0.007494728            6 
 1997000   0.46158063   -9.0226022     218.1645 0.0091038433 0.0074884646            5 
 1998000   0.45393455   -9.0284507    218.20862 0.0091011268 0.0074822145            6 
 1999000   0.45392906   -9.0214773    218.25299 0.0090984238 0.0074759675            4 
 2000000   0.44770676   -9.0441457    218.39314 0.0090997141 0.0074697234            4 
 2001000   0.46145137   -9.0297663    218.02987 0.0090800377 0.0074634903            2 
 2002000   0.45228858   -9.0234668    218.32927 0.0090879649 0.0074572669            5 
 2003000   0.44316711   -9.0272676    218.17252 0.0090769062 0.0074510472            8 
 2004000   0.44678845   -9.0243922    218.33476 0.0090791235 0.0074448287            3 
 2005000   0.45457155   -9.0101416    218.45339 0.0090795258 0.0074386238            3 
 2006000   0.45841968   -9.0202944    218.17447 0.0090634126 0.0074324187            4 
 2007000   0.45155932    -9.049797    218.15582 0.0090581224 0.0074262209            2 
 2008000   0.45036745   -9.0226402    218.13932 0.0090529268 0.0074200293            3 
 2009000   0.46210315   -9.0248279    218.02647 0.0090437396 0.0074138396            6 
 2010000   0.44940851   -9.0399874    218.16583 0.0090450179 0.0074076651            5 
 2011000   0.44923354   -9.0326881    218.42636 0.0090513159 0.0074014905            2 
 2012000   0.44601227   -9.0463545    218.17203 0.0090362837 0.0073953234            6 
Loop time of 5005.9 on 48 procs for 2000000 steps with 4000 atoms

Performance: 69038.525 tau/day, 399.529 timesteps/s
99.4% CPU use with 48 MPI tasks x no OpenMP threads

MPI task timing breakdown:
Section |  min time  |  avg time  |  max time  |%varavg| %total
---------------------------------------------------------------
Pair    | 320.5      | 358.45     | 381.73     |  58.6 |  7.16
Neigh   | 33.147     | 34.292     | 35.971     |  10.2 |  0.69
Comm    | 312.34     | 338.59     | 376.41     |  68.0 |  6.76
Output  | 4.1325     | 4.1346     | 4.1697     |   0.3 |  0.08
Modify  | 4211.6     | 4224.6     | 4236.9     |   9.6 | 84.39
Other   |            | 45.86      |            |       |  0.92

Nlocal:        83.3333 ave          90 max          78 min
Histogram: 4 5 5 6 9 6 4 5 2 2
Nghost:        2205.21 ave        2219 max        2187 min
Histogram: 1 1 4 4 6 13 7 1 6 5
Neighs:        14691.1 ave       16414 max       13486 min
Histogram: 6 4 7 6 10 3 6 1 3 2
FullNghs:      29380.4 ave       31750 max       27110 min
Histogram: 2 3 6 6 7 8 4 7 2 3

Total # of neighbors = 1410260
Ave neighs/atom = 352.56500
Neighbor list builds = 106730
Dangerous builds = 0

#clear
#
#next RN
#
#jump SELF
Total wall time: 1:23:29
