
units lj                  # Use reduced LJ style units
atom_style atomic         # Uncharged point particles
atom_modify map hash      # Needed for indexing of clusters etc
                          # Used to be able to find where atoms are in relation to each other.

lattice fcc 1.0 spacing 1 1 1
Lattice spacing in x,y,z = 1.5874011 1.5874011 1.5874011
region box block 0 10 0 10 0 10 units lattice
create_box 2 box
Created orthogonal box = (0.0000000 0.0000000 0.0000000) to (15.874011 15.874011 15.874011)
  3 by 4 by 4 MPI processor grid
create_atoms 1 box
Created 4000 atoms
  using lattice units in orthogonal box = (0.0000000 0.0000000 0.0000000) to (15.874011 15.874011 15.874011)
  create_atoms CPU = 0.003 seconds
set type 1 type/fraction 2 0.03 78393
Setting atom values ...
  125 settings made for type/fraction
mass 1 1.0
mass 2 1.0
pair_style lj/cut  3.5
pair_modify tail  yes
pair_coeff 1  1  1.0  1.0   # Intearaction between 1 and 1 set with epsilon = 1 and sigma = 1
pair_coeff 1  2  1.5  0.8
pair_coeff 2  2  0.5  0.88

write_data data.0
System init for write_data ...
Neighbor list info ...
  update every 1 steps, delay 10 steps, check yes
  max neighbors/atom: 2000, page size: 100000
  master list distance cutoff = 3.8
  ghost atom cutoff = 3.8
  binsize = 1.9, bins = 9 9 9
  1 neighbor lists, perpetual/occasional/extra = 1 0 0
  (1) pair lj/cut, perpetual
      attributes: half, newton on
      pair build: half/bin/atomonly/newton
      stencil: half/bin/3d
      bin: standard
WARNING: Not all mixed pair coeffs generated from mixing. Use write_data with 'pair ij' option to store all pair coeffs. (../write_data.cpp:312)


#############################
#   M E L T   S Y S T E M   #
#############################

velocity all create 2.4 5300450 mom yes dist gaussian # Assign velocities
                                                    # Temperature 2.4, random number seed, zero linear momentum
                                                                                # Gaussian distribution

timestep 0.002   # simulation timestep
thermo 1000       # output thermodynamic data every 1000 steps bf 100

# Define a fix  in this case with index 1 applied to all
# particles in the simulation. This fix is for simulations
# in the anisotropic NPT ensemble. Note that we use the MTK
# correction.
fix 1 all npt temp 2.4 2.4 0.1 iso 5.68 5.68 0.5 mtk yes tchain 5 pchain 5 # Use NPT ensemble
                                                                         # Set temperature and pressure and damping
                                                                         # Numbers of thermostats in chain and in barostat
run 10000          # run for 10000 steps
Per MPI rank memory allocation (min/avg/max) = 3.642 | 3.644 | 3.648 Mbytes
Step Temp E_pair E_mol TotEng Press Volume 
       0          2.4    -8.178823            0    -4.579723   -2.4950487         4000 
    1000    2.3647162   -4.4617633            0  -0.91557571    5.7238372    5086.3758 
    2000    2.4132493   -4.4641342            0  -0.84516514      5.52523    5119.1421 
    3000    2.3850658   -4.4310532            0  -0.85434892    5.4733455    5138.5016 
    4000     2.427367   -4.4225671            0  -0.78242685    5.8645512    5096.6287 
    5000    2.4243171   -4.4648759            0  -0.82930936    5.5751104     5117.933 
    6000    2.4060949   -4.4795364            0  -0.87129639    5.2554971    5149.6875 
    7000    2.3866275    -4.420502            0  -0.84145576    5.7876824    5104.8719 
    8000    2.3872033   -4.4491419            0  -0.86923217    5.5288509    5130.8046 
    9000    2.4676614   -4.4791985            0  -0.77863166    5.4358628    5135.2934 
   10000    2.3959631   -4.3623573            0  -0.76931117    5.8258063    5136.4285 
Loop time of 2.06978 on 48 procs for 10000 steps with 4000 atoms

Performance: 834871.261 tau/day, 4831.431 timesteps/s
99.6% CPU use with 48 MPI tasks x no OpenMP threads

MPI task timing breakdown:
Section |  min time  |  avg time  |  max time  |%varavg| %total
---------------------------------------------------------------
Pair    | 0.8596     | 0.92718    | 0.99461    |   3.1 | 44.80
Neigh   | 0.16984    | 0.17427    | 0.19057    |   0.8 |  8.42
Comm    | 0.62328    | 0.71835    | 0.79002    |   4.2 | 34.71
Output  | 0.00025538 | 0.00025982 | 0.00032786 |   0.0 |  0.01
Modify  | 0.2161     | 0.23557    | 0.27608    |   2.9 | 11.38
Other   |            | 0.01416    |            |       |  0.68

Nlocal:        83.3333 ave          93 max          73 min
Histogram: 1 1 5 4 8 11 10 5 0 3
Nghost:        1392.42 ave        1417 max        1361 min
Histogram: 2 3 4 7 2 5 10 5 4 6
Neighs:        7415.96 ave        8558 max        6431 min
Histogram: 3 0 9 9 10 3 6 4 2 2

Total # of neighbors = 355966
Ave neighs/atom = 88.991500
Neighbor list builds = 906
Dangerous builds = 230

# Equilibrate just above the melting temperature to avoid step fn in T

fix 1 all npt temp 1.25 1.25 0.1 iso 5.68 5.68 0.5 mtk yes tchain 5 pchain 5
run 2000
Per MPI rank memory allocation (min/avg/max) = 3.643 | 3.645 | 3.648 Mbytes
Step Temp E_pair E_mol TotEng Press Volume 
   10000    2.3959631   -4.3623573            0  -0.76931117    5.8258063    5136.4285 
   11000    1.2411309   -5.9537424            0   -4.0925115    5.5599079    4243.6701 
   12000    1.2610528   -5.9895127            0   -4.0984064    5.7281337    4217.2997 
Loop time of 0.459966 on 48 procs for 2000 steps with 4000 atoms

Performance: 751359.836 tau/day, 4348.147 timesteps/s
99.6% CPU use with 48 MPI tasks x no OpenMP threads

MPI task timing breakdown:
Section |  min time  |  avg time  |  max time  |%varavg| %total
---------------------------------------------------------------
Pair    | 0.19845    | 0.21579    | 0.23343    |   1.6 | 46.91
Neigh   | 0.030946   | 0.032658   | 0.036148   |   0.6 |  7.10
Comm    | 0.14348    | 0.15807    | 0.18329    |   2.2 | 34.36
Output  | 5.1688e-05 | 5.3521e-05 | 6.7795e-05 |   0.0 |  0.01
Modify  | 0.041227   | 0.048739   | 0.054817   |   1.6 | 10.60
Other   |            | 0.004661   |            |       |  1.01

Nlocal:        83.3333 ave          93 max          75 min
Histogram: 2 3 4 10 8 7 8 5 0 1
Nghost:        1582.12 ave        1600 max        1567 min
Histogram: 3 4 6 7 6 9 7 1 3 2
Neighs:        9045.77 ave       10218 max        7946 min
Histogram: 2 1 5 4 15 9 6 5 0 1

Total # of neighbors = 434197
Ave neighs/atom = 108.54925
Neighbor list builds = 143
Dangerous builds = 8

#############################
# L I N E A R  Q U E N C H  #
#############################

# Define solid atoms. This closely follows ten Wolde  Ruiz-Montero and Frenkel  Faraday Discuss  1996  104  93-110
# Compute components of the per-atom q6 vector
compute q6 all orientorder/atom degrees 1 6 components 6 nnn NULL cutoff 1.3 # compute the Q6 parameter.
                                                                             # Use all neighbours within 1.3 unit cell.

# get number of connections
compute coord_number all coord/atom orientorder q6 0.5

# An atom is solid if it has 8 or more connections (of a possible 14)
variable is_solid atom c_coord_number>=8
group solid dynamic all var is_solid    # Must be dynamic to update
dynamic group solid defined

# do clustering
compute cluster solid cluster/atom 1.3 # Create a cluster where all atoms within are solid and max 1.3 units from another member

# define chunks one chunk per cluster
compute clus_chunks solid chunk/atom c_cluster nchunk every compress yes  # Says which atoms are in which chunk

# count the size of each chunk
compute size_chunks solid property/chunk clus_chunks count


# Find the maximum entry in the vector of chunk sizes
variable max_n equal max(c_size_chunks)


# Thermo style which includes this variable
# thermo_style custom step temp pe vol v_max_n

thermo ${N}  # Print the thermo information every 100 steps
thermo 1000  

# Reset the npt fix at a lower temperature (below freezing)
fix 1  all npt temp  ${temp} ${temp}  0.1  iso  5.68  5.68  0.5  mtk yes tchain  5  pchain  5
fix 1  all npt temp  0.45 ${temp}  0.1  iso  5.68  5.68  0.5  mtk yes tchain  5  pchain  5
fix 1  all npt temp  0.45 0.45  0.1  iso  5.68  5.68  0.5  mtk yes tchain  5  pchain  5

dump dmp2 all dcd ${N} traj.dcd
dump dmp2 all dcd 1000 traj.dcd


compute msd all msd com yes
variable twopoint equal c_msd[4]/6/(step*dt+1.0e-6)
fix 9 all vector 10 c_msd[4]
variable fit equal slope(f_9)/6/(10*dt)
thermo_style custom step temp pe c_msd[4] v_twopoint v_fit v_max_n

fix 1 all npt temp 1.25 ${temp} 0.1 iso 5.68 5.68 0.5 mtk yes tchain 5 pchain 5
fix 1 all npt temp 1.25 0.45 0.1 iso 5.68 5.68 0.5 mtk yes tchain 5 pchain 5
run 500000 # 5000000  # Run for this many steps
Neighbor list info ...
  update every 1 steps, delay 10 steps, check yes
  max neighbors/atom: 2000, page size: 100000
  master list distance cutoff = 3.8
  ghost atom cutoff = 3.8
  binsize = 1.9, bins = 9 9 9
  4 neighbor lists, perpetual/occasional/extra = 1 3 0
  (1) pair lj/cut, perpetual
      attributes: half, newton on
      pair build: half/bin/atomonly/newton
      stencil: half/bin/3d
      bin: standard
  (2) compute orientorder/atom, occasional
      attributes: full, newton on
      pair build: full/bin/atomonly
      stencil: full/bin/3d
      bin: standard
  (3) compute coord/atom, occasional
      attributes: full, newton on
      pair build: full/bin/atomonly
      stencil: full/bin/3d
      bin: standard
  (4) compute cluster/atom, occasional
      attributes: full, newton on
      pair build: full/bin/atomonly
      stencil: full/bin/3d
      bin: standard
Per MPI rank memory allocation (min/avg/max) = 9.734 | 9.739 | 9.743 Mbytes
Step Temp PotEng c_msd[4] v_twopoint v_fit v_max_n 
   12000    1.2610528   -5.9895127 9.8607613e-34 6.8477506e-36 8.3333333e+20            3 
   13000     1.263828   -5.9759065   0.57079191 0.0036589224  0.047155136            2 
   14000    1.2148863   -5.9405188    1.1247549 0.0066949693  0.046184434            2 
   15000    1.2455288   -5.9572547    1.7293359 0.0096074213   0.04727889            6 
   16000    1.2434479   -5.9551109    2.2948149  0.011952161  0.048058852           10 
   17000    1.2457788    -5.986549    2.8361618  0.013902754   0.04778931            3 
   18000    1.2417328   -5.9396124    3.3359363  0.015444149  0.047075863            4 
   19000    1.2700819   -5.9865957    3.8833954  0.017032435  0.046445951            1 
   20000    1.2588398   -5.9939223    4.3862294  0.018275955  0.045944778            2 
   21000    1.2249491   -5.9896288    4.9460701  0.019627262  0.045567896            3 
   22000    1.2256625   -5.9703043    5.5657109  0.021082238   0.04566471           10 
   23000    1.2467603   -5.9544228    6.0310838  0.021851753  0.045569354            3 
   24000    1.2006842   -5.9642276    6.5390012  0.022704865  0.045265645            4 
   25000    1.2403773   -5.9663165    7.1314666  0.023771555  0.045109124            2 
   26000    1.2314599   -5.9751652    7.6405362  0.024488898  0.045143194            4 
   27000    1.2310699   -5.9903587    8.1338562  0.025104494  0.045083192            4 
   28000    1.2292993    -5.987029    8.7083091  0.025917586  0.045016575            2 
   29000    1.2260202   -5.9962691    9.1610443  0.026324839  0.044921386            4 
   30000    1.2032283   -6.0041406    9.7356613  0.027043503  0.044829118            3 
   31000    1.2071544   -6.0191983    10.363287  0.027858298  0.044840034            2 
   32000    1.2462548   -5.9985246     10.86825  0.028302733  0.044895453            2 
   33000    1.2311662   -5.9602809     11.45612  0.028929596  0.044948043            1 
   34000    1.2179102   -6.0107353    12.017314    0.0294542  0.044996382            3 
   35000    1.2125051   -6.0188488     12.50588  0.029775905  0.044993106            3 
   36000    1.2185042   -5.9728557    13.007016  0.030108832  0.044960011            7 
   37000    1.2387092   -6.0257913    13.539155  0.030493592  0.044964731            6 
   38000    1.2130386   -6.0339234    14.129249  0.030985194  0.044964016            2 
   39000    1.1979049   -5.9805606    14.659299  0.031323288  0.044943707            3 
   40000    1.2009814   -6.0030989    15.232826  0.031735054  0.044937211            3 
   41000     1.194853   -6.0680579    15.757142  0.032026711  0.044990931            4 
   42000    1.1840166   -6.0324301    16.376708  0.032493467  0.045037933            2 
   43000    1.2132846   -5.9967094    16.895496  0.032743209  0.045072417            3 
   44000      1.20488   -6.0233715    17.239149  0.032649903  0.045046005            2 
   45000    1.2076622    -6.032568    17.613338  0.032617291  0.044983314            2 
   46000    1.2142949   -6.0176811    18.020194  0.032645278   0.04482322            5 
   47000    1.1946648   -6.0351335     18.29835  0.032443883  0.044628734            3 
   48000    1.2052933   -6.0135871    18.856415   0.03273683  0.044418062            2 
   49000    1.1779703   -6.0024307    19.191904  0.032639293   0.04419267            1 
   50000    1.1983656     -6.07216    19.531678  0.032552796  0.043968869            2 
   51000    1.1993406   -6.0443722    20.060805  0.032779093  0.043744683            3 
   52000    1.1971091   -6.0858413    20.688033  0.033153899  0.043561097            3 
   53000    1.1686955    -6.086499    21.169644  0.033285604  0.043406785            4 
   54000    1.1912632   -6.0735922    21.565026   0.03327936  0.043254453            3 
   55000    1.2092461   -6.0931597    21.974322  0.033294427  0.043082249            3 
   56000    1.1808634   -6.0492201    22.466286  0.033431973  0.042910626            3 
   57000    1.1394008   -5.9986042    23.151006  0.033846499  0.042777205            5 
   58000    1.1901309   -6.0572372    23.567618   0.03386152  0.042657669            4 
   59000    1.1655941   -6.0846175    24.064718  0.033989714  0.042554762            4 
   60000    1.1618131   -6.0471461     24.33018  0.033791916  0.042436352            2 
   61000    1.1517914   -6.0733826    24.645685  0.033668968  0.042294092            5 
   62000    1.1631992   -6.0783048    25.004735  0.033608515  0.042132974            4 
   63000    1.1884491   -6.0829087     25.33089  0.033506468  0.041952723            3 
   64000    1.1498739   -6.1334896    25.759808  0.033541416  0.041769565            3 
   65000     1.190066   -6.1033539    26.118911  0.033485784  0.041596127            3 
   66000    1.1786856   -6.1015545    26.440651   0.03338466  0.041415497            2 
   67000    1.1550751   -6.1154717    26.863418  0.033412211  0.041226401            3 
   68000    1.1570843   -6.0716194    27.267107  0.033415572  0.041038738            3 
   69000    1.1583536   -6.1219812    27.609974  0.033345379  0.040856663            3 
   70000    1.1707497    -6.113025    28.030111   0.03336918  0.040688116            3 
   71000    1.1444292   -6.0900883    28.540079  0.033497745  0.040533433            4 
   72000    1.1329862   -6.1037964    28.994971  0.033558994   0.04038077            3 
   73000    1.1620492    -6.118496    29.458379  0.033628286  0.040240771            4 
   74000    1.1422906   -6.1331344     29.77302  0.033528175  0.040106858            2 
   75000    1.1609727   -6.1278061    30.096773  0.033440859  0.039973275            5 
   76000    1.1390308   -6.1047387     30.49312  0.033435438  0.039830733            2 
   77000      1.15757   -6.0974082     30.84728  0.033384502  0.039689532            2 
   78000    1.1559889   -6.1125393    31.085906  0.033211438  0.039537849            2 
   79000    1.1513183   -6.1082481    31.461399  0.033187129  0.039381416            2 
   80000    1.1328593   -6.1627261    31.975747   0.03330807  0.039234239            2 
   81000    1.1218041   -6.0857333    32.319239  0.033250246  0.039099171            6 
   82000     1.120077   -6.1560416    32.732793  0.033265033  0.038970842            3 
   83000    1.1219776   -6.1289629    33.120388  0.033253401  0.038839587            3 
   84000    1.1315385   -6.1150484    33.479004  0.033213298  0.038710567            3 
   85000    1.1273474   -6.1067567    33.910944  0.033246024  0.038578294            3 
   86000    1.1364508   -6.2042477    34.361688  0.033296209   0.03845836            4 
   87000    1.1200287   -6.1825282    34.780377  0.033314537   0.03834565            3 
   88000    1.1397192   -6.1632967    35.084111  0.033223589  0.038236139            4 
   89000    1.1390572   -6.1045072    35.579638  0.033314267  0.038119881            4 
   90000    1.1073789   -6.1411077    36.049824  0.033379466  0.038023165            3 
   91000    1.1257491   -6.1379184     36.49064  0.033416337  0.037929604            4 
   92000    1.1308753   -6.1419845    36.874647  0.033400948  0.037843202            4 
   93000    1.1024871   -6.1596464    37.256777  0.033384208  0.037759915            4 
   94000    1.1420746   -6.1525839     37.74629  0.033463023  0.037679416            6 
   95000    1.1208146   -6.1356535    38.283741  0.033582229   0.03760572            5 
   96000    1.1026481   -6.2072099    38.563152  0.033474958  0.037534991            2 
   97000    1.1068775   -6.1661831    39.026633  0.033528035  0.037467567            3 
   98000     1.117915   -6.2407427    39.428442  0.033527587  0.037406844            4 
   99000    1.1279557   -6.1839049    39.827743  0.033525036   0.03734637            8 
  100000     1.117195   -6.1938762    40.321513  0.033601261  0.037287208            4 
  101000    1.0950779   -6.2182928    40.444378  0.033369949  0.037224266            5 
  102000    1.1153516   -6.1922839    40.997692  0.033494846  0.037164969            4 
  103000    1.1212258   -6.1972069    41.566019  0.033629465  0.037105821            3 
  104000    1.1286138   -6.1741674    42.010458  0.033662226  0.037054834            2 
  105000    1.0987367   -6.1895423    42.294418  0.033566998  0.037006922            7 
  106000    1.0893233   -6.1925019    42.744607  0.033604251  0.036959308            4 
  107000    1.0728568   -6.2133078    43.078108  0.033549928  0.036907162            4 
  108000    1.1072918   -6.1765268    43.492915  0.033559348  0.036854867            6 
  109000    1.1040884   -6.2196289    43.875284  0.033543795  0.036804877            5 
  110000    1.1099049   -6.2144141    44.482792  0.033699084  0.036765374            6 
  111000    1.0826922   -6.2515463    44.739533  0.033588238  0.036717327            5 
  112000    1.0893977   -6.2382748    45.268497  0.033681917  0.036676518            3 
  113000    1.1008128   -6.2506791    45.503914  0.033557459  0.036628775            5 
  114000    1.0680737   -6.2357118    45.827469  0.033499612  0.036580813            4 
  115000    1.0826441   -6.2367796    46.314938  0.033561549  0.036535449            5 
  116000    1.0972627    -6.224795    46.592998  0.033471981  0.036488324            7 
  117000    1.0993868   -6.2264988    46.910949  0.033412356   0.03643876            5 
  118000    1.0865388   -6.2347464    47.294744  0.033400243  0.036385836            3 
  119000    1.0749638   -6.2504353    47.634976  0.033357826  0.036334012            8 
  120000    1.0525873   -6.2633499    47.912805  0.033272781  0.036277974            6 
  121000    1.0825276   -6.2461653    48.254341  0.033233017  0.036213192            5 
  122000    1.0748178   -6.2677975    48.060177   0.03282799  0.036145096            2 
  123000    1.0721717   -6.2868995    48.595915  0.032924062   0.03607254            9 
  124000    1.0577241   -6.2245389    48.954981  0.032899853  0.035996922            4 
  125000    1.0601573   -6.2428466    49.222692  0.032815128  0.035924772            3 
  126000    1.0627206   -6.2598834    49.693264  0.032865915  0.035854555            6 
  127000    1.0812271   -6.2967665     49.82575  0.032694061  0.035784789            4 
  128000    1.0548151   -6.2853344    50.225036  0.032698591  0.035712342            5 
  129000    1.0646957   -6.3050961    50.353377  0.032528021  0.035638072            7 
  130000    1.0438368   -6.3021221    50.574425  0.032419503  0.035559291            4 
  131000    1.0689406   -6.2505776    51.307186  0.032638159  0.035484762            3 
  132000    1.0693022    -6.277046     51.67315  0.032621938  0.035414212            5 
  133000    1.0680572   -6.2764858    51.886696  0.032510461  0.035344796            4 
  134000    1.0483007   -6.2920551    52.244231  0.032490193  0.035275286            7 
  135000    1.0440896   -6.3343084    52.503966  0.032409856  0.035203299            3 
  136000    1.0384067   -6.2841873    52.801104  0.032353618  0.035133164            7 
  137000    1.0477485   -6.2730675    53.144648  0.032326428  0.035062602            4 
  138000    1.0258711   -6.2963074    53.583735  0.032357328  0.034991767            5 
  139000    1.0519026   -6.3426202    53.836545  0.032276106  0.034924379            4 
  140000     1.059004   -6.3031621    54.267534  0.032302103  0.034859013            5 
  141000    1.0386898   -6.3435894    54.609472  0.032275102  0.034794486            6 
  142000    1.0574134   -6.3177572    54.764292  0.032138669  0.034724757            2 
  143000    1.0234522   -6.3365392    54.917979  0.032003484  0.034651016            5 
  144000    1.0382382   -6.3218412    55.423854   0.03207399  0.034577641            5 
  145000    1.0459841   -6.3131376    55.490229  0.031890936  0.034505381            3 
  146000    1.0460739   -6.2919645    56.094621  0.032017477  0.034435653            4 
  147000    1.0172475   -6.3372859    56.113067  0.031810129  0.034364058            6 
  148000    1.0201535   -6.3045954    56.449074  0.031784388  0.034293958            5 
  149000    1.0643475   -6.3235866    56.981973  0.031869112  0.034224594           10 
  150000    1.0348729    -6.331965    57.170501  0.031761389  0.034158706            3 
  151000    1.0320305   -6.3754027    57.706294  0.031846741   0.03409357            4 
  152000    1.0187799   -6.3374393    58.025905  0.031812448  0.034030569            5 
  153000    1.0275712   -6.3449974    58.198325  0.031698434  0.033968541            5 
  154000    1.0262108    -6.372799    58.386826  0.031594602  0.033900468           18 
  155000    1.0104057   -6.3252556    58.592561  0.031501377  0.033831349            3 
  156000    1.0283863   -6.3600343    58.827847  0.031425132  0.033759766            7 
  157000    1.0095649    -6.344409     59.15083  0.031396406  0.033687625            3 
  158000    1.0193658   -6.3251591     59.39724  0.031327658  0.033615257            4 
  159000    1.0120718   -6.3477356    59.424068   0.03114469  0.033541972            3 
  160000   0.99645034     -6.36631    59.647093  0.031066194  0.033465473            5 
  161000    1.0197621   -6.3591499    59.953808  0.031031991  0.033388761           15 
  162000   0.98398458   -6.3778211    60.475056  0.031108568  0.033314821            7 
  163000    1.0212935   -6.3537481    60.790702  0.031079091  0.033243077            6 
  164000   0.99747474   -6.3858744    60.770552  0.030879346  0.033170623            6 
  165000    1.0004467   -6.3295515    61.289209  0.030954146  0.033096915            4 
  166000   0.99098081   -6.3724112    61.649582  0.030948585  0.033025936            5 
  167000     1.016121     -6.37063    61.890783  0.030883624  0.032956779            4 
  168000    1.0314977   -6.3706994    62.162816   0.03083473  0.032885989            7 
  169000   0.98819621   -6.3998744    62.047984  0.030595653  0.032813581            5 
  170000    1.0013914   -6.4028333     62.37852  0.030577706  0.032739285            8 
  171000    1.0173513   -6.3617906    62.789653  0.030599246  0.032664579            4 
  172000   0.98884564   -6.3875427    62.923518    0.0304862  0.032590404            6 
  173000   0.99561214   -6.4264297    62.969083  0.030331928  0.032514325            8 
  174000   0.99196566    -6.394509    63.480458  0.030402518  0.032439487            6 
  175000   0.98982731   -6.3965297    63.663283  0.030315849  0.032365217            8 
  176000    1.0069316   -6.3974043     64.11562  0.030357775  0.032292291           10 
  177000   0.98870341   -6.4324234    64.066882  0.030163315   0.03221849            4 
  178000   0.99258487   -6.4228255     64.40998  0.030154485  0.032145045            5 
  179000   0.99484559   -6.4335449    64.660145  0.030102488  0.032071244            9 
  180000   0.99010516   -6.4608572    65.077721  0.030128574  0.031997837           10 
  181000   0.97941802   -6.4133859     65.38633  0.030104203  0.031926751            4 
  182000   0.95784118   -6.4309934    65.701335  0.030083029  0.031860088            6 
  183000    1.0005699   -6.4416619    66.099929   0.03010015  0.031792943            7 
  184000   0.98386597   -6.4398307    66.296663  0.030025662  0.031725371            8 
  185000    0.9519221    -6.454081    66.472428  0.029942535  0.031658516           29 
  186000   0.99633351   -6.4604225    66.694627  0.029881105  0.031591299            7 
  187000   0.99458677   -6.4155424    66.994627  0.029855003  0.031524271            2 
  188000   0.95176526    -6.435162    67.204142   0.02978907  0.031456466            7 
  189000    0.9729821   -6.4699213    67.258361  0.029655362  0.031386945            8 
  190000   0.94681343   -6.4676551    67.491586  0.029601573  0.031315771            6 
  191000   0.96583435   -6.4379022    67.906611  0.029627666  0.031245666            4 
  192000   0.97116982   -6.4765518    67.945545  0.029490254  0.031176139            9 
  193000   0.97105676   -6.4599099    68.359478  0.029516182  0.031107232           11 
  194000   0.94492858   -6.4874921    68.701229  0.029510837  0.031040688           10 
  195000   0.95974088   -6.4846043    69.159898  0.029555512  0.030975441            6 
  196000   0.96753032   -6.4698326     69.31147  0.029469162  0.030911901            7 
  197000   0.95974752   -6.4873307    69.274437  0.029303907  0.030846143            7 
  198000   0.94382452   -6.4505315     69.46921  0.029237883  0.030779654            7 
  199000   0.98145449   -6.4819304    69.711841  0.029192563  0.030713273            4 
  200000   0.93850074   -6.4868551    69.885434  0.029118931  0.030645666            5 
  201000   0.95154085   -6.4725042    70.233096  0.029118199   0.03057953            9 
  202000   0.94161578   -6.4763934    70.414538  0.029048902  0.030513259           10 
  203000    0.9450963   -6.4845005    70.892156   0.02910187  0.030448045           10 
  204000   0.94239392   -6.5097883    70.943294  0.028980104  0.030384573           12 
  205000   0.94319463    -6.476736    71.245459  0.028961568  0.030320794            7 
  206000   0.93396391    -6.489937    71.319233  0.028850822  0.030257965            9 
  207000   0.93527684   -6.5063727    71.803422   0.02890637   0.03019464            5 
  208000   0.93461121   -6.5566055    71.946438  0.028824694  0.030131846            7 
  209000   0.93135961   -6.4861489    72.270277    0.0288159  0.030070697            6 
  210000   0.94252028   -6.4739613    72.455049  0.028752003  0.030008319           15 
  211000   0.92165914    -6.498988    72.862406  0.028776621  0.029946671            6 
  212000   0.94713087   -6.4795249    72.667683  0.028564341  0.029884388            7 
  213000   0.91391613   -6.5140539    72.943562   0.02853817  0.029821612           14 
  214000   0.93632584   -6.5288144    73.126576  0.028476081  0.029756418            6 
  215000   0.92099447   -6.5127793    73.358892  0.028433679   0.02969158            3 
  216000   0.91295618   -6.5548121    73.471089  0.028345328  0.029627071            6 
  217000   0.91488089   -6.5319417    73.634331  0.028277393  0.029560967            3 
  218000   0.91475511   -6.5705659    74.045371  0.028304805  0.029497852            6 
  219000   0.92355688    -6.542804    74.286008  0.028267126  0.029435603           16 
  220000   0.89687867   -6.5492107    74.200649  0.028106306  0.029373434            8 
  221000   0.92121301   -6.5451307    74.448063  0.028072422  0.029309371            5 
  222000   0.90258568   -6.5541775    74.681125  0.028033455  0.029245285            9 
  223000   0.90563202   -6.5595336     74.94198  0.028005224  0.029181521           11 
  224000   0.92728301   -6.5789737    74.866193  0.027852006  0.029117186            9 
  225000    0.9093652   -6.5560711    75.392471  0.027923137  0.029053127           19 
  226000   0.90595793   -6.5626938    75.414475  0.027807697  0.028988139            4 
  227000   0.90210891   -6.5470768    75.694494  0.027787993  0.028923755            7 
  228000   0.89148383   -6.5390321    75.537394  0.027608697  0.028858913            6 
  229000   0.90313386   -6.5669402    75.871676   0.02760978  0.028792451           16 
  230000   0.88464687    -6.570734    76.042504  0.027551632  0.028726484            8 
  231000   0.90386648   -6.5714889    76.144793  0.027469261  0.028659812            6 
  232000   0.87852805   -6.5855349    76.231689  0.027382072  0.028593374            7 
  233000   0.89281585   -6.5736917    76.442756  0.027340042  0.028528582           13 
  234000   0.90141154   -6.5819144    76.650946  0.027297345  0.028461918            8 
  235000   0.89942447    -6.560985    76.857828  0.027254549  0.028395826            7 
  236000   0.90316689   -6.5511497    77.164802  0.027247458  0.028330334           31 
  237000   0.88933447   -6.6214291    77.109629   0.02711309   0.02826508           10 
  238000   0.88504879   -6.6001217    77.505237  0.027137688  0.028199687           11 
  239000   0.89069268   -6.6262619    77.664441  0.027079652  0.028134681            6 
  240000   0.87595587   -6.6183135    77.766178  0.027002145   0.02806955            8 
  241000   0.90825707   -6.5800202    77.885187  0.026931254  0.028004965            8 
  242000   0.88318755   -6.6194996     78.21179  0.026932435  0.027940033            8 
  243000   0.86814012   -6.6084933    78.376084  0.026877944  0.027876016            8 
  244000   0.88644693    -6.623481    78.199172  0.026707367  0.027811269            9 
  245000   0.88748324   -6.6540432    78.501931  0.026701337  0.027744918            8 
  246000   0.86546313    -6.627581    79.003339  0.026762649  0.027679904            5 
  247000   0.86684861   -6.6136132    78.922888  0.026627155  0.027616282            4 
  248000   0.89681139   -6.6149963    78.793486  0.026476306  0.027551611            6 
  249000   0.85293794   -6.6129658    78.855244  0.026390644  0.027485774            8 
  250000   0.85197874   -6.6291571    79.187557  0.026395852  0.027420505            5 
  251000   0.86474379   -6.6547472    78.989953  0.026225084  0.027353873           22 
  252000   0.86090551   -6.5963825    79.291033   0.02622058    0.0272868            8 
  253000   0.85604072   -6.6601783     79.57166  0.026209374  0.027220685           23 
  254000   0.86641542   -6.6419182    79.741452  0.026161894  0.027153884           13 
  255000   0.87197869   -6.6676704     79.71504  0.026050667  0.027087106           10 
  256000   0.85298581   -6.6859319     79.95076  0.026025638  0.027019645           11 
  257000   0.84652307   -6.6788857    80.142456  0.025986529  0.026952716           13 
  258000   0.85615155   -6.6527534    80.362495  0.025956878  0.026887063           10 
  259000   0.86654934   -6.6291789     80.35029  0.025852732  0.026821703            9 
  260000       0.8392   -6.6599837    80.545336  0.025815813  0.026755635           14 
  261000   0.85418037   -6.6632655    80.505862  0.025704298   0.02668832           10 
  262000   0.84720861   -6.6342986     80.69633  0.025666771  0.026621157           13 
  263000   0.84783086   -6.6696624    80.475031  0.025499059  0.026553585           13 
  264000   0.85063696   -6.6761436    80.807267  0.025507344  0.026485241            6 
  265000   0.84149649   -6.6627151    80.450567   0.02529892   0.02641634           11 
  266000   0.84744644    -6.685182    80.819456  0.025319379   0.02634689            9 
  267000   0.83847453    -6.699243    80.991278  0.025278176  0.026278734            9 
  268000   0.84118593    -6.665812    81.261595  0.025267909  0.026210882           15 
  269000   0.82687738   -6.7230842    81.056893  0.025110562  0.026142911           15 
  270000   0.84095808   -6.7122048    81.228574  0.025070548   0.02607403           24 
  271000   0.82942977   -6.6873427    81.236437  0.024980454  0.026005813           16 
  272000   0.83055403   -6.7059752    81.673928  0.025022649  0.025938626           17 
  273000   0.84003013   -6.6789863    81.978317  0.025023906   0.02587222           17 
  274000   0.85388148   -6.6913944    81.914857  0.024913278  0.025805779            8 
  275000   0.84077774   -6.7127483    81.844356   0.02480132  0.025738568            9 
  276000   0.83187024    -6.720123    81.824004  0.024705315  0.025669894           13 
  277000   0.82841396   -6.7430595    81.903227   0.02463996  0.025601678           11 
  278000   0.83238303   -6.7289451    82.070591  0.024601496  0.025533068           10 
  279000   0.80848875   -6.7515875    82.129997  0.024531063  0.025463863            7 
  280000   0.81093234   -6.7169331    82.301822   0.02449459  0.025395369           18 
  281000   0.81147749   -6.7248836    82.134194  0.024357709  0.025327044            9 
  282000   0.81525016   -6.7381461    82.297602  0.024319622  0.025257796            4 
  283000   0.81697955   -6.7300996    82.061337  0.024164116  0.025188379            8 
  284000   0.80431591   -6.7543432    82.252537  0.024135134  0.025118518            8 
  285000   0.82019423   -6.7296799     82.71448   0.02418552  0.025049342            6 
  286000   0.80658236   -6.7636943    82.575385  0.024060427  0.024980587            9 
  287000    0.7971366   -6.7474742    82.701211  0.024013127  0.024911529           12 
  288000   0.80783055   -6.7591268    82.689388  0.023926328  0.024842656           13 
  289000   0.81958347   -6.7839683    82.833469  0.023885083  0.024774244           31 
  290000   0.80200294    -6.738226    83.063939  0.023868948  0.024705962           22 
  291000   0.81335165   -6.7870442    83.036843  0.023779165  0.024638036           24 
  292000   0.80722402   -6.7888901     83.09091  0.023713159  0.024569831           12 
  293000   0.80859213   -6.8103493     83.00239  0.023607051  0.024501616           11 
  294000   0.81115827    -6.783591    83.431801   0.02364847   0.02443341           23 
  295000   0.78522405   -6.8060003    83.392247  0.023557132  0.024365903           14 
  296000   0.78218988   -6.7706755    83.401246  0.023480081  0.024298422           13 
  297000   0.80747597   -6.7708935    83.702086  0.023485434  0.024231383           58 
  298000   0.79823582   -6.8072647    83.478825   0.02334419  0.024164031           33 
  299000   0.79393591   -6.7888944    83.929208  0.023391641  0.024096696           19 
  300000   0.79066671   -6.7775613    83.850479    0.0232918  0.024029987           23 
  301000   0.78634903   -6.8067897    84.021736  0.023261832  0.023964002            7 
  302000   0.78411566   -6.8455954     83.98187  0.023173805  0.023897758           21 
  303000   0.79647009   -6.7876924    84.150431  0.023143683  0.023831565           14 
  304000   0.79785332   -6.7951342    84.212523  0.023084573  0.023765818           44 
  305000   0.78645202    -6.814425    84.293394  0.023030982   0.02370026           38 
  306000    0.7805017   -6.8303518    84.309237  0.022960032  0.023634798           31 
  307000   0.79300177    -6.806286    84.494495  0.022935531   0.02357002            8 
  308000   0.76796698   -6.8339578    84.728203  0.022924297  0.023505552           18 
  309000   0.75382558    -6.798031    84.913593  0.022900106  0.023441947           14 
  310000   0.77174673   -6.8299707    85.033054  0.022858348  0.023379072            9 
  311000   0.77505593   -6.8505183     85.17919  0.022824006   0.02331623           37 
  312000   0.76115854   -6.8249049    85.380168  0.022804532  0.023253372            9 
  313000    0.7766366   -6.8310315    85.411124  0.022739916  0.023191295            9 
  314000   0.77195085   -6.8275404    85.265397  0.022628821  0.023128827           23 
  315000   0.76937501   -6.8471176    85.368882   0.02258436  0.023066519           18 
  316000   0.76969258   -6.8473469    85.857613  0.022641776  0.023004488           22 
  317000   0.75712142   -6.8459632    85.674547  0.022522226  0.022942766           32 
  318000   0.74633059   -6.8355062    85.552388  0.022419389  0.022880616           21 
  319000    0.7787464   -6.8255105    85.683876  0.022383458  0.022818982           11 
  320000   0.75163815   -6.8688191    85.939409  0.022380055  0.022758071           18 
  321000     0.759619   -6.8466431    86.052563   0.02233971  0.022697022           14 
  322000   0.75067671   -6.8333496    85.976064  0.022250534  0.022635893           20 
  323000    0.7524356   -6.8735691    85.876422   0.02215594  0.022574764           24 
  324000   0.72675489   -6.8723718    85.937294  0.022103213  0.022512943           11 
  325000   0.75208119   -6.8954965     85.96109  0.022041305  0.022451468           24 
  326000   0.74636226   -6.8698834    86.133451  0.022017753  0.022390377           16 
  327000   0.74918268   -6.8783074    86.124379  0.021948109  0.022329901           19 
  328000   0.74812135   -6.8774128    86.425204  0.021957623  0.022269463           29 
  329000   0.75299366   -6.8776294    86.353999  0.021872847  0.022209044           17 
  330000   0.73792435   -6.8453456    86.492422  0.021841521  0.022148604           24 
  331000   0.74192872   -6.8462296    86.707244  0.021829618  0.022088478           18 
  332000   0.73523651   -6.8822244    86.577323  0.021731256  0.022028519           42 
  333000   0.73797878   -6.8758868    86.520543  0.021651788  0.021968139           56 
  334000   0.73096526   -6.8598093    86.600722  0.021606966  0.021907798           44 
  335000    0.7336045   -6.9053789    86.663867  0.021558176  0.021847938           42 
  336000   0.73917176    -6.886146    86.809415  0.021530113  0.021788297           72 
  337000   0.74619875   -6.8997498    86.808893  0.021466096  0.021728161           44 
  338000    0.7422455   -6.9050153    86.828905  0.021407521  0.021668265           56 
  339000   0.73732541    -6.910855    86.684006  0.021308753  0.021608036           51 
  340000   0.72129197   -6.9212746    86.785565  0.021270972  0.021547763           55 
  341000   0.72661782   -6.9489783    86.814195   0.02121559  0.021487607           44 
  342000   0.73618033   -6.9226988    87.064581  0.021214566  0.021427897           20 
  343000   0.71694353   -6.9118752    87.108361  0.021163353  0.021368406           25 
  344000    0.7331442   -6.9179428    87.245073   0.02113495  0.021309112           44 
  345000     0.724311   -6.9059811    87.221541  0.021068005  0.021249915           38 
  346000   0.71802255   -6.9488053    87.279346  0.021021037  0.021190769           45 
  347000   0.73108118   -6.9604744    87.317138  0.020969534  0.021131791           78 
  348000   0.71635198   -6.9440451    87.125984  0.020863502  0.021073157           39 
  349000   0.70631674   -6.9699087    87.511957  0.020895883  0.021014497           76 
  350000    0.6938597   -6.9560344    87.391638  0.020807533  0.020955588           93 
  351000   0.68689382   -6.9593308    87.523133  0.020779471   0.02089709           46 
  352000     0.696344   -6.9749728    87.425846  0.020697407  0.020839005           83 
  353000   0.69705141   -6.9309197    87.411302   0.02063534  0.020780824           84 
  354000   0.70236971   -6.9631353    87.703418  0.020645814  0.020722943           85 
  355000   0.69833986   -6.9565684    87.497291   0.02053927  0.020664898           91 
  356000   0.70278095    -6.965713    87.537297   0.02049094  0.020607006          100 
  357000   0.70412964   -6.9712664    87.637242  0.020456873  0.020549133           79 
  358000   0.69349056    -6.991244    87.635731  0.020399379  0.020491134           80 
  359000   0.69281083    -7.000632    87.604782  0.020335372  0.020433102           68 
  360000   0.69741044   -7.0037659    87.615682  0.020281408  0.020374894           93 
  361000   0.69712274   -7.0117196    87.710836  0.020247192  0.020316766           76 
  362000    0.6767223   -7.0022772    87.749562  0.020200175  0.020258805          100 
  363000   0.69109378   -7.0034944     87.43848  0.020073113  0.020200759          106 
  364000   0.68515894     -7.01127    87.757511  0.020091005  0.020142954           66 
  365000   0.67653021   -7.0202201    87.843776  0.020055657  0.020085627           94 
  366000   0.67801811   -7.0044108    87.815966  0.019994528  0.020028621           67 
  367000   0.67947568   -6.9958914    87.846974  0.019947088  0.019971662           90 
  368000    0.6795773   -7.0074828    87.878269   0.01989997  0.019914771           65 
  369000   0.69472995   -7.0062455    87.950308   0.01986231  0.019858266          145 
  370000   0.67355965   -7.0127447    87.922917  0.019802459  0.019802079           78 
  371000   0.67216174   -7.0678478    88.076021  0.019783473  0.019745867           95 
  372000   0.67228783    -7.043398     87.97722  0.019708159  0.019689512          113 
  373000   0.67215742   -7.0519328    87.871215  0.019631639  0.019633421          134 
  374000   0.67218872   -7.0667332    87.873988  0.019579766  0.019577175          174 
  375000   0.65443962   -7.0401029    87.894368  0.019532082  0.019521092          165 
  376000   0.67279613   -7.0620596     88.08348  0.019522048  0.019465193          140 
  377000   0.65277637   -7.0561892    88.065139  0.019466211  0.019409116          203 
  378000   0.67988491   -7.0569587    87.959793  0.019391489  0.019352854          385 
  379000   0.65359409   -7.0591003    87.800659  0.019305334  0.019297009          389 
  380000   0.66864376   -7.0868155    87.917887  0.019280238  0.019241233          534 
  381000   0.66690408    -7.069596    87.856193   0.01921614  0.019185272          325 
  382000   0.64605032   -7.0491675    87.904049  0.019176276  0.019129651          429 
  383000    0.6579616   -7.0747306    88.034803  0.019154657  0.019073847          458 
  384000   0.63992973   -7.0808378    87.943635   0.01908499  0.019018137          381 
  385000   0.63962402   -7.0884345    87.685308  0.018979504  0.018962445          517 
  386000   0.64316617   -7.0832684    87.867556   0.01896968  0.018906935          348 
  387000   0.65474139   -7.0881997    87.941874  0.018936665  0.018851429          396 
  388000   0.65032117   -7.0922243    87.999347  0.018900203  0.018796001          549 
  389000   0.64530224   -7.0919076    88.067683  0.018866256  0.018740884          617 
  390000   0.65646283   -7.1136757    88.084296  0.018821431  0.018685883          724 
  391000   0.64235295   -7.1284893    87.954592   0.01874565   0.01863092          575 
  392000   0.64123803   -7.0987706    87.964052  0.018699841  0.018576279          721 
  393000    0.6123938   -7.1371063    88.097208  0.018680494  0.018521379          831 
  394000   0.64664379   -7.1348758    87.935828  0.018598948  0.018466766          933 
  395000   0.64009751   -7.1255312     88.13533  0.018593952  0.018412298          936 
  396000   0.63602236   -7.1425075     87.92014  0.018501713  0.018357867          938 
  397000   0.63405107   -7.1305685    88.077395  0.018488118   0.01830363          905 
  398000   0.61428357   -7.1433775    88.123292  0.018451276  0.018249657          914 
  399000   0.63142706   -7.1306886    87.897042  0.018357778   0.01819561         1009 
  400000   0.62881737   -7.1566775    88.073958  0.018348741  0.018141648         1039 
  401000   0.64279042    -7.163667     87.98672  0.018284855  0.018087658         1055 
  402000   0.62506633   -7.1715978    88.157058   0.01827468  0.018033787         1080 
  403000   0.63234732   -7.1876956    87.828519  0.018161398  0.017979926         1142 
  404000   0.62374859   -7.1772762    87.850452  0.018120968  0.017926157         1175 
  405000   0.61771632   -7.1665502    87.929658  0.018092522    0.0178725         1207 
  406000   0.61600461   -7.2109964    87.873854  0.018036505  0.017819005         1166 
  407000   0.60539567   -7.1749491    87.840035  0.017985265  0.017765466         1143 
  408000   0.62128333   -7.1754644    87.862721  0.017945817  0.017712053         1121 
  409000   0.61035238   -7.2280225     87.99784   0.01792947  0.017658604         1248 
  410000   0.61583954   -7.2194074    87.939195   0.01787382  0.017605348         1252 
  411000   0.61487676   -7.2264128    87.776241  0.017797291  0.017552203         1309 
  412000   0.61618249   -7.2208526    87.866162  0.017772282  0.017499231         1240 
  413000   0.60694225   -7.2156808    87.914131  0.017738929   0.01744636         1299 
  414000   0.60901252   -7.2162963     87.82283  0.017677703  0.017393765         1298 
  415000   0.59129754   -7.2184763    87.807084  0.017631944  0.017341272         1272 
  416000   0.60482877   -7.2298832    87.975146  0.017623226  0.017288899         1351 
  417000   0.59094857   -7.2407699    87.714012  0.017528779  0.017236581         1390 
  418000   0.60850497   -7.2229694    87.895429  0.017523012  0.017184344         1427 
  419000   0.59362861   -7.2542416    87.678923  0.017438131  0.017132287         1564 
  420000     0.601417   -7.2408923    87.795721  0.017419786  0.017080288         1508 
  421000   0.58195784   -7.2451093    87.550252   0.01732982  0.017028342         1509 
  422000   0.59653198   -7.2741114    87.743809  0.017326977  0.016976472         1581 
  423000   0.58869098   -7.2672229     87.72611  0.017282527  0.016924728         1606 
  424000   0.58037039   -7.2771613     87.80433   0.01725714  0.016873142         1681 
  425000   0.57639919   -7.2880589    87.813499  0.017218333  0.016821781         1695 
  426000   0.58197433    -7.264676    87.753125  0.017166104  0.016770519         1703 
  427000   0.58261814   -7.2675005    87.750643  0.017125418   0.01671928         1755 
  428000    0.5774791   -7.2820346    87.628759  0.017061674  0.016668197         1746 
  429000   0.57858588   -7.2964766    87.707673  0.017037232  0.016617293         1720 
  430000   0.57289516   -7.2875869      87.8221  0.017019787   0.01656649         1695 
  431000   0.57365877   -7.3062729    87.597457  0.016936863  0.016515721         1830 
  432000    0.5826567   -7.3013284    87.842348  0.016944897  0.016465048         1802 
  433000   0.57490776   -7.2963308    87.644521  0.016867691  0.016414479         1802 
  434000   0.58179488   -7.3193177    87.679972  0.016835632  0.016364115         1834 
  435000   0.57389238   -7.3071283    87.634833  0.016788282  0.016313818         1776 
  436000   0.57047531   -7.3166023    87.707528  0.016763671  0.016263792         1840 
  437000   0.55277483   -7.3165944    87.687759  0.016721541  0.016213997         1780 
  438000   0.56345843   -7.3223109    87.617365  0.016669971  0.016164324         1811 
  439000   0.56951473    -7.323049    87.549908  0.016619193  0.016114911         1850 
  440000   0.57450289   -7.3066055    87.518891  0.016575548  0.016065497         1770 
  441000   0.57534331   -7.3246602      87.7435  0.016580404   0.01601623         1784 
  442000   0.55467105   -7.3226365    87.670063  0.016529047  0.015967227         1874 
  443000    0.5606283   -7.3361095    87.765645  0.016509715  0.015918406         1879 
  444000   0.55710655   -7.3398113    87.462137  0.016415566  0.015869571         1904 
  445000   0.56257283   -7.3312592    87.433027  0.016373226  0.015820769         1986 
  446000   0.56606568   -7.3302784    87.569128  0.016361945  0.015771982         1907 
  447000   0.56349809   -7.3579981    87.555614  0.016322821  0.015723508         2009 
  448000   0.54692208   -7.3524047    87.405074  0.016258384  0.015674942         2049 
  449000   0.54932153   -7.3534818     87.39276  0.016219889  0.015626548         1984 
  450000    0.5479009   -7.3768501    87.376892  0.016180906  0.015578317         2112 
  451000   0.55077194   -7.3786493    87.360794  0.016142053  0.015530137         2164 
  452000    0.5615407   -7.3720946    87.316709  0.016098213  0.015482184         2162 
  453000   0.54976961   -7.3791025    87.401646  0.016078301  0.015434394         2180 
  454000   0.54270514   -7.4040031    87.288147  0.016022053  0.015386743         2215 
  455000   0.55139893   -7.3976789    87.438485  0.016014374  0.015339195         2297 
  456000   0.52568182   -7.3960043    87.288467   0.01595184  0.015291857         2236 
  457000   0.52878083   -7.3945581    87.269422  0.015913461  0.015244533         2303 
  458000   0.53551742   -7.4130262    87.231319  0.015871783  0.015197358         2313 
  459000   0.53092136    -7.410909    87.296061  0.015848958  0.015150279         2393 
  460000   0.54141213   -7.3971884    87.181838  0.015793811  0.015103281         2462 
  461000   0.53780043   -7.4256923    87.176612  0.015758607  0.015056481         2342 
  462000   0.52821802   -7.4162463    87.201762  0.015729034  0.015009863         2372 
  463000   0.52695699   -7.4436182    87.258369   0.01570525  0.014963387         2410 
  464000   0.52754252   -7.4320395    87.201204  0.015661136  0.014917086         2431 
  465000   0.52483403   -7.4342996     87.17398  0.015622577   0.01487091         2425 
  466000   0.52184984   -7.4592344    87.298295  0.015611283  0.014824942         2442 
  467000   0.51077945   -7.4297158    87.171783  0.015555279  0.014779146         2496 
  468000   0.52415734     -7.46169    87.188522  0.015525022  0.014733354         2504 
  469000   0.52589944   -7.4509107    87.227126  0.015498779  0.014687782         2527 
  470000   0.51365292   -7.4453954     87.14091  0.015450516  0.014642238         2565 
  471000   0.52735887   -7.4369436    87.105311  0.015411414  0.014596843         2550 
  472000    0.5208235   -7.4480521    86.994602  0.015359216  0.014551562         2578 
  473000    0.5124769    -7.461906     87.21476  0.015365532  0.014506443         2550 
  474000    0.4995362   -7.4500852    87.034195   0.01530137  0.014461452         2587 
  475000   0.50752543   -7.4580798    87.198443  0.015297972  0.014416628         2579 
  476000   0.50326199   -7.4757149    86.945821  0.015221607  0.014371879         2689 
  477000   0.50398868   -7.4728752    86.973062  0.015194455  0.014327341         2638 
  478000   0.49284415   -7.4909464    87.095022   0.01518393   0.01428301         2633 
  479000   0.50079597   -7.5029412     87.07435  0.015148634  0.014238814         2718 
  480000   0.49586296   -7.4678525    86.983233  0.015101256  0.014194745         2653 
  481000   0.49596289   -7.4891453    86.933116  0.015061177  0.014150853         2655 
  482000   0.49405442   -7.4962738    87.000598  0.015041597   0.01410708         2699 
  483000   0.49434244   -7.4957608    86.997663  0.015009949   0.01406352         2668 
  484000   0.49591012   -7.4935876    87.040213  0.014986263  0.014020074         2631 
  485000   0.49480905   -7.4937493    86.792792  0.014912851  0.013976788         2655 
  486000   0.49175684   -7.4912566    86.964116  0.014911543  0.013933636         2683 
  487000   0.48349777   -7.5054177    86.814191  0.014855269   0.01389052         2676 
  488000   0.48751289    -7.524942    86.816641  0.014825246   0.01384763         2707 
  489000    0.4856142   -7.5241308    86.967328  0.014820608   0.01380488         2692 
  490000   0.49201686   -7.5231976     86.85127  0.014770624  0.013762363         2660 
  491000    0.4857609   -7.5042716     86.80012   0.01473186  0.013719932         2718 
  492000   0.49383028   -7.5119998    86.830071   0.01470699  0.013677628         2690 
  493000   0.46616737   -7.5258945    86.891045  0.014687465  0.013635511         2652 
  494000   0.48349804    -7.525679    86.901845  0.014659556  0.013593563         2660 
  495000   0.47497153   -7.5026208    86.711018  0.014597815  0.013551709         2697 
  496000   0.47228058   -7.5245073     86.72522   0.01457077  0.013509968         2737 
  497000   0.46842496    -7.519078    86.797457  0.014553564  0.013468356         2680 
  498000    0.4811587    -7.540254    86.804182  0.014525466  0.013426957         2707 
  499000   0.47421175   -7.5317935     86.74698  0.014486804  0.013385705         2694 
  500000   0.45219988   -7.5250715    86.623053  0.014437176  0.013344543         2741 
  501000   0.47830418   -7.5353781    86.838992  0.014444277  0.013303599         2761 
  502000   0.47061581   -7.5529956     86.82965  0.014413953  0.013262735         2752 
  503000   0.47739648   -7.5592549    86.769755  0.014375374  0.013222072         2764 
  504000   0.46426781   -7.5367425     86.67298   0.01433085  0.013181491         2749 
  505000   0.45577246   -7.5454081    86.679364  0.014303525  0.013141074         2701 
  506000   0.46181623   -7.5415987     86.62665  0.014266576  0.013100828         2787 
  507000   0.46254903   -7.5670672    86.719533  0.014253704  0.013060746         2799 
  508000   0.46597077   -7.5577814    86.601488  0.014206281  0.013020817         2772 
  509000   0.45672336   -7.5560191    86.626808  0.014182516  0.012981012         2733 
  510000    0.4566971   -7.5743053    86.629407  0.014155132  0.012941306         2729 
  511000   0.45739366   -7.5737036    86.731907  0.014144147  0.012901786         2789 
  512000   0.45187849   -7.5612835    86.671627   0.01410671  0.012862386         2820 
Loop time of 1073.68 on 48 procs for 500000 steps with 4000 atoms

Performance: 80471.209 tau/day, 465.690 timesteps/s
99.4% CPU use with 48 MPI tasks x no OpenMP threads

MPI task timing breakdown:
Section |  min time  |  avg time  |  max time  |%varavg| %total
---------------------------------------------------------------
Pair    | 65.274     | 69.553     | 77.236     |  36.4 |  6.48
Neigh   | 6.6255     | 6.7777     | 7.2553     |   3.4 |  0.63
Comm    | 56.144     | 62.679     | 67.94      |  37.3 |  5.84
Output  | 0.96569    | 0.96623    | 0.97574    |   0.1 |  0.09
Modify  | 916.42     | 921.96     | 927.09     |   8.2 | 85.87
Other   |            | 11.74      |            |       |  1.09

Nlocal:        83.3333 ave          91 max          77 min
Histogram: 2 2 7 8 7 13 1 7 0 1
Nghost:        1745.40 ave        1760 max        1723 min
Histogram: 1 1 1 6 8 5 8 8 7 3
Neighs:        10520.1 ave       11599 max        9560 min
Histogram: 2 2 6 7 12 7 5 3 3 1
FullNghs:      21039.0 ave       23046 max       19358 min
Histogram: 2 3 7 7 10 7 5 3 3 1

Total # of neighbors = 1009873
Ave neighs/atom = 252.46825
Neighbor list builds = 26996
Dangerous builds = 0

#clear
#
#next RN
#
#jump SELF
Total wall time: 0:17:56
