
units lj                  # Use reduced LJ style units
atom_style atomic         # Uncharged point particles
atom_modify map hash      # Needed for indexing of clusters etc
                          # Used to be able to find where atoms are in relation to each other.

lattice fcc 1.0 spacing 1 1 1
Lattice spacing in x,y,z = 1.5874011 1.5874011 1.5874011
region box block 0 10 0 10 0 10 units lattice
create_box 2 box
Created orthogonal box = (0.0000000 0.0000000 0.0000000) to (15.874011 15.874011 15.874011)
  3 by 4 by 4 MPI processor grid
create_atoms 1 box
Created 4000 atoms
  using lattice units in orthogonal box = (0.0000000 0.0000000 0.0000000) to (15.874011 15.874011 15.874011)
  create_atoms CPU = 0.003 seconds
set type 1 type/fraction 2 0.02 78393
Setting atom values ...
  77 settings made for type/fraction
mass 1 1.0
mass 2 1.0
pair_style lj/cut  3.5
pair_modify tail  yes
pair_coeff 1  1  1.0  1.0   # Intearaction between 1 and 1 set with epsilon = 1 and sigma = 1
pair_coeff 1  2  1.5  0.8
pair_coeff 2  2  0.5  0.88

write_data data.0
System init for write_data ...
Neighbor list info ...
  update every 1 steps, delay 10 steps, check yes
  max neighbors/atom: 2000, page size: 100000
  master list distance cutoff = 3.8
  ghost atom cutoff = 3.8
  binsize = 1.9, bins = 9 9 9
  1 neighbor lists, perpetual/occasional/extra = 1 0 0
  (1) pair lj/cut, perpetual
      attributes: half, newton on
      pair build: half/bin/atomonly/newton
      stencil: half/bin/3d
      bin: standard
WARNING: Not all mixed pair coeffs generated from mixing. Use write_data with 'pair ij' option to store all pair coeffs. (../write_data.cpp:312)


#############################
#   M E L T   S Y S T E M   #
#############################

velocity all create 2.4 8172548 mom yes dist gaussian # Assign velocities
                                                    # Temperature 2.4, random number seed, zero linear momentum
                                                                                # Gaussian distribution

timestep 0.002   # simulation timestep
thermo 1000       # output thermodynamic data every 1000 steps bf 100

# Define a fix  in this case with index 1 applied to all
# particles in the simulation. This fix is for simulations
# in the anisotropic NPT ensemble. Note that we use the MTK
# correction.
fix 1 all npt temp 2.4 2.4 0.1 iso 5.68 5.68 0.5 mtk yes tchain 5 pchain 5 # Use NPT ensemble
                                                                         # Set temperature and pressure and damping
                                                                         # Numbers of thermostats in chain and in barostat
run 10000          # run for 10000 steps
Per MPI rank memory allocation (min/avg/max) = 3.642 | 3.644 | 3.648 Mbytes
Step Temp E_pair E_mol TotEng Press Volume 
       0          2.4   -8.2581388            0   -4.6590388   -2.3989133         4000 
    1000    2.3638646   -4.4686638            0  -0.92375335    5.6238473    5123.2541 
    2000      2.40162   -4.4467823            0  -0.84525291    5.5266877    5157.5712 
    3000    2.4236861   -4.3479794            0  -0.71335919     5.754954    5190.2973 
    4000    2.4587979   -4.4057568            0  -0.71848197    5.7721116    5150.6294 
    5000    2.3724807   -4.3953024            0  -0.83747106    5.9208685    5112.9486 
    6000    2.3897447   -4.4068117            0  -0.82309085    5.9669372    5126.0065 
    7000    2.3791937   -4.4413189            0  -0.87342063    5.7882467    5118.7479 
    8000    2.3899758    -4.405263            0  -0.82119561    5.7355428    5154.2496 
    9000    2.4025435   -4.3985342            0  -0.79561981    5.9370724    5134.7034 
   10000    2.3883257   -4.3459335            0  -0.76434056    5.8577379     5162.786 
Loop time of 2.08253 on 48 procs for 10000 steps with 4000 atoms

Performance: 829760.252 tau/day, 4801.853 timesteps/s
99.6% CPU use with 48 MPI tasks x no OpenMP threads

MPI task timing breakdown:
Section |  min time  |  avg time  |  max time  |%varavg| %total
---------------------------------------------------------------
Pair    | 0.84758    | 0.91704    | 1.0206     |   3.0 | 44.03
Neigh   | 0.1692     | 0.17493    | 0.19514    |   1.0 |  8.40
Comm    | 0.60749    | 0.73696    | 0.81359    |   4.0 | 35.39
Output  | 0.00024857 | 0.00025422 | 0.00031427 |   0.0 |  0.01
Modify  | 0.20203    | 0.2392     | 0.2815     |   4.4 | 11.49
Other   |            | 0.01414    |            |       |  0.68

Nlocal:        83.3333 ave          95 max          75 min
Histogram: 1 2 9 10 6 14 3 1 0 2
Nghost:        1387.35 ave        1429 max        1368 min
Histogram: 7 7 14 8 4 4 0 2 0 2
Neighs:        7366.94 ave        8645 max        6383 min
Histogram: 1 3 4 14 15 4 2 3 1 1

Total # of neighbors = 353613
Ave neighs/atom = 88.403250
Neighbor list builds = 909
Dangerous builds = 242

# Equilibrate just above the melting temperature to avoid step fn in T

fix 1 all npt temp 1.25 1.25 0.1 iso 5.68 5.68 0.5 mtk yes tchain 5 pchain 5
run 2000
Per MPI rank memory allocation (min/avg/max) = 3.643 | 3.644 | 3.648 Mbytes
Step Temp E_pair E_mol TotEng Press Volume 
   10000    2.3883257   -4.3459335            0  -0.76434056    5.8577379     5162.786 
   11000    1.2540736    -5.925051            0   -4.0444109    5.8058387    4260.7498 
   12000    1.2676793   -5.9049375            0    -4.003894     5.750997    4274.1841 
Loop time of 0.452605 on 48 procs for 2000 steps with 4000 atoms

Performance: 763578.902 tau/day, 4418.859 timesteps/s
99.6% CPU use with 48 MPI tasks x no OpenMP threads

MPI task timing breakdown:
Section |  min time  |  avg time  |  max time  |%varavg| %total
---------------------------------------------------------------
Pair    | 0.20359    | 0.21248    | 0.23103    |   1.1 | 46.95
Neigh   | 0.030664   | 0.032162   | 0.035521   |   0.5 |  7.11
Comm    | 0.13357    | 0.15439    | 0.16598    |   1.6 | 34.11
Output  | 5.202e-05  | 5.34e-05   | 6.5099e-05 |   0.0 |  0.01
Modify  | 0.044057   | 0.048958   | 0.055398   |   1.4 | 10.82
Other   |            | 0.004564   |            |       |  1.01

Nlocal:        83.3333 ave          89 max          76 min
Histogram: 4 0 1 9 4 7 9 5 4 5
Nghost:        1579.17 ave        1615 max        1558 min
Histogram: 4 3 11 12 7 4 4 2 0 1
Neighs:        8910.81 ave        9652 max        8071 min
Histogram: 3 2 1 9 6 6 10 3 5 3

Total # of neighbors = 427719
Ave neighs/atom = 106.92975
Neighbor list builds = 141
Dangerous builds = 13

#############################
# L I N E A R  Q U E N C H  #
#############################

# Define solid atoms. This closely follows ten Wolde  Ruiz-Montero and Frenkel  Faraday Discuss  1996  104  93-110
# Compute components of the per-atom q6 vector
compute q6 all orientorder/atom degrees 1 6 components 6 nnn NULL cutoff 1.3 # compute the Q6 parameter.
                                                                             # Use all neighbours within 1.3 unit cell.

# get number of connections
compute coord_number all coord/atom orientorder q6 0.5

# An atom is solid if it has 8 or more connections (of a possible 14)
variable is_solid atom c_coord_number>=8
group solid dynamic all var is_solid    # Must be dynamic to update
dynamic group solid defined

# do clustering
compute cluster solid cluster/atom 1.3 # Create a cluster where all atoms within are solid and max 1.3 units from another member

# define chunks one chunk per cluster
compute clus_chunks solid chunk/atom c_cluster nchunk every compress yes  # Says which atoms are in which chunk

# count the size of each chunk
compute size_chunks solid property/chunk clus_chunks count


# Find the maximum entry in the vector of chunk sizes
variable max_n equal max(c_size_chunks)


# Thermo style which includes this variable
# thermo_style custom step temp pe vol v_max_n

thermo ${N}  # Print the thermo information every 100 steps
thermo 1000  

# Reset the npt fix at a lower temperature (below freezing)
fix 1  all npt temp  ${temp} ${temp}  0.1  iso  5.68  5.68  0.5  mtk yes tchain  5  pchain  5
fix 1  all npt temp  0.45 ${temp}  0.1  iso  5.68  5.68  0.5  mtk yes tchain  5  pchain  5
fix 1  all npt temp  0.45 0.45  0.1  iso  5.68  5.68  0.5  mtk yes tchain  5  pchain  5

dump dmp2 all dcd ${N} traj.dcd
dump dmp2 all dcd 1000 traj.dcd


compute msd all msd com yes
variable twopoint equal c_msd[4]/6/(step*dt+1.0e-6)
fix 9 all vector 10 c_msd[4]
variable fit equal slope(f_9)/6/(10*dt)
thermo_style custom step temp pe c_msd[4] v_twopoint v_fit v_max_n

fix 1 all npt temp 1.25 ${temp} 0.1 iso 5.68 5.68 0.5 mtk yes tchain 5 pchain 5
fix 1 all npt temp 1.25 0.45 0.1 iso 5.68 5.68 0.5 mtk yes tchain 5 pchain 5
run 500000 # 5000000  # Run for this many steps
Neighbor list info ...
  update every 1 steps, delay 10 steps, check yes
  max neighbors/atom: 2000, page size: 100000
  master list distance cutoff = 3.8
  ghost atom cutoff = 3.8
  binsize = 1.9, bins = 9 9 9
  4 neighbor lists, perpetual/occasional/extra = 1 3 0
  (1) pair lj/cut, perpetual
      attributes: half, newton on
      pair build: half/bin/atomonly/newton
      stencil: half/bin/3d
      bin: standard
  (2) compute orientorder/atom, occasional
      attributes: full, newton on
      pair build: full/bin/atomonly
      stencil: full/bin/3d
      bin: standard
  (3) compute coord/atom, occasional
      attributes: full, newton on
      pair build: full/bin/atomonly
      stencil: full/bin/3d
      bin: standard
  (4) compute cluster/atom, occasional
      attributes: full, newton on
      pair build: full/bin/atomonly
      stencil: full/bin/3d
      bin: standard
Per MPI rank memory allocation (min/avg/max) = 9.732 | 9.738 | 9.744 Mbytes
Step Temp PotEng c_msd[4] v_twopoint v_fit v_max_n 
   12000    1.2676793   -5.9049375 8.7090244e-31 6.0479334e-33 8.3333333e+20            4 
   13000    1.2286035   -5.8779926   0.53901336 0.0034552137  0.043790558            1 
   14000    1.2428724   -5.8760111    1.0605627 0.0063128731  0.043264806            1 
   15000    1.2369803   -5.9518905    1.6424418 0.0091246766  0.045280641            1 
   16000    1.2036274   -5.9424935    2.1800239  0.011354291    0.0458555            4 
   17000    1.2633561   -5.9235364    2.6554956  0.013017135  0.045087208            3 
   18000    1.2358399   -5.9203016    3.2042018  0.014834267  0.044695676            4 
   19000    1.2347739     -5.96565     3.805427  0.016690469  0.044744889            3 
   20000     1.228233   -5.9651451    4.2644999  0.017768749  0.044869157            2 
   21000    1.2518465   -5.9638252    4.7522848  0.018858272  0.044522561            3 
   22000    1.2100393   -5.9278617      5.25775  0.019915719  0.044217476            5 
   23000    1.2448252   -5.9680414    5.7719597  0.020912897  0.043888599            3 
   24000    1.2319145   -5.9419565    6.3428708  0.022023857   0.04371189            2 
   25000    1.2254252   -5.9399988    6.9415092  0.023138363  0.043809991            2 
   26000    1.2358988   -5.9255457    7.3809059  0.023656749   0.04383168            6 
   27000    1.1979907   -5.9537548    7.9514243  0.024541433  0.043787973            2 
   28000    1.2183842   -5.9680352     8.551813  0.025451824  0.043945033            2 
   29000     1.241733   -5.9490603    9.0334726  0.025958254  0.044019221            3 
   30000     1.226229   -5.9349323    9.5731038  0.026591955  0.044060726            2 
   31000    1.2139703   -5.9290823    10.108934  0.027174554  0.044130026            2 
   32000    1.2174305   -5.9555053    10.635693  0.027697115  0.044196376            3 
   33000    1.2364872   -5.9852043    11.009453  0.027801649   0.04407622            4 
   34000    1.2342792   -5.9725506    11.478963  0.028134714  0.043916906            4 
   35000    1.1694052   -5.9777411    11.841567  0.028194206  0.043719877            6 
   36000    1.2121228   -5.9581607    12.328662  0.028538569  0.043476728            4 
   37000    1.2304958   -5.9629727    12.914285  0.029086227  0.043298115            3 
   38000    1.1857727   -5.9823937    13.497993  0.029600862  0.043181739            4 
   39000    1.2180553   -5.9915199    14.037613  0.029994899  0.043096097            3 
   40000    1.2285045   -6.0158114    14.462053  0.030129278   0.04301492            3 
   41000    1.1858982   -5.9549547    14.899426  0.030283385  0.042929546            4 
   42000    1.1975134   -5.9732315    15.400424  0.030556397  0.042848535            5 
   43000    1.1860837   -5.9748224    15.818903  0.030656788  0.042742781            2 
   44000    1.1937149   -5.9509134     16.42459  0.031107179  0.042648679            5 
   45000    1.1943425   -5.9382258    16.817665  0.031143824  0.042568909            3 
   46000    1.1877634   -6.0352038     17.44742  0.031607645  0.042492932            2 
   47000    1.2084033   -6.0236196    17.971774  0.031864848  0.042472294            2 
   48000    1.2115817   -5.9571346    18.475291  0.032075157  0.042450001            2 
   49000     1.192016   -6.0173114    18.814562  0.031997554   0.04239316            3 
   50000    1.1975096   -5.9973607      19.3491    0.0322485  0.042330818            6 
   51000    1.1887189   -6.0218317    19.729166  0.032237199  0.042266921            6 
   52000    1.1440685   -6.0383399    20.245783  0.032445165  0.042188386            2 
   53000    1.1998285   -5.9668205    20.715661  0.032571794  0.042110061            3 
   54000    1.1981327    -6.021134    21.084137  0.032537249  0.042021881            2 
   55000    1.1678594   -6.0525278    21.600475  0.032727992  0.041922376            7 
   56000    1.1667694   -6.0476473    22.035176   0.03279044  0.041833825            2 
   57000    1.1733761   -6.0654494    22.598259   0.03303839  0.041759409            5 
   58000    1.2103321    -6.054533    22.989692  0.033031166   0.04168218            7 
   59000    1.1882547   -6.0542319    23.639393  0.033388973  0.041624245            5 
   60000    1.1775169   -6.0429151    24.218492  0.033636794  0.041586151            2 
   61000    1.1468487    -6.040253    24.678011   0.03371313  0.041557204            7 
   62000    1.1758055   -6.0611775     24.96036   0.03354887  0.041507921            8 
   63000    1.1500258   -6.0750178     25.31711   0.03348824  0.041444622            5 
   64000    1.1973916   -6.0561936    25.576528   0.03330277  0.041345543            6 
   65000    1.1797441   -6.0457743    25.994552  0.033326348  0.041233333            5 
   66000    1.1500414   -6.0379284    26.547587  0.033519681  0.041119148            7 
   67000    1.1462298   -6.0292303    26.957747  0.033529536  0.041022097            3 
   68000    1.1624927   -6.0658137    27.423363  0.033607063  0.040935715            2 
   69000     1.155325   -6.0969844    27.818867  0.033597665  0.040850946            3 
   70000    1.1304271   -6.0396801    28.315043  0.033708385  0.040762384            4 
   71000    1.1617631   -6.0465685     28.69648  0.033681315  0.040672605            5 
   72000    1.1608506   -6.0973531    29.024155  0.033592772   0.04058411            5 
   73000    1.1326155   -6.0795409    29.438168  0.033605214  0.040491658            4 
   74000    1.1389659    -6.107996    29.930499  0.033705517  0.040393173            4 
   75000    1.1393331    -6.085942    30.279349  0.033643721  0.040297955            4 
   76000    1.1392047   -6.0855028    30.782313  0.033752536   0.04019614            3 
   77000    1.1536025   -6.0825592    31.154695  0.033717203  0.040104507            3 
   78000    1.1413091   -6.0938773    31.563801   0.03372201  0.040018404            9 
   79000    1.1163805    -6.056259    31.973406  0.033727222  0.039922675            7 
   80000    1.1502609   -6.0971188    32.341375  0.033688932  0.039817588            4 
   81000    1.1462753   -6.0861347    32.794168  0.033738855  0.039717817            4 
   82000    1.1498739   -6.1044342    33.163187  0.033702426  0.039621023            5 
   83000    1.1598115   -6.0806233    33.570803  0.033705626  0.039524649            3 
   84000    1.1540886   -6.1026633    33.912608   0.03364346  0.039430847            4 
   85000    1.1145242   -6.0885912    34.480637  0.033804546  0.039343878            5 
   86000    1.1112719   -6.1228199    34.752065  0.033674481  0.039255645            5 
   87000    1.1316258   -6.1313443    34.986982  0.033512435  0.039158204            4 
   88000    1.1283044   -6.0832534     35.48368   0.03360197  0.039053962            5 
   89000    1.0964588   -6.1305787    35.773622  0.033495901   0.03895217            3 
   90000    1.1238423   -6.1335282    36.200936  0.033519385  0.038854449            4 
   91000    1.1273511   -6.1078111    36.400245  0.033333557  0.038757668            4 
   92000     1.127259   -6.1259339    37.027329  0.033539248  0.038660091            9 
   93000    1.1089394     -6.15264    37.303896   0.03342643  0.038562961            5 
   94000    1.1235381   -6.1226577    37.613457  0.033345263  0.038454216            6 
   95000    1.1236062    -6.121363    37.909318  0.033253788  0.038350015            3 
   96000    1.1558652   -6.1531972    38.334524  0.033276496  0.038245059            5 
   97000    1.1034559   -6.1093358    38.368962  0.032963026  0.038133019            5 
   98000    1.1277981   -6.1101047    38.926598  0.033100849  0.038022527            4 
   99000     1.103012   -6.1705868    39.316504    0.0330947  0.037915819            4 
  100000     1.107707   -6.1321274    39.937177  0.033280981  0.037813931            5 
  101000    1.1011621   -6.1340462     40.24814  0.033208036   0.03771877            7 
  102000     1.094327   -6.1638269    40.333373  0.032952102  0.037613969            4 
  103000    1.0954501   -6.1633749    40.764042  0.032980616  0.037508345            4 
  104000    1.1030107   -6.1584014    41.049689  0.032892379  0.037405145            2 
  105000    1.1032017   -6.1487964    41.500661  0.032937032  0.037299055           10 
  106000    1.0902882   -6.1729777    41.629442  0.032727548  0.037192564            6 
  107000    1.0856406   -6.1797977    42.040252  0.032741629  0.037088663            4 
  108000    1.0720747    -6.177693    42.265364  0.032612163  0.036982305            2 
  109000    1.0802132   -6.1555783    42.645377  0.032603499  0.036872596            2 
  110000    1.1179708   -6.1439537     43.22444  0.032745788  0.036769276            7 
  111000    1.0853435   -6.1954886     43.41074  0.032590645  0.036670875            6 
  112000    1.1151062   -6.1208951     43.73421  0.032540334  0.036567477            3 
  113000    1.0988262   -6.1562095     44.13895  0.032550848  0.036471264            5 
  114000    1.0839567   -6.1914268    44.510849   0.03253717  0.036381427            3 
  115000    1.0784196    -6.196043    44.842482  0.032494552  0.036292264            8 
  116000       1.0865    -6.195701    45.139306  0.032427662  0.036200546            7 
  117000    1.0624206   -6.1835917    45.544159   0.03243886  0.036107479            4 
  118000    1.1021918   -6.2017647    45.910733  0.032422834  0.036019042            4 
  119000    1.0757899   -6.1986239    46.304642   0.03242622  0.035931276            3 
  120000    1.0763134   -6.2178679    46.645964  0.032393031  0.035848421            5 
  121000    1.0679891   -6.2121617    46.951519  0.032335757  0.035769358            4 
  122000    1.0638582   -6.2127154    47.235843   0.03226492  0.035684172            4 
  123000    1.0616725   -6.1871773    47.481335  0.032168926   0.03559803            2 
  124000     1.097804    -6.214725    47.728035  0.032075292  0.035511363            5 
  125000    1.0734776   -6.2058216    48.154212  0.032102808  0.035425256            5 
  126000    1.0599099   -6.1691877    48.503931   0.03207932  0.035341453            2 
  127000    1.0685791   -6.1909926    48.812635  0.032029288  0.035257497            5 
  128000    1.0696971   -6.2195465    49.212505  0.032039391  0.035174575            5 
  129000    1.0768546   -6.2346016    49.313427  0.031856219  0.035086829            3 
  130000    1.0546584   -6.2213592    49.744979  0.031887807  0.034997306            3 
  131000    1.0590562   -6.2477905    49.949841  0.031774708  0.034912543            6 
  132000    1.0734913   -6.2695973    50.531642  0.031901289  0.034831854            7 
  133000    1.0577712   -6.2706947    50.851404  0.031861782  0.034753444            6 
  134000    1.0604876   -6.2527489    51.132858  0.031799041  0.034674317            4 
  135000    1.0533782   -6.2520489    51.525062  0.031805594  0.034597124            2 
  136000    1.0619414   -6.2279366    51.945214  0.031829175  0.034522429            8 
  137000    1.0232377   -6.2659629    52.264108   0.03179082  0.034452589            7 
  138000    1.0334591   -6.2354454    52.478533  0.031689935   0.03438092           10 
  139000    1.0349692   -6.1995194    52.919996  0.031726616  0.034311588            4 
  140000    1.0388435   -6.2921645    53.175875  0.031652306  0.034241117           18 
  141000    1.0783347   -6.2659524    53.305691  0.031504545  0.034168735            7 
  142000    1.0390142   -6.2536592    53.664453  0.031493224  0.034092045            6 
  143000    1.0375947   -6.2926941    53.871272  0.031393515   0.03401739            3 
  144000    1.0451623   -6.2515389    54.143199   0.03133287  0.033940508            2 
  145000    1.0371359   -6.2420005    54.580709  0.031368223   0.03386841            5 
  146000    1.0537987   -6.3041997    54.737472  0.031242849  0.033793774            4 
  147000    1.0518004   -6.2852566    54.952408  0.031152158  0.033717243            7 
  148000    1.0308805   -6.2964717    55.496136  0.031247824  0.033641955           13 
  149000    1.0077795   -6.3358434    55.855135   0.03123889  0.033569267            5 
  150000    1.0291565   -6.3028517    55.984829  0.031102683  0.033498337            3 
  151000    1.0353311   -6.2635332    56.546711  0.031206794  0.033430238            3 
  152000    1.0320978   -6.3063274    56.585102  0.031022534  0.033358272            4 
  153000    1.0227244    -6.296841    56.808504  0.030941451  0.033283996            4 
  154000     1.032716   -6.2982364    56.968825  0.030827286  0.033207581            7 
  155000    1.0146191    -6.323536    57.160294  0.030731341  0.033129822            6 
  156000     1.030478   -6.3438096    57.468953  0.030699227  0.033053181           12 
  157000    1.0038996   -6.3439484    57.565513  0.030554943  0.032975608            5 
  158000    1.0126656   -6.3197919    57.868219  0.030521212  0.032896166            5 
  159000    1.0078162   -6.3118901     58.05555  0.030427437  0.032815859            3 
  160000    1.0345982   -6.3227837    58.111353   0.03026633  0.032734407           19 
  161000    1.0325079   -6.2986416     58.68658  0.030376076  0.032652439            6 
  162000   0.99391739   -6.3409635    58.832478   0.03026362  0.032571292            4 
  163000    1.0016514   -6.3019779    58.987005  0.030156955  0.032490421            4 
  164000    1.0049583   -6.3356499    59.148548  0.030055156  0.032409069           10 
  165000    1.0001102   -6.2985857    59.398838  0.029999413  0.032329122            8 
  166000   0.99210354   -6.3140368    59.601489  0.029920426  0.032248515            4 
  167000    1.0110425   -6.3671167    60.054012  0.029967072  0.032165903            6 
  168000    1.0018588   -6.3386748    60.495872  0.030007873  0.032085675            6 
  169000   0.99643256   -6.3479087    60.690306  0.029926186  0.032009852           10 
  170000   0.97351333   -6.3353226    60.997312  0.029900643  0.031934912            6 
  171000   0.99604434   -6.3462331    60.863141    0.0296604  0.031856948            4 
  172000   0.98620133   -6.3599062    61.353633  0.029725597  0.031777406            3 
  173000   0.99002611   -6.3618932    61.496667  0.029622672  0.031697059            4 
  174000   0.96590721   -6.3581994    61.822149  0.029608309  0.031619335            5 
  175000   0.98265755   -6.3721479    62.162827  0.029601346  0.031544149            5 
  176000    0.9825116   -6.3535551    62.418894    0.0295544  0.031468346            9 
  177000    1.0027149    -6.337994    62.688398  0.029514312   0.03139291            4 
  178000   0.98192705   -6.3475167    62.910557  0.029452508  0.031317239            7 
  179000   0.98000439   -6.3688202    63.455218  0.029541535  0.031244191            3 
  180000   0.99781529    -6.356964    63.614566  0.029451188  0.031174633            4 
  181000   0.97421424   -6.3851076    63.800044  0.029373869   0.03110403            4 
  182000   0.98513609   -6.3644745    63.956956  0.029284321  0.031032196           16 
  183000   0.98409331    -6.393058    64.176558  0.029224298  0.030958693            7 
  184000   0.95618518   -6.3896921    64.418052  0.029174842  0.030887061            8 
  185000   0.96482548   -6.4015992    64.599692   0.02909896  0.030814496           13 
  186000    0.9902442   -6.3999566    64.799652  0.029032102  0.030741205            8 
  187000   0.97550513   -6.4287156    64.848483  0.028898611  0.030667513            8 
  188000   0.94652198   -6.4181992    64.839798  0.028741045  0.030589966            8 
  189000   0.96766839   -6.4152002    65.361309  0.028818919  0.030514449            4 
  190000   0.98977091   -6.4392086    65.630825   0.02878545  0.030438572            8 
  191000   0.97876902   -6.4087417    65.967422  0.028781598   0.03036524            7 
  192000   0.96186026   -6.4260904    65.776467  0.028548814  0.030291578           11 
  193000   0.96235048   -6.3893468    66.567722   0.02874254  0.030219274            8 
  194000   0.96281059    -6.420845    66.634029  0.028622864  0.030148854            7 
  195000   0.98655144    -6.381377    67.096466  0.028673703  0.030078926           10 
  196000   0.96224343    -6.437382    67.093794  0.028526273  0.030009321            8 
  197000   0.94878911   -6.4184352     67.43315  0.028525021  0.029940864            3 
  198000   0.95374637   -6.4521306    67.717784  0.028500751  0.029872919            4 
  199000   0.95265234   -6.4313244    68.245426  0.028578487  0.029807976            6 
  200000   0.96042705   -6.4070538    68.371344   0.02848806  0.029744891            6 
  201000   0.95455313   -6.4316532    68.858046  0.028548112  0.029682138            7 
  202000   0.94636716   -6.4164005    69.117244  0.028513714  0.029620205           10 
  203000   0.94104101   -6.4196739    69.291442  0.028444762  0.029558735            8 
  204000   0.93071683   -6.4354388    69.601329  0.028431915  0.029499781            5 
  205000   0.92178924   -6.4640188    69.622251  0.028301728  0.029441373            4 
  206000   0.96032866   -6.4462212    70.053383  0.028338747  0.029380864           13 
  207000   0.94073818   -6.4657128    70.126101   0.02823112  0.029321196            6 
  208000   0.93298708   -6.4899896     70.11208  0.028089775  0.029260205            8 
  209000   0.91990673    -6.438641    70.269481  0.028018134  0.029198012            7 
  210000   0.92590966   -6.4405745    70.622282  0.028024715  0.029134939           10 
  211000   0.93243071   -6.4815107    70.647572  0.027901885  0.029072864           15 
  212000   0.92738803    -6.471336    70.954291  0.027890838  0.029010379           12 
  213000   0.93579188    -6.493688     71.20305  0.027857218  0.028948292           15 
  214000   0.89905336   -6.4920232    71.324728  0.027774427  0.028885335            9 
  215000   0.92671645   -6.4774916    71.516517   0.02771958  0.028821137           12 
  216000    0.9030887   -6.4954611    71.757501  0.027684221  0.028758434            7 
  217000   0.91731439   -6.4703943    71.814793  0.027578645  0.028694201            8 
  218000   0.93088241   -6.4664232    71.970319   0.02751159   0.02862876            7 
  219000   0.90816534   -6.4773028     72.20968  0.027477047  0.028565427            3 
  220000   0.92992236   -6.4649057     72.30181  0.027387049  0.028501353            5 
  221000   0.92571172   -6.5054805    72.621678   0.02738374  0.028437308            9 
  222000   0.90859593   -6.4956987    72.960276  0.027387491  0.028374204            6 
  223000   0.89654466   -6.5417986     72.84795  0.027222702  0.028312044            8 
  224000   0.91350333   -6.4737314    73.267898  0.027257402  0.028249719           10 
  225000    0.9093422   -6.4837632    73.441725  0.027200639  0.028187574            6 
  226000   0.89299462     -6.51581    73.906184  0.027251543   0.02812568           11 
  227000   0.90797002   -6.4963016    73.763742    0.0270792  0.028064665           13 
  228000   0.89352305   -6.5211065     73.96042  0.027032317  0.028002275            9 
  229000   0.90451884   -6.5071885     74.03694  0.026942118  0.027938776           15 
  230000   0.88620376   -6.4999194    74.260323  0.026905914  0.027875221           10 
  231000   0.90356272   -6.5441165    74.031167   0.02670677  0.027810465           16 
  232000   0.91962572   -6.5183018    74.708033  0.026834782  0.027746406           11 
  233000   0.89754502   -6.5414215    74.644378  0.026696845  0.027683557            6 
  234000   0.88909675   -6.5024689    75.011161  0.026713376  0.027621571            8 
  235000   0.91067981   -6.5495193    75.142028  0.026646109   0.02755987           13 
  236000   0.89123112    -6.539849    75.262527  0.026575751  0.027499543            5 
  237000   0.91079445   -6.5200236    75.437899  0.026525281  0.027438227           11 
  238000   0.88982681   -6.5700927    75.608794  0.026473667  0.027377039           10 
  239000   0.87480779     -6.53775    75.802041  0.026430279  0.027315341           13 
  240000   0.90379513   -6.5741976    76.056654  0.026408561  0.027253413            9 
  241000   0.86335338   -6.5525979    76.363469  0.026405072  0.027192709            3 
  242000   0.88028542   -6.5630106    76.355533  0.026293227  0.027131596           11 
  243000   0.89744645   -6.5776911    76.404521  0.026201825  0.027069834           14 
  244000   0.87072829   -6.5761374    76.504388  0.026128548  0.027007637            8 
  245000   0.86379787   -6.6010121    76.599103  0.026054117  0.026944659            9 
  246000    0.8654306   -6.6057259    76.725313   0.02599096  0.026880761            6 
  247000   0.87357366   -6.5603529    77.070817    0.0260023  0.026818304            6 
  248000   0.89401283   -6.5906809    77.313987  0.025979162  0.026757686           12 
  249000   0.88848209   -6.5825708    77.268461  0.025859592  0.026695784           12 
  250000   0.88683302   -6.5538007    77.486797  0.025828932  0.026633856           15 
  251000   0.87080938   -6.5663188    77.378466  0.025690062  0.026572856           15 
  252000    0.8558698   -6.5705982    77.754202  0.025712368  0.026511306           11 
  253000   0.85391472   -6.5830082    77.976165  0.025683849  0.026450251           14 
  254000   0.84361336   -6.6316617    78.053934  0.025608246   0.02638909           15 
  255000   0.85619883    -6.621753    78.324156  0.025596129  0.026327023            8 
  256000   0.88100358   -6.5935797    78.385977  0.025516269  0.026264864            5 
  257000   0.84000635   -6.6268577    77.908421  0.025262134  0.026202237           11 
  258000   0.86096973   -6.6209119    78.414323  0.025327624  0.026138261            5 
  259000   0.86948585   -6.6196329    78.283364  0.025187698  0.026074811            9 
  260000   0.84890143   -6.6083993     78.85402  0.025273724  0.026012108           15 
  261000   0.86071739   -6.5978797    78.958673  0.025210304  0.025950277            9 
  262000   0.83645963   -6.6296018    79.173034  0.025182263  0.025889029           20 
  263000   0.85165262   -6.6451578    79.231585  0.025105065  0.025827597           12 
  264000   0.84283096   -6.6407959    79.223231  0.025007333  0.025764646           13 
  265000   0.83774783    -6.594269     79.46877  0.024990179  0.025703135           15 
  266000   0.83869826   -6.5842758    79.451075  0.024890688  0.025640917           14 
  267000    0.8342791   -6.6349826    79.861214  0.024925472  0.025579873            8 
  268000   0.82396024   -6.6385253    79.945986  0.024858826  0.025519653            7 
  269000   0.83964291   -6.6466121    80.092001  0.024811648  0.025459774           10 
  270000   0.84346749    -6.637468     80.24761  0.024767781  0.025399131            6 
  271000   0.83649304   -6.6640328    79.940111   0.02458183  0.025337637           10 
  272000   0.82063217   -6.6431755    80.156335  0.024557701  0.025275367           15 
  273000   0.83583249   -6.6215157    80.536896  0.024583912  0.025213136            6 
  274000    0.8346591    -6.668883    80.580446  0.024507435  0.025151556           10 
  275000   0.82380679   -6.6557594    80.498658  0.024393533   0.02509092            9 
  276000   0.82857954   -6.6732077    80.701771  0.024366477  0.025029991            7 
  277000   0.82553219   -6.6475806    81.015201  0.024372804  0.024969449           14 
  278000   0.81955952   -6.6661634    81.068404   0.02430108  0.024909026           17 
  279000   0.83606003   -6.6255588     81.43397  0.024323169  0.024848902            8 
  280000   0.84588043   -6.7111195    80.986032  0.024102986   0.02478824            8 
  281000   0.81112902   -6.6746247    81.314015  0.024114477  0.024726903            8 
  282000   0.82068082   -6.6944397     81.56403  0.024102846  0.024665807            9 
  283000   0.80746107   -6.7047888    81.556641  0.024015501  0.024604301           16 
  284000   0.83611368   -6.6845627    81.969582  0.024052107  0.024544093           15 
  285000   0.82159206   -6.6976283    81.466728  0.023820681   0.02448303           18 
  286000   0.79419651    -6.729663    81.557271  0.023763774  0.024421292           20 
  287000   0.81911373   -6.6838017    81.885914  0.023776398  0.024360525           13 
  288000    0.8106813   -6.6809334    82.040854  0.023738673  0.024299524           20 
  289000   0.81251423   -6.6965758    82.344434   0.02374407    0.0242394           45 
  290000   0.79252075   -6.7025855    82.095478  0.023590655  0.024178819           34 
  291000   0.79637076   -6.7064023    82.424029  0.023603674  0.024118108           17 
  292000   0.78738122    -6.736426    82.602018  0.023573635  0.024057889           27 
  293000   0.78373243   -6.7114416    82.551421  0.023478789  0.023998044           25 
  294000   0.79327801   -6.7541555    82.493888  0.023382621  0.023937411           17 
  295000   0.80316961   -6.7369769    82.639358  0.023344452  0.023877003           13 
  296000   0.80806081     -6.75182    82.750914  0.023296992   0.02381668           15 
  297000   0.78821607   -6.7322244     83.00213  0.023289037  0.023756721           32 
  298000   0.78122071   -6.7492587    83.041428  0.023221876  0.023696687           34 
  299000   0.79309659   -6.7370124    82.827249  0.023084517  0.023635737           14 
  300000   0.79417699   -6.7447647    82.552659  0.022931294  0.023573842           23 
  301000   0.78474893   -6.7443543    82.893126   0.02294937  0.023511895           23 
  302000   0.78819767   -6.7270857    82.809981  0.022850436  0.023450316           16 
  303000   0.79587384   -6.7381108    83.188459  0.022879114  0.023388938           18 
  304000   0.79846286   -6.7386677    83.230636  0.022815415   0.02332775           22 
  305000   0.79850175   -6.7416787     83.16681  0.022723172  0.023265993           21 
  306000   0.76892377   -6.7740881    83.249285  0.022671374  0.023204257           15 
  307000   0.77803708   -6.7617777    83.557449  0.022681175  0.023143003           18 
  308000   0.77324251   -6.7748821    83.503347  0.022592897  0.023081984           15 
  309000   0.78189599   -6.7911048    83.357769   0.02248052  0.023020379           17 
  310000    0.7747916   -6.7890106     83.54625  0.022458669   0.02295905           16 
  311000   0.77254891   -6.7707207    83.611978  0.022404067  0.022897989           70 
  312000   0.76789322   -6.7728251    83.598464   0.02232865  0.022837259           55 
  313000   0.75233985    -6.773268    83.980304  0.022358973  0.022777042           18 
  314000   0.77060893   -6.7797767    84.143783  0.022331153  0.022717228           14 
  315000   0.75238165   -6.8205556    84.282467  0.022296949  0.022657701           23 
  316000   0.76595505   -6.7989707    84.458229   0.02227274  0.022599386           25 
  317000   0.76530108   -6.7938772    84.506816  0.022215251  0.022541525            7 
  318000   0.75982079   -6.7649791    84.704218  0.022197122  0.022483304           19 
  319000   0.75449521    -6.828322    84.450221  0.022061186  0.022425186           14 
  320000   0.76186235   -6.8124773    84.735312  0.022066487  0.022367778           17 
  321000   0.75651657   -6.8059953    84.694208  0.021987074  0.022309936           47 
  322000   0.76678282   -6.8320762    84.739042  0.021930394  0.022252105           40 
  323000   0.73290588    -6.836722    84.649954  0.021839513  0.022194031           26 
  324000   0.75340214   -6.8291189    85.157014  0.021902524  0.022136845           42 
  325000   0.75921287   -6.8367658    85.025986  0.021801535  0.022079128           23 
  326000   0.74661297   -6.8298834    85.143919  0.021764806  0.022020698           22 
  327000   0.76345684   -6.8351799    85.038693   0.02167143  0.021962497           49 
  328000   0.75030341   -6.8310028    84.993165  0.021593792  0.021904314           40 
  329000   0.74307924   -6.8468772    85.158427  0.021570017  0.021846207           31 
  330000   0.76812557   -6.8327749    85.364632  0.021556725  0.021788502           30 
  331000   0.72729062   -6.8568699    85.325967  0.021481865  0.021731252           47 
  332000   0.75131728   -6.8478166    85.152077  0.021373513  0.021673748           81 
  333000   0.74762809   -6.8719353    85.150877  0.021309028  0.021615406           77 
  334000   0.74274282   -6.8948141      85.3762  0.021301447   0.02155693           83 
  335000   0.74132741   -6.8554311     85.21111  0.021196793  0.021498398           59 
  336000   0.73393895   -6.8670406    85.446701  0.021192138  0.021439776           82 
  337000   0.73950996   -6.8938234    85.109008  0.021045749  0.021381074          269 
  338000   0.72763387   -6.8465178    85.350443  0.021043009   0.02132227          101 
  339000   0.72709153   -6.8873457    85.529182  0.021024873  0.021264244           86 
  340000   0.72186554   -6.8868804    85.513276  0.020959136  0.021206381          101 
  341000   0.71286063   -6.8880461    85.625435  0.020925082  0.021148733           56 
  342000   0.71465797   -6.8769717    85.603868  0.020858642  0.021090872           53 
  343000   0.72673013   -6.8883806    85.688266  0.020818335  0.021033468           57 
  344000   0.73266587   -6.9253239    85.682508  0.020756422  0.020975607           51 
  345000   0.73108756   -6.8481308     85.50839    0.0206542  0.020917512           38 
  346000   0.71533633   -6.9190818    85.525622  0.020598657  0.020859403           76 
  347000   0.71698949   -6.8833247    85.646632  0.020568355  0.020800945           65 
  348000   0.70391755   -6.8978998    85.534491  0.020482397  0.020742673           84 
  349000   0.70640354   -6.8914298    85.571024  0.020432432  0.020684158           76 
  350000   0.70777313   -6.9290381    85.542219  0.020367195  0.020625955           63 
  351000   0.72505072   -6.9075988    85.574932  0.020316935  0.020567702          104 
  352000   0.71166551   -6.9256824    85.609582   0.02026742  0.020509519           61 
  353000   0.70455888   -6.9047235    85.889253  0.020276028  0.020451588           54 
  354000   0.70803192   -6.9306567    85.909411  0.020223496  0.020393818           26 
  355000   0.69995257   -6.9502914    85.985258  0.020184333  0.020336483           64 
  356000   0.69687453   -6.9281741    85.977425  0.020125802  0.020279037           32 
  357000   0.68511795   -6.9562351    85.905767    0.0200527  0.020221261           32 
  358000   0.69065229   -6.9216314    86.026146  0.020024708  0.020163658           63 
  359000    0.6929648   -6.9706983    85.912447  0.019942537  0.020106082           96 
  360000   0.69993119   -6.9357768    86.030992  0.019914581  0.020048466           83 
  361000   0.69428189   -6.9330476    85.793256  0.019804537  0.019990852          138 
  362000   0.69412545   -6.9597901    85.934165  0.019782266  0.019933609          158 
  363000   0.69070123    -6.951292    86.161373   0.01977993  0.019876465           99 
  364000   0.68835225   -6.9597528    85.996098  0.019687751   0.01981977          194 
  365000   0.69376984   -6.9539603     86.06198  0.019648854  0.019762836          132 
  366000   0.66614362   -6.9620337    86.173762   0.01962062  0.019705931          100 
  367000   0.67672263   -6.9736849    86.340812  0.019605089  0.019649886          117 
  368000   0.68533273   -6.9878382    86.277473  0.019537471   0.01959393          266 
  369000   0.69263326   -6.9857266    86.017518  0.019425817  0.019537901          117 
  370000   0.67668442   -6.9576707    86.156777  0.019404679  0.019482151          231 
  371000   0.69161473   -7.0042651    86.194023  0.019360742  0.019426153          152 
  372000   0.67643375   -6.9822086    86.455288  0.019367224  0.019370441           92 
  373000   0.67205184   -6.9916118    86.365761    0.0192953  0.019314937           93 
  374000   0.67607773   -6.9923286    86.243531  0.019216473  0.019259524          152 
  375000   0.69141576   -7.0013064    86.323969  0.019183104  0.019204064          143 
  376000   0.67406626   -6.9948555    86.395725  0.019147989  0.019148615          360 
  377000   0.67417069   -7.0212259    86.231418  0.019060879  0.019093232          435 
  378000   0.66441471   -7.0406474    86.314202  0.019028704  0.019037891          215 
  379000   0.65327221   -7.0070427    86.229552  0.018959884  0.018982451          444 
  380000   0.65375975   -7.0165837    86.211694  0.018906073  0.018926882          566 
  381000    0.6551114   -7.0406881    86.180446  0.018849616  0.018871252          633 
  382000   0.66981058   -7.0521426      86.3936  0.018846771  0.018816061          495 
  383000   0.66401022   -7.0492106    86.457607   0.01881149  0.018761149          685 
  384000   0.65324651   -7.0497645    86.309892  0.018730445  0.018706357          716 
  385000   0.65456754   -7.0601291    86.197203  0.018657403  0.018651609          859 
  386000   0.65578617   -7.0679199    86.272718  0.018625371  0.018596796          888 
  387000   0.63992406   -7.0416361    86.283495  0.018579564  0.018542193          996 
  388000   0.65516714    -7.077883    86.284332  0.018531858  0.018487762         1093 
  389000   0.64505318   -7.0948412    86.214657  0.018469292  0.018433133         1142 
  390000   0.63986993   -7.0676568    86.400204  0.018461582  0.018378625         1146 
  391000   0.66037059   -7.0828812    86.268427   0.01838628  0.018324297         1237 
  392000   0.64270784   -7.0877051    86.298114  0.018345688  0.018269893         1175 
  393000   0.65431918   -7.1126537    86.108663  0.018258834  0.018215557         1338 
  394000   0.63627003   -7.1005902     86.32331  0.018257891  0.018161285         1382 
  395000   0.65093317   -7.1176519    86.117779  0.018168308  0.018107337         1365 
  396000   0.64500431   -7.1268587    86.302522  0.018161305   0.01805353         1414 
  397000   0.62817838   -7.1341857    86.349619  0.018125445  0.017999804         1417 
  398000   0.64717382    -7.140454    86.400161  0.018090486  0.017946207         1538 
  399000   0.65065871     -7.12608    86.269991   0.01801796   0.01789264         1470 
  400000   0.64089755   -7.1644048    86.143559  0.017946575  0.017838978         1579 
  401000   0.64280475   -7.1690374    86.117049  0.017896311  0.017785368         1631 
  402000   0.61739708   -7.1613424    86.097701  0.017847782  0.017731898         1708 
  403000   0.61426304   -7.1748074     86.19554  0.017823726  0.017678407         1787 
  404000   0.61346498   -7.1849119    86.363959  0.017814348  0.017625241         1873 
  405000    0.6274486   -7.1949114    86.050683  0.017705902  0.017571996         1929 
  406000   0.62508294   -7.2019515    86.366582  0.017727131  0.017518875         1915 
  407000   0.61963064   -7.1977683     86.12518  0.017634148  0.017466001         2056 
  408000   0.61362638   -7.2022965    86.254436  0.017617328  0.017413082         2084 
  409000   0.63419141   -7.2195911    86.010065  0.017524463  0.017360237         2114 
  410000   0.60538322   -7.2296687    86.028822  0.017485533  0.017307354         2202 
  411000   0.61711563   -7.2461293    86.172731  0.017472168  0.017254559         2195 
  412000   0.61425531   -7.2268329    86.004019  0.017395635  0.017201823         2139 
  413000   0.60980482   -7.2393002    85.885503  0.017329601  0.017149241         2168 
  414000   0.59925415   -7.2296458    86.036114  0.017318058  0.017096697         2238 
  415000   0.60709175   -7.2433563    86.108545  0.017290872  0.017044328         2308 
  416000   0.59982706   -7.2472073    85.842586  0.017196031  0.016991999         2381 
  417000   0.59876093    -7.262179    86.000628  0.017186377  0.016939639         2402 
  418000   0.61488234   -7.2829946    85.971204  0.017139395  0.016887397         2504 
  419000   0.59379616   -7.2375468    86.067426  0.017117626  0.016835531         2428 
  420000   0.60027502   -7.2612497    85.935211  0.017050637  0.016783701         2514 
  421000   0.59988528   -7.2754544    86.021538  0.017027224  0.016731848         2553 
  422000   0.58884625   -7.2831645    85.693277  0.016922053  0.016680083         2514 
  423000   0.58093463   -7.2884543    85.846642  0.016912262  0.016628412         2573 
  424000   0.59336118   -7.2832838    85.959355  0.016894527  0.016577032         2560 
  425000   0.58733004   -7.2944305    85.904671  0.016844053  0.016525632         2585 
  426000   0.57940301   -7.3116064    85.892035  0.016802041  0.016474457         2583 
  427000   0.59046085   -7.3024892    85.750692  0.016735108  0.016423359         2642 
  428000   0.57674125   -7.2999801    85.925777  0.016730097  0.016372315         2552 
  429000   0.59921109   -7.3134888    85.820355  0.016670621  0.016321507         2581 
  430000   0.59506268   -7.3064047    85.759796  0.016620115   0.01627077         2597 
  431000   0.57603224   -7.3360598    85.878429  0.016604491  0.016220241         2474 
  432000   0.58271611   -7.3372857    85.749574  0.016541199  0.016169892         2583 
  433000    0.5727385   -7.3387912     85.81552  0.016515689  0.016119639         2548 
  434000   0.56946378   -7.3268344    85.690276  0.016453586  0.016069516         2602 
  435000    0.5783822   -7.3081893    85.587624  0.016396097  0.016019574         2599 
  436000   0.57667952   -7.3370508    85.707841  0.016381468  0.015969795         2658 
  437000   0.57451059   -7.3372138     85.74387  0.016350852  0.015920132         2680 
  438000   0.56469455   -7.3437683    85.660605   0.01629768  0.015870578         2588 
  439000   0.56490744   -7.3265708    85.788573  0.016284847  0.015821328         2646 
  440000   0.56238869   -7.3609137    85.722086  0.016235244  0.015772152         2625 
  441000   0.55789037   -7.3479396    85.775276   0.01620848  0.015723106         2740 
  442000   0.57167687   -7.3573731    85.697007  0.016157053  0.015674112         2782 
  443000   0.56884689    -7.352365    85.677249  0.016116864   0.01562529         2791 
  444000   0.56020499   -7.3733446    85.632171  0.016072104   0.01557647         2800 
  445000   0.55745864   -7.3641448    85.520033  0.016014987  0.015527808         2739 
  446000   0.56380181   -7.3754312    85.564764  0.015987437   0.01547938         2697 
  447000   0.56720047   -7.3607098     85.64515  0.015966657  0.015431121         2722 
  448000   0.55389621   -7.3801724    85.638232  0.015929731  0.015383001         2740 
  449000   0.55856674    -7.376164    85.479411  0.015864776   0.01533501         2749 
  450000   0.54199029   -7.3788068    85.470052  0.015827787  0.015287001         2798 
  451000   0.55065145   -7.3839689    85.585428  0.015814011  0.015239252         2786 
  452000   0.54027733   -7.3851221    85.603847   0.01578242  0.015191675         2769 
  453000    0.5424673   -7.3940856    85.627528  0.015751937  0.015144351         2782 
  454000   0.53769103   -7.3931489    85.407844  0.015676917  0.015096911         2819 
  455000   0.53852927   -7.3951438    85.287655   0.01562045  0.015049584         2836 
  456000   0.55083014   -7.4120499    85.432856  0.015612729  0.015002469         2850 
  457000    0.5443072   -7.4033621    85.266752  0.015548277  0.014955556         2874 
  458000   0.53581438   -7.4139126     85.42666  0.015543424  0.014908747         2912 
  459000   0.53224457   -7.4236195    85.409926  0.015506522  0.014862072         2939 
  460000   0.52844503   -7.4237482    85.440302  0.015478316  0.014815419         2904 
  461000   0.51931945   -7.4204119     85.45358   0.01544714  0.014769105         2875 
  462000   0.52870522   -7.4386757     85.44776  0.015412655  0.014722836         2947 
  463000    0.5239196   -7.4319194    85.245672  0.015342993  0.014676668         2971 
  464000   0.53579017   -7.4164145    85.349706  0.015328611   0.01463057         2916 
  465000   0.52976903    -7.430143    85.356552  0.015296873  0.014584739         2938 
  466000   0.50953742   -7.4389263    85.444037  0.015279692  0.014539067         2896 
  467000    0.5397908   -7.4505644      85.2857  0.015218719  0.014493577         2938 
  468000   0.52186156   -7.4298411     85.12556  0.015157685  0.014448208         2945 
  469000   0.51094743   -7.4401036    85.230245  0.015143967  0.014403001         2959 
  470000   0.51566738    -7.455683    85.200228  0.015106423  0.014357919         2974 
  471000   0.51133854   -7.4498427    85.129177  0.015061779  0.014312955         2947 
  472000   0.52198748    -7.478065    85.260688  0.015053087  0.014268104         3010 
  473000   0.51100691    -7.442991    85.225294  0.015015027  0.014223516         2991 
  474000   0.51548669   -7.4602713    85.333224  0.015002325  0.014179079         3026 
  475000   0.50053384   -7.4525578    85.193765  0.014946274  0.014134794         3031 
  476000   0.51344465   -7.4469688    85.354884  0.014943082  0.014090807         3018 
  477000    0.5163118   -7.4619715    85.166212  0.014878793  0.014046967         2994 
  478000   0.51413999   -7.4568943    85.253591  0.014862899  0.014003295         3022 
  479000   0.50093261   -7.4607393    85.285111  0.014837354  0.013959846         2997 
  480000   0.50456047   -7.4787837    85.307157   0.01481027  0.013916423         3056 
  481000   0.49109907   -7.4871025    85.123172  0.014747604  0.013873125         2973 
  482000    0.4963255   -7.4889586    85.282429  0.014744542  0.013830033         2976 
  483000   0.50738937   -7.4878247     85.19002  0.014698071  0.013787122         2973 
  484000   0.48975723   -7.4917109    85.066261  0.014646395  0.013744315         3054 
  485000   0.49268115   -7.4994373    85.169546  0.014633943  0.013701695         3041 
  486000   0.48765655   -7.4946444    85.111492  0.014593877  0.013659146         2989 
  487000   0.50011591   -7.4952137    85.127714  0.014566686  0.013616687         3033 
  488000   0.48691842   -7.4912863    85.192888  0.014547966  0.013574389         3022 
  489000   0.48706637   -7.4892511     84.93488  0.014474247  0.013532276         3070 
  490000   0.49309664   -7.5087643    85.167118  0.014484204   0.01349028         3064 
  491000   0.48412883   -7.4894351     85.02125  0.014429947  0.013448465         3078 
  492000   0.48594053   -7.5111211    85.024278  0.014401131  0.013406741         3089 
  493000   0.47941532   -7.5005827    84.956224  0.014360416  0.013365254         3089 
  494000     0.487148   -7.5125081    85.053241  0.014347713  0.013323827         3121 
  495000   0.47434065   -7.5194709    85.113864  0.014328933   0.01328259         3085 
  496000   0.46788875   -7.5163448    85.070588  0.014292774   0.01324156         3107 
  497000   0.47722881   -7.5082163    85.084378  0.014266328  0.013200643         3105 
  498000   0.46803435   -7.5190079    85.138529  0.014246742  0.013159939         3104 
  499000   0.47135161    -7.523566    85.015006  0.014197563  0.013119353         3080 
  500000   0.46797604   -7.5381753    84.981243   0.01416354  0.013078936         3107 
  501000   0.46461785   -7.5192538    85.020849  0.014141858   0.01303869         3105 
  502000   0.47332349   -7.5231337    85.091793  0.014125464   0.01299857         3075 
  503000   0.47083851   -7.5262486     84.81286   0.01405117  0.012958597         3114 
  504000   0.46818536    -7.533384    84.980518  0.014051012  0.012918768         3181 
  505000   0.46662107   -7.5411374    84.984742  0.014023885  0.012879016         3170 
  506000   0.45495383   -7.5377082    84.848381  0.013973712  0.012839485         3152 
  507000   0.44681283    -7.539495    85.128568  0.013992204  0.012800055         3162 
  508000   0.45445331   -7.5328241    84.890231  0.013925563   0.01276088         3139 
  509000   0.46665061   -7.5425897    84.899379  0.013899702   0.01272175         3172 
  510000   0.45182579   -7.5266869    84.803812  0.013856832  0.012682808         3132 
  511000   0.44737177   -7.5492257    84.836953   0.01383512  0.012643962         3142 
  512000   0.45747198   -7.5464427    84.923696  0.013822216  0.012605254         3157 
Loop time of 1072.11 on 48 procs for 500000 steps with 4000 atoms

Performance: 80588.853 tau/day, 466.371 timesteps/s
99.4% CPU use with 48 MPI tasks x no OpenMP threads

MPI task timing breakdown:
Section |  min time  |  avg time  |  max time  |%varavg| %total
---------------------------------------------------------------
Pair    | 64.992     | 66.872     | 69.524     |  11.7 |  6.24
Neigh   | 6.5401     | 6.7183     | 6.8973     |   2.8 |  0.63
Comm    | 55.124     | 60.36      | 64.598     |  27.3 |  5.63
Output  | 0.93806    | 0.93849    | 0.94841    |   0.1 |  0.09
Modify  | 915.43     | 923.74     | 930.75     |  13.0 | 86.16
Other   |            | 13.48      |            |       |  1.26

Nlocal:        83.3333 ave          90 max          78 min
Histogram: 3 2 4 8 8 15 5 1 1 1
Nghost:        1745.67 ave        1763 max        1735 min
Histogram: 5 11 6 6 3 7 5 1 3 1
Neighs:        10457.1 ave       11273 max        9719 min
Histogram: 2 4 7 6 7 8 5 5 2 2
FullNghs:      20914.0 ave       22630 max       19573 min
Histogram: 4 2 8 8 8 8 5 3 1 1

Total # of neighbors = 1003874
Ave neighs/atom = 250.96850
Neighbor list builds = 26980
Dangerous builds = 0

#clear
#
#next RN
#
#jump SELF
Total wall time: 0:17:55
